     Program PWSCF v.6.7GPU starts on 15Sep2021 at 17:13:36

     R & G space division:  proc/nbgrp/npool/nimage =      10
     Reading input from /storage/home/hcoda1/3/ntian30/research/carbon/CxH_vib/H2O_calc/ads_slab/CH2NHNH2O_a/out_0005/pw.inp
Warning: card &CELL ignored
Warning: card   CELL_DYNAMICS='IPI', ignored
Warning: card / ignored

     Current dimensions of program PWSCF are:
     Max number of different atomic species (ntypx) = 10
     Max number of k-points (npk) =  40000
     Max angular momentum in pseudopotentials (lmaxx) =  3
     Presently no symmetry can be used with electric field

     Message from routine cell_base_init:
     DEPRECATED: use true lattice parameter, not A to a.u. conversion factor

     IMPORTANT: XC functional enforced from input :
     Exchange-correlation= BEEF-VDW
                           (   1   4  43  14   2   0   0)
     Any further DFT definition will be discarded
     Please, verify this is what you really want

  @ DRIVER MODE: Connecting to
 qe_1139763_2852610.sched-torque.pace.gatech.edueul1vtbw_scratch
  using UNIX socket
  @ DRIVER MODE: Message from server: STATUS
  @ DRIVER MODE: Message from server: INIT
  @ DRIVER MODE: Receiving replica           0          -1
  @ DRIVER MODE: Receiving encoded integer          25
  @ DRIVER MODE:  SCF:  T  FORCE:  T  STRESS:  F  VC:  F  ENSEMBLE:  F
  @ DRIVER MODE:  SCF:  T  FORCE:  T  STRESS:  F  VC:  F  ENSEMBLE:  F

     Using Slab Decomposition

     bravais-lattice index     =            0
     lattice parameter (alat)  =       1.8897  a.u.
     unit-cell volume          =    6658.9804 (a.u.)^3
     number of atoms/cell      =           56
     number of atomic types    =            5
     number of electrons       =       403.00
     number of Kohn-Sham states=          211
     kinetic-energy cutoff     =      29.3995  Ry
     charge density cutoff     =     293.9946  Ry
     scf convergence threshold =      7.3E-08
     mixing beta               =       0.0500
     number of iterations used =            8  plain     mixing
     Exchange-correlation= BEEF-VDW
                           (   1   4  43  14   2   0   0)

     celldm(1)=   1.889726  celldm(2)=   0.000000  celldm(3)=   0.000000
     celldm(4)=   0.000000  celldm(5)=   0.000000  celldm(6)=   0.000000

     crystal axes: (cart. coord. in units of alat)
               a(1) = (   6.579727   0.000000   0.000000 )
               a(2) = (  -0.000775   5.961596   0.000000 )
               a(3) = (   0.000000   0.000000  25.155947 )

     reciprocal axes: (cart. coord. in units 2 pi/alat)
               b(1) = (  0.151982  0.000020  0.000000 )
               b(2) = (  0.000000  0.167740  0.000000 )
               b(3) = (  0.000000  0.000000  0.039752 )

     PseudoPot. # 1 for Ti read from file:
     /storage/coda1/p-amedford6/0/shared/rich_project_chbe-medford/medford-share/data/pseudos_module/espresso/nninc/pbe/van/Ti.UPF
     MD5 check sum: 8e4df49b7f0d34bbd5052bf3f5ea0213
     Pseudo is Ultrasoft, Zval = 12.0
     Generated by new atomic code, or converted to UPF format
     Using radial grid of  851 points,  6 beta functions with:
                l(1) =   0
                l(2) =   0
                l(3) =   1
                l(4) =   1
                l(5) =   2
                l(6) =   2
     Q(r) pseudized with  8 coefficients,  rinner =    1.000   1.000   1.000
                                                       1.000   1.000

     PseudoPot. # 2 for O  read from file:
     /storage/coda1/p-amedford6/0/shared/rich_project_chbe-medford/medford-share/data/pseudos_module/espresso/nninc/pbe/van/O.UPF
     MD5 check sum: 78c19812648e8988a0fe644b0f25305e
     Pseudo is Ultrasoft, Zval =  6.0
     Generated by new atomic code, or converted to UPF format
     Using radial grid of  737 points,  4 beta functions with:
                l(1) =   0
                l(2) =   0
                l(3) =   1
                l(4) =   1
     Q(r) pseudized with  8 coefficients,  rinner =    0.800   0.800   0.800

     PseudoPot. # 3 for H  read from file:
     /storage/coda1/p-amedford6/0/shared/rich_project_chbe-medford/medford-share/data/pseudos_module/espresso/nninc/pbe/van/H.UPF
     MD5 check sum: b5ee9d7bfd3a09ee7748110bda690ff7
     Pseudo is Ultrasoft, Zval =  1.0
     Generated by new atomic code, or converted to UPF format
     Using radial grid of  615 points,  1 beta functions with:
                l(1) =   0
     Q(r) pseudized with  8 coefficients,  rinner =    0.800

     PseudoPot. # 4 for N  read from file:
     /storage/coda1/p-amedford6/0/shared/rich_project_chbe-medford/medford-share/data/pseudos_module/espresso/nninc/pbe/van/N.UPF
     MD5 check sum: 90d10febe142ad51ac9d5be1deb811c4
     Pseudo is Ultrasoft, Zval =  5.0
     Generated by new atomic code, or converted to UPF format
     Using radial grid of  729 points,  4 beta functions with:
                l(1) =   0
                l(2) =   0
                l(3) =   1
                l(4) =   1
     Q(r) pseudized with  8 coefficients,  rinner =    0.800   0.800   0.800

     PseudoPot. # 5 for C  read from file:
     /storage/coda1/p-amedford6/0/shared/rich_project_chbe-medford/medford-share/data/pseudos_module/espresso/nninc/pbe/van/C.UPF
     MD5 check sum: 1a69bf6b8db32088f5b2163dbdb77a27
     Pseudo is Ultrasoft, Zval =  4.0
     Generated by new atomic code, or converted to UPF format
     Using radial grid of  721 points,  4 beta functions with:
                l(1) =   0
                l(2) =   0
                l(3) =   1
                l(4) =   1
     Q(r) pseudized with  8 coefficients,  rinner =    0.800   0.800   0.800

     atomic species   valence    mass     pseudopotential
        Ti1           12.00    47.86700     Ti( 1.00)
        O1             6.00    15.99900     O ( 1.00)
        H1             1.00     1.00800     H ( 1.00)
        N1             5.00    14.00700     N ( 1.00)
        C1             4.00    12.01100     C ( 1.00)

     No symmetry found

   Cartesian axes

     site n.     atom                  positions (alat units)
         1           Ti1 tau(   1) = (   0.0004258   2.9801865   6.0000000  )
         2           Ti1 tau(   2) = (   3.2906075   1.4906267   6.0002472  )
         3           O1  tau(   3) = (   0.0006271   0.0005054   7.9858123  )
         4           O1  tau(   4) = (   3.2906025   0.0005020   7.3038282  )
         5           O1  tau(   5) = (   4.5942328   1.4918067   9.2879030  )
         6           O1  tau(   6) = (   1.9868534   1.4903216   9.2879459  )
         7           Ti1 tau(   7) = (   3.2907910   2.8959150   9.1758416  )
         8           Ti1 tau(   8) = (   0.0015273   1.4827037   9.2680791  )
         9           O1  tau(   9) = (   3.2960012   0.0062018  11.3595187  )
        10           O1  tau(  10) = (   0.0116148   5.9584955  10.6183126  )
        11           O1  tau(  11) = (   1.2731109   1.5057875  12.6314550  )
        12           O1  tau(  12) = (   5.2959999   1.4755877  12.6679080  )
        13           Ti1 tau(  13) = (   0.0553992   2.9538365  12.5526742  )
        14           Ti1 tau(  14) = (   3.3268292   1.5427496  12.5634199  )
        15           O1  tau(  15) = (   0.1371361   5.9015051  14.6217027  )
        16           O1  tau(  16) = (   3.1880369   0.0098958  13.9252199  )
        17           O1  tau(  17) = (   4.6462182   1.4014471  15.8552565  )
        18           O1  tau(  18) = (   2.0822703   1.5558083  16.1249119  )
        19           Ti1 tau(  19) = (   3.3548958   3.0525267  15.8597497  )
        20           Ti1 tau(  20) = (   0.0948755   1.3182250  15.7908873  )
        21           O1  tau(  21) = (   3.2904802   0.0005063   4.7018136  )
        22           O1  tau(  22) = (   0.0722171   0.0319689  17.1393915  )
        23           O1  tau(  23) = (   1.3043587   1.4918075   6.0039043  )
        24           O1  tau(  24) = (   5.2767064   1.4903225   6.0039473  )
        25           Ti1 tau(  25) = (   0.0000382   5.9609847   6.0000000  )
        26           Ti1 tau(  26) = (   3.2902200   4.4714249   6.0002472  )
        27           O1  tau(  27) = (   0.0002396   2.9813036   7.9858123  )
        28           O1  tau(  28) = (   3.2902150   2.9813002   7.3038282  )
        29           O1  tau(  29) = (   4.5938453   4.4726049   9.2879030  )
        30           O1  tau(  30) = (   1.9864658   4.4711199   9.2879459  )
        31           Ti1 tau(  31) = (   3.2891106   5.8743827   9.1763621  )
        32           Ti1 tau(  32) = (   0.0006254   4.4649316   9.2693709  )
        33           O1  tau(  33) = (   3.2982667   2.9897935  11.3544942  )
        34           O1  tau(  34) = (   0.0092240   2.9805883  10.6323155  )
        35           O1  tau(  35) = (   1.2737041   4.4504026  12.6113924  )
        36           O1  tau(  36) = (   5.2903739   4.4874249  12.6576873  )
        37           Ti1 tau(  37) = (   6.5697415   5.9260651  12.4959683  )
        38           Ti1 tau(  38) = (   3.3125242   4.5024033  12.5372123  )
        39           O1  tau(  39) = (   0.0674008   2.9793056  14.8363759  )
        40           O1  tau(  40) = (   3.2999477   2.9756493  13.9369993  )
        41           O1  tau(  41) = (   4.6108370   4.5787535  15.7719701  )
        42           O1  tau(  42) = (   2.0428421   4.3627697  16.1441833  )
        43           Ti1 tau(  43) = (   3.3552955   0.0804576  15.7648105  )
        44           Ti1 tau(  44) = (   6.5672415   4.5273692  15.9765751  )
        45           O1  tau(  45) = (   3.2900926   2.9813045   4.7018136  )
        46           O1  tau(  46) = (   1.3039711   4.4726057   6.0039043  )
        47           O1  tau(  47) = (   5.2763189   4.4711207   6.0039473  )
        48           H1  tau(  48) = (   4.1035413   2.4672077  18.5546977  )
        49           N1  tau(  49) = (   5.6961598   3.2907635  17.7856741  )
        50           C1  tau(  50) = (   6.4968133   2.7471819  18.6454045  )
        51           H1  tau(  51) = (   6.1325458   2.1374441  19.4677963  )
        52           H1  tau(  52) = (   0.9799315   2.9096255  18.5325614  )
        53           N1  tau(  53) = (   4.3409097   3.1788467  17.8642182  )
        54           O1  tau(  54) = (   3.3174094   5.8609012  18.0981057  )
        55           H1  tau(  55) = (   3.6736973   4.9388346  18.2201127  )
        56           H1  tau(  56) = (   2.3597147   5.7972335  18.2603650  )

     number of k points=    10  Fermi-Dirac smearing, width (Ry)=  0.0073
                       cart. coord. in units 2pi/alat
        k(    1) = (   0.0000000   0.0000000   0.0000000), wk =   0.1250000
        k(    2) = (   0.0000000   0.0419351   0.0000000), wk =   0.2500000
        k(    3) = (   0.0000000  -0.0838702   0.0000000), wk =   0.1250000
        k(    4) = (   0.0379955   0.0000049   0.0000000), wk =   0.2500000
        k(    5) = (   0.0379955   0.0419400   0.0000000), wk =   0.2500000
        k(    6) = (   0.0379955  -0.0838652   0.0000000), wk =   0.2500000
        k(    7) = (   0.0379955  -0.0419301   0.0000000), wk =   0.2500000
        k(    8) = (  -0.0759910  -0.0000099   0.0000000), wk =   0.1250000
        k(    9) = (  -0.0759910   0.0419252   0.0000000), wk =   0.2500000
        k(   10) = (  -0.0759910  -0.0838800   0.0000000), wk =   0.1250000

     Initial potential from superposition of free atoms

     starting charge  386.99914, renormalised to  403.00000

     negative rho (up, down):  1.703E-02 0.000E+00

     %%%%%%%%%%%%%%%%%%%%%%%%%%%%%%%%%%%%%%%%%%%%%%%%%%%%%%%%%%%%%%%%%%%%%%%%
     %                                                                      %
     % You are using vdW-DF, which was implemented by the Thonhauser group. %
     % Please cite the following two papers that made this development      %
     % possible and the two reviews that describe the various versions:     %
     %                                                                      %
     %   T. Thonhauser et al., PRL 115, 136402 (2015).                      %
     %   T. Thonhauser et al., PRB 76, 125112 (2007).                       %
     %   K. Berland et al., Rep. Prog. Phys. 78, 066501 (2015).             %
     %   D.C. Langreth et al., J. Phys.: Condens. Matter 21, 084203 (2009). %
     %                                                                      %
     %                                                                      %
     % If you are calculating the stress with vdW-DF, please also cite:     %
     %                                                                      %
     %   R. Sabatini et al., J. Phys.: Condens. Matter 24, 424209 (2012).   %
     %                                                                      %
     %%%%%%%%%%%%%%%%%%%%%%%%%%%%%%%%%%%%%%%%%%%%%%%%%%%%%%%%%%%%%%%%%%%%%%%%

     Adding external electric field

     Computed dipole along edir(3) :
        Dipole              -12.3729 Ry au,        -31.4487 Debye
        Dipole field         -0.0233 Ry au,

        Potential amp.        2.1644 Ry
        Total length         46.3494 bohr

     Starting wfcs are  305 atomic wfcs
  @ DRIVER MODE: Message from server: STATUS
  @ DRIVER MODE: Message from server: POSDATA
  @ DRIVER MODE: Reading and sharing cell
  @ DRIVER MODE: Reading and sharing positions
  @ DRIVER MODE: Received positions

     Self-consistent Calculation

     iteration #  1     ecut=    29.40 Ry     beta= 0.05
     Davidson diagonalization with overlap
     c_bands:  4 eigenvalues not converged
     c_bands:  3 eigenvalues not converged
     c_bands:  3 eigenvalues not converged
     c_bands:  1 eigenvalues not converged
     c_bands:  1 eigenvalues not converged
     c_bands:  4 eigenvalues not converged
     c_bands:  3 eigenvalues not converged
     ethr =  1.00E-05,  avg # of iterations = 27.4

[...]

     total energy              =   -2355.27716705 Ry
     estimated scf accuracy    <    7011.02318349 Ry

     iteration #  2     ecut=    29.40 Ry     beta= 0.05
     Davidson diagonalization with overlap
     ethr =  1.00E-02,  avg # of iterations = 24.9

[...]

     iteration # 40     ecut=    29.40 Ry     beta= 0.05
     Davidson diagonalization with overlap
     c_bands:  1 eigenvalues not converged
     ethr =  1.05E-06,  avg # of iterations = 12.3

[...]

     total energy              =   -2973.97644042 Ry
     estimated scf accuracy    <       0.00000017 Ry

     iteration # 62     ecut=    29.40 Ry     beta= 0.05
     Davidson diagonalization with overlap
     ethr =  2.33E-11,  avg # of iterations = 11.5

     negative rho (up, down):  1.700E-02 0.000E+00

     Adding external electric field

     Computed dipole along edir(3) :
        Dipole                0.9086 Ry au,          2.3096 Debye
        Dipole field          0.0017 Ry au,

        Potential amp.       -0.1590 Ry
        Total length         46.3494 bohr

     End of self-consistent calculation

          k = 0.0000 0.0000 0.0000 ( 18029 PWs)   bands (ev):

   -55.6370 -55.6029 -55.5185 -55.4826 -55.4763 -55.4633 -55.4415 -55.4295
   -55.4243 -55.4069 -55.3902 -55.3892 -55.3556 -55.2390 -54.6232 -54.5892
   -32.1227 -32.0243 -31.9708 -31.9653 -31.9576 -31.9281 -31.9141 -31.8956
   -31.8826 -31.7896 -31.7833 -31.7774 -31.7497 -31.7445 -31.7392 -31.7045
   -31.6943 -31.6811 -31.6760 -31.6682 -31.6615 -31.6599 -31.6441 -31.6412
   -31.6350 -31.6253 -31.6230 -31.6186 -31.6130 -31.6073 -31.6023 -31.5931
   -31.5830 -31.5807 -31.5802 -31.5782 -31.5725 -31.5371 -31.5280 -31.5132
   -31.4398 -31.3674 -31.0301 -30.9417 -30.9193 -30.8472 -30.7607 -30.6493
   -18.4413 -17.7451 -16.3001 -16.1096 -15.8844 -15.7824 -15.7425 -15.5692
   -15.4386 -15.3958 -15.2692 -15.2039 -15.1802 -15.1613 -15.1474 -15.1150
   -15.0915 -15.0678 -15.0660 -15.0466 -15.0222 -14.9995 -14.9714 -14.9535
   -14.9111 -14.7858 -14.7776 -14.7660 -14.7283 -14.6909 -14.2921 -13.1236
   -13.0070 -12.3896  -7.9464  -6.2117  -5.4409  -4.8418  -3.6715  -3.5795
    -3.5471  -3.5239  -3.4467  -3.3282  -3.2302  -3.0354  -2.9266  -2.8966
    -2.8762  -2.7886  -2.7070  -2.6657  -2.5631  -2.5308  -2.5205  -2.4761
    -2.4211  -2.4063  -2.3763  -2.3630  -2.3270  -2.1941  -2.1750  -2.1368
    -2.0251  -2.0086  -2.0006  -1.9585  -1.9548  -1.9242  -1.9140  -1.8961
    -1.8794  -1.8677  -1.8002  -1.7184  -1.6864  -1.6366  -1.5822  -1.5769
    -1.2747  -1.2576  -1.1906  -1.1587  -1.0881  -1.0547  -1.0404  -1.0255
    -0.9945  -0.8942  -0.8043  -0.7854  -0.7223  -0.6612  -0.5620  -0.5474
    -0.4466  -0.3978  -0.3923  -0.3792  -0.3475  -0.2886  -0.2313  -0.1748
    -0.1247  -0.0425   0.0121   0.0208   0.0631   0.1064   0.1361   0.1945
     0.2569   0.2843   0.3175   0.3326   0.3740   0.4340   0.4557   0.4684
     0.5473   0.5867   0.6120   0.7100   0.7197   0.7586   0.8299   1.0146
     1.0602   1.1996   1.3381   1.4014   1.4674   1.5935   1.8638   1.9714
     2.0176   3.4532   3.5871   3.6080   3.6436   3.7154   3.7619   3.9348
     4.0306   4.0526   4.1138

[...]

          k = 0.0380-0.0419 0.0000 ( 17876 PWs)   bands (ev):

[...]

          k =-0.0760-0.0000 0.0000 ( 17886 PWs)   bands (ev):

[...]

          k =-0.0760-0.0839 0.0000 ( 17948 PWs)   bands (ev):

   -55.6199 -55.6198 -55.5037 -55.4970 -55.4610 -55.4570 -55.4463 -55.4459
   -55.4103 -55.4046 -55.4044 -55.3731 -55.3719 -55.2408 -54.6063 -54.6059
   -31.9380 -31.9379 -31.9136 -31.9135 -31.8834 -31.8475 -31.8187 -31.8001
   -31.7895 -31.7744 -31.7652 -31.7527 -31.7484 -31.7397 -31.7394 -31.7321
   -31.7315 -31.7187 -31.7165 -31.7098 -31.6837 -31.6814 -31.6762 -31.6702
   -31.6556 -31.6533 -31.6523 -31.6387 -31.6328 -31.6308 -31.6274 -31.6271
   -31.6231 -31.6203 -31.6197 -31.6154 -31.6135 -31.6026 -31.5871 -31.5352
   -31.4498 -31.4467 -30.9322 -30.9319 -30.8431 -30.8427 -30.8041 -30.8038
   -18.4338 -17.7457 -15.8510 -15.6071 -15.5934 -15.5568 -15.5379 -15.4188
   -15.3737 -15.3698 -15.3489 -15.2936 -15.2584 -15.2215 -15.1898 -15.1721
   -15.1486 -15.1376 -15.0957 -15.0926 -15.0856 -15.0636 -15.0221 -15.0115
   -14.9872 -14.9669 -14.9623 -14.9499 -14.9171 -14.7494 -14.6402 -13.1088
   -13.1087 -12.4055  -7.9062  -6.1964  -5.4987  -4.7646  -3.1480  -3.0666
    -3.0201  -2.8001  -2.7558  -2.7381  -2.7015  -2.6417  -2.5884  -2.5712
    -2.5527  -2.5247  -2.5150  -2.4622  -2.4365  -2.4105  -2.3860  -2.3699
    -2.3607  -2.3473  -2.3212  -2.3019  -2.2798  -2.2697  -2.2466  -2.2358
    -2.2138  -2.2055  -2.1915  -2.1689  -2.0807  -1.9984  -1.8974  -1.8377
    -1.7940  -1.7936  -1.7633  -1.7344  -1.7065  -1.7018  -1.6625  -1.6333
    -1.5622  -1.5029  -1.3191  -1.3054  -1.2608  -1.1764  -1.1750  -1.1279
    -1.1188  -1.0674  -1.0402  -0.9934  -0.9440  -0.9110  -0.8231  -0.6697
    -0.6211  -0.6012  -0.5953  -0.5800  -0.5393  -0.5249  -0.4726  -0.4553
    -0.4389  -0.3734  -0.3420  -0.3379  -0.2875  -0.2693  -0.1573  -0.0588
    -0.0316   0.0223   0.0618   0.1812   0.2939   0.3639   0.4640   0.4786
     0.4968   0.5505   0.6587   0.6685   0.7136   0.7759   0.8414   0.8472
     0.8775   0.9416   0.9535   0.9903   1.7642   1.7660   1.8132   1.8376
     1.8377   3.8619   3.9025   3.9532   3.9593   3.9831   4.0332   4.0413
     4.0714   4.1221   4.1382

     the Fermi energy is     3.4856 ev

!    total energy              =   -2973.97648494 Ry
     estimated scf accuracy    <       0.00000005 Ry
     smearing contrib. (-TS)   =      -0.01978029 Ry
     internal energy E=F+TS    =   -2973.95670465 Ry

     The total energy is F=E-TS. E is the sum of the following terms:
     one-electron contribution =  -24368.21895765 Ry
     hartree contribution      =   12278.66249999 Ry
     xc contribution           =    -494.13768734 Ry
     ewald contribution        =    9609.73588226 Ry
     electric field correction =       0.00155810 Ry

     convergence has been achieved in  62 iterations

     Forces acting on atoms (cartesian axes, Ry/au):

     atom    1 type  1   force =     0.00015968   -0.00031481    0.09441533
     atom    2 type  1   force =    -0.00007584   -0.00076840   -0.17586632
     atom    3 type  2   force =     0.00005790   -0.00019234   -0.02182056
     atom    4 type  2   force =     0.00003775   -0.00134524    0.05333085
     atom    5 type  2   force =    -0.00871349   -0.00017947    0.00366963
     atom    6 type  2   force =     0.01038075    0.00047215    0.00302328
     atom    7 type  1   force =    -0.00045060    0.00081581   -0.00103334
     atom    8 type  1   force =     0.00044807    0.00750988    0.00863499
     atom    9 type  2   force =     0.00047134    0.00015152    0.00005850
     atom   10 type  2   force =    -0.00262936    0.00131926   -0.01723470
     atom   11 type  2   force =    -0.00008951    0.00009043   -0.00040546
     atom   12 type  2   force =     0.00030821    0.00007433   -0.00008018
     atom   13 type  1   force =    -0.00041441   -0.00038042   -0.00023081
     atom   14 type  1   force =     0.00036148    0.00011069    0.00022774
     atom   15 type  2   force =     0.00012899   -0.00003671   -0.00027055
     atom   16 type  2   force =     0.00020857    0.00019284    0.00008465
     atom   17 type  2   force =    -0.00007485   -0.00003676    0.00017113
     atom   18 type  2   force =     0.00004119   -0.00006106   -0.00003064
     atom   19 type  1   force =    -0.00043886    0.00044427   -0.00073986
     atom   20 type  1   force =     0.00017647   -0.00016669   -0.00001446
     atom   21 type  2   force =     0.00006554   -0.00000426    0.10323191
     atom   22 type  2   force =    -0.00025893   -0.00037992   -0.00006066
     atom   23 type  2   force =    -0.07155588   -0.00011436   -0.02735453
     atom   24 type  2   force =     0.07149186    0.00037397   -0.02736748
     atom   25 type  1   force =     0.00004536   -0.00020856    0.09441034
     atom   26 type  1   force =    -0.00012998   -0.00029562   -0.17599203
     atom   27 type  2   force =     0.00003699   -0.00018879   -0.02072131
     atom   28 type  2   force =     0.00009427   -0.00112180    0.05372117
     atom   29 type  2   force =    -0.00879826   -0.00002019    0.00343456
     atom   30 type  2   force =     0.01031230    0.00036725    0.00286551
     atom   31 type  1   force =    -0.00032466    0.00465983    0.00190293
     atom   32 type  1   force =     0.00042748   -0.00852695    0.00858265
     atom   33 type  2   force =    -0.00003747    0.00002831   -0.00001303
     atom   34 type  2   force =    -0.00403294   -0.00112286   -0.01182928
     atom   35 type  2   force =     0.00014089    0.00007782    0.00033439
     atom   36 type  2   force =     0.00053355    0.00006242   -0.00022314
     atom   37 type  1   force =     0.00061922   -0.00019211   -0.00000859
     atom   38 type  1   force =     0.00022808   -0.00018184   -0.00010544
     atom   39 type  2   force =    -0.00013930   -0.00004309   -0.00019269
     atom   40 type  2   force =     0.00048352    0.00000316    0.00031304
     atom   41 type  2   force =    -0.00011190    0.00055602    0.00003958
     atom   42 type  2   force =     0.00015023    0.00019597   -0.00010290
     atom   43 type  1   force =    -0.00027502   -0.00026269   -0.00019508
     atom   44 type  1   force =     0.00026431    0.00051376    0.00089481
     atom   45 type  2   force =     0.00005139    0.00000078    0.10330334
     atom   46 type  2   force =    -0.07155355   -0.00004146   -0.02734713
     atom   47 type  2   force =     0.07149198    0.00035442   -0.02737033
     atom   48 type  3   force =    -0.00155851   -0.00742535    0.00671602
     atom   49 type  4   force =     0.00063162    0.00034412   -0.00038054
     atom   50 type  5   force =    -0.00025585   -0.00169222   -0.00103157
     atom   51 type  3   force =    -0.00039939    0.00043646    0.00102535
     atom   52 type  3   force =    -0.00006309   -0.00027746    0.00000319
     atom   53 type  4   force =     0.00169516    0.00666000   -0.00635714
     atom   54 type  2   force =     0.00041742   -0.00058372    0.00080122
     atom   55 type  3   force =    -0.00043084    0.00035496   -0.00047790
     atom   56 type  3   force =     0.00085094   -0.00000529   -0.00033846

     Total force =     0.364058     Total SCF correction =     0.000762
  @ DRIVER MODE: Message from server: STATUS
  @ DRIVER MODE: Message from server: GETFORCE
  @ DRIVER MODE: Returning v,forces,stress,ensemble

     Writing output data file ./calc.save/
  @ DRIVER MODE: Message from server: EXIT
  @ DRIVE MODE: Exiting

     General routines

     Parallel routines

   This run was terminated on:  17:31:20  15Sep2021

   JOB DONE.