     Program PWSCF v.6.7GPU starts on 22Sep2021 at 18:35: 8

     R & G space division:  proc/nbgrp/npool/nimage =      10
     Reading input from /storage/home/hcoda1/3/ntian30/research/carbon/CxH_vib/H2O_calc/ads_slab/CH3OHO_a/out_0007/pw.inp
Warning: card &CELL ignored
Warning: card   CELL_DYNAMICS='IPI', ignored
Warning: card / ignored

     Current dimensions of program PWSCF are:
     Max number of different atomic species (ntypx) = 10
     Max number of k-points (npk) =  40000
     Max angular momentum in pseudopotentials (lmaxx) =  3
     Presently no symmetry can be used with electric field

     Message from routine cell_base_init:
     DEPRECATED: use true lattice parameter, not A to a.u. conversion factor

     IMPORTANT: XC functional enforced from input :
     Exchange-correlation= BEEF-VDW
                           (   1   4  43  14   2   0   0)
     Any further DFT definition will be discarded
     Please, verify this is what you really want

  @ DRIVER MODE: Connecting to
 qe_1139763_2937320.sched-torque.pace.gatech.edu40edixth_scratch
  using UNIX socket
  @ DRIVER MODE: Message from server: STATUS
  @ DRIVER MODE: Message from server: INIT
  @ DRIVER MODE: Receiving replica           0          -1
  @ DRIVER MODE: Receiving encoded integer          25
  @ DRIVER MODE:  SCF:  T  FORCE:  T  STRESS:  F  VC:  F  ENSEMBLE:  F
  @ DRIVER MODE:  SCF:  T  FORCE:  T  STRESS:  F  VC:  F  ENSEMBLE:  F

     Using Slab Decomposition

     bravais-lattice index     =            0
     lattice parameter (alat)  =       1.8897  a.u.
     unit-cell volume          =    6658.9804 (a.u.)^3
     number of atoms/cell      =           54
     number of atomic types    =            4
     number of electrons       =       398.00
     number of Kohn-Sham states=          209
     kinetic-energy cutoff     =      29.3995  Ry
     charge density cutoff     =     293.9946  Ry
     scf convergence threshold =      7.3E-08
     mixing beta               =       0.0500
     number of iterations used =            8  plain     mixing
     Exchange-correlation= BEEF-VDW
                           (   1   4  43  14   2   0   0)

     celldm(1)=   1.889726  celldm(2)=   0.000000  celldm(3)=   0.000000
     celldm(4)=   0.000000  celldm(5)=   0.000000  celldm(6)=   0.000000

     crystal axes: (cart. coord. in units of alat)
               a(1) = (   6.579727   0.000000   0.000000 )
               a(2) = (  -0.000775   5.961596   0.000000 )
               a(3) = (   0.000000   0.000000  25.155947 )

     reciprocal axes: (cart. coord. in units 2 pi/alat)
               b(1) = (  0.151982  0.000020  0.000000 )
               b(2) = (  0.000000  0.167740  0.000000 )
               b(3) = (  0.000000  0.000000  0.039752 )

     PseudoPot. # 1 for Ti read from file:
     /storage/coda1/p-amedford6/0/shared/rich_project_chbe-medford/medford-share/data/pseudos_module/espresso/nninc/pbe/van/Ti.UPF
     MD5 check sum: 8e4df49b7f0d34bbd5052bf3f5ea0213
     Pseudo is Ultrasoft, Zval = 12.0
     Generated by new atomic code, or converted to UPF format
     Using radial grid of  851 points,  6 beta functions with:
                l(1) =   0
                l(2) =   0
                l(3) =   1
                l(4) =   1
                l(5) =   2
                l(6) =   2
     Q(r) pseudized with  8 coefficients,  rinner =    1.000   1.000   1.000
                                                       1.000   1.000

     PseudoPot. # 2 for O  read from file:
     /storage/coda1/p-amedford6/0/shared/rich_project_chbe-medford/medford-share/data/pseudos_module/espresso/nninc/pbe/van/O.UPF
     MD5 check sum: 78c19812648e8988a0fe644b0f25305e
     Pseudo is Ultrasoft, Zval =  6.0
     Generated by new atomic code, or converted to UPF format
     Using radial grid of  737 points,  4 beta functions with:
                l(1) =   0
                l(2) =   0
                l(3) =   1
                l(4) =   1
     Q(r) pseudized with  8 coefficients,  rinner =    0.800   0.800   0.800

     PseudoPot. # 3 for C  read from file:
     /storage/coda1/p-amedford6/0/shared/rich_project_chbe-medford/medford-share/data/pseudos_module/espresso/nninc/pbe/van/C.UPF
     MD5 check sum: 1a69bf6b8db32088f5b2163dbdb77a27
     Pseudo is Ultrasoft, Zval =  4.0
     Generated by new atomic code, or converted to UPF format
     Using radial grid of  721 points,  4 beta functions with:
                l(1) =   0
                l(2) =   0
                l(3) =   1
                l(4) =   1
     Q(r) pseudized with  8 coefficients,  rinner =    0.800   0.800   0.800

     PseudoPot. # 4 for H  read from file:
     /storage/coda1/p-amedford6/0/shared/rich_project_chbe-medford/medford-share/data/pseudos_module/espresso/nninc/pbe/van/H.UPF
     MD5 check sum: b5ee9d7bfd3a09ee7748110bda690ff7
     Pseudo is Ultrasoft, Zval =  1.0
     Generated by new atomic code, or converted to UPF format
     Using radial grid of  615 points,  1 beta functions with:
                l(1) =   0
     Q(r) pseudized with  8 coefficients,  rinner =    0.800

     atomic species   valence    mass     pseudopotential
        Ti1           12.00    47.86700     Ti( 1.00)
        O1             6.00    15.99900     O ( 1.00)
        C1             4.00    12.01100     C ( 1.00)
        H1             1.00     1.00800     H ( 1.00)

     No symmetry found

   Cartesian axes

     site n.     atom                  positions (alat units)
         1           Ti1 tau(   1) = (   0.0004258   2.9801865   6.0000000  )
         2           Ti1 tau(   2) = (   3.2906075   1.4906267   6.0002472  )
         3           O1  tau(   3) = (   0.0006271   0.0005054   7.9858123  )
         4           O1  tau(   4) = (   3.2906025   0.0005020   7.3038282  )
         5           O1  tau(   5) = (   4.5942328   1.4918067   9.2879030  )
         6           O1  tau(   6) = (   1.9868534   1.4903216   9.2879459  )
         7           Ti1 tau(   7) = (   3.2957662   3.1068914   9.2181075  )
         8           Ti1 tau(   8) = (   0.0157633   1.6119101   9.3474628  )
         9           O1  tau(   9) = (   3.3075722   0.0245345  11.3221904  )
        10           O1  tau(  10) = (   0.0080709   0.0223756  10.5933645  )
        11           O1  tau(  11) = (   1.2996580   1.5014007  12.6293879  )
        12           O1  tau(  12) = (   5.3220639   1.4985920  12.6296061  )
        13           Ti1 tau(  13) = (   0.0338638   3.0995910  12.8036746  )
        14           Ti1 tau(  14) = (   3.3037623   1.5692239  12.4279754  )
        15           O1  tau(  15) = (   0.0261714   0.0103614  14.6808343  )
        16           O1  tau(  16) = (   3.3158872   5.9294016  13.9235834  )
        17           O1  tau(  17) = (   4.5845781   1.5190771  16.0542726  )
        18           O1  tau(  18) = (   2.0543804   1.5366111  16.0227792  )
        19           Ti1 tau(  19) = (   3.3281905   2.9581697  15.6655982  )
        20           Ti1 tau(  20) = (   0.0947853   1.4300879  15.9722461  )
        21           O1  tau(  21) = (   3.2904802   0.0005063   4.7018136  )
        22           O1  tau(  22) = (   0.0746355   0.0166105  17.2029963  )
        23           O1  tau(  23) = (   1.3043587   1.4918075   6.0039043  )
        24           O1  tau(  24) = (   5.2767064   1.4903225   6.0039473  )
        25           Ti1 tau(  25) = (   0.0000382   5.9609847   6.0000000  )
        26           Ti1 tau(  26) = (   3.2902200   4.4714249   6.0002472  )
        27           O1  tau(  27) = (   0.0002396   2.9813036   7.9858123  )
        28           O1  tau(  28) = (   3.2902150   2.9813002   7.3038282  )
        29           O1  tau(  29) = (   4.5938453   4.4726049   9.2879030  )
        30           O1  tau(  30) = (   1.9864658   4.4711199   9.2879459  )
        31           Ti1 tau(  31) = (   3.3049890   0.1224192   9.1815931  )
        32           Ti1 tau(  32) = (   0.0115838   4.5621182   9.3618056  )
        33           O1  tau(  33) = (   3.3056077   2.9569042  11.2892548  )
        34           O1  tau(  34) = (   0.0073068   3.0072357  10.5542745  )
        35           O1  tau(  35) = (   1.3032543   4.4799722  12.6367586  )
        36           O1  tau(  36) = (   5.3275811   4.4862388  12.6364370  )
        37           Ti1 tau(  37) = (   0.0060541   0.1153383  12.6179110  )
        38           Ti1 tau(  38) = (   3.3135592   4.6638430  12.6816895  )
        39           O1  tau(  39) = (   0.0323206   2.9919573  14.6814448  )
        40           O1  tau(  40) = (   3.3290587   2.9835885  13.8850256  )
        41           O1  tau(  41) = (   4.5809508   4.4372854  16.0867525  )
        42           O1  tau(  42) = (   2.0525355   4.4234120  16.0327814  )
        43           Ti1 tau(  43) = (   3.4083040   5.9395600  16.2643712  )
        44           Ti1 tau(  44) = (   0.1061243   4.5568233  16.0547075  )
        45           O1  tau(  45) = (   3.2900926   2.9813045   4.7018136  )
        46           O1  tau(  46) = (   1.3039711   4.4726057   6.0039043  )
        47           O1  tau(  47) = (   5.2763189   4.4711207   6.0039473  )
        48           C1  tau(  48) = (   6.0247352   2.9430639  18.6208924  )
        49           O1  tau(  49) = (   0.0029984   2.9830681  17.3098104  )
        50           H1  tau(  50) = (   4.9427965   2.8012130  18.5644550  )
        51           H1  tau(  51) = (   6.4567215   2.1053551  19.1708771  )
        52           H1  tau(  52) = (   6.2362830   3.8810018  19.1352789  )
        53           O1  tau(  53) = (   3.2195589   0.0134334  18.0862892  )
        54           H1  tau(  54) = (   2.3313237   0.1261415  18.4590370  )

     number of k points=    10  Fermi-Dirac smearing, width (Ry)=  0.0073
                       cart. coord. in units 2pi/alat
        k(    1) = (   0.0000000   0.0000000   0.0000000), wk =   0.1250000
        k(    2) = (   0.0000000   0.0419351   0.0000000), wk =   0.2500000
        k(    3) = (   0.0000000  -0.0838702   0.0000000), wk =   0.1250000
        k(    4) = (   0.0379955   0.0000049   0.0000000), wk =   0.2500000
        k(    5) = (   0.0379955   0.0419400   0.0000000), wk =   0.2500000
        k(    6) = (   0.0379955  -0.0838652   0.0000000), wk =   0.2500000
        k(    7) = (   0.0379955  -0.0419301   0.0000000), wk =   0.2500000
        k(    8) = (  -0.0759910  -0.0000099   0.0000000), wk =   0.1250000
        k(    9) = (  -0.0759910   0.0419252   0.0000000), wk =   0.2500000
        k(   10) = (  -0.0759910  -0.0838800   0.0000000), wk =   0.1250000

     Initial potential from superposition of free atoms

     starting charge  381.99917, renormalised to  398.00000

     negative rho (up, down):  1.724E-02 0.000E+00

     %%%%%%%%%%%%%%%%%%%%%%%%%%%%%%%%%%%%%%%%%%%%%%%%%%%%%%%%%%%%%%%%%%%%%%%%
     %                                                                      %
     % You are using vdW-DF, which was implemented by the Thonhauser group. %
     % Please cite the following two papers that made this development      %
     % possible and the two reviews that describe the various versions:     %
     %                                                                      %
     %   T. Thonhauser et al., PRL 115, 136402 (2015).                      %
     %   T. Thonhauser et al., PRB 76, 125112 (2007).                       %
     %   K. Berland et al., Rep. Prog. Phys. 78, 066501 (2015).             %
     %   D.C. Langreth et al., J. Phys.: Condens. Matter 21, 084203 (2009). %
     %                                                                      %
     %                                                                      %
     % If you are calculating the stress with vdW-DF, please also cite:     %
     %                                                                      %
     %   R. Sabatini et al., J. Phys.: Condens. Matter 24, 424209 (2012).   %
     %                                                                      %
     %%%%%%%%%%%%%%%%%%%%%%%%%%%%%%%%%%%%%%%%%%%%%%%%%%%%%%%%%%%%%%%%%%%%%%%%

     Adding external electric field

     Computed dipole along edir(3) :
        Dipole               -8.3452 Ry au,        -21.2113 Debye
        Dipole field         -0.0157 Ry au,

        Potential amp.        1.4599 Ry
        Total length         46.3494 bohr

     Starting wfcs are  300 atomic wfcs
  @ DRIVER MODE: Message from server: STATUS
  @ DRIVER MODE: Message from server: POSDATA
  @ DRIVER MODE: Reading and sharing cell
  @ DRIVER MODE: Reading and sharing positions
  @ DRIVER MODE: Received positions

     Self-consistent Calculation

     iteration #  1     ecut=    29.40 Ry     beta= 0.05
     Davidson diagonalization with overlap
     c_bands:  1 eigenvalues not converged
     c_bands:  1 eigenvalues not converged
     c_bands:  1 eigenvalues not converged
     c_bands:  1 eigenvalues not converged
     c_bands:  1 eigenvalues not converged
     ethr =  1.00E-05,  avg # of iterations = 18.4

[...]

     total energy              =   -2613.42017023 Ry
     estimated scf accuracy    <    3886.68641619 Ry

     iteration #  2     ecut=    29.40 Ry     beta= 0.05
     Davidson diagonalization with overlap
     ethr =  1.00E-02,  avg # of iterations = 22.2

[...]

     iteration # 48     ecut=    29.40 Ry     beta= 0.05
     Davidson diagonalization with overlap
     c_bands:  1 eigenvalues not converged
     c_bands:  1 eigenvalues not converged
     ethr =  2.70E-07,  avg # of iterations = 11.4

[...]

     total energy              =   -2965.10862086 Ry
     estimated scf accuracy    <       0.00000010 Ry

     iteration # 69     ecut=    29.40 Ry     beta= 0.05
     Davidson diagonalization with overlap
     ethr =  2.41E-11,  avg # of iterations =  2.0

     negative rho (up, down):  1.732E-02 0.000E+00

     Adding external electric field

     Computed dipole along edir(3) :
        Dipole                0.5332 Ry au,          1.3554 Debye
        Dipole field          0.0010 Ry au,

        Potential amp.       -0.0933 Ry
        Total length         46.3494 bohr

     End of self-consistent calculation

          k = 0.0000 0.0000 0.0000 ( 18029 PWs)   bands (ev):

   -56.4435 -56.3967 -55.8718 -55.8399 -55.8279 -55.8186 -55.7754 -55.7377
   -55.7132 -55.6985 -55.6609 -55.6187 -55.6147 -55.4679 -55.0471 -55.0132
   -32.8559 -32.7085 -32.6590 -32.6230 -32.5285 -32.4823 -32.3640 -32.3171
   -32.3109 -32.1939 -32.1584 -32.1349 -32.1316 -32.1131 -32.1077 -32.0707
   -32.0670 -32.0514 -32.0361 -32.0308 -32.0174 -31.9805 -31.9704 -31.9532
   -31.9452 -31.9328 -31.9302 -31.9201 -31.9178 -31.9064 -31.9018 -31.8881
   -31.8646 -31.8626 -31.8563 -31.8241 -31.8125 -31.8118 -31.7827 -31.7237
   -31.6932 -31.6742 -31.4413 -31.3880 -31.3636 -31.2581 -31.1732 -31.0625
   -17.6305 -16.6289 -16.5880 -16.4431 -16.2052 -16.0584 -15.9774 -15.7579
   -15.7552 -15.6361 -15.6251 -15.5902 -15.4523 -15.4397 -15.4331 -15.3767
   -15.3616 -15.3508 -15.3447 -15.3362 -15.3243 -15.2763 -15.2634 -15.2114
   -15.1530 -15.0865 -15.0559 -15.0131 -14.9947 -14.9583 -14.7276 -13.5493
   -13.4410  -9.3415  -4.3367  -4.2490  -4.1233  -4.0441  -3.8832  -3.7812
    -3.7603  -3.6708  -3.5796  -3.4697  -3.2711  -3.1092  -3.0524  -3.0157
    -2.9827  -2.9291  -2.8742  -2.8156  -2.7702  -2.7415  -2.7123  -2.6453
    -2.6302  -2.6179  -2.5897  -2.5818  -2.5458  -2.5170  -2.4991  -2.3703
    -2.3407  -2.3025  -2.2978  -2.2392  -2.2192  -2.1948  -2.1880  -2.1377
    -2.0444  -1.9640  -1.9283  -1.8886  -1.6985  -1.6439  -1.5736  -1.5083
    -1.4298  -1.3828  -1.3631  -1.3402  -1.2694  -1.2420  -1.1295  -1.1079
    -1.0615  -0.9983  -0.9949  -0.9558  -0.8965  -0.8693  -0.8071  -0.7749
    -0.7493  -0.6058  -0.5797  -0.5519  -0.5100  -0.5020  -0.4010  -0.3380
    -0.2900  -0.2704  -0.2232  -0.1887  -0.1501  -0.1030  -0.0850  -0.0575
     0.0300   0.0559   0.0803   0.1251   0.1601   0.1836   0.2022   0.2955
     0.3437   0.3610   0.3780   0.5331   0.5725   0.5885   0.7169   0.7347
     0.9029   0.9695   1.0072   1.1867   1.2328   1.5195   1.5617   2.8582
     3.0163   3.2875   3.4362   3.5025   3.5418   3.5954   3.6130   3.7527
     3.7876

[...]

          k = 0.0380-0.0419 0.0000 ( 17876 PWs)   bands (ev):

[...]

          k =-0.0760-0.0000 0.0000 ( 17886 PWs)   bands (ev):

[...]

          k =-0.0760-0.0839 0.0000 ( 17948 PWs)   bands (ev):

   -56.4364 -56.4037 -55.8699 -55.8344 -55.8267 -55.8146 -55.7804 -55.7415
   -55.7149 -55.6999 -55.6524 -55.6271 -55.6128 -55.4697 -55.0304 -55.0299
   -32.7039 -32.6867 -32.6631 -32.6589 -32.5882 -32.5603 -32.2519 -32.1876
   -32.1609 -32.1276 -32.1064 -32.1004 -32.0921 -32.0774 -32.0680 -32.0550
   -32.0502 -32.0432 -32.0378 -32.0298 -32.0287 -32.0220 -31.9996 -31.9993
   -31.9963 -31.9806 -31.9698 -31.9542 -31.9466 -31.9405 -31.9199 -31.9064
   -31.9019 -31.8899 -31.8766 -31.8621 -31.8617 -31.8276 -31.8169 -31.7976
   -31.7259 -31.6778 -31.3768 -31.3765 -31.2568 -31.2552 -31.2155 -31.2145
   -17.5938 -16.6003 -15.9848 -15.9058 -15.9016 -15.8902 -15.8636 -15.8216
   -15.7440 -15.7375 -15.6662 -15.5997 -15.5659 -15.5203 -15.4979 -15.4866
   -15.4489 -15.4448 -15.3875 -15.3439 -15.3274 -15.3162 -15.2964 -15.2531
   -15.2473 -15.2446 -15.2210 -15.2057 -15.1552 -15.0549 -14.8681 -13.5453
   -13.5441  -9.3418  -4.2588  -4.1813  -3.9787  -3.7554  -3.2173  -3.1416
    -3.0671  -3.0591  -2.9844  -2.9245  -2.9100  -2.8652  -2.8581  -2.8265
    -2.7549  -2.7442  -2.7314  -2.7209  -2.7135  -2.7047  -2.6821  -2.6369
    -2.6239  -2.6165  -2.6014  -2.5920  -2.5797  -2.5769  -2.5512  -2.5107
    -2.4404  -2.3781  -2.2569  -2.2493  -2.2134  -2.1980  -2.1563  -2.1450
    -2.0909  -1.9990  -1.9868  -1.9841  -1.8955  -1.8387  -1.6257  -1.6108
    -1.5937  -1.5268  -1.4549  -1.3876  -1.3643  -1.3412  -1.3083  -1.2858
    -1.2362  -1.1870  -1.1530  -1.1166  -1.1004  -1.0610  -1.0084  -0.9560
    -0.9083  -0.9046  -0.8610  -0.8135  -0.7821  -0.7031  -0.6965  -0.6738
    -0.6503  -0.6099  -0.5253  -0.4740  -0.4307  -0.3366  -0.2942  -0.2617
    -0.1201  -0.0620  -0.0255   0.0503   0.0957   0.1947   0.2197   0.2962
     0.3085   0.3376   0.3617   0.4396   0.5042   0.5600   0.6033   0.6459
     0.6573   0.7068   0.7742   1.3635   1.3640   1.3714   1.3791   3.4035
     3.4282   3.4360   3.4658   3.6925   3.7105   3.7823   3.8121   3.8292
     3.8798

     the Fermi energy is     2.2678 ev

!    total energy              =   -2965.10864000 Ry
     estimated scf accuracy    <       0.00000005 Ry
     smearing contrib. (-TS)   =      -0.00015928 Ry
     internal energy E=F+TS    =   -2965.10848072 Ry

     The total energy is F=E-TS. E is the sum of the following terms:
     one-electron contribution =  -24223.03853005 Ry
     hartree contribution      =   12200.80264347 Ry
     xc contribution           =    -490.03162419 Ry
     ewald contribution        =    9547.15849344 Ry
     electric field correction =       0.00053661 Ry

     convergence has been achieved in  69 iterations

     Forces acting on atoms (cartesian axes, Ry/au):

     atom    1 type  1   force =    -0.00002071    0.00003213    0.13238257
     atom    2 type  1   force =    -0.00019452    0.00778269   -0.15739456
     atom    3 type  2   force =     0.00008376   -0.00480496   -0.05217826
     atom    4 type  2   force =     0.00035740    0.00109521    0.04043816
     atom    5 type  2   force =    -0.00611405   -0.00278951   -0.00018648
     atom    6 type  2   force =     0.00839828   -0.00338789    0.00079354
     atom    7 type  1   force =    -0.00002959   -0.00014813   -0.00000714
     atom    8 type  1   force =     0.00020722   -0.00056496    0.00039310
     atom    9 type  2   force =    -0.00004729    0.00021100   -0.00004845
     atom   10 type  2   force =    -0.00014579   -0.00037927   -0.00015502
     atom   11 type  2   force =     0.00040918    0.00026270   -0.00017787
     atom   12 type  2   force =    -0.00024322    0.00015932   -0.00004536
     atom   13 type  1   force =    -0.00069147    0.00049750   -0.00033028
     atom   14 type  1   force =     0.00008047   -0.00032517   -0.00021276
     atom   15 type  2   force =    -0.00027674    0.00002330   -0.00058447
     atom   16 type  2   force =    -0.00036034    0.00009915    0.00001714
     atom   17 type  2   force =    -0.00033964   -0.00023734   -0.00022320
     atom   18 type  2   force =    -0.00100729    0.00036872    0.00007110
     atom   19 type  1   force =     0.00040195   -0.00041670   -0.00010249
     atom   20 type  1   force =    -0.00035551   -0.00007203    0.00024273
     atom   21 type  2   force =    -0.00002510    0.00002184    0.09911352
     atom   22 type  2   force =     0.00010667    0.00009846    0.00019071
     atom   23 type  2   force =    -0.08090919    0.00049208   -0.03408627
     atom   24 type  2   force =     0.08070726    0.00095770   -0.03414848
     atom   25 type  1   force =    -0.00001345   -0.00027156    0.14099254
     atom   26 type  1   force =    -0.00013478   -0.00647510   -0.15703988
     atom   27 type  2   force =     0.00016110    0.00109307   -0.05217854
     atom   28 type  2   force =     0.00018735    0.00033457    0.04176876
     atom   29 type  2   force =    -0.00752772    0.00512417    0.00202581
     atom   30 type  2   force =     0.00859641    0.00383164    0.00272854
     atom   31 type  1   force =    -0.00002643    0.00017205    0.00001743
     atom   32 type  1   force =     0.00030212   -0.00005746   -0.00051903
     atom   33 type  2   force =    -0.00006130    0.00039582    0.00021250
     atom   34 type  2   force =    -0.00012028    0.00019454    0.00039692
     atom   35 type  2   force =    -0.00052898   -0.00035061   -0.00005942
     atom   36 type  2   force =     0.00050909   -0.00044337    0.00016800
     atom   37 type  1   force =    -0.00057306   -0.00029018   -0.00015128
     atom   38 type  1   force =     0.00002339   -0.00002057   -0.00042290
     atom   39 type  2   force =     0.00006073   -0.00014108   -0.00005853
     atom   40 type  2   force =    -0.00014645   -0.00015021   -0.00038065
     atom   41 type  2   force =    -0.00053842    0.00041422   -0.00066590
     atom   42 type  2   force =    -0.00039833    0.00013014    0.00004674
     atom   43 type  1   force =     0.00006246    0.00034865   -0.00006013
     atom   44 type  1   force =    -0.00035252   -0.00058883    0.00037218
     atom   45 type  2   force =    -0.00003059    0.00012577    0.09866686
     atom   46 type  2   force =    -0.08087081   -0.00164623   -0.03408398
     atom   47 type  2   force =     0.08067744   -0.00117532   -0.03415127
     atom   48 type  3   force =    -0.00288231    0.00029213    0.00170062
     atom   49 type  2   force =     0.00453850    0.00041849   -0.00450651
     atom   50 type  4   force =    -0.00084738    0.00015558    0.00137653
     atom   51 type  4   force =     0.00034347   -0.00019736    0.00005628
     atom   52 type  4   force =     0.00000958    0.00050465    0.00035948
     atom   53 type  2   force =     0.00034547   -0.00029358   -0.00127348
     atom   54 type  4   force =    -0.00075606   -0.00040984    0.00090082

     Total force =     0.382753     Total SCF correction =     0.000889
  @ DRIVER MODE: Message from server: STATUS
  @ DRIVER MODE: Message from server: GETFORCE
  @ DRIVER MODE: Returning v,forces,stress,ensemble

     Writing output data file ./calc.save/
  @ DRIVER MODE: Message from server: EXIT
  @ DRIVE MODE: Exiting

     General routines

     Parallel routines

   This run was terminated on:  18:53:11  22Sep2021

   JOB DONE.