     Program PWSCF v.6.7GPU starts on 23Sep2021 at 11:45:51

     R & G space division:  proc/nbgrp/npool/nimage =      10
     Reading input from /storage/home/hcoda1/3/ntian30/research/carbon/CxH_vib/H2O_calc/ads_slab/CH3NNH3HO_a/out_0057/pw.inp
Warning: card &CELL ignored
Warning: card   CELL_DYNAMICS='IPI', ignored
Warning: card / ignored

     Current dimensions of program PWSCF are:
     Max number of different atomic species (ntypx) = 10
     Max number of k-points (npk) =  40000
     Max angular momentum in pseudopotentials (lmaxx) =  3
     Presently no symmetry can be used with electric field

     Message from routine cell_base_init:
     DEPRECATED: use true lattice parameter, not A to a.u. conversion factor

     IMPORTANT: XC functional enforced from input :
     Exchange-correlation= BEEF-VDW
                           (   1   4  43  14   2   0   0)
     Any further DFT definition will be discarded
     Please, verify this is what you really want

  @ DRIVER MODE: Connecting to
 qe_1139763_2937318.sched-torque.pace.gatech.edugf3p3wjg_scratch
  using UNIX socket
  @ DRIVER MODE: Message from server: STATUS
  @ DRIVER MODE: Message from server: INIT
  @ DRIVER MODE: Receiving replica           0          -1
  @ DRIVER MODE: Receiving encoded integer          25
  @ DRIVER MODE:  SCF:  T  FORCE:  T  STRESS:  F  VC:  F  ENSEMBLE:  F
  @ DRIVER MODE:  SCF:  T  FORCE:  T  STRESS:  F  VC:  F  ENSEMBLE:  F

     Using Slab Decomposition

     bravais-lattice index     =            0
     lattice parameter (alat)  =       1.8897  a.u.
     unit-cell volume          =    6658.9804 (a.u.)^3
     number of atoms/cell      =           58
     number of atomic types    =            5
     number of electrons       =       405.00
     number of Kohn-Sham states=          212
     kinetic-energy cutoff     =      29.3995  Ry
     charge density cutoff     =     293.9946  Ry
     scf convergence threshold =      7.3E-08
     mixing beta               =       0.0500
     number of iterations used =            8  plain     mixing
     Exchange-correlation= BEEF-VDW
                           (   1   4  43  14   2   0   0)

     celldm(1)=   1.889726  celldm(2)=   0.000000  celldm(3)=   0.000000
     celldm(4)=   0.000000  celldm(5)=   0.000000  celldm(6)=   0.000000

     crystal axes: (cart. coord. in units of alat)
               a(1) = (   6.579727   0.000000   0.000000 )
               a(2) = (  -0.000775   5.961596   0.000000 )
               a(3) = (   0.000000   0.000000  25.155947 )

     reciprocal axes: (cart. coord. in units 2 pi/alat)
               b(1) = (  0.151982  0.000020  0.000000 )
               b(2) = (  0.000000  0.167740  0.000000 )
               b(3) = (  0.000000  0.000000  0.039752 )

     PseudoPot. # 1 for Ti read from file:
     /storage/coda1/p-amedford6/0/shared/rich_project_chbe-medford/medford-share/data/pseudos_module/espresso/nninc/pbe/van/Ti.UPF
     MD5 check sum: 8e4df49b7f0d34bbd5052bf3f5ea0213
     Pseudo is Ultrasoft, Zval = 12.0
     Generated by new atomic code, or converted to UPF format
     Using radial grid of  851 points,  6 beta functions with:
                l(1) =   0
                l(2) =   0
                l(3) =   1
                l(4) =   1
                l(5) =   2
                l(6) =   2
     Q(r) pseudized with  8 coefficients,  rinner =    1.000   1.000   1.000
                                                       1.000   1.000

     PseudoPot. # 2 for O  read from file:
     /storage/coda1/p-amedford6/0/shared/rich_project_chbe-medford/medford-share/data/pseudos_module/espresso/nninc/pbe/van/O.UPF
     MD5 check sum: 78c19812648e8988a0fe644b0f25305e
     Pseudo is Ultrasoft, Zval =  6.0
     Generated by new atomic code, or converted to UPF format
     Using radial grid of  737 points,  4 beta functions with:
                l(1) =   0
                l(2) =   0
                l(3) =   1
                l(4) =   1
     Q(r) pseudized with  8 coefficients,  rinner =    0.800   0.800   0.800

     PseudoPot. # 3 for N  read from file:
     /storage/coda1/p-amedford6/0/shared/rich_project_chbe-medford/medford-share/data/pseudos_module/espresso/nninc/pbe/van/N.UPF
     MD5 check sum: 90d10febe142ad51ac9d5be1deb811c4
     Pseudo is Ultrasoft, Zval =  5.0
     Generated by new atomic code, or converted to UPF format
     Using radial grid of  729 points,  4 beta functions with:
                l(1) =   0
                l(2) =   0
                l(3) =   1
                l(4) =   1
     Q(r) pseudized with  8 coefficients,  rinner =    0.800   0.800   0.800

     PseudoPot. # 4 for C  read from file:
     /storage/coda1/p-amedford6/0/shared/rich_project_chbe-medford/medford-share/data/pseudos_module/espresso/nninc/pbe/van/C.UPF
     MD5 check sum: 1a69bf6b8db32088f5b2163dbdb77a27
     Pseudo is Ultrasoft, Zval =  4.0
     Generated by new atomic code, or converted to UPF format
     Using radial grid of  721 points,  4 beta functions with:
                l(1) =   0
                l(2) =   0
                l(3) =   1
                l(4) =   1
     Q(r) pseudized with  8 coefficients,  rinner =    0.800   0.800   0.800

     PseudoPot. # 5 for H  read from file:
     /storage/coda1/p-amedford6/0/shared/rich_project_chbe-medford/medford-share/data/pseudos_module/espresso/nninc/pbe/van/H.UPF
     MD5 check sum: b5ee9d7bfd3a09ee7748110bda690ff7
     Pseudo is Ultrasoft, Zval =  1.0
     Generated by new atomic code, or converted to UPF format
     Using radial grid of  615 points,  1 beta functions with:
                l(1) =   0
     Q(r) pseudized with  8 coefficients,  rinner =    0.800

     atomic species   valence    mass     pseudopotential
        Ti1           12.00    47.86700     Ti( 1.00)
        O1             6.00    15.99900     O ( 1.00)
        N1             5.00    14.00700     N ( 1.00)
        C1             4.00    12.01100     C ( 1.00)
        H1             1.00     1.00800     H ( 1.00)

     No symmetry found

   Cartesian axes

     site n.     atom                  positions (alat units)
         1           Ti1 tau(   1) = (   0.0004258   2.9801865   6.0000000  )
         2           Ti1 tau(   2) = (   3.2906075   1.4906267   6.0002472  )
         3           O1  tau(   3) = (   0.0006271   0.0005054   7.9858123  )
         4           O1  tau(   4) = (   3.2906025   0.0005020   7.3038282  )
         5           O1  tau(   5) = (   4.5942328   1.4918067   9.2879030  )
         6           O1  tau(   6) = (   1.9868534   1.4903216   9.2879459  )
         7           Ti1 tau(   7) = (   3.2907910   2.8959150   9.1758416  )
         8           Ti1 tau(   8) = (   0.0015273   1.4827037   9.2680791  )
         9           O1  tau(   9) = (   3.2949357   5.9297256  11.2770696  )
        10           O1  tau(  10) = (   0.0116148   5.9584955  10.6183126  )
        11           O1  tau(  11) = (   1.2901270   1.4659759  12.6218969  )
        12           O1  tau(  12) = (   5.3029181   1.4690452  12.6271982  )
        13           Ti1 tau(  13) = (   6.5637346   3.0486055  12.7052252  )
        14           Ti1 tau(  14) = (   3.3207578   1.2909511  12.6638180  )
        15           O1  tau(  15) = (   0.0081040   5.9567798  14.6379979  )
        16           O1  tau(  16) = (   3.2944190   0.0149942  13.8863584  )
        17           O1  tau(  17) = (   4.5334936   1.5584448  16.0391558  )
        18           O1  tau(  18) = (   2.0244848   1.5379376  16.0854781  )
        19           Ti1 tau(  19) = (   3.2579824   3.0118882  15.6538344  )
        20           Ti1 tau(  20) = (   6.4918182   1.5199401  15.8876453  )
        21           O1  tau(  21) = (   3.2904802   0.0005063   4.7018136  )
        22           O1  tau(  22) = (   6.5166677   0.0216046  17.1949088  )
        23           O1  tau(  23) = (   1.3043587   1.4918075   6.0039043  )
        24           O1  tau(  24) = (   5.2767064   1.4903225   6.0039473  )
        25           Ti1 tau(  25) = (   0.0000382   5.9609847   6.0000000  )
        26           Ti1 tau(  26) = (   3.2902200   4.4714249   6.0002472  )
        27           O1  tau(  27) = (   0.0002396   2.9813036   7.9858123  )
        28           O1  tau(  28) = (   3.2902150   2.9813002   7.3038282  )
        29           O1  tau(  29) = (   4.5938453   4.4726049   9.2879030  )
        30           O1  tau(  30) = (   1.9864658   4.4711199   9.2879459  )
        31           Ti1 tau(  31) = (   3.2891106   5.8743827   9.1763621  )
        32           Ti1 tau(  32) = (   0.0006254   4.4649316   9.2693709  )
        33           O1  tau(  33) = (   3.2959121   3.0085915  11.2438341  )
        34           O1  tau(  34) = (   0.0092240   2.9805883  10.6323155  )
        35           O1  tau(  35) = (   1.2849535   4.4488585  12.6204231  )
        36           O1  tau(  36) = (   5.2878833   4.4365118  12.6243745  )
        37           Ti1 tau(  37) = (   0.0500071   0.0677371  12.6535751  )
        38           Ti1 tau(  38) = (   3.3027700   4.3871210  12.4110406  )
        39           O1  tau(  39) = (   6.5685058   2.9535060  14.6525041  )
        40           O1  tau(  40) = (   3.2696111   2.9719761  13.8704823  )
        41           O1  tau(  41) = (   4.5209813   4.4409030  16.0696701  )
        42           O1  tau(  42) = (   2.0131998   4.4599944  16.0916020  )
        43           Ti1 tau(  43) = (   3.2138439   0.0230873  16.3295100  )
        44           Ti1 tau(  44) = (   6.5234412   4.6200706  16.0754176  )
        45           O1  tau(  45) = (   3.2900926   2.9813045   4.7018136  )
        46           O1  tau(  46) = (   1.3039711   4.4726057   6.0039043  )
        47           O1  tau(  47) = (   5.2763189   4.4711207   6.0039473  )
        48           N1  tau(  48) = (   0.0251376   2.9556585  17.3246074  )
        49           N1  tau(  49) = (   6.3772498   2.5461882  22.2688425  )
        50           C1  tau(  50) = (   0.2111848   2.8484408  18.7116211  )
        51           H1  tau(  51) = (   0.3920758   3.8074029  19.2116250  )
        52           H1  tau(  52) = (   5.9044209   2.3708277  19.1722604  )
        53           H1  tau(  53) = (   1.0233575   2.1342068  18.9364007  )
        54           H1  tau(  54) = (   6.0930523   3.2289774  22.9628454  )
        55           H1  tau(  55) = (   0.2277240   1.7755739  22.7685771  )
        56           H1  tau(  56) = (   0.5282093   2.9785696  21.7129995  )
        57           O1  tau(  57) = (   3.3838229   0.0430270  18.1522483  )
        58           H1  tau(  58) = (   4.2718821   5.8932998  18.5223319  )

     number of k points=    10  Fermi-Dirac smearing, width (Ry)=  0.0073
                       cart. coord. in units 2pi/alat
        k(    1) = (   0.0000000   0.0000000   0.0000000), wk =   0.1250000
        k(    2) = (   0.0000000   0.0419351   0.0000000), wk =   0.2500000
        k(    3) = (   0.0000000  -0.0838702   0.0000000), wk =   0.1250000
        k(    4) = (   0.0379955   0.0000049   0.0000000), wk =   0.2500000
        k(    5) = (   0.0379955   0.0419400   0.0000000), wk =   0.2500000
        k(    6) = (   0.0379955  -0.0838652   0.0000000), wk =   0.2500000
        k(    7) = (   0.0379955  -0.0419301   0.0000000), wk =   0.2500000
        k(    8) = (  -0.0759910  -0.0000099   0.0000000), wk =   0.1250000
        k(    9) = (  -0.0759910   0.0419252   0.0000000), wk =   0.2500000
        k(   10) = (  -0.0759910  -0.0838800   0.0000000), wk =   0.1250000

     Initial potential from superposition of free atoms

     starting charge  388.99913, renormalised to  405.00000

     negative rho (up, down):  7.828E-03 0.000E+00

     %%%%%%%%%%%%%%%%%%%%%%%%%%%%%%%%%%%%%%%%%%%%%%%%%%%%%%%%%%%%%%%%%%%%%%%%
     %                                                                      %
     % You are using vdW-DF, which was implemented by the Thonhauser group. %
     % Please cite the following two papers that made this development      %
     % possible and the two reviews that describe the various versions:     %
     %                                                                      %
     %   T. Thonhauser et al., PRL 115, 136402 (2015).                      %
     %   T. Thonhauser et al., PRB 76, 125112 (2007).                       %
     %   K. Berland et al., Rep. Prog. Phys. 78, 066501 (2015).             %
     %   D.C. Langreth et al., J. Phys.: Condens. Matter 21, 084203 (2009). %
     %                                                                      %
     %                                                                      %
     % If you are calculating the stress with vdW-DF, please also cite:     %
     %                                                                      %
     %   R. Sabatini et al., J. Phys.: Condens. Matter 24, 424209 (2012).   %
     %                                                                      %
     %%%%%%%%%%%%%%%%%%%%%%%%%%%%%%%%%%%%%%%%%%%%%%%%%%%%%%%%%%%%%%%%%%%%%%%%

     Adding external electric field

     Computed dipole along edir(3) :
        Dipole              -15.1933 Ry au,        -38.6176 Debye
        Dipole field         -0.0287 Ry au,

        Potential amp.        2.6578 Ry
        Total length         46.3494 bohr

     Starting wfcs are  307 atomic wfcs
  @ DRIVER MODE: Message from server: STATUS
  @ DRIVER MODE: Message from server: POSDATA
  @ DRIVER MODE: Reading and sharing cell
  @ DRIVER MODE: Reading and sharing positions
  @ DRIVER MODE: Received positions

     Self-consistent Calculation

     iteration #  1     ecut=    29.40 Ry     beta= 0.05
     Davidson diagonalization with overlap
     c_bands:  4 eigenvalues not converged
     c_bands:  4 eigenvalues not converged
     c_bands:  1 eigenvalues not converged
     c_bands:  2 eigenvalues not converged
     c_bands:  1 eigenvalues not converged
     c_bands:  2 eigenvalues not converged
     ethr =  1.00E-05,  avg # of iterations = 29.5

[...]

     total energy              =   -2295.09766717 Ry
     estimated scf accuracy    <    7743.42650888 Ry

     iteration #  2     ecut=    29.40 Ry     beta= 0.05
     Davidson diagonalization with overlap
     ethr =  1.00E-02,  avg # of iterations = 22.7

[...]

     iteration # 41     ecut=    29.40 Ry     beta= 0.05
     Davidson diagonalization with overlap
     c_bands:  1 eigenvalues not converged
     c_bands:  1 eigenvalues not converged
     ethr =  1.84E-05,  avg # of iterations = 11.6

[...]

     total energy              =   -2976.42354144 Ry
     estimated scf accuracy    <       0.00000016 Ry

     iteration # 69     ecut=    29.40 Ry     beta= 0.05
     Davidson diagonalization with overlap
     ethr =  3.97E-11,  avg # of iterations =  5.0

     negative rho (up, down):  9.591E-03 0.000E+00

     Adding external electric field

     Computed dipole along edir(3) :
        Dipole                0.6351 Ry au,          1.6142 Debye
        Dipole field          0.0012 Ry au,

        Potential amp.       -0.1111 Ry
        Total length         46.3494 bohr

     End of self-consistent calculation

          k = 0.0000 0.0000 0.0000 ( 18029 PWs)   bands (ev):

   -56.5658 -56.5323 -55.6416 -55.6065 -55.4257 -55.3591 -55.2304 -55.1171
   -55.0832 -55.0352 -55.0030 -54.9689 -54.9107 -54.8176 -54.7456 -54.6132
   -32.9846 -32.8363 -32.8082 -32.7453 -32.6551 -32.6117 -32.1234 -31.9005
   -31.8619 -31.8404 -31.7858 -31.7780 -31.7527 -31.6590 -31.6387 -31.5941
   -31.5623 -31.5457 -31.5225 -31.5101 -31.5049 -31.4946 -31.4641 -31.4624
   -31.4396 -31.4204 -31.3551 -31.3210 -31.2986 -31.2928 -31.2407 -31.2328
   -31.2158 -31.1938 -31.1816 -31.1663 -31.1593 -31.1293 -31.1235 -31.0916
   -31.0480 -31.0030 -31.0023 -30.9807 -30.9478 -30.8875 -30.8506 -30.8004
   -16.6693 -16.1115 -16.0938 -15.8825 -15.7599 -15.7546 -15.7114 -15.6426
   -15.4735 -15.4047 -15.3762 -15.3151 -15.1706 -15.0551 -14.9579 -14.7780
   -14.7043 -14.6987 -14.6802 -14.6726 -14.6558 -14.6349 -14.5760 -14.5175
   -14.4751 -14.4101 -14.3660 -14.2206 -14.0200 -13.9947 -13.9518 -13.6146
   -13.5077 -13.5028  -7.7379  -4.2447  -4.0317  -4.0125  -3.7029  -3.5778
    -3.4052  -3.2527  -3.2021  -3.1438  -3.0847  -3.0751  -2.9276  -2.9260
    -2.9142  -2.9075  -2.8292  -2.7703  -2.7057  -2.6187  -2.6031  -2.5084
    -2.4617  -2.3024  -2.2764  -2.1754  -2.1033  -2.0978  -2.0318  -2.0086
    -1.9615  -1.9164  -1.9069  -1.8724  -1.8287  -1.7819  -1.7637  -1.6522
    -1.6444  -1.5799  -1.5733  -1.5504  -1.4369  -1.4170  -1.3472  -1.2019
    -1.1808  -1.1774  -1.1303  -1.1134  -1.0312  -0.9352  -0.8681  -0.8412
    -0.7854  -0.6963  -0.6496  -0.6287  -0.5558  -0.5359  -0.4620  -0.4185
    -0.4058  -0.3851  -0.3437  -0.2287  -0.1418  -0.1089  -0.0551  -0.0299
     0.0028   0.0306   0.0489   0.0976   0.1677   0.2533   0.2746   0.4132
     0.4655   0.5016   0.5777   0.6118   0.6187   0.7077   0.7387   0.7688
     0.8151   0.8896   0.9041   0.9056   0.9638   1.0481   1.1030   1.1563
     1.1670   1.2033   1.2114   1.2628   1.3509   1.3716   1.4404   1.4955
     1.8198   1.8819   2.4838   2.7284   2.9000   3.1768   3.3688   3.6723
     3.7146   3.7323   3.7324   4.2115

[...]

          k = 0.0380-0.0419 0.0000 ( 17876 PWs)   bands (ev):

[...]

          k =-0.0760-0.0000 0.0000 ( 17886 PWs)   bands (ev):

[...]

          k =-0.0760-0.0839 0.0000 ( 17948 PWs)   bands (ev):

   -56.5497 -56.5483 -55.6292 -55.6188 -55.4210 -55.3637 -55.2296 -55.1006
   -55.0994 -55.0303 -55.0036 -54.9735 -54.9091 -54.8162 -54.7472 -54.6145
   -32.8228 -32.8213 -32.8026 -32.8011 -32.6994 -32.6982 -31.9479 -31.9387
   -31.8237 -31.8184 -31.8125 -31.8108 -31.7204 -31.6776 -31.6523 -31.6392
   -31.5895 -31.5878 -31.5013 -31.4742 -31.4643 -31.4531 -31.4522 -31.3692
   -31.3501 -31.3207 -31.3193 -31.3016 -31.2943 -31.2844 -31.2809 -31.2804
   -31.2519 -31.2329 -31.2147 -31.2002 -31.1964 -31.1583 -31.1581 -31.1020
   -31.0908 -31.0511 -31.0066 -30.9957 -30.9590 -30.9525 -30.8526 -30.8357
   -16.0825 -16.0277 -16.0258 -15.9823 -15.9808 -15.7190 -15.7145 -15.4641
   -15.4348 -15.2551 -15.1513 -15.1273 -15.0839 -15.0422 -14.9712 -14.9171
   -14.8872 -14.8549 -14.8292 -14.7666 -14.7364 -14.6327 -14.5999 -14.5524
   -14.5161 -14.4543 -14.4133 -14.3642 -14.1766 -14.1328 -13.9512 -13.6122
   -13.6116 -13.5277  -7.7371  -4.0424  -4.0126  -3.6939  -3.1589  -3.1037
    -3.0993  -3.0668  -3.0596  -2.9745  -2.8531  -2.8500  -2.7548  -2.6477
    -2.6213  -2.5983  -2.5378  -2.5284  -2.4283  -2.3787  -2.3738  -2.3593
    -2.3230  -2.2935  -2.2870  -2.2270  -2.0883  -2.0722  -2.0231  -1.9693
    -1.8946  -1.8863  -1.8769  -1.8399  -1.7983  -1.7731  -1.7618  -1.7349
    -1.7301  -1.7255  -1.6160  -1.5111  -1.4640  -1.3704  -1.3663  -1.3573
    -1.3195  -1.2925  -1.2589  -1.2526  -1.2237  -1.1437  -1.1175  -1.0473
    -0.9339  -0.9162  -0.8741  -0.8258  -0.7220  -0.7038  -0.6140  -0.5778
    -0.5665  -0.5072  -0.4780  -0.4620  -0.4042  -0.3643  -0.2331  -0.1929
    -0.1814  -0.1645  -0.1421  -0.1059  -0.0447   0.0167   0.0488   0.0505
     0.1549   0.2548   0.3428   0.4117   0.4219   0.4444   0.5297   0.6372
     0.6777   0.7019   0.7493   0.8740   0.9921   1.0215   1.1262   1.1524
     1.1631   1.2631   1.2807   1.2858   1.3060   1.3150   1.3505   1.4169
     1.4776   1.7644   2.3171   3.3210   3.3241   3.3823   3.3880   3.6987
     3.7010   3.8122   3.8172   4.1427

     the Fermi energy is     2.3939 ev

!    total energy              =   -2976.42356328 Ry
     estimated scf accuracy    <       0.00000006 Ry
     smearing contrib. (-TS)   =      -0.01084174 Ry
     internal energy E=F+TS    =   -2976.41272154 Ry

     The total energy is F=E-TS. E is the sum of the following terms:
     one-electron contribution =  -22707.53249608 Ry
     hartree contribution      =   11450.11277018 Ry
     xc contribution           =    -495.34398906 Ry
     ewald contribution        =    8776.35023231 Ry
     electric field correction =       0.00076110 Ry

     convergence has been achieved in  69 iterations

     Forces acting on atoms (cartesian axes, Ry/au):

     atom    1 type  1   force =     0.00002113   -0.00052552    0.12631876
     atom    2 type  1   force =    -0.00009269    0.00041845   -0.15468090
     atom    3 type  2   force =     0.00002676    0.00002533   -0.06828698
     atom    4 type  2   force =     0.00005806   -0.00010971    0.01705675
     atom    5 type  2   force =    -0.00487930   -0.00242880   -0.01323392
     atom    6 type  2   force =     0.00655896   -0.00180728   -0.01375115
     atom    7 type  1   force =    -0.00029527   -0.00661284    0.05922085
     atom    8 type  1   force =     0.00038494    0.00687001    0.10031068
     atom    9 type  2   force =    -0.00002464    0.00065539    0.00131366
     atom   10 type  2   force =    -0.00261558   -0.00001570   -0.06338430
     atom   11 type  2   force =     0.00043657   -0.00068990   -0.00027828
     atom   12 type  2   force =    -0.00085305   -0.00112930   -0.00108671
     atom   13 type  1   force =    -0.00030155    0.00071898   -0.00138587
     atom   14 type  1   force =    -0.00033572   -0.00039618   -0.00022621
     atom   15 type  2   force =    -0.00066114   -0.00035182   -0.00059570
     atom   16 type  2   force =     0.00019744    0.00092278   -0.00030093
     atom   17 type  2   force =     0.00053077   -0.00017900   -0.00017107
     atom   18 type  2   force =    -0.00022520   -0.00009673    0.00013238
     atom   19 type  1   force =    -0.00019989    0.00016105   -0.00091897
     atom   20 type  1   force =     0.00084389    0.00081235   -0.00049473
     atom   21 type  2   force =     0.00006147    0.00015521    0.09777213
     atom   22 type  2   force =     0.00040839   -0.00026138    0.00143425
     atom   23 type  2   force =    -0.08275170    0.00005385   -0.03312798
     atom   24 type  2   force =     0.08269298    0.00050117   -0.03320405
     atom   25 type  1   force =     0.00006980   -0.00035760    0.12646309
     atom   26 type  1   force =    -0.00011386   -0.00150182   -0.15485547
     atom   27 type  2   force =     0.00011370   -0.00046965   -0.06666247
     atom   28 type  2   force =     0.00004765    0.00167358    0.01199292
     atom   29 type  2   force =    -0.00343118    0.00422154   -0.01620838
     atom   30 type  2   force =     0.00505724    0.00456509   -0.01661161
     atom   31 type  1   force =    -0.00015888    0.00216881    0.04255921
     atom   32 type  1   force =     0.00044015   -0.00893577    0.10088561
     atom   33 type  2   force =    -0.00048649   -0.00012945   -0.00039199
     atom   34 type  2   force =    -0.00212662   -0.00026373   -0.07624715
     atom   35 type  2   force =    -0.00009592    0.00070149    0.00086814
     atom   36 type  2   force =    -0.00049927    0.00051822    0.00039072
     atom   37 type  1   force =     0.00043875    0.00060657   -0.00017361
     atom   38 type  1   force =    -0.00041904   -0.00066313   -0.00065136
     atom   39 type  2   force =     0.00044265   -0.00036346   -0.00040405
     atom   40 type  2   force =     0.00037155   -0.00063796   -0.00002483
     atom   41 type  2   force =     0.00049653    0.00023443   -0.00043049
     atom   42 type  2   force =    -0.00023945   -0.00014222   -0.00010378
     atom   43 type  1   force =     0.00052619    0.00067671   -0.00097118
     atom   44 type  1   force =    -0.00036829   -0.00108221    0.00081999
     atom   45 type  2   force =     0.00009237   -0.00001553    0.09762269
     atom   46 type  2   force =    -0.08279858    0.00003712   -0.03317901
     atom   47 type  2   force =     0.08270472    0.00045518   -0.03318731
     atom   48 type  3   force =     0.00002180    0.00038854    0.00038080
     atom   49 type  3   force =     0.00013897   -0.00002553   -0.00099348
     atom   50 type  4   force =     0.00073430    0.00039953    0.00059782
     atom   51 type  5   force =    -0.00000033   -0.00030397   -0.00057323
     atom   52 type  5   force =     0.00010789    0.00091649   -0.00055708
     atom   53 type  5   force =    -0.00018482    0.00032773    0.00039263
     atom   54 type  5   force =    -0.00008454   -0.00005596    0.00003767
     atom   55 type  5   force =     0.00034204    0.00015166    0.00011905
     atom   56 type  5   force =     0.00012073   -0.00004809    0.00019207
     atom   57 type  2   force =    -0.00388510    0.00059616   -0.00049918
     atom   58 type  5   force =     0.00363970   -0.00033321    0.00097152

     Total force =     0.420677     Total SCF correction =     0.000937
  @ DRIVER MODE: Message from server: STATUS
  @ DRIVER MODE: Message from server: GETFORCE
  @ DRIVER MODE: Returning v,forces,stress,ensemble

     Writing output data file ./calc.save/
  @ DRIVER MODE: Message from server: EXIT
  @ DRIVE MODE: Exiting

     General routines

     Parallel routines

   This run was terminated on:  12: 4:57  23Sep2021

   JOB DONE.