     Program PWSCF v.6.7GPU starts on 23Aug2021 at 17:48:31

     R & G space division:  proc/nbgrp/npool/nimage =       6
     Reading input from /storage/home/hcoda1/3/ntian30/research/carbon/CH_vib/ads_slab/CHN_a/out_0011/pw.inp
Warning: card &CELL ignored
Warning: card   CELL_DYNAMICS='IPI', ignored
Warning: card / ignored

     Current dimensions of program PWSCF are:
     Max number of different atomic species (ntypx) = 10
     Max number of k-points (npk) =  40000
     Max angular momentum in pseudopotentials (lmaxx) =  3
     Presently no symmetry can be used with electric field

     Message from routine cell_base_init:
     DEPRECATED: use true lattice parameter, not A to a.u. conversion factor

     IMPORTANT: XC functional enforced from input :
     Exchange-correlation= BEEF-VDW
                           (   1   4  43  14   2   0   0)
     Any further DFT definition will be discarded
     Please, verify this is what you really want

  @ DRIVER MODE: Connecting to
 qe_1139763_2632801.sched-torque.pace.gatech.eduzdqku06h_scratch
  using UNIX socket
  @ DRIVER MODE: Message from server: STATUS
  @ DRIVER MODE: Message from server: INIT
  @ DRIVER MODE: Receiving replica           0          -1
  @ DRIVER MODE: Receiving encoded integer          25
  @ DRIVER MODE:  SCF:  T  FORCE:  T  STRESS:  F  VC:  F  ENSEMBLE:  F
  @ DRIVER MODE:  SCF:  T  FORCE:  T  STRESS:  F  VC:  F  ENSEMBLE:  F

     Using Slab Decomposition

     bravais-lattice index     =            0
     lattice parameter (alat)  =       1.8897  a.u.
     unit-cell volume          =    6658.9804 (a.u.)^3
     number of atoms/cell      =           50
     number of atomic types    =            5
     number of electrons       =       388.00
     number of Kohn-Sham states=          204
     kinetic-energy cutoff     =      29.3995  Ry
     charge density cutoff     =     293.9946  Ry
     scf convergence threshold =      7.3E-08
     mixing beta               =       0.0500
     number of iterations used =            8  plain     mixing
     Exchange-correlation= BEEF-VDW
                           (   1   4  43  14   2   0   0)

     celldm(1)=   1.889726  celldm(2)=   0.000000  celldm(3)=   0.000000
     celldm(4)=   0.000000  celldm(5)=   0.000000  celldm(6)=   0.000000

     crystal axes: (cart. coord. in units of alat)
               a(1) = (   6.579727   0.000000   0.000000 )
               a(2) = (  -0.000775   5.961596   0.000000 )
               a(3) = (   0.000000   0.000000  25.155947 )

     reciprocal axes: (cart. coord. in units 2 pi/alat)
               b(1) = (  0.151982  0.000020  0.000000 )
               b(2) = (  0.000000  0.167740  0.000000 )
               b(3) = (  0.000000  0.000000  0.039752 )

     PseudoPot. # 1 for Ti read from file:
     /storage/coda1/p-amedford6/0/shared/rich_project_chbe-medford/medford-share/data/pseudos_module/espresso/nninc/pbe/van/Ti.UPF
     MD5 check sum: 8e4df49b7f0d34bbd5052bf3f5ea0213
     Pseudo is Ultrasoft, Zval = 12.0
     Generated by new atomic code, or converted to UPF format
     Using radial grid of  851 points,  6 beta functions with:
                l(1) =   0
                l(2) =   0
                l(3) =   1
                l(4) =   1
                l(5) =   2
                l(6) =   2
     Q(r) pseudized with  8 coefficients,  rinner =    1.000   1.000   1.000
                                                       1.000   1.000

     PseudoPot. # 2 for O  read from file:
     /storage/coda1/p-amedford6/0/shared/rich_project_chbe-medford/medford-share/data/pseudos_module/espresso/nninc/pbe/van/O.UPF
     MD5 check sum: 78c19812648e8988a0fe644b0f25305e
     Pseudo is Ultrasoft, Zval =  6.0
     Generated by new atomic code, or converted to UPF format
     Using radial grid of  737 points,  4 beta functions with:
                l(1) =   0
                l(2) =   0
                l(3) =   1
                l(4) =   1
     Q(r) pseudized with  8 coefficients,  rinner =    0.800   0.800   0.800

     PseudoPot. # 3 for N  read from file:
     /storage/coda1/p-amedford6/0/shared/rich_project_chbe-medford/medford-share/data/pseudos_module/espresso/nninc/pbe/van/N.UPF
     MD5 check sum: 90d10febe142ad51ac9d5be1deb811c4
     Pseudo is Ultrasoft, Zval =  5.0
     Generated by new atomic code, or converted to UPF format
     Using radial grid of  729 points,  4 beta functions with:
                l(1) =   0
                l(2) =   0
                l(3) =   1
                l(4) =   1
     Q(r) pseudized with  8 coefficients,  rinner =    0.800   0.800   0.800

     PseudoPot. # 4 for C  read from file:
     /storage/coda1/p-amedford6/0/shared/rich_project_chbe-medford/medford-share/data/pseudos_module/espresso/nninc/pbe/van/C.UPF
     MD5 check sum: 1a69bf6b8db32088f5b2163dbdb77a27
     Pseudo is Ultrasoft, Zval =  4.0
     Generated by new atomic code, or converted to UPF format
     Using radial grid of  721 points,  4 beta functions with:
                l(1) =   0
                l(2) =   0
                l(3) =   1
                l(4) =   1
     Q(r) pseudized with  8 coefficients,  rinner =    0.800   0.800   0.800

     PseudoPot. # 5 for H  read from file:
     /storage/coda1/p-amedford6/0/shared/rich_project_chbe-medford/medford-share/data/pseudos_module/espresso/nninc/pbe/van/H.UPF
     MD5 check sum: b5ee9d7bfd3a09ee7748110bda690ff7
     Pseudo is Ultrasoft, Zval =  1.0
     Generated by new atomic code, or converted to UPF format
     Using radial grid of  615 points,  1 beta functions with:
                l(1) =   0
     Q(r) pseudized with  8 coefficients,  rinner =    0.800

     atomic species   valence    mass     pseudopotential
        Ti1           12.00    47.86700     Ti( 1.00)
        O1             6.00    15.99900     O ( 1.00)
        N1             5.00    14.00700     N ( 1.00)
        C1             4.00    12.01100     C ( 1.00)
        H1             1.00     1.00800     H ( 1.00)

     No symmetry found

   Cartesian axes

     site n.     atom                  positions (alat units)
         1           Ti1 tau(   1) = (   0.0004258   2.9801865   6.0000000  )
         2           Ti1 tau(   2) = (   3.2906075   1.4906267   6.0002472  )
         3           O1  tau(   3) = (   0.0006271   0.0005054   7.9858123  )
         4           O1  tau(   4) = (   3.2906025   0.0005020   7.3038282  )
         5           O1  tau(   5) = (   4.5942328   1.4918067   9.2879030  )
         6           O1  tau(   6) = (   1.9868534   1.4903216   9.2879459  )
         7           Ti1 tau(   7) = (   3.2907910   2.8959150   9.1758416  )
         8           Ti1 tau(   8) = (   0.0015273   1.4827037   9.2680791  )
         9           O1  tau(   9) = (   3.3014052   0.0114069  11.3737528  )
        10           O1  tau(  10) = (   0.0116148   5.9584955  10.6183126  )
        11           O1  tau(  11) = (   1.3012034   1.4994444  12.6801950  )
        12           O1  tau(  12) = (   5.3042999   1.4981222  12.6788946  )
        13           Ti1 tau(  13) = (   0.0222102   2.9879630  12.5217794  )
        14           Ti1 tau(  14) = (   3.3166014   1.4969944  12.5290657  )
        15           O1  tau(  15) = (   0.0131148   5.9114811  14.6787674  )
        16           O1  tau(  16) = (   3.3052116   5.9585997  13.9918696  )
        17           O1  tau(  17) = (   4.5573354   1.5165695  16.1403462  )
        18           O1  tau(  18) = (   2.0429717   1.5180214  16.1331141  )
        19           Ti1 tau(  19) = (   3.3061463   3.0045039  15.7576854  )
        20           Ti1 tau(  20) = (   0.0190008   1.3629876  15.8180984  )
        21           O1  tau(  21) = (   3.2904802   0.0005063   4.7018136  )
        22           O1  tau(  22) = (   0.0120025   0.1123878  17.2186474  )
        23           O1  tau(  23) = (   1.3043587   1.4918075   6.0039043  )
        24           O1  tau(  24) = (   5.2767064   1.4903225   6.0039473  )
        25           Ti1 tau(  25) = (   0.0000382   5.9609847   6.0000000  )
        26           Ti1 tau(  26) = (   3.2902200   4.4714249   6.0002472  )
        27           O1  tau(  27) = (   0.0002396   2.9813036   7.9858123  )
        28           O1  tau(  28) = (   3.2902150   2.9813002   7.3038282  )
        29           O1  tau(  29) = (   4.5938453   4.4726049   9.2879030  )
        30           O1  tau(  30) = (   1.9864658   4.4711199   9.2879459  )
        31           Ti1 tau(  31) = (   3.2891106   5.8743827   9.1763621  )
        32           Ti1 tau(  32) = (   0.0006254   4.4649316   9.2693709  )
        33           O1  tau(  33) = (   3.3015003   2.9799855  11.3692792  )
        34           O1  tau(  34) = (   0.0092240   2.9805883  10.6323155  )
        35           O1  tau(  35) = (   1.3024855   4.4701597  12.6493271  )
        36           O1  tau(  36) = (   5.3029933   4.4710749  12.6473438  )
        37           Ti1 tau(  37) = (   0.0213219   5.9581237  12.5009821  )
        38           Ti1 tau(  38) = (   3.3165689   4.4756321  12.5216884  )
        39           O1  tau(  39) = (   0.0062450   3.0260372  14.9395602  )
        40           O1  tau(  40) = (   3.3068494   3.0035608  13.9656762  )
        41           O1  tau(  41) = (   4.5532872   4.4785133  16.2063021  )
        42           O1  tau(  42) = (   2.0453360   4.4758230  16.1992630  )
        43           Ti1 tau(  43) = (   3.3068391   0.0190840  15.7907057  )
        44           Ti1 tau(  44) = (   0.0173475   4.5946531  16.0781683  )
        45           O1  tau(  45) = (   3.2900926   2.9813045   4.7018136  )
        46           O1  tau(  46) = (   1.3039711   4.4726057   6.0039043  )
        47           O1  tau(  47) = (   5.2763189   4.4711207   6.0039473  )
        48           N1  tau(  48) = (   0.0050225   3.2246995  17.9653954  )
        49           C1  tau(  49) = (   6.5749124   2.4458835  18.8035322  )
        50           H1  tau(  50) = (   6.5624368   1.6931146  19.5645906  )

     number of k points=    10  Fermi-Dirac smearing, width (Ry)=  0.0073
                       cart. coord. in units 2pi/alat
        k(    1) = (   0.0000000   0.0000000   0.0000000), wk =   0.1250000
        k(    2) = (   0.0000000   0.0419351   0.0000000), wk =   0.2500000
        k(    3) = (   0.0000000  -0.0838702   0.0000000), wk =   0.1250000
        k(    4) = (   0.0379955   0.0000049   0.0000000), wk =   0.2500000
        k(    5) = (   0.0379955   0.0419400   0.0000000), wk =   0.2500000
        k(    6) = (   0.0379955  -0.0838652   0.0000000), wk =   0.2500000
        k(    7) = (   0.0379955  -0.0419301   0.0000000), wk =   0.2500000
        k(    8) = (  -0.0759910  -0.0000099   0.0000000), wk =   0.1250000
        k(    9) = (  -0.0759910   0.0419252   0.0000000), wk =   0.2500000
        k(   10) = (  -0.0759910  -0.0838800   0.0000000), wk =   0.1250000

     Initial potential from superposition of free atoms

     starting charge  371.99919, renormalised to  388.00000

     negative rho (up, down):  1.810E-02 0.000E+00

     %%%%%%%%%%%%%%%%%%%%%%%%%%%%%%%%%%%%%%%%%%%%%%%%%%%%%%%%%%%%%%%%%%%%%%%%
     %                                                                      %
     % You are using vdW-DF, which was implemented by the Thonhauser group. %
     % Please cite the following two papers that made this development      %
     % possible and the two reviews that describe the various versions:     %
     %                                                                      %
     %   T. Thonhauser et al., PRL 115, 136402 (2015).                      %
     %   T. Thonhauser et al., PRB 76, 125112 (2007).                       %
     %   K. Berland et al., Rep. Prog. Phys. 78, 066501 (2015).             %
     %   D.C. Langreth et al., J. Phys.: Condens. Matter 21, 084203 (2009). %
     %                                                                      %
     %                                                                      %
     % If you are calculating the stress with vdW-DF, please also cite:     %
     %                                                                      %
     %   R. Sabatini et al., J. Phys.: Condens. Matter 24, 424209 (2012).   %
     %                                                                      %
     %%%%%%%%%%%%%%%%%%%%%%%%%%%%%%%%%%%%%%%%%%%%%%%%%%%%%%%%%%%%%%%%%%%%%%%%

     Adding external electric field

     Computed dipole along edir(3) :
        Dipole               -4.8552 Ry au,        -12.3408 Debye
        Dipole field         -0.0092 Ry au,

        Potential amp.        0.8493 Ry
        Total length         46.3494 bohr

     Starting wfcs are  293 atomic wfcs
  @ DRIVER MODE: Message from server: STATUS
  @ DRIVER MODE: Message from server: POSDATA
  @ DRIVER MODE: Reading and sharing cell
  @ DRIVER MODE: Reading and sharing positions
  @ DRIVER MODE: Received positions

     Self-consistent Calculation

     iteration #  1     ecut=    29.40 Ry     beta= 0.05
     Davidson diagonalization with overlap
     c_bands:  5 eigenvalues not converged
     c_bands:  5 eigenvalues not converged
     c_bands:  5 eigenvalues not converged
     c_bands:  5 eigenvalues not converged
     c_bands:  3 eigenvalues not converged
     c_bands:  5 eigenvalues not converged
     c_bands:  4 eigenvalues not converged
     c_bands:  3 eigenvalues not converged
     c_bands:  1 eigenvalues not converged
     ethr =  1.00E-05,  avg # of iterations = 20.0

[...]

     total energy              =   -2846.17584580 Ry
     estimated scf accuracy    <     789.32444267 Ry

     iteration #  2     ecut=    29.40 Ry     beta= 0.05
     Davidson diagonalization with overlap
     ethr =  1.00E-02,  avg # of iterations = 15.5

[...]

     iteration # 71     ecut=    29.40 Ry     beta= 0.05
     Davidson diagonalization with overlap
     c_bands:  1 eigenvalues not converged
     ethr =  1.25E-10,  avg # of iterations = 11.0

[...]

     total energy              =   -2916.61449584 Ry
     estimated scf accuracy    <       0.00000016 Ry

     iteration # 75     ecut=    29.40 Ry     beta= 0.05
     Davidson diagonalization with overlap
     ethr =  3.89E-11,  avg # of iterations =  6.1

     negative rho (up, down):  1.835E-02 0.000E+00

     Adding external electric field

     Computed dipole along edir(3) :
        Dipole                1.5264 Ry au,          3.8797 Debye
        Dipole field          0.0029 Ry au,

        Potential amp.       -0.2670 Ry
        Total length         46.3494 bohr

     End of self-consistent calculation

          k = 0.0000 0.0000 0.0000 ( 18029 PWs)   bands (ev):

   -55.4372 -55.4011 -55.3937 -55.3596 -55.3165 -55.3125 -55.2766 -55.2561
   -55.2527 -55.2343 -55.2233 -55.2217 -55.1897 -55.1350 -54.4199 -54.3858
   -32.0037 -31.8857 -31.8448 -31.8012 -31.7470 -31.7454 -31.7405 -31.7278
   -31.6830 -31.6694 -31.6461 -31.6385 -31.6332 -31.6075 -31.5909 -31.5796
   -31.5741 -31.5611 -31.5542 -31.5460 -31.5292 -31.5200 -31.5071 -31.4918
   -31.4864 -31.4717 -31.4584 -31.4509 -31.4434 -31.4398 -31.4391 -31.4213
   -31.4157 -31.4072 -31.4050 -31.4044 -31.3699 -31.3550 -31.3516 -31.3409
   -31.3339 -31.2569 -30.8291 -30.7353 -30.7132 -30.6455 -30.5588 -30.4478
   -17.5032 -16.2552 -15.9867 -15.8359 -15.7303 -15.6324 -15.4992 -15.4802
   -15.3546 -15.2637 -15.1422 -15.0904 -15.0709 -15.0549 -15.0453 -15.0306
   -14.9787 -14.9741 -14.9439 -14.9315 -14.9092 -14.8714 -14.8660 -14.8325
   -14.8133 -14.7469 -14.6692 -14.5922 -14.5258 -14.2301 -12.9224 -12.8051
    -9.0076  -4.6857  -3.5980  -3.5500  -3.4498  -3.3503  -3.3317  -3.3042
    -3.2669  -3.1814  -3.0184  -2.8404  -2.7798  -2.7043  -2.6387  -2.6267
    -2.5978  -2.4392  -2.4012  -2.3533  -2.2979  -2.2732  -2.2439  -2.2210
    -2.1891  -2.1697  -2.1669  -2.1593  -2.0009  -1.9359  -1.8977  -1.8472
    -1.8293  -1.7778  -1.7552  -1.7226  -1.7190  -1.7139  -1.6620  -1.6493
    -1.6111  -1.5152  -1.4571  -1.3230  -1.2809  -1.1422  -1.0742  -1.0119
    -1.0001  -0.9204  -0.8858  -0.8785  -0.8180  -0.7923  -0.7744  -0.6507
    -0.5516  -0.5049  -0.4479  -0.4163  -0.3719  -0.3355  -0.2473  -0.2172
    -0.2008  -0.1914  -0.0491  -0.0205   0.0588   0.0865   0.1194   0.1205
     0.2249   0.2407   0.3159   0.3615   0.3920   0.4543   0.5051   0.5079
     0.5285   0.5542   0.5613   0.6558   0.6745   0.6845   0.7588   0.9029
     1.1306   1.1772   1.1866   1.5094   1.5214   1.6027   1.7871   2.1787
     2.2268   3.6606   3.7325   3.8025   3.8114   3.8477   3.8976   4.1297
     4.1417   4.1618   4.1681   4.2017

[...]

          k = 0.0380-0.0419 0.0000 ( 17876 PWs)   bands (ev):

[...]

          k =-0.0760-0.0000 0.0000 ( 17886 PWs)   bands (ev):

[...]

          k =-0.0760-0.0839 0.0000 ( 17948 PWs)   bands (ev):

   -55.4207 -55.4174 -55.3767 -55.3765 -55.3126 -55.2998 -55.2892 -55.2499
   -55.2399 -55.2379 -55.2374 -55.2068 -55.2065 -55.1376 -54.4029 -54.4027
   -31.8087 -31.8061 -31.7685 -31.7130 -31.7009 -31.7007 -31.6889 -31.6683
   -31.6682 -31.6453 -31.6360 -31.6329 -31.6236 -31.5813 -31.5731 -31.5696
   -31.5682 -31.5637 -31.5623 -31.5560 -31.5260 -31.5254 -31.5146 -31.5132
   -31.5072 -31.4963 -31.4962 -31.4953 -31.4820 -31.4772 -31.4727 -31.4702
   -31.4534 -31.4505 -31.4401 -31.4368 -31.4346 -31.4270 -31.3872 -31.3868
   -31.3463 -31.3456 -30.7259 -30.7257 -30.6417 -30.6415 -30.6022 -30.6021
   -17.4982 -15.7726 -15.6592 -15.6265 -15.4443 -15.4340 -15.3981 -15.3865
   -15.2432 -15.2015 -15.1930 -15.1837 -15.1351 -15.1337 -15.1308 -15.1085
   -15.0342 -15.0280 -15.0233 -15.0071 -14.9503 -14.9390 -14.9360 -14.9191
   -14.8875 -14.8836 -14.7895 -14.7863 -14.6834 -14.5873 -12.9066 -12.9065
    -9.0051  -4.6737  -3.4698  -3.3170  -2.9291  -2.8953  -2.8883  -2.6548
    -2.6278  -2.5955  -2.5527  -2.4809  -2.4320  -2.4111  -2.4077  -2.3392
    -2.2922  -2.2848  -2.2752  -2.2575  -2.2525  -2.2297  -2.1966  -2.1622
    -2.1524  -2.1260  -2.1117  -2.0898  -2.0708  -2.0361  -2.0219  -1.9979
    -1.9947  -1.8959  -1.8667  -1.7838  -1.7463  -1.7135  -1.6396  -1.6339
    -1.5319  -1.5282  -1.4748  -1.4635  -1.4256  -1.3199  -1.2346  -1.1830
    -1.1764  -1.1673  -1.0701  -0.9987  -0.9732  -0.9365  -0.9114  -0.8326
    -0.7737  -0.7525  -0.7121  -0.6276  -0.6237  -0.5605  -0.4572  -0.4161
    -0.3993  -0.3930  -0.3748  -0.3203  -0.3089  -0.2471  -0.2031  -0.1681
    -0.1572  -0.1133   0.0982   0.0994   0.1467   0.2603   0.2970   0.4478
     0.5254   0.5421   0.6190   0.6545   0.6805   0.7465   0.8539   0.8735
     0.8828   0.9572   0.9966   1.0212   1.0307   1.9599   1.9604   2.0467
     2.0468   3.7820   3.8979   3.9276   3.9776   4.0268   4.0762   4.1805
     4.2014   4.2439   4.2454   4.3157

     the Fermi energy is     3.7203 ev

!    total energy              =   -2916.61450648 Ry
     estimated scf accuracy    <       0.00000004 Ry
     smearing contrib. (-TS)   =      -0.03746289 Ry
     internal energy E=F+TS    =   -2916.57704359 Ry

     The total energy is F=E-TS. E is the sum of the following terms:
     one-electron contribution =  -24446.86133421 Ry
     hartree contribution      =   12310.97261388 Ry
     xc contribution           =    -478.38331089 Ry
     ewald contribution        =    9697.69059093 Ry
     electric field correction =       0.00439671 Ry

     convergence has been achieved in  75 iterations

     Forces acting on atoms (cartesian axes, Ry/au):

     atom    1 type  1   force =     0.00000376   -0.00029129    0.09341524
     atom    2 type  1   force =    -0.00018170   -0.00047354   -0.17790390
     atom    3 type  2   force =     0.00002035   -0.00034520   -0.02064338
     atom    4 type  2   force =    -0.00003591   -0.00186797    0.05839098
     atom    5 type  2   force =    -0.01036293   -0.00073533    0.00709604
     atom    6 type  2   force =     0.01202434   -0.00013647    0.00686632
     atom    7 type  1   force =    -0.00010733    0.00192468   -0.01367254
     atom    8 type  1   force =    -0.00009356    0.00177041   -0.00206521
     atom    9 type  2   force =    -0.00004808   -0.00044828   -0.00035490
     atom   10 type  2   force =    -0.00120188    0.00258501   -0.00296780
     atom   11 type  2   force =    -0.00067320   -0.00013115    0.00015809
     atom   12 type  2   force =     0.00051616   -0.00009075   -0.00003588
     atom   13 type  1   force =    -0.00007230   -0.00002209   -0.00005980
     atom   14 type  1   force =    -0.00002403   -0.00004332    0.00021456
     atom   15 type  2   force =    -0.00010594    0.00026274    0.00023976
     atom   16 type  2   force =    -0.00002967   -0.00010780   -0.00010819
     atom   17 type  2   force =     0.00082037    0.00007864    0.00004261
     atom   18 type  2   force =    -0.00036498    0.00005838    0.00041677
     atom   19 type  1   force =    -0.00027477    0.00037968   -0.00003911
     atom   20 type  1   force =    -0.00014191    0.00023900   -0.00023524
     atom   21 type  2   force =    -0.00002406   -0.00012073    0.10393147
     atom   22 type  2   force =    -0.00007087    0.00026262    0.00055785
     atom   23 type  2   force =    -0.07051200   -0.00022103   -0.02693889
     atom   24 type  2   force =     0.07029632    0.00022018   -0.02698815
     atom   25 type  1   force =     0.00001464   -0.00033380    0.09299079
     atom   26 type  1   force =    -0.00019243   -0.00052363   -0.17812777
     atom   27 type  2   force =     0.00005913   -0.00023695   -0.01963804
     atom   28 type  2   force =     0.00001251   -0.00164071    0.05786491
     atom   29 type  2   force =    -0.01086765   -0.00057460    0.00759162
     atom   30 type  2   force =     0.01239077   -0.00022939    0.00733780
     atom   31 type  1   force =    -0.00003843    0.00592955   -0.01474779
     atom   32 type  1   force =    -0.00011758   -0.00212929   -0.00201765
     atom   33 type  2   force =     0.00002182   -0.00005700   -0.00032132
     atom   34 type  2   force =    -0.00064702   -0.00100471   -0.00060367
     atom   35 type  2   force =    -0.00012689   -0.00006858    0.00015309
     atom   36 type  2   force =    -0.00006153   -0.00000892    0.00022904
     atom   37 type  1   force =     0.00022114   -0.00078080   -0.00004177
     atom   38 type  1   force =    -0.00005967   -0.00009281    0.00016755
     atom   39 type  2   force =     0.00011752   -0.00037731    0.00029831
     atom   40 type  2   force =    -0.00021892   -0.00011656   -0.00037190
     atom   41 type  2   force =     0.00054561   -0.00015888   -0.00029846
     atom   42 type  2   force =    -0.00011958    0.00006824    0.00011085
     atom   43 type  1   force =    -0.00016225   -0.00013060   -0.00006469
     atom   44 type  1   force =     0.00008794    0.00019820   -0.00020702
     atom   45 type  2   force =    -0.00002330   -0.00014808    0.10388408
     atom   46 type  2   force =    -0.07049918   -0.00017080   -0.02692783
     atom   47 type  2   force =     0.07029531    0.00026060   -0.02698143
     atom   48 type  3   force =     0.00056716    0.02379331   -0.02572596
     atom   49 type  4   force =    -0.00072663   -0.03033415    0.03444235
     atom   50 type  5   force =     0.00017132    0.00612129   -0.00831178

     Total force =     0.370559     Total SCF correction =     0.000618
  @ DRIVER MODE: Message from server: STATUS
  @ DRIVER MODE: Message from server: GETFORCE
  @ DRIVER MODE: Returning v,forces,stress,ensemble

     Writing output data file ./calc.save/
  @ DRIVER MODE: Message from server: EXIT
  @ DRIVE MODE: Exiting

     General routines

     Parallel routines

   This run was terminated on:  18:20:25  23Aug2021

   JOB DONE.