     Program PWSCF v.6.7GPU starts on 15Jul2021 at 20:51:21

     R & G space division:  proc/nbgrp/npool/nimage =      16
     Reading input from /storage/home/hcoda1/3/ntian30/research/carbon/15Jul_vib/ads_slab/CH3N_a/out_0011/pw.inp
Warning: card &CELL ignored
Warning: card   CELL_DYNAMICS='IPI', ignored
Warning: card / ignored

     Current dimensions of program PWSCF are:
     Max number of different atomic species (ntypx) = 10
     Max number of k-points (npk) =  40000
     Max angular momentum in pseudopotentials (lmaxx) =  3
     Presently no symmetry can be used with electric field

     Message from routine cell_base_init:
     DEPRECATED: use true lattice parameter, not A to a.u. conversion factor

     IMPORTANT: XC functional enforced from input :
     Exchange-correlation= BEEF-VDW
                           (   1   4  43  14   2   0   0)
     Any further DFT definition will be discarded
     Please, verify this is what you really want

  @ DRIVER MODE: Connecting to
 qe_1139763_2351643.sched-torque.pace.gatech.edug6dqjjex_scratch
  using UNIX socket
  @ DRIVER MODE: Message from server: STATUS
  @ DRIVER MODE: Message from server: INIT
  @ DRIVER MODE: Receiving replica           0          -1
  @ DRIVER MODE: Receiving encoded integer          25
  @ DRIVER MODE:  SCF:  T  FORCE:  T  STRESS:  F  VC:  F  ENSEMBLE:  F
  @ DRIVER MODE:  SCF:  T  FORCE:  T  STRESS:  F  VC:  F  ENSEMBLE:  F

     Using Slab Decomposition

     bravais-lattice index     =            0
     lattice parameter (alat)  =       1.8897  a.u.
     unit-cell volume          =    6658.9804 (a.u.)^3
     number of atoms/cell      =           52
     number of atomic types    =            5
     number of electrons       =       390.00
     number of Kohn-Sham states=          205
     kinetic-energy cutoff     =      29.3995  Ry
     charge density cutoff     =     293.9946  Ry
     scf convergence threshold =      7.3E-08
     mixing beta               =       0.0500
     number of iterations used =            8  plain     mixing
     Exchange-correlation= BEEF-VDW
                           (   1   4  43  14   2   0   0)

     celldm(1)=   1.889726  celldm(2)=   0.000000  celldm(3)=   0.000000
     celldm(4)=   0.000000  celldm(5)=   0.000000  celldm(6)=   0.000000

     crystal axes: (cart. coord. in units of alat)
               a(1) = (   6.579727   0.000000   0.000000 )
               a(2) = (  -0.000775   5.961596   0.000000 )
               a(3) = (   0.000000   0.000000  25.155947 )

     reciprocal axes: (cart. coord. in units 2 pi/alat)
               b(1) = (  0.151982  0.000020  0.000000 )
               b(2) = (  0.000000  0.167740  0.000000 )
               b(3) = (  0.000000  0.000000  0.039752 )

     PseudoPot. # 1 for Ti read from file:
     /storage/coda1/p-amedford6/0/shared/rich_project_chbe-medford/medford-share/data/pseudos_module/espresso/nninc/pbe/van/Ti.UPF
     MD5 check sum: 8e4df49b7f0d34bbd5052bf3f5ea0213
     Pseudo is Ultrasoft, Zval = 12.0
     Generated by new atomic code, or converted to UPF format
     Using radial grid of  851 points,  6 beta functions with:
                l(1) =   0
                l(2) =   0
                l(3) =   1
                l(4) =   1
                l(5) =   2
                l(6) =   2
     Q(r) pseudized with  8 coefficients,  rinner =    1.000   1.000   1.000
                                                       1.000   1.000

     PseudoPot. # 2 for O  read from file:
     /storage/coda1/p-amedford6/0/shared/rich_project_chbe-medford/medford-share/data/pseudos_module/espresso/nninc/pbe/van/O.UPF
     MD5 check sum: 78c19812648e8988a0fe644b0f25305e
     Pseudo is Ultrasoft, Zval =  6.0
     Generated by new atomic code, or converted to UPF format
     Using radial grid of  737 points,  4 beta functions with:
                l(1) =   0
                l(2) =   0
                l(3) =   1
                l(4) =   1
     Q(r) pseudized with  8 coefficients,  rinner =    0.800   0.800   0.800

     PseudoPot. # 3 for N  read from file:
     /storage/coda1/p-amedford6/0/shared/rich_project_chbe-medford/medford-share/data/pseudos_module/espresso/nninc/pbe/van/N.UPF
     MD5 check sum: 90d10febe142ad51ac9d5be1deb811c4
     Pseudo is Ultrasoft, Zval =  5.0
     Generated by new atomic code, or converted to UPF format
     Using radial grid of  729 points,  4 beta functions with:
                l(1) =   0
                l(2) =   0
                l(3) =   1
                l(4) =   1
     Q(r) pseudized with  8 coefficients,  rinner =    0.800   0.800   0.800

     PseudoPot. # 4 for C  read from file:
     /storage/coda1/p-amedford6/0/shared/rich_project_chbe-medford/medford-share/data/pseudos_module/espresso/nninc/pbe/van/C.UPF
     MD5 check sum: 1a69bf6b8db32088f5b2163dbdb77a27
     Pseudo is Ultrasoft, Zval =  4.0
     Generated by new atomic code, or converted to UPF format
     Using radial grid of  721 points,  4 beta functions with:
                l(1) =   0
                l(2) =   0
                l(3) =   1
                l(4) =   1
     Q(r) pseudized with  8 coefficients,  rinner =    0.800   0.800   0.800

     PseudoPot. # 5 for H  read from file:
     /storage/coda1/p-amedford6/0/shared/rich_project_chbe-medford/medford-share/data/pseudos_module/espresso/nninc/pbe/van/H.UPF
     MD5 check sum: b5ee9d7bfd3a09ee7748110bda690ff7
     Pseudo is Ultrasoft, Zval =  1.0
     Generated by new atomic code, or converted to UPF format
     Using radial grid of  615 points,  1 beta functions with:
                l(1) =   0
     Q(r) pseudized with  8 coefficients,  rinner =    0.800

     atomic species   valence    mass     pseudopotential
        Ti1           12.00    47.86700     Ti( 1.00)
        O1             6.00    15.99900     O ( 1.00)
        N1             5.00    14.00700     N ( 1.00)
        C1             4.00    12.01100     C ( 1.00)
        H1             1.00     1.00800     H ( 1.00)

     Starting magnetic structure
     atomic species   magnetization
        Ti1          0.000
        O1           0.000
        N1           0.000
        C1           0.025
        H1           0.000

     No symmetry found

   Cartesian axes

     site n.     atom                  positions (alat units)
         1           Ti1 tau(   1) = (   0.0004258   2.9801865   6.0000000  )
         2           Ti1 tau(   2) = (   3.2906075   1.4906267   6.0002472  )
         3           O1  tau(   3) = (   0.0006271   0.0005054   7.9858123  )
         4           O1  tau(   4) = (   3.2906025   0.0005020   7.3038282  )
         5           O1  tau(   5) = (   4.5942328   1.4918067   9.2879030  )
         6           O1  tau(   6) = (   1.9868534   1.4903216   9.2879459  )
         7           Ti1 tau(   7) = (   3.2907910   2.8959150   9.1758416  )
         8           Ti1 tau(   8) = (   0.0015273   1.4827037   9.2680791  )
         9           O1  tau(   9) = (   3.2848820   0.0184509  11.2968037  )
        10           O1  tau(  10) = (   0.0116148   5.9584955  10.6183126  )
        11           O1  tau(  11) = (   1.3164307   1.5202202  12.6152053  )
        12           O1  tau(  12) = (   5.2938533   1.5248534  12.6363518  )
        13           Ti1 tau(  13) = (   6.4693392   3.0155455  12.7604093  )
        14           Ti1 tau(  14) = (   3.1621140   1.5165027  12.4659144  )
        15           O1  tau(  15) = (   0.0250032   0.0426882  14.5925537  )
        16           O1  tau(  16) = (   3.2896737   0.0171256  13.8799622  )
        17           O1  tau(  17) = (   4.5365032   1.4993634  16.0438468  )
        18           O1  tau(  18) = (   2.0814567   1.5015292  16.0591106  )
        19           Ti1 tau(  19) = (   3.3082904   2.9956922  15.6854367  )
        20           Ti1 tau(  20) = (   0.0032501   1.4479889  16.1249605  )
        21           O1  tau(  21) = (   3.2904802   0.0005063   4.7018136  )
        22           O1  tau(  22) = (   0.0161699   0.0004382  17.1970091  )
        23           O1  tau(  23) = (   1.3043587   1.4918075   6.0039043  )
        24           O1  tau(  24) = (   5.2767064   1.4903225   6.0039473  )
        25           Ti1 tau(  25) = (   0.0000382   5.9609847   6.0000000  )
        26           Ti1 tau(  26) = (   3.2902200   4.4714249   6.0002472  )
        27           O1  tau(  27) = (   0.0002396   2.9813036   7.9858123  )
        28           O1  tau(  28) = (   3.2902150   2.9813002   7.3038282  )
        29           O1  tau(  29) = (   4.5938453   4.4726049   9.2879030  )
        30           O1  tau(  30) = (   1.9864658   4.4711199   9.2879459  )
        31           Ti1 tau(  31) = (   3.2891106   5.8743827   9.1763621  )
        32           Ti1 tau(  32) = (   0.0006254   4.4649316   9.2693709  )
        33           O1  tau(  33) = (   3.2855107   2.9994495  11.2959752  )
        34           O1  tau(  34) = (   0.0092240   2.9805883  10.6323155  )
        35           O1  tau(  35) = (   1.3179678   4.4860142  12.6155112  )
        36           O1  tau(  36) = (   5.2920789   4.4901865  12.6316709  )
        37           Ti1 tau(  37) = (   6.5050993   0.0355131  12.7707974  )
        38           Ti1 tau(  38) = (   3.1594757   4.4963870  12.4672366  )
        39           O1  tau(  39) = (   6.5726527   3.0227966  14.6583025  )
        40           O1  tau(  40) = (   3.2932321   2.9979836  13.8792693  )
        41           O1  tau(  41) = (   4.5322310   4.4839795  16.0418810  )
        42           O1  tau(  42) = (   2.0800586   4.4799519  16.0553745  )
        43           Ti1 tau(  43) = (   3.2910362   0.0127607  15.6894215  )
        44           Ti1 tau(  44) = (   0.0049462   4.4269923  16.0943486  )
        45           O1  tau(  45) = (   3.2900926   2.9813045   4.7018136  )
        46           O1  tau(  46) = (   1.3039711   4.4726057   6.0039043  )
        47           O1  tau(  47) = (   5.2763189   4.4711207   6.0039473  )
        48           N1  tau(  48) = (   0.0596666   2.9942962  17.3216073  )
        49           C1  tau(  49) = (   0.3918855   2.9774893  18.7166025  )
        50           H1  tau(  50) = (   0.0017595   3.8652167  19.2343835  )
        51           H1  tau(  51) = (   0.0043965   2.0815098  19.2200810  )
        52           H1  tau(  52) = (   1.4843755   2.9788857  18.8581259  )

     number of k points=    10  Fermi-Dirac smearing, width (Ry)=  0.0073
                       cart. coord. in units 2pi/alat
        k(    1) = (   0.0000000   0.0000000   0.0000000), wk =   0.0625000
        k(    2) = (   0.0000000   0.0419351   0.0000000), wk =   0.1250000
        k(    3) = (   0.0000000  -0.0838702   0.0000000), wk =   0.0625000
        k(    4) = (   0.0379955   0.0000049   0.0000000), wk =   0.1250000
        k(    5) = (   0.0379955   0.0419400   0.0000000), wk =   0.1250000
        k(    6) = (   0.0379955  -0.0838652   0.0000000), wk =   0.1250000
        k(    7) = (   0.0379955  -0.0419301   0.0000000), wk =   0.1250000
        k(    8) = (  -0.0759910  -0.0000099   0.0000000), wk =   0.0625000
        k(    9) = (  -0.0759910   0.0419252   0.0000000), wk =   0.1250000
        k(   10) = (  -0.0759910  -0.0838800   0.0000000), wk =   0.0625000

     Initial potential from superposition of free atoms

     starting charge  373.99917, renormalised to  390.00000

     negative rho (up, down):  8.650E-03 8.657E-03

     %%%%%%%%%%%%%%%%%%%%%%%%%%%%%%%%%%%%%%%%%%%%%%%%%%%%%%%%%%%%%%%%%%%%%%%%
     %                                                                      %
     % You are using vdW-DF, which was implemented by the Thonhauser group. %
     % Please cite the following two papers that made this development      %
     % possible and the two reviews that describe the various versions:     %
     %                                                                      %
     %   T. Thonhauser et al., PRL 115, 136402 (2015).                      %
     %   T. Thonhauser et al., PRB 76, 125112 (2007).                       %
     %   K. Berland et al., Rep. Prog. Phys. 78, 066501 (2015).             %
     %   D.C. Langreth et al., J. Phys.: Condens. Matter 21, 084203 (2009). %
     %                                                                      %
     %                                                                      %
     % If you are calculating the stress with vdW-DF, please also cite:     %
     %                                                                      %
     %   R. Sabatini et al., J. Phys.: Condens. Matter 24, 424209 (2012).   %
     %                                                                      %
     %%%%%%%%%%%%%%%%%%%%%%%%%%%%%%%%%%%%%%%%%%%%%%%%%%%%%%%%%%%%%%%%%%%%%%%%

     Adding external electric field

     Computed dipole along edir(3) :
        Dipole               -4.6231 Ry au,        -11.7507 Debye
        Dipole field         -0.0087 Ry au,

        Potential amp.        0.8087 Ry
        Total length         46.3494 bohr

[...]

     Starting wfcs are  295 atomic wfcs
  @ DRIVER MODE: Message from server: STATUS
  @ DRIVER MODE: Message from server: POSDATA
  @ DRIVER MODE: Reading and sharing cell
  @ DRIVER MODE: Reading and sharing positions
  @ DRIVER MODE: Received positions

     Self-consistent Calculation

     iteration #  1     ecut=    29.40 Ry     beta= 0.05
     Davidson diagonalization with overlap
     c_bands:  3 eigenvalues not converged
     c_bands:  3 eigenvalues not converged
     c_bands:  2 eigenvalues not converged
     c_bands:  4 eigenvalues not converged
     c_bands:  4 eigenvalues not converged
     c_bands:  2 eigenvalues not converged
     c_bands:  2 eigenvalues not converged
     c_bands:  2 eigenvalues not converged
     c_bands:  4 eigenvalues not converged
     c_bands:  2 eigenvalues not converged
     c_bands:  2 eigenvalues not converged
     c_bands:  4 eigenvalues not converged
     c_bands:  4 eigenvalues not converged
     c_bands:  2 eigenvalues not converged
     c_bands:  3 eigenvalues not converged
     c_bands:  3 eigenvalues not converged
     ethr =  1.00E-05,  avg # of iterations = 19.7

[...]

     total energy              =   -2877.43046905 Ry
     estimated scf accuracy    <     481.16118197 Ry

     total magnetization       =     0.12 Bohr mag/cell
     absolute magnetization    =     0.15 Bohr mag/cell

     iteration #  2     ecut=    29.40 Ry     beta= 0.05
     Davidson diagonalization with overlap
     ethr =  1.00E-02,  avg # of iterations = 13.4

[...]

     iteration # 37     ecut=    29.40 Ry     beta= 0.05
     Davidson diagonalization with overlap
     c_bands:  3 eigenvalues not converged
     ethr =  2.27E-09,  avg # of iterations =  6.0

[...]

     total energy              =   -2919.13308779 Ry
     estimated scf accuracy    <       0.00000010 Ry

[...]

     iteration # 46     ecut=    29.40 Ry     beta= 0.05
     Davidson diagonalization with overlap
     ethr =  2.68E-11,  avg # of iterations =  5.4

     negative rho (up, down):  8.885E-03 8.885E-03

[...]

     Adding external electric field

     Computed dipole along edir(3) :
        Dipole                0.2458 Ry au,          0.6248 Debye
        Dipole field          0.0005 Ry au,

        Potential amp.       -0.0430 Ry
        Total length         46.3494 bohr

     Magnetic moment per site  (integrated on atomic sphere of radius R)
     atom   1 (R=0.743)  charge=  8.0712  magn= -0.0002
     atom   2 (R=0.743)  charge=  8.0672  magn= -0.0003
     atom   3 (R=0.743)  charge=  5.0508  magn=  0.0000
     atom   4 (R=0.743)  charge=  5.0897  magn=  0.0001
     atom   5 (R=0.743)  charge=  5.0527  magn=  0.0000
     atom   6 (R=0.743)  charge=  5.0540  magn=  0.0000
     atom   7 (R=0.743)  charge=  8.0606  magn= -0.0000
     atom   8 (R=0.743)  charge=  8.0480  magn= -0.0000
     atom   9 (R=0.743)  charge=  5.0677  magn=  0.0000
     atom  10 (R=0.743)  charge=  4.9974  magn=  0.0000
     atom  11 (R=0.743)  charge=  5.0557  magn=  0.0000
     atom  12 (R=0.743)  charge=  5.0584  magn=  0.0000
     atom  13 (R=0.743)  charge=  8.0594  magn= -0.0000
     atom  14 (R=0.743)  charge=  8.0663  magn= -0.0000
     atom  15 (R=0.743)  charge=  5.0445  magn=  0.0000
     atom  16 (R=0.743)  charge=  5.0715  magn=  0.0000
     atom  17 (R=0.743)  charge=  5.0433  magn=  0.0000
     atom  18 (R=0.743)  charge=  5.0420  magn=  0.0000
     atom  19 (R=0.743)  charge=  8.0873  magn= -0.0000
     atom  20 (R=0.743)  charge=  8.0866  magn= -0.0001
     atom  21 (R=0.743)  charge=  4.9345  magn=  0.0004
     atom  22 (R=0.743)  charge=  5.0262  magn=  0.0001
     atom  23 (R=0.743)  charge=  5.0426  magn=  0.0001
     atom  24 (R=0.743)  charge=  5.0426  magn=  0.0001
     atom  25 (R=0.743)  charge=  8.0712  magn= -0.0002
     atom  26 (R=0.743)  charge=  8.0673  magn= -0.0003
     atom  27 (R=0.743)  charge=  5.0507  magn=  0.0000
     atom  28 (R=0.743)  charge=  5.0899  magn=  0.0000
     atom  29 (R=0.743)  charge=  5.0534  magn=  0.0000
     atom  30 (R=0.743)  charge=  5.0547  magn=  0.0000
     atom  31 (R=0.743)  charge=  8.0608  magn= -0.0000
     atom  32 (R=0.743)  charge=  8.0482  magn= -0.0000
     atom  33 (R=0.743)  charge=  5.0679  magn=  0.0000
     atom  34 (R=0.743)  charge=  4.9964  magn=  0.0000
     atom  35 (R=0.743)  charge=  5.0558  magn=  0.0000
     atom  36 (R=0.743)  charge=  5.0580  magn=  0.0000
     atom  37 (R=0.743)  charge=  8.0669  magn= -0.0000
     atom  38 (R=0.743)  charge=  8.0667  magn= -0.0000
     atom  39 (R=0.743)  charge=  5.0388  magn=  0.0000
     atom  40 (R=0.743)  charge=  5.0730  magn=  0.0000
     atom  41 (R=0.743)  charge=  5.0440  magn=  0.0000
     atom  42 (R=0.743)  charge=  5.0430  magn=  0.0000
     atom  43 (R=0.743)  charge=  8.0878  magn= -0.0000
     atom  44 (R=0.743)  charge=  8.0856  magn= -0.0001
     atom  45 (R=0.743)  charge=  4.9345  magn=  0.0004
     atom  46 (R=0.743)  charge=  5.0426  magn=  0.0001
     atom  47 (R=0.743)  charge=  5.0426  magn=  0.0001
     atom  48 (R=0.592)  charge=  2.7284  magn=  0.0001
     atom  49 (R=0.453)  charge=  0.8645  magn=  0.0000
     atom  50 (R=0.453)  charge=  0.5118  magn= -0.0000
     atom  51 (R=0.453)  charge=  0.5126  magn= -0.0000
     atom  52 (R=0.453)  charge=  0.5091  magn= -0.0000

     End of self-consistent calculation

 ------ SPIN UP ------------

          k = 0.0000 0.0000 0.0000 ( 18029 PWs)   bands (ev):

   -56.9006 -56.8670 -56.0147 -56.0053 -55.9796 -55.9728 -55.8661 -55.8303
   -55.6494 -55.6142 -55.5628 -55.5429 -55.5289 -55.4451 -55.0016 -54.9489
   -33.3281 -33.1747 -33.1465 -33.0768 -32.9857 -32.9541 -32.4880 -32.4788
   -32.4088 -32.3005 -32.2549 -32.2281 -32.2129 -32.1890 -32.1562 -32.1530
   -32.1467 -32.1435 -32.1192 -32.1135 -32.1049 -32.0743 -32.0483 -32.0331
   -32.0194 -32.0022 -31.9942 -31.9708 -31.9547 -31.9012 -31.8809 -31.8771
   -31.7881 -31.7865 -31.7735 -31.7182 -31.7155 -31.6900 -31.6728 -31.6512
   -31.6269 -31.5791 -31.5237 -31.2450 -31.2260 -31.1985 -31.1699 -31.0519
   -17.0632 -16.6245 -16.3939 -16.2624 -16.1916 -16.1405 -16.0930 -15.9685
   -15.8959 -15.8919 -15.8543 -15.8168 -15.7483 -15.6080 -15.5107 -15.4522
   -15.4093 -15.2895 -15.2310 -15.1960 -15.1883 -15.1580 -15.1377 -14.9393
   -14.9170 -14.8201 -14.8048 -14.6799 -14.4537 -14.0624 -13.9524 -13.1566
    -7.7802  -4.6293  -4.1204  -3.8783  -3.7954  -3.6855  -3.6769  -3.5996
    -3.4805  -3.4302  -3.3843  -3.2686  -3.2655  -3.1192  -3.0895  -3.0756
    -3.0696  -3.0282  -3.0108  -2.9559  -2.9033  -2.8972  -2.8921  -2.7406
    -2.6408  -2.5707  -2.5488  -2.5323  -2.5034  -2.4099  -2.4073  -2.3911
    -2.3876  -2.2944  -2.1422  -2.1335  -2.0998  -2.0621  -2.0600  -2.0141
    -2.0070  -1.8525  -1.8051  -1.6913  -1.6771  -1.6441  -1.5752  -1.5714
    -1.4595  -1.4009  -1.3598  -1.3090  -1.2017  -1.1609  -1.1294  -1.0414
    -0.9794  -0.9427  -0.9244  -0.9048  -0.7959  -0.7886  -0.7738  -0.6829
    -0.6768  -0.6260  -0.5355  -0.5132  -0.5111  -0.4212  -0.4134  -0.3136
    -0.2803  -0.2282  -0.1982  -0.1183  -0.0877   0.0186   0.0553   0.0729
     0.2007   0.2152   0.2760   0.3400   0.3979   0.4419   0.4581   0.4919
     0.5015   0.5932   0.7023   0.7044   0.8154   0.8525   1.0105   1.0495
     1.3473   1.3671   2.0219   2.3747   2.5352   2.8334   3.0274   3.1400
     3.3509   3.3652   3.3709   3.5497   3.5979

[...]

          k =-0.0760-0.0000 0.0000 ( 17886 PWs)   bands (ev):

[...]

 ------ SPIN DOWN ----------

[...]

          k = 0.0380-0.0419 0.0000 ( 17876 PWs)   bands (ev):

[...]

          k =-0.0760-0.0839 0.0000 ( 17948 PWs)   bands (ev):

   -56.8846 -56.8842 -55.9986 -55.9943 -55.9900 -55.9896 -55.8512 -55.8453
   -55.6344 -55.6293 -55.5466 -55.5465 -55.5398 -55.4483 -54.9951 -54.9558
   -33.1612 -33.1608 -33.1455 -33.1453 -33.0305 -33.0302 -32.3177 -32.3153
   -32.3027 -32.2974 -32.2452 -32.2437 -32.2011 -32.2008 -32.1997 -32.1969
   -32.1883 -32.1858 -32.1847 -32.1828 -32.1030 -32.0979 -32.0517 -32.0479
   -31.9859 -31.9782 -31.9167 -31.9110 -31.8909 -31.8908 -31.8706 -31.8332
   -31.8319 -31.7971 -31.7718 -31.7717 -31.7643 -31.7327 -31.7326 -31.7131
   -31.6900 -31.6535 -31.3894 -31.3088 -31.2229 -31.1919 -31.1767 -31.1364
   -16.4111 -16.4091 -16.3773 -16.3770 -16.1062 -16.1026 -16.0544 -16.0522
   -15.8809 -15.8730 -15.6677 -15.6586 -15.6526 -15.6489 -15.5212 -15.5141
   -15.4512 -15.4383 -15.3506 -15.3438 -15.2822 -15.2758 -15.2400 -15.2189
   -14.9009 -14.8949 -14.7720 -14.7592 -14.6087 -14.0545 -14.0544 -13.1734
    -7.7705  -3.5102  -3.5094  -3.4432  -3.4423  -3.3185  -3.3117  -3.2416
    -3.2409  -3.1356  -3.1319  -3.0535  -3.0089  -2.9943  -2.9909  -2.9783
    -2.9685  -2.8434  -2.8364  -2.8237  -2.8080  -2.7563  -2.7536  -2.7489
    -2.6625  -2.6448  -2.6135  -2.5694  -2.4695  -2.4528  -2.4365  -2.4098
    -2.3557  -2.3397  -2.3256  -2.2801  -2.2592  -2.1598  -2.1193  -2.0676
    -1.9467  -1.9439  -1.9356  -1.9181  -1.7698  -1.7326  -1.7018  -1.6940
    -1.6865  -1.6372  -1.5441  -1.5359  -1.4020  -1.3972  -1.3262  -1.2424
    -1.2237  -1.1946  -1.0628  -1.0148  -0.9829  -0.9767  -0.9574  -0.9284
    -0.8996  -0.8722  -0.7283  -0.7086  -0.6845  -0.6472  -0.6345  -0.5789
    -0.5326  -0.4509  -0.3707  -0.3697  -0.2900  -0.2430  -0.1825  -0.0970
    -0.0862  -0.0794   0.1996   0.2770   0.3693   0.4529   0.5158   0.5796
     0.6038   0.6685   0.7003   0.8396   0.8427   0.8598   0.8600   0.9256
     0.9304   1.3370   1.9168   2.9479   2.9481   3.0155   3.0159   3.3396
     3.3451   3.4546   3.4641   3.5786   3.5806

     the Fermi energy is     2.2096 ev

!    total energy              =   -2919.13324667 Ry
     estimated scf accuracy    <       0.00000007 Ry
     smearing contrib. (-TS)   =      -0.00467811 Ry
     internal energy E=F+TS    =   -2919.12856856 Ry

     The total energy is F=E-TS. E is the sum of the following terms:
     one-electron contribution =  -24581.05602154 Ry
     hartree contribution      =   12374.67265725 Ry
     xc contribution           =    -479.90251368 Ry
     ewald contribution        =    9767.15719540 Ry
     electric field correction =       0.00011401 Ry

     total magnetization       =    -0.00 Bohr mag/cell
     absolute magnetization    =     0.01 Bohr mag/cell

     convergence has been achieved in  46 iterations

     Forces acting on atoms (cartesian axes, Ry/au):

     atom    1 type  1   force =    -0.00002017   -0.00046842    0.12457981
     atom    2 type  1   force =    -0.00011968   -0.00051192   -0.16055092
     atom    3 type  2   force =     0.00015886   -0.00014174   -0.06860423
     atom    4 type  2   force =    -0.00004549   -0.00017735    0.02747062
     atom    5 type  2   force =    -0.01665533    0.00229857   -0.00876068
     atom    6 type  2   force =     0.01811458    0.00296590   -0.00971162
     atom    7 type  1   force =     0.00056522   -0.00362666    0.02213824
     atom    8 type  1   force =    -0.00015705   -0.00291658    0.11205801
     atom    9 type  2   force =     0.00047330   -0.00002893   -0.00021610
     atom   10 type  2   force =    -0.00266641    0.00369206   -0.07359844
     atom   11 type  2   force =     0.00129516   -0.00059052   -0.00042042
     atom   12 type  2   force =    -0.00054664   -0.00105772   -0.00077596
     atom   13 type  1   force =     0.00032623   -0.00065921    0.00054324
     atom   14 type  1   force =    -0.00083346   -0.00054674   -0.00001559
     atom   15 type  2   force =    -0.00028976   -0.00010287    0.00012491
     atom   16 type  2   force =     0.00028469    0.00011816   -0.00049853
     atom   17 type  2   force =     0.00026871   -0.00016952   -0.00014977
     atom   18 type  2   force =    -0.00050308   -0.00032738   -0.00046313
     atom   19 type  1   force =     0.00063525   -0.00037871   -0.00001646
     atom   20 type  1   force =    -0.00017447   -0.00073480   -0.00067293
     atom   21 type  2   force =     0.00005546   -0.00006715    0.09972440
     atom   22 type  2   force =     0.00006651   -0.00036019    0.00036736
     atom   23 type  2   force =    -0.07926440   -0.00009252   -0.03248038
     atom   24 type  2   force =     0.07913534    0.00035776   -0.03250043
     atom   25 type  1   force =     0.00001282   -0.00049988    0.12408890
     atom   26 type  1   force =    -0.00015486   -0.00044312   -0.16061589
     atom   27 type  2   force =     0.00029529   -0.00031614   -0.06761958
     atom   28 type  2   force =    -0.00002406   -0.00001760    0.02723378
     atom   29 type  2   force =    -0.01711805    0.00187828   -0.00886768
     atom   30 type  2   force =     0.01845372    0.00226575   -0.00976473
     atom   31 type  1   force =     0.00058516   -0.00092337    0.02167004
     atom   32 type  1   force =    -0.00011811    0.00052865    0.11251136
     atom   33 type  2   force =     0.00025897   -0.00064166   -0.00040524
     atom   34 type  2   force =    -0.00273441    0.00315852   -0.07276360
     atom   35 type  2   force =    -0.00111095    0.00023361    0.00017775
     atom   36 type  2   force =     0.00086362    0.00008182    0.00029060
     atom   37 type  1   force =    -0.00009297   -0.00003180   -0.00031319
     atom   38 type  1   force =     0.00088203   -0.00027229   -0.00019620
     atom   39 type  2   force =    -0.00010236   -0.00050700    0.00016320
     atom   40 type  2   force =     0.00007281   -0.00012421   -0.00008346
     atom   41 type  2   force =     0.00024873   -0.00048204   -0.00008630
     atom   42 type  2   force =    -0.00009362   -0.00016677   -0.00056727
     atom   43 type  1   force =     0.00016053    0.00069838    0.00078839
     atom   44 type  1   force =    -0.00067571   -0.00006308   -0.00088781
     atom   45 type  2   force =     0.00004580   -0.00007023    0.09974165
     atom   46 type  2   force =    -0.07927255   -0.00004207   -0.03247490
     atom   47 type  2   force =     0.07914256    0.00039890   -0.03249454
     atom   48 type  3   force =    -0.00050261   -0.00042713   -0.00644258
     atom   49 type  4   force =    -0.00123088    0.00014653    0.01665582
     atom   50 type  5   force =     0.00178547   -0.00316226   -0.00328913
     atom   51 type  5   force =     0.00159427    0.00261444   -0.00278549
     atom   52 type  5   force =    -0.00127402   -0.00028773   -0.00123487

     Total force =     0.425927     Total SCF correction =     0.000730
  @ DRIVER MODE: Message from server: STATUS
  @ DRIVER MODE: Message from server: GETFORCE
  @ DRIVER MODE: Returning v,forces,stress,ensemble

     Writing output data file ./calc.save/
  @ DRIVER MODE: Message from server: EXIT
  @ DRIVE MODE: Exiting

     General routines

     Parallel routines

   This run was terminated on:  21: 9:10  15Jul2021

   JOB DONE.