     Program PWSCF v.6.7GPU starts on 22Sep2021 at 22:35:11

     R & G space division:  proc/nbgrp/npool/nimage =      10
     Reading input from /storage/home/hcoda1/3/ntian30/research/carbon/CxH_vib/H2O_calc/ads_slab/CH2HO_a/out_0025/pw.inp
Warning: card &CELL ignored
Warning: card   CELL_DYNAMICS='IPI', ignored
Warning: card / ignored

     Current dimensions of program PWSCF are:
     Max number of different atomic species (ntypx) = 10
     Max number of k-points (npk) =  40000
     Max angular momentum in pseudopotentials (lmaxx) =  3
     Presently no symmetry can be used with electric field

     Message from routine cell_base_init:
     DEPRECATED: use true lattice parameter, not A to a.u. conversion factor

     IMPORTANT: XC functional enforced from input :
     Exchange-correlation= BEEF-VDW
                           (   1   4  43  14   2   0   0)
     Any further DFT definition will be discarded
     Please, verify this is what you really want

  @ DRIVER MODE: Connecting to
 qe_1139763_2937324.sched-torque.pace.gatech.edukiqmnmfp_scratch
  using UNIX socket
  @ DRIVER MODE: Message from server: STATUS
  @ DRIVER MODE: Message from server: INIT
  @ DRIVER MODE: Receiving replica           0          -1
  @ DRIVER MODE: Receiving encoded integer          25
  @ DRIVER MODE:  SCF:  T  FORCE:  T  STRESS:  F  VC:  F  ENSEMBLE:  F
  @ DRIVER MODE:  SCF:  T  FORCE:  T  STRESS:  F  VC:  F  ENSEMBLE:  F

     Using Slab Decomposition

     bravais-lattice index     =            0
     lattice parameter (alat)  =       1.8897  a.u.
     unit-cell volume          =    6658.9804 (a.u.)^3
     number of atoms/cell      =           52
     number of atomic types    =            4
     number of electrons       =       391.00
     number of Kohn-Sham states=          205
     kinetic-energy cutoff     =      29.3995  Ry
     charge density cutoff     =     293.9946  Ry
     scf convergence threshold =      7.3E-08
     mixing beta               =       0.0500
     number of iterations used =            8  plain     mixing
     Exchange-correlation= BEEF-VDW
                           (   1   4  43  14   2   0   0)

     celldm(1)=   1.889726  celldm(2)=   0.000000  celldm(3)=   0.000000
     celldm(4)=   0.000000  celldm(5)=   0.000000  celldm(6)=   0.000000

     crystal axes: (cart. coord. in units of alat)
               a(1) = (   6.579727   0.000000   0.000000 )
               a(2) = (  -0.000775   5.961596   0.000000 )
               a(3) = (   0.000000   0.000000  25.155947 )

     reciprocal axes: (cart. coord. in units 2 pi/alat)
               b(1) = (  0.151982  0.000020  0.000000 )
               b(2) = (  0.000000  0.167740  0.000000 )
               b(3) = (  0.000000  0.000000  0.039752 )

     PseudoPot. # 1 for Ti read from file:
     /storage/coda1/p-amedford6/0/shared/rich_project_chbe-medford/medford-share/data/pseudos_module/espresso/nninc/pbe/van/Ti.UPF
     MD5 check sum: 8e4df49b7f0d34bbd5052bf3f5ea0213
     Pseudo is Ultrasoft, Zval = 12.0
     Generated by new atomic code, or converted to UPF format
     Using radial grid of  851 points,  6 beta functions with:
                l(1) =   0
                l(2) =   0
                l(3) =   1
                l(4) =   1
                l(5) =   2
                l(6) =   2
     Q(r) pseudized with  8 coefficients,  rinner =    1.000   1.000   1.000
                                                       1.000   1.000

     PseudoPot. # 2 for O  read from file:
     /storage/coda1/p-amedford6/0/shared/rich_project_chbe-medford/medford-share/data/pseudos_module/espresso/nninc/pbe/van/O.UPF
     MD5 check sum: 78c19812648e8988a0fe644b0f25305e
     Pseudo is Ultrasoft, Zval =  6.0
     Generated by new atomic code, or converted to UPF format
     Using radial grid of  737 points,  4 beta functions with:
                l(1) =   0
                l(2) =   0
                l(3) =   1
                l(4) =   1
     Q(r) pseudized with  8 coefficients,  rinner =    0.800   0.800   0.800

     PseudoPot. # 3 for C  read from file:
     /storage/coda1/p-amedford6/0/shared/rich_project_chbe-medford/medford-share/data/pseudos_module/espresso/nninc/pbe/van/C.UPF
     MD5 check sum: 1a69bf6b8db32088f5b2163dbdb77a27
     Pseudo is Ultrasoft, Zval =  4.0
     Generated by new atomic code, or converted to UPF format
     Using radial grid of  721 points,  4 beta functions with:
                l(1) =   0
                l(2) =   0
                l(3) =   1
                l(4) =   1
     Q(r) pseudized with  8 coefficients,  rinner =    0.800   0.800   0.800

     PseudoPot. # 4 for H  read from file:
     /storage/coda1/p-amedford6/0/shared/rich_project_chbe-medford/medford-share/data/pseudos_module/espresso/nninc/pbe/van/H.UPF
     MD5 check sum: b5ee9d7bfd3a09ee7748110bda690ff7
     Pseudo is Ultrasoft, Zval =  1.0
     Generated by new atomic code, or converted to UPF format
     Using radial grid of  615 points,  1 beta functions with:
                l(1) =   0
     Q(r) pseudized with  8 coefficients,  rinner =    0.800

     atomic species   valence    mass     pseudopotential
        Ti1           12.00    47.86700     Ti( 1.00)
        O1             6.00    15.99900     O ( 1.00)
        C1             4.00    12.01100     C ( 1.00)
        H1             1.00     1.00800     H ( 1.00)

     No symmetry found

   Cartesian axes

     site n.     atom                  positions (alat units)
         1           Ti1 tau(   1) = (   0.0004258   2.9801865   6.0000000  )
         2           Ti1 tau(   2) = (   3.2906075   1.4906267   6.0002472  )
         3           O1  tau(   3) = (   0.0006271   0.0005054   7.9858123  )
         4           O1  tau(   4) = (   3.2906025   0.0005020   7.3038282  )
         5           O1  tau(   5) = (   4.5942328   1.4918067   9.2879030  )
         6           O1  tau(   6) = (   1.9868534   1.4903216   9.2879459  )
         7           Ti1 tau(   7) = (   3.2576197   2.8654215   9.2214558  )
         8           Ti1 tau(   8) = (   6.5344909   1.4429808   9.3601258  )
         9           O1  tau(   9) = (   3.2692782   5.9266415  11.3199434  )
        10           O1  tau(  10) = (   6.5685443   5.9434748  10.5851361  )
        11           O1  tau(  11) = (   1.2543606   1.4786140  12.6270584  )
        12           O1  tau(  12) = (   5.2804994   1.4734118  12.6291387  )
        13           Ti1 tau(  13) = (   6.5561640   2.8465321  12.8092297  )
        14           Ti1 tau(  14) = (   3.2590950   1.2910582  12.6820668  )
        15           O1  tau(  15) = (   6.5637791   5.9505241  14.6246090  )
        16           O1  tau(  16) = (   3.2632455   0.0300109  13.9168947  )
        17           O1  tau(  17) = (   4.5093043   1.5331652  16.1230905  )
        18           O1  tau(  18) = (   1.9844652   1.5452522  16.1286669  )
        19           Ti1 tau(  19) = (   3.2766647   3.0056044  15.6806532  )
        20           Ti1 tau(  20) = (   0.0376264   1.5104518  16.1289793  )
        21           O1  tau(  21) = (   3.2904802   0.0005063   4.7018136  )
        22           O1  tau(  22) = (   6.5370995   5.9187843  17.1758003  )
        23           O1  tau(  23) = (   1.3043587   1.4918075   6.0039043  )
        24           O1  tau(  24) = (   5.2767064   1.4903225   6.0039473  )
        25           Ti1 tau(  25) = (   0.0000382   5.9609847   6.0000000  )
        26           Ti1 tau(  26) = (   3.2902200   4.4714249   6.0002472  )
        27           O1  tau(  27) = (   0.0002396   2.9813036   7.9858123  )
        28           O1  tau(  28) = (   3.2902150   2.9813002   7.3038282  )
        29           O1  tau(  29) = (   4.5938453   4.4726049   9.2879030  )
        30           O1  tau(  30) = (   1.9864658   4.4711199   9.2879459  )
        31           Ti1 tau(  31) = (   3.2565375   5.8496818   9.1814359  )
        32           Ti1 tau(  32) = (   6.5349656   4.3900073   9.3400910  )
        33           O1  tau(  33) = (   3.2728704   3.0037829  11.2907943  )
        34           O1  tau(  34) = (   6.5689136   2.9626257  10.5472476  )
        35           O1  tau(  35) = (   1.2549189   4.4436098  12.6280720  )
        36           O1  tau(  36) = (   5.2752285   4.4450423  12.6314263  )
        37           Ti1 tau(  37) = (   6.5445616   5.8332433  12.5976854  )
        38           Ti1 tau(  38) = (   3.2543598   4.3897341  12.4334224  )
        39           O1  tau(  39) = (   6.5579435   2.9355163  14.7117218  )
        40           O1  tau(  40) = (   3.2602875   2.9656724  13.9017019  )
        41           O1  tau(  41) = (   4.5395605   4.4315404  16.0360363  )
        42           O1  tau(  42) = (   2.0063696   4.4444213  16.0824092  )
        43           Ti1 tau(  43) = (   3.2990179   0.0081159  16.3450624  )
        44           Ti1 tau(  44) = (   6.5722952   4.6241161  15.8901152  )
        45           O1  tau(  45) = (   3.2900926   2.9813045   4.7018136  )
        46           O1  tau(  46) = (   1.3039711   4.4726057   6.0039043  )
        47           O1  tau(  47) = (   5.2763189   4.4711207   6.0039473  )
        48           C1  tau(  48) = (   6.5366691   2.9215611  17.7332970  )
        49           H1  tau(  49) = (   0.8393079   3.1163452  18.3454380  )
        50           H1  tau(  50) = (   5.6239513   3.1093896  18.3013171  )
        51           O1  tau(  51) = (   3.3457726   5.9061862  18.1608053  )
        52           H1  tau(  52) = (   4.0747859   0.3069366  18.6733355  )

     number of k points=    10  Fermi-Dirac smearing, width (Ry)=  0.0073
                       cart. coord. in units 2pi/alat
        k(    1) = (   0.0000000   0.0000000   0.0000000), wk =   0.1250000
        k(    2) = (   0.0000000   0.0419351   0.0000000), wk =   0.2500000
        k(    3) = (   0.0000000  -0.0838702   0.0000000), wk =   0.1250000
        k(    4) = (   0.0379955   0.0000049   0.0000000), wk =   0.2500000
        k(    5) = (   0.0379955   0.0419400   0.0000000), wk =   0.2500000
        k(    6) = (   0.0379955  -0.0838652   0.0000000), wk =   0.2500000
        k(    7) = (   0.0379955  -0.0419301   0.0000000), wk =   0.2500000
        k(    8) = (  -0.0759910  -0.0000099   0.0000000), wk =   0.1250000
        k(    9) = (  -0.0759910   0.0419252   0.0000000), wk =   0.2500000
        k(   10) = (  -0.0759910  -0.0838800   0.0000000), wk =   0.1250000

     Initial potential from superposition of free atoms

     starting charge  374.99918, renormalised to  391.00000

     negative rho (up, down):  1.929E-02 0.000E+00

     %%%%%%%%%%%%%%%%%%%%%%%%%%%%%%%%%%%%%%%%%%%%%%%%%%%%%%%%%%%%%%%%%%%%%%%%
     %                                                                      %
     % You are using vdW-DF, which was implemented by the Thonhauser group. %
     % Please cite the following two papers that made this development      %
     % possible and the two reviews that describe the various versions:     %
     %                                                                      %
     %   T. Thonhauser et al., PRL 115, 136402 (2015).                      %
     %   T. Thonhauser et al., PRB 76, 125112 (2007).                       %
     %   K. Berland et al., Rep. Prog. Phys. 78, 066501 (2015).             %
     %   D.C. Langreth et al., J. Phys.: Condens. Matter 21, 084203 (2009). %
     %                                                                      %
     %                                                                      %
     % If you are calculating the stress with vdW-DF, please also cite:     %
     %                                                                      %
     %   R. Sabatini et al., J. Phys.: Condens. Matter 24, 424209 (2012).   %
     %                                                                      %
     %%%%%%%%%%%%%%%%%%%%%%%%%%%%%%%%%%%%%%%%%%%%%%%%%%%%%%%%%%%%%%%%%%%%%%%%

     Adding external electric field

     Computed dipole along edir(3) :
        Dipole               -4.4316 Ry au,        -11.2641 Debye
        Dipole field         -0.0084 Ry au,

        Potential amp.        0.7752 Ry
        Total length         46.3494 bohr

     Starting wfcs are  295 atomic wfcs
  @ DRIVER MODE: Message from server: STATUS
  @ DRIVER MODE: Message from server: POSDATA
  @ DRIVER MODE: Reading and sharing cell
  @ DRIVER MODE: Reading and sharing positions
  @ DRIVER MODE: Received positions

     Self-consistent Calculation

     iteration #  1     ecut=    29.40 Ry     beta= 0.05
     Davidson diagonalization with overlap
     c_bands:  4 eigenvalues not converged
     c_bands:  2 eigenvalues not converged
     c_bands:  2 eigenvalues not converged
     c_bands:  2 eigenvalues not converged
     c_bands:  3 eigenvalues not converged
     c_bands:  1 eigenvalues not converged
     c_bands:  3 eigenvalues not converged
     c_bands:  1 eigenvalues not converged
     c_bands:  3 eigenvalues not converged
     ethr =  1.00E-05,  avg # of iterations = 19.9

[...]

     total energy              =   -2883.55146577 Ry
     estimated scf accuracy    <     545.89380245 Ry

     iteration #  2     ecut=    29.40 Ry     beta= 0.05
     Davidson diagonalization with overlap
     ethr =  1.00E-02,  avg # of iterations = 14.2

[...]

     iteration # 46     ecut=    29.40 Ry     beta= 0.05
     Davidson diagonalization with overlap
     c_bands:  1 eigenvalues not converged
     ethr =  3.20E-07,  avg # of iterations =  8.8

[...]

     total energy              =   -2931.27739474 Ry
     estimated scf accuracy    <       0.00000014 Ry

     iteration # 74     ecut=    29.40 Ry     beta= 0.05
     Davidson diagonalization with overlap
     ethr =  3.45E-11,  avg # of iterations =  4.7

     negative rho (up, down):  1.858E-02 0.000E+00

     Adding external electric field

     Computed dipole along edir(3) :
        Dipole                0.4327 Ry au,          1.0998 Debye
        Dipole field          0.0008 Ry au,

        Potential amp.       -0.0757 Ry
        Total length         46.3494 bohr

     End of self-consistent calculation

          k = 0.0000 0.0000 0.0000 ( 18029 PWs)   bands (ev):

   -56.6093 -56.5592 -56.1504 -56.0379 -55.9958 -55.9389 -55.9124 -55.8974
   -55.8542 -55.8127 -55.7833 -55.7259 -55.6789 -55.6103 -55.2187 -55.1848
   -33.0211 -32.8743 -32.8199 -32.7881 -32.6924 -32.6472 -32.4988 -32.4861
   -32.4685 -32.4053 -32.3748 -32.3507 -32.3080 -32.2852 -32.2666 -32.2431
   -32.2385 -32.2238 -32.2098 -32.1442 -32.1415 -32.1282 -32.1255 -32.1124
   -32.0995 -32.0951 -32.0896 -32.0866 -32.0608 -32.0406 -32.0169 -31.9996
   -31.9937 -31.9844 -31.9833 -31.9736 -31.9265 -31.8710 -31.8445 -31.8383
   -31.8221 -31.7888 -31.6133 -31.5591 -31.5348 -31.4299 -31.3449 -31.2342
   -17.0006 -16.7673 -16.6242 -16.4009 -16.2564 -16.1516 -15.9355 -15.9250
   -15.8032 -15.7858 -15.7613 -15.6299 -15.6168 -15.6002 -15.5608 -15.5395
   -15.5313 -15.5293 -15.5177 -15.4916 -15.4593 -15.4384 -15.3984 -15.3168
   -15.2420 -15.2342 -15.1990 -15.1434 -15.0790 -14.8608 -13.7215 -13.6131
    -8.9115  -4.6792  -4.2915  -4.0789  -3.9706  -3.8933  -3.7865  -3.6332
    -3.4340  -3.2953  -3.2462  -3.2089  -3.1608  -3.1451  -3.1239  -3.0796
    -3.0328  -2.9809  -2.9516  -2.8900  -2.8654  -2.8260  -2.7892  -2.7640
    -2.7486  -2.7304  -2.7240  -2.5895  -2.5243  -2.5143  -2.4677  -2.4656
    -2.4073  -2.3904  -2.3666  -2.3173  -2.2829  -2.1880  -2.1296  -2.0968
    -2.0510  -1.8294  -1.8109  -1.7454  -1.6709  -1.6181  -1.5600  -1.5172
    -1.4635  -1.4350  -1.3752  -1.3353  -1.2878  -1.2627  -1.2230  -1.1555
    -1.1354  -1.1004  -1.0392  -0.9633  -0.9176  -0.8488  -0.7827  -0.7456
    -0.6906  -0.6820  -0.6517  -0.5611  -0.4776  -0.4575  -0.4243  -0.3830
    -0.3663  -0.2952  -0.2816  -0.2393  -0.2230  -0.1462  -0.1309  -0.1015
    -0.0693  -0.0468  -0.0249   0.0416   0.1636   0.2316   0.2730   0.3122
     0.3285   0.4146   0.4342   0.5220   0.6774   0.7976   0.8368   1.0071
     1.0598   1.3485   1.3944   1.9254   2.6922   2.8566   3.1423   3.2440
     3.2810   3.3575   3.4020   3.4335   3.6317

[...]

          k = 0.0380-0.0419 0.0000 ( 17876 PWs)   bands (ev):

[...]

          k =-0.0760-0.0000 0.0000 ( 17886 PWs)   bands (ev):

[...]

          k =-0.0760-0.0839 0.0000 ( 17948 PWs)   bands (ev):

   -56.6028 -56.5656 -56.1496 -56.0355 -55.9897 -55.9447 -55.9145 -55.8980
   -55.8454 -55.8214 -55.7816 -55.7197 -55.6850 -55.6118 -55.2020 -55.2014
   -32.8701 -32.8536 -32.8238 -32.8217 -32.7547 -32.7229 -32.4263 -32.3826
   -32.3699 -32.3514 -32.3345 -32.2913 -32.2691 -32.2613 -32.2506 -32.2307
   -32.2152 -32.2028 -32.1920 -32.1836 -32.1639 -32.1629 -32.1405 -32.1365
   -32.1355 -32.1242 -32.1096 -32.1061 -32.0727 -32.0681 -32.0549 -32.0423
   -32.0033 -31.9952 -31.9878 -31.9875 -31.9545 -31.9302 -31.9104 -31.8727
   -31.8253 -31.8122 -31.5480 -31.5476 -31.4288 -31.4270 -31.3871 -31.3862
   -16.9903 -16.1456 -16.0838 -16.0743 -16.0610 -16.0311 -15.9897 -15.9183
   -15.9163 -15.8188 -15.7918 -15.7481 -15.7107 -15.6981 -15.6520 -15.6389
   -15.6268 -15.5636 -15.5214 -15.5025 -15.4870 -15.4745 -15.4537 -15.4287
   -15.4172 -15.3971 -15.3295 -15.2468 -15.2174 -15.0030 -13.7176 -13.7162
    -8.9194  -4.6710  -3.3827  -3.3279  -3.2491  -3.2306  -3.2190  -3.1503
    -3.0942  -3.0891  -3.0312  -3.0181  -2.9746  -2.9451  -2.9154  -2.9093
    -2.9021  -2.8926  -2.8789  -2.8553  -2.8011  -2.7984  -2.7806  -2.7714
    -2.7551  -2.7391  -2.7069  -2.6659  -2.6353  -2.6110  -2.5308  -2.4257
    -2.4200  -2.3867  -2.3551  -2.3226  -2.2807  -2.2592  -2.1831  -2.1757
    -2.1597  -2.1100  -2.0118  -1.7791  -1.7708  -1.7172  -1.6835  -1.6747
    -1.6122  -1.5428  -1.5360  -1.4513  -1.4482  -1.4347  -1.3347  -1.3167
    -1.2837  -1.2648  -1.2390  -1.2113  -1.1078  -1.0856  -1.0778  -1.0464
    -1.0013  -0.9802  -0.8882  -0.8698  -0.8520  -0.8238  -0.7416  -0.6895
    -0.6502  -0.6320  -0.4943  -0.4472  -0.4356  -0.2839  -0.2316  -0.1970
    -0.1756  -0.0898   0.0156   0.0559   0.1129   0.1599   0.2196   0.3256
     0.3383   0.3610   0.4254   0.4648   0.4723   0.4877   0.5645   1.1918
     1.1925   1.2008   1.2076   2.0844   3.2335   3.2588   3.2710   3.3044
     3.5165   3.5405   3.5513   3.6094   3.6507

     the Fermi energy is     2.0052 ev

!    total energy              =   -2931.27740538 Ry
     estimated scf accuracy    <       0.00000005 Ry
     smearing contrib. (-TS)   =      -0.01004493 Ry
     internal energy E=F+TS    =   -2931.26736045 Ry

     The total energy is F=E-TS. E is the sum of the following terms:
     one-electron contribution =  -24332.14020608 Ry
     hartree contribution      =   12249.85642574 Ry
     xc contribution           =    -481.70692438 Ry
     ewald contribution        =    9632.72299098 Ry
     electric field correction =       0.00035330 Ry

     convergence has been achieved in  74 iterations

     Forces acting on atoms (cartesian axes, Ry/au):

     atom    1 type  1   force =     0.00036480   -0.00077585    0.13234367
     atom    2 type  1   force =     0.00014161    0.00691093   -0.15729069
     atom    3 type  2   force =    -0.00018502    0.00281887   -0.05348629
     atom    4 type  2   force =    -0.00072912   -0.00116593    0.04120307
     atom    5 type  2   force =    -0.01141013   -0.00238511    0.00284519
     atom    6 type  2   force =     0.00918868   -0.00643878    0.00177540
     atom    7 type  1   force =     0.00044008    0.00029118   -0.00039524
     atom    8 type  1   force =     0.00020006   -0.00002083    0.00094189
     atom    9 type  2   force =    -0.00002485    0.00044210    0.00039734
     atom   10 type  2   force =     0.00025408    0.00023080   -0.00010071
     atom   11 type  2   force =     0.00052349    0.00033166    0.00026489
     atom   12 type  2   force =    -0.00016477    0.00026918   -0.00025354
     atom   13 type  1   force =    -0.00026571   -0.00047278   -0.00090977
     atom   14 type  1   force =     0.00020550    0.00050695   -0.00027741
     atom   15 type  2   force =     0.00006681   -0.00015455    0.00145123
     atom   16 type  2   force =     0.00048011   -0.00018563    0.00013684
     atom   17 type  2   force =     0.00018047   -0.00034042   -0.00033764
     atom   18 type  2   force =    -0.00100450   -0.00030600   -0.00024537
     atom   19 type  1   force =     0.00109922   -0.00000046   -0.00024672
     atom   20 type  1   force =    -0.00029291    0.00022947   -0.00008216
     atom   21 type  2   force =     0.00021097    0.00008699    0.09903005
     atom   22 type  2   force =     0.00009648    0.00087581   -0.00119407
     atom   23 type  2   force =    -0.08050127    0.00137290   -0.03417198
     atom   24 type  2   force =     0.08057810    0.00190255   -0.03417908
     atom   25 type  1   force =     0.00030557   -0.00010556    0.14243372
     atom   26 type  1   force =     0.00016407   -0.00836870   -0.15757329
     atom   27 type  2   force =    -0.00039022   -0.00117081   -0.05198288
     atom   28 type  2   force =    -0.00063973   -0.00038229    0.04300330
     atom   29 type  2   force =    -0.01011977    0.00503615    0.00017466
     atom   30 type  2   force =     0.00779096    0.00127963   -0.00110680
     atom   31 type  1   force =     0.00010089    0.00000700   -0.00027557
     atom   32 type  1   force =     0.00009031   -0.00042910    0.00096768
     atom   33 type  2   force =     0.00003520   -0.00035325   -0.00007614
     atom   34 type  2   force =     0.00024575    0.00012575   -0.00023154
     atom   35 type  2   force =    -0.00048688    0.00034471    0.00018867
     atom   36 type  2   force =     0.00129250    0.00030491   -0.00024844
     atom   37 type  1   force =     0.00001258   -0.00020222   -0.00042610
     atom   38 type  1   force =     0.00029462   -0.00009256   -0.00019160
     atom   39 type  2   force =     0.00002327    0.00008398    0.00009532
     atom   40 type  2   force =     0.00039954    0.00010710   -0.00036132
     atom   41 type  2   force =    -0.00109039    0.00011825   -0.00008693
     atom   42 type  2   force =     0.00037929    0.00030443   -0.00025093
     atom   43 type  1   force =     0.00112931    0.00042519    0.00030665
     atom   44 type  1   force =    -0.00037230    0.00045906   -0.00016527
     atom   45 type  2   force =     0.00020109   -0.00000187    0.09860535
     atom   46 type  2   force =    -0.08048704   -0.00109493   -0.03415397
     atom   47 type  2   force =     0.08057906   -0.00055701   -0.03423429
     atom   48 type  3   force =     0.00003269    0.00025616   -0.00016639
     atom   49 type  4   force =    -0.00024612   -0.00018240    0.00003972
     atom   50 type  4   force =     0.00020121    0.00018310   -0.00014123
     atom   51 type  2   force =    -0.01151633   -0.00513435   -0.00961648
     atom   52 type  4   force =     0.01261873    0.00501656    0.00825520

     Total force =     0.384391     Total SCF correction =     0.000660
  @ DRIVER MODE: Message from server: STATUS
  @ DRIVER MODE: Message from server: GETFORCE
  @ DRIVER MODE: Returning v,forces,stress,ensemble

     Writing output data file ./calc.save/
  @ DRIVER MODE: Message from server: EXIT
  @ DRIVE MODE: Exiting

     General routines

     Parallel routines

   This run was terminated on:  22:52:31  22Sep2021

   JOB DONE.