     Program PWSCF v.6.7GPU starts on 16Sep2021 at  8:41:40

     R & G space division:  proc/nbgrp/npool/nimage =      10
     Reading input from /storage/home/hcoda1/3/ntian30/research/carbon/CxH_vib/H2O_calc/ads_slab/CH3OHH2O_e/out_0053/pw.inp
Warning: card &CELL ignored
Warning: card   CELL_DYNAMICS='IPI', ignored
Warning: card / ignored

     Current dimensions of program PWSCF are:
     Max number of different atomic species (ntypx) = 10
     Max number of k-points (npk) =  40000
     Max angular momentum in pseudopotentials (lmaxx) =  3
     Presently no symmetry can be used with electric field

     Message from routine cell_base_init:
     DEPRECATED: use true lattice parameter, not A to a.u. conversion factor

     IMPORTANT: XC functional enforced from input :
     Exchange-correlation= BEEF-VDW
                           (   1   4  43  14   2   0   0)
     Any further DFT definition will be discarded
     Please, verify this is what you really want

  @ DRIVER MODE: Connecting to
 qe_1139763_2852623.sched-torque.pace.gatech.edu3h3b2bz1_scratch
  using UNIX socket
  @ DRIVER MODE: Message from server: STATUS
  @ DRIVER MODE: Message from server: INIT
  @ DRIVER MODE: Receiving replica           0          -1
  @ DRIVER MODE: Receiving encoded integer          25
  @ DRIVER MODE:  SCF:  T  FORCE:  T  STRESS:  F  VC:  F  ENSEMBLE:  F
  @ DRIVER MODE:  SCF:  T  FORCE:  T  STRESS:  F  VC:  F  ENSEMBLE:  F

     Using Slab Decomposition

     bravais-lattice index     =            0
     lattice parameter (alat)  =       1.8897  a.u.
     unit-cell volume          =    6658.9804 (a.u.)^3
     number of atoms/cell      =           56
     number of atomic types    =            4
     number of electrons       =       400.00
     number of Kohn-Sham states=          210
     kinetic-energy cutoff     =      29.3995  Ry
     charge density cutoff     =     293.9946  Ry
     scf convergence threshold =      7.3E-08
     mixing beta               =       0.0500
     number of iterations used =            8  plain     mixing
     Exchange-correlation= BEEF-VDW
                           (   1   4  43  14   2   0   0)

     celldm(1)=   1.889726  celldm(2)=   0.000000  celldm(3)=   0.000000
     celldm(4)=   0.000000  celldm(5)=   0.000000  celldm(6)=   0.000000

     crystal axes: (cart. coord. in units of alat)
               a(1) = (   6.579727   0.000000   0.000000 )
               a(2) = (  -0.000775   5.961596   0.000000 )
               a(3) = (   0.000000   0.000000  25.155947 )

     reciprocal axes: (cart. coord. in units 2 pi/alat)
               b(1) = (  0.151982  0.000020  0.000000 )
               b(2) = (  0.000000  0.167740  0.000000 )
               b(3) = (  0.000000  0.000000  0.039752 )

     PseudoPot. # 1 for Ti read from file:
     /storage/coda1/p-amedford6/0/shared/rich_project_chbe-medford/medford-share/data/pseudos_module/espresso/nninc/pbe/van/Ti.UPF
     MD5 check sum: 8e4df49b7f0d34bbd5052bf3f5ea0213
     Pseudo is Ultrasoft, Zval = 12.0
     Generated by new atomic code, or converted to UPF format
     Using radial grid of  851 points,  6 beta functions with:
                l(1) =   0
                l(2) =   0
                l(3) =   1
                l(4) =   1
                l(5) =   2
                l(6) =   2
     Q(r) pseudized with  8 coefficients,  rinner =    1.000   1.000   1.000
                                                       1.000   1.000

     PseudoPot. # 2 for O  read from file:
     /storage/coda1/p-amedford6/0/shared/rich_project_chbe-medford/medford-share/data/pseudos_module/espresso/nninc/pbe/van/O.UPF
     MD5 check sum: 78c19812648e8988a0fe644b0f25305e
     Pseudo is Ultrasoft, Zval =  6.0
     Generated by new atomic code, or converted to UPF format
     Using radial grid of  737 points,  4 beta functions with:
                l(1) =   0
                l(2) =   0
                l(3) =   1
                l(4) =   1
     Q(r) pseudized with  8 coefficients,  rinner =    0.800   0.800   0.800

     PseudoPot. # 3 for C  read from file:
     /storage/coda1/p-amedford6/0/shared/rich_project_chbe-medford/medford-share/data/pseudos_module/espresso/nninc/pbe/van/C.UPF
     MD5 check sum: 1a69bf6b8db32088f5b2163dbdb77a27
     Pseudo is Ultrasoft, Zval =  4.0
     Generated by new atomic code, or converted to UPF format
     Using radial grid of  721 points,  4 beta functions with:
                l(1) =   0
                l(2) =   0
                l(3) =   1
                l(4) =   1
     Q(r) pseudized with  8 coefficients,  rinner =    0.800   0.800   0.800

     PseudoPot. # 4 for H  read from file:
     /storage/coda1/p-amedford6/0/shared/rich_project_chbe-medford/medford-share/data/pseudos_module/espresso/nninc/pbe/van/H.UPF
     MD5 check sum: b5ee9d7bfd3a09ee7748110bda690ff7
     Pseudo is Ultrasoft, Zval =  1.0
     Generated by new atomic code, or converted to UPF format
     Using radial grid of  615 points,  1 beta functions with:
                l(1) =   0
     Q(r) pseudized with  8 coefficients,  rinner =    0.800

     atomic species   valence    mass     pseudopotential
        Ti1           12.00    47.86700     Ti( 1.00)
        O1             6.00    15.99900     O ( 1.00)
        C1             4.00    12.01100     C ( 1.00)
        H1             1.00     1.00800     H ( 1.00)

     No symmetry found

   Cartesian axes

     site n.     atom                  positions (alat units)
         1           Ti1 tau(   1) = (   0.0004258   2.9801865   6.0000000  )
         2           Ti1 tau(   2) = (   3.2906075   1.4906267   6.0002472  )
         3           O1  tau(   3) = (   0.0006271   0.0005054   7.9858123  )
         4           O1  tau(   4) = (   3.2906025   0.0005020   7.3038282  )
         5           O1  tau(   5) = (   4.5942328   1.4918067   9.2879030  )
         6           O1  tau(   6) = (   1.9868534   1.4903216   9.2879459  )
         7           Ti1 tau(   7) = (   3.3179988   2.9667087   9.1587561  )
         8           Ti1 tau(   8) = (   0.0368451   1.4888401   9.2646154  )
         9           O1  tau(   9) = (   3.2981896   5.9413050  11.3756853  )
        10           O1  tau(  10) = (   0.0022081   5.9550161  10.6068466  )
        11           O1  tau(  11) = (   1.2930414   1.4711740  12.6526869  )
        12           O1  tau(  12) = (   5.2963464   1.4745835  12.6500758  )
        13           Ti1 tau(  13) = (   0.0229324   2.9590759  12.5385950  )
        14           Ti1 tau(  14) = (   3.3157970   1.4644123  12.5194148  )
        15           O1  tau(  15) = (   6.5691168   5.9481840  14.6869282  )
        16           O1  tau(  16) = (   3.2964787   5.9455965  14.0277316  )
        17           O1  tau(  17) = (   4.5665908   1.5027878  16.2081754  )
        18           O1  tau(  18) = (   2.0283028   1.5092035  16.1774433  )
        19           Ti1 tau(  19) = (   3.2999954   2.9453206  15.7178785  )
        20           Ti1 tau(  20) = (   6.5724188   1.3235339  15.9896992  )
        21           O1  tau(  21) = (   3.2904802   0.0005063   4.7018136  )
        22           O1  tau(  22) = (   0.0286320   5.9425150  17.2304330  )
        23           O1  tau(  23) = (   1.3043587   1.4918075   6.0039043  )
        24           O1  tau(  24) = (   5.2767064   1.4903225   6.0039473  )
        25           Ti1 tau(  25) = (   0.0000382   5.9609847   6.0000000  )
        26           Ti1 tau(  26) = (   3.2902200   4.4714249   6.0002472  )
        27           O1  tau(  27) = (   0.0002396   2.9813036   7.9858123  )
        28           O1  tau(  28) = (   3.2902150   2.9813002   7.3038282  )
        29           O1  tau(  29) = (   4.5938453   4.4726049   9.2879030  )
        30           O1  tau(  30) = (   1.9864658   4.4711199   9.2879459  )
        31           Ti1 tau(  31) = (   3.3176359   5.9492212   9.1540102  )
        32           Ti1 tau(  32) = (   0.0367062   4.4560090   9.2708352  )
        33           O1  tau(  33) = (   3.2951800   2.9650663  11.3684769  )
        34           O1  tau(  34) = (   0.0080098   2.9764013  10.6279654  )
        35           O1  tau(  35) = (   1.2931912   4.4560454  12.6592269  )
        36           O1  tau(  36) = (   5.2946864   4.4524020  12.6579832  )
        37           Ti1 tau(  37) = (   0.0159028   5.9413441  12.4831893  )
        38           Ti1 tau(  38) = (   3.3151975   4.4500431  12.5204281  )
        39           O1  tau(  39) = (   0.0034497   2.9621527  14.8596962  )
        40           O1  tau(  40) = (   3.2989893   2.9535984  13.9376031  )
        41           O1  tau(  41) = (   4.5724332   4.4114593  16.1445292  )
        42           O1  tau(  42) = (   2.0255208   4.3883007  16.1585022  )
        43           Ti1 tau(  43) = (   3.2821299   5.9114753  15.8432964  )
        44           Ti1 tau(  44) = (   6.5414858   4.5242847  15.8739915  )
        45           O1  tau(  45) = (   3.2900926   2.9813045   4.7018136  )
        46           O1  tau(  46) = (   1.3039711   4.4726057   6.0039043  )
        47           O1  tau(  47) = (   5.2763189   4.4711207   6.0039473  )
        48           C1  tau(  48) = (   5.9754720   3.1749164  18.9278073  )
        49           O1  tau(  49) = (   0.1533887   3.0270296  17.7012840  )
        50           H1  tau(  50) = (   4.9293134   3.0706859  18.6584277  )
        51           H1  tau(  51) = (   1.0910173   3.2466920  17.8500278  )
        52           H1  tau(  52) = (   6.2690755   2.3937635  19.6305738  )
        53           H1  tau(  53) = (   6.1431946   4.1694627  19.3379575  )
        54           O1  tau(  54) = (   3.1723115   5.9428592  18.3689464  )
        55           H1  tau(  55) = (   3.8852673   0.6353712  18.4582360  )
        56           H1  tau(  56) = (   2.3406934   0.4831942  18.3101771  )

     number of k points=    10  Fermi-Dirac smearing, width (Ry)=  0.0073
                       cart. coord. in units 2pi/alat
        k(    1) = (   0.0000000   0.0000000   0.0000000), wk =   0.1250000
        k(    2) = (   0.0000000   0.0419351   0.0000000), wk =   0.2500000
        k(    3) = (   0.0000000  -0.0838702   0.0000000), wk =   0.1250000
        k(    4) = (   0.0379955   0.0000049   0.0000000), wk =   0.2500000
        k(    5) = (   0.0379955   0.0419400   0.0000000), wk =   0.2500000
        k(    6) = (   0.0379955  -0.0838652   0.0000000), wk =   0.2500000
        k(    7) = (   0.0379955  -0.0419301   0.0000000), wk =   0.2500000
        k(    8) = (  -0.0759910  -0.0000099   0.0000000), wk =   0.1250000
        k(    9) = (  -0.0759910   0.0419252   0.0000000), wk =   0.2500000
        k(   10) = (  -0.0759910  -0.0838800   0.0000000), wk =   0.1250000

     Initial potential from superposition of free atoms

     starting charge  383.99915, renormalised to  400.00000

     negative rho (up, down):  1.599E-02 0.000E+00

     %%%%%%%%%%%%%%%%%%%%%%%%%%%%%%%%%%%%%%%%%%%%%%%%%%%%%%%%%%%%%%%%%%%%%%%%
     %                                                                      %
     % You are using vdW-DF, which was implemented by the Thonhauser group. %
     % Please cite the following two papers that made this development      %
     % possible and the two reviews that describe the various versions:     %
     %                                                                      %
     %   T. Thonhauser et al., PRL 115, 136402 (2015).                      %
     %   T. Thonhauser et al., PRB 76, 125112 (2007).                       %
     %   K. Berland et al., Rep. Prog. Phys. 78, 066501 (2015).             %
     %   D.C. Langreth et al., J. Phys.: Condens. Matter 21, 084203 (2009). %
     %                                                                      %
     %                                                                      %
     % If you are calculating the stress with vdW-DF, please also cite:     %
     %                                                                      %
     %   R. Sabatini et al., J. Phys.: Condens. Matter 24, 424209 (2012).   %
     %                                                                      %
     %%%%%%%%%%%%%%%%%%%%%%%%%%%%%%%%%%%%%%%%%%%%%%%%%%%%%%%%%%%%%%%%%%%%%%%%

     Adding external electric field

     Computed dipole along edir(3) :
        Dipole              -11.7393 Ry au,        -29.8382 Debye
        Dipole field         -0.0222 Ry au,

        Potential amp.        2.0536 Ry
        Total length         46.3494 bohr

     Starting wfcs are  302 atomic wfcs
  @ DRIVER MODE: Message from server: STATUS
  @ DRIVER MODE: Message from server: POSDATA
  @ DRIVER MODE: Reading and sharing cell
  @ DRIVER MODE: Reading and sharing positions
  @ DRIVER MODE: Received positions

     Self-consistent Calculation

     iteration #  1     ecut=    29.40 Ry     beta= 0.05
     Davidson diagonalization with overlap
     c_bands:  2 eigenvalues not converged
     c_bands:  2 eigenvalues not converged
     c_bands:  4 eigenvalues not converged
     c_bands:  3 eigenvalues not converged
     c_bands:  4 eigenvalues not converged
     c_bands:  4 eigenvalues not converged
     c_bands:  3 eigenvalues not converged
     c_bands:  2 eigenvalues not converged
     ethr =  1.00E-05,  avg # of iterations = 21.3

[...]

     total energy              =   -2420.22485143 Ry
     estimated scf accuracy    <    6189.11771184 Ry

     iteration #  2     ecut=    29.40 Ry     beta= 0.05
     Davidson diagonalization with overlap
     ethr =  1.00E-02,  avg # of iterations = 29.8

[...]

     iteration # 75     ecut=    29.40 Ry     beta= 0.05
     Davidson diagonalization with overlap
     c_bands:  1 eigenvalues not converged
     ethr =  1.72E-10,  avg # of iterations = 15.3

[...]

     total energy              =   -2967.47599064 Ry
     estimated scf accuracy    <       0.00000010 Ry

     iteration # 80     ecut=    29.40 Ry     beta= 0.05
     Davidson diagonalization with overlap
     ethr =  1.97E-11,  avg # of iterations =  1.9

     negative rho (up, down):  1.588E-02 0.000E+00

     Adding external electric field

     Computed dipole along edir(3) :
        Dipole                1.3742 Ry au,          3.4929 Debye
        Dipole field          0.0026 Ry au,

        Potential amp.       -0.2404 Ry
        Total length         46.3494 bohr

     End of self-consistent calculation

          k = 0.0000 0.0000 0.0000 ( 18029 PWs)   bands (ev):

   -55.2530 -55.2257 -55.2170 -55.1913 -55.1593 -55.1512 -55.1459 -55.0991
   -55.0984 -55.0927 -55.0584 -55.0406 -55.0107 -55.0066 -54.3150 -54.2809
   -31.8197 -31.7688 -31.7208 -31.6303 -31.5681 -31.5578 -31.5531 -31.5508
   -31.5143 -31.4849 -31.4687 -31.4664 -31.4549 -31.4453 -31.4311 -31.4166
   -31.3995 -31.3930 -31.3901 -31.3856 -31.3797 -31.3708 -31.3481 -31.3433
   -31.3417 -31.3215 -31.3189 -31.3168 -31.2961 -31.2829 -31.2669 -31.2464
   -31.2449 -31.2441 -31.2331 -31.2238 -31.2050 -31.1920 -31.1799 -31.1754
   -31.1622 -31.1518 -30.7271 -30.6246 -30.6030 -30.5433 -30.4569 -30.3459
   -20.1683 -19.0772 -16.0824 -15.8354 -15.6955 -15.5970 -15.4762 -15.3426
   -15.2825 -15.1677 -15.0767 -14.9859 -14.9717 -14.9541 -14.9235 -14.9013
   -14.8765 -14.8381 -14.8121 -14.7683 -14.7595 -14.7431 -14.7363 -14.6996
   -14.6965 -14.6514 -14.6430 -14.4861 -14.4159 -14.3557 -14.1330 -12.8157
   -12.6963 -11.1854  -6.9249  -6.8477  -5.1355  -5.0138  -3.4218  -3.2654
    -3.2280  -3.2011  -3.1859  -3.1409  -3.0602  -2.9625  -2.7897  -2.6819
    -2.5437  -2.5374  -2.4904  -2.4640  -2.4069  -2.3245  -2.2366  -2.2101
    -2.1736  -2.1419  -2.1387  -2.1229  -2.1125  -2.0563  -2.0207  -1.9628
    -1.8661  -1.8158  -1.7750  -1.7576  -1.6979  -1.6542  -1.6181  -1.5917
    -1.5851  -1.5788  -1.5201  -1.5180  -1.5098  -1.4987  -1.4810  -1.2924
    -1.2521  -1.1198  -1.0293  -0.9878  -0.9740  -0.8206  -0.8137  -0.7691
    -0.7357  -0.7021  -0.6616  -0.6039  -0.5063  -0.4739  -0.4243  -0.3862
    -0.2781  -0.2460  -0.2143  -0.1601  -0.0529  -0.0446  -0.0189   0.0008
     0.0747   0.1703   0.1998   0.2207   0.2977   0.3028   0.3643   0.4049
     0.4384   0.5134   0.5587   0.5697   0.6615   0.6783   0.6920   0.7186
     0.7222   0.8206   0.8569   0.9013   0.9197   1.0713   1.1660   1.3051
     1.3339   1.6003   1.6957   1.7110   1.8713   2.2969   2.3517   3.8380
     3.9064   3.9448   3.9525   3.9659   4.0454   4.3291   4.3445   4.3564
     4.3660   4.3841

[...]

          k = 0.0380-0.0419 0.0000 ( 17876 PWs)   bands (ev):

[...]

          k =-0.0760-0.0000 0.0000 ( 17886 PWs)   bands (ev):

[...]

          k =-0.0760-0.0839 0.0000 ( 17948 PWs)   bands (ev):

   -55.2360 -55.2338 -55.2104 -55.2064 -55.1563 -55.1453 -55.1386 -55.1065
   -55.1051 -55.0769 -55.0739 -55.0255 -55.0218 -55.0126 -54.2979 -54.2978
   -31.6858 -31.6267 -31.6197 -31.5377 -31.5337 -31.5200 -31.5083 -31.5035
   -31.4958 -31.4751 -31.4569 -31.4514 -31.4473 -31.4334 -31.4080 -31.4053
   -31.3941 -31.3916 -31.3844 -31.3835 -31.3800 -31.3767 -31.3638 -31.3501
   -31.3422 -31.3374 -31.3363 -31.3301 -31.3269 -31.3269 -31.3263 -31.3078
   -31.3003 -31.2981 -31.2795 -31.2751 -31.2746 -31.2505 -31.2466 -31.2116
   -31.2073 -31.1943 -30.6156 -30.6155 -30.5398 -30.5396 -30.5002 -30.5000
   -20.1649 -19.0765 -15.6405 -15.5420 -15.3918 -15.2687 -15.2563 -15.2436
   -15.1915 -15.1268 -15.1139 -15.0631 -15.0507 -15.0197 -15.0039 -14.9978
   -14.9618 -14.8534 -14.8493 -14.8390 -14.8182 -14.7733 -14.7622 -14.7551
   -14.7429 -14.7068 -14.6984 -14.6842 -14.6738 -14.5815 -14.4423 -12.7976
   -12.7970 -11.1872  -6.9213  -6.8479  -5.1366  -4.9924  -3.1753  -2.9818
    -2.8100  -2.7311  -2.6339  -2.4865  -2.4717  -2.3906  -2.3786  -2.3282
    -2.2574  -2.2545  -2.2509  -2.1694  -2.1576  -2.1574  -2.1361  -2.1159
    -2.0760  -2.0675  -2.0426  -2.0335  -1.9921  -1.9616  -1.9486  -1.9310
    -1.9211  -1.9172  -1.8860  -1.8711  -1.8554  -1.8139  -1.7910  -1.7307
    -1.6428  -1.6060  -1.4831  -1.4807  -1.4428  -1.4145  -1.3903  -1.3497
    -1.3298  -1.2818  -1.2615  -1.2361  -1.0529  -1.0368  -0.9815  -0.9415
    -0.9220  -0.9090  -0.8472  -0.7752  -0.7482  -0.7173  -0.6511  -0.5781
    -0.4817  -0.4580  -0.4495  -0.3429  -0.2913  -0.2518  -0.2475  -0.2382
    -0.2139  -0.1657  -0.1459  -0.0839  -0.0450  -0.0014   0.0241   0.0410
     0.2222   0.2606   0.3190   0.4106   0.4394   0.5840   0.6331   0.6846
     0.7451   0.8214   0.8325   0.8985   1.0127   1.0250   1.0551   1.1319
     1.1752   1.1809   1.2060   2.0623   2.0644   2.1659   2.1689   3.9679
     4.0754   4.0940   4.1729   4.2393   4.3472   4.3603   4.3894   4.3999
     4.4454   4.4770

     the Fermi energy is     3.8945 ev

!    total energy              =   -2967.47600589 Ry
     estimated scf accuracy    <       0.00000007 Ry
     smearing contrib. (-TS)   =      -0.03653925 Ry
     internal energy E=F+TS    =   -2967.43946664 Ry

     The total energy is F=E-TS. E is the sum of the following terms:
     one-electron contribution =  -23963.25941499 Ry
     hartree contribution      =   12077.20173045 Ry
     xc contribution           =    -491.85917822 Ry
     ewald contribution        =    9410.47383231 Ry
     electric field correction =       0.00356381 Ry

     convergence has been achieved in  80 iterations

     Forces acting on atoms (cartesian axes, Ry/au):

     atom    1 type  1   force =    -0.00026241    0.00020055    0.09242690
     atom    2 type  1   force =    -0.00035505    0.00104430   -0.18342381
     atom    3 type  2   force =     0.00050315   -0.00072229   -0.02349379
     atom    4 type  2   force =     0.00072220   -0.00018631    0.05070321
     atom    5 type  2   force =    -0.01405629   -0.00132056    0.00496221
     atom    6 type  2   force =     0.01522853   -0.00065431    0.00510380
     atom    7 type  1   force =    -0.00048570    0.00105924   -0.00010966
     atom    8 type  1   force =     0.00015885   -0.00053142    0.00041157
     atom    9 type  2   force =    -0.00044041    0.00017350    0.00038936
     atom   10 type  2   force =     0.00040840    0.00016385    0.00049739
     atom   11 type  2   force =     0.00037179    0.00043664    0.00035351
     atom   12 type  2   force =     0.00004631    0.00013784    0.00028096
     atom   13 type  1   force =    -0.00088531   -0.00118288   -0.00008695
     atom   14 type  1   force =     0.00059693   -0.00004986    0.00022928
     atom   15 type  2   force =     0.00052289    0.00077107    0.00003745
     atom   16 type  2   force =    -0.00061903   -0.00036205    0.00005335
     atom   17 type  2   force =     0.00003129    0.00022957   -0.00043154
     atom   18 type  2   force =    -0.00015677    0.00018431   -0.00001076
     atom   19 type  1   force =     0.00075345    0.00005446   -0.00031847
     atom   20 type  1   force =    -0.00017609    0.00018603   -0.00011554
     atom   21 type  2   force =    -0.00004475    0.00015897    0.10494145
     atom   22 type  2   force =    -0.00028611    0.00060748   -0.00097009
     atom   23 type  2   force =    -0.06799055    0.00013105   -0.02679964
     atom   24 type  2   force =     0.06770785    0.00053691   -0.02686480
     atom   25 type  1   force =    -0.00038741   -0.00009065    0.09620047
     atom   26 type  1   force =    -0.00035961   -0.00099448   -0.18321903
     atom   27 type  2   force =     0.00042010   -0.00125581   -0.02226510
     atom   28 type  2   force =     0.00070064   -0.00033279    0.05102240
     atom   29 type  2   force =    -0.01424527   -0.00105522    0.00467221
     atom   30 type  2   force =     0.01520218    0.00021725    0.00485701
     atom   31 type  1   force =    -0.00049657   -0.00146195    0.00017973
     atom   32 type  1   force =     0.00012704    0.00070918   -0.00025696
     atom   33 type  2   force =     0.00002126   -0.00020458    0.00005977
     atom   34 type  2   force =     0.00002549   -0.00006842   -0.00005736
     atom   35 type  2   force =     0.00022667    0.00008571    0.00031796
     atom   36 type  2   force =     0.00038364    0.00045186    0.00006439
     atom   37 type  1   force =    -0.00106377    0.00125330   -0.00003748
     atom   38 type  1   force =     0.00037944    0.00011201   -0.00042488
     atom   39 type  2   force =     0.00041275    0.00021077   -0.00036125
     atom   40 type  2   force =    -0.00008760    0.00019300    0.00007694
     atom   41 type  2   force =    -0.00020799    0.00016086   -0.00058340
     atom   42 type  2   force =     0.00012123    0.00001646    0.00019698
     atom   43 type  1   force =    -0.00031507   -0.00005365    0.00001353
     atom   44 type  1   force =    -0.00009620    0.00001634   -0.00081997
     atom   45 type  2   force =    -0.00005555    0.00015264    0.10487677
     atom   46 type  2   force =    -0.06804055   -0.00038322   -0.02679974
     atom   47 type  2   force =     0.06775945    0.00004004   -0.02688753
     atom   48 type  3   force =    -0.00006874    0.00051115   -0.00016678
     atom   49 type  2   force =    -0.00109366    0.00033522    0.00083593
     atom   50 type  4   force =     0.00048682    0.00057013    0.00008544
     atom   51 type  4   force =     0.00070646    0.00085752    0.00001331
     atom   52 type  4   force =    -0.00042445    0.00062282   -0.00024650
     atom   53 type  4   force =    -0.00017489   -0.00026039    0.00011004
     atom   54 type  2   force =     0.00001191    0.00006533    0.00074730
     atom   55 type  4   force =    -0.00102769   -0.00028738   -0.00062727
     atom   56 type  4   force =    -0.00013320   -0.00119913    0.00065767

     Total force =     0.368171     Total SCF correction =     0.000488
  @ DRIVER MODE: Message from server: STATUS
  @ DRIVER MODE: Message from server: GETFORCE
  @ DRIVER MODE: Returning v,forces,stress,ensemble

     Writing output data file ./calc.save/
  @ DRIVER MODE: Message from server: EXIT
  @ DRIVE MODE: Exiting

     General routines

     Parallel routines

   This run was terminated on:   9: 3:58  16Sep2021

   JOB DONE.