     Program PWSCF v.6.7GPU starts on  2Aug2021 at 18:10:20

     R & G space division:  proc/nbgrp/npool/nimage =      16
     Reading input from /storage/home/hcoda1/3/ntian30/research/carbon/02Aug_vib_paired/ads_slab/CH3N2_b/out_0019/pw.inp
Warning: card &CELL ignored
Warning: card   CELL_DYNAMICS='IPI', ignored
Warning: card / ignored

     Current dimensions of program PWSCF are:
     Max number of different atomic species (ntypx) = 10
     Max number of k-points (npk) =  40000
     Max angular momentum in pseudopotentials (lmaxx) =  3
     Presently no symmetry can be used with electric field

     Message from routine cell_base_init:
     DEPRECATED: use true lattice parameter, not A to a.u. conversion factor

     IMPORTANT: XC functional enforced from input :
     Exchange-correlation= BEEF-VDW
                           (   1   4  43  14   2   0   0)
     Any further DFT definition will be discarded
     Please, verify this is what you really want

  @ DRIVER MODE: Connecting to
 qe_1139763_2482536.sched-torque.pace.gatech.edux33ks3ki_scratch
  using UNIX socket
  @ DRIVER MODE: Message from server: STATUS
  @ DRIVER MODE: Message from server: INIT
  @ DRIVER MODE: Receiving replica           0          -1
  @ DRIVER MODE: Receiving encoded integer          25
  @ DRIVER MODE:  SCF:  T  FORCE:  T  STRESS:  F  VC:  F  ENSEMBLE:  F
  @ DRIVER MODE:  SCF:  T  FORCE:  T  STRESS:  F  VC:  F  ENSEMBLE:  F

     Using Slab Decomposition

     bravais-lattice index     =            0
     lattice parameter (alat)  =       1.8897  a.u.
     unit-cell volume          =    6658.9804 (a.u.)^3
     number of atoms/cell      =           53
     number of atomic types    =            5
     number of electrons       =       395.00
     number of Kohn-Sham states=          207
     kinetic-energy cutoff     =      29.3995  Ry
     charge density cutoff     =     293.9946  Ry
     scf convergence threshold =      7.3E-08
     mixing beta               =       0.0500
     number of iterations used =            8  plain     mixing
     Exchange-correlation= BEEF-VDW
                           (   1   4  43  14   2   0   0)

     celldm(1)=   1.889726  celldm(2)=   0.000000  celldm(3)=   0.000000
     celldm(4)=   0.000000  celldm(5)=   0.000000  celldm(6)=   0.000000

     crystal axes: (cart. coord. in units of alat)
               a(1) = (   6.579727   0.000000   0.000000 )
               a(2) = (  -0.000775   5.961596   0.000000 )
               a(3) = (   0.000000   0.000000  25.155947 )

     reciprocal axes: (cart. coord. in units 2 pi/alat)
               b(1) = (  0.151982  0.000020  0.000000 )
               b(2) = (  0.000000  0.167740  0.000000 )
               b(3) = (  0.000000  0.000000  0.039752 )

     PseudoPot. # 1 for Ti read from file:
     /storage/coda1/p-amedford6/0/shared/rich_project_chbe-medford/medford-share/data/pseudos_module/espresso/nninc/pbe/van/Ti.UPF
     MD5 check sum: 8e4df49b7f0d34bbd5052bf3f5ea0213
     Pseudo is Ultrasoft, Zval = 12.0
     Generated by new atomic code, or converted to UPF format
     Using radial grid of  851 points,  6 beta functions with:
                l(1) =   0
                l(2) =   0
                l(3) =   1
                l(4) =   1
                l(5) =   2
                l(6) =   2
     Q(r) pseudized with  8 coefficients,  rinner =    1.000   1.000   1.000
                                                       1.000   1.000

     PseudoPot. # 2 for O  read from file:
     /storage/coda1/p-amedford6/0/shared/rich_project_chbe-medford/medford-share/data/pseudos_module/espresso/nninc/pbe/van/O.UPF
     MD5 check sum: 78c19812648e8988a0fe644b0f25305e
     Pseudo is Ultrasoft, Zval =  6.0
     Generated by new atomic code, or converted to UPF format
     Using radial grid of  737 points,  4 beta functions with:
                l(1) =   0
                l(2) =   0
                l(3) =   1
                l(4) =   1
     Q(r) pseudized with  8 coefficients,  rinner =    0.800   0.800   0.800

     PseudoPot. # 3 for N  read from file:
     /storage/coda1/p-amedford6/0/shared/rich_project_chbe-medford/medford-share/data/pseudos_module/espresso/nninc/pbe/van/N.UPF
     MD5 check sum: 90d10febe142ad51ac9d5be1deb811c4
     Pseudo is Ultrasoft, Zval =  5.0
     Generated by new atomic code, or converted to UPF format
     Using radial grid of  729 points,  4 beta functions with:
                l(1) =   0
                l(2) =   0
                l(3) =   1
                l(4) =   1
     Q(r) pseudized with  8 coefficients,  rinner =    0.800   0.800   0.800

     PseudoPot. # 4 for C  read from file:
     /storage/coda1/p-amedford6/0/shared/rich_project_chbe-medford/medford-share/data/pseudos_module/espresso/nninc/pbe/van/C.UPF
     MD5 check sum: 1a69bf6b8db32088f5b2163dbdb77a27
     Pseudo is Ultrasoft, Zval =  4.0
     Generated by new atomic code, or converted to UPF format
     Using radial grid of  721 points,  4 beta functions with:
                l(1) =   0
                l(2) =   0
                l(3) =   1
                l(4) =   1
     Q(r) pseudized with  8 coefficients,  rinner =    0.800   0.800   0.800

     PseudoPot. # 5 for H  read from file:
     /storage/coda1/p-amedford6/0/shared/rich_project_chbe-medford/medford-share/data/pseudos_module/espresso/nninc/pbe/van/H.UPF
     MD5 check sum: b5ee9d7bfd3a09ee7748110bda690ff7
     Pseudo is Ultrasoft, Zval =  1.0
     Generated by new atomic code, or converted to UPF format
     Using radial grid of  615 points,  1 beta functions with:
                l(1) =   0
     Q(r) pseudized with  8 coefficients,  rinner =    0.800

     atomic species   valence    mass     pseudopotential
        Ti1           12.00    47.86700     Ti( 1.00)
        O1             6.00    15.99900     O ( 1.00)
        N1             5.00    14.00700     N ( 1.00)
        C1             4.00    12.01100     C ( 1.00)
        H1             1.00     1.00800     H ( 1.00)

     No symmetry found

   Cartesian axes

     site n.     atom                  positions (alat units)
         1           Ti1 tau(   1) = (   0.0004258   2.9801865   6.0000000  )
         2           Ti1 tau(   2) = (   3.2906075   1.4906267   6.0002472  )
         3           O1  tau(   3) = (   0.0006271   0.0005054   7.9858123  )
         4           O1  tau(   4) = (   3.2906025   0.0005020   7.3038282  )
         5           O1  tau(   5) = (   4.5942328   1.4918067   9.2879030  )
         6           O1  tau(   6) = (   1.9868534   1.4903216   9.2879459  )
         7           Ti1 tau(   7) = (   3.2907910   2.8959150   9.1758416  )
         8           Ti1 tau(   8) = (   0.0015273   1.4827037   9.2680791  )
         9           O1  tau(   9) = (   3.3037365   0.0094216  11.3222111  )
        10           O1  tau(  10) = (   0.0116148   5.9584955  10.6183126  )
        11           O1  tau(  11) = (   1.3152514   1.5075076  12.6320051  )
        12           O1  tau(  12) = (   5.3186361   1.4995162  12.6508707  )
        13           Ti1 tau(  13) = (   6.5540705   2.9956815  12.5884341  )
        14           Ti1 tau(  14) = (   3.2234832   1.4927074  12.4921739  )
        15           O1  tau(  15) = (   0.0610261   5.9052480  14.6017706  )
        16           O1  tau(  16) = (   3.2936532   0.0132264  13.8830087  )
        17           O1  tau(  17) = (   4.5722397   1.5061520  16.0138922  )
        18           O1  tau(  18) = (   2.0767725   1.5295127  16.0808449  )
        19           Ti1 tau(  19) = (   3.3650854   3.0251465  15.6907462  )
        20           Ti1 tau(  20) = (   0.0387768   1.3037779  15.7216176  )
        21           O1  tau(  21) = (   3.2904802   0.0005063   4.7018136  )
        22           O1  tau(  22) = (   0.0189486   0.1070799  17.1824039  )
        23           O1  tau(  23) = (   1.3043587   1.4918075   6.0039043  )
        24           O1  tau(  24) = (   5.2767064   1.4903225   6.0039473  )
        25           Ti1 tau(  25) = (   0.0000382   5.9609847   6.0000000  )
        26           Ti1 tau(  26) = (   3.2902200   4.4714249   6.0002472  )
        27           O1  tau(  27) = (   0.0002396   2.9813036   7.9858123  )
        28           O1  tau(  28) = (   3.2902150   2.9813002   7.3038282  )
        29           O1  tau(  29) = (   4.5938453   4.4726049   9.2879030  )
        30           O1  tau(  30) = (   1.9864658   4.4711199   9.2879459  )
        31           Ti1 tau(  31) = (   3.2891106   5.8743827   9.1763621  )
        32           Ti1 tau(  32) = (   0.0006254   4.4649316   9.2693709  )
        33           O1  tau(  33) = (   3.3043114   2.9829305  11.3227053  )
        34           O1  tau(  34) = (   0.0092240   2.9805883  10.6323155  )
        35           O1  tau(  35) = (   1.3131995   4.4620516  12.6081187  )
        36           O1  tau(  36) = (   5.3117129   4.4692194  12.6284301  )
        37           Ti1 tau(  37) = (   6.5303063   5.9583428  12.5400172  )
        38           Ti1 tau(  38) = (   3.2255477   4.4746212  12.4748647  )
        39           O1  tau(  39) = (   0.0377805   3.0059521  14.8845374  )
        40           O1  tau(  40) = (   3.3120027   2.9986483  13.8863452  )
        41           O1  tau(  41) = (   4.5434534   4.5277214  16.0148975  )
        42           O1  tau(  42) = (   2.1165747   4.4940517  16.0783766  )
        43           Ti1 tau(  43) = (   3.3042555   0.0241951  15.7004812  )
        44           Ti1 tau(  44) = (   0.0495666   4.4505358  16.3362958  )
        45           O1  tau(  45) = (   3.2900926   2.9813045   4.7018136  )
        46           O1  tau(  46) = (   1.3039711   4.4726057   6.0039043  )
        47           O1  tau(  47) = (   5.2763189   4.4711207   6.0039473  )
        48           N1  tau(  48) = (   0.5348212   3.4288502  18.0689430  )
        49           C1  tau(  49) = (   1.3556880   3.0079929  19.2215664  )
        50           H1  tau(  50) = (   1.4862090   3.8900195  19.8496782  )
        51           H1  tau(  51) = (   0.8369181   2.2141957  19.7647163  )
        52           H1  tau(  52) = (   2.3296892   2.6851793  18.8624704  )
        53           N1  tau(  53) = (   5.9145885   3.2636146  17.9655992  )

     number of k points=    10  Fermi-Dirac smearing, width (Ry)=  0.0073
                       cart. coord. in units 2pi/alat
        k(    1) = (   0.0000000   0.0000000   0.0000000), wk =   0.1250000
        k(    2) = (   0.0000000   0.0419351   0.0000000), wk =   0.2500000
        k(    3) = (   0.0000000  -0.0838702   0.0000000), wk =   0.1250000
        k(    4) = (   0.0379955   0.0000049   0.0000000), wk =   0.2500000
        k(    5) = (   0.0379955   0.0419400   0.0000000), wk =   0.2500000
        k(    6) = (   0.0379955  -0.0838652   0.0000000), wk =   0.2500000
        k(    7) = (   0.0379955  -0.0419301   0.0000000), wk =   0.2500000
        k(    8) = (  -0.0759910  -0.0000099   0.0000000), wk =   0.1250000
        k(    9) = (  -0.0759910   0.0419252   0.0000000), wk =   0.2500000
        k(   10) = (  -0.0759910  -0.0838800   0.0000000), wk =   0.1250000

     Initial potential from superposition of free atoms

     starting charge  378.99916, renormalised to  395.00000

     negative rho (up, down):  1.610E-02 0.000E+00

     %%%%%%%%%%%%%%%%%%%%%%%%%%%%%%%%%%%%%%%%%%%%%%%%%%%%%%%%%%%%%%%%%%%%%%%%
     %                                                                      %
     % You are using vdW-DF, which was implemented by the Thonhauser group. %
     % Please cite the following two papers that made this development      %
     % possible and the two reviews that describe the various versions:     %
     %                                                                      %
     %   T. Thonhauser et al., PRL 115, 136402 (2015).                      %
     %   T. Thonhauser et al., PRB 76, 125112 (2007).                       %
     %   K. Berland et al., Rep. Prog. Phys. 78, 066501 (2015).             %
     %   D.C. Langreth et al., J. Phys.: Condens. Matter 21, 084203 (2009). %
     %                                                                      %
     %                                                                      %
     % If you are calculating the stress with vdW-DF, please also cite:     %
     %                                                                      %
     %   R. Sabatini et al., J. Phys.: Condens. Matter 24, 424209 (2012).   %
     %                                                                      %
     %%%%%%%%%%%%%%%%%%%%%%%%%%%%%%%%%%%%%%%%%%%%%%%%%%%%%%%%%%%%%%%%%%%%%%%%

     Adding external electric field

     Computed dipole along edir(3) :
        Dipole               -8.5786 Ry au,        -21.8047 Debye
        Dipole field         -0.0162 Ry au,

        Potential amp.        1.5007 Ry
        Total length         46.3494 bohr

     Starting wfcs are  299 atomic wfcs
  @ DRIVER MODE: Message from server: STATUS
  @ DRIVER MODE: Message from server: POSDATA
  @ DRIVER MODE: Reading and sharing cell
  @ DRIVER MODE: Reading and sharing positions
  @ DRIVER MODE: Received positions

     Self-consistent Calculation

     iteration #  1     ecut=    29.40 Ry     beta= 0.05
     Davidson diagonalization with overlap
     c_bands:  1 eigenvalues not converged
     c_bands:  2 eigenvalues not converged
     c_bands:  1 eigenvalues not converged
     c_bands:  3 eigenvalues not converged
     c_bands:  1 eigenvalues not converged
     c_bands:  2 eigenvalues not converged
     c_bands:  2 eigenvalues not converged
     c_bands:  2 eigenvalues not converged
     ethr =  1.00E-05,  avg # of iterations = 19.2

[...]

     total energy              =   -2599.37409442 Ry
     estimated scf accuracy    <    3763.55922309 Ry

     iteration #  2     ecut=    29.40 Ry     beta= 0.05
     Davidson diagonalization with overlap
     ethr =  1.00E-02,  avg # of iterations = 23.0

[...]

     iteration # 75     ecut=    29.40 Ry     beta= 0.05
     Davidson diagonalization with overlap
     c_bands:  1 eigenvalues not converged
     ethr =  2.14E-11,  avg # of iterations = 15.7

[...]

     total energy              =   -2939.12542142 Ry
     estimated scf accuracy    <       0.00000012 Ry

     iteration # 76     ecut=    29.40 Ry     beta= 0.05
     Davidson diagonalization with overlap
     ethr =  2.14E-11,  avg # of iterations =  8.8

     negative rho (up, down):  1.617E-02 0.000E+00

     Adding external electric field

     Computed dipole along edir(3) :
        Dipole                0.9109 Ry au,          2.3153 Debye
        Dipole field          0.0017 Ry au,

        Potential amp.       -0.1593 Ry
        Total length         46.3494 bohr

     End of self-consistent calculation

          k = 0.0000 0.0000 0.0000 ( 18029 PWs)   bands (ev):

   -55.7759 -55.7700 -55.7419 -55.7340 -55.6837 -55.6353 -55.5966 -55.5626
   -55.5554 -55.5218 -55.5200 -55.4469 -54.9567 -54.8072 -54.7560 -54.7220
   -32.3189 -32.2599 -32.1750 -32.0961 -32.0682 -32.0565 -32.0474 -32.0212
   -32.0060 -31.9706 -31.9404 -31.9282 -31.9219 -31.9050 -31.8830 -31.8817
   -31.8790 -31.8785 -31.8654 -31.8353 -31.8331 -31.8218 -31.8008 -31.7920
   -31.7889 -31.7826 -31.7812 -31.7555 -31.7415 -31.7363 -31.7258 -31.7106
   -31.7069 -31.6693 -31.6366 -31.5644 -31.4929 -31.3385 -31.1680 -31.1629
   -31.1053 -31.0749 -31.0665 -31.0525 -30.9800 -30.9133 -30.8935 -30.7821
   -19.4389 -16.5176 -16.2526 -15.9673 -15.9157 -15.8415 -15.7481 -15.6249
   -15.5292 -15.4107 -15.3720 -15.3156 -15.3083 -15.2640 -15.2370 -15.2329
   -15.2067 -15.1984 -15.1343 -15.1267 -15.0765 -15.0648 -15.0166 -14.9819
   -14.9703 -14.9149 -14.8461 -14.8051 -14.6861 -14.1604 -13.2577 -13.1412
   -12.3058  -7.2466  -4.9445  -4.7807  -3.8999  -3.7574  -3.6971  -3.6852
    -3.6406  -3.4403  -3.3520  -3.2843  -3.0443  -2.9529  -2.9285  -2.9178
    -2.8688  -2.7112  -2.6653  -2.6050  -2.5891  -2.5624  -2.5405  -2.5324
    -2.4970  -2.4869  -2.4582  -2.4262  -2.3265  -2.2134  -2.1841  -2.1064
    -2.0907  -2.0752  -2.0448  -2.0350  -2.0252  -2.0154  -1.9969  -1.9596
    -1.8956  -1.8524  -1.7872  -1.7027  -1.5612  -1.5394  -1.4612  -1.3853
    -1.3056  -1.2630  -1.2412  -1.2127  -1.1729  -1.0934  -1.0673  -0.9212
    -0.8243  -0.7911  -0.7741  -0.7316  -0.6956  -0.5934  -0.5717  -0.5425
    -0.5334  -0.5058  -0.4321  -0.3756  -0.2437  -0.2129  -0.2090  -0.1714
    -0.1006  -0.0468   0.0066   0.0559   0.0637   0.0996   0.1596   0.1848
     0.1897   0.2323   0.2747   0.3494   0.3757   0.4497   0.4538   0.5179
     0.5617   0.6434   0.7511   0.8732   1.0165   1.1535   1.1981   1.2671
     1.3625   1.4590   1.8373   1.8829   2.1434   3.3374   3.4446   3.4681
     3.4803   3.5871   3.7956   3.8181   3.8671   3.8875   3.8957

[...]

          k = 0.0380-0.0419 0.0000 ( 17876 PWs)   bands (ev):

[...]

          k =-0.0760-0.0000 0.0000 ( 17886 PWs)   bands (ev):

[...]

          k =-0.0760-0.0839 0.0000 ( 17948 PWs)   bands (ev):

   -55.7589 -55.7587 -55.7526 -55.7511 -55.6765 -55.6424 -55.5796 -55.5792
   -55.5389 -55.5385 -55.5156 -55.4513 -54.9554 -54.8084 -54.7390 -54.7388
   -32.1225 -32.1189 -32.0753 -32.0751 -32.0537 -32.0534 -32.0200 -32.0051
   -31.9988 -31.9901 -31.9213 -31.9161 -31.9053 -31.8989 -31.8822 -31.8801
   -31.8795 -31.8781 -31.8777 -31.8728 -31.8542 -31.8516 -31.8503 -31.8141
   -31.7847 -31.7826 -31.7809 -31.7684 -31.7681 -31.7590 -31.7581 -31.7560
   -31.7548 -31.7368 -31.7123 -31.6613 -31.4402 -31.3206 -31.1698 -31.1594
   -31.0835 -31.0653 -31.0651 -30.9758 -30.9756 -30.9368 -30.9367 -30.9162
   -19.4368 -15.9180 -15.9119 -15.7504 -15.7158 -15.6502 -15.6414 -15.5736
   -15.5066 -15.4617 -15.4567 -15.3416 -15.3396 -15.3249 -15.3034 -15.2491
   -15.2328 -15.2316 -15.2280 -15.2202 -15.2087 -15.1811 -15.1503 -15.0996
   -15.0946 -15.0741 -15.0635 -14.9423 -14.5323 -14.4707 -13.2431 -13.2429
   -12.3084  -7.2332  -4.9463  -4.7780  -3.6212  -3.2073  -3.1909  -3.0030
    -2.9196  -2.9085  -2.8930  -2.7418  -2.7293  -2.7116  -2.6544  -2.6481
    -2.6375  -2.6006  -2.5845  -2.5606  -2.5202  -2.5151  -2.4668  -2.4640
    -2.4489  -2.4291  -2.4087  -2.4030  -2.3897  -2.3747  -2.3374  -2.2811
    -2.2429  -2.2159  -2.1877  -2.0913  -2.0304  -1.9946  -1.9273  -1.9187
    -1.8678  -1.8430  -1.8286  -1.7622  -1.6918  -1.6624  -1.5781  -1.4866
    -1.4681  -1.4528  -1.3341  -1.3202  -1.2454  -1.2216  -1.1378  -1.1207
    -1.0810  -0.9706  -0.9472  -0.9159  -0.8812  -0.8372  -0.7735  -0.7366
    -0.7346  -0.6861  -0.6419  -0.5858  -0.5245  -0.5126  -0.4972  -0.4884
    -0.4249  -0.3914  -0.3694  -0.2869  -0.2718  -0.1901  -0.0463  -0.0135
     0.1440   0.1932   0.3020   0.3296   0.4205   0.4422   0.5362   0.5394
     0.5722   0.7013   0.7202   0.7378   0.7540   0.7737   0.7976   0.9366
     1.6314   1.6315   1.7030   1.7030   2.0813   3.6704   3.7075   3.7577
     3.7795   3.8836   3.8887   3.8913   3.8989   4.0202   4.0247

     the Fermi energy is     3.3509 ev

!    total energy              =   -2939.12543380 Ry
     estimated scf accuracy    <       0.00000004 Ry
     smearing contrib. (-TS)   =      -0.02052492 Ry
     internal energy E=F+TS    =   -2939.10490888 Ry

     The total energy is F=E-TS. E is the sum of the following terms:
     one-electron contribution =  -24213.33855024 Ry
     hartree contribution      =   12195.40298644 Ry
     xc contribution           =    -485.19588958 Ry
     ewald contribution        =    9564.02497865 Ry
     electric field correction =       0.00156586 Ry

     convergence has been achieved in  76 iterations

     Forces acting on atoms (cartesian axes, Ry/au):

     atom    1 type  1   force =     0.00010461   -0.00019435    0.09585857
     atom    2 type  1   force =     0.00006507   -0.00061187   -0.17547976
     atom    3 type  2   force =     0.00017660   -0.00019280   -0.02305017
     atom    4 type  2   force =     0.00004062   -0.00128763    0.05261945
     atom    5 type  2   force =    -0.00977922   -0.00031396    0.00252873
     atom    6 type  2   force =     0.01166463    0.00022792    0.00290928
     atom    7 type  1   force =     0.00088541    0.00001159   -0.00991550
     atom    8 type  1   force =    -0.00000226    0.00531899    0.01819053
     atom    9 type  2   force =    -0.00001510   -0.00028810   -0.00011440
     atom   10 type  2   force =    -0.00253714    0.00216602   -0.01349224
     atom   11 type  2   force =    -0.00097521    0.00010439    0.00016658
     atom   12 type  2   force =     0.00038622   -0.00026003    0.00048194
     atom   13 type  1   force =     0.00010853   -0.00008026    0.00050918
     atom   14 type  1   force =    -0.00004098   -0.00017033   -0.00016860
     atom   15 type  2   force =    -0.00058970    0.00022811    0.00042831
     atom   16 type  2   force =    -0.00043581    0.00007580    0.00019595
     atom   17 type  2   force =    -0.00015374   -0.00008634   -0.00031403
     atom   18 type  2   force =     0.00028909    0.00023117    0.00008564
     atom   19 type  1   force =    -0.00060484   -0.00057287    0.00066157
     atom   20 type  1   force =    -0.00028524    0.00037169   -0.00071679
     atom   21 type  2   force =     0.00007392   -0.00006023    0.10322588
     atom   22 type  2   force =     0.00008639   -0.00006841   -0.00040027
     atom   23 type  2   force =    -0.07153575   -0.00018954   -0.02753263
     atom   24 type  2   force =     0.07151345    0.00031102   -0.02758725
     atom   25 type  1   force =     0.00013066   -0.00028905    0.09517533
     atom   26 type  1   force =     0.00009514   -0.00047145   -0.17562398
     atom   27 type  2   force =     0.00015857   -0.00011900   -0.02178789
     atom   28 type  2   force =     0.00008372   -0.00106164    0.05249141
     atom   29 type  2   force =    -0.01015933    0.00023660    0.00290365
     atom   30 type  2   force =     0.01197818    0.00052159    0.00328257
     atom   31 type  1   force =     0.00089151    0.00415141   -0.01179626
     atom   32 type  1   force =     0.00011989   -0.00633786    0.01832089
     atom   33 type  2   force =     0.00016412    0.00041855   -0.00011443
     atom   34 type  2   force =    -0.00308290   -0.00010304   -0.00868386
     atom   35 type  2   force =    -0.00021308    0.00007290    0.00000627
     atom   36 type  2   force =    -0.00003616    0.00028672   -0.00006636
     atom   37 type  1   force =     0.00045725   -0.00094470    0.00019650
     atom   38 type  1   force =    -0.00032158    0.00008075    0.00032385
     atom   39 type  2   force =     0.00011635   -0.00025478    0.00053816
     atom   40 type  2   force =    -0.00008388    0.00027130    0.00015879
     atom   41 type  2   force =     0.00003995   -0.00014547   -0.00018321
     atom   42 type  2   force =    -0.00045787    0.00012932   -0.00040139
     atom   43 type  1   force =     0.00023959    0.00050054    0.00007418
     atom   44 type  1   force =    -0.00019938   -0.00085666   -0.00092417
     atom   45 type  2   force =     0.00007809   -0.00006247    0.10317740
     atom   46 type  2   force =    -0.07154791   -0.00009918   -0.02752321
     atom   47 type  2   force =     0.07153663    0.00025253   -0.02758573
     atom   48 type  3   force =     0.00082922   -0.00003056    0.00013875
     atom   49 type  4   force =    -0.00390196   -0.00334297    0.00178011
     atom   50 type  5   force =     0.00028980    0.00022278   -0.00000073
     atom   51 type  5   force =     0.00344509    0.00342699   -0.00245050
     atom   52 type  5   force =    -0.00011599   -0.00159591   -0.00020070
     atom   53 type  3   force =     0.00102674    0.00047276   -0.00031541

     Total force =     0.364803     Total SCF correction =     0.000548
  @ DRIVER MODE: Message from server: STATUS
  @ DRIVER MODE: Message from server: GETFORCE
  @ DRIVER MODE: Returning v,forces,stress,ensemble

     Writing output data file ./calc.save/
  @ DRIVER MODE: Message from server: EXIT
  @ DRIVE MODE: Exiting

     General routines

     Parallel routines

   This run was terminated on:  18:29:13   2Aug2021

   JOB DONE.