     Program PWSCF v.6.7GPU starts on 27Sep2021 at 10: 0:50

     R & G space division:  proc/nbgrp/npool/nimage =       8
     Reading input from /storage/home/hcoda1/3/ntian30/research/carbon/CxH_vib/H2O_calc/ads_slab/CH2NHNHHO_b/out_0054/pw.inp
Warning: card &CELL ignored
Warning: card   CELL_DYNAMICS='IPI', ignored
Warning: card / ignored

     Current dimensions of program PWSCF are:
     Max number of different atomic species (ntypx) = 10
     Max number of k-points (npk) =  40000
     Max angular momentum in pseudopotentials (lmaxx) =  3
     Presently no symmetry can be used with electric field

     Message from routine cell_base_init:
     DEPRECATED: use true lattice parameter, not A to a.u. conversion factor

     IMPORTANT: XC functional enforced from input :
     Exchange-correlation= BEEF-VDW
                           (   1   4  43  14   2   0   0)
     Any further DFT definition will be discarded
     Please, verify this is what you really want

  @ DRIVER MODE: Connecting to
 qe_1139763_2971671.sched-torque.pace.gatech.eduz30ddw42_scratch
  using UNIX socket
  @ DRIVER MODE: Message from server: STATUS
  @ DRIVER MODE: Message from server: INIT
  @ DRIVER MODE: Receiving replica           0          -1
  @ DRIVER MODE: Receiving encoded integer          25
  @ DRIVER MODE:  SCF:  T  FORCE:  T  STRESS:  F  VC:  F  ENSEMBLE:  F
  @ DRIVER MODE:  SCF:  T  FORCE:  T  STRESS:  F  VC:  F  ENSEMBLE:  F

     Using Slab Decomposition

     bravais-lattice index     =            0
     lattice parameter (alat)  =       1.8897  a.u.
     unit-cell volume          =    6658.9804 (a.u.)^3
     number of atoms/cell      =           56
     number of atomic types    =            5
     number of electrons       =       403.00
     number of Kohn-Sham states=          211
     kinetic-energy cutoff     =      29.3995  Ry
     charge density cutoff     =     293.9946  Ry
     scf convergence threshold =      7.3E-08
     mixing beta               =       0.0500
     number of iterations used =            8  plain     mixing
     Exchange-correlation= BEEF-VDW
                           (   1   4  43  14   2   0   0)

     celldm(1)=   1.889726  celldm(2)=   0.000000  celldm(3)=   0.000000
     celldm(4)=   0.000000  celldm(5)=   0.000000  celldm(6)=   0.000000

     crystal axes: (cart. coord. in units of alat)
               a(1) = (   6.579727   0.000000   0.000000 )
               a(2) = (  -0.000775   5.961596   0.000000 )
               a(3) = (   0.000000   0.000000  25.155947 )

     reciprocal axes: (cart. coord. in units 2 pi/alat)
               b(1) = (  0.151982  0.000020  0.000000 )
               b(2) = (  0.000000  0.167740  0.000000 )
               b(3) = (  0.000000  0.000000  0.039752 )

     PseudoPot. # 1 for Ti read from file:
     /storage/coda1/p-amedford6/0/shared/rich_project_chbe-medford/medford-share/data/pseudos_module/espresso/nninc/pbe/van/Ti.UPF
     MD5 check sum: 8e4df49b7f0d34bbd5052bf3f5ea0213
     Pseudo is Ultrasoft, Zval = 12.0
     Generated by new atomic code, or converted to UPF format
     Using radial grid of  851 points,  6 beta functions with:
                l(1) =   0
                l(2) =   0
                l(3) =   1
                l(4) =   1
                l(5) =   2
                l(6) =   2
     Q(r) pseudized with  8 coefficients,  rinner =    1.000   1.000   1.000
                                                       1.000   1.000

     PseudoPot. # 2 for O  read from file:
     /storage/coda1/p-amedford6/0/shared/rich_project_chbe-medford/medford-share/data/pseudos_module/espresso/nninc/pbe/van/O.UPF
     MD5 check sum: 78c19812648e8988a0fe644b0f25305e
     Pseudo is Ultrasoft, Zval =  6.0
     Generated by new atomic code, or converted to UPF format
     Using radial grid of  737 points,  4 beta functions with:
                l(1) =   0
                l(2) =   0
                l(3) =   1
                l(4) =   1
     Q(r) pseudized with  8 coefficients,  rinner =    0.800   0.800   0.800

     PseudoPot. # 3 for N  read from file:
     /storage/coda1/p-amedford6/0/shared/rich_project_chbe-medford/medford-share/data/pseudos_module/espresso/nninc/pbe/van/N.UPF
     MD5 check sum: 90d10febe142ad51ac9d5be1deb811c4
     Pseudo is Ultrasoft, Zval =  5.0
     Generated by new atomic code, or converted to UPF format
     Using radial grid of  729 points,  4 beta functions with:
                l(1) =   0
                l(2) =   0
                l(3) =   1
                l(4) =   1
     Q(r) pseudized with  8 coefficients,  rinner =    0.800   0.800   0.800

     PseudoPot. # 4 for C  read from file:
     /storage/coda1/p-amedford6/0/shared/rich_project_chbe-medford/medford-share/data/pseudos_module/espresso/nninc/pbe/van/C.UPF
     MD5 check sum: 1a69bf6b8db32088f5b2163dbdb77a27
     Pseudo is Ultrasoft, Zval =  4.0
     Generated by new atomic code, or converted to UPF format
     Using radial grid of  721 points,  4 beta functions with:
                l(1) =   0
                l(2) =   0
                l(3) =   1
                l(4) =   1
     Q(r) pseudized with  8 coefficients,  rinner =    0.800   0.800   0.800

     PseudoPot. # 5 for H  read from file:
     /storage/coda1/p-amedford6/0/shared/rich_project_chbe-medford/medford-share/data/pseudos_module/espresso/nninc/pbe/van/H.UPF
     MD5 check sum: b5ee9d7bfd3a09ee7748110bda690ff7
     Pseudo is Ultrasoft, Zval =  1.0
     Generated by new atomic code, or converted to UPF format
     Using radial grid of  615 points,  1 beta functions with:
                l(1) =   0
     Q(r) pseudized with  8 coefficients,  rinner =    0.800

     atomic species   valence    mass     pseudopotential
        Ti1           12.00    47.86700     Ti( 1.00)
        O1             6.00    15.99900     O ( 1.00)
        N1             5.00    14.00700     N ( 1.00)
        C1             4.00    12.01100     C ( 1.00)
        H1             1.00     1.00800     H ( 1.00)

     No symmetry found

   Cartesian axes

     site n.     atom                  positions (alat units)
         1           Ti1 tau(   1) = (   0.0004258   2.9801865   6.0000000  )
         2           Ti1 tau(   2) = (   3.2906075   1.4906267   6.0002472  )
         3           O1  tau(   3) = (   0.0006271   0.0005054   7.9858123  )
         4           O1  tau(   4) = (   3.2906025   0.0005020   7.3038282  )
         5           O1  tau(   5) = (   4.5942328   1.4918067   9.2879030  )
         6           O1  tau(   6) = (   1.9868534   1.4903216   9.2879459  )
         7           Ti1 tau(   7) = (   3.2907910   2.8959150   9.1758416  )
         8           Ti1 tau(   8) = (   0.0015273   1.4827037   9.2680791  )
         9           O1  tau(   9) = (   3.2987294   5.9443783  11.3578989  )
        10           O1  tau(  10) = (   0.0116148   5.9584955  10.6183126  )
        11           O1  tau(  11) = (   1.2795512   1.4821507  12.6386044  )
        12           O1  tau(  12) = (   5.2980455   1.5005163  12.6536529  )
        13           Ti1 tau(  13) = (   6.5652885   2.9238251  12.5528928  )
        14           Ti1 tau(  14) = (   3.2988635   1.2998061  12.7048432  )
        15           O1  tau(  15) = (   0.0127057   0.0339484  14.6761273  )
        16           O1  tau(  16) = (   3.2875936   0.0940603  14.0290633  )
        17           O1  tau(  17) = (   4.5650748   1.6033894  16.0357995  )
        18           O1  tau(  18) = (   2.0190796   1.5896112  16.2175902  )
        19           Ti1 tau(  19) = (   3.3013862   3.0422678  15.6649453  )
        20           Ti1 tau(  20) = (   6.4815444   1.5191555  15.8288377  )
        21           O1  tau(  21) = (   3.2904802   0.0005063   4.7018136  )
        22           O1  tau(  22) = (   6.5172723   5.9480513  17.2191950  )
        23           O1  tau(  23) = (   1.3043587   1.4918075   6.0039043  )
        24           O1  tau(  24) = (   5.2767064   1.4903225   6.0039473  )
        25           Ti1 tau(  25) = (   0.0000382   5.9609847   6.0000000  )
        26           Ti1 tau(  26) = (   3.2902200   4.4714249   6.0002472  )
        27           O1  tau(  27) = (   0.0002396   2.9813036   7.9858123  )
        28           O1  tau(  28) = (   3.2902150   2.9813002   7.3038282  )
        29           O1  tau(  29) = (   4.5938453   4.4726049   9.2879030  )
        30           O1  tau(  30) = (   1.9864658   4.4711199   9.2879459  )
        31           Ti1 tau(  31) = (   3.2891106   5.8743827   9.1763621  )
        32           Ti1 tau(  32) = (   0.0006254   4.4649316   9.2693709  )
        33           O1  tau(  33) = (   3.2945946   2.9940555  11.3077331  )
        34           O1  tau(  34) = (   0.0092240   2.9805883  10.6323155  )
        35           O1  tau(  35) = (   1.2876619   4.4781899  12.6403949  )
        36           O1  tau(  36) = (   5.3010724   4.4646845  12.6541769  )
        37           Ti1 tau(  37) = (   0.0424196   5.9023569  12.5123361  )
        38           Ti1 tau(  38) = (   3.3119368   4.3729351  12.4217702  )
        39           O1  tau(  39) = (   0.0401333   2.9740317  14.7512036  )
        40           O1  tau(  40) = (   3.2576645   3.0028392  13.8982547  )
        41           O1  tau(  41) = (   4.5666544   4.4234537  16.0705803  )
        42           O1  tau(  42) = (   2.0215446   4.4756893  16.1430302  )
        43           Ti1 tau(  43) = (   3.2259990   0.0392177  16.2341362  )
        44           Ti1 tau(  44) = (   6.5723990   4.6710500  15.9980081  )
        45           O1  tau(  45) = (   3.2900926   2.9813045   4.7018136  )
        46           O1  tau(  46) = (   1.3039711   4.4726057   6.0039043  )
        47           O1  tau(  47) = (   5.2763189   4.4711207   6.0039473  )
        48           N1  tau(  48) = (   0.9334729   2.5913682  18.4753943  )
        49           N1  tau(  49) = (   6.5156687   2.9055835  17.6419879  )
        50           C1  tau(  50) = (   1.0224037   2.6952286  19.7617917  )
        51           H1  tau(  51) = (   1.9166829   2.3177709  20.2270220  )
        52           H1  tau(  52) = (   0.2162702   3.1370440  20.3260263  )
        53           H1  tau(  53) = (   1.6995924   2.1399843  17.9426691  )
        54           H1  tau(  54) = (   5.6785098   3.1284051  18.1783837  )
        55           O1  tau(  55) = (   3.5318048   0.0910060  18.0897867  )
        56           H1  tau(  56) = (   4.4897960   0.0680733  18.2755997  )

     number of k points=    10  Fermi-Dirac smearing, width (Ry)=  0.0073
                       cart. coord. in units 2pi/alat
        k(    1) = (   0.0000000   0.0000000   0.0000000), wk =   0.1250000
        k(    2) = (   0.0000000   0.0419351   0.0000000), wk =   0.2500000
        k(    3) = (   0.0000000  -0.0838702   0.0000000), wk =   0.1250000
        k(    4) = (   0.0379955   0.0000049   0.0000000), wk =   0.2500000
        k(    5) = (   0.0379955   0.0419400   0.0000000), wk =   0.2500000
        k(    6) = (   0.0379955  -0.0838652   0.0000000), wk =   0.2500000
        k(    7) = (   0.0379955  -0.0419301   0.0000000), wk =   0.2500000
        k(    8) = (  -0.0759910  -0.0000099   0.0000000), wk =   0.1250000
        k(    9) = (  -0.0759910   0.0419252   0.0000000), wk =   0.2500000
        k(   10) = (  -0.0759910  -0.0838800   0.0000000), wk =   0.1250000

     Initial potential from superposition of free atoms

     starting charge  386.99914, renormalised to  403.00000

     negative rho (up, down):  1.427E-02 0.000E+00

     %%%%%%%%%%%%%%%%%%%%%%%%%%%%%%%%%%%%%%%%%%%%%%%%%%%%%%%%%%%%%%%%%%%%%%%%
     %                                                                      %
     % You are using vdW-DF, which was implemented by the Thonhauser group. %
     % Please cite the following two papers that made this development      %
     % possible and the two reviews that describe the various versions:     %
     %                                                                      %
     %   T. Thonhauser et al., PRL 115, 136402 (2015).                      %
     %   T. Thonhauser et al., PRB 76, 125112 (2007).                       %
     %   K. Berland et al., Rep. Prog. Phys. 78, 066501 (2015).             %
     %   D.C. Langreth et al., J. Phys.: Condens. Matter 21, 084203 (2009). %
     %                                                                      %
     %                                                                      %
     % If you are calculating the stress with vdW-DF, please also cite:     %
     %                                                                      %
     %   R. Sabatini et al., J. Phys.: Condens. Matter 24, 424209 (2012).   %
     %                                                                      %
     %%%%%%%%%%%%%%%%%%%%%%%%%%%%%%%%%%%%%%%%%%%%%%%%%%%%%%%%%%%%%%%%%%%%%%%%

     Adding external electric field

     Computed dipole along edir(3) :
        Dipole              -12.9691 Ry au,        -32.9641 Debye
        Dipole field         -0.0245 Ry au,

        Potential amp.        2.2687 Ry
        Total length         46.3494 bohr

     Starting wfcs are  305 atomic wfcs
  @ DRIVER MODE: Message from server: STATUS
  @ DRIVER MODE: Message from server: POSDATA
  @ DRIVER MODE: Reading and sharing cell
  @ DRIVER MODE: Reading and sharing positions
  @ DRIVER MODE: Received positions

     Self-consistent Calculation

     iteration #  1     ecut=    29.40 Ry     beta= 0.05
     Davidson diagonalization with overlap
     c_bands:  4 eigenvalues not converged
     c_bands:  4 eigenvalues not converged
     c_bands:  3 eigenvalues not converged
     c_bands:  1 eigenvalues not converged
     c_bands:  5 eigenvalues not converged
     c_bands:  3 eigenvalues not converged
     c_bands:  2 eigenvalues not converged
     ethr =  1.00E-05,  avg # of iterations = 24.0

[...]

     total energy              =   -2352.67927183 Ry
     estimated scf accuracy    <    7059.74464449 Ry

     iteration #  2     ecut=    29.40 Ry     beta= 0.05
     Davidson diagonalization with overlap
     ethr =  1.00E-02,  avg # of iterations = 22.7

[...]

     iteration # 61     ecut=    29.40 Ry     beta= 0.05
     Davidson diagonalization with overlap
     c_bands:  2 eigenvalues not converged
     c_bands:  1 eigenvalues not converged
     ethr =  4.12E-11,  avg # of iterations = 15.7

[...]

     total energy              =   -2973.99838172 Ry
     estimated scf accuracy    <       0.00000015 Ry

     iteration # 62     ecut=    29.40 Ry     beta= 0.05
     Davidson diagonalization with overlap
     ethr =  3.74E-11,  avg # of iterations =  7.1

     negative rho (up, down):  1.505E-02 0.000E+00

     Adding external electric field

     Computed dipole along edir(3) :
        Dipole                1.3519 Ry au,          3.4363 Debye
        Dipole field          0.0026 Ry au,

        Potential amp.       -0.2365 Ry
        Total length         46.3494 bohr

     End of self-consistent calculation

          k = 0.0000 0.0000 0.0000 ( 18029 PWs)   bands (ev):

   -55.4227 -55.3263 -55.2922 -55.1472 -55.1436 -55.1318 -55.1117 -55.1095
   -55.0829 -55.0541 -55.0328 -54.9561 -54.9525 -54.9094 -54.2895 -54.2555
   -31.8093 -31.7446 -31.6789 -31.6472 -31.6356 -31.6258 -31.6180 -31.5958
   -31.5713 -31.5699 -31.5661 -31.4815 -31.4786 -31.4313 -31.4176 -31.4033
   -31.3971 -31.3837 -31.3602 -31.3457 -31.3377 -31.3366 -31.3278 -31.3140
   -31.3016 -31.2896 -31.2770 -31.2744 -31.2732 -31.2619 -31.2583 -31.2479
   -31.2323 -31.2283 -31.2246 -31.1887 -31.1766 -31.1496 -31.1375 -31.1264
   -31.1152 -31.1109 -30.6951 -30.6099 -30.5874 -30.5126 -30.4263 -30.3145
   -19.6141 -16.1671 -15.9470 -15.7948 -15.6128 -15.4899 -15.4317 -15.2187
   -15.1508 -15.0800 -14.9993 -14.9335 -14.8571 -14.8428 -14.8173 -14.8021
   -14.7779 -14.7400 -14.7384 -14.7340 -14.6913 -14.6842 -14.6544 -14.6046
   -14.5992 -14.5772 -14.4551 -14.3814 -14.3353 -14.2017 -14.0801 -13.9494
   -12.7883 -12.6721 -10.1657  -7.0151  -6.6889  -4.2763  -4.0196  -3.6433
    -3.3285  -3.2517  -3.2212  -3.1801  -3.0560  -2.8750  -2.7573  -2.6841
    -2.5809  -2.4569  -2.4395  -2.3380  -2.3140  -2.2464  -2.2106  -2.1708
    -2.1503  -2.1267  -2.1041  -2.1006  -1.9884  -1.9840  -1.8590  -1.8419
    -1.7922  -1.7331  -1.6849  -1.6383  -1.6267  -1.6081  -1.5923  -1.5836
    -1.5531  -1.5392  -1.5157  -1.4634  -1.4027  -1.3560  -1.3185  -1.2050
    -1.0158  -0.9182  -0.8656  -0.8243  -0.7918  -0.7427  -0.7158  -0.7082
    -0.6778  -0.6397  -0.5070  -0.4988  -0.4532  -0.3766  -0.3370  -0.3156
    -0.1899  -0.1778  -0.1052  -0.0486  -0.0453  -0.0344   0.0599   0.1172
     0.1456   0.1750   0.2259   0.2829   0.3557   0.3848   0.4180   0.4772
     0.5383   0.5665   0.6261   0.6452   0.6569   0.7390   0.7599   0.7851
     0.8067   0.8779   0.9250   0.9615   1.0013   1.0897   1.1204   1.1691
     1.2068   1.3614   1.4162   1.6853   1.7366   1.8010   1.9305   2.3030
     2.3478   3.7756   3.9114   3.9308   3.9350   4.0324   4.1353   4.2485
     4.2968   4.3312   4.3778

[...]

          k = 0.0380-0.0419 0.0000 ( 17876 PWs)   bands (ev):

[...]

          k =-0.0760-0.0000 0.0000 ( 17886 PWs)   bands (ev):

[...]

          k =-0.0760-0.0839 0.0000 ( 17948 PWs)   bands (ev):

   -55.4220 -55.3095 -55.3089 -55.1324 -55.1323 -55.1293 -55.1276 -55.1223
   -55.0764 -55.0512 -55.0393 -54.9553 -54.9494 -54.9159 -54.2730 -54.2719
   -31.6784 -31.6710 -31.6273 -31.6247 -31.6245 -31.6037 -31.6032 -31.5437
   -31.5039 -31.4580 -31.4504 -31.4498 -31.4433 -31.4419 -31.4293 -31.4285
   -31.4189 -31.3969 -31.3761 -31.3670 -31.3560 -31.3410 -31.3400 -31.3289
   -31.3273 -31.3177 -31.3073 -31.3001 -31.2970 -31.2955 -31.2933 -31.2835
   -31.2718 -31.2613 -31.2557 -31.2482 -31.2190 -31.2072 -31.1804 -31.1583
   -31.1422 -31.1157 -30.6005 -30.5998 -30.5086 -30.5073 -30.4699 -30.4691
   -19.6123 -16.1281 -15.4836 -15.4146 -15.2663 -15.2571 -15.1860 -15.1444
   -15.1382 -15.0871 -15.0806 -15.0123 -14.9879 -14.9793 -14.9389 -14.8884
   -14.8382 -14.8083 -14.8028 -14.7547 -14.7447 -14.7332 -14.6968 -14.6771
   -14.6283 -14.6247 -14.6094 -14.5297 -14.4746 -14.3158 -14.3006 -13.9623
   -12.7743 -12.7737 -10.1690  -7.0110  -6.6861  -4.2668  -4.0078  -3.5970
    -2.6903  -2.6856  -2.6240  -2.4694  -2.4251  -2.3249  -2.3138  -2.2551
    -2.2413  -2.1930  -2.1728  -2.1611  -2.1247  -2.1048  -2.1016  -2.0746
    -2.0551  -2.0446  -2.0190  -1.9830  -1.9807  -1.9507  -1.9422  -1.9253
    -1.9050  -1.8836  -1.8640  -1.8587  -1.8069  -1.7730  -1.6162  -1.5965
    -1.4586  -1.4560  -1.4419  -1.4206  -1.3870  -1.3752  -1.3356  -1.3021
    -1.2321  -1.1884  -1.0936  -1.0587  -0.9523  -0.9240  -0.8536  -0.8056
    -0.7666  -0.7439  -0.7330  -0.7030  -0.6293  -0.5548  -0.5089  -0.4683
    -0.3684  -0.2928  -0.2680  -0.2640  -0.2566  -0.2236  -0.1528  -0.1520
    -0.1107  -0.0944  -0.0124  -0.0018   0.0124   0.0311   0.1667   0.1977
     0.2942   0.3587   0.4084   0.4625   0.4947   0.5451   0.6597   0.7906
     0.8432   0.8686   0.8823   0.9446   0.9926   1.0077   1.0550   1.1266
     1.1976   1.2466   1.2663   1.2898   1.3409   2.0995   2.1083   2.1679
     2.1683   4.0382   4.1388   4.2540   4.2886   4.3042   4.3235   4.3411
     4.3660   4.4097   4.4520

     the Fermi energy is     3.8010 ev

!    total energy              =   -2973.99844953 Ry
     estimated scf accuracy    <       0.00000004 Ry
     smearing contrib. (-TS)   =      -0.02052889 Ry
     internal energy E=F+TS    =   -2973.97792063 Ry

     The total energy is F=E-TS. E is the sum of the following terms:
     one-electron contribution =  -23634.95298667 Ry
     hartree contribution      =   11914.39767313 Ry
     xc contribution           =    -494.11610527 Ry
     ewald contribution        =    9240.69004905 Ry
     electric field correction =       0.00344913 Ry

     convergence has been achieved in  62 iterations

     Forces acting on atoms (cartesian axes, Ry/au):

     atom    1 type  1   force =    -0.00006243   -0.00028656    0.09523352
     atom    2 type  1   force =    -0.00011354    0.00043070   -0.17496084
     atom    3 type  2   force =     0.00000965   -0.00028347   -0.02254084
     atom    4 type  2   force =     0.00005214   -0.00195660    0.05325603
     atom    5 type  2   force =    -0.00764840   -0.00251074    0.00194853
     atom    6 type  2   force =     0.00924219   -0.00207131    0.00147118
     atom    7 type  1   force =    -0.00022791   -0.00467427    0.00731011
     atom    8 type  1   force =     0.00014389    0.00535214    0.01280765
     atom    9 type  2   force =    -0.00010769   -0.00002215    0.00022964
     atom   10 type  2   force =    -0.00275501    0.00061367   -0.01379701
     atom   11 type  2   force =    -0.00015388    0.00022311   -0.00001366
     atom   12 type  2   force =     0.00014623   -0.00003245    0.00024039
     atom   13 type  1   force =     0.00026148    0.00019312    0.00032477
     atom   14 type  1   force =     0.00001758    0.00001516    0.00019503
     atom   15 type  2   force =     0.00037053   -0.00004100    0.00007446
     atom   16 type  2   force =    -0.00037400   -0.00009892    0.00016461
     atom   17 type  2   force =     0.00026637   -0.00020778   -0.00007771
     atom   18 type  2   force =     0.00006951    0.00004629    0.00026748
     atom   19 type  1   force =     0.00034140   -0.00001211   -0.00002120
     atom   20 type  1   force =     0.00004301   -0.00021666   -0.00006978
     atom   21 type  2   force =     0.00005691    0.00003356    0.10301234
     atom   22 type  2   force =     0.00017748    0.00008805   -0.00013443
     atom   23 type  2   force =    -0.07220572   -0.00019912   -0.02752126
     atom   24 type  2   force =     0.07211281    0.00021099   -0.02759168
     atom   25 type  1   force =     0.00010887   -0.00024959    0.09496081
     atom   26 type  1   force =    -0.00023128   -0.00137002   -0.17517392
     atom   27 type  2   force =     0.00015806   -0.00013403   -0.02137909
     atom   28 type  2   force =     0.00004956   -0.00025313    0.04859572
     atom   29 type  2   force =    -0.00690790    0.00262316    0.00144235
     atom   30 type  2   force =     0.00849350    0.00314580    0.00086800
     atom   31 type  1   force =    -0.00009714    0.00788038   -0.00303351
     atom   32 type  1   force =     0.00038839   -0.00771985    0.01219412
     atom   33 type  2   force =     0.00008381   -0.00004080   -0.00013049
     atom   34 type  2   force =    -0.00195893    0.00048953   -0.01636531
     atom   35 type  2   force =    -0.00013560    0.00002812   -0.00000207
     atom   36 type  2   force =    -0.00004303    0.00031844   -0.00001354
     atom   37 type  1   force =    -0.00014356    0.00017461    0.00006615
     atom   38 type  1   force =    -0.00008793    0.00002563    0.00016034
     atom   39 type  2   force =    -0.00004653   -0.00028214   -0.00000715
     atom   40 type  2   force =     0.00012131   -0.00000658    0.00016330
     atom   41 type  2   force =     0.00004805   -0.00016851   -0.00007659
     atom   42 type  2   force =     0.00025806   -0.00014616   -0.00005381
     atom   43 type  1   force =     0.00026455    0.00000482    0.00006697
     atom   44 type  1   force =     0.00019243    0.00004286   -0.00005083
     atom   45 type  2   force =     0.00008997   -0.00014022    0.10280477
     atom   46 type  2   force =    -0.07219373   -0.00009636   -0.02757224
     atom   47 type  2   force =     0.07212579    0.00036329   -0.02759942
     atom   48 type  3   force =    -0.00010396    0.00021395   -0.00005289
     atom   49 type  3   force =     0.00049717    0.00001401    0.00002955
     atom   50 type  4   force =    -0.00016228    0.00024447   -0.00000774
     atom   51 type  5   force =     0.00023815    0.00024374    0.00037176
     atom   52 type  5   force =    -0.00056305   -0.00017129    0.00018453
     atom   53 type  5   force =     0.00056934    0.00001991   -0.00016067
     atom   54 type  5   force =     0.00004424    0.00010908   -0.00003107
     atom   55 type  2   force =     0.00263758   -0.00017543    0.00143300
     atom   56 type  5   force =    -0.00335648    0.00041865   -0.00143833

     Total force =     0.363244     Total SCF correction =     0.000418
  @ DRIVER MODE: Message from server: STATUS
  @ DRIVER MODE: Message from server: GETFORCE
  @ DRIVER MODE: Returning v,forces,stress,ensemble

     Writing output data file ./calc.save/
  @ DRIVER MODE: Message from server: EXIT
  @ DRIVE MODE: Exiting

     General routines

     Parallel routines

   This run was terminated on:  10:24:19  27Sep2021

   JOB DONE.