     Program PWSCF v.6.7GPU starts on 25Sep2021 at 22: 2:22

     R & G space division:  proc/nbgrp/npool/nimage =       8
     Reading input from /storage/home/hcoda1/3/ntian30/research/carbon/CxH_vib/H2O_calc/ads_slab/CH3N2OHHO_l/out_0015/pw.inp
Warning: card &CELL ignored
Warning: card   CELL_DYNAMICS='IPI', ignored
Warning: card / ignored

     Current dimensions of program PWSCF are:
     Max number of different atomic species (ntypx) = 10
     Max number of k-points (npk) =  40000
     Max angular momentum in pseudopotentials (lmaxx) =  3
     Presently no symmetry can be used with electric field

     Message from routine cell_base_init:
     DEPRECATED: use true lattice parameter, not A to a.u. conversion factor

     IMPORTANT: XC functional enforced from input :
     Exchange-correlation= BEEF-VDW
                           (   1   4  43  14   2   0   0)
     Any further DFT definition will be discarded
     Please, verify this is what you really want

  @ DRIVER MODE: Connecting to
 qe_1139763_2971669.sched-torque.pace.gatech.edur6qb_dsu_scratch
  using UNIX socket
  @ DRIVER MODE: Message from server: STATUS
  @ DRIVER MODE: Message from server: INIT
  @ DRIVER MODE: Receiving replica           0          -1
  @ DRIVER MODE: Receiving encoded integer          25
  @ DRIVER MODE:  SCF:  T  FORCE:  T  STRESS:  F  VC:  F  ENSEMBLE:  F
  @ DRIVER MODE:  SCF:  T  FORCE:  T  STRESS:  F  VC:  F  ENSEMBLE:  F

     Using Slab Decomposition

     bravais-lattice index     =            0
     lattice parameter (alat)  =       1.8897  a.u.
     unit-cell volume          =    6658.9804 (a.u.)^3
     number of atoms/cell      =           57
     number of atomic types    =            5
     number of electrons       =       409.00
     number of Kohn-Sham states=          214
     kinetic-energy cutoff     =      29.3995  Ry
     charge density cutoff     =     293.9946  Ry
     scf convergence threshold =      7.3E-08
     mixing beta               =       0.0500
     number of iterations used =            8  plain     mixing
     Exchange-correlation= BEEF-VDW
                           (   1   4  43  14   2   0   0)

     celldm(1)=   1.889726  celldm(2)=   0.000000  celldm(3)=   0.000000
     celldm(4)=   0.000000  celldm(5)=   0.000000  celldm(6)=   0.000000

     crystal axes: (cart. coord. in units of alat)
               a(1) = (   6.579727   0.000000   0.000000 )
               a(2) = (  -0.000775   5.961596   0.000000 )
               a(3) = (   0.000000   0.000000  25.155947 )

     reciprocal axes: (cart. coord. in units 2 pi/alat)
               b(1) = (  0.151982  0.000020  0.000000 )
               b(2) = (  0.000000  0.167740  0.000000 )
               b(3) = (  0.000000  0.000000  0.039752 )

     PseudoPot. # 1 for Ti read from file:
     /storage/coda1/p-amedford6/0/shared/rich_project_chbe-medford/medford-share/data/pseudos_module/espresso/nninc/pbe/van/Ti.UPF
     MD5 check sum: 8e4df49b7f0d34bbd5052bf3f5ea0213
     Pseudo is Ultrasoft, Zval = 12.0
     Generated by new atomic code, or converted to UPF format
     Using radial grid of  851 points,  6 beta functions with:
                l(1) =   0
                l(2) =   0
                l(3) =   1
                l(4) =   1
                l(5) =   2
                l(6) =   2
     Q(r) pseudized with  8 coefficients,  rinner =    1.000   1.000   1.000
                                                       1.000   1.000

     PseudoPot. # 2 for O  read from file:
     /storage/coda1/p-amedford6/0/shared/rich_project_chbe-medford/medford-share/data/pseudos_module/espresso/nninc/pbe/van/O.UPF
     MD5 check sum: 78c19812648e8988a0fe644b0f25305e
     Pseudo is Ultrasoft, Zval =  6.0
     Generated by new atomic code, or converted to UPF format
     Using radial grid of  737 points,  4 beta functions with:
                l(1) =   0
                l(2) =   0
                l(3) =   1
                l(4) =   1
     Q(r) pseudized with  8 coefficients,  rinner =    0.800   0.800   0.800

     PseudoPot. # 3 for N  read from file:
     /storage/coda1/p-amedford6/0/shared/rich_project_chbe-medford/medford-share/data/pseudos_module/espresso/nninc/pbe/van/N.UPF
     MD5 check sum: 90d10febe142ad51ac9d5be1deb811c4
     Pseudo is Ultrasoft, Zval =  5.0
     Generated by new atomic code, or converted to UPF format
     Using radial grid of  729 points,  4 beta functions with:
                l(1) =   0
                l(2) =   0
                l(3) =   1
                l(4) =   1
     Q(r) pseudized with  8 coefficients,  rinner =    0.800   0.800   0.800

     PseudoPot. # 4 for C  read from file:
     /storage/coda1/p-amedford6/0/shared/rich_project_chbe-medford/medford-share/data/pseudos_module/espresso/nninc/pbe/van/C.UPF
     MD5 check sum: 1a69bf6b8db32088f5b2163dbdb77a27
     Pseudo is Ultrasoft, Zval =  4.0
     Generated by new atomic code, or converted to UPF format
     Using radial grid of  721 points,  4 beta functions with:
                l(1) =   0
                l(2) =   0
                l(3) =   1
                l(4) =   1
     Q(r) pseudized with  8 coefficients,  rinner =    0.800   0.800   0.800

     PseudoPot. # 5 for H  read from file:
     /storage/coda1/p-amedford6/0/shared/rich_project_chbe-medford/medford-share/data/pseudos_module/espresso/nninc/pbe/van/H.UPF
     MD5 check sum: b5ee9d7bfd3a09ee7748110bda690ff7
     Pseudo is Ultrasoft, Zval =  1.0
     Generated by new atomic code, or converted to UPF format
     Using radial grid of  615 points,  1 beta functions with:
                l(1) =   0
     Q(r) pseudized with  8 coefficients,  rinner =    0.800

     atomic species   valence    mass     pseudopotential
        Ti1           12.00    47.86700     Ti( 1.00)
        O1             6.00    15.99900     O ( 1.00)
        N1             5.00    14.00700     N ( 1.00)
        C1             4.00    12.01100     C ( 1.00)
        H1             1.00     1.00800     H ( 1.00)

     No symmetry found

   Cartesian axes

     site n.     atom                  positions (alat units)
         1           Ti1 tau(   1) = (   0.0004258   2.9801865   6.0000000  )
         2           Ti1 tau(   2) = (   3.2906075   1.4906267   6.0002472  )
         3           O1  tau(   3) = (   0.0006271   0.0005054   7.9858123  )
         4           O1  tau(   4) = (   3.2906025   0.0005020   7.3038282  )
         5           O1  tau(   5) = (   4.5942328   1.4918067   9.2879030  )
         6           O1  tau(   6) = (   1.9868534   1.4903216   9.2879459  )
         7           Ti1 tau(   7) = (   3.2907910   2.8959150   9.1758416  )
         8           Ti1 tau(   8) = (   0.0015273   1.4827037   9.2680791  )
         9           O1  tau(   9) = (   3.2779673   5.9607700  11.3423085  )
        10           O1  tau(  10) = (   0.0116148   5.9584955  10.6183126  )
        11           O1  tau(  11) = (   1.2787083   1.4818767  12.6451794  )
        12           O1  tau(  12) = (   5.2707140   1.4872516  12.6060838  )
        13           Ti1 tau(  13) = (   0.0520196   2.9452147  12.6012095  )
        14           Ti1 tau(  14) = (   3.3669591   1.4706787  12.5087448  )
        15           O1  tau(  15) = (   6.5166736   5.9505275  14.6414754  )
        16           O1  tau(  16) = (   3.3002175   0.0041348  13.9548274  )
        17           O1  tau(  17) = (   4.5235890   1.5203341  16.0633414  )
        18           O1  tau(  18) = (   1.9992342   1.5602939  15.9747780  )
        19           Ti1 tau(  19) = (   3.2541499   3.0080313  15.6961896  )
        20           Ti1 tau(  20) = (   6.5591015   1.5323982  15.7823192  )
        21           O1  tau(  21) = (   3.2904802   0.0005063   4.7018136  )
        22           O1  tau(  22) = (   0.0960927   0.0099221  17.2178370  )
        23           O1  tau(  23) = (   1.3043587   1.4918075   6.0039043  )
        24           O1  tau(  24) = (   5.2767064   1.4903225   6.0039473  )
        25           Ti1 tau(  25) = (   0.0000382   5.9609847   6.0000000  )
        26           Ti1 tau(  26) = (   3.2902200   4.4714249   6.0002472  )
        27           O1  tau(  27) = (   0.0002396   2.9813036   7.9858123  )
        28           O1  tau(  28) = (   3.2902150   2.9813002   7.3038282  )
        29           O1  tau(  29) = (   4.5938453   4.4726049   9.2879030  )
        30           O1  tau(  30) = (   1.9864658   4.4711199   9.2879459  )
        31           Ti1 tau(  31) = (   3.2891106   5.8743827   9.1763621  )
        32           Ti1 tau(  32) = (   0.0006254   4.4649316   9.2693709  )
        33           O1  tau(  33) = (   3.2807211   2.9768430  11.3440791  )
        34           O1  tau(  34) = (   0.0092240   2.9805883  10.6323155  )
        35           O1  tau(  35) = (   1.2789702   4.4681595  12.6395138  )
        36           O1  tau(  36) = (   5.2737968   4.4775610  12.6008310  )
        37           Ti1 tau(  37) = (   0.0460201   5.9176504  12.5434570  )
        38           Ti1 tau(  38) = (   3.3658678   4.4646095  12.4976877  )
        39           O1  tau(  39) = (   6.5297297   2.9761478  14.6509524  )
        40           O1  tau(  40) = (   3.3085871   2.9961499  13.9017917  )
        41           O1  tau(  41) = (   4.5138497   4.4896837  16.1272785  )
        42           O1  tau(  42) = (   1.9961282   4.4344792  16.0060688  )
        43           Ti1 tau(  43) = (   3.3116018   0.0224549  15.7990204  )
        44           Ti1 tau(  44) = (   6.5775847   4.6577750  16.0638065  )
        45           O1  tau(  45) = (   3.2900926   2.9813045   4.7018136  )
        46           O1  tau(  46) = (   1.3039711   4.4726057   6.0039043  )
        47           O1  tau(  47) = (   5.2763189   4.4711207   6.0039473  )
        48           N1  tau(  48) = (   6.5065777   2.6139801  18.6303060  )
        49           N1  tau(  49) = (   6.5364102   2.8728423  17.4370429  )
        50           C1  tau(  50) = (   6.4341180   3.7135584  19.6105657  )
        51           H1  tau(  51) = (   6.3066687   4.7022679  19.1488110  )
        52           H1  tau(  52) = (   5.6164842   3.4805663  20.2913871  )
        53           H1  tau(  53) = (   0.7823074   3.6964598  20.1845303  )
        54           O1  tau(  54) = (   3.0314481   5.0835218  18.9911038  )
        55           H1  tau(  55) = (   1.7414717   0.2044793  18.0242669  )
        56           O1  tau(  56) = (   2.7372941   0.2572207  18.0778760  )
        57           H1  tau(  57) = (   3.9343361   5.3466317  19.2487757  )

     number of k points=    10  Fermi-Dirac smearing, width (Ry)=  0.0073
                       cart. coord. in units 2pi/alat
        k(    1) = (   0.0000000   0.0000000   0.0000000), wk =   0.1250000
        k(    2) = (   0.0000000   0.0419351   0.0000000), wk =   0.2500000
        k(    3) = (   0.0000000  -0.0838702   0.0000000), wk =   0.1250000
        k(    4) = (   0.0379955   0.0000049   0.0000000), wk =   0.2500000
        k(    5) = (   0.0379955   0.0419400   0.0000000), wk =   0.2500000
        k(    6) = (   0.0379955  -0.0838652   0.0000000), wk =   0.2500000
        k(    7) = (   0.0379955  -0.0419301   0.0000000), wk =   0.2500000
        k(    8) = (  -0.0759910  -0.0000099   0.0000000), wk =   0.1250000
        k(    9) = (  -0.0759910   0.0419252   0.0000000), wk =   0.2500000
        k(   10) = (  -0.0759910  -0.0838800   0.0000000), wk =   0.1250000

     Initial potential from superposition of free atoms

     starting charge  392.99914, renormalised to  409.00000

     negative rho (up, down):  1.422E-02 0.000E+00

     %%%%%%%%%%%%%%%%%%%%%%%%%%%%%%%%%%%%%%%%%%%%%%%%%%%%%%%%%%%%%%%%%%%%%%%%
     %                                                                      %
     % You are using vdW-DF, which was implemented by the Thonhauser group. %
     % Please cite the following two papers that made this development      %
     % possible and the two reviews that describe the various versions:     %
     %                                                                      %
     %   T. Thonhauser et al., PRL 115, 136402 (2015).                      %
     %   T. Thonhauser et al., PRB 76, 125112 (2007).                       %
     %   K. Berland et al., Rep. Prog. Phys. 78, 066501 (2015).             %
     %   D.C. Langreth et al., J. Phys.: Condens. Matter 21, 084203 (2009). %
     %                                                                      %
     %                                                                      %
     % If you are calculating the stress with vdW-DF, please also cite:     %
     %                                                                      %
     %   R. Sabatini et al., J. Phys.: Condens. Matter 24, 424209 (2012).   %
     %                                                                      %
     %%%%%%%%%%%%%%%%%%%%%%%%%%%%%%%%%%%%%%%%%%%%%%%%%%%%%%%%%%%%%%%%%%%%%%%%

     Adding external electric field

     Computed dipole along edir(3) :
        Dipole              -16.7505 Ry au,        -42.5754 Debye
        Dipole field         -0.0316 Ry au,

        Potential amp.        2.9302 Ry
        Total length         46.3494 bohr

     Starting wfcs are  309 atomic wfcs
  @ DRIVER MODE: Message from server: STATUS
  @ DRIVER MODE: Message from server: POSDATA
  @ DRIVER MODE: Reading and sharing cell
  @ DRIVER MODE: Reading and sharing positions
  @ DRIVER MODE: Received positions

     Self-consistent Calculation

     iteration #  1     ecut=    29.40 Ry     beta= 0.05
     Davidson diagonalization with overlap
     c_bands:  5 eigenvalues not converged
     c_bands:  5 eigenvalues not converged
     c_bands:  3 eigenvalues not converged
     c_bands:  1 eigenvalues not converged
     c_bands:  4 eigenvalues not converged
     c_bands:  2 eigenvalues not converged
     c_bands:  5 eigenvalues not converged
     ethr =  1.00E-05,  avg # of iterations = 26.6

[...]

     total energy              =   -2110.45734042 Ry
     estimated scf accuracy    <   10326.56251619 Ry

     iteration #  2     ecut=    29.40 Ry     beta= 0.05
     Davidson diagonalization with overlap
     ethr =  1.00E-02,  avg # of iterations = 32.0

[...]

     iteration # 57     ecut=    29.40 Ry     beta= 0.05
     Davidson diagonalization with overlap
     c_bands:  1 eigenvalues not converged
     ethr =  1.61E-07,  avg # of iterations =  7.4

[...]

     total energy              =   -3006.13709771 Ry
     estimated scf accuracy    <       0.00000012 Ry

     iteration # 74     ecut=    29.40 Ry     beta= 0.05
     Davidson diagonalization with overlap
     ethr =  3.00E-11,  avg # of iterations = 10.5

     negative rho (up, down):  1.471E-02 0.000E+00

     Adding external electric field

     Computed dipole along edir(3) :
        Dipole                0.8114 Ry au,          2.0623 Debye
        Dipole field          0.0015 Ry au,

        Potential amp.       -0.1419 Ry
        Total length         46.3494 bohr

     End of self-consistent calculation

          k = 0.0000 0.0000 0.0000 ( 18029 PWs)   bands (ev):

   -55.6038 -55.5698 -55.5615 -55.5327 -55.5253 -55.4394 -55.4181 -55.4025
   -55.3842 -55.3821 -55.3645 -55.3484 -54.9858 -54.9149 -54.5846 -54.5506
   -32.1022 -32.0871 -31.9473 -31.9393 -31.9165 -31.8964 -31.8720 -31.8587
   -31.8476 -31.7931 -31.7780 -31.7625 -31.7561 -31.7392 -31.7276 -31.7176
   -31.7089 -31.7001 -31.6884 -31.6614 -31.6610 -31.6407 -31.6091 -31.6077
   -31.5980 -31.5937 -31.5912 -31.5808 -31.5624 -31.5584 -31.5525 -31.5476
   -31.5367 -31.5354 -31.5259 -31.5126 -31.4942 -31.2639 -31.2067 -31.1755
   -31.1221 -31.0995 -30.9918 -30.9032 -30.8808 -30.8085 -30.7220 -30.6109
   -20.7369 -18.3109 -16.3036 -16.0777 -15.8938 -15.7643 -15.7090 -15.5531
   -15.4942 -15.4083 -15.3379 -15.2010 -15.1486 -15.1402 -15.1335 -15.1154
   -15.1092 -15.0493 -15.0380 -15.0365 -15.0258 -14.9976 -14.9586 -14.9454
   -14.9407 -14.8575 -14.7644 -14.7419 -14.7212 -14.7179 -14.6604 -14.2731
   -13.0864 -12.9699 -11.3139  -6.8199  -5.7518  -5.3631  -4.1957  -3.8190
    -3.7771  -3.6710  -3.5486  -3.5100  -3.4302  -3.3827  -3.2293  -3.0780
    -3.0256  -2.8501  -2.7814  -2.7542  -2.7105  -2.6269  -2.5197  -2.4656
    -2.4114  -2.4071  -2.3933  -2.3776  -2.3600  -2.3434  -2.2358  -2.2173
    -2.1628  -2.1446  -2.1188  -1.9831  -1.9554  -1.9272  -1.9173  -1.8891
    -1.8767  -1.8627  -1.8361  -1.8173  -1.7785  -1.7528  -1.6168  -1.5786
    -1.5301  -1.4473  -1.3856  -1.3258  -1.2318  -1.1995  -1.1252  -1.0604
    -1.0547  -1.0350  -1.0016  -0.9934  -0.8672  -0.7622  -0.7520  -0.6790
    -0.6179  -0.5662  -0.5265  -0.4611  -0.3778  -0.3603  -0.3527  -0.3320
    -0.2801  -0.2555  -0.0964  -0.0563  -0.0095   0.0162   0.0731   0.1061
     0.1489   0.1894   0.2299   0.2792   0.3132   0.3464   0.3646   0.3790
     0.3943   0.4256   0.4465   0.6125   0.6481   0.6710   0.7319   0.7615
     0.8468   0.9052   0.9677   1.0518   1.1602   1.3653   1.4381   1.5296
     1.6300   2.0094   2.0552   2.8333   3.5255   3.6175   3.6585   3.6891
     3.7704   3.7826   3.9832   4.0053   4.0352   4.1118

[...]

          k = 0.0380-0.0419 0.0000 ( 17876 PWs)   bands (ev):

[...]

          k =-0.0760-0.0000 0.0000 ( 17886 PWs)   bands (ev):

[...]

          k =-0.0760-0.0839 0.0000 ( 17948 PWs)   bands (ev):

   -55.5871 -55.5864 -55.5463 -55.5403 -55.5308 -55.4276 -55.4144 -55.4013
   -55.4005 -55.3667 -55.3661 -55.3640 -54.9819 -54.9187 -54.5677 -54.5674
   -31.9164 -31.9025 -31.9021 -31.8991 -31.8821 -31.8814 -31.8249 -31.8163
   -31.8039 -31.7842 -31.7757 -31.7521 -31.7472 -31.7213 -31.7155 -31.7148
   -31.7067 -31.7061 -31.7059 -31.7044 -31.7020 -31.6998 -31.6729 -31.6447
   -31.6310 -31.6271 -31.6183 -31.6022 -31.6011 -31.5963 -31.5910 -31.5820
   -31.5789 -31.5714 -31.5704 -31.5687 -31.4145 -31.2656 -31.2453 -31.1836
   -31.1608 -31.1234 -30.8936 -30.8934 -30.8046 -30.8044 -30.7653 -30.7652
   -20.7363 -18.3069 -15.7411 -15.6950 -15.6296 -15.5626 -15.5276 -15.4573
   -15.4135 -15.3719 -15.3197 -15.2820 -15.2729 -15.2131 -15.1928 -15.1602
   -15.1508 -15.1214 -15.1117 -15.1097 -15.0561 -15.0500 -15.0442 -15.0373
   -15.0310 -14.9716 -14.9320 -14.9244 -14.9194 -14.8207 -14.6981 -14.4414
   -13.0718 -13.0716 -11.3123  -6.8423  -5.7491  -5.3397  -4.1246  -3.8328
    -3.7506  -3.1133  -3.0196  -2.8259  -2.7959  -2.7130  -2.7089  -2.6661
    -2.5436  -2.5108  -2.4640  -2.4466  -2.4258  -2.4171  -2.4114  -2.3919
    -2.3855  -2.3666  -2.3377  -2.3171  -2.2845  -2.2722  -2.2593  -2.2508
    -2.2368  -2.2139  -2.2117  -2.1635  -2.1431  -2.1243  -2.0610  -2.0271
    -1.8412  -1.7923  -1.7476  -1.7407  -1.7193  -1.6888  -1.6735  -1.6565
    -1.6093  -1.5891  -1.5074  -1.4485  -1.3283  -1.3055  -1.2922  -1.2715
    -1.2046  -1.1468  -1.0970  -1.0112  -1.0057  -0.9568  -0.8633  -0.8048
    -0.7964  -0.7652  -0.7099  -0.7002  -0.6592  -0.5666  -0.5608  -0.5409
    -0.5355  -0.4571  -0.4167  -0.3548  -0.3466  -0.3268  -0.2959  -0.2676
    -0.2344  -0.1956  -0.0996  -0.0663   0.0278   0.1331   0.2101   0.3452
     0.4638   0.4768   0.5614   0.5856   0.6867   0.6982   0.7103   0.7519
     0.7877   0.8123   0.9316   0.9456   0.9685   0.9957   1.0833   1.8015
     1.8025   1.8749   1.8751   2.8235   3.7667   3.8814   3.9132   3.9238
     4.0085   4.0456   4.0641   4.0660   4.1309   4.2038

     the Fermi energy is     3.5284 ev

!    total energy              =   -3006.13711230 Ry
     estimated scf accuracy    <       0.00000005 Ry
     smearing contrib. (-TS)   =      -0.02166925 Ry
     internal energy E=F+TS    =   -3006.11544305 Ry

     The total energy is F=E-TS. E is the sum of the following terms:
     one-electron contribution =  -23514.03751986 Ry
     hartree contribution      =   11855.00945572 Ry
     xc contribution           =    -501.16891956 Ry
     ewald contribution        =    9154.08029833 Ry
     electric field correction =       0.00124233 Ry

     convergence has been achieved in  74 iterations

     Forces acting on atoms (cartesian axes, Ry/au):

     atom    1 type  1   force =     0.00021015   -0.00031798    0.09617482
     atom    2 type  1   force =    -0.00012173   -0.00050719   -0.17560168
     atom    3 type  2   force =    -0.00003056   -0.00015911   -0.02418159
     atom    4 type  2   force =     0.00000588   -0.00155669    0.05346428
     atom    5 type  2   force =    -0.01164778   -0.00075675    0.00385514
     atom    6 type  2   force =     0.01283730   -0.00002121    0.00196736
     atom    7 type  1   force =    -0.00132103    0.00026118   -0.00659990
     atom    8 type  1   force =     0.00074481    0.00793536    0.02425553
     atom    9 type  2   force =     0.00000616    0.00003053    0.00002533
     atom   10 type  2   force =    -0.00082649    0.00166295   -0.01692983
     atom   11 type  2   force =    -0.00002337    0.00003735   -0.00001728
     atom   12 type  2   force =    -0.00002064    0.00002212   -0.00002187
     atom   13 type  1   force =     0.00001472   -0.00001013    0.00004906
     atom   14 type  1   force =     0.00001564    0.00003423    0.00000762
     atom   15 type  2   force =    -0.00001615    0.00004441   -0.00008086
     atom   16 type  2   force =    -0.00000903   -0.00003158   -0.00007399
     atom   17 type  2   force =    -0.00001189    0.00001767    0.00005635
     atom   18 type  2   force =    -0.00001072    0.00001146   -0.00000248
     atom   19 type  1   force =     0.00003660   -0.00004142    0.00001321
     atom   20 type  1   force =     0.00002887   -0.00005187    0.00000856
     atom   21 type  2   force =     0.00005918   -0.00004630    0.10322941
     atom   22 type  2   force =     0.00000924    0.00006463   -0.00020110
     atom   23 type  2   force =    -0.07149049   -0.00012365   -0.02771492
     atom   24 type  2   force =     0.07139515    0.00028621   -0.02772210
     atom   25 type  1   force =    -0.00002920   -0.00028326    0.09579394
     atom   26 type  1   force =    -0.00023039   -0.00034447   -0.17585364
     atom   27 type  2   force =     0.00004965   -0.00017350   -0.02322431
     atom   28 type  2   force =     0.00007069   -0.00125619    0.05306564
     atom   29 type  2   force =    -0.01199539    0.00042580    0.00402997
     atom   30 type  2   force =     0.01308295    0.00077015    0.00211855
     atom   31 type  1   force =    -0.00118168    0.00400040   -0.00988892
     atom   32 type  1   force =     0.00068024   -0.01004814    0.02473801
     atom   33 type  2   force =     0.00001509   -0.00000890    0.00000928
     atom   34 type  2   force =    -0.00025140    0.00012938   -0.02262473
     atom   35 type  2   force =    -0.00001220   -0.00000396   -0.00003211
     atom   36 type  2   force =    -0.00002455    0.00001561   -0.00003962
     atom   37 type  1   force =    -0.00000020   -0.00004755    0.00007231
     atom   38 type  1   force =     0.00003099    0.00007334    0.00005438
     atom   39 type  2   force =    -0.00005266   -0.00000863   -0.00005820
     atom   40 type  2   force =    -0.00000510   -0.00003945   -0.00004839
     atom   41 type  2   force =    -0.00004292   -0.00001200   -0.00004638
     atom   42 type  2   force =     0.00001850   -0.00002897   -0.00000388
     atom   43 type  1   force =     0.00006973   -0.00004527   -0.00003397
     atom   44 type  1   force =     0.00002696    0.00003738    0.00027578
     atom   45 type  2   force =     0.00004720   -0.00008787    0.10323371
     atom   46 type  2   force =    -0.07150596   -0.00007500   -0.02773632
     atom   47 type  2   force =     0.07141784    0.00036084   -0.02772863
     atom   48 type  3   force =     0.00020796   -0.00520867   -0.00113627
     atom   49 type  3   force =     0.00002005    0.00051746   -0.00058725
     atom   50 type  4   force =     0.00015694    0.01773287   -0.00396133
     atom   51 type  5   force =     0.00092354   -0.00903714    0.00381030
     atom   52 type  5   force =    -0.00156265   -0.00237603    0.00156479
     atom   53 type  5   force =     0.00022756   -0.00173793    0.00023416
     atom   54 type  2   force =     0.00097377   -0.00005671   -0.00127150
     atom   55 type  5   force =    -0.00016522   -0.00001892   -0.00004783
     atom   56 type  2   force =    -0.00112688   -0.00002354    0.00135480
     atom   57 type  5   force =     0.00033291    0.00007467    0.00000857

     Total force =     0.367777     Total SCF correction =     0.000592
  @ DRIVER MODE: Message from server: STATUS
  @ DRIVER MODE: Message from server: GETFORCE
  @ DRIVER MODE: Returning v,forces,stress,ensemble

     Writing output data file ./calc.save/
  @ DRIVER MODE: Message from server: EXIT
  @ DRIVE MODE: Exiting

     General routines

     Parallel routines

   This run was terminated on:  22:30:44  25Sep2021

   JOB DONE.