     Program PWSCF v.6.7GPU starts on 23Aug2021 at 14:17:31

     R & G space division:  proc/nbgrp/npool/nimage =       6
     Reading input from /storage/home/hcoda1/3/ntian30/research/carbon/CH_vib/ads_slab/CHNNH3_a/out_0003/pw.inp
Warning: card &CELL ignored
Warning: card   CELL_DYNAMICS='IPI', ignored
Warning: card / ignored

     Current dimensions of program PWSCF are:
     Max number of different atomic species (ntypx) = 10
     Max number of k-points (npk) =  40000
     Max angular momentum in pseudopotentials (lmaxx) =  3
     Presently no symmetry can be used with electric field

     Message from routine cell_base_init:
     DEPRECATED: use true lattice parameter, not A to a.u. conversion factor

     IMPORTANT: XC functional enforced from input :
     Exchange-correlation= BEEF-VDW
                           (   1   4  43  14   2   0   0)
     Any further DFT definition will be discarded
     Please, verify this is what you really want

  @ DRIVER MODE: Connecting to
 qe_1139763_2632800.sched-torque.pace.gatech.edu4fet__aw_scratch
  using UNIX socket
  @ DRIVER MODE: Message from server: STATUS
  @ DRIVER MODE: Message from server: INIT
  @ DRIVER MODE: Receiving replica           0          -1
  @ DRIVER MODE: Receiving encoded integer          25
  @ DRIVER MODE:  SCF:  T  FORCE:  T  STRESS:  F  VC:  F  ENSEMBLE:  F
  @ DRIVER MODE:  SCF:  T  FORCE:  T  STRESS:  F  VC:  F  ENSEMBLE:  F

     Using Slab Decomposition

     bravais-lattice index     =            0
     lattice parameter (alat)  =       1.8897  a.u.
     unit-cell volume          =    6658.9804 (a.u.)^3
     number of atoms/cell      =           54
     number of atomic types    =            5
     number of electrons       =       396.00
     number of Kohn-Sham states=          208
     kinetic-energy cutoff     =      29.3995  Ry
     charge density cutoff     =     293.9946  Ry
     scf convergence threshold =      7.3E-08
     mixing beta               =       0.0500
     number of iterations used =            8  plain     mixing
     Exchange-correlation= BEEF-VDW
                           (   1   4  43  14   2   0   0)

     celldm(1)=   1.889726  celldm(2)=   0.000000  celldm(3)=   0.000000
     celldm(4)=   0.000000  celldm(5)=   0.000000  celldm(6)=   0.000000

     crystal axes: (cart. coord. in units of alat)
               a(1) = (   6.579727   0.000000   0.000000 )
               a(2) = (  -0.000775   5.961596   0.000000 )
               a(3) = (   0.000000   0.000000  25.155947 )

     reciprocal axes: (cart. coord. in units 2 pi/alat)
               b(1) = (  0.151982  0.000020  0.000000 )
               b(2) = (  0.000000  0.167740  0.000000 )
               b(3) = (  0.000000  0.000000  0.039752 )

     PseudoPot. # 1 for Ti read from file:
     /storage/coda1/p-amedford6/0/shared/rich_project_chbe-medford/medford-share/data/pseudos_module/espresso/nninc/pbe/van/Ti.UPF
     MD5 check sum: 8e4df49b7f0d34bbd5052bf3f5ea0213
     Pseudo is Ultrasoft, Zval = 12.0
     Generated by new atomic code, or converted to UPF format
     Using radial grid of  851 points,  6 beta functions with:
                l(1) =   0
                l(2) =   0
                l(3) =   1
                l(4) =   1
                l(5) =   2
                l(6) =   2
     Q(r) pseudized with  8 coefficients,  rinner =    1.000   1.000   1.000
                                                       1.000   1.000

     PseudoPot. # 2 for O  read from file:
     /storage/coda1/p-amedford6/0/shared/rich_project_chbe-medford/medford-share/data/pseudos_module/espresso/nninc/pbe/van/O.UPF
     MD5 check sum: 78c19812648e8988a0fe644b0f25305e
     Pseudo is Ultrasoft, Zval =  6.0
     Generated by new atomic code, or converted to UPF format
     Using radial grid of  737 points,  4 beta functions with:
                l(1) =   0
                l(2) =   0
                l(3) =   1
                l(4) =   1
     Q(r) pseudized with  8 coefficients,  rinner =    0.800   0.800   0.800

     PseudoPot. # 3 for N  read from file:
     /storage/coda1/p-amedford6/0/shared/rich_project_chbe-medford/medford-share/data/pseudos_module/espresso/nninc/pbe/van/N.UPF
     MD5 check sum: 90d10febe142ad51ac9d5be1deb811c4
     Pseudo is Ultrasoft, Zval =  5.0
     Generated by new atomic code, or converted to UPF format
     Using radial grid of  729 points,  4 beta functions with:
                l(1) =   0
                l(2) =   0
                l(3) =   1
                l(4) =   1
     Q(r) pseudized with  8 coefficients,  rinner =    0.800   0.800   0.800

     PseudoPot. # 4 for C  read from file:
     /storage/coda1/p-amedford6/0/shared/rich_project_chbe-medford/medford-share/data/pseudos_module/espresso/nninc/pbe/van/C.UPF
     MD5 check sum: 1a69bf6b8db32088f5b2163dbdb77a27
     Pseudo is Ultrasoft, Zval =  4.0
     Generated by new atomic code, or converted to UPF format
     Using radial grid of  721 points,  4 beta functions with:
                l(1) =   0
                l(2) =   0
                l(3) =   1
                l(4) =   1
     Q(r) pseudized with  8 coefficients,  rinner =    0.800   0.800   0.800

     PseudoPot. # 5 for H  read from file:
     /storage/coda1/p-amedford6/0/shared/rich_project_chbe-medford/medford-share/data/pseudos_module/espresso/nninc/pbe/van/H.UPF
     MD5 check sum: b5ee9d7bfd3a09ee7748110bda690ff7
     Pseudo is Ultrasoft, Zval =  1.0
     Generated by new atomic code, or converted to UPF format
     Using radial grid of  615 points,  1 beta functions with:
                l(1) =   0
     Q(r) pseudized with  8 coefficients,  rinner =    0.800

     atomic species   valence    mass     pseudopotential
        Ti1           12.00    47.86700     Ti( 1.00)
        O1             6.00    15.99900     O ( 1.00)
        N1             5.00    14.00700     N ( 1.00)
        C1             4.00    12.01100     C ( 1.00)
        H1             1.00     1.00800     H ( 1.00)

     No symmetry found

   Cartesian axes

     site n.     atom                  positions (alat units)
         1           Ti1 tau(   1) = (   0.0004258   2.9801865   6.0000000  )
         2           Ti1 tau(   2) = (   3.2906075   1.4906267   6.0002472  )
         3           O1  tau(   3) = (   0.0006271   0.0005054   7.9858123  )
         4           O1  tau(   4) = (   3.2906025   0.0005020   7.3038282  )
         5           O1  tau(   5) = (   4.5942328   1.4918067   9.2879030  )
         6           O1  tau(   6) = (   1.9868534   1.4903216   9.2879459  )
         7           Ti1 tau(   7) = (   3.2907910   2.8959150   9.1758416  )
         8           Ti1 tau(   8) = (   0.0015273   1.4827037   9.2680791  )
         9           O1  tau(   9) = (   3.2881108   5.9505233  11.3735460  )
        10           O1  tau(  10) = (   0.0116148   5.9584955  10.6183126  )
        11           O1  tau(  11) = (   1.2866665   1.4805866  12.6825740  )
        12           O1  tau(  12) = (   5.2924821   1.4818622  12.6792165  )
        13           Ti1 tau(  13) = (   0.0021322   2.9639872  12.5157261  )
        14           Ti1 tau(  14) = (   3.2862601   1.4710115  12.5283183  )
        15           O1  tau(  15) = (   6.5551702   5.8950557  14.7042857  )
        16           O1  tau(  16) = (   3.2890300   5.9388001  13.9877656  )
        17           O1  tau(  17) = (   4.5349758   1.4880922  16.1718967  )
        18           O1  tau(  18) = (   2.0258431   1.4790072  16.1496753  )
        19           Ti1 tau(  19) = (   3.2732025   2.9690136  15.7622034  )
        20           Ti1 tau(  20) = (   6.5610264   1.3286824  15.8731419  )
        21           O1  tau(  21) = (   3.2904802   0.0005063   4.7018136  )
        22           O1  tau(  22) = (   6.5785393   0.0648448  17.2431192  )
        23           O1  tau(  23) = (   1.3043587   1.4918075   6.0039043  )
        24           O1  tau(  24) = (   5.2767064   1.4903225   6.0039473  )
        25           Ti1 tau(  25) = (   0.0000382   5.9609847   6.0000000  )
        26           Ti1 tau(  26) = (   3.2902200   4.4714249   6.0002472  )
        27           O1  tau(  27) = (   0.0002396   2.9813036   7.9858123  )
        28           O1  tau(  28) = (   3.2902150   2.9813002   7.3038282  )
        29           O1  tau(  29) = (   4.5938453   4.4726049   9.2879030  )
        30           O1  tau(  30) = (   1.9864658   4.4711199   9.2879459  )
        31           Ti1 tau(  31) = (   3.2891106   5.8743827   9.1763621  )
        32           Ti1 tau(  32) = (   0.0006254   4.4649316   9.2693709  )
        33           O1  tau(  33) = (   3.2883663   2.9615298  11.3703760  )
        34           O1  tau(  34) = (   0.0092240   2.9805883  10.6323155  )
        35           O1  tau(  35) = (   1.2870507   4.4533538  12.6624524  )
        36           O1  tau(  36) = (   5.2892318   4.4513974  12.6520950  )
        37           Ti1 tau(  37) = (   6.5724215   5.9362995  12.5032772  )
        38           Ti1 tau(  38) = (   3.2850067   4.4496593  12.5237361  )
        39           O1  tau(  39) = (   6.5755915   2.9911963  14.9688396  )
        40           O1  tau(  40) = (   3.2879019   2.9755095  13.9706832  )
        41           O1  tau(  41) = (   4.5370027   4.4458050  16.2043726  )
        42           O1  tau(  42) = (   2.0318725   4.4540161  16.1993262  )
        43           Ti1 tau(  43) = (   3.2771836   5.9440081  15.7837661  )
        44           Ti1 tau(  44) = (   6.5399960   4.5546841  16.0715688  )
        45           O1  tau(  45) = (   3.2900926   2.9813045   4.7018136  )
        46           O1  tau(  46) = (   1.3039711   4.4726057   6.0039043  )
        47           O1  tau(  47) = (   5.2763189   4.4711207   6.0039473  )
        48           N1  tau(  48) = (   0.1065663   3.2011123  17.9981644  )
        49           C1  tau(  49) = (   0.5134299   2.5375629  18.8400175  )
        50           H1  tau(  50) = (   1.0173682   1.8396193  19.5020221  )
        51           N1  tau(  51) = (   2.4304062   0.3108210  19.4519584  )
        52           H1  tau(  52) = (   3.2527645   0.6626300  18.9680575  )
        53           H1  tau(  53) = (   1.8610457   5.7841108  18.7610151  )
        54           H1  tau(  54) = (   2.7602249   5.5844085  20.1185638  )

     number of k points=    10  Fermi-Dirac smearing, width (Ry)=  0.0073
                       cart. coord. in units 2pi/alat
        k(    1) = (   0.0000000   0.0000000   0.0000000), wk =   0.1250000
        k(    2) = (   0.0000000   0.0419351   0.0000000), wk =   0.2500000
        k(    3) = (   0.0000000  -0.0838702   0.0000000), wk =   0.1250000
        k(    4) = (   0.0379955   0.0000049   0.0000000), wk =   0.2500000
        k(    5) = (   0.0379955   0.0419400   0.0000000), wk =   0.2500000
        k(    6) = (   0.0379955  -0.0838652   0.0000000), wk =   0.2500000
        k(    7) = (   0.0379955  -0.0419301   0.0000000), wk =   0.2500000
        k(    8) = (  -0.0759910  -0.0000099   0.0000000), wk =   0.1250000
        k(    9) = (  -0.0759910   0.0419252   0.0000000), wk =   0.2500000
        k(   10) = (  -0.0759910  -0.0838800   0.0000000), wk =   0.1250000

     Initial potential from superposition of free atoms

     starting charge  379.99915, renormalised to  396.00000

     negative rho (up, down):  1.530E-02 0.000E+00

     %%%%%%%%%%%%%%%%%%%%%%%%%%%%%%%%%%%%%%%%%%%%%%%%%%%%%%%%%%%%%%%%%%%%%%%%
     %                                                                      %
     % You are using vdW-DF, which was implemented by the Thonhauser group. %
     % Please cite the following two papers that made this development      %
     % possible and the two reviews that describe the various versions:     %
     %                                                                      %
     %   T. Thonhauser et al., PRL 115, 136402 (2015).                      %
     %   T. Thonhauser et al., PRB 76, 125112 (2007).                       %
     %   K. Berland et al., Rep. Prog. Phys. 78, 066501 (2015).             %
     %   D.C. Langreth et al., J. Phys.: Condens. Matter 21, 084203 (2009). %
     %                                                                      %
     %                                                                      %
     % If you are calculating the stress with vdW-DF, please also cite:     %
     %                                                                      %
     %   R. Sabatini et al., J. Phys.: Condens. Matter 24, 424209 (2012).   %
     %                                                                      %
     %%%%%%%%%%%%%%%%%%%%%%%%%%%%%%%%%%%%%%%%%%%%%%%%%%%%%%%%%%%%%%%%%%%%%%%%

     Adding external electric field

     Computed dipole along edir(3) :
        Dipole              -10.2017 Ry au,        -25.9301 Debye
        Dipole field         -0.0193 Ry au,

        Potential amp.        1.7846 Ry
        Total length         46.3494 bohr

     Starting wfcs are  300 atomic wfcs
  @ DRIVER MODE: Message from server: STATUS
  @ DRIVER MODE: Message from server: POSDATA
  @ DRIVER MODE: Reading and sharing cell
  @ DRIVER MODE: Reading and sharing positions
  @ DRIVER MODE: Received positions

     Self-consistent Calculation

     iteration #  1     ecut=    29.40 Ry     beta= 0.05
     Davidson diagonalization with overlap
     c_bands:  1 eigenvalues not converged
     c_bands:  2 eigenvalues not converged
     c_bands:  2 eigenvalues not converged
     c_bands:  1 eigenvalues not converged
     c_bands:  2 eigenvalues not converged
     c_bands:  2 eigenvalues not converged
     c_bands:  2 eigenvalues not converged
     c_bands:  3 eigenvalues not converged
     c_bands:  2 eigenvalues not converged
     c_bands:  1 eigenvalues not converged
     ethr =  1.00E-05,  avg # of iterations = 20.0

[...]

     total energy              =   -2543.05836457 Ry
     estimated scf accuracy    <    4459.95438172 Ry

     iteration #  2     ecut=    29.40 Ry     beta= 0.05
     Davidson diagonalization with overlap
     ethr =  1.00E-02,  avg # of iterations = 27.9

[...]

     iteration # 62     ecut=    29.40 Ry     beta= 0.05
     Davidson diagonalization with overlap
     c_bands:  2 eigenvalues not converged
     ethr =  6.55E-11,  avg # of iterations = 13.7

[...]

     total energy              =   -2940.42000594 Ry
     estimated scf accuracy    <       0.00000008 Ry

     iteration # 65     ecut=    29.40 Ry     beta= 0.05
     Davidson diagonalization with overlap
     ethr =  1.87E-11,  avg # of iterations =  2.8

     negative rho (up, down):  1.581E-02 0.000E+00

     Adding external electric field

     Computed dipole along edir(3) :
        Dipole                1.3100 Ry au,          3.3296 Debye
        Dipole field          0.0025 Ry au,

        Potential amp.       -0.2292 Ry
        Total length         46.3494 bohr

     End of self-consistent calculation

          k = 0.0000 0.0000 0.0000 ( 18029 PWs)   bands (ev):

   -55.3693 -55.3332 -55.3212 -55.2870 -55.2457 -55.2401 -55.2186 -55.2110
   -55.1867 -55.1705 -55.1524 -55.1505 -55.1169 -55.0872 -54.3489 -54.3149
   -31.9369 -31.8134 -31.8058 -31.7338 -31.6795 -31.6762 -31.6691 -31.6558
   -31.6101 -31.6003 -31.5778 -31.5704 -31.5658 -31.5390 -31.5242 -31.5191
   -31.5056 -31.4956 -31.4838 -31.4836 -31.4736 -31.4595 -31.4348 -31.4257
   -31.4237 -31.4172 -31.3920 -31.3892 -31.3784 -31.3764 -31.3685 -31.3496
   -31.3479 -31.3429 -31.3366 -31.3344 -31.3006 -31.2883 -31.2849 -31.2785
   -31.2615 -31.2118 -30.7582 -30.6642 -30.6421 -30.5746 -30.4878 -30.3769
   -17.0550 -16.1913 -15.9236 -15.7768 -15.6648 -15.5644 -15.4417 -15.4225
   -15.2912 -15.2031 -15.0833 -15.0401 -15.0172 -15.0033 -14.9886 -14.9823
   -14.9099 -14.9048 -14.8803 -14.8769 -14.8614 -14.8470 -14.8054 -14.8034
   -14.7632 -14.7426 -14.6944 -14.6055 -14.5240 -14.4551 -14.1637 -12.8515
   -12.7340  -8.1696  -4.9952  -4.9005  -4.3202  -3.5315  -3.3819  -3.2850
    -3.2693  -3.2606  -3.1205  -3.0903  -2.9614  -2.9065  -2.7614  -2.6985
    -2.6247  -2.5702  -2.5565  -2.5382  -2.3625  -2.3301  -2.2881  -2.2405
    -2.2092  -2.1741  -2.1529  -2.1260  -2.1138  -2.1066  -2.0750  -1.9300
    -1.8928  -1.8394  -1.7888  -1.7651  -1.7090  -1.6910  -1.6542  -1.6478
    -1.6431  -1.5970  -1.5790  -1.5488  -1.4584  -1.3895  -1.2751  -1.2170
    -1.0765  -1.0043  -0.9499  -0.9363  -0.8556  -0.8518  -0.8257  -0.7465
    -0.7405  -0.7066  -0.5858  -0.4886  -0.4507  -0.3999  -0.3506  -0.3229
    -0.2809  -0.1975  -0.1445  -0.1315  -0.1222  -0.0303   0.0265   0.0386
     0.1125   0.1586   0.1756   0.1807   0.2938   0.3083   0.3750   0.4231
     0.4523   0.5222   0.5702   0.5749   0.5846   0.6194   0.6215   0.7127
     0.7330   0.7425   0.8169   0.9622   1.1806   1.2382   1.2467   1.5804
     1.5826   1.6739   1.8577   2.2498   2.2980   3.7293   3.8013   3.8748
     3.8815   3.9056   3.9672   4.2070   4.2100   4.2333   4.2349   4.2635

[...]

          k = 0.0380-0.0419 0.0000 ( 17876 PWs)   bands (ev):

[...]

          k =-0.0760-0.0000 0.0000 ( 17886 PWs)   bands (ev):

[...]

          k =-0.0760-0.0839 0.0000 ( 17948 PWs)   bands (ev):

   -55.3527 -55.3496 -55.3042 -55.3038 -55.2352 -55.2309 -55.2258 -55.2163
   -55.1749 -55.1704 -55.1683 -55.1341 -55.1335 -55.0897 -54.3319 -54.3317
   -31.7417 -31.7392 -31.7262 -31.6450 -31.6286 -31.6284 -31.6234 -31.5955
   -31.5953 -31.5759 -31.5694 -31.5649 -31.5566 -31.5088 -31.5035 -31.5021
   -31.5003 -31.5000 -31.4941 -31.4893 -31.4689 -31.4646 -31.4442 -31.4420
   -31.4414 -31.4360 -31.4244 -31.4239 -31.4236 -31.4181 -31.4033 -31.4013
   -31.4009 -31.3836 -31.3811 -31.3655 -31.3631 -31.3631 -31.3148 -31.3142
   -31.3030 -31.2937 -30.6549 -30.6547 -30.5708 -30.5706 -30.5313 -30.5312
   -17.0480 -15.6982 -15.5949 -15.5762 -15.3840 -15.3677 -15.3364 -15.3324
   -15.1807 -15.1520 -15.1444 -15.1262 -15.0782 -15.0698 -15.0644 -15.0538
   -14.9733 -14.9624 -14.9603 -14.9431 -14.8819 -14.8751 -14.8720 -14.8689
   -14.8591 -14.8167 -14.8131 -14.7194 -14.7164 -14.6322 -14.5272 -12.8355
   -12.8355  -8.1714  -4.9916  -4.9031  -4.3197  -3.0262  -2.9201  -2.8576
    -2.8403  -2.8024  -2.5960  -2.5640  -2.5354  -2.4792  -2.4115  -2.3695
    -2.3600  -2.3392  -2.2796  -2.2315  -2.2269  -2.2085  -2.1887  -2.1864
    -2.1629  -2.1361  -2.0953  -2.0852  -2.0675  -2.0485  -2.0196  -2.0003
    -1.9717  -1.9530  -1.9317  -1.9251  -1.8180  -1.8018  -1.7251  -1.6919
    -1.6358  -1.5711  -1.5661  -1.4691  -1.4618  -1.4049  -1.3955  -1.3794
    -1.2602  -1.1752  -1.1204  -1.1088  -1.1014  -0.9922  -0.9398  -0.9106
    -0.8752  -0.8518  -0.7744  -0.7111  -0.6904  -0.6501  -0.5746  -0.5644
    -0.5052  -0.3915  -0.3620  -0.3424  -0.3237  -0.3183  -0.2644  -0.2527
    -0.1800  -0.1336  -0.0997  -0.0893  -0.0560  -0.0225   0.1563   0.1691
     0.2091   0.3244   0.3821   0.4974   0.5722   0.5868   0.6665   0.7008
     0.7452   0.8056   0.8953   0.9384   0.9431   1.0217   1.0473   1.0899
     1.0981   2.0309   2.0312   2.1179   2.1181   3.8681   3.9805   3.9901
     4.0370   4.1375   4.1614   4.2487   4.2680   4.3147   4.3165   4.3844

     the Fermi energy is     3.7920 ev

!    total energy              =   -2940.42003023 Ry
     estimated scf accuracy    <       0.00000003 Ry
     smearing contrib. (-TS)   =      -0.03734459 Ry
     internal energy E=F+TS    =   -2940.38268564 Ry

     The total energy is F=E-TS. E is the sum of the following terms:
     one-electron contribution =  -23617.46636401 Ry
     hartree contribution      =   11900.58776416 Ry
     xc contribution           =    -485.98547486 Ry
     ewald contribution        =    9262.47815074 Ry
     electric field correction =       0.00323833 Ry

     convergence has been achieved in  65 iterations

     Forces acting on atoms (cartesian axes, Ry/au):

     atom    1 type  1   force =     0.00014306   -0.00014280    0.09351988
     atom    2 type  1   force =    -0.00005307   -0.00032758   -0.17806930
     atom    3 type  2   force =     0.00009646   -0.00033460   -0.02052492
     atom    4 type  2   force =     0.00002657   -0.00189928    0.05840999
     atom    5 type  2   force =    -0.01039149   -0.00108873    0.00772279
     atom    6 type  2   force =     0.01184668   -0.00047666    0.00667543
     atom    7 type  1   force =    -0.00029540    0.00214182   -0.01417561
     atom    8 type  1   force =     0.00032860    0.00050787   -0.00326296
     atom    9 type  2   force =    -0.00006589    0.00009488   -0.00000938
     atom   10 type  2   force =    -0.00246929    0.00082055    0.00006421
     atom   11 type  2   force =    -0.00018039   -0.00029459    0.00030862
     atom   12 type  2   force =    -0.00011790   -0.00014842   -0.00055159
     atom   13 type  1   force =    -0.00001957   -0.00006799   -0.00003144
     atom   14 type  1   force =     0.00009271    0.00017955    0.00003364
     atom   15 type  2   force =     0.00028862   -0.00020226   -0.00009570
     atom   16 type  2   force =     0.00027990   -0.00001132   -0.00000751
     atom   17 type  2   force =     0.00017822   -0.00018535   -0.00049089
     atom   18 type  2   force =     0.00020671    0.00032226   -0.00005593
     atom   19 type  1   force =    -0.00001003   -0.00004079   -0.00017521
     atom   20 type  1   force =    -0.00067709    0.00057109   -0.00033986
     atom   21 type  2   force =     0.00010289    0.00000273    0.10391685
     atom   22 type  2   force =     0.00046056   -0.00013243    0.00020871
     atom   23 type  2   force =    -0.07040266   -0.00011875   -0.02694570
     atom   24 type  2   force =     0.07038260    0.00034713   -0.02699588
     atom   25 type  1   force =     0.00020365   -0.00015809    0.09279687
     atom   26 type  1   force =    -0.00010288   -0.00030568   -0.17829692
     atom   27 type  2   force =     0.00012920   -0.00023690   -0.01952441
     atom   28 type  2   force =     0.00007308   -0.00167597    0.05799218
     atom   29 type  2   force =    -0.01080413   -0.00122059    0.00799423
     atom   30 type  2   force =     0.01214685   -0.00083722    0.00703264
     atom   31 type  1   force =    -0.00035236    0.00574036   -0.01493372
     atom   32 type  1   force =     0.00038704   -0.00107445   -0.00338216
     atom   33 type  2   force =    -0.00030935    0.00005023   -0.00019529
     atom   34 type  2   force =    -0.00155317   -0.00229811    0.00039262
     atom   35 type  2   force =    -0.00008289    0.00014327   -0.00002883
     atom   36 type  2   force =     0.00010346    0.00010856    0.00012777
     atom   37 type  1   force =     0.00025181   -0.00002594   -0.00011746
     atom   38 type  1   force =     0.00005761    0.00013328   -0.00019137
     atom   39 type  2   force =     0.00011067    0.00016277    0.00007898
     atom   40 type  2   force =     0.00014270    0.00001658    0.00002297
     atom   41 type  2   force =     0.00013246    0.00018756    0.00012427
     atom   42 type  2   force =     0.00019754   -0.00002397    0.00034044
     atom   43 type  1   force =    -0.00025266    0.00031689    0.00021895
     atom   44 type  1   force =    -0.00020975   -0.00035825   -0.00033847
     atom   45 type  2   force =     0.00009892   -0.00002210    0.10384431
     atom   46 type  2   force =    -0.07040365   -0.00004448   -0.02692789
     atom   47 type  2   force =     0.07036004    0.00037127   -0.02695597
     atom   48 type  3   force =    -0.01069365    0.01765178   -0.02006867
     atom   49 type  4   force =     0.01041326   -0.01635818    0.01994078
     atom   50 type  5   force =     0.00009510    0.00025758    0.00009709
     atom   51 type  3   force =    -0.00117714    0.00039073   -0.00036116
     atom   52 type  5   force =     0.00018741   -0.00036430   -0.00025003
     atom   53 type  5   force =     0.00092062    0.00125435    0.00015190
     atom   54 type  5   force =     0.00017943   -0.00129730    0.00128812

     Total force =     0.368231     Total SCF correction =     0.000364
  @ DRIVER MODE: Message from server: STATUS
  @ DRIVER MODE: Message from server: GETFORCE
  @ DRIVER MODE: Returning v,forces,stress,ensemble

     Writing output data file ./calc.save/
  @ DRIVER MODE: Message from server: EXIT
  @ DRIVE MODE: Exiting

     General routines

     Parallel routines

   This run was terminated on:  14:46: 5  23Aug2021

   JOB DONE.