     Program PWSCF v.6.7GPU starts on 12Oct2021 at 13:39: 9

     R & G space division:  proc/nbgrp/npool/nimage =       8
     Reading input from /storage/home/hcoda1/3/ntian30/research/carbon/CxH_vib/CH_calc/ads_slab/CHNHH_b/out_0006/pw.inp
Warning: card &CELL ignored
Warning: card   CELL_DYNAMICS='IPI', ignored
Warning: card / ignored

     Current dimensions of program PWSCF are:
     Max number of different atomic species (ntypx) = 10
     Max number of k-points (npk) =  40000
     Max angular momentum in pseudopotentials (lmaxx) =  3
     Presently no symmetry can be used with electric field

     Message from routine cell_base_init:
     DEPRECATED: use true lattice parameter, not A to a.u. conversion factor

     IMPORTANT: XC functional enforced from input :
     Exchange-correlation= BEEF-VDW
                           (   1   4  43  14   2   0   0)
     Any further DFT definition will be discarded
     Please, verify this is what you really want

  @ DRIVER MODE: Connecting to
 qe_1139763_3182856.sched-torque.pace.gatech.edu6e3mv7bl_scratch
  using UNIX socket
  @ DRIVER MODE: Message from server: STATUS
  @ DRIVER MODE: Message from server: INIT
  @ DRIVER MODE: Receiving replica           0          -1
  @ DRIVER MODE: Receiving encoded integer          25
  @ DRIVER MODE:  SCF:  T  FORCE:  T  STRESS:  F  VC:  F  ENSEMBLE:  F
  @ DRIVER MODE:  SCF:  T  FORCE:  T  STRESS:  F  VC:  F  ENSEMBLE:  F

     Using Slab Decomposition

     bravais-lattice index     =            0
     lattice parameter (alat)  =       1.8897  a.u.
     unit-cell volume          =    6658.9804 (a.u.)^3
     number of atoms/cell      =           52
     number of atomic types    =            5
     number of electrons       =       390.00
     number of Kohn-Sham states=          205
     kinetic-energy cutoff     =      29.3995  Ry
     charge density cutoff     =     293.9946  Ry
     scf convergence threshold =      7.3E-08
     mixing beta               =       0.0500
     number of iterations used =            8  plain     mixing
     Exchange-correlation= BEEF-VDW
                           (   1   4  43  14   2   0   0)

     celldm(1)=   1.889726  celldm(2)=   0.000000  celldm(3)=   0.000000
     celldm(4)=   0.000000  celldm(5)=   0.000000  celldm(6)=   0.000000

     crystal axes: (cart. coord. in units of alat)
               a(1) = (   6.579727   0.000000   0.000000 )
               a(2) = (  -0.000775   5.961596   0.000000 )
               a(3) = (   0.000000   0.000000  25.155947 )

     reciprocal axes: (cart. coord. in units 2 pi/alat)
               b(1) = (  0.151982  0.000020  0.000000 )
               b(2) = (  0.000000  0.167740  0.000000 )
               b(3) = (  0.000000  0.000000  0.039752 )

     PseudoPot. # 1 for Ti read from file:
     /storage/coda1/p-amedford6/0/shared/rich_project_chbe-medford/medford-share/data/pseudos_module/espresso/nninc/pbe/van/Ti.UPF
     MD5 check sum: 8e4df49b7f0d34bbd5052bf3f5ea0213
     Pseudo is Ultrasoft, Zval = 12.0
     Generated by new atomic code, or converted to UPF format
     Using radial grid of  851 points,  6 beta functions with:
                l(1) =   0
                l(2) =   0
                l(3) =   1
                l(4) =   1
                l(5) =   2
                l(6) =   2
     Q(r) pseudized with  8 coefficients,  rinner =    1.000   1.000   1.000
                                                       1.000   1.000

     PseudoPot. # 2 for O  read from file:
     /storage/coda1/p-amedford6/0/shared/rich_project_chbe-medford/medford-share/data/pseudos_module/espresso/nninc/pbe/van/O.UPF
     MD5 check sum: 78c19812648e8988a0fe644b0f25305e
     Pseudo is Ultrasoft, Zval =  6.0
     Generated by new atomic code, or converted to UPF format
     Using radial grid of  737 points,  4 beta functions with:
                l(1) =   0
                l(2) =   0
                l(3) =   1
                l(4) =   1
     Q(r) pseudized with  8 coefficients,  rinner =    0.800   0.800   0.800

     PseudoPot. # 3 for C  read from file:
     /storage/coda1/p-amedford6/0/shared/rich_project_chbe-medford/medford-share/data/pseudos_module/espresso/nninc/pbe/van/C.UPF
     MD5 check sum: 1a69bf6b8db32088f5b2163dbdb77a27
     Pseudo is Ultrasoft, Zval =  4.0
     Generated by new atomic code, or converted to UPF format
     Using radial grid of  721 points,  4 beta functions with:
                l(1) =   0
                l(2) =   0
                l(3) =   1
                l(4) =   1
     Q(r) pseudized with  8 coefficients,  rinner =    0.800   0.800   0.800

     PseudoPot. # 4 for H  read from file:
     /storage/coda1/p-amedford6/0/shared/rich_project_chbe-medford/medford-share/data/pseudos_module/espresso/nninc/pbe/van/H.UPF
     MD5 check sum: b5ee9d7bfd3a09ee7748110bda690ff7
     Pseudo is Ultrasoft, Zval =  1.0
     Generated by new atomic code, or converted to UPF format
     Using radial grid of  615 points,  1 beta functions with:
                l(1) =   0
     Q(r) pseudized with  8 coefficients,  rinner =    0.800

     PseudoPot. # 5 for N  read from file:
     /storage/coda1/p-amedford6/0/shared/rich_project_chbe-medford/medford-share/data/pseudos_module/espresso/nninc/pbe/van/N.UPF
     MD5 check sum: 90d10febe142ad51ac9d5be1deb811c4
     Pseudo is Ultrasoft, Zval =  5.0
     Generated by new atomic code, or converted to UPF format
     Using radial grid of  729 points,  4 beta functions with:
                l(1) =   0
                l(2) =   0
                l(3) =   1
                l(4) =   1
     Q(r) pseudized with  8 coefficients,  rinner =    0.800   0.800   0.800

     atomic species   valence    mass     pseudopotential
        Ti1           12.00    47.86700     Ti( 1.00)
        O1             6.00    15.99900     O ( 1.00)
        C1             4.00    12.01100     C ( 1.00)
        H1             1.00     1.00800     H ( 1.00)
        N1             5.00    14.00700     N ( 1.00)

     No symmetry found

   Cartesian axes

     site n.     atom                  positions (alat units)
         1           Ti1 tau(   1) = (   0.0004258   2.9801865   6.0000000  )
         2           Ti1 tau(   2) = (   3.2906075   1.4906267   6.0002472  )
         3           O1  tau(   3) = (   0.0006271   0.0005054   7.9858123  )
         4           O1  tau(   4) = (   3.2906025   0.0005020   7.3038282  )
         5           O1  tau(   5) = (   4.5942328   1.4918067   9.2879030  )
         6           O1  tau(   6) = (   1.9868534   1.4903216   9.2879459  )
         7           Ti1 tau(   7) = (   3.2907309   2.9776765   9.1658812  )
         8           Ti1 tau(   8) = (   0.0014263   1.4814950   9.2876947  )
         9           O1  tau(   9) = (   3.2944750   0.0002302  11.3604974  )
        10           O1  tau(  10) = (   0.0008895   5.9586890  10.6035392  )
        11           O1  tau(  11) = (   1.2972031   1.4939413  12.6393260  )
        12           O1  tau(  12) = (   5.2935702   1.4970258  12.6342454  )
        13           Ti1 tau(  13) = (   6.5783930   2.9813526  12.8381062  )
        14           Ti1 tau(  14) = (   3.2906537   1.4978773  12.4963327  )
        15           O1  tau(  15) = (   6.5733175   0.0290402  14.6574804  )
        16           O1  tau(  16) = (   3.3054662   0.0216765  13.9740687  )
        17           O1  tau(  17) = (   4.5350609   1.5403548  16.2059549  )
        18           O1  tau(  18) = (   2.0349166   1.5291342  16.1470642  )
        19           Ti1 tau(  19) = (   3.2872240   3.0047607  15.7234092  )
        20           Ti1 tau(  20) = (   0.0410825   1.5194215  16.1276637  )
        21           O1  tau(  21) = (   3.2904802   0.0005063   4.7018136  )
        22           O1  tau(  22) = (   6.5652676   5.8907541  17.2497628  )
        23           O1  tau(  23) = (   1.3043587   1.4918075   6.0039043  )
        24           O1  tau(  24) = (   5.2767064   1.4903225   6.0039473  )
        25           Ti1 tau(  25) = (   0.0000382   5.9609847   6.0000000  )
        26           Ti1 tau(  26) = (   3.2902200   4.4714249   6.0002472  )
        27           O1  tau(  27) = (   0.0002396   2.9813036   7.9858123  )
        28           O1  tau(  28) = (   3.2902150   2.9813002   7.3038282  )
        29           O1  tau(  29) = (   4.5938453   4.4726049   9.2879030  )
        30           O1  tau(  30) = (   1.9864658   4.4711199   9.2879459  )
        31           Ti1 tau(  31) = (   3.2906741   5.9584693   9.1623309  )
        32           Ti1 tau(  32) = (   0.0012165   4.4014169   9.3465426  )
        33           O1  tau(  33) = (   3.2924083   2.9889881  11.3543434  )
        34           O1  tau(  34) = (   0.0022264   2.9772995  10.5544931  )
        35           O1  tau(  35) = (   1.2986444   4.4679898  12.6568800  )
        36           O1  tau(  36) = (   5.2923799   4.4657857  12.6543205  )
        37           Ti1 tau(  37) = (   0.0025552   0.0092372  12.5181211  )
        38           Ti1 tau(  38) = (   3.2887235   4.4740353  12.4983661  )
        39           O1  tau(  39) = (   0.0036310   2.9570434  14.7349056  )
        40           O1  tau(  40) = (   3.2990611   2.9752856  13.9364830  )
        41           O1  tau(  41) = (   4.5418486   4.4722619  16.1017917  )
        42           O1  tau(  42) = (   2.0452692   4.4787779  16.1069431  )
        43           Ti1 tau(  43) = (   3.3182015   0.0155015  15.7624703  )
        44           Ti1 tau(  44) = (   0.0016332   4.6944760  15.9151726  )
        45           O1  tau(  45) = (   3.2900926   2.9813045   4.7018136  )
        46           C1  tau(  46) = (   0.0781255   2.7894620  17.8686468  )
        47           O1  tau(  47) = (   1.3039711   4.4726057   6.0039043  )
        48           O1  tau(  48) = (   5.2763189   4.4711207   6.0139473  )
        49           H1  tau(  49) = (   0.9954384   3.2332450  18.2619424  )
        50           H1  tau(  50) = (   4.7724221   2.4647446  18.5698542  )
        51           N1  tau(  51) = (   5.6845287   2.8438018  18.7814782  )
        52           H1  tau(  52) = (   5.7759989   3.3395087  19.6567880  )

     number of k points=    10  Fermi-Dirac smearing, width (Ry)=  0.0073
                       cart. coord. in units 2pi/alat
        k(    1) = (   0.0000000   0.0000000   0.0000000), wk =   0.1250000
        k(    2) = (   0.0000000   0.0419351   0.0000000), wk =   0.2500000
        k(    3) = (   0.0000000  -0.0838702   0.0000000), wk =   0.1250000
        k(    4) = (   0.0379955   0.0000049   0.0000000), wk =   0.2500000
        k(    5) = (   0.0379955   0.0419400   0.0000000), wk =   0.2500000
        k(    6) = (   0.0379955  -0.0838652   0.0000000), wk =   0.2500000
        k(    7) = (   0.0379955  -0.0419301   0.0000000), wk =   0.2500000
        k(    8) = (  -0.0759910  -0.0000099   0.0000000), wk =   0.1250000
        k(    9) = (  -0.0759910   0.0419252   0.0000000), wk =   0.2500000
        k(   10) = (  -0.0759910  -0.0838800   0.0000000), wk =   0.1250000

     Initial potential from superposition of free atoms

     starting charge  373.99917, renormalised to  390.00000

     negative rho (up, down):  1.780E-02 0.000E+00

     %%%%%%%%%%%%%%%%%%%%%%%%%%%%%%%%%%%%%%%%%%%%%%%%%%%%%%%%%%%%%%%%%%%%%%%%
     %                                                                      %
     % You are using vdW-DF, which was implemented by the Thonhauser group. %
     % Please cite the following two papers that made this development      %
     % possible and the two reviews that describe the various versions:     %
     %                                                                      %
     %   T. Thonhauser et al., PRL 115, 136402 (2015).                      %
     %   T. Thonhauser et al., PRB 76, 125112 (2007).                       %
     %   K. Berland et al., Rep. Prog. Phys. 78, 066501 (2015).             %
     %   D.C. Langreth et al., J. Phys.: Condens. Matter 21, 084203 (2009). %
     %                                                                      %
     %                                                                      %
     % If you are calculating the stress with vdW-DF, please also cite:     %
     %                                                                      %
     %   R. Sabatini et al., J. Phys.: Condens. Matter 24, 424209 (2012).   %
     %                                                                      %
     %%%%%%%%%%%%%%%%%%%%%%%%%%%%%%%%%%%%%%%%%%%%%%%%%%%%%%%%%%%%%%%%%%%%%%%%

     Adding external electric field

     Computed dipole along edir(3) :
        Dipole               -5.3824 Ry au,        -13.6808 Debye
        Dipole field         -0.0102 Ry au,

        Potential amp.        0.9416 Ry
        Total length         46.3494 bohr

     Starting wfcs are  295 atomic wfcs
  @ DRIVER MODE: Message from server: STATUS
  @ DRIVER MODE: Message from server: POSDATA
  @ DRIVER MODE: Reading and sharing cell
  @ DRIVER MODE: Reading and sharing positions
  @ DRIVER MODE: Received positions

     Self-consistent Calculation

     iteration #  1     ecut=    29.40 Ry     beta= 0.05
     Davidson diagonalization with overlap
     c_bands:  1 eigenvalues not converged
     c_bands:  2 eigenvalues not converged
     c_bands:  4 eigenvalues not converged
     c_bands:  1 eigenvalues not converged
     c_bands:  5 eigenvalues not converged
     c_bands:  1 eigenvalues not converged
     c_bands:  1 eigenvalues not converged
     ethr =  1.00E-05,  avg # of iterations = 22.0

[...]

     total energy              =   -2826.47589654 Ry
     estimated scf accuracy    <    1030.87339380 Ry

     iteration #  2     ecut=    29.40 Ry     beta= 0.05
     Davidson diagonalization with overlap
     ethr =  1.00E-02,  avg # of iterations = 16.2

[...]

     iteration # 52     ecut=    29.40 Ry     beta= 0.05
     Davidson diagonalization with overlap
     c_bands:  1 eigenvalues not converged
     ethr =  1.90E-10,  avg # of iterations = 13.8

[...]

     total energy              =   -2919.05102651 Ry
     estimated scf accuracy    <       0.00000012 Ry

     iteration # 58     ecut=    29.40 Ry     beta= 0.05
     Davidson diagonalization with overlap
     ethr =  2.19E-11,  avg # of iterations =  7.4

     negative rho (up, down):  1.780E-02 0.000E+00

     Adding external electric field

     Computed dipole along edir(3) :
        Dipole                1.2249 Ry au,          3.1133 Debye
        Dipole field          0.0023 Ry au,

        Potential amp.       -0.2143 Ry
        Total length         46.3494 bohr

     End of self-consistent calculation

          k = 0.0000 0.0000 0.0000 ( 18029 PWs)   bands (ev):

   -55.6375 -55.6184 -55.5971 -55.5821 -55.5433 -55.4994 -55.4504 -55.4420
   -55.3934 -55.3802 -55.3586 -55.2961 -55.0186 -54.9614 -54.6209 -54.5868
   -32.1885 -32.0989 -31.9692 -31.9582 -31.9530 -31.9284 -31.8920 -31.8792
   -31.8648 -31.8499 -31.8316 -31.8224 -31.8010 -31.7989 -31.7667 -31.7655
   -31.7479 -31.7213 -31.7161 -31.7033 -31.6798 -31.6655 -31.6602 -31.6425
   -31.6406 -31.6290 -31.6122 -31.5987 -31.5913 -31.5809 -31.5480 -31.5471
   -31.5309 -31.5056 -31.4891 -31.4852 -31.4544 -31.3711 -31.3155 -31.2509
   -31.0749 -31.0391 -31.0301 -30.9353 -30.9127 -30.8463 -30.7600 -30.6494
   -16.5523 -16.3752 -16.0718 -15.9463 -15.7823 -15.7419 -15.6626 -15.4479
   -15.3301 -15.2574 -15.2376 -15.2222 -15.2035 -15.1939 -15.1511 -15.1393
   -15.1173 -15.0711 -15.0497 -15.0209 -15.0138 -14.9906 -14.9345 -14.8952
   -14.8930 -14.7759 -14.7360 -14.6084 -14.5704 -14.4297 -13.1243 -13.0067
    -9.1564  -6.8788  -4.3904  -3.7297  -3.5375  -3.5098  -3.5037  -3.4317
    -3.2080  -3.1857  -2.8545  -2.7952  -2.7857  -2.7520  -2.7350  -2.5912
    -2.5398  -2.4760  -2.4395  -2.4284  -2.4217  -2.4075  -2.3879  -2.3572
    -2.3425  -2.3151  -2.2251  -2.1526  -2.0493  -2.0376  -1.9730  -1.9228
    -1.8869  -1.8785  -1.8440  -1.8311  -1.8060  -1.7893  -1.7578  -1.7132
    -1.5266  -1.5204  -1.4837  -1.4382  -1.2864  -1.2526  -1.2197  -1.0905
    -1.0444  -1.0189  -0.9410  -0.9365  -0.9259  -0.8687  -0.8295  -0.7748
    -0.6786  -0.6527  -0.5689  -0.5538  -0.4975  -0.4666  -0.3467  -0.3347
    -0.3182  -0.3032  -0.1155  -0.1080  -0.0796  -0.0669   0.0339   0.0721
     0.0962   0.1682   0.1797   0.1949   0.2166   0.3391   0.3749   0.3819
     0.4027   0.4104   0.4198   0.5838   0.6124   0.6833   0.7058   0.7641
     0.9194   0.9440   1.0420   1.1090   1.3090   1.4003   1.4710   1.5782
     1.9858   2.0502   3.4384   3.5702   3.5759   3.6292   3.6555   3.7103
     3.9158   3.9526   3.9790   4.0120   4.0385

[...]

          k = 0.0380-0.0419 0.0000 ( 17876 PWs)   bands (ev):

[...]

          k =-0.0760-0.0000 0.0000 ( 17886 PWs)   bands (ev):

[...]

          k =-0.0760-0.0839 0.0000 ( 17948 PWs)   bands (ev):

   -55.6282 -55.6062 -55.6016 -55.5987 -55.5400 -55.4946 -55.4535 -55.4469
   -55.3777 -55.3771 -55.3735 -55.2996 -55.0137 -54.9662 -54.6048 -54.6028
   -31.9920 -31.9900 -31.9313 -31.9253 -31.9201 -31.9043 -31.8853 -31.8848
   -31.8310 -31.8290 -31.8235 -31.7972 -31.7943 -31.7564 -31.7446 -31.7416
   -31.7412 -31.7396 -31.7353 -31.7175 -31.7051 -31.6948 -31.6923 -31.6856
   -31.6599 -31.6585 -31.6537 -31.6254 -31.6250 -31.6178 -31.5789 -31.5769
   -31.5664 -31.5645 -31.5121 -31.4952 -31.4796 -31.3753 -31.3096 -31.2534
   -31.1508 -31.0420 -30.9265 -30.9243 -30.8437 -30.8422 -30.8041 -30.8023
   -16.5422 -15.8486 -15.7896 -15.5735 -15.5526 -15.5524 -15.4672 -15.3959
   -15.3898 -15.3593 -15.3403 -15.3158 -15.3075 -15.2542 -15.2304 -15.1649
   -15.1412 -15.1248 -15.1221 -15.0651 -15.0563 -15.0251 -15.0055 -14.9908
   -14.9673 -14.9371 -14.9263 -14.7976 -14.7609 -14.5574 -13.1101 -13.1064
    -9.1665  -6.8826  -4.3471  -3.1396  -3.0702  -2.7845  -2.7761  -2.7594
    -2.6538  -2.5733  -2.5604  -2.5277  -2.4712  -2.4469  -2.4413  -2.4281
    -2.4103  -2.4053  -2.3999  -2.3911  -2.3472  -2.3216  -2.2919  -2.2476
    -2.2386  -2.2286  -2.2162  -2.1736  -2.1635  -2.1531  -2.1484  -2.1393
    -2.0891  -1.9141  -1.8883  -1.8698  -1.7623  -1.7404  -1.7046  -1.6772
    -1.6753  -1.6366  -1.6267  -1.5556  -1.4594  -1.3717  -1.3369  -1.3171
    -1.2849  -1.2432  -1.1497  -1.0449  -1.0063  -0.9774  -0.9447  -0.9110
    -0.8793  -0.8752  -0.7679  -0.7167  -0.6980  -0.6469  -0.5914  -0.5679
    -0.5363  -0.4921  -0.4818  -0.4297  -0.3577  -0.3409  -0.2792  -0.2283
    -0.2039  -0.2022  -0.1482  -0.1359  -0.0248   0.0248   0.2150   0.2853
     0.3580   0.3983   0.4158   0.5583   0.5690   0.6733   0.7267   0.7349
     0.7705   0.8494   0.9283   0.9429   0.9750   1.0293   1.7625   1.7649
     1.8453   1.8590   3.5648   3.7352   3.7667   3.7726   3.8726   4.0172
     4.0292   4.0404   4.0505   4.1511   4.2106

     the Fermi energy is     3.5196 ev

!    total energy              =   -2919.05107589 Ry
     estimated scf accuracy    <       0.00000007 Ry
     smearing contrib. (-TS)   =      -0.03132213 Ry
     internal energy E=F+TS    =   -2919.01975376 Ry

     The total energy is F=E-TS. E is the sum of the following terms:
     one-electron contribution =  -24314.34758352 Ry
     hartree contribution      =   12244.69550715 Ry
     xc contribution           =    -479.92804936 Ry
     ewald contribution        =    9630.55754064 Ry
     electric field correction =       0.00283133 Ry

     convergence has been achieved in  58 iterations

     Forces acting on atoms (cartesian axes, Ry/au):

     atom    1 type  1   force =    -0.00007634    0.00098375    0.10751850
     atom    2 type  1   force =    -0.00005067    0.00020374   -0.17773530
     atom    3 type  2   force =     0.00034225    0.00497988   -0.03546566
     atom    4 type  2   force =    -0.00018971    0.00036646    0.04946078
     atom    5 type  2   force =    -0.02040852   -0.00163408    0.00504972
     atom    6 type  2   force =     0.02057324   -0.00127529    0.00515720
     atom    7 type  1   force =     0.00007882    0.00149620   -0.00764373
     atom    8 type  1   force =     0.00003217   -0.00051314   -0.00025812
     atom    9 type  2   force =    -0.00002994    0.00001400   -0.00038692
     atom   10 type  2   force =     0.00010409   -0.00037322    0.00076123
     atom   11 type  2   force =     0.00036755   -0.00018957    0.00002239
     atom   12 type  2   force =    -0.00028396   -0.00020106   -0.00007867
     atom   13 type  1   force =    -0.00021234   -0.00063882   -0.00025138
     atom   14 type  1   force =    -0.00011609   -0.00007608    0.00001664
     atom   15 type  2   force =     0.00008841    0.00025979    0.00060171
     atom   16 type  2   force =     0.00011770    0.00024195   -0.00059843
     atom   17 type  2   force =    -0.00030232   -0.00002512    0.00033173
     atom   18 type  2   force =     0.00049650   -0.00014508    0.00013736
     atom   19 type  1   force =     0.00004466    0.00024493    0.00032026
     atom   20 type  1   force =    -0.00026951   -0.00012486    0.00034258
     atom   21 type  2   force =     0.00030254   -0.00019162    0.10376505
     atom   22 type  2   force =     0.00002420   -0.00024385   -0.00168388
     atom   23 type  2   force =    -0.06929137    0.00127699   -0.03010012
     atom   24 type  2   force =     0.06922468    0.00170570   -0.03033366
     atom   25 type  1   force =    -0.00010087   -0.00090237    0.12409331
     atom   26 type  1   force =     0.00013312   -0.00068802   -0.17734658
     atom   27 type  2   force =     0.00026340   -0.00247022   -0.03236738
     atom   28 type  2   force =    -0.00021097   -0.00034284    0.05052111
     atom   29 type  2   force =    -0.02139513    0.00086208    0.00498152
     atom   30 type  2   force =     0.02158622    0.00149302    0.00503416
     atom   31 type  1   force =     0.00027259   -0.00214053   -0.00803110
     atom   32 type  1   force =    -0.00003613   -0.00079342    0.00046956
     atom   33 type  2   force =    -0.00003076   -0.00000421   -0.00017536
     atom   34 type  2   force =     0.00002498    0.00025531    0.00082262
     atom   35 type  2   force =     0.00022062    0.00028394   -0.00007874
     atom   36 type  2   force =    -0.00014519    0.00031720   -0.00020394
     atom   37 type  1   force =    -0.00001062    0.00056549    0.00107664
     atom   38 type  1   force =    -0.00009925   -0.00033974    0.00031311
     atom   39 type  2   force =    -0.00002479    0.00053364    0.00015467
     atom   40 type  2   force =     0.00004556    0.00024535   -0.00124489
     atom   41 type  2   force =    -0.00093390    0.00052100    0.00039855
     atom   42 type  2   force =     0.00107707    0.00047779    0.00055723
     atom   43 type  1   force =     0.00012915    0.00028694    0.00006746
     atom   44 type  1   force =     0.00041604    0.00015868    0.00100662
     atom   45 type  2   force =     0.00031402    0.00026623    0.10382802
     atom   46 type  3   force =     0.00027506   -0.00004062    0.00027659
     atom   47 type  2   force =    -0.06964100   -0.00177727   -0.03037891
     atom   48 type  2   force =     0.06896776   -0.00133863   -0.03197995
     atom   49 type  4   force =    -0.00075458    0.00001189    0.00017128
     atom   50 type  4   force =     0.00070613   -0.00043444   -0.00041623
     atom   51 type  5   force =    -0.00080577   -0.00062973   -0.00055931
     atom   52 type  4   force =    -0.00080876   -0.00051814    0.00006066

     Total force =     0.379330     Total SCF correction =     0.000512
  @ DRIVER MODE: Message from server: STATUS
  @ DRIVER MODE: Message from server: GETFORCE
  @ DRIVER MODE: Returning v,forces,stress,ensemble

     Writing output data file ./calc.save/
  @ DRIVER MODE: Message from server: EXIT
  @ DRIVE MODE: Exiting

     General routines

     Parallel routines

   This run was terminated on:  13:59:36  12Oct2021

   JOB DONE.