     Program PWSCF v.6.7GPU starts on 23Sep2021 at 18:27:56

     R & G space division:  proc/nbgrp/npool/nimage =       8
     Reading input from /storage/home/hcoda1/3/ntian30/research/carbon/CxH_vib/H2O_calc/ads_slab/CH3N2HHO_a/out_0050/pw.inp
Warning: card &CELL ignored
Warning: card   CELL_DYNAMICS='IPI', ignored
Warning: card / ignored

     Current dimensions of program PWSCF are:
     Max number of different atomic species (ntypx) = 10
     Max number of k-points (npk) =  40000
     Max angular momentum in pseudopotentials (lmaxx) =  3
     Presently no symmetry can be used with electric field

     Message from routine cell_base_init:
     DEPRECATED: use true lattice parameter, not A to a.u. conversion factor

     IMPORTANT: XC functional enforced from input :
     Exchange-correlation= BEEF-VDW
                           (   1   4  43  14   2   0   0)
     Any further DFT definition will be discarded
     Please, verify this is what you really want

  @ DRIVER MODE: Connecting to
 qe_1139763_2941009.sched-torque.pace.gatech.edub9f2kcbl_scratch
  using UNIX socket
  @ DRIVER MODE: Message from server: STATUS
  @ DRIVER MODE: Message from server: INIT
  @ DRIVER MODE: Receiving replica           0          -1
  @ DRIVER MODE: Receiving encoded integer          25
  @ DRIVER MODE:  SCF:  T  FORCE:  T  STRESS:  F  VC:  F  ENSEMBLE:  F
  @ DRIVER MODE:  SCF:  T  FORCE:  T  STRESS:  F  VC:  F  ENSEMBLE:  F

     Using Slab Decomposition

     bravais-lattice index     =            0
     lattice parameter (alat)  =       1.8897  a.u.
     unit-cell volume          =    6658.9804 (a.u.)^3
     number of atoms/cell      =           56
     number of atomic types    =            5
     number of electrons       =       403.00
     number of Kohn-Sham states=          211
     kinetic-energy cutoff     =      29.3995  Ry
     charge density cutoff     =     293.9946  Ry
     scf convergence threshold =      7.3E-08
     mixing beta               =       0.0500
     number of iterations used =            8  plain     mixing
     Exchange-correlation= BEEF-VDW
                           (   1   4  43  14   2   0   0)

     celldm(1)=   1.889726  celldm(2)=   0.000000  celldm(3)=   0.000000
     celldm(4)=   0.000000  celldm(5)=   0.000000  celldm(6)=   0.000000

     crystal axes: (cart. coord. in units of alat)
               a(1) = (   6.579727   0.000000   0.000000 )
               a(2) = (  -0.000775   5.961596   0.000000 )
               a(3) = (   0.000000   0.000000  25.155947 )

     reciprocal axes: (cart. coord. in units 2 pi/alat)
               b(1) = (  0.151982  0.000020  0.000000 )
               b(2) = (  0.000000  0.167740  0.000000 )
               b(3) = (  0.000000  0.000000  0.039752 )

     PseudoPot. # 1 for Ti read from file:
     /storage/coda1/p-amedford6/0/shared/rich_project_chbe-medford/medford-share/data/pseudos_module/espresso/nninc/pbe/van/Ti.UPF
     MD5 check sum: 8e4df49b7f0d34bbd5052bf3f5ea0213
     Pseudo is Ultrasoft, Zval = 12.0
     Generated by new atomic code, or converted to UPF format
     Using radial grid of  851 points,  6 beta functions with:
                l(1) =   0
                l(2) =   0
                l(3) =   1
                l(4) =   1
                l(5) =   2
                l(6) =   2
     Q(r) pseudized with  8 coefficients,  rinner =    1.000   1.000   1.000
                                                       1.000   1.000

     PseudoPot. # 2 for O  read from file:
     /storage/coda1/p-amedford6/0/shared/rich_project_chbe-medford/medford-share/data/pseudos_module/espresso/nninc/pbe/van/O.UPF
     MD5 check sum: 78c19812648e8988a0fe644b0f25305e
     Pseudo is Ultrasoft, Zval =  6.0
     Generated by new atomic code, or converted to UPF format
     Using radial grid of  737 points,  4 beta functions with:
                l(1) =   0
                l(2) =   0
                l(3) =   1
                l(4) =   1
     Q(r) pseudized with  8 coefficients,  rinner =    0.800   0.800   0.800

     PseudoPot. # 3 for N  read from file:
     /storage/coda1/p-amedford6/0/shared/rich_project_chbe-medford/medford-share/data/pseudos_module/espresso/nninc/pbe/van/N.UPF
     MD5 check sum: 90d10febe142ad51ac9d5be1deb811c4
     Pseudo is Ultrasoft, Zval =  5.0
     Generated by new atomic code, or converted to UPF format
     Using radial grid of  729 points,  4 beta functions with:
                l(1) =   0
                l(2) =   0
                l(3) =   1
                l(4) =   1
     Q(r) pseudized with  8 coefficients,  rinner =    0.800   0.800   0.800

     PseudoPot. # 4 for C  read from file:
     /storage/coda1/p-amedford6/0/shared/rich_project_chbe-medford/medford-share/data/pseudos_module/espresso/nninc/pbe/van/C.UPF
     MD5 check sum: 1a69bf6b8db32088f5b2163dbdb77a27
     Pseudo is Ultrasoft, Zval =  4.0
     Generated by new atomic code, or converted to UPF format
     Using radial grid of  721 points,  4 beta functions with:
                l(1) =   0
                l(2) =   0
                l(3) =   1
                l(4) =   1
     Q(r) pseudized with  8 coefficients,  rinner =    0.800   0.800   0.800

     PseudoPot. # 5 for H  read from file:
     /storage/coda1/p-amedford6/0/shared/rich_project_chbe-medford/medford-share/data/pseudos_module/espresso/nninc/pbe/van/H.UPF
     MD5 check sum: b5ee9d7bfd3a09ee7748110bda690ff7
     Pseudo is Ultrasoft, Zval =  1.0
     Generated by new atomic code, or converted to UPF format
     Using radial grid of  615 points,  1 beta functions with:
                l(1) =   0
     Q(r) pseudized with  8 coefficients,  rinner =    0.800

     atomic species   valence    mass     pseudopotential
        Ti1           12.00    47.86700     Ti( 1.00)
        O1             6.00    15.99900     O ( 1.00)
        N1             5.00    14.00700     N ( 1.00)
        C1             4.00    12.01100     C ( 1.00)
        H1             1.00     1.00800     H ( 1.00)

     No symmetry found

   Cartesian axes

     site n.     atom                  positions (alat units)
         1           Ti1 tau(   1) = (   0.0004258   2.9801865   6.0000000  )
         2           Ti1 tau(   2) = (   3.2906075   1.4906267   6.0002472  )
         3           O1  tau(   3) = (   0.0006271   0.0005054   7.9858123  )
         4           O1  tau(   4) = (   3.2906025   0.0005020   7.3038282  )
         5           O1  tau(   5) = (   4.5942328   1.4918067   9.2879030  )
         6           O1  tau(   6) = (   1.9868534   1.4903216   9.2879459  )
         7           Ti1 tau(   7) = (   3.2907910   2.8959150   9.1758416  )
         8           Ti1 tau(   8) = (   0.0015273   1.4827037   9.2680791  )
         9           O1  tau(   9) = (   3.2827749   5.9542966  11.3123607  )
        10           O1  tau(  10) = (   0.0116148   5.9584955  10.6183126  )
        11           O1  tau(  11) = (   1.2790800   1.4852124  12.6463597  )
        12           O1  tau(  12) = (   5.2943908   1.4901875  12.6352807  )
        13           Ti1 tau(  13) = (   6.5507123   3.1127926  12.6266869  )
        14           Ti1 tau(  14) = (   3.2873181   1.3120036  12.6863921  )
        15           O1  tau(  15) = (   6.5656690   0.0172326  14.6855350  )
        16           O1  tau(  16) = (   3.2842416   0.0515509  13.9244022  )
        17           O1  tau(  17) = (   4.5437539   1.5966601  16.0680646  )
        18           O1  tau(  18) = (   2.0303991   1.5956099  16.0781401  )
        19           Ti1 tau(  19) = (   3.2961159   3.0594788  15.6697774  )
        20           Ti1 tau(  20) = (   6.5318457   1.5630605  15.7780207  )
        21           O1  tau(  21) = (   3.2904802   0.0005063   4.7018136  )
        22           O1  tau(  22) = (   6.5726385   0.0820865  17.2550913  )
        23           O1  tau(  23) = (   1.3043587   1.4918075   6.0039043  )
        24           O1  tau(  24) = (   5.2767064   1.4903225   6.0039473  )
        25           Ti1 tau(  25) = (   0.0000382   5.9609847   6.0000000  )
        26           Ti1 tau(  26) = (   3.2902200   4.4714249   6.0002472  )
        27           O1  tau(  27) = (   0.0002396   2.9813036   7.9858123  )
        28           O1  tau(  28) = (   3.2902150   2.9813002   7.3038282  )
        29           O1  tau(  29) = (   4.5938453   4.4726049   9.2879030  )
        30           O1  tau(  30) = (   1.9864658   4.4711199   9.2879459  )
        31           Ti1 tau(  31) = (   3.2891106   5.8743827   9.1763621  )
        32           Ti1 tau(  32) = (   0.0006254   4.4649316   9.2693709  )
        33           O1  tau(  33) = (   3.2807365   3.0201584  11.2787527  )
        34           O1  tau(  34) = (   0.0092240   2.9805883  10.6323155  )
        35           O1  tau(  35) = (   1.2751182   4.4744369  12.6357194  )
        36           O1  tau(  36) = (   5.2842299   4.4734050  12.6250694  )
        37           Ti1 tau(  37) = (   0.0094520   0.1224552  12.5707632  )
        38           Ti1 tau(  38) = (   3.2670701   4.4034752  12.4162930  )
        39           O1  tau(  39) = (   6.5622168   3.0106679  14.6773207  )
        40           O1  tau(  40) = (   3.2891587   3.0115246  13.8909557  )
        41           O1  tau(  41) = (   4.5321968   4.4927823  16.1577793  )
        42           O1  tau(  42) = (   2.0250423   4.4919485  16.1304878  )
        43           Ti1 tau(  43) = (   3.2250977   0.0853664  16.3312049  )
        44           Ti1 tau(  44) = (   6.5532039   4.7053171  16.1332850  )
        45           O1  tau(  45) = (   3.2900926   2.9813045   4.7018136  )
        46           O1  tau(  46) = (   1.3039711   4.4726057   6.0039043  )
        47           O1  tau(  47) = (   5.2763189   4.4711207   6.0039473  )
        48           N1  tau(  48) = (   0.0650423   2.5931692  18.6004617  )
        49           N1  tau(  49) = (   0.0051179   2.9528117  17.3995676  )
        50           C1  tau(  50) = (   0.1360749   3.5155665  19.7334966  )
        51           H1  tau(  51) = (   6.1082608   4.3937080  19.5213757  )
        52           H1  tau(  52) = (   6.3628389   3.0028702  20.6266755  )
        53           H1  tau(  53) = (   1.1699357   3.8405576  19.8861820  )
        54           H1  tau(  54) = (   0.1060244   1.5775976  18.7788705  )
        55           O1  tau(  55) = (   3.2396048   0.1449850  18.2004881  )
        56           H1  tau(  56) = (   3.4211690   5.2654565  18.6466900  )

     number of k points=    10  Fermi-Dirac smearing, width (Ry)=  0.0073
                       cart. coord. in units 2pi/alat
        k(    1) = (   0.0000000   0.0000000   0.0000000), wk =   0.1250000
        k(    2) = (   0.0000000   0.0419351   0.0000000), wk =   0.2500000
        k(    3) = (   0.0000000  -0.0838702   0.0000000), wk =   0.1250000
        k(    4) = (   0.0379955   0.0000049   0.0000000), wk =   0.2500000
        k(    5) = (   0.0379955   0.0419400   0.0000000), wk =   0.2500000
        k(    6) = (   0.0379955  -0.0838652   0.0000000), wk =   0.2500000
        k(    7) = (   0.0379955  -0.0419301   0.0000000), wk =   0.2500000
        k(    8) = (  -0.0759910  -0.0000099   0.0000000), wk =   0.1250000
        k(    9) = (  -0.0759910   0.0419252   0.0000000), wk =   0.2500000
        k(   10) = (  -0.0759910  -0.0838800   0.0000000), wk =   0.1250000

     Initial potential from superposition of free atoms

     starting charge  386.99914, renormalised to  403.00000

     negative rho (up, down):  1.429E-02 0.000E+00

     %%%%%%%%%%%%%%%%%%%%%%%%%%%%%%%%%%%%%%%%%%%%%%%%%%%%%%%%%%%%%%%%%%%%%%%%
     %                                                                      %
     % You are using vdW-DF, which was implemented by the Thonhauser group. %
     % Please cite the following two papers that made this development      %
     % possible and the two reviews that describe the various versions:     %
     %                                                                      %
     %   T. Thonhauser et al., PRL 115, 136402 (2015).                      %
     %   T. Thonhauser et al., PRB 76, 125112 (2007).                       %
     %   K. Berland et al., Rep. Prog. Phys. 78, 066501 (2015).             %
     %   D.C. Langreth et al., J. Phys.: Condens. Matter 21, 084203 (2009). %
     %                                                                      %
     %                                                                      %
     % If you are calculating the stress with vdW-DF, please also cite:     %
     %                                                                      %
     %   R. Sabatini et al., J. Phys.: Condens. Matter 24, 424209 (2012).   %
     %                                                                      %
     %%%%%%%%%%%%%%%%%%%%%%%%%%%%%%%%%%%%%%%%%%%%%%%%%%%%%%%%%%%%%%%%%%%%%%%%

     Adding external electric field

     Computed dipole along edir(3) :
        Dipole              -12.7219 Ry au,        -32.3358 Debye
        Dipole field         -0.0240 Ry au,

        Potential amp.        2.2255 Ry
        Total length         46.3494 bohr

     Starting wfcs are  305 atomic wfcs
  @ DRIVER MODE: Message from server: STATUS
  @ DRIVER MODE: Message from server: POSDATA
  @ DRIVER MODE: Reading and sharing cell
  @ DRIVER MODE: Reading and sharing positions
  @ DRIVER MODE: Received positions

     Self-consistent Calculation

     iteration #  1     ecut=    29.40 Ry     beta= 0.05
     Davidson diagonalization with overlap
     c_bands:  5 eigenvalues not converged
     c_bands:  4 eigenvalues not converged
     c_bands:  3 eigenvalues not converged
     c_bands:  4 eigenvalues not converged
     c_bands:  5 eigenvalues not converged
     c_bands:  4 eigenvalues not converged
     c_bands:  1 eigenvalues not converged
     c_bands:  4 eigenvalues not converged
     ethr =  1.00E-05,  avg # of iterations = 25.4

[...]

     total energy              =   -2361.22536892 Ry
     estimated scf accuracy    <    6936.03516069 Ry

     iteration #  2     ecut=    29.40 Ry     beta= 0.05
     Davidson diagonalization with overlap
     ethr =  1.00E-02,  avg # of iterations = 23.7

[...]

     iteration # 37     ecut=    29.40 Ry     beta= 0.05
     Davidson diagonalization with overlap
     c_bands:  1 eigenvalues not converged
     c_bands:  1 eigenvalues not converged
     ethr =  1.79E-06,  avg # of iterations = 12.1

[...]

     total energy              =   -2973.99529450 Ry
     estimated scf accuracy    <       0.00000008 Ry

     iteration # 65     ecut=    29.40 Ry     beta= 0.05
     Davidson diagonalization with overlap
     ethr =  1.93E-11,  avg # of iterations =  6.2

     negative rho (up, down):  1.502E-02 0.000E+00

     Adding external electric field

     Computed dipole along edir(3) :
        Dipole                1.1961 Ry au,          3.0403 Debye
        Dipole field          0.0023 Ry au,

        Potential amp.       -0.2092 Ry
        Total length         46.3494 bohr

     End of self-consistent calculation

          k = 0.0000 0.0000 0.0000 ( 18029 PWs)   bands (ev):

   -55.7006 -55.6668 -55.3865 -55.3525 -55.2773 -55.1696 -55.1145 -55.0364
   -54.9904 -54.9585 -54.8300 -54.7363 -54.6951 -54.6249 -54.5277 -54.4937
   -32.1606 -31.9949 -31.9710 -31.8620 -31.8557 -31.7841 -31.7625 -31.6517
   -31.6065 -31.6047 -31.5936 -31.5398 -31.5371 -31.5181 -31.4971 -31.4921
   -31.4884 -31.3952 -31.3868 -31.3708 -31.3353 -31.3162 -31.3055 -31.2948
   -31.2748 -31.2713 -31.2374 -31.1996 -31.1762 -31.1746 -31.1653 -31.1471
   -31.0969 -31.0300 -30.9916 -30.9524 -30.9501 -30.9270 -30.9204 -30.9061
   -30.8960 -30.8573 -30.8387 -30.8350 -30.8339 -30.7453 -30.6601 -30.5482
   -19.0755 -16.2190 -16.0570 -15.7656 -15.5947 -15.3877 -15.3589 -15.2640
   -15.1611 -15.1442 -15.0405 -14.9756 -14.8908 -14.8217 -14.8022 -14.7536
   -14.7239 -14.6957 -14.6811 -14.6716 -14.6333 -14.6016 -14.5846 -14.5088
   -14.4639 -14.4456 -14.4182 -14.3532 -14.2570 -13.9917 -13.9283 -13.0255
   -12.9121 -12.5778  -9.3443  -6.2111  -4.7722  -4.7209  -3.7720  -3.5360
    -3.4426  -3.3307  -3.1221  -3.0726  -2.8941  -2.7738  -2.7533  -2.5330
    -2.5053  -2.3935  -2.3785  -2.3320  -2.3256  -2.2916  -2.2250  -2.1967
    -2.1249  -2.0646  -2.0376  -2.0038  -1.9509  -1.8957  -1.8906  -1.8768
    -1.8196  -1.7516  -1.7234  -1.7144  -1.6704  -1.6067  -1.5981  -1.5816
    -1.5625  -1.5412  -1.3982  -1.2919  -1.2308  -1.1926  -1.1429  -1.0862
    -1.0336  -1.0203  -0.9197  -0.8400  -0.7985  -0.6812  -0.6531  -0.6128
    -0.5284  -0.5040  -0.4609  -0.4422  -0.4009  -0.3938  -0.2889  -0.2715
    -0.2373  -0.1945  -0.0757  -0.0275  -0.0194   0.0618   0.1211   0.2013
     0.2427   0.2581   0.2830   0.3688   0.3964   0.4144   0.4221   0.4946
     0.5135   0.5622   0.6160   0.6982   0.7116   0.7508   0.7852   0.7981
     0.9276   0.9363   1.0263   1.0499   1.0610   1.1252   1.2193   1.2791
     1.3905   1.4049   1.4974   1.4975   1.5181   1.7166   1.8910   2.0497
     2.0900   3.5006   3.6200   3.6820   3.7197   3.9305   3.9421   4.2048
     4.2801   4.2833   4.3734

[...]

          k = 0.0380-0.0419 0.0000 ( 17876 PWs)   bands (ev):

[...]

          k =-0.0760-0.0000 0.0000 ( 17886 PWs)   bands (ev):

[...]

          k =-0.0760-0.0839 0.0000 ( 17948 PWs)   bands (ev):

   -55.6838 -55.6835 -55.3720 -55.3668 -55.2767 -55.1638 -55.1203 -55.0286
   -54.9980 -54.9590 -54.8280 -54.7340 -54.6970 -54.6271 -54.5111 -54.5101
   -31.9807 -31.9804 -31.9761 -31.9760 -31.8074 -31.8069 -31.6902 -31.6847
   -31.5702 -31.5661 -31.5647 -31.5585 -31.5535 -31.4928 -31.4827 -31.4678
   -31.4348 -31.3857 -31.3839 -31.3611 -31.3464 -31.3463 -31.3342 -31.3340
   -31.2575 -31.2440 -31.2371 -31.2331 -31.2056 -31.1942 -31.1651 -31.1560
   -31.0891 -31.0396 -31.0352 -30.9922 -30.9589 -30.9537 -30.9530 -30.9110
   -30.8735 -30.8472 -30.8464 -30.8379 -30.7416 -30.7403 -30.7032 -30.7024
   -19.0722 -16.2116 -15.4718 -15.4615 -15.3174 -15.3081 -15.2303 -15.1409
   -15.1226 -15.0938 -15.0452 -15.0230 -14.9416 -14.8853 -14.8658 -14.8404
   -14.8215 -14.8073 -14.7497 -14.7468 -14.7311 -14.7177 -14.6514 -14.6132
   -14.5828 -14.5764 -14.4682 -14.3888 -14.3044 -14.1559 -14.0649 -13.0150
   -13.0145 -12.5782  -9.3509  -6.2038  -4.7619  -4.7216  -3.7651  -3.4144
    -2.6504  -2.6072  -2.5162  -2.4379  -2.4322  -2.3840  -2.3834  -2.3019
    -2.2492  -2.1913  -2.1671  -2.1589  -2.1584  -2.1273  -2.1183  -2.0639
    -2.0590  -2.0414  -2.0385  -1.9820  -1.9571  -1.9428  -1.8911  -1.8357
    -1.7849  -1.7484  -1.7264  -1.6864  -1.6674  -1.6645  -1.5794  -1.5652
    -1.5377  -1.5102  -1.4654  -1.4350  -1.3799  -1.3579  -1.3015  -1.1742
    -1.1028  -1.0172  -0.9116  -0.8904  -0.8576  -0.8243  -0.8116  -0.7889
    -0.7563  -0.6410  -0.6305  -0.5810  -0.5488  -0.5209  -0.5037  -0.4760
    -0.4530  -0.3522  -0.3096  -0.2799  -0.2404  -0.2063  -0.1782  -0.1450
    -0.0938  -0.0541  -0.0437  -0.0131   0.0209   0.0353   0.1885   0.2684
     0.4009   0.4290   0.5192   0.5658   0.5982   0.6266   0.6564   0.7746
     0.8222   0.8446   0.8812   0.9029   1.0017   1.0979   1.1190   1.1866
     1.2214   1.3264   1.3574   1.4451   1.4963   1.8795   1.8873   1.9082
     1.9087   3.3783   4.0457   4.0486   4.0602   4.0735   4.2387   4.2415
     4.3424   4.3663   4.4838

     the Fermi energy is     3.4572 ev

!    total energy              =   -2973.99532993 Ry
     estimated scf accuracy    <       0.00000004 Ry
     smearing contrib. (-TS)   =      -0.01689419 Ry
     internal energy E=F+TS    =   -2973.97843573 Ry

     The total energy is F=E-TS. E is the sum of the following terms:
     one-electron contribution =  -23437.84002807 Ry
     hartree contribution      =   11816.37331137 Ry
     xc contribution           =    -493.95431409 Ry
     ewald contribution        =    9141.43989505 Ry
     electric field correction =       0.00270001 Ry

     convergence has been achieved in  65 iterations

     Forces acting on atoms (cartesian axes, Ry/au):

     atom    1 type  1   force =     0.00012054   -0.00023825    0.10270160
     atom    2 type  1   force =    -0.00011970    0.00008947   -0.16806417
     atom    3 type  2   force =    -0.00000791    0.00045774   -0.03240239
     atom    4 type  2   force =     0.00002803   -0.00097123    0.04009533
     atom    5 type  2   force =    -0.00543178   -0.00191529   -0.00432509
     atom    6 type  2   force =     0.00666617   -0.00136060   -0.00592530
     atom    7 type  1   force =    -0.00053592   -0.00530596    0.03004495
     atom    8 type  1   force =     0.00069627    0.00860855    0.04850538
     atom    9 type  2   force =     0.00012412   -0.00130978   -0.00105754
     atom   10 type  2   force =    -0.00253589    0.00301411   -0.03413499
     atom   11 type  2   force =    -0.00038729   -0.00009119   -0.00022949
     atom   12 type  2   force =     0.00048660   -0.00037426   -0.00011363
     atom   13 type  1   force =     0.00022871   -0.00162334    0.00018522
     atom   14 type  1   force =     0.00017252   -0.00077241    0.00069347
     atom   15 type  2   force =     0.00008730    0.00004356   -0.00028305
     atom   16 type  2   force =    -0.00012118    0.00005820    0.00171105
     atom   17 type  2   force =    -0.00096208   -0.00051288    0.00032076
     atom   18 type  2   force =     0.00068856   -0.00119719    0.00060599
     atom   19 type  1   force =     0.00058167   -0.00095831   -0.00071322
     atom   20 type  1   force =    -0.00084591   -0.00037432   -0.00024822
     atom   21 type  2   force =     0.00004732    0.00012398    0.10111133
     atom   22 type  2   force =    -0.00013866    0.00053406    0.00035218
     atom   23 type  2   force =    -0.07541008   -0.00012033   -0.02930368
     atom   24 type  2   force =     0.07532328    0.00030109   -0.02932293
     atom   25 type  1   force =     0.00013740   -0.00022775    0.10280589
     atom   26 type  1   force =    -0.00003802   -0.00129737   -0.16847627
     atom   27 type  2   force =     0.00011868    0.00017480   -0.03117300
     atom   28 type  2   force =    -0.00000888    0.00072231    0.03581660
     atom   29 type  2   force =    -0.00426109    0.00378489   -0.00625449
     atom   30 type  2   force =     0.00528556    0.00442184   -0.00778083
     atom   31 type  1   force =    -0.00054265    0.00496512    0.01593755
     atom   32 type  1   force =     0.00076926   -0.01041498    0.04919941
     atom   33 type  2   force =     0.00002852   -0.00091177   -0.00137609
     atom   34 type  2   force =    -0.00240614    0.00222421   -0.04430472
     atom   35 type  2   force =     0.00054370    0.00020180   -0.00013806
     atom   36 type  2   force =    -0.00017330    0.00023292   -0.00006597
     atom   37 type  1   force =     0.00026353    0.00037543   -0.00046333
     atom   38 type  1   force =     0.00041664    0.00140141    0.00104862
     atom   39 type  2   force =     0.00036308    0.00044599    0.00010290
     atom   40 type  2   force =     0.00005958    0.00014841    0.00048306
     atom   41 type  2   force =    -0.00093953   -0.00017128    0.00017341
     atom   42 type  2   force =     0.00039134    0.00015839    0.00023226
     atom   43 type  1   force =     0.00018853    0.00025094   -0.00149315
     atom   44 type  1   force =    -0.00054588   -0.00018535   -0.00094737
     atom   45 type  2   force =     0.00007045   -0.00002166    0.10091532
     atom   46 type  2   force =    -0.07546940   -0.00004998   -0.02932272
     atom   47 type  2   force =     0.07538043    0.00038390   -0.02931908
     atom   48 type  3   force =    -0.00066451   -0.00003970    0.00075175
     atom   49 type  3   force =     0.00034389   -0.00065928   -0.00121082
     atom   50 type  4   force =     0.00123430    0.00120670    0.00054270
     atom   51 type  5   force =     0.00015986   -0.00075936   -0.00135019
     atom   52 type  5   force =    -0.00020352   -0.00054958   -0.00048933
     atom   53 type  5   force =    -0.00014416   -0.00052133   -0.00103102
     atom   54 type  5   force =    -0.00003782   -0.00064067   -0.00136396
     atom   55 type  2   force =     0.00035178   -0.00270806    0.00070956
     atom   56 type  5   force =     0.00057368    0.00195368   -0.00236218

     Total force =     0.372747     Total SCF correction =     0.000692
  @ DRIVER MODE: Message from server: STATUS
  @ DRIVER MODE: Message from server: GETFORCE
  @ DRIVER MODE: Returning v,forces,stress,ensemble

     Writing output data file ./calc.save/
  @ DRIVER MODE: Message from server: EXIT
  @ DRIVE MODE: Exiting

     General routines

     Parallel routines

   This run was terminated on:  18:50: 7  23Sep2021

   JOB DONE.