     Program PWSCF v.6.7GPU starts on 18Oct2021 at 15:57:26

     R & G space division:  proc/nbgrp/npool/nimage =       8
     Reading input from /storage/home/hcoda1/3/ntian30/research/carbon/CxH_vib/Thiel_calc/ads_slab/NNH2_perslab/out_0008/pw.inp
Warning: card &CELL ignored
Warning: card   CELL_DYNAMICS='IPI', ignored
Warning: card / ignored

     Current dimensions of program PWSCF are:
     Max number of different atomic species (ntypx) = 10
     Max number of k-points (npk) =  40000
     Max angular momentum in pseudopotentials (lmaxx) =  3
     Presently no symmetry can be used with electric field

     Message from routine cell_base_init:
     DEPRECATED: use true lattice parameter, not A to a.u. conversion factor

     IMPORTANT: XC functional enforced from input :
     Exchange-correlation= BEEF-VDW
                           (   1   4  43  14   2   0   0)
     Any further DFT definition will be discarded
     Please, verify this is what you really want

  @ DRIVER MODE: Connecting to
 qe_1139763_3255132.sched-torque.pace.gatech.eduwtwyuviu_scratch
  using UNIX socket
  @ DRIVER MODE: Message from server: STATUS
  @ DRIVER MODE: Message from server: INIT
  @ DRIVER MODE: Receiving replica           0          -1
  @ DRIVER MODE: Receiving encoded integer          25
  @ DRIVER MODE:  SCF:  T  FORCE:  T  STRESS:  F  VC:  F  ENSEMBLE:  F
  @ DRIVER MODE:  SCF:  T  FORCE:  T  STRESS:  F  VC:  F  ENSEMBLE:  F

     Using Slab Decomposition

     bravais-lattice index     =            0
     lattice parameter (alat)  =       1.8897  a.u.
     unit-cell volume          =    9988.4706 (a.u.)^3
     number of atoms/cell      =           57
     number of atomic types    =            4
     number of electrons       =       438.00
     number of Kohn-Sham states=          229
     kinetic-energy cutoff     =      29.3995  Ry
     charge density cutoff     =     293.9946  Ry
     scf convergence threshold =      7.3E-08
     mixing beta               =       0.0500
     number of iterations used =            8  plain     mixing
     Exchange-correlation= BEEF-VDW
                           (   1   4  43  14   2   0   0)

     celldm(1)=   1.889726  celldm(2)=   0.000000  celldm(3)=   0.000000
     celldm(4)=   0.000000  celldm(5)=   0.000000  celldm(6)=   0.000000

     crystal axes: (cart. coord. in units of alat)
               a(1) = (   6.579727   0.000000   0.000000 )
               a(2) = (  -0.001163   8.942395   0.000000 )
               a(3) = (   0.000000   0.000000  25.155947 )

     reciprocal axes: (cart. coord. in units 2 pi/alat)
               b(1) = (  0.151982  0.000020  0.000000 )
               b(2) = (  0.000000  0.111827  0.000000 )
               b(3) = (  0.000000  0.000000  0.039752 )

     PseudoPot. # 1 for O  read from file:
     /storage/coda1/p-amedford6/0/shared/rich_project_chbe-medford/medford-share/data/pseudos_module/espresso/nninc/pbe/van/O.UPF
     MD5 check sum: 78c19812648e8988a0fe644b0f25305e
     Pseudo is Ultrasoft, Zval =  6.0
     Generated by new atomic code, or converted to UPF format
     Using radial grid of  737 points,  4 beta functions with:
                l(1) =   0
                l(2) =   0
                l(3) =   1
                l(4) =   1
     Q(r) pseudized with  8 coefficients,  rinner =    0.800   0.800   0.800

     PseudoPot. # 2 for Ti read from file:
     /storage/coda1/p-amedford6/0/shared/rich_project_chbe-medford/medford-share/data/pseudos_module/espresso/nninc/pbe/van/Ti.UPF
     MD5 check sum: 8e4df49b7f0d34bbd5052bf3f5ea0213
     Pseudo is Ultrasoft, Zval = 12.0
     Generated by new atomic code, or converted to UPF format
     Using radial grid of  851 points,  6 beta functions with:
                l(1) =   0
                l(2) =   0
                l(3) =   1
                l(4) =   1
                l(5) =   2
                l(6) =   2
     Q(r) pseudized with  8 coefficients,  rinner =    1.000   1.000   1.000
                                                       1.000   1.000

     PseudoPot. # 3 for H  read from file:
     /storage/coda1/p-amedford6/0/shared/rich_project_chbe-medford/medford-share/data/pseudos_module/espresso/nninc/pbe/van/H.UPF
     MD5 check sum: b5ee9d7bfd3a09ee7748110bda690ff7
     Pseudo is Ultrasoft, Zval =  1.0
     Generated by new atomic code, or converted to UPF format
     Using radial grid of  615 points,  1 beta functions with:
                l(1) =   0
     Q(r) pseudized with  8 coefficients,  rinner =    0.800

     PseudoPot. # 4 for N  read from file:
     /storage/coda1/p-amedford6/0/shared/rich_project_chbe-medford/medford-share/data/pseudos_module/espresso/nninc/pbe/van/N.UPF
     MD5 check sum: 90d10febe142ad51ac9d5be1deb811c4
     Pseudo is Ultrasoft, Zval =  5.0
     Generated by new atomic code, or converted to UPF format
     Using radial grid of  729 points,  4 beta functions with:
                l(1) =   0
                l(2) =   0
                l(3) =   1
                l(4) =   1
     Q(r) pseudized with  8 coefficients,  rinner =    0.800   0.800   0.800

     atomic species   valence    mass     pseudopotential
        O1             6.00    15.99900     O ( 1.00)
        Ti1           12.00    47.86700     Ti( 1.00)
        H1             1.00     1.00800     H ( 1.00)
        N1             5.00    14.00700     N ( 1.00)

     No symmetry found

   Cartesian axes

     site n.     atom                  positions (alat units)
         1           O1  tau(   1) = (   0.0007354   0.0005023  10.5931620  )
         2           O1  tau(   2) = (   3.2894307   8.9151027  13.8626301  )
         3           O1  tau(   3) = (   6.5785074   8.9029937  17.1811234  )
         4           O1  tau(   4) = (   0.0006271   0.0005054   7.9858123  )
         5           O1  tau(   5) = (   3.2894531   8.9103059  11.1803102  )
         6           O1  tau(   6) = (   0.0001665   0.0898506  14.4854618  )
         7           O1  tau(   7) = (   1.9868534   1.4903216   9.2879459  )
         8           O1  tau(   8) = (   5.2077972   1.5880252  12.5310617  )
         9           O1  tau(   9) = (   2.0270748   1.5591520  16.0154840  )
        10           Ti1 tau(  10) = (   0.0007404   1.4906270   9.2895810  )
        11           Ti1 tau(  11) = (   3.2905041   1.3137855  12.4866761  )
        12           Ti1 tau(  12) = (   0.0002678   1.1980239  15.9503415  )
        13           O1  tau(  13) = (   4.5942328   1.4918067   9.2879030  )
        14           O1  tau(  14) = (   1.3724876   1.5877008  12.5310667  )
        15           O1  tau(  15) = (   4.5530873   1.5595562  16.0152608  )
        16           Ti1 tau(  16) = (   3.2902859   2.9801868   9.2893338  )
        17           Ti1 tau(  17) = (   0.0008780   2.7802750  12.4897906  )
        18           Ti1 tau(  18) = (   3.2898779   2.8637395  15.6733051  )
        19           O1  tau(  19) = (   0.0003479   2.9813005  10.5931620  )
        20           O1  tau(  20) = (   3.2899356   2.9525523  13.8505550  )
        21           O1  tau(  21) = (   0.0002396   2.9813036   7.9858123  )
        22           O1  tau(  22) = (   3.2901204   2.9601344  11.1763257  )
        23           O1  tau(  23) = (   0.0004730   3.0483324  14.4991547  )
        24           O1  tau(  24) = (   1.9864658   4.4711199   9.2879459  )
        25           O1  tau(  25) = (   5.2121867   4.5795871  12.5488104  )
        26           O1  tau(  26) = (   2.0380122   4.5167588  15.9960207  )
        27           Ti1 tau(  27) = (   0.0003529   4.4714252   9.2895810  )
        28           Ti1 tau(  28) = (   3.2900145   4.2996056  12.4866231  )
        29           Ti1 tau(  29) = (   0.0009039   4.3359069  15.7637737  )
        30           O1  tau(  30) = (   4.5938453   4.4726049   9.2879030  )
        31           O1  tau(  31) = (   1.3674610   4.5798255  12.5489393  )
        32           O1  tau(  32) = (   4.5418257   4.5152924  15.9960624  )
        33           Ti1 tau(  33) = (   3.2898983   5.9609850   9.2893338  )
        34           Ti1 tau(  34) = (   0.0004239   5.7833099  12.5042391  )
        35           Ti1 tau(  35) = (   3.2910320   5.8371074  15.6885635  )
        36           O1  tau(  36) = (  -0.0000397   5.9620987  10.5931620  )
        37           O1  tau(  37) = (   3.2901811   5.9367453  13.8700337  )
        38           O1  tau(  38) = (  -0.0004039   5.8805593  17.2333871  )
        39           O1  tau(  39) = (  -0.0001480   5.9621018   7.9858123  )
        40           O1  tau(  40) = (   3.2898277   5.9371809  11.1794419  )
        41           O1  tau(  41) = (  -0.0006310   6.0052776  14.6075531  )
        42           O1  tau(  42) = (   1.9860782   7.4519181   9.2879459  )
        43           O1  tau(  43) = (   5.2131951   7.5341658  12.5551123  )
        44           O1  tau(  44) = (   2.0327247   7.5116181  16.0212389  )
        45           Ti1 tau(  45) = (  -0.0000347   7.4522234   9.2895810  )
        46           Ti1 tau(  46) = (   3.2898580   7.2746474  12.4940400  )
        47           Ti1 tau(  47) = (  -0.0002525   7.1929251  16.1233257  )
        48           O1  tau(  48) = (   4.5934577   7.4534031   9.2879030  )
        49           O1  tau(  49) = (   1.3658113   7.5340457  12.5553947  )
        50           O1  tau(  50) = (   4.5451309   7.5107891  16.0219122  )
        51           Ti1 tau(  51) = (   3.2895107   8.9417832   9.2893338  )
        52           Ti1 tau(  52) = (   0.0004043   8.7442612  12.5370553  )
        53           Ti1 tau(  53) = (   3.2888508   8.8110328  15.6839088  )
        54           H1  tau(  54) = (   6.5771461   3.9800110  18.9428080  )
        55           N1  tau(  55) = (   0.0081305   3.0643241  18.4967573  )
        56           N1  tau(  56) = (   0.0000211   2.9855599  17.2125610  )
        57           H1  tau(  57) = (   6.5772452   2.2208360  19.0633684  )

     number of k points=    10  Fermi-Dirac smearing, width (Ry)=  0.0073
                       cart. coord. in units 2pi/alat
        k(    1) = (   0.0000000   0.0000000   0.0000000), wk =   0.1250000
        k(    2) = (   0.0000000   0.0279567   0.0000000), wk =   0.2500000
        k(    3) = (   0.0000000  -0.0559134   0.0000000), wk =   0.1250000
        k(    4) = (   0.0379955   0.0000049   0.0000000), wk =   0.2500000
        k(    5) = (   0.0379955   0.0279617   0.0000000), wk =   0.2500000
        k(    6) = (   0.0379955  -0.0559085   0.0000000), wk =   0.2500000
        k(    7) = (   0.0379955  -0.0279518   0.0000000), wk =   0.2500000
        k(    8) = (  -0.0759910  -0.0000099   0.0000000), wk =   0.1250000
        k(    9) = (  -0.0759910   0.0279468   0.0000000), wk =   0.2500000
        k(   10) = (  -0.0759910  -0.0559233   0.0000000), wk =   0.1250000

     Initial potential from superposition of free atoms

     starting charge  419.99912, renormalised to  438.00000

     negative rho (up, down):  3.820E-02 0.000E+00

     %%%%%%%%%%%%%%%%%%%%%%%%%%%%%%%%%%%%%%%%%%%%%%%%%%%%%%%%%%%%%%%%%%%%%%%%
     %                                                                      %
     % You are using vdW-DF, which was implemented by the Thonhauser group. %
     % Please cite the following two papers that made this development      %
     % possible and the two reviews that describe the various versions:     %
     %                                                                      %
     %   T. Thonhauser et al., PRL 115, 136402 (2015).                      %
     %   T. Thonhauser et al., PRB 76, 125112 (2007).                       %
     %   K. Berland et al., Rep. Prog. Phys. 78, 066501 (2015).             %
     %   D.C. Langreth et al., J. Phys.: Condens. Matter 21, 084203 (2009). %
     %                                                                      %
     %                                                                      %
     % If you are calculating the stress with vdW-DF, please also cite:     %
     %                                                                      %
     %   R. Sabatini et al., J. Phys.: Condens. Matter 24, 424209 (2012).   %
     %                                                                      %
     %%%%%%%%%%%%%%%%%%%%%%%%%%%%%%%%%%%%%%%%%%%%%%%%%%%%%%%%%%%%%%%%%%%%%%%%

     Adding external electric field

     Computed dipole along edir(3) :
        Dipole               -4.0077 Ry au,        -10.1866 Debye
        Dipole field         -0.0050 Ry au,

        Potential amp.        0.4674 Ry
        Total length         46.3494 bohr

     Starting wfcs are  330 atomic wfcs
  @ DRIVER MODE: Message from server: STATUS
  @ DRIVER MODE: Message from server: POSDATA
  @ DRIVER MODE: Reading and sharing cell
  @ DRIVER MODE: Reading and sharing positions
  @ DRIVER MODE: Received positions

     Self-consistent Calculation

     iteration #  1     ecut=    29.40 Ry     beta= 0.05
     Davidson diagonalization with overlap
     c_bands:  2 eigenvalues not converged
     c_bands:  4 eigenvalues not converged
     c_bands:  1 eigenvalues not converged
     c_bands:  4 eigenvalues not converged
     c_bands:  1 eigenvalues not converged
     c_bands:  1 eigenvalues not converged
     ethr =  1.00E-05,  avg # of iterations = 25.3

[...]

     total energy              =   -3291.57979915 Ry
     estimated scf accuracy    <      28.48424126 Ry

     iteration #  2     ecut=    29.40 Ry     beta= 0.05
     Davidson diagonalization with overlap
     ethr =  6.50E-03,  avg # of iterations =  4.7

[...]

     iteration # 54     ecut=    29.40 Ry     beta= 0.05
     Davidson diagonalization with overlap
     c_bands:  1 eigenvalues not converged
     ethr =  2.45E-11,  avg # of iterations =  9.2

[...]

     total energy              =   -3290.76831757 Ry
     estimated scf accuracy    <       0.00000010 Ry

     iteration # 58     ecut=    29.40 Ry     beta= 0.05
     Davidson diagonalization with overlap
     ethr =  2.20E-11,  avg # of iterations =  6.1

     negative rho (up, down):  3.581E-02 0.000E+00

     Adding external electric field

     Computed dipole along edir(3) :
        Dipole                1.4092 Ry au,          3.5819 Debye
        Dipole field          0.0018 Ry au,

        Potential amp.       -0.1643 Ry
        Total length         46.3494 bohr

     End of self-consistent calculation

          k = 0.0000 0.0000 0.0000 ( 26871 PWs)   bands (ev):

   -58.1002 -58.0758 -58.0729 -57.9814 -57.9578 -57.9520 -57.8989 -57.8650
   -57.8330 -57.6325 -57.5522 -57.5087 -57.0198 -56.9785 -56.9560 -56.8030
   -56.7754 -56.7654 -34.4593 -34.4573 -34.4548 -34.4436 -34.4405 -34.3917
   -34.3886 -34.3179 -34.2979 -34.2747 -34.2686 -34.2438 -34.2395 -34.2163
   -34.2123 -34.2066 -34.1997 -34.1978 -34.1814 -34.1606 -34.1556 -34.1459
   -34.1449 -34.1357 -34.0926 -34.0821 -34.0462 -34.0272 -33.9953 -33.9150
   -33.8480 -33.8059 -33.7982 -33.7902 -33.7327 -33.6607 -33.5322 -33.4370
   -33.2917 -33.2701 -33.2509 -33.2396 -33.2266 -33.2176 -33.1424 -33.1365
   -33.1204 -33.1120 -33.1085 -33.0919 -33.0143 -32.9535 -32.9397 -32.8132
   -20.4750 -18.8331 -18.3408 -18.2136 -18.2079 -18.1893 -18.1479 -18.1404
   -18.0722 -17.8260 -17.6988 -17.6776 -17.6744 -17.6450 -17.5734 -17.5711
   -17.5437 -17.5112 -17.4983 -17.4738 -17.3965 -17.3925 -17.3210 -17.2897
   -17.2355 -17.1649 -17.1165 -17.0889 -17.0193 -16.8986 -16.7213 -16.5740
   -16.4265 -15.2741 -15.2290 -15.2233 -12.9654  -9.1848  -6.9535  -6.1815
    -5.8701  -5.7472  -5.7238  -5.4585  -5.4463  -5.3714  -5.3614  -5.3151
    -5.2326  -5.2288  -5.2173  -5.2144  -5.1752  -5.0465  -5.0336  -4.9004
    -4.8449  -4.8278  -4.8134  -4.7893  -4.7307  -4.7159  -4.6585  -4.6478
    -4.6276  -4.6163  -4.6073  -4.5105  -4.4720  -4.3777  -4.3515  -4.3275
    -4.3099  -4.2595  -4.1929  -4.1470  -4.1358  -4.0704  -4.0455  -3.9756
    -3.9504  -3.9462  -3.9253  -3.8913  -3.8384  -3.6565  -3.6329  -3.5477
    -3.4197  -3.3511  -3.2667  -3.2570  -3.1790  -3.1673  -3.1448  -3.1334
    -3.1241  -3.1134  -3.0497  -2.9682  -2.9399  -2.8948  -2.8748  -2.8638
    -2.8347  -2.6972  -2.6970  -2.6870  -2.6767  -2.6272  -2.6221  -2.5847
    -2.5811  -2.5777  -2.4769  -2.3895  -2.3600  -2.3465  -2.3107  -2.2614
    -2.1912  -2.1805  -2.1546  -2.0673  -1.9875  -1.9588  -1.7863  -1.7373
    -1.6890  -1.6471  -1.6447  -1.6217  -1.5703  -1.4772  -1.4667  -1.4104
    -1.3597  -1.2022  -0.9958  -0.7226  -0.5016  -0.4911  -0.4644  -0.2938
    -0.2820  -0.1878   0.9411   0.9616   1.2036   1.4188   1.4230   1.5155
     1.6912   1.7066   1.7179   1.7350   1.7936

[...]

          k = 0.0380-0.0280 0.0000 ( 26873 PWs)   bands (ev):

[...]

          k =-0.0760-0.0000 0.0000 ( 26902 PWs)   bands (ev):

[...]

          k =-0.0760-0.0559 0.0000 ( 26868 PWs)   bands (ev):

   -58.0931 -58.0898 -58.0659 -57.9757 -57.9691 -57.9462 -57.8976 -57.8673
   -57.8319 -57.6323 -57.5528 -57.5083 -57.0189 -56.9807 -56.9546 -56.8001
   -56.7824 -56.7613 -34.5393 -34.5206 -34.4483 -34.4456 -34.4031 -34.3881
   -34.2964 -34.2788 -34.2584 -34.2553 -34.2439 -34.2419 -34.2297 -34.2275
   -34.2239 -34.2219 -34.2190 -34.2141 -34.1762 -34.1732 -34.1694 -34.1402
   -34.1336 -34.1131 -34.1069 -34.0984 -34.0756 -34.0370 -33.9270 -33.9107
   -33.8654 -33.8467 -33.8064 -33.7969 -33.7334 -33.6610 -33.5752 -33.3558
   -33.2968 -33.2726 -33.2531 -33.2496 -33.2202 -33.2172 -33.1921 -33.1643
   -33.1437 -33.1277 -33.1075 -33.0009 -32.9826 -32.9257 -32.9176 -32.9014
   -20.4743 -18.5512 -18.5420 -18.2349 -18.1110 -18.0964 -17.9487 -17.8911
   -17.8621 -17.8572 -17.8085 -17.7977 -17.7631 -17.7450 -17.6579 -17.6530
   -17.5970 -17.5885 -17.5836 -17.5511 -17.5360 -17.5207 -17.3216 -17.2659
   -17.1806 -17.1485 -17.1268 -17.0116 -16.9947 -16.9598 -16.7334 -16.5735
   -16.3945 -15.2819 -15.2736 -15.1612 -12.9637  -9.1854  -6.9117  -5.8543
    -5.8456  -5.7397  -5.7023  -5.4474  -5.2134  -5.2009  -5.1940  -5.1733
    -5.1621  -5.1116  -5.0912  -5.0863  -5.0455  -5.0339  -5.0022  -4.9716
    -4.8936  -4.8610  -4.8543  -4.8479  -4.8378  -4.7835  -4.7094  -4.6910
    -4.6625  -4.6368  -4.5829  -4.5165  -4.4675  -4.4362  -4.4122  -4.3246
    -4.2754  -4.2630  -4.0938  -4.0728  -4.0696  -3.9881  -3.9552  -3.8871
    -3.8495  -3.7593  -3.5701  -3.5687  -3.5615  -3.5567  -3.4818  -3.4687
    -3.4540  -3.4340  -3.3753  -3.3481  -3.3433  -3.3226  -3.2666  -3.2280
    -3.1479  -3.0907  -3.0880  -3.0804  -3.0572  -3.0485  -3.0263  -3.0023
    -2.9770  -2.9441  -2.9049  -2.8661  -2.8512  -2.7866  -2.7162  -2.6828
    -2.6628  -2.6460  -2.6255  -2.5342  -2.5028  -2.4009  -2.3765  -2.2667
    -2.1347  -2.0156  -1.9804  -1.9648  -1.9635  -1.8833  -1.8176  -1.8074
    -1.7694  -1.7148  -1.6414  -1.6398  -1.5766  -1.5040  -1.3353  -1.3266
    -1.3122  -1.2692  -1.1552  -1.1379  -0.7309  -0.4176  -0.4064  -0.3680
    -0.3147  -0.3106   0.8588   1.1316   1.2178   1.2333   1.3259   1.3377
     1.3890   1.4990   1.5582   1.5700   1.7644

     the Fermi energy is     0.9504 ev

!    total energy              =   -3290.76836286 Ry
     estimated scf accuracy    <       0.00000003 Ry
     smearing contrib. (-TS)   =      -0.02527280 Ry
     internal energy E=F+TS    =   -3290.74309006 Ry

     The total energy is F=E-TS. E is the sum of the following terms:
     one-electron contribution =  -34651.75478743 Ry
     hartree contribution      =   17388.88672859 Ry
     xc contribution           =    -540.56789593 Ry
     ewald contribution        =   14512.69036624 Ry
     electric field correction =       0.00249848 Ry

     convergence has been achieved in  58 iterations

     Forces acting on atoms (cartesian axes, Ry/au):

     atom    1 type  1   force =     0.00005546    0.00573954    0.05229772
     atom    2 type  1   force =    -0.00006438   -0.00107346   -0.00804329
     atom    3 type  1   force =     0.00001104   -0.00576323   -0.00143358
     atom    4 type  1   force =     0.00005026    0.00074912    0.10114070
     atom    5 type  1   force =    -0.00005827   -0.00053487    0.00807696
     atom    6 type  1   force =     0.00005460   -0.00069267    0.00119268
     atom    7 type  1   force =     0.07734740   -0.00001684   -0.03168105
     atom    8 type  1   force =     0.00602091   -0.02644719    0.00063149
     atom    9 type  1   force =     0.00720044   -0.01976004    0.00204627
     atom   10 type  2   force =    -0.00006857   -0.01108409   -0.16209373
     atom   11 type  2   force =     0.00030203    0.01947318   -0.00147879
     atom   12 type  2   force =    -0.00005002    0.02601197   -0.00098586
     atom   13 type  1   force =    -0.07744874   -0.00045863   -0.03164942
     atom   14 type  1   force =    -0.00577309   -0.02673144    0.00064528
     atom   15 type  1   force =    -0.00730000   -0.01971101    0.00204555
     atom   16 type  2   force =     0.00012366   -0.00267080    0.06040293
     atom   17 type  2   force =    -0.00049319    0.03271181    0.00354972
     atom   18 type  2   force =     0.00008277    0.01780549   -0.00033258
     atom   19 type  1   force =     0.00005628    0.00934993    0.05079476
     atom   20 type  1   force =    -0.00006685   -0.00146048   -0.00571597
     atom   21 type  1   force =     0.00004647    0.00264166    0.10243132
     atom   22 type  1   force =    -0.00005515   -0.00072200    0.00789203
     atom   23 type  1   force =    -0.00000539   -0.00211557    0.00103716
     atom   24 type  1   force =     0.07607133   -0.00029677   -0.03166754
     atom   25 type  1   force =     0.00668370   -0.02614180    0.00079082
     atom   26 type  1   force =     0.00577017   -0.01948978    0.00051587
     atom   27 type  2   force =    -0.00005717   -0.00163169   -0.16992747
     atom   28 type  2   force =     0.00032272    0.02056563   -0.00170147
     atom   29 type  2   force =    -0.00023574    0.02393032    0.00173947
     atom   30 type  1   force =    -0.07617593   -0.00074778   -0.03163506
     atom   31 type  1   force =    -0.00641152   -0.02645183    0.00081225
     atom   32 type  1   force =    -0.00579678   -0.01932411    0.00048650
     atom   33 type  2   force =     0.00012145   -0.00117533    0.06158491
     atom   34 type  2   force =    -0.00054003    0.03174444    0.00376847
     atom   35 type  2   force =     0.00003943    0.02584363    0.00304448
     atom   36 type  1   force =     0.00004628    0.00404958    0.05966992
     atom   37 type  1   force =    -0.00006215   -0.00141431   -0.00683374
     atom   38 type  1   force =    -0.00001473   -0.00309570   -0.00223691
     atom   39 type  1   force =     0.00005368   -0.00126335    0.10265325
     atom   40 type  1   force =    -0.00005744   -0.00077289    0.00709556
     atom   41 type  1   force =     0.00008771   -0.00322243    0.00247957
     atom   42 type  1   force =     0.07735425   -0.00092042   -0.03227863
     atom   43 type  1   force =     0.00825312   -0.02793198    0.00022788
     atom   44 type  1   force =     0.00771656   -0.02189591    0.00211224
     atom   45 type  2   force =    -0.00008391    0.00750015   -0.16112725
     atom   46 type  2   force =     0.00033746    0.02098295   -0.00161696
     atom   47 type  2   force =    -0.00008128    0.02092934   -0.00088133
     atom   48 type  1   force =    -0.07745396   -0.00136735   -0.03225559
     atom   49 type  1   force =    -0.00797548   -0.02823495    0.00024275
     atom   50 type  1   force =    -0.00771973   -0.02184004    0.00211070
     atom   51 type  2   force =     0.00012533   -0.00315292    0.06196565
     atom   52 type  2   force =    -0.00053253    0.03310688    0.00411951
     atom   53 type  2   force =     0.00005740    0.02974635    0.00538722
     atom   54 type  3   force =     0.00031537    0.00022584    0.00035016
     atom   55 type  4   force =    -0.00089860    0.00083667   -0.00146935
     atom   56 type  4   force =     0.00058820   -0.00483484    0.00102081
     atom   57 type  3   force =     0.00018513    0.00050400    0.00068301

     Total force =     0.436446     Total SCF correction =     0.000634
  @ DRIVER MODE: Message from server: STATUS
  @ DRIVER MODE: Message from server: GETFORCE
  @ DRIVER MODE: Returning v,forces,stress,ensemble

     Writing output data file ./calc.save/
  @ DRIVER MODE: Message from server: EXIT
  @ DRIVE MODE: Exiting

     General routines

     Parallel routines

   This run was terminated on:  16:30:17  18Oct2021

   JOB DONE.