     Program PWSCF v.6.7GPU starts on 26Sep2021 at 16:59:21

     R & G space division:  proc/nbgrp/npool/nimage =       8
     Reading input from /storage/home/hcoda1/3/ntian30/research/carbon/CxH_vib/H2O_calc/ads_slab/CH3OH2O_a/out_0025/pw.inp
Warning: card &CELL ignored
Warning: card   CELL_DYNAMICS='IPI', ignored
Warning: card / ignored

     Current dimensions of program PWSCF are:
     Max number of different atomic species (ntypx) = 10
     Max number of k-points (npk) =  40000
     Max angular momentum in pseudopotentials (lmaxx) =  3
     Presently no symmetry can be used with electric field

     Message from routine cell_base_init:
     DEPRECATED: use true lattice parameter, not A to a.u. conversion factor

     IMPORTANT: XC functional enforced from input :
     Exchange-correlation= BEEF-VDW
                           (   1   4  43  14   2   0   0)
     Any further DFT definition will be discarded
     Please, verify this is what you really want

  @ DRIVER MODE: Connecting to
 qe_1139763_2971673.sched-torque.pace.gatech.edustvh3qqu_scratch
  using UNIX socket
  @ DRIVER MODE: Message from server: STATUS
  @ DRIVER MODE: Message from server: INIT
  @ DRIVER MODE: Receiving replica           0          -1
  @ DRIVER MODE: Receiving encoded integer          25
  @ DRIVER MODE:  SCF:  T  FORCE:  T  STRESS:  F  VC:  F  ENSEMBLE:  F
  @ DRIVER MODE:  SCF:  T  FORCE:  T  STRESS:  F  VC:  F  ENSEMBLE:  F

     Using Slab Decomposition

     bravais-lattice index     =            0
     lattice parameter (alat)  =       1.8897  a.u.
     unit-cell volume          =    6658.9804 (a.u.)^3
     number of atoms/cell      =           55
     number of atomic types    =            4
     number of electrons       =       399.00
     number of Kohn-Sham states=          209
     kinetic-energy cutoff     =      29.3995  Ry
     charge density cutoff     =     293.9946  Ry
     scf convergence threshold =      7.3E-08
     mixing beta               =       0.0500
     number of iterations used =            8  plain     mixing
     Exchange-correlation= BEEF-VDW
                           (   1   4  43  14   2   0   0)

     celldm(1)=   1.889726  celldm(2)=   0.000000  celldm(3)=   0.000000
     celldm(4)=   0.000000  celldm(5)=   0.000000  celldm(6)=   0.000000

     crystal axes: (cart. coord. in units of alat)
               a(1) = (   6.579727   0.000000   0.000000 )
               a(2) = (  -0.000775   5.961596   0.000000 )
               a(3) = (   0.000000   0.000000  25.155947 )

     reciprocal axes: (cart. coord. in units 2 pi/alat)
               b(1) = (  0.151982  0.000020  0.000000 )
               b(2) = (  0.000000  0.167740  0.000000 )
               b(3) = (  0.000000  0.000000  0.039752 )

     PseudoPot. # 1 for Ti read from file:
     /storage/coda1/p-amedford6/0/shared/rich_project_chbe-medford/medford-share/data/pseudos_module/espresso/nninc/pbe/van/Ti.UPF
     MD5 check sum: 8e4df49b7f0d34bbd5052bf3f5ea0213
     Pseudo is Ultrasoft, Zval = 12.0
     Generated by new atomic code, or converted to UPF format
     Using radial grid of  851 points,  6 beta functions with:
                l(1) =   0
                l(2) =   0
                l(3) =   1
                l(4) =   1
                l(5) =   2
                l(6) =   2
     Q(r) pseudized with  8 coefficients,  rinner =    1.000   1.000   1.000
                                                       1.000   1.000

     PseudoPot. # 2 for O  read from file:
     /storage/coda1/p-amedford6/0/shared/rich_project_chbe-medford/medford-share/data/pseudos_module/espresso/nninc/pbe/van/O.UPF
     MD5 check sum: 78c19812648e8988a0fe644b0f25305e
     Pseudo is Ultrasoft, Zval =  6.0
     Generated by new atomic code, or converted to UPF format
     Using radial grid of  737 points,  4 beta functions with:
                l(1) =   0
                l(2) =   0
                l(3) =   1
                l(4) =   1
     Q(r) pseudized with  8 coefficients,  rinner =    0.800   0.800   0.800

     PseudoPot. # 3 for C  read from file:
     /storage/coda1/p-amedford6/0/shared/rich_project_chbe-medford/medford-share/data/pseudos_module/espresso/nninc/pbe/van/C.UPF
     MD5 check sum: 1a69bf6b8db32088f5b2163dbdb77a27
     Pseudo is Ultrasoft, Zval =  4.0
     Generated by new atomic code, or converted to UPF format
     Using radial grid of  721 points,  4 beta functions with:
                l(1) =   0
                l(2) =   0
                l(3) =   1
                l(4) =   1
     Q(r) pseudized with  8 coefficients,  rinner =    0.800   0.800   0.800

     PseudoPot. # 4 for H  read from file:
     /storage/coda1/p-amedford6/0/shared/rich_project_chbe-medford/medford-share/data/pseudos_module/espresso/nninc/pbe/van/H.UPF
     MD5 check sum: b5ee9d7bfd3a09ee7748110bda690ff7
     Pseudo is Ultrasoft, Zval =  1.0
     Generated by new atomic code, or converted to UPF format
     Using radial grid of  615 points,  1 beta functions with:
                l(1) =   0
     Q(r) pseudized with  8 coefficients,  rinner =    0.800

     atomic species   valence    mass     pseudopotential
        Ti1           12.00    47.86700     Ti( 1.00)
        O1             6.00    15.99900     O ( 1.00)
        C1             4.00    12.01100     C ( 1.00)
        H1             1.00     1.00800     H ( 1.00)

     No symmetry found

   Cartesian axes

     site n.     atom                  positions (alat units)
         1           Ti1 tau(   1) = (   0.0004258   2.9801865   6.0000000  )
         2           Ti1 tau(   2) = (   3.2906075   1.4906267   6.0002472  )
         3           O1  tau(   3) = (   0.0006271   0.0005054   7.9858123  )
         4           O1  tau(   4) = (   3.2906025   0.0005020   7.3038282  )
         5           O1  tau(   5) = (   4.5942328   1.4918067   9.2879030  )
         6           O1  tau(   6) = (   1.9868534   1.4903216   9.2879459  )
         7           Ti1 tau(   7) = (   3.2820359   3.0439161   9.1623595  )
         8           Ti1 tau(   8) = (   6.5599266   1.6132547   9.3553476  )
         9           O1  tau(   9) = (   3.2945286   0.0238644  11.3456088  )
        10           O1  tau(  10) = (   0.0063054   0.0138127  10.6020390  )
        11           O1  tau(  11) = (   1.2951583   1.5100513  12.6443238  )
        12           O1  tau(  12) = (   5.2990995   1.5148170  12.6233090  )
        13           Ti1 tau(  13) = (   0.0263474   3.0106421  12.7494805  )
        14           Ti1 tau(  14) = (   3.3336015   1.5167552  12.4948480  )
        15           O1  tau(  15) = (   6.5448532   0.0190031  14.6983011  )
        16           O1  tau(  16) = (   3.3224233   0.0259125  13.9568087  )
        17           O1  tau(  17) = (   4.5367000   1.5168325  16.1249780  )
        18           O1  tau(  18) = (   2.0218268   1.5507800  16.0022153  )
        19           Ti1 tau(  19) = (   3.2743302   2.9980917  15.6870858  )
        20           Ti1 tau(  20) = (   0.0201860   1.3869735  16.0719154  )
        21           O1  tau(  21) = (   3.2904802   0.0005063   4.7018136  )
        22           O1  tau(  22) = (   0.0925506   0.0150102  17.2361640  )
        23           O1  tau(  23) = (   1.3043587   1.4918075   6.0039043  )
        24           O1  tau(  24) = (   5.2767064   1.4903225   6.0039473  )
        25           Ti1 tau(  25) = (   0.0000382   5.9609847   6.0000000  )
        26           Ti1 tau(  26) = (   3.2902200   4.4714249   6.0002472  )
        27           O1  tau(  27) = (   0.0002396   2.9813036   7.9858123  )
        28           O1  tau(  28) = (   3.2902150   2.9813002   7.3038282  )
        29           O1  tau(  29) = (   4.5938453   4.4726049   9.2879030  )
        30           O1  tau(  30) = (   1.9864658   4.4711199   9.2879459  )
        31           Ti1 tau(  31) = (   3.2669230   0.0652730   9.1555536  )
        32           Ti1 tau(  32) = (   6.5613759   4.5453191   9.2698998  )
        33           O1  tau(  33) = (   3.2918870   3.0052186  11.3478826  )
        34           O1  tau(  34) = (   0.0060846   2.9950393  10.5821163  )
        35           O1  tau(  35) = (   1.2959246   4.5006532  12.6413340  )
        36           O1  tau(  36) = (   5.2961686   4.4944485  12.6189864  )
        37           Ti1 tau(  37) = (   0.0327138   0.0295606  12.5236923  )
        38           Ti1 tau(  38) = (   3.3339673   4.5113903  12.4983483  )
        39           O1  tau(  39) = (   6.5730609   3.0277731  14.6772624  )
        40           O1  tau(  40) = (   3.3208155   3.0007925  13.9016932  )
        41           O1  tau(  41) = (   4.5507661   4.4739758  16.0704957  )
        42           O1  tau(  42) = (   2.0281244   4.4521521  15.9894756  )
        43           Ti1 tau(  43) = (   3.3328935   0.0118079  15.7915215  )
        44           Ti1 tau(  44) = (   0.0096178   4.5175135  15.9069376  )
        45           O1  tau(  45) = (   3.2900926   2.9813045   4.7018136  )
        46           O1  tau(  46) = (   1.3039711   4.4726057   6.0039043  )
        47           O1  tau(  47) = (   5.2763189   4.4711207   6.0039473  )
        48           C1  tau(  48) = (   6.0108469   3.0492512  18.6187439  )
        49           O1  tau(  49) = (   6.5747659   3.0013081  17.3187206  )
        50           H1  tau(  50) = (   4.9221177   3.1735116  18.5649479  )
        51           H1  tau(  51) = (   6.2378858   2.1236533  19.1567593  )
        52           H1  tau(  52) = (   6.4108835   3.9027719  19.1655001  )
        53           O1  tau(  53) = (   2.8960476   5.8777769  18.1661119  )
        54           H1  tau(  54) = (   3.1709146   0.7341104  18.6084320  )
        55           H1  tau(  55) = (   1.9162551   5.9097105  18.1191095  )

     number of k points=    10  Fermi-Dirac smearing, width (Ry)=  0.0073
                       cart. coord. in units 2pi/alat
        k(    1) = (   0.0000000   0.0000000   0.0000000), wk =   0.1250000
        k(    2) = (   0.0000000   0.0419351   0.0000000), wk =   0.2500000
        k(    3) = (   0.0000000  -0.0838702   0.0000000), wk =   0.1250000
        k(    4) = (   0.0379955   0.0000049   0.0000000), wk =   0.2500000
        k(    5) = (   0.0379955   0.0419400   0.0000000), wk =   0.2500000
        k(    6) = (   0.0379955  -0.0838652   0.0000000), wk =   0.2500000
        k(    7) = (   0.0379955  -0.0419301   0.0000000), wk =   0.2500000
        k(    8) = (  -0.0759910  -0.0000099   0.0000000), wk =   0.1250000
        k(    9) = (  -0.0759910   0.0419252   0.0000000), wk =   0.2500000
        k(   10) = (  -0.0759910  -0.0838800   0.0000000), wk =   0.1250000

     Initial potential from superposition of free atoms

     starting charge  382.99916, renormalised to  399.00000

     negative rho (up, down):  1.705E-02 0.000E+00

     %%%%%%%%%%%%%%%%%%%%%%%%%%%%%%%%%%%%%%%%%%%%%%%%%%%%%%%%%%%%%%%%%%%%%%%%
     %                                                                      %
     % You are using vdW-DF, which was implemented by the Thonhauser group. %
     % Please cite the following two papers that made this development      %
     % possible and the two reviews that describe the various versions:     %
     %                                                                      %
     %   T. Thonhauser et al., PRL 115, 136402 (2015).                      %
     %   T. Thonhauser et al., PRB 76, 125112 (2007).                       %
     %   K. Berland et al., Rep. Prog. Phys. 78, 066501 (2015).             %
     %   D.C. Langreth et al., J. Phys.: Condens. Matter 21, 084203 (2009). %
     %                                                                      %
     %                                                                      %
     % If you are calculating the stress with vdW-DF, please also cite:     %
     %                                                                      %
     %   R. Sabatini et al., J. Phys.: Condens. Matter 24, 424209 (2012).   %
     %                                                                      %
     %%%%%%%%%%%%%%%%%%%%%%%%%%%%%%%%%%%%%%%%%%%%%%%%%%%%%%%%%%%%%%%%%%%%%%%%

     Adding external electric field

     Computed dipole along edir(3) :
        Dipole               -9.9871 Ry au,        -25.3847 Debye
        Dipole field         -0.0188 Ry au,

        Potential amp.        1.7471 Ry
        Total length         46.3494 bohr

     Starting wfcs are  301 atomic wfcs
  @ DRIVER MODE: Message from server: STATUS
  @ DRIVER MODE: Message from server: POSDATA
  @ DRIVER MODE: Reading and sharing cell
  @ DRIVER MODE: Reading and sharing positions
  @ DRIVER MODE: Received positions

     Self-consistent Calculation

     iteration #  1     ecut=    29.40 Ry     beta= 0.05
     Davidson diagonalization with overlap
     c_bands:  2 eigenvalues not converged
     c_bands:  2 eigenvalues not converged
     c_bands:  3 eigenvalues not converged
     c_bands:  3 eigenvalues not converged
     c_bands:  2 eigenvalues not converged
     c_bands:  3 eigenvalues not converged
     c_bands:  3 eigenvalues not converged
     c_bands:  1 eigenvalues not converged
     ethr =  1.00E-05,  avg # of iterations = 19.6

[...]

     total energy              =   -2489.86214191 Ry
     estimated scf accuracy    <    5304.38303965 Ry

     iteration #  2     ecut=    29.40 Ry     beta= 0.05
     Davidson diagonalization with overlap
     ethr =  1.00E-02,  avg # of iterations = 24.8

[...]

     iteration # 58     ecut=    29.40 Ry     beta= 0.05
     Davidson diagonalization with overlap
     c_bands:  1 eigenvalues not converged
     c_bands:  1 eigenvalues not converged
     ethr =  2.83E-11,  avg # of iterations = 17.3

[...]

     total energy              =   -2966.34218797 Ry
     estimated scf accuracy    <       0.00000013 Ry

     iteration # 60     ecut=    29.40 Ry     beta= 0.05
     Davidson diagonalization with overlap
     ethr =  2.83E-11,  avg # of iterations = 10.6

     negative rho (up, down):  1.686E-02 0.000E+00

     Adding external electric field

     Computed dipole along edir(3) :
        Dipole                0.9474 Ry au,          2.4081 Debye
        Dipole field          0.0018 Ry au,

        Potential amp.       -0.1657 Ry
        Total length         46.3494 bohr

     End of self-consistent calculation

          k = 0.0000 0.0000 0.0000 ( 18029 PWs)   bands (ev):

   -55.7044 -55.6685 -55.6656 -55.6294 -55.6175 -55.6044 -55.5832 -55.5491
   -55.4943 -55.4808 -55.4719 -55.4543 -55.4195 -55.3790 -54.7078 -54.6737
   -32.2233 -32.1739 -32.0955 -32.0627 -32.0464 -31.9968 -31.9805 -31.9700
   -31.9369 -31.9339 -31.8929 -31.8820 -31.8763 -31.8711 -31.8639 -31.8480
   -31.8470 -31.8037 -31.7991 -31.7961 -31.7879 -31.7833 -31.7688 -31.7551
   -31.7488 -31.7437 -31.7259 -31.7030 -31.6963 -31.6953 -31.6885 -31.6851
   -31.6723 -31.6651 -31.6520 -31.6443 -31.6367 -31.6006 -31.5949 -31.5701
   -31.5614 -31.5549 -31.1168 -31.0218 -30.9994 -30.9336 -30.8475 -30.7363
   -18.9045 -17.5511 -16.4191 -16.1497 -15.9885 -15.8608 -15.8224 -15.6268
   -15.5107 -15.3863 -15.3599 -15.3049 -15.2802 -15.2404 -15.2346 -15.2258
   -15.2151 -15.2063 -15.1527 -15.1184 -15.1059 -15.0962 -15.0844 -15.0331
   -14.9810 -14.9168 -14.8445 -14.8217 -14.7973 -14.7256 -14.7044 -13.2082
   -13.0903  -9.4365  -6.6732  -4.2709  -4.0954  -3.7996  -3.7655  -3.6420
    -3.6169  -3.5872  -3.5058  -3.3075  -3.2756  -3.1524  -2.9412  -2.8826
    -2.8269  -2.8031  -2.7609  -2.6098  -2.5915  -2.5203  -2.5095  -2.4908
    -2.4802  -2.4483  -2.4302  -2.3976  -2.3705  -2.3316  -2.2854  -2.2248
    -2.0860  -2.0717  -2.0344  -2.0170  -2.0053  -1.9906  -1.9536  -1.9325
    -1.8992  -1.8810  -1.8722  -1.7711  -1.6632  -1.5697  -1.5329  -1.4640
    -1.3824  -1.2382  -1.2173  -1.1464  -1.1213  -1.1055  -1.0546  -1.0027
    -0.9415  -0.9376  -0.8806  -0.7819  -0.7162  -0.6944  -0.6575  -0.6088
    -0.5495  -0.4735  -0.4442  -0.4268  -0.4036  -0.3912  -0.2038  -0.1792
    -0.1368  -0.1092  -0.0269   0.0317   0.0486   0.0668   0.0934   0.1204
     0.1936   0.2532   0.2625   0.2892   0.3329   0.3477   0.3818   0.4479
     0.4979   0.5163   0.5637   0.6129   0.6647   0.8047   0.9085   0.9510
     1.0625   1.2276   1.3167   1.3905   1.4918   1.9021   1.9581   3.4755
     3.5074   3.5355   3.5569   3.6338   3.7257   3.8354   3.9277   3.9428
     3.9721

[...]

          k = 0.0380-0.0419 0.0000 ( 17876 PWs)   bands (ev):

[...]

          k =-0.0760-0.0000 0.0000 ( 17886 PWs)   bands (ev):

[...]

          k =-0.0760-0.0839 0.0000 ( 17948 PWs)   bands (ev):

   -55.6921 -55.6807 -55.6494 -55.6454 -55.6146 -55.6024 -55.5704 -55.5620
   -55.4966 -55.4775 -55.4741 -55.4415 -55.4324 -55.3819 -54.6912 -54.6902
   -32.0364 -32.0174 -31.9966 -31.9902 -31.9847 -31.9833 -31.9663 -31.9294
   -31.9199 -31.9116 -31.9029 -31.8936 -31.8558 -31.8453 -31.8309 -31.8262
   -31.8258 -31.8194 -31.8178 -31.8102 -31.8027 -31.7999 -31.7930 -31.7838
   -31.7747 -31.7714 -31.7668 -31.7664 -31.7561 -31.7406 -31.7140 -31.6978
   -31.6922 -31.6856 -31.6848 -31.6815 -31.6760 -31.6583 -31.6480 -31.6367
   -31.6068 -31.5725 -31.0127 -31.0115 -30.9302 -30.9294 -30.8911 -30.8901
   -18.9032 -17.5185 -15.8877 -15.7740 -15.6556 -15.5816 -15.5698 -15.5236
   -15.4935 -15.4673 -15.4096 -15.4023 -15.3545 -15.3528 -15.3021 -15.2962
   -15.2452 -15.2132 -15.2090 -15.1677 -15.1447 -15.1365 -15.1263 -15.0898
   -15.0731 -15.0632 -15.0282 -15.0189 -14.9700 -14.9314 -14.9053 -13.1926
   -13.1908  -9.4388  -6.6676  -4.1705  -4.0577  -3.7993  -3.3060  -3.1739
    -2.9701  -2.9014  -2.8356  -2.7733  -2.7696  -2.6537  -2.6340  -2.5950
    -2.5643  -2.5315  -2.5237  -2.5135  -2.4969  -2.4943  -2.4773  -2.4378
    -2.4171  -2.3936  -2.3716  -2.3601  -2.3387  -2.3163  -2.3087  -2.2889
    -2.2559  -2.2493  -2.2416  -2.1780  -2.1151  -1.9831  -1.9394  -1.9262
    -1.8411  -1.8065  -1.7899  -1.7608  -1.7528  -1.7373  -1.6063  -1.5868
    -1.4918  -1.4265  -1.4071  -1.3791  -1.2714  -1.2124  -1.1811  -1.1581
    -1.1220  -1.0744  -1.0073  -0.9663  -0.9149  -0.8567  -0.8126  -0.7984
    -0.7657  -0.6614  -0.6571  -0.6500  -0.6080  -0.5679  -0.5172  -0.4660
    -0.4586  -0.4335  -0.4013  -0.3592  -0.3400  -0.2430  -0.2322  -0.1931
    -0.1467  -0.0540   0.1257   0.2098   0.3167   0.3507   0.3906   0.4526
     0.4971   0.5492   0.5956   0.6437   0.6690   0.7133   0.7468   0.8292
     0.8476   0.8529   0.9211   1.6784   1.6788   1.7648   1.7733   3.7192
     3.7344   3.7869   3.8055   3.9438   3.9497   3.9632   3.9728   4.0716
     4.1311

     the Fermi energy is     3.4465 ev

!    total energy              =   -2966.34223124 Ry
     estimated scf accuracy    <       0.00000003 Ry
     smearing contrib. (-TS)   =      -0.02282986 Ry
     internal energy E=F+TS    =   -2966.31940138 Ry

     The total energy is F=E-TS. E is the sum of the following terms:
     one-electron contribution =  -24405.18771246 Ry
     hartree contribution      =   12294.59329265 Ry
     xc contribution           =    -490.96622086 Ry
     ewald contribution        =    9635.23954540 Ry
     electric field correction =       0.00169389 Ry

     convergence has been achieved in  60 iterations

     Forces acting on atoms (cartesian axes, Ry/au):

     atom    1 type  1   force =     0.00018213   -0.00146459    0.10509985
     atom    2 type  1   force =     0.00007245    0.00125056   -0.17890872
     atom    3 type  2   force =    -0.00001252   -0.00501473   -0.03284018
     atom    4 type  2   force =    -0.00058074    0.00074349    0.04592361
     atom    5 type  2   force =    -0.01790529   -0.00053223    0.00427943
     atom    6 type  2   force =     0.01741067    0.00073969    0.00347340
     atom    7 type  1   force =    -0.00006026   -0.00058548   -0.00007754
     atom    8 type  1   force =    -0.00037616   -0.00057081    0.00044610
     atom    9 type  2   force =     0.00015064   -0.00029465   -0.00003225
     atom   10 type  2   force =     0.00022753   -0.00001925    0.00053872
     atom   11 type  2   force =    -0.00000803   -0.00010374   -0.00005095
     atom   12 type  2   force =    -0.00012557   -0.00029047   -0.00025511
     atom   13 type  1   force =     0.00055352   -0.00058227   -0.00133821
     atom   14 type  1   force =     0.00001235   -0.00045795    0.00035837
     atom   15 type  2   force =    -0.00012049   -0.00035358    0.00006451
     atom   16 type  2   force =     0.00004857   -0.00064137   -0.00004687
     atom   17 type  2   force =    -0.00033751   -0.00014228   -0.00042693
     atom   18 type  2   force =     0.00048299   -0.00043539    0.00002996
     atom   19 type  1   force =     0.00002842    0.00050897    0.00024587
     atom   20 type  1   force =     0.00005232   -0.00095292    0.00066916
     atom   21 type  2   force =     0.00007210    0.00010826    0.10391942
     atom   22 type  2   force =    -0.00033466   -0.00028356   -0.00021860
     atom   23 type  2   force =    -0.06947424    0.00050958   -0.02943326
     atom   24 type  2   force =     0.06950505    0.00087497   -0.02946138
     atom   25 type  1   force =     0.00027756    0.00145242    0.11395103
     atom   26 type  1   force =    -0.00005663   -0.00044565   -0.17907375
     atom   27 type  2   force =    -0.00013423    0.00370182   -0.02690766
     atom   28 type  2   force =    -0.00026817    0.00101734    0.04786503
     atom   29 type  2   force =    -0.01572083    0.00042481    0.00351777
     atom   30 type  2   force =     0.01709959    0.00264650    0.00289603
     atom   31 type  1   force =     0.00036359    0.00004788   -0.00019358
     atom   32 type  1   force =    -0.00066724    0.00012775    0.00028342
     atom   33 type  2   force =     0.00024965   -0.00039863    0.00017047
     atom   34 type  2   force =     0.00006938   -0.00005097   -0.00005182
     atom   35 type  2   force =     0.00011639   -0.00018528    0.00023275
     atom   36 type  2   force =     0.00019464    0.00016909    0.00016049
     atom   37 type  1   force =     0.00033305    0.00077680   -0.00025536
     atom   38 type  1   force =    -0.00009019   -0.00053750    0.00001896
     atom   39 type  2   force =    -0.00047353    0.00024906    0.00029314
     atom   40 type  2   force =     0.00025708   -0.00063938   -0.00012324
     atom   41 type  2   force =     0.00010256   -0.00001566   -0.00015004
     atom   42 type  2   force =    -0.00034063   -0.00035876   -0.00040653
     atom   43 type  1   force =    -0.00011676   -0.00024587   -0.00006808
     atom   44 type  1   force =     0.00033944    0.00034671    0.00033634
     atom   45 type  2   force =     0.00007900    0.00008334    0.10394784
     atom   46 type  2   force =    -0.06916980   -0.00106629   -0.02945028
     atom   47 type  2   force =     0.06914843   -0.00060171   -0.02952583
     atom   48 type  3   force =    -0.00336643   -0.00258570   -0.00118082
     atom   49 type  2   force =    -0.00021090    0.00094195    0.00073615
     atom   50 type  4   force =     0.00011898   -0.00074342   -0.00000244
     atom   51 type  4   force =    -0.00007026    0.00098326   -0.00038704
     atom   52 type  4   force =     0.00309319    0.00261163    0.00155835
     atom   53 type  2   force =     0.00080089    0.00111385    0.00051092
     atom   54 type  4   force =    -0.00020937   -0.00087850   -0.00063551
     atom   55 type  4   force =    -0.00121171    0.00004889   -0.00002512

     Total force =     0.374086     Total SCF correction =     0.000543
  @ DRIVER MODE: Message from server: STATUS
  @ DRIVER MODE: Message from server: GETFORCE
  @ DRIVER MODE: Returning v,forces,stress,ensemble

     Writing output data file ./calc.save/
  @ DRIVER MODE: Message from server: EXIT
  @ DRIVE MODE: Exiting

     General routines

     Parallel routines

   This run was terminated on:  17:53:38  26Sep2021

   JOB DONE.