     Program PWSCF v.6.7GPU starts on 16Sep2021 at  6:43:34

     R & G space division:  proc/nbgrp/npool/nimage =      10
     Reading input from /storage/home/hcoda1/3/ntian30/research/carbon/CxH_vib/H2O_calc/ads_slab/CH2OHH2O_a/out_0048/pw.inp
Warning: card &CELL ignored
Warning: card   CELL_DYNAMICS='IPI', ignored
Warning: card / ignored

     Current dimensions of program PWSCF are:
     Max number of different atomic species (ntypx) = 10
     Max number of k-points (npk) =  40000
     Max angular momentum in pseudopotentials (lmaxx) =  3
     Presently no symmetry can be used with electric field

     Message from routine cell_base_init:
     DEPRECATED: use true lattice parameter, not A to a.u. conversion factor

     IMPORTANT: XC functional enforced from input :
     Exchange-correlation= BEEF-VDW
                           (   1   4  43  14   2   0   0)
     Any further DFT definition will be discarded
     Please, verify this is what you really want

  @ DRIVER MODE: Connecting to
 qe_1139763_2852615.sched-torque.pace.gatech.eduancpixij_scratch
  using UNIX socket
  @ DRIVER MODE: Message from server: STATUS
  @ DRIVER MODE: Message from server: INIT
  @ DRIVER MODE: Receiving replica           0          -1
  @ DRIVER MODE: Receiving encoded integer          25
  @ DRIVER MODE:  SCF:  T  FORCE:  T  STRESS:  F  VC:  F  ENSEMBLE:  F
  @ DRIVER MODE:  SCF:  T  FORCE:  T  STRESS:  F  VC:  F  ENSEMBLE:  F

     Using Slab Decomposition

     bravais-lattice index     =            0
     lattice parameter (alat)  =       1.8897  a.u.
     unit-cell volume          =    6658.9804 (a.u.)^3
     number of atoms/cell      =           55
     number of atomic types    =            4
     number of electrons       =       399.00
     number of Kohn-Sham states=          209
     kinetic-energy cutoff     =      29.3995  Ry
     charge density cutoff     =     293.9946  Ry
     scf convergence threshold =      7.3E-08
     mixing beta               =       0.0500
     number of iterations used =            8  plain     mixing
     Exchange-correlation= BEEF-VDW
                           (   1   4  43  14   2   0   0)

     celldm(1)=   1.889726  celldm(2)=   0.000000  celldm(3)=   0.000000
     celldm(4)=   0.000000  celldm(5)=   0.000000  celldm(6)=   0.000000

     crystal axes: (cart. coord. in units of alat)
               a(1) = (   6.579727   0.000000   0.000000 )
               a(2) = (  -0.000775   5.961596   0.000000 )
               a(3) = (   0.000000   0.000000  25.155947 )

     reciprocal axes: (cart. coord. in units 2 pi/alat)
               b(1) = (  0.151982  0.000020  0.000000 )
               b(2) = (  0.000000  0.167740  0.000000 )
               b(3) = (  0.000000  0.000000  0.039752 )

     PseudoPot. # 1 for Ti read from file:
     /storage/coda1/p-amedford6/0/shared/rich_project_chbe-medford/medford-share/data/pseudos_module/espresso/nninc/pbe/van/Ti.UPF
     MD5 check sum: 8e4df49b7f0d34bbd5052bf3f5ea0213
     Pseudo is Ultrasoft, Zval = 12.0
     Generated by new atomic code, or converted to UPF format
     Using radial grid of  851 points,  6 beta functions with:
                l(1) =   0
                l(2) =   0
                l(3) =   1
                l(4) =   1
                l(5) =   2
                l(6) =   2
     Q(r) pseudized with  8 coefficients,  rinner =    1.000   1.000   1.000
                                                       1.000   1.000

     PseudoPot. # 2 for O  read from file:
     /storage/coda1/p-amedford6/0/shared/rich_project_chbe-medford/medford-share/data/pseudos_module/espresso/nninc/pbe/van/O.UPF
     MD5 check sum: 78c19812648e8988a0fe644b0f25305e
     Pseudo is Ultrasoft, Zval =  6.0
     Generated by new atomic code, or converted to UPF format
     Using radial grid of  737 points,  4 beta functions with:
                l(1) =   0
                l(2) =   0
                l(3) =   1
                l(4) =   1
     Q(r) pseudized with  8 coefficients,  rinner =    0.800   0.800   0.800

     PseudoPot. # 3 for C  read from file:
     /storage/coda1/p-amedford6/0/shared/rich_project_chbe-medford/medford-share/data/pseudos_module/espresso/nninc/pbe/van/C.UPF
     MD5 check sum: 1a69bf6b8db32088f5b2163dbdb77a27
     Pseudo is Ultrasoft, Zval =  4.0
     Generated by new atomic code, or converted to UPF format
     Using radial grid of  721 points,  4 beta functions with:
                l(1) =   0
                l(2) =   0
                l(3) =   1
                l(4) =   1
     Q(r) pseudized with  8 coefficients,  rinner =    0.800   0.800   0.800

     PseudoPot. # 4 for H  read from file:
     /storage/coda1/p-amedford6/0/shared/rich_project_chbe-medford/medford-share/data/pseudos_module/espresso/nninc/pbe/van/H.UPF
     MD5 check sum: b5ee9d7bfd3a09ee7748110bda690ff7
     Pseudo is Ultrasoft, Zval =  1.0
     Generated by new atomic code, or converted to UPF format
     Using radial grid of  615 points,  1 beta functions with:
                l(1) =   0
     Q(r) pseudized with  8 coefficients,  rinner =    0.800

     atomic species   valence    mass     pseudopotential
        Ti1           12.00    47.86700     Ti( 1.00)
        O1             6.00    15.99900     O ( 1.00)
        C1             4.00    12.01100     C ( 1.00)
        H1             1.00     1.00800     H ( 1.00)

     No symmetry found

   Cartesian axes

     site n.     atom                  positions (alat units)
         1           Ti1 tau(   1) = (   0.0004258   2.9801865   6.0000000  )
         2           Ti1 tau(   2) = (   3.2906075   1.4906267   6.0002472  )
         3           O1  tau(   3) = (   0.0006271   0.0005054   7.9858123  )
         4           O1  tau(   4) = (   3.2906025   0.0005020   7.3038282  )
         5           O1  tau(   5) = (   4.5942328   1.4918067   9.2879030  )
         6           O1  tau(   6) = (   1.9868534   1.4903216   9.2879459  )
         7           Ti1 tau(   7) = (   3.2434587   3.0186650   9.1693953  )
         8           Ti1 tau(   8) = (   6.5248695   1.5265067   9.2859949  )
         9           O1  tau(   9) = (   3.3238096   0.0077392  11.3399147  )
        10           O1  tau(  10) = (   0.0083103   0.0007143  10.5763085  )
        11           O1  tau(  11) = (   1.3076427   1.5153157  12.5877682  )
        12           O1  tau(  12) = (   5.3324098   1.4751673  12.6362968  )
        13           Ti1 tau(  13) = (   0.0822926   2.9518924  12.6100891  )
        14           Ti1 tau(  14) = (   3.3652580   1.6116561  12.6031695  )
        15           O1  tau(  15) = (   0.1623142   0.0003102  14.6136642  )
        16           O1  tau(  16) = (   3.2083997   0.0016335  13.9229753  )
        17           O1  tau(  17) = (   4.6427586   1.3635169  15.8692112  )
        18           O1  tau(  18) = (   2.0707938   1.5934636  16.1317492  )
        19           Ti1 tau(  19) = (   3.4055461   2.9583945  15.9219660  )
        20           Ti1 tau(  20) = (   0.0529163   1.3399360  15.9091509  )
        21           O1  tau(  21) = (   3.2904802   0.0005063   4.7018136  )
        22           O1  tau(  22) = (   0.1143047   5.9459637  17.1421970  )
        23           O1  tau(  23) = (   1.3043587   1.4918075   6.0039043  )
        24           O1  tau(  24) = (   5.2767064   1.4903225   6.0039473  )
        25           Ti1 tau(  25) = (   0.0000382   5.9609847   6.0000000  )
        26           Ti1 tau(  26) = (   3.2902200   4.4714249   6.0002472  )
        27           O1  tau(  27) = (   0.0002396   2.9813036   7.9858123  )
        28           O1  tau(  28) = (   3.2902150   2.9813002   7.3038282  )
        29           O1  tau(  29) = (   4.5938453   4.4726049   9.2879030  )
        30           O1  tau(  30) = (   1.9864658   4.4711199   9.2879459  )
        31           Ti1 tau(  31) = (   3.2519499   0.0415563   9.1803751  )
        32           Ti1 tau(  32) = (   6.5223785   4.4699269   9.2708698  )
        33           O1  tau(  33) = (   3.3249262   3.0006027  11.3427062  )
        34           O1  tau(  34) = (   6.5728067   2.9803724  10.5910131  )
        35           O1  tau(  35) = (   1.3048910   4.4590737  12.5876729  )
        36           O1  tau(  36) = (   5.3248012   4.5079456  12.6396186  )
        37           Ti1 tau(  37) = (   0.0305998   5.9348532  12.4502240  )
        38           Ti1 tau(  38) = (   3.3518916   4.5407868  12.4757475  )
        39           O1  tau(  39) = (   0.0741357   2.9755951  14.7167286  )
        40           O1  tau(  40) = (   3.3703583   2.9475192  13.9294239  )
        41           O1  tau(  41) = (   4.6408928   4.5782690  15.8216857  )
        42           O1  tau(  42) = (   2.0743197   4.3710070  16.0958311  )
        43           Ti1 tau(  43) = (   3.3271525   5.9323444  15.7323421  )
        44           Ti1 tau(  44) = (   0.0603002   4.5335970  15.7939964  )
        45           O1  tau(  45) = (   3.2900926   2.9813045   4.7018136  )
        46           O1  tau(  46) = (   1.3039711   4.4726057   6.0039043  )
        47           O1  tau(  47) = (   5.2763189   4.4711207   6.0039473  )
        48           C1  tau(  48) = (   4.5917920   3.0228413  17.9030398  )
        49           O1  tau(  49) = (   6.0625861   3.0006587  17.4562122  )
        50           H1  tau(  50) = (   0.0503952   3.1075262  18.2373115  )
        51           H1  tau(  51) = (   4.5265887   2.1706275  18.5876854  )
        52           H1  tau(  52) = (   4.4781653   3.9549082  18.4551422  )
        53           O1  tau(  53) = (   2.8659371   5.8926936  18.2031264  )
        54           H1  tau(  54) = (   3.0528466   0.8172038  18.5446680  )
        55           H1  tau(  55) = (   1.8959954   5.8777970  18.0621013  )

     number of k points=    10  Fermi-Dirac smearing, width (Ry)=  0.0073
                       cart. coord. in units 2pi/alat
        k(    1) = (   0.0000000   0.0000000   0.0000000), wk =   0.1250000
        k(    2) = (   0.0000000   0.0419351   0.0000000), wk =   0.2500000
        k(    3) = (   0.0000000  -0.0838702   0.0000000), wk =   0.1250000
        k(    4) = (   0.0379955   0.0000049   0.0000000), wk =   0.2500000
        k(    5) = (   0.0379955   0.0419400   0.0000000), wk =   0.2500000
        k(    6) = (   0.0379955  -0.0838652   0.0000000), wk =   0.2500000
        k(    7) = (   0.0379955  -0.0419301   0.0000000), wk =   0.2500000
        k(    8) = (  -0.0759910  -0.0000099   0.0000000), wk =   0.1250000
        k(    9) = (  -0.0759910   0.0419252   0.0000000), wk =   0.2500000
        k(   10) = (  -0.0759910  -0.0838800   0.0000000), wk =   0.1250000

     Initial potential from superposition of free atoms

     starting charge  382.99916, renormalised to  399.00000

     negative rho (up, down):  1.857E-02 0.000E+00

     %%%%%%%%%%%%%%%%%%%%%%%%%%%%%%%%%%%%%%%%%%%%%%%%%%%%%%%%%%%%%%%%%%%%%%%%
     %                                                                      %
     % You are using vdW-DF, which was implemented by the Thonhauser group. %
     % Please cite the following two papers that made this development      %
     % possible and the two reviews that describe the various versions:     %
     %                                                                      %
     %   T. Thonhauser et al., PRL 115, 136402 (2015).                      %
     %   T. Thonhauser et al., PRB 76, 125112 (2007).                       %
     %   K. Berland et al., Rep. Prog. Phys. 78, 066501 (2015).             %
     %   D.C. Langreth et al., J. Phys.: Condens. Matter 21, 084203 (2009). %
     %                                                                      %
     %                                                                      %
     % If you are calculating the stress with vdW-DF, please also cite:     %
     %                                                                      %
     %   R. Sabatini et al., J. Phys.: Condens. Matter 24, 424209 (2012).   %
     %                                                                      %
     %%%%%%%%%%%%%%%%%%%%%%%%%%%%%%%%%%%%%%%%%%%%%%%%%%%%%%%%%%%%%%%%%%%%%%%%

     Adding external electric field

     Computed dipole along edir(3) :
        Dipole               -9.7312 Ry au,        -24.7341 Debye
        Dipole field         -0.0184 Ry au,

        Potential amp.        1.7023 Ry
        Total length         46.3494 bohr

     Starting wfcs are  301 atomic wfcs
  @ DRIVER MODE: Message from server: STATUS
  @ DRIVER MODE: Message from server: POSDATA
  @ DRIVER MODE: Reading and sharing cell
  @ DRIVER MODE: Reading and sharing positions
  @ DRIVER MODE: Received positions

     Self-consistent Calculation

     iteration #  1     ecut=    29.40 Ry     beta= 0.05
     Davidson diagonalization with overlap
     c_bands:  2 eigenvalues not converged
     c_bands:  2 eigenvalues not converged
     c_bands:  3 eigenvalues not converged
     c_bands:  5 eigenvalues not converged
     c_bands:  3 eigenvalues not converged
     c_bands:  2 eigenvalues not converged
     c_bands:  3 eigenvalues not converged
     c_bands:  2 eigenvalues not converged
     ethr =  1.00E-05,  avg # of iterations = 19.8

[...]

     total energy              =   -2478.51812726 Ry
     estimated scf accuracy    <    5415.89533405 Ry

     iteration #  2     ecut=    29.40 Ry     beta= 0.05
     Davidson diagonalization with overlap
     ethr =  1.00E-02,  avg # of iterations = 24.0

[...]

     iteration # 69     ecut=    29.40 Ry     beta= 0.05
     Davidson diagonalization with overlap
     c_bands:  1 eigenvalues not converged
     ethr =  6.33E-11,  avg # of iterations = 11.9

[...]

     total energy              =   -2966.15821892 Ry
     estimated scf accuracy    <       0.00000011 Ry

     iteration # 70     ecut=    29.40 Ry     beta= 0.05
     Davidson diagonalization with overlap
     ethr =  2.67E-11,  avg # of iterations = 12.1

     negative rho (up, down):  1.797E-02 0.000E+00

     Adding external electric field

     Computed dipole along edir(3) :
        Dipole                1.0074 Ry au,          2.5605 Debye
        Dipole field          0.0019 Ry au,

        Potential amp.       -0.1762 Ry
        Total length         46.3494 bohr

     End of self-consistent calculation

          k = 0.0000 0.0000 0.0000 ( 18029 PWs)   bands (ev):

   -55.6868 -55.6503 -55.5789 -55.5709 -55.5142 -55.5121 -55.5064 -55.5036
   -55.4758 -55.4583 -55.4512 -55.4405 -55.4247 -55.3353 -54.6562 -54.6221
   -32.1767 -32.1629 -32.0527 -32.0230 -32.0007 -31.9740 -31.9531 -31.9414
   -31.9280 -31.8681 -31.8410 -31.8344 -31.8309 -31.8215 -31.7942 -31.7849
   -31.7813 -31.7620 -31.7569 -31.7458 -31.7346 -31.7291 -31.6957 -31.6900
   -31.6878 -31.6810 -31.6756 -31.6676 -31.6626 -31.6580 -31.6501 -31.6333
   -31.6296 -31.6268 -31.6217 -31.6186 -31.6101 -31.6096 -31.5845 -31.5614
   -31.5499 -31.4221 -31.0632 -30.9747 -30.9522 -30.8800 -30.7936 -30.6824
   -19.3890 -18.7606 -16.3722 -16.1754 -15.9706 -15.8571 -15.8374 -15.6562
   -15.5324 -15.3861 -15.3334 -15.3049 -15.2839 -15.2147 -15.2078 -15.1928
   -15.1576 -15.1518 -15.1164 -15.0966 -15.0906 -15.0627 -15.0114 -14.9898
   -14.9395 -14.8799 -14.8113 -14.7912 -14.7822 -14.7069 -14.6137 -13.1567
   -13.0401  -9.4332  -6.5073  -6.2795  -4.0757  -3.8404  -3.6844  -3.6417
    -3.6093  -3.5731  -3.4133  -3.3022  -3.1244  -3.0252  -2.9508  -2.9013
    -2.8637  -2.7874  -2.7454  -2.6203  -2.5968  -2.5475  -2.5147  -2.4786
    -2.4722  -2.4512  -2.4049  -2.3872  -2.3718  -2.2149  -2.2052  -2.1706
    -2.1061  -2.0747  -2.0474  -2.0105  -1.9888  -1.9617  -1.9434  -1.8971
    -1.8786  -1.8069  -1.7993  -1.7553  -1.6882  -1.6554  -1.3914  -1.3148
    -1.2929  -1.2548  -1.1911  -1.0939  -1.0902  -1.0837  -1.0832  -1.0263
    -1.0088  -0.8609  -0.8462  -0.8314  -0.7515  -0.6723  -0.5931  -0.5564
    -0.4921  -0.4418  -0.4089  -0.3813  -0.3551  -0.3000  -0.2312  -0.2083
    -0.1380  -0.0637  -0.0304   0.0219   0.0479   0.0925   0.1231   0.1992
     0.2382   0.2721   0.3000   0.3181   0.3283   0.3717   0.3914   0.4808
     0.5583   0.5867   0.5928   0.6672   0.7940   0.8764   0.9879   1.0796
     1.3019   1.3682   1.4192   1.5506   1.5587   1.9399   1.9903   3.4546
     3.5237   3.5831   3.5836   3.6185   3.6990   3.9020   3.9494   4.0068
     4.0408

[...]

          k = 0.0380-0.0419 0.0000 ( 17876 PWs)   bands (ev):

[...]

          k =-0.0760-0.0000 0.0000 ( 17886 PWs)   bands (ev):

[...]

          k =-0.0760-0.0839 0.0000 ( 17948 PWs)   bands (ev):

   -55.6750 -55.6619 -55.5736 -55.5662 -55.5185 -55.5109 -55.5087 -55.5001
   -55.4607 -55.4573 -55.4548 -55.4435 -55.4399 -55.3368 -54.6391 -54.6391
   -32.0956 -31.9843 -31.9734 -31.9716 -31.9494 -31.8988 -31.8722 -31.8510
   -31.8440 -31.8392 -31.8362 -31.8130 -31.8119 -31.7972 -31.7958 -31.7865
   -31.7855 -31.7771 -31.7754 -31.7725 -31.7697 -31.7600 -31.7386 -31.7329
   -31.7271 -31.7150 -31.7084 -31.7014 -31.6992 -31.6850 -31.6706 -31.6632
   -31.6626 -31.6600 -31.6582 -31.6516 -31.6502 -31.6483 -31.6462 -31.6437
   -31.6258 -31.4243 -30.9649 -30.9648 -30.8765 -30.8757 -30.8369 -30.8365
   -19.3825 -18.7596 -15.9901 -15.6514 -15.6385 -15.6333 -15.6024 -15.4810
   -15.4572 -15.4345 -15.3891 -15.3590 -15.3531 -15.3298 -15.2850 -15.2290
   -15.2100 -15.2024 -15.1926 -15.1402 -15.1260 -15.1151 -15.0693 -15.0288
   -15.0261 -15.0025 -14.9762 -14.9709 -14.9705 -14.9428 -14.8737 -13.1435
   -13.1403  -9.4393  -6.5073  -6.2600  -4.0325  -3.7284  -3.1600  -3.0480
    -2.8689  -2.8494  -2.7966  -2.7738  -2.7206  -2.6519  -2.6236  -2.6121
    -2.6100  -2.5761  -2.5137  -2.4795  -2.4758  -2.4365  -2.4180  -2.4104
    -2.3899  -2.3652  -2.3401  -2.3213  -2.3151  -2.2795  -2.2679  -2.2528
    -2.2466  -2.2346  -2.2156  -2.1756  -2.0678  -1.9461  -1.9119  -1.8764
    -1.8365  -1.7776  -1.7713  -1.7573  -1.7231  -1.7224  -1.7060  -1.6282
    -1.4655  -1.4033  -1.3405  -1.3186  -1.2444  -1.2324  -1.2170  -1.1741
    -1.1328  -1.0857  -1.0415  -1.0184  -0.9626  -0.9182  -0.7897  -0.7357
    -0.6512  -0.6459  -0.6234  -0.6084  -0.5542  -0.5295  -0.5046  -0.4598
    -0.4255  -0.3818  -0.3495  -0.3409  -0.3186  -0.2573  -0.1573  -0.1083
    -0.0459  -0.0399   0.0426   0.1723   0.3577   0.3879   0.4465   0.4973
     0.5874   0.6090   0.6578   0.6775   0.7352   0.7622   0.8034   0.8636
     0.9243   0.9525   1.5151   1.7315   1.7380   1.8011   1.8105   3.7461
     3.8336   3.9261   3.9400   3.9746   3.9867   3.9924   4.0219   4.0792
     4.1175

     the Fermi energy is     3.4521 ev

!    total energy              =   -2966.15824257 Ry
     estimated scf accuracy    <       0.00000007 Ry
     smearing contrib. (-TS)   =      -0.02139504 Ry
     internal energy E=F+TS    =   -2966.13684753 Ry

     The total energy is F=E-TS. E is the sum of the following terms:
     one-electron contribution =  -24755.16502084 Ry
     hartree contribution      =   12470.12776634 Ry
     xc contribution           =    -490.95969711 Ry
     ewald contribution        =    9809.85818906 Ry
     electric field correction =       0.00191501 Ry

     convergence has been achieved in  70 iterations

     Forces acting on atoms (cartesian axes, Ry/au):

     atom    1 type  1   force =     0.00075380   -0.00018294    0.09532221
     atom    2 type  1   force =     0.00024596   -0.00220356   -0.17572047
     atom    3 type  2   force =    -0.00066045   -0.00040826   -0.03010406
     atom    4 type  2   force =    -0.00084832    0.00063530    0.05234946
     atom    5 type  2   force =    -0.01388145   -0.00099568    0.00146625
     atom    6 type  2   force =     0.01582896    0.00241323    0.00319031
     atom    7 type  1   force =     0.00034348    0.00039161   -0.00027356
     atom    8 type  1   force =    -0.00036413    0.00140492    0.00066331
     atom    9 type  2   force =     0.00011408   -0.00001783    0.00023503
     atom   10 type  2   force =     0.00017586    0.00017184   -0.00056301
     atom   11 type  2   force =    -0.00021249    0.00024623    0.00019004
     atom   12 type  2   force =    -0.00039519    0.00008833    0.00008363
     atom   13 type  1   force =     0.00022695   -0.00017833   -0.00061125
     atom   14 type  1   force =    -0.00101540    0.00002251    0.00027674
     atom   15 type  2   force =     0.00006530   -0.00111197   -0.00012522
     atom   16 type  2   force =    -0.00000359   -0.00006690   -0.00014581
     atom   17 type  2   force =    -0.00039708   -0.00032128   -0.00010386
     atom   18 type  2   force =     0.00041200   -0.00025280    0.00007786
     atom   19 type  1   force =    -0.00004154    0.00032611    0.00010072
     atom   20 type  1   force =     0.00033954    0.00072653    0.00032914
     atom   21 type  2   force =     0.00014822    0.00019844    0.10302571
     atom   22 type  2   force =    -0.00004313   -0.00110071    0.00019222
     atom   23 type  2   force =    -0.07127720    0.00094048   -0.02831576
     atom   24 type  2   force =     0.07133126    0.00133274   -0.02835063
     atom   25 type  1   force =     0.00022126    0.00038763    0.10639734
     atom   26 type  1   force =     0.00000185    0.00253361   -0.17561308
     atom   27 type  2   force =    -0.00037712    0.00013391   -0.02788362
     atom   28 type  2   force =    -0.00096089    0.00076139    0.05165982
     atom   29 type  2   force =    -0.01303208   -0.00123199    0.00107294
     atom   30 type  2   force =     0.01547297    0.00037013    0.00295622
     atom   31 type  1   force =     0.00052067    0.00002473   -0.00001358
     atom   32 type  1   force =    -0.00041643   -0.00140833    0.00018628
     atom   33 type  2   force =    -0.00016605   -0.00031249    0.00019311
     atom   34 type  2   force =     0.00000735    0.00010811   -0.00012255
     atom   35 type  2   force =    -0.00060173   -0.00019723    0.00066710
     atom   36 type  2   force =     0.00001576   -0.00037538    0.00024650
     atom   37 type  1   force =     0.00059931    0.00027162    0.00052865
     atom   38 type  1   force =    -0.00092315    0.00013561    0.00045395
     atom   39 type  2   force =    -0.00018651    0.00065502    0.00025308
     atom   40 type  2   force =    -0.00003173   -0.00051347   -0.00064342
     atom   41 type  2   force =     0.00115903   -0.00005821   -0.00003225
     atom   42 type  2   force =    -0.00084847   -0.00023616    0.00013167
     atom   43 type  1   force =    -0.00009990   -0.00101470    0.00001608
     atom   44 type  1   force =    -0.00024199    0.00043165   -0.00012492
     atom   45 type  2   force =     0.00012286    0.00015552    0.10329599
     atom   46 type  2   force =    -0.07120252   -0.00125500   -0.02830886
     atom   47 type  2   force =     0.07127399   -0.00086064   -0.02834891
     atom   48 type  3   force =    -0.00076450   -0.00010251   -0.00006940
     atom   49 type  2   force =     0.00045850   -0.00006915   -0.00002937
     atom   50 type  4   force =    -0.00001376   -0.00040742   -0.00018745
     atom   51 type  4   force =    -0.00067949   -0.00014006    0.00016868
     atom   52 type  4   force =    -0.00034721   -0.00000753   -0.00033909
     atom   53 type  2   force =     0.00346262    0.00020365    0.00186784
     atom   54 type  4   force =     0.00040889    0.00046157    0.00016099
     atom   55 type  4   force =    -0.00367695   -0.00050191   -0.00172869

     Total force =     0.367407     Total SCF correction =     0.000659
  @ DRIVER MODE: Message from server: STATUS
  @ DRIVER MODE: Message from server: GETFORCE
  @ DRIVER MODE: Returning v,forces,stress,ensemble

     Writing output data file ./calc.save/
  @ DRIVER MODE: Message from server: EXIT
  @ DRIVE MODE: Exiting

     General routines

     Parallel routines

   This run was terminated on:   7: 2:18  16Sep2021

   JOB DONE.