     Program PWSCF v.6.7GPU starts on 15Sep2021 at 12:57:41

     R & G space division:  proc/nbgrp/npool/nimage =      10
     Reading input from /storage/home/hcoda1/3/ntian30/research/carbon/CxH_vib/CH_calc/ads_slab/CHNHNH_b/out_0011/pw.inp
Warning: card &CELL ignored
Warning: card   CELL_DYNAMICS='IPI', ignored
Warning: card / ignored

     Current dimensions of program PWSCF are:
     Max number of different atomic species (ntypx) = 10
     Max number of k-points (npk) =  40000
     Max angular momentum in pseudopotentials (lmaxx) =  3
     Presently no symmetry can be used with electric field

     Message from routine cell_base_init:
     DEPRECATED: use true lattice parameter, not A to a.u. conversion factor

     IMPORTANT: XC functional enforced from input :
     Exchange-correlation= BEEF-VDW
                           (   1   4  43  14   2   0   0)
     Any further DFT definition will be discarded
     Please, verify this is what you really want

  @ DRIVER MODE: Connecting to
 qe_1139763_2850202.sched-torque.pace.gatech.eduhkh0nh_e_scratch
  using UNIX socket
  @ DRIVER MODE: Message from server: STATUS
  @ DRIVER MODE: Message from server: INIT
  @ DRIVER MODE: Receiving replica           0          -1
  @ DRIVER MODE: Receiving encoded integer          25
  @ DRIVER MODE:  SCF:  T  FORCE:  T  STRESS:  F  VC:  F  ENSEMBLE:  F
  @ DRIVER MODE:  SCF:  T  FORCE:  T  STRESS:  F  VC:  F  ENSEMBLE:  F

     Using Slab Decomposition

     bravais-lattice index     =            0
     lattice parameter (alat)  =       1.8897  a.u.
     unit-cell volume          =    6658.9804 (a.u.)^3
     number of atoms/cell      =           53
     number of atomic types    =            5
     number of electrons       =       395.00
     number of Kohn-Sham states=          207
     kinetic-energy cutoff     =      29.3995  Ry
     charge density cutoff     =     293.9946  Ry
     scf convergence threshold =      7.3E-08
     mixing beta               =       0.0500
     number of iterations used =            8  plain     mixing
     Exchange-correlation= BEEF-VDW
                           (   1   4  43  14   2   0   0)

     celldm(1)=   1.889726  celldm(2)=   0.000000  celldm(3)=   0.000000
     celldm(4)=   0.000000  celldm(5)=   0.000000  celldm(6)=   0.000000

     crystal axes: (cart. coord. in units of alat)
               a(1) = (   6.579727   0.000000   0.000000 )
               a(2) = (  -0.000775   5.961596   0.000000 )
               a(3) = (   0.000000   0.000000  25.155947 )

     reciprocal axes: (cart. coord. in units 2 pi/alat)
               b(1) = (  0.151982  0.000020  0.000000 )
               b(2) = (  0.000000  0.167740  0.000000 )
               b(3) = (  0.000000  0.000000  0.039752 )

     PseudoPot. # 1 for Ti read from file:
     /storage/coda1/p-amedford6/0/shared/rich_project_chbe-medford/medford-share/data/pseudos_module/espresso/nninc/pbe/van/Ti.UPF
     MD5 check sum: 8e4df49b7f0d34bbd5052bf3f5ea0213
     Pseudo is Ultrasoft, Zval = 12.0
     Generated by new atomic code, or converted to UPF format
     Using radial grid of  851 points,  6 beta functions with:
                l(1) =   0
                l(2) =   0
                l(3) =   1
                l(4) =   1
                l(5) =   2
                l(6) =   2
     Q(r) pseudized with  8 coefficients,  rinner =    1.000   1.000   1.000
                                                       1.000   1.000

     PseudoPot. # 2 for O  read from file:
     /storage/coda1/p-amedford6/0/shared/rich_project_chbe-medford/medford-share/data/pseudos_module/espresso/nninc/pbe/van/O.UPF
     MD5 check sum: 78c19812648e8988a0fe644b0f25305e
     Pseudo is Ultrasoft, Zval =  6.0
     Generated by new atomic code, or converted to UPF format
     Using radial grid of  737 points,  4 beta functions with:
                l(1) =   0
                l(2) =   0
                l(3) =   1
                l(4) =   1
     Q(r) pseudized with  8 coefficients,  rinner =    0.800   0.800   0.800

     PseudoPot. # 3 for N  read from file:
     /storage/coda1/p-amedford6/0/shared/rich_project_chbe-medford/medford-share/data/pseudos_module/espresso/nninc/pbe/van/N.UPF
     MD5 check sum: 90d10febe142ad51ac9d5be1deb811c4
     Pseudo is Ultrasoft, Zval =  5.0
     Generated by new atomic code, or converted to UPF format
     Using radial grid of  729 points,  4 beta functions with:
                l(1) =   0
                l(2) =   0
                l(3) =   1
                l(4) =   1
     Q(r) pseudized with  8 coefficients,  rinner =    0.800   0.800   0.800

     PseudoPot. # 4 for C  read from file:
     /storage/coda1/p-amedford6/0/shared/rich_project_chbe-medford/medford-share/data/pseudos_module/espresso/nninc/pbe/van/C.UPF
     MD5 check sum: 1a69bf6b8db32088f5b2163dbdb77a27
     Pseudo is Ultrasoft, Zval =  4.0
     Generated by new atomic code, or converted to UPF format
     Using radial grid of  721 points,  4 beta functions with:
                l(1) =   0
                l(2) =   0
                l(3) =   1
                l(4) =   1
     Q(r) pseudized with  8 coefficients,  rinner =    0.800   0.800   0.800

     PseudoPot. # 5 for H  read from file:
     /storage/coda1/p-amedford6/0/shared/rich_project_chbe-medford/medford-share/data/pseudos_module/espresso/nninc/pbe/van/H.UPF
     MD5 check sum: b5ee9d7bfd3a09ee7748110bda690ff7
     Pseudo is Ultrasoft, Zval =  1.0
     Generated by new atomic code, or converted to UPF format
     Using radial grid of  615 points,  1 beta functions with:
                l(1) =   0
     Q(r) pseudized with  8 coefficients,  rinner =    0.800

     atomic species   valence    mass     pseudopotential
        Ti1           12.00    47.86700     Ti( 1.00)
        O1             6.00    15.99900     O ( 1.00)
        N1             5.00    14.00700     N ( 1.00)
        C1             4.00    12.01100     C ( 1.00)
        H1             1.00     1.00800     H ( 1.00)

     No symmetry found

   Cartesian axes

     site n.     atom                  positions (alat units)
         1           Ti1 tau(   1) = (   0.0004258   2.9801865   6.0000000  )
         2           Ti1 tau(   2) = (   3.2906075   1.4906267   6.0002472  )
         3           O1  tau(   3) = (   0.0006271   0.0005054   7.9858123  )
         4           O1  tau(   4) = (   3.2906025   0.0005020   7.3038282  )
         5           O1  tau(   5) = (   4.5942328   1.4918067   9.2879030  )
         6           O1  tau(   6) = (   1.9868534   1.4903216   9.2879459  )
         7           Ti1 tau(   7) = (   3.2907910   2.8959150   9.1758416  )
         8           Ti1 tau(   8) = (   0.0015273   1.4827037   9.2680791  )
         9           O1  tau(   9) = (   3.2799393   5.9535521  11.3540639  )
        10           O1  tau(  10) = (   0.0116148   5.9584955  10.6183126  )
        11           O1  tau(  11) = (   1.2974255   1.4613897  12.6506698  )
        12           O1  tau(  12) = (   5.3017888   1.4901577  12.6050164  )
        13           Ti1 tau(  13) = (   6.5221663   3.0180504  12.5986966  )
        14           Ti1 tau(  14) = (   3.2221172   1.5532140  12.5512791  )
        15           O1  tau(  15) = (   6.4783894   5.9520290  14.6579590  )
        16           O1  tau(  16) = (   3.3696489   5.9508513  13.9183136  )
        17           O1  tau(  17) = (   4.5179258   1.5103438  16.1624884  )
        18           O1  tau(  18) = (   1.9802590   1.4047766  15.9099196  )
        19           Ti1 tau(  19) = (   3.2637731   3.0080032  15.8837983  )
        20           Ti1 tau(  20) = (   6.5766856   1.4756295  15.8014380  )
        21           O1  tau(  21) = (   3.2904802   0.0005063   4.7018136  )
        22           O1  tau(  22) = (   0.0065935   5.9492922  17.2122405  )
        23           O1  tau(  23) = (   1.3043587   1.4918075   6.0039043  )
        24           O1  tau(  24) = (   5.2767064   1.4903225   6.0039473  )
        25           Ti1 tau(  25) = (   0.0000382   5.9609847   6.0000000  )
        26           Ti1 tau(  26) = (   3.2902200   4.4714249   6.0002472  )
        27           O1  tau(  27) = (   0.0002396   2.9813036   7.9858123  )
        28           O1  tau(  28) = (   3.2902150   2.9813002   7.3038282  )
        29           O1  tau(  29) = (   4.5938453   4.4726049   9.2879030  )
        30           O1  tau(  30) = (   1.9864658   4.4711199   9.2879459  )
        31           Ti1 tau(  31) = (   3.2891106   5.8743827   9.1763621  )
        32           Ti1 tau(  32) = (   0.0006254   4.4649316   9.2693709  )
        33           O1  tau(  33) = (   3.2772596   2.9828089  11.3369495  )
        34           O1  tau(  34) = (   0.0092240   2.9805883  10.6323155  )
        35           O1  tau(  35) = (   1.2916203   4.4718874  12.6594431  )
        36           O1  tau(  36) = (   5.2999639   4.4615573  12.6129894  )
        37           Ti1 tau(  37) = (   6.5361528   0.0312684  12.5125129  )
        38           Ti1 tau(  38) = (   3.2177194   4.4831555  12.4956785  )
        39           O1  tau(  39) = (   6.5168025   2.9395006  14.7032746  )
        40           O1  tau(  40) = (   3.2870264   2.9515371  13.9313172  )
        41           O1  tau(  41) = (   4.5204763   4.4345026  16.1736457  )
        42           O1  tau(  42) = (   1.9972348   4.5331091  15.9467552  )
        43           Ti1 tau(  43) = (   3.2981618   0.0182476  15.6956140  )
        44           Ti1 tau(  44) = (   0.0010288   4.6427453  16.0560918  )
        45           O1  tau(  45) = (   3.2900926   2.9813045   4.7018136  )
        46           O1  tau(  46) = (   1.3039711   4.4726057   6.0039043  )
        47           O1  tau(  47) = (   5.2763189   4.4711207   6.0039473  )
        48           N1  tau(  48) = (   1.3052520   2.8252889  18.3786263  )
        49           N1  tau(  49) = (   0.2128110   2.9323531  17.5095281  )
        50           C1  tau(  50) = (   2.5582938   2.8657590  18.0399718  )
        51           H1  tau(  51) = (   3.1786551   2.7222395  18.9297303  )
        52           H1  tau(  52) = (   1.0317423   2.6491596  19.3433462  )
        53           H1  tau(  53) = (   5.9645394   2.8535341  18.1048464  )

     number of k points=    10  Fermi-Dirac smearing, width (Ry)=  0.0073
                       cart. coord. in units 2pi/alat
        k(    1) = (   0.0000000   0.0000000   0.0000000), wk =   0.1250000
        k(    2) = (   0.0000000   0.0419351   0.0000000), wk =   0.2500000
        k(    3) = (   0.0000000  -0.0838702   0.0000000), wk =   0.1250000
        k(    4) = (   0.0379955   0.0000049   0.0000000), wk =   0.2500000
        k(    5) = (   0.0379955   0.0419400   0.0000000), wk =   0.2500000
        k(    6) = (   0.0379955  -0.0838652   0.0000000), wk =   0.2500000
        k(    7) = (   0.0379955  -0.0419301   0.0000000), wk =   0.2500000
        k(    8) = (  -0.0759910  -0.0000099   0.0000000), wk =   0.1250000
        k(    9) = (  -0.0759910   0.0419252   0.0000000), wk =   0.2500000
        k(   10) = (  -0.0759910  -0.0838800   0.0000000), wk =   0.1250000

     Initial potential from superposition of free atoms

     starting charge  378.99916, renormalised to  395.00000

     negative rho (up, down):  1.761E-02 0.000E+00

     %%%%%%%%%%%%%%%%%%%%%%%%%%%%%%%%%%%%%%%%%%%%%%%%%%%%%%%%%%%%%%%%%%%%%%%%
     %                                                                      %
     % You are using vdW-DF, which was implemented by the Thonhauser group. %
     % Please cite the following two papers that made this development      %
     % possible and the two reviews that describe the various versions:     %
     %                                                                      %
     %   T. Thonhauser et al., PRL 115, 136402 (2015).                      %
     %   T. Thonhauser et al., PRB 76, 125112 (2007).                       %
     %   K. Berland et al., Rep. Prog. Phys. 78, 066501 (2015).             %
     %   D.C. Langreth et al., J. Phys.: Condens. Matter 21, 084203 (2009). %
     %                                                                      %
     %                                                                      %
     % If you are calculating the stress with vdW-DF, please also cite:     %
     %                                                                      %
     %   R. Sabatini et al., J. Phys.: Condens. Matter 24, 424209 (2012).   %
     %                                                                      %
     %%%%%%%%%%%%%%%%%%%%%%%%%%%%%%%%%%%%%%%%%%%%%%%%%%%%%%%%%%%%%%%%%%%%%%%%

     Adding external electric field

     Computed dipole along edir(3) :
        Dipole               -7.9460 Ry au,        -20.1968 Debye
        Dipole field         -0.0150 Ry au,

        Potential amp.        1.3900 Ry
        Total length         46.3494 bohr

     Starting wfcs are  299 atomic wfcs
  @ DRIVER MODE: Message from server: STATUS
  @ DRIVER MODE: Message from server: POSDATA
  @ DRIVER MODE: Reading and sharing cell
  @ DRIVER MODE: Reading and sharing positions
  @ DRIVER MODE: Received positions

     Self-consistent Calculation

     iteration #  1     ecut=    29.40 Ry     beta= 0.05
     Davidson diagonalization with overlap
     c_bands:  1 eigenvalues not converged
     c_bands:  2 eigenvalues not converged
     c_bands:  2 eigenvalues not converged
     c_bands:  3 eigenvalues not converged
     c_bands:  3 eigenvalues not converged
     c_bands:  1 eigenvalues not converged
     c_bands:  1 eigenvalues not converged
     ethr =  1.00E-05,  avg # of iterations = 19.2

[...]

     total energy              =   -2627.22785253 Ry
     estimated scf accuracy    <    3449.85488077 Ry

[...]

     iteration #  3     ecut=    29.40 Ry     beta= 0.05
     Davidson diagonalization with overlap
     ethr =  1.00E-02,  avg # of iterations = 14.1

[...]

     iteration # 62     ecut=    29.40 Ry     beta= 0.05
     Davidson diagonalization with overlap
     ethr =  8.86E-11,  avg # of iterations = 10.4

[...]

     total energy              =   -2939.10934864 Ry
     estimated scf accuracy    <       0.00000014 Ry

     iteration # 63     ecut=    29.40 Ry     beta= 0.05
     Davidson diagonalization with overlap
     c_bands:  1 eigenvalues not converged
     ethr =  3.62E-11,  avg # of iterations = 10.9

     negative rho (up, down):  1.782E-02 0.000E+00

     Adding external electric field

     Computed dipole along edir(3) :
        Dipole                1.3727 Ry au,          3.4890 Debye
        Dipole field          0.0026 Ry au,

        Potential amp.       -0.2401 Ry
        Total length         46.3494 bohr

     End of self-consistent calculation

          k = 0.0000 0.0000 0.0000 ( 18029 PWs)   bands (ev):

   -55.4810 -55.4469 -55.3881 -55.3428 -55.3303 -55.3231 -55.2991 -55.2917
   -55.2885 -55.2651 -55.2572 -55.2223 -55.1389 -54.9841 -54.4611 -54.4271
   -31.9648 -31.9160 -31.8284 -31.8030 -31.7990 -31.7730 -31.7467 -31.7257
   -31.7116 -31.6499 -31.6435 -31.6334 -31.6328 -31.5993 -31.5867 -31.5799
   -31.5640 -31.5604 -31.5461 -31.5383 -31.5040 -31.4934 -31.4924 -31.4908
   -31.4907 -31.4816 -31.4772 -31.4753 -31.4487 -31.4400 -31.4391 -31.4378
   -31.4305 -31.4240 -31.4113 -31.4059 -31.3857 -31.3694 -31.3633 -31.2370
   -31.2236 -31.1892 -30.8679 -30.7799 -30.7575 -30.6848 -30.5984 -30.4871
   -18.7083 -16.1608 -15.9596 -15.7737 -15.6431 -15.5890 -15.3549 -15.2494
   -15.2153 -15.1326 -15.0885 -15.0592 -15.0204 -15.0053 -14.9900 -14.9830
   -14.9240 -14.9050 -14.8983 -14.8682 -14.8495 -14.8254 -14.8128 -14.7240
   -14.6391 -14.6346 -14.6230 -14.5978 -14.5353 -14.1443 -13.4845 -12.9618
   -12.8453  -8.8988  -7.3242  -4.4292  -3.6569  -3.5290  -3.4201  -3.4047
    -3.3854  -3.2609  -3.1442  -2.8996  -2.8935  -2.7458  -2.6587  -2.6183
    -2.5456  -2.4722  -2.4370  -2.3781  -2.3132  -2.2905  -2.2731  -2.2398
    -2.2178  -2.2081  -2.1786  -2.0348  -2.0158  -1.9501  -1.8615  -1.8530
    -1.7959  -1.7915  -1.7703  -1.7446  -1.7375  -1.7292  -1.7084  -1.6914
    -1.6185  -1.5401  -1.4954  -1.4542  -1.3155  -1.1864  -1.1338  -1.0918
    -1.0278  -0.9526  -0.9177  -0.9044  -0.8881  -0.8721  -0.7219  -0.6764
    -0.6525  -0.6162  -0.4979  -0.4161  -0.3598  -0.3142  -0.2809  -0.2524
    -0.2318  -0.2191  -0.1834  -0.0655   0.0043   0.0513   0.0839   0.1595
     0.2156   0.2506   0.2625   0.3275   0.3614   0.3892   0.4386   0.4772
     0.4910   0.5139   0.5472   0.5650   0.6408   0.7542   0.7772   0.7797
     0.8194   1.0102   1.0749   1.1303   1.1772   1.2870   1.3205   1.4978
     1.5629   1.6391   1.7555   2.1332   2.1790   3.6330   3.7396   3.7762
     3.8160   3.8510   3.8976   4.0962   4.1421   4.1868   4.2755

[...]

          k = 0.0380-0.0419 0.0000 ( 17876 PWs)   bands (ev):

[...]

          k =-0.0760-0.0000 0.0000 ( 17886 PWs)   bands (ev):

[...]

          k =-0.0760-0.0839 0.0000 ( 17948 PWs)   bands (ev):

   -55.4643 -55.4635 -55.3795 -55.3511 -55.3199 -55.3098 -55.3024 -55.3016
   -55.2824 -55.2813 -55.2444 -55.2352 -55.1371 -54.9858 -54.4442 -54.4439
   -31.7804 -31.7799 -31.7587 -31.7585 -31.7581 -31.7285 -31.6647 -31.6607
   -31.6459 -31.6262 -31.6185 -31.6085 -31.5980 -31.5973 -31.5876 -31.5839
   -31.5831 -31.5767 -31.5757 -31.5727 -31.5593 -31.5554 -31.5420 -31.5297
   -31.5283 -31.5104 -31.5069 -31.5049 -31.4841 -31.4824 -31.4719 -31.4597
   -31.4572 -31.4548 -31.4533 -31.4520 -31.4396 -31.3798 -31.3674 -31.2827
   -31.2396 -31.2271 -30.7703 -30.7700 -30.6808 -30.6805 -30.6417 -30.6415
   -18.7046 -15.5963 -15.4995 -15.4842 -15.4094 -15.3846 -15.2854 -15.2493
   -15.2085 -15.1850 -15.1780 -15.1457 -15.0967 -15.0825 -15.0433 -15.0321
   -15.0066 -14.9722 -14.9618 -14.9257 -14.9230 -14.9161 -14.8794 -14.8192
   -14.8026 -14.7949 -14.7928 -14.7121 -14.6042 -14.3500 -13.5044 -12.9472
   -12.9470  -8.8902  -7.2409  -4.5607  -3.6337  -2.8466  -2.7960  -2.7790
    -2.6692  -2.5904  -2.5253  -2.4822  -2.4564  -2.4004  -2.3915  -2.3366
    -2.3281  -2.3019  -2.2875  -2.2737  -2.2400  -2.2232  -2.2208  -2.1865
    -2.1795  -2.1562  -2.1297  -2.1075  -2.0963  -2.0805  -2.0650  -2.0409
    -2.0283  -1.9951  -1.9576  -1.8238  -1.7053  -1.6567  -1.6266  -1.6060
    -1.5829  -1.5524  -1.5351  -1.5241  -1.4904  -1.4480  -1.3066  -1.1694
    -1.1475  -1.0584  -1.0105  -0.9887  -0.9515  -0.8969  -0.8752  -0.8704
    -0.8127  -0.7879  -0.7029  -0.6534  -0.6131  -0.5863  -0.4554  -0.4475
    -0.4431  -0.4280  -0.3962  -0.3777  -0.3238  -0.2441  -0.2126  -0.2066
    -0.1610  -0.1589  -0.1467  -0.0054   0.0604   0.1021   0.1951   0.2438
     0.3929   0.5456   0.5708   0.6052   0.6968   0.7513   0.7938   0.8311
     0.8474   0.8999   0.9633   1.0329   1.0441   1.0989   1.1177   1.2009
     1.2235   1.9272   1.9280   1.9987   1.9990   3.9981   4.0038   4.0209
     4.0902   4.1514   4.1579   4.1911   4.1921   4.2945   4.3211

     the Fermi energy is     3.6474 ev

!    total energy              =   -2939.10938578 Ry
     estimated scf accuracy    <       0.00000006 Ry
     smearing contrib. (-TS)   =      -0.02094199 Ry
     internal energy E=F+TS    =   -2939.08844378 Ry

     The total energy is F=E-TS. E is the sum of the following terms:
     one-electron contribution =  -24580.36824919 Ry
     hartree contribution      =   12381.80768731 Ry
     xc contribution           =    -485.20132709 Ry
     ewald contribution        =    9744.66988937 Ry
     electric field correction =       0.00355582 Ry

     convergence has been achieved in  63 iterations

     Forces acting on atoms (cartesian axes, Ry/au):

     atom    1 type  1   force =     0.00005384   -0.00020634    0.09562995
     atom    2 type  1   force =    -0.00001835   -0.00051743   -0.17548588
     atom    3 type  2   force =     0.00008538   -0.00008909   -0.02325640
     atom    4 type  2   force =    -0.00003418   -0.00149134    0.05266422
     atom    5 type  2   force =    -0.01057912   -0.00050451    0.00372805
     atom    6 type  2   force =     0.01176649   -0.00007579    0.00225007
     atom    7 type  1   force =    -0.00002616   -0.00028030   -0.00806405
     atom    8 type  1   force =     0.00049398    0.01257908    0.01817973
     atom    9 type  2   force =    -0.00031565    0.00005206    0.00009667
     atom   10 type  2   force =    -0.00242557    0.00019879   -0.01646997
     atom   11 type  2   force =    -0.00025753    0.00020252    0.00000087
     atom   12 type  2   force =    -0.00047617   -0.00014397   -0.00014910
     atom   13 type  1   force =     0.00020032   -0.00007361    0.00017599
     atom   14 type  1   force =     0.00034322    0.00001896   -0.00006737
     atom   15 type  2   force =     0.00015450    0.00004817   -0.00032520
     atom   16 type  2   force =    -0.00016954   -0.00020325    0.00020463
     atom   17 type  2   force =    -0.00023665   -0.00024496   -0.00025425
     atom   18 type  2   force =     0.00034817   -0.00006400   -0.00032855
     atom   19 type  1   force =     0.00032967    0.00001247   -0.00130020
     atom   20 type  1   force =     0.00026313   -0.00009155   -0.00116235
     atom   21 type  2   force =     0.00005293   -0.00006277    0.10320148
     atom   22 type  2   force =     0.00003364    0.00014393    0.00027157
     atom   23 type  2   force =    -0.07159036   -0.00016315   -0.02756260
     atom   24 type  2   force =     0.07151584    0.00027988   -0.02762235
     atom   25 type  1   force =     0.00016740   -0.00026284    0.09534564
     atom   26 type  1   force =     0.00005971   -0.00029909   -0.17587326
     atom   27 type  2   force =     0.00008907   -0.00019412   -0.02224265
     atom   28 type  2   force =    -0.00001657   -0.00114465    0.05314115
     atom   29 type  2   force =    -0.01040458   -0.00021300    0.00332723
     atom   30 type  2   force =     0.01139909    0.00019872    0.00189763
     atom   31 type  1   force =    -0.00013865    0.00483146   -0.00023130
     atom   32 type  1   force =     0.00058429   -0.01318810    0.01872264
     atom   33 type  2   force =    -0.00015303    0.00013488   -0.00006402
     atom   34 type  2   force =    -0.00060087    0.00042872   -0.01729447
     atom   35 type  2   force =    -0.00032607   -0.00015609    0.00012486
     atom   36 type  2   force =    -0.00022216   -0.00034633    0.00018771
     atom   37 type  1   force =     0.00032285   -0.00016419    0.00024475
     atom   38 type  1   force =     0.00015001    0.00023083    0.00016631
     atom   39 type  2   force =    -0.00036547   -0.00006471   -0.00080377
     atom   40 type  2   force =    -0.00010919   -0.00008209    0.00057094
     atom   41 type  2   force =    -0.00024430    0.00009382    0.00003259
     atom   42 type  2   force =     0.00054544   -0.00006159    0.00018126
     atom   43 type  1   force =    -0.00007027    0.00014333   -0.00003450
     atom   44 type  1   force =     0.00023062    0.00060708   -0.00039564
     atom   45 type  2   force =     0.00006700   -0.00009472    0.10321021
     atom   46 type  2   force =    -0.07164362   -0.00011512   -0.02761043
     atom   47 type  2   force =     0.07153014    0.00026995   -0.02765025
     atom   48 type  3   force =     0.00000130    0.00047445   -0.00615505
     atom   49 type  3   force =    -0.00361717   -0.00195619    0.01485794
     atom   50 type  4   force =    -0.00130762   -0.00033718    0.00056304
     atom   51 type  5   force =     0.00034408    0.00004808    0.00047052
     atom   52 type  5   force =    -0.00157555    0.00132434   -0.00139524
     atom   53 type  5   force =     0.00579231    0.00057053   -0.00764879

     Total force =     0.366098     Total SCF correction =     0.000557
  @ DRIVER MODE: Message from server: STATUS
  @ DRIVER MODE: Message from server: GETFORCE
  @ DRIVER MODE: Returning v,forces,stress,ensemble

     Writing output data file ./calc.save/
  @ DRIVER MODE: Message from server: EXIT
  @ DRIVE MODE: Exiting

     General routines

     Parallel routines

   This run was terminated on:  13:15:59  15Sep2021

   JOB DONE.