     Program PWSCF v.6.7GPU starts on 16Sep2021 at  8:56:15

     R & G space division:  proc/nbgrp/npool/nimage =      10
     Reading input from /storage/home/hcoda1/3/ntian30/research/carbon/CxH_vib/H2O_calc/ads_slab/CH3NHNH2H2O_a/out_0049/pw.inp
Warning: card &CELL ignored
Warning: card   CELL_DYNAMICS='IPI', ignored
Warning: card / ignored

     Current dimensions of program PWSCF are:
     Max number of different atomic species (ntypx) = 10
     Max number of k-points (npk) =  40000
     Max angular momentum in pseudopotentials (lmaxx) =  3
     Presently no symmetry can be used with electric field

     Message from routine cell_base_init:
     DEPRECATED: use true lattice parameter, not A to a.u. conversion factor

     IMPORTANT: XC functional enforced from input :
     Exchange-correlation= BEEF-VDW
                           (   1   4  43  14   2   0   0)
     Any further DFT definition will be discarded
     Please, verify this is what you really want

  @ DRIVER MODE: Connecting to
 qe_1139763_2852619.sched-torque.pace.gatech.edu50bhx6e6_scratch
  using UNIX socket
  @ DRIVER MODE: Message from server: STATUS
  @ DRIVER MODE: Message from server: INIT
  @ DRIVER MODE: Receiving replica           0          -1
  @ DRIVER MODE: Receiving encoded integer          25
  @ DRIVER MODE:  SCF:  T  FORCE:  T  STRESS:  F  VC:  F  ENSEMBLE:  F
  @ DRIVER MODE:  SCF:  T  FORCE:  T  STRESS:  F  VC:  F  ENSEMBLE:  F

     Using Slab Decomposition

     bravais-lattice index     =            0
     lattice parameter (alat)  =       1.8897  a.u.
     unit-cell volume          =    6658.9804 (a.u.)^3
     number of atoms/cell      =           59
     number of atomic types    =            5
     number of electrons       =       406.00
     number of Kohn-Sham states=          213
     kinetic-energy cutoff     =      29.3995  Ry
     charge density cutoff     =     293.9946  Ry
     scf convergence threshold =      7.3E-08
     mixing beta               =       0.0500
     number of iterations used =            8  plain     mixing
     Exchange-correlation= BEEF-VDW
                           (   1   4  43  14   2   0   0)

     celldm(1)=   1.889726  celldm(2)=   0.000000  celldm(3)=   0.000000
     celldm(4)=   0.000000  celldm(5)=   0.000000  celldm(6)=   0.000000

     crystal axes: (cart. coord. in units of alat)
               a(1) = (   6.579727   0.000000   0.000000 )
               a(2) = (  -0.000775   5.961596   0.000000 )
               a(3) = (   0.000000   0.000000  25.155947 )

     reciprocal axes: (cart. coord. in units 2 pi/alat)
               b(1) = (  0.151982  0.000020  0.000000 )
               b(2) = (  0.000000  0.167740  0.000000 )
               b(3) = (  0.000000  0.000000  0.039752 )

     PseudoPot. # 1 for Ti read from file:
     /storage/coda1/p-amedford6/0/shared/rich_project_chbe-medford/medford-share/data/pseudos_module/espresso/nninc/pbe/van/Ti.UPF
     MD5 check sum: 8e4df49b7f0d34bbd5052bf3f5ea0213
     Pseudo is Ultrasoft, Zval = 12.0
     Generated by new atomic code, or converted to UPF format
     Using radial grid of  851 points,  6 beta functions with:
                l(1) =   0
                l(2) =   0
                l(3) =   1
                l(4) =   1
                l(5) =   2
                l(6) =   2
     Q(r) pseudized with  8 coefficients,  rinner =    1.000   1.000   1.000
                                                       1.000   1.000

     PseudoPot. # 2 for O  read from file:
     /storage/coda1/p-amedford6/0/shared/rich_project_chbe-medford/medford-share/data/pseudos_module/espresso/nninc/pbe/van/O.UPF
     MD5 check sum: 78c19812648e8988a0fe644b0f25305e
     Pseudo is Ultrasoft, Zval =  6.0
     Generated by new atomic code, or converted to UPF format
     Using radial grid of  737 points,  4 beta functions with:
                l(1) =   0
                l(2) =   0
                l(3) =   1
                l(4) =   1
     Q(r) pseudized with  8 coefficients,  rinner =    0.800   0.800   0.800

     PseudoPot. # 3 for N  read from file:
     /storage/coda1/p-amedford6/0/shared/rich_project_chbe-medford/medford-share/data/pseudos_module/espresso/nninc/pbe/van/N.UPF
     MD5 check sum: 90d10febe142ad51ac9d5be1deb811c4
     Pseudo is Ultrasoft, Zval =  5.0
     Generated by new atomic code, or converted to UPF format
     Using radial grid of  729 points,  4 beta functions with:
                l(1) =   0
                l(2) =   0
                l(3) =   1
                l(4) =   1
     Q(r) pseudized with  8 coefficients,  rinner =    0.800   0.800   0.800

     PseudoPot. # 4 for C  read from file:
     /storage/coda1/p-amedford6/0/shared/rich_project_chbe-medford/medford-share/data/pseudos_module/espresso/nninc/pbe/van/C.UPF
     MD5 check sum: 1a69bf6b8db32088f5b2163dbdb77a27
     Pseudo is Ultrasoft, Zval =  4.0
     Generated by new atomic code, or converted to UPF format
     Using radial grid of  721 points,  4 beta functions with:
                l(1) =   0
                l(2) =   0
                l(3) =   1
                l(4) =   1
     Q(r) pseudized with  8 coefficients,  rinner =    0.800   0.800   0.800

     PseudoPot. # 5 for H  read from file:
     /storage/coda1/p-amedford6/0/shared/rich_project_chbe-medford/medford-share/data/pseudos_module/espresso/nninc/pbe/van/H.UPF
     MD5 check sum: b5ee9d7bfd3a09ee7748110bda690ff7
     Pseudo is Ultrasoft, Zval =  1.0
     Generated by new atomic code, or converted to UPF format
     Using radial grid of  615 points,  1 beta functions with:
                l(1) =   0
     Q(r) pseudized with  8 coefficients,  rinner =    0.800

     atomic species   valence    mass     pseudopotential
        Ti1           12.00    47.86700     Ti( 1.00)
        O1             6.00    15.99900     O ( 1.00)
        N1             5.00    14.00700     N ( 1.00)
        C1             4.00    12.01100     C ( 1.00)
        H1             1.00     1.00800     H ( 1.00)

     No symmetry found

   Cartesian axes

     site n.     atom                  positions (alat units)
         1           Ti1 tau(   1) = (   0.0004258   2.9801865   6.0000000  )
         2           Ti1 tau(   2) = (   3.2906075   1.4906267   6.0002472  )
         3           O1  tau(   3) = (   0.0006271   0.0005054   7.9858123  )
         4           O1  tau(   4) = (   3.2906025   0.0005020   7.3038282  )
         5           O1  tau(   5) = (   4.5942328   1.4918067   9.2879030  )
         6           O1  tau(   6) = (   1.9868534   1.4903216   9.2879459  )
         7           Ti1 tau(   7) = (   3.2907910   2.8959150   9.1758416  )
         8           Ti1 tau(   8) = (   0.0015273   1.4827037   9.2680791  )
         9           O1  tau(   9) = (   3.2683845   0.0132936  11.3796717  )
        10           O1  tau(  10) = (   0.0116148   5.9584955  10.6183126  )
        11           O1  tau(  11) = (   1.2681313   1.5011218  12.7194972  )
        12           O1  tau(  12) = (   5.2787963   1.4993765  12.6897032  )
        13           Ti1 tau(  13) = (   6.5560253   2.9823375  12.4990790  )
        14           Ti1 tau(  14) = (   3.2673924   1.4925278  12.5394213  )
        15           O1  tau(  15) = (   6.5345332   5.8735037  14.6996474  )
        16           O1  tau(  16) = (   3.2898196   5.9462848  13.9939205  )
        17           O1  tau(  17) = (   4.4957945   1.5291507  16.1605787  )
        18           O1  tau(  18) = (   1.9883785   1.5110281  16.0762771  )
        19           Ti1 tau(  19) = (   3.2526948   3.0056396  15.7740191  )
        20           Ti1 tau(  20) = (   0.0000763   1.3299063  15.8143521  )
        21           O1  tau(  21) = (   3.2904802   0.0005063   4.7018136  )
        22           O1  tau(  22) = (   6.5205728   0.2065101  17.2442985  )
        23           O1  tau(  23) = (   1.3043587   1.4918075   6.0039043  )
        24           O1  tau(  24) = (   5.2767064   1.4903225   6.0039473  )
        25           Ti1 tau(  25) = (   0.0000382   5.9609847   6.0000000  )
        26           Ti1 tau(  26) = (   3.2902200   4.4714249   6.0002472  )
        27           O1  tau(  27) = (   0.0002396   2.9813036   7.9858123  )
        28           O1  tau(  28) = (   3.2902150   2.9813002   7.3038282  )
        29           O1  tau(  29) = (   4.5938453   4.4726049   9.2879030  )
        30           O1  tau(  30) = (   1.9864658   4.4711199   9.2879459  )
        31           Ti1 tau(  31) = (   3.2891106   5.8743827   9.1763621  )
        32           Ti1 tau(  32) = (   0.0006254   4.4649316   9.2693709  )
        33           O1  tau(  33) = (   3.2688559   2.9716192  11.3757022  )
        34           O1  tau(  34) = (   0.0092240   2.9805883  10.6323155  )
        35           O1  tau(  35) = (   1.2711362   4.4646907  12.6658965  )
        36           O1  tau(  36) = (   5.2748280   4.4660984  12.6332574  )
        37           Ti1 tau(  37) = (   6.5627654   5.9477838  12.5072267  )
        38           Ti1 tau(  38) = (   3.2667511   4.4702655  12.5260729  )
        39           O1  tau(  39) = (   6.5087961   3.0586107  15.0099536  )
        40           O1  tau(  40) = (   3.2849776   3.0149387  13.9815115  )
        41           O1  tau(  41) = (   4.4906635   4.4862850  16.2792570  )
        42           O1  tau(  42) = (   1.9756856   4.4939852  16.2100911  )
        43           Ti1 tau(  43) = (   3.2747729   0.0241646  15.7895078  )
        44           Ti1 tau(  44) = (   6.5697470   4.5456975  16.1185117  )
        45           O1  tau(  45) = (   3.2900926   2.9813045   4.7018136  )
        46           O1  tau(  46) = (   1.3039711   4.4726057   6.0039043  )
        47           O1  tau(  47) = (   5.2763189   4.4711207   6.0039473  )
        48           N1  tau(  48) = (   0.9980056   3.0961469  19.0053282  )
        49           N1  tau(  49) = (   6.4063515   3.4839273  18.2229180  )
        50           C1  tau(  50) = (   1.6570833   4.2684698  19.5811903  )
        51           H1  tau(  51) = (   0.9936588   4.8902639  20.1979557  )
        52           H1  tau(  52) = (   2.4789334   3.9063689  20.1993048  )
        53           H1  tau(  53) = (   2.0598354   4.8861676  18.7819781  )
        54           H1  tau(  54) = (   0.6510520   2.5058952  19.7602174  )
        55           H1  tau(  55) = (   5.8507131   4.1735594  18.7414995  )
        56           H1  tau(  56) = (   5.8047758   2.6545292  18.1916272  )
        57           O1  tau(  57) = (   5.1718451   0.7889162  19.5681371  )
        58           H1  tau(  58) = (   5.5516362   0.5215711  18.6954158  )
        59           H1  tau(  59) = (   4.2099197   0.7512590  19.4668632  )

     number of k points=    10  Fermi-Dirac smearing, width (Ry)=  0.0073
                       cart. coord. in units 2pi/alat
        k(    1) = (   0.0000000   0.0000000   0.0000000), wk =   0.1250000
        k(    2) = (   0.0000000   0.0419351   0.0000000), wk =   0.2500000
        k(    3) = (   0.0000000  -0.0838702   0.0000000), wk =   0.1250000
        k(    4) = (   0.0379955   0.0000049   0.0000000), wk =   0.2500000
        k(    5) = (   0.0379955   0.0419400   0.0000000), wk =   0.2500000
        k(    6) = (   0.0379955  -0.0838652   0.0000000), wk =   0.2500000
        k(    7) = (   0.0379955  -0.0419301   0.0000000), wk =   0.2500000
        k(    8) = (  -0.0759910  -0.0000099   0.0000000), wk =   0.1250000
        k(    9) = (  -0.0759910   0.0419252   0.0000000), wk =   0.2500000
        k(   10) = (  -0.0759910  -0.0838800   0.0000000), wk =   0.1250000

     Initial potential from superposition of free atoms

     starting charge  389.99912, renormalised to  406.00000

     negative rho (up, down):  1.389E-02 0.000E+00

     %%%%%%%%%%%%%%%%%%%%%%%%%%%%%%%%%%%%%%%%%%%%%%%%%%%%%%%%%%%%%%%%%%%%%%%%
     %                                                                      %
     % You are using vdW-DF, which was implemented by the Thonhauser group. %
     % Please cite the following two papers that made this development      %
     % possible and the two reviews that describe the various versions:     %
     %                                                                      %
     %   T. Thonhauser et al., PRL 115, 136402 (2015).                      %
     %   T. Thonhauser et al., PRB 76, 125112 (2007).                       %
     %   K. Berland et al., Rep. Prog. Phys. 78, 066501 (2015).             %
     %   D.C. Langreth et al., J. Phys.: Condens. Matter 21, 084203 (2009). %
     %                                                                      %
     %                                                                      %
     % If you are calculating the stress with vdW-DF, please also cite:     %
     %                                                                      %
     %   R. Sabatini et al., J. Phys.: Condens. Matter 24, 424209 (2012).   %
     %                                                                      %
     %%%%%%%%%%%%%%%%%%%%%%%%%%%%%%%%%%%%%%%%%%%%%%%%%%%%%%%%%%%%%%%%%%%%%%%%

     Adding external electric field

     Computed dipole along edir(3) :
        Dipole              -16.7176 Ry au,        -42.4920 Debye
        Dipole field         -0.0315 Ry au,

        Potential amp.        2.9245 Ry
        Total length         46.3494 bohr

     Starting wfcs are  308 atomic wfcs
  @ DRIVER MODE: Message from server: STATUS
  @ DRIVER MODE: Message from server: POSDATA
  @ DRIVER MODE: Reading and sharing cell
  @ DRIVER MODE: Reading and sharing positions
  @ DRIVER MODE: Received positions

     Self-consistent Calculation

     iteration #  1     ecut=    29.40 Ry     beta= 0.05
     Davidson diagonalization with overlap
     c_bands:  2 eigenvalues not converged
     c_bands:  3 eigenvalues not converged
     c_bands:  2 eigenvalues not converged
     c_bands:  4 eigenvalues not converged
     c_bands:  1 eigenvalues not converged
     c_bands:  4 eigenvalues not converged
     c_bands:  3 eigenvalues not converged
     c_bands:  5 eigenvalues not converged
     c_bands:  3 eigenvalues not converged
     ethr =  1.00E-05,  avg # of iterations = 24.9

[...]

     total energy              =   -2136.66847563 Ry
     estimated scf accuracy    <    9692.86068071 Ry

     iteration #  2     ecut=    29.40 Ry     beta= 0.05
     Davidson diagonalization with overlap
     ethr =  1.00E-02,  avg # of iterations = 32.3

[...]

     iteration # 72     ecut=    29.40 Ry     beta= 0.05
     Davidson diagonalization with overlap
     c_bands:  1 eigenvalues not converged
     ethr =  1.26E-10,  avg # of iterations = 16.3

[...]

     total energy              =   -2977.68379053 Ry
     estimated scf accuracy    <       0.00000014 Ry

     iteration # 75     ecut=    29.40 Ry     beta= 0.05
     Davidson diagonalization with overlap
     ethr =  3.57E-11,  avg # of iterations =  8.6

     negative rho (up, down):  1.439E-02 0.000E+00

     Adding external electric field

     Computed dipole along edir(3) :
        Dipole                1.0193 Ry au,          2.5908 Debye
        Dipole field          0.0019 Ry au,

        Potential amp.       -0.1783 Ry
        Total length         46.3494 bohr

     End of self-consistent calculation

          k = 0.0000 0.0000 0.0000 ( 18029 PWs)   bands (ev):

   -55.3591 -55.3218 -55.3096 -55.2920 -55.2754 -55.2399 -55.2383 -55.2034
   -55.1822 -55.1810 -55.1479 -55.1418 -55.1082 -55.0171 -54.3417 -54.3077
   -31.9255 -31.8076 -31.8026 -31.7269 -31.6755 -31.6714 -31.6714 -31.6482
   -31.5984 -31.5944 -31.5714 -31.5687 -31.5545 -31.5382 -31.5294 -31.5260
   -31.5136 -31.5064 -31.4961 -31.4784 -31.4635 -31.4623 -31.4344 -31.4239
   -31.4166 -31.4128 -31.3918 -31.3848 -31.3684 -31.3669 -31.3621 -31.3533
   -31.3409 -31.3401 -31.3312 -31.3288 -31.2958 -31.2927 -31.2701 -31.2530
   -31.2294 -31.2272 -30.7513 -30.6567 -30.6346 -30.5676 -30.4808 -30.3699
   -18.0049 -17.6236 -16.1927 -15.9321 -15.7866 -15.6581 -15.5606 -15.4323
   -15.4130 -15.2910 -15.2207 -15.1166 -15.0659 -15.0475 -15.0117 -15.0015
   -14.9789 -14.9077 -14.9016 -14.8876 -14.8636 -14.8549 -14.8087 -14.8010
   -14.7597 -14.7354 -14.7113 -14.6122 -14.5222 -14.4474 -14.3391 -13.1421
   -12.8446 -12.7270  -9.4098  -6.3025  -5.8724  -5.7285  -4.2528  -3.5313
    -3.3825  -3.3138  -3.2776  -3.2523  -3.1187  -2.9613  -2.9217  -2.8063
    -2.7881  -2.6900  -2.6439  -2.5727  -2.5561  -2.5409  -2.3945  -2.3724
    -2.3470  -2.2804  -2.2534  -2.1867  -2.1648  -2.1545  -2.1445  -2.1213
    -2.0934  -2.0509  -1.9906  -1.9328  -1.8395  -1.8138  -1.7635  -1.7336
    -1.7131  -1.6960  -1.6506  -1.6396  -1.6003  -1.5855  -1.5656  -1.5512
    -1.3880  -1.3649  -1.2639  -1.2021  -1.1031  -0.9994  -0.9636  -0.9491
    -0.8521  -0.8336  -0.7811  -0.7398  -0.7374  -0.7027  -0.5909  -0.5282
    -0.4760  -0.4125  -0.3892  -0.3496  -0.2817  -0.1980  -0.1425  -0.1286
    -0.1131  -0.0965   0.0138   0.0262   0.0779   0.1527   0.1623   0.1685
     0.2425   0.2986   0.3689   0.3941   0.4114   0.5166   0.5323   0.5646
     0.5703   0.6002   0.6209   0.6460   0.7061   0.7365   0.8196   0.9413
     1.1335   1.2224   1.2497   1.3625   1.5728   1.5853   1.6809   1.8640
     2.2573   2.3057   3.7379   3.8091   3.8839   3.8879   3.9104   3.9743
     4.2110   4.2283   4.2429   4.2466   4.2706

[...]

          k = 0.0380-0.0419 0.0000 ( 17876 PWs)   bands (ev):

[...]

          k =-0.0760-0.0000 0.0000 ( 17886 PWs)   bands (ev):

[...]

          k =-0.0760-0.0839 0.0000 ( 17948 PWs)   bands (ev):

   -55.3454 -55.3353 -55.2928 -55.2921 -55.2907 -55.2327 -55.2277 -55.2155
   -55.1865 -55.1662 -55.1634 -55.1252 -55.1249 -55.0182 -54.3248 -54.3244
   -31.7335 -31.7256 -31.7232 -31.6391 -31.6195 -31.6179 -31.6174 -31.5838
   -31.5835 -31.5726 -31.5585 -31.5573 -31.5506 -31.5304 -31.5189 -31.5055
   -31.4991 -31.4959 -31.4944 -31.4928 -31.4861 -31.4787 -31.4465 -31.4387
   -31.4357 -31.4355 -31.4214 -31.4166 -31.4126 -31.4120 -31.4066 -31.3989
   -31.3966 -31.3794 -31.3762 -31.3741 -31.3590 -31.3562 -31.3063 -31.3056
   -31.2995 -31.2332 -30.6474 -30.6471 -30.5639 -30.5637 -30.5243 -30.5241
   -17.9936 -17.6318 -15.6732 -15.5883 -15.5674 -15.4122 -15.3605 -15.3342
   -15.3232 -15.2077 -15.1655 -15.1463 -15.1318 -15.1099 -15.0716 -15.0620
   -15.0553 -14.9920 -14.9717 -14.9627 -14.9368 -14.8829 -14.8754 -14.8674
   -14.8597 -14.8097 -14.8059 -14.7660 -14.7152 -14.7117 -14.6353 -13.1483
   -12.8285 -12.8285  -9.4147  -6.3247  -5.9044  -5.6420  -4.2304  -2.9341
    -2.8464  -2.8357  -2.8289  -2.6995  -2.6255  -2.5503  -2.5281  -2.5064
    -2.4208  -2.4085  -2.3779  -2.3526  -2.3230  -2.2840  -2.2464  -2.2395
    -2.2038  -2.1953  -2.1794  -2.1628  -2.1410  -2.1254  -2.0919  -2.0812
    -2.0674  -2.0236  -1.9978  -1.9836  -1.9626  -1.9422  -1.9345  -1.9158
    -1.8414  -1.7507  -1.7262  -1.6410  -1.5714  -1.5698  -1.5635  -1.5019
    -1.4585  -1.4201  -1.3951  -1.3780  -1.2381  -1.1673  -1.1233  -1.1090
    -1.0944  -0.9636  -0.9574  -0.8811  -0.8588  -0.8523  -0.7587  -0.7141
    -0.6757  -0.6688  -0.5821  -0.5700  -0.4941  -0.3956  -0.3737  -0.3599
    -0.3148  -0.3130  -0.2755  -0.2625  -0.1662  -0.1308  -0.1092  -0.0968
    -0.0803  -0.0386   0.1126   0.1614   0.1680   0.3013   0.3328   0.4712
     0.5011   0.5655   0.6450   0.6939   0.7463   0.7791   0.8661   0.9404
     0.9436   1.0070   1.0226   1.0887   1.1009   1.3681   2.0370   2.0376
     2.1255   2.1259   3.8859   4.0011   4.0045   4.0338   4.1562   4.1794
     4.2557   4.2831   4.3228   4.3259   4.3852

     the Fermi energy is     3.8020 ev

!    total energy              =   -2977.68380933 Ry
     estimated scf accuracy    <       0.00000007 Ry
     smearing contrib. (-TS)   =      -0.03717491 Ry
     internal energy E=F+TS    =   -2977.64663442 Ry

     The total energy is F=E-TS. E is the sum of the following terms:
     one-electron contribution =  -22681.82027223 Ry
     hartree contribution      =   11438.28265281 Ry
     xc contribution           =    -496.61004799 Ry
     ewald contribution        =    8762.49907227 Ry
     electric field correction =       0.00196072 Ry

     convergence has been achieved in  75 iterations

     Forces acting on atoms (cartesian axes, Ry/au):

     atom    1 type  1   force =     0.00024117   -0.00037838    0.09322038
     atom    2 type  1   force =     0.00001937   -0.00038267   -0.17816575
     atom    3 type  2   force =     0.00004790   -0.00042200   -0.02002649
     atom    4 type  2   force =     0.00001028   -0.00190523    0.05912007
     atom    5 type  2   force =    -0.01036002   -0.00059483    0.00860352
     atom    6 type  2   force =     0.01130704    0.00009642    0.00627388
     atom    7 type  1   force =    -0.00096310    0.00198286   -0.01427103
     atom    8 type  1   force =     0.00097540   -0.00255524   -0.00598455
     atom    9 type  2   force =     0.00016848   -0.00001501    0.00007157
     atom   10 type  2   force =    -0.00231111    0.00308663    0.00261483
     atom   11 type  2   force =     0.00042885   -0.00043666   -0.00056803
     atom   12 type  2   force =     0.00002469   -0.00041550   -0.00057297
     atom   13 type  1   force =     0.00033393   -0.00027286   -0.00019170
     atom   14 type  1   force =     0.00004772   -0.00008822   -0.00006690
     atom   15 type  2   force =    -0.00000329    0.00059260   -0.00007047
     atom   16 type  2   force =     0.00031050    0.00027713   -0.00013250
     atom   17 type  2   force =     0.00041064    0.00026181    0.00042778
     atom   18 type  2   force =    -0.00049638    0.00019393   -0.00010210
     atom   19 type  1   force =    -0.00019989    0.00009031    0.00026059
     atom   20 type  1   force =    -0.00005820   -0.00005966    0.00076289
     atom   21 type  2   force =     0.00012016   -0.00011573    0.10403950
     atom   22 type  2   force =     0.00015070   -0.00030849    0.00049684
     atom   23 type  2   force =    -0.07029200   -0.00019595   -0.02686965
     atom   24 type  2   force =     0.07027410    0.00025037   -0.02687096
     atom   25 type  1   force =     0.00017054   -0.00030740    0.09240702
     atom   26 type  1   force =     0.00005734   -0.00054607   -0.17849551
     atom   27 type  2   force =     0.00008011   -0.00020487   -0.01908768
     atom   28 type  2   force =     0.00005946   -0.00173153    0.05854067
     atom   29 type  2   force =    -0.01102255   -0.00114242    0.00944117
     atom   30 type  2   force =     0.01187805   -0.00069809    0.00722155
     atom   31 type  1   force =    -0.00088062    0.00645806   -0.01493869
     atom   32 type  1   force =     0.00101968    0.00220435   -0.00638599
     atom   33 type  2   force =     0.00025899    0.00009338   -0.00000151
     atom   34 type  2   force =    -0.00214660   -0.00242947   -0.00032095
     atom   35 type  2   force =     0.00028273    0.00013329   -0.00000899
     atom   36 type  2   force =     0.00025013    0.00004455    0.00050635
     atom   37 type  1   force =    -0.00010160    0.00002442   -0.00004298
     atom   38 type  1   force =     0.00014972   -0.00007538   -0.00000181
     atom   39 type  2   force =    -0.00011544   -0.00021003    0.00036893
     atom   40 type  2   force =    -0.00014032    0.00008222    0.00005287
     atom   41 type  2   force =    -0.00042151    0.00013301    0.00030366
     atom   42 type  2   force =     0.00025404   -0.00009233   -0.00014226
     atom   43 type  1   force =     0.00034609    0.00027764   -0.00007661
     atom   44 type  1   force =    -0.00002633   -0.00020219    0.00007338
     atom   45 type  2   force =     0.00012416   -0.00010918    0.10396570
     atom   46 type  2   force =    -0.07026568   -0.00013209   -0.02681209
     atom   47 type  2   force =     0.07025622    0.00027728   -0.02687466
     atom   48 type  3   force =    -0.00109616   -0.00101447   -0.00043346
     atom   49 type  3   force =    -0.00583760   -0.00572565   -0.00137237
     atom   50 type  4   force =    -0.00047699    0.00004972   -0.00034450
     atom   51 type  5   force =    -0.00068580    0.00036824    0.00039836
     atom   52 type  5   force =     0.00040510   -0.00008177    0.00035383
     atom   53 type  5   force =    -0.00002125    0.00021248   -0.00045655
     atom   54 type  5   force =     0.00014226   -0.00019749   -0.00004861
     atom   55 type  5   force =     0.00079134    0.00103764   -0.00016213
     atom   56 type  5   force =     0.00632929    0.00521514    0.00117840
     atom   57 type  2   force =    -0.00105587   -0.00057618    0.00083482
     atom   58 type  5   force =     0.00015317   -0.00030141   -0.00020758
     atom   59 type  5   force =     0.00109895    0.00048096   -0.00143050

     Total force =     0.366476     Total SCF correction =     0.000597
  @ DRIVER MODE: Message from server: STATUS
  @ DRIVER MODE: Message from server: GETFORCE
  @ DRIVER MODE: Returning v,forces,stress,ensemble

     Writing output data file ./calc.save/
  @ DRIVER MODE: Message from server: EXIT
  @ DRIVE MODE: Exiting

     General routines

     Parallel routines

   This run was terminated on:   9:18: 7  16Sep2021

   JOB DONE.