     Program PWSCF v.6.8 starts on 27Oct2021 at  9:49:49

     R & G space division:  proc/nbgrp/npool/nimage =       4

     Reading input from /storage/home/hcoda1/3/ntian30/research/carbon/CH2_calc/ads_slab/N2/CH2_calc.log/pw.inp
Warning: card &CELL ignored
Warning: card   CELL_DYNAMICS='IPI', ignored
Warning: card / ignored

     Current dimensions of program PWSCF are:
     Max number of different atomic species (ntypx) = 10
     Max number of k-points (npk) =  40000
     Max angular momentum in pseudopotentials (lmaxx) =  4
     Presently no symmetry can be used with electric field

     Message from routine cell_base_init:
     DEPRECATED: use true lattice parameter, not A to a.u. conversion factor

     IMPORTANT: XC functional enforced from input :
     Exchange-correlation= BEEF-VDW
                           (   1   4  43  14   2   0   0)
     Any further DFT definition will be discarded
     Please, verify this is what you really want

  @ DRIVER MODE: Connecting to
 qe_1139763_3369083.sched-torque.pace.gatech.eduu8n2if8o_scratch
  using UNIX socket
  @ DRIVER MODE: Message from server: STATUS
  @ DRIVER MODE: Message from server: INIT
  @ DRIVER MODE: Receiving replica           0          -1
  @ DRIVER MODE: Receiving encoded integer          25
  @ DRIVER MODE:  SCF:  T  FORCE:  T  STRESS:  F  VC:  F  ENSEMBLE:  F
  @ DRIVER MODE:  SCF:  T  FORCE:  T  STRESS:  F  VC:  F  ENSEMBLE:  F

     Using Slab Decomposition

     bravais-lattice index     =            0
     lattice parameter (alat)  =       1.8897  a.u.
     unit-cell volume          =    6658.9804 (a.u.)^3
     number of atoms/cell      =           49
     number of atomic types    =            3
     number of electrons       =       388.00
     number of Kohn-Sham states=          204
     kinetic-energy cutoff     =      29.3995  Ry
     charge density cutoff     =     293.9946  Ry
     scf convergence threshold =      7.3E-08
     mixing beta               =       0.0500
     number of iterations used =            8  plain     mixing
     Exchange-correlation= BEEF-VDW
                           (   1   4  43  14   2   0   0)

     celldm(1)=   1.889726  celldm(2)=   0.000000  celldm(3)=   0.000000
     celldm(4)=   0.000000  celldm(5)=   0.000000  celldm(6)=   0.000000

     crystal axes: (cart. coord. in units of alat)
               a(1) = (   6.579727   0.000000   0.000000 )
               a(2) = (  -0.000775   5.961596   0.000000 )
               a(3) = (   0.000000   0.000000  25.155947 )

     reciprocal axes: (cart. coord. in units 2 pi/alat)
               b(1) = (  0.151982  0.000020  0.000000 )
               b(2) = (  0.000000  0.167740  0.000000 )
               b(3) = (  0.000000  0.000000  0.039752 )

     PseudoPot. # 1 for Ti read from file:
     /storage/coda1/p-amedford6/0/shared/rich_project_chbe-medford/medford-share/data/pseudos_module/espresso/nninc/pbe/van/Ti.UPF
     MD5 check sum: 8e4df49b7f0d34bbd5052bf3f5ea0213
     Pseudo is Ultrasoft, Zval = 12.0
     Generated by new atomic code, or converted to UPF format
     Using radial grid of  851 points,  6 beta functions with:
                l(1) =   0
                l(2) =   0
                l(3) =   1
                l(4) =   1
                l(5) =   2
                l(6) =   2
     Q(r) pseudized with  8 coefficients,  rinner =    1.000   1.000   1.000
                                                       1.000   1.000

     PseudoPot. # 2 for O  read from file:
     /storage/coda1/p-amedford6/0/shared/rich_project_chbe-medford/medford-share/data/pseudos_module/espresso/nninc/pbe/van/O.UPF
     MD5 check sum: 78c19812648e8988a0fe644b0f25305e
     Pseudo is Ultrasoft, Zval =  6.0
     Generated by new atomic code, or converted to UPF format
     Using radial grid of  737 points,  4 beta functions with:
                l(1) =   0
                l(2) =   0
                l(3) =   1
                l(4) =   1
     Q(r) pseudized with  8 coefficients,  rinner =    0.800   0.800   0.800

     PseudoPot. # 3 for N  read from file:
     /storage/coda1/p-amedford6/0/shared/rich_project_chbe-medford/medford-share/data/pseudos_module/espresso/nninc/pbe/van/N.UPF
     MD5 check sum: 90d10febe142ad51ac9d5be1deb811c4
     Pseudo is Ultrasoft, Zval =  5.0
     Generated by new atomic code, or converted to UPF format
     Using radial grid of  729 points,  4 beta functions with:
                l(1) =   0
                l(2) =   0
                l(3) =   1
                l(4) =   1
     Q(r) pseudized with  8 coefficients,  rinner =    0.800   0.800   0.800

     atomic species   valence    mass     pseudopotential
        Ti1           12.00    47.86700     Ti( 1.00)
        O1             6.00    15.99900     O ( 1.00)
        N1             5.00    14.00700     N ( 1.00)

     No symmetry found

   Cartesian axes

     site n.     atom                  positions (alat units)
         1           Ti1 tau(   1) = (   0.0004258   2.9801865   6.0000000  )
         2           Ti1 tau(   2) = (   3.2906075   1.4906267   6.0002472  )
         3           O1  tau(   3) = (   0.0006271   0.0005054   7.9858123  )
         4           O1  tau(   4) = (   3.2906025   0.0005020   7.3038282  )
         5           O1  tau(   5) = (   4.5942328   1.4918067   9.2879030  )
         6           O1  tau(   6) = (   1.9868534   1.4903216   9.2879459  )
         7           Ti1 tau(   7) = (   3.2902397   2.9772104   9.1609358  )
         8           Ti1 tau(   8) = (   0.0010196   1.4885865   9.2625561  )
         9           O1  tau(   9) = (   3.2874610   5.9478699  11.3850486  )
        10           O1  tau(  10) = (  -0.0006349   5.9563581  10.6153388  )
        11           O1  tau(  11) = (   1.2868896   1.4834402  12.6680658  )
        12           O1  tau(  12) = (   5.2908223   1.4836593  12.6655490  )
        13           Ti1 tau(  13) = (   6.5792216   2.9637994  12.5108396  )
        14           Ti1 tau(  14) = (   3.2872924   1.4828354  12.5328918  )
        15           O1  tau(  15) = (   6.5775898   5.9602214  14.6794977  )
        16           O1  tau(  16) = (   3.2911645   5.9484046  14.0186861  )
        17           O1  tau(  17) = (   4.5572572   1.4909299  16.1957195  )
        18           O1  tau(  18) = (   2.0242865   1.4896983  16.1935382  )
        19           Ti1 tau(  19) = (   3.2909568   2.9612150  15.7783195  )
        20           Ti1 tau(  20) = (   0.0018907   1.3497597  15.9430191  )
        21           O1  tau(  21) = (   3.2904802   0.0005063   4.7018136  )
        22           O1  tau(  22) = (   6.5788559   5.9465848  17.2163718  )
        23           O1  tau(  23) = (   1.3043587   1.4918075   6.0039043  )
        24           O1  tau(  24) = (   5.2767064   1.4903225   6.0039473  )
        25           Ti1 tau(  25) = (   0.0000382   5.9609847   6.0000000  )
        26           Ti1 tau(  26) = (   3.2902200   4.4714249   6.0002472  )
        27           O1  tau(  27) = (   0.0002396   2.9813036   7.9858123  )
        28           O1  tau(  28) = (   3.2902150   2.9813002   7.3038282  )
        29           O1  tau(  29) = (   4.5938453   4.4726049   9.2879030  )
        30           O1  tau(  30) = (   1.9864658   4.4711199   9.2879459  )
        31           Ti1 tau(  31) = (   3.2900349   5.9570996   9.1590810  )
        32           Ti1 tau(  32) = (   0.0005996   4.4698349   9.2623310  )
        33           O1  tau(  33) = (   3.2879276   2.9736480  11.3791099  )
        34           O1  tau(  34) = (   0.0008145   2.9783322  10.6326231  )
        35           O1  tau(  35) = (   1.2867537   4.4552519  12.6790197  )
        36           O1  tau(  36) = (   5.2902498   4.4547069  12.6766322  )
        37           Ti1 tau(  37) = (   6.5749508   5.9445808  12.4884525  )
        38           Ti1 tau(  38) = (   3.2867962   4.4607292  12.5408946  )
        39           O1  tau(  39) = (   6.5777017   2.9683702  14.9693108  )
        40           O1  tau(  40) = (   3.2900278   2.9591804  13.9828287  )
        41           O1  tau(  41) = (   4.5561734   4.4390286  16.1885664  )
        42           O1  tau(  42) = (   2.0233790   4.4400503  16.1833356  )
        43           Ti1 tau(  43) = (   3.2919679   5.9419976  15.8222359  )
        44           Ti1 tau(  44) = (   0.0010089   4.6035546  15.9414631  )
        45           O1  tau(  45) = (   3.2900926   2.9813045   4.7018136  )
        46           O1  tau(  46) = (   1.3039711   4.4726057   6.0039043  )
        47           O1  tau(  47) = (   5.2763189   4.4711207   6.0039473  )
        48           N1  tau(  48) = (   0.1219487   2.9133710  19.5731964  )
        49           N1  tau(  49) = (   0.0643301   2.9362600  18.4639798  )

     number of k points=    10  Fermi-Dirac smearing, width (Ry)=  0.0073
                       cart. coord. in units 2pi/alat
        k(    1) = (   0.0000000   0.0000000   0.0000000), wk =   0.1250000
        k(    2) = (   0.0000000   0.0419351   0.0000000), wk =   0.2500000
        k(    3) = (   0.0000000  -0.0838702   0.0000000), wk =   0.1250000
        k(    4) = (   0.0379955   0.0000049   0.0000000), wk =   0.2500000
        k(    5) = (   0.0379955   0.0419400   0.0000000), wk =   0.2500000
        k(    6) = (   0.0379955  -0.0838652   0.0000000), wk =   0.2500000
        k(    7) = (   0.0379955  -0.0419301   0.0000000), wk =   0.2500000
        k(    8) = (  -0.0759910  -0.0000099   0.0000000), wk =   0.1250000
        k(    9) = (  -0.0759910   0.0419252   0.0000000), wk =   0.2500000
        k(   10) = (  -0.0759910  -0.0838800   0.0000000), wk =   0.1250000

     Initial potential from superposition of free atoms

     starting charge  371.99923, renormalised to  388.00000

     negative rho (up, down):  1.859E-02 0.000E+00

     %%%%%%%%%%%%%%%%%%%%%%%%%%%%%%%%%%%%%%%%%%%%%%%%%%%%%%%%%%%%%%%%%%%%%%%%
     %                                                                      %
     % You are using vdW-DF, which was implemented by the Thonhauser group. %
     % Please cite the following two papers that made this development      %
     % possible and the two reviews that describe the various versions:     %
     %                                                                      %
     %   T. Thonhauser et al., PRL 115, 136402 (2015).                      %
     %   T. Thonhauser et al., PRB 76, 125112 (2007).                       %
     %   K. Berland et al., Rep. Prog. Phys. 78, 066501 (2015).             %
     %   D.C. Langreth et al., J. Phys.: Condens. Matter 21, 084203 (2009). %
     %                                                                      %
     %                                                                      %
     % If you are calculating the stress with vdW-DF, please also cite:     %
     %                                                                      %
     %   R. Sabatini et al., J. Phys.: Condens. Matter 24, 424209 (2012).   %
     %                                                                      %
     %%%%%%%%%%%%%%%%%%%%%%%%%%%%%%%%%%%%%%%%%%%%%%%%%%%%%%%%%%%%%%%%%%%%%%%%

     Adding external electric field

[...]
     atom    7 type  1   force =     0.00016257   -0.00016671   -0.00228004
     atom    8 type  1   force =    -0.00003996    0.00148470   -0.00057373
     atom    9 type  2   force =     0.00009303    0.00064285    0.00376304
     atom   10 type  2   force =     0.00003950    0.00022078   -0.00060182
     atom   11 type  2   force =    -0.00083610   -0.00007777    0.00025739
     atom   12 type  2   force =     0.00097275   -0.00016123    0.00036232
     atom   13 type  1   force =     0.00010208    0.00057512   -0.00198805
     atom   14 type  1   force =    -0.00015914   -0.00041368   -0.00196189
     atom   15 type  2   force =     0.00009603   -0.00149579    0.00476538
     atom   16 type  2   force =    -0.00010308    0.00002770    0.00120599
     atom   17 type  2   force =    -0.00149825    0.00037074   -0.00093989
     atom   18 type  2   force =     0.00139698    0.00057237   -0.00087583
     atom   19 type  1   force =     0.00026199   -0.00063674   -0.00077536
     atom   20 type  1   force =    -0.00017506   -0.00132874    0.00009334
     atom   21 type  2   force =     0.00006933    0.00015947    0.10490497
     atom   22 type  2   force =     0.00029219   -0.00105077   -0.00259300
     atom   23 type  2   force =    -0.06828616   -0.00016115   -0.02650079
     atom   24 type  2   force =     0.06821052    0.00027424   -0.02654003
     atom   25 type  1   force =     0.00007599    0.00005922    0.09173666
     atom   26 type  1   force =    -0.00008823   -0.00039663   -0.18275183
     atom   27 type  2   force =     0.00005751   -0.00072554   -0.02141281
     atom   28 type  2   force =     0.00000182   -0.00006225    0.05271177
     atom   29 type  2   force =    -0.01337372   -0.00056671    0.00568756
     atom   30 type  2   force =     0.01319474   -0.00002961    0.00554676
     atom   31 type  1   force =     0.00014485    0.00019850   -0.00201248
     atom   32 type  1   force =    -0.00003756   -0.00145134   -0.00050642
     atom   33 type  2   force =     0.00006743   -0.00035620    0.00345520
     atom   34 type  2   force =    -0.00005153   -0.00001457    0.00039070
     atom   35 type  2   force =    -0.00125905    0.00043690   -0.00076816
     atom   36 type  2   force =     0.00135420    0.00051546   -0.00066276
     atom   37 type  1   force =     0.00022031    0.00007065   -0.00177151
     atom   38 type  1   force =    -0.00012369    0.00006374   -0.00258674
     atom   39 type  2   force =     0.00013557   -0.00002863    0.00313389
     atom   40 type  2   force =     0.00002935    0.00108043    0.00149208
     atom   41 type  2   force =    -0.00072041    0.00031314   -0.00041303
     atom   42 type  2   force =     0.00078008    0.00021023    0.00006686
     atom   43 type  1   force =    -0.00006906    0.00076658   -0.00144842
     atom   44 type  1   force =    -0.00011323    0.00139192   -0.00084433
     atom   45 type  2   force =     0.00006387    0.00014099    0.10483926
     atom   46 type  2   force =    -0.06828531   -0.00012805   -0.02648937
     atom   47 type  2   force =     0.06820665    0.00030438   -0.02652767
     atom   48 type  3   force =    -0.00232408    0.00139451   -0.04239497
     atom   49 type  3   force =     0.00155682   -0.00087810    0.04034717

     Total force =     0.371619     Total SCF correction =     0.000808
  @ DRIVER MODE: Message from server: STATUS
  @ DRIVER MODE: Message from server: GETFORCE
  @ DRIVER MODE: Returning v,forces,stress,ensemble

     Writing config to output data dir ./calc.save/
  @ DRIVER MODE: Message from server: STATUS
  @ DRIVER MODE: Message from server: INIT
  @ DRIVER MODE: Receiving replica           0           0
  @ DRIVER MODE: Receiving encoded integer          25
  @ DRIVER MODE:  SCF:  T  FORCE:  T  STRESS:  F  VC:  F  ENSEMBLE:  F
  @ DRIVER MODE:  SCF:  T  FORCE:  T  STRESS:  F  VC:  F  ENSEMBLE:  F
  @ DRIVER MODE: Message from server: STATUS
  @ DRIVER MODE: Message from server: POSDATA
  @ DRIVER MODE: Reading and sharing positions
  @ DRIVER MODE: Received positions
     NEW-OLD atomic charge density approx. for the potential

[...]

     Self-consistent Calculation

[...]

     iteration # 14     ecut=    29.40 Ry     beta= 0.05
     Davidson diagonalization with overlap
     ethr =  5.76E-11,  avg # of iterations =  7.5

[...]

     total energy              =   -2924.04892445 Ry
     estimated scf accuracy    <       0.00000008 Ry

     iteration # 15     ecut=    29.40 Ry     beta= 0.05
     Davidson diagonalization with overlap
     c_bands:  1 eigenvalues not converged
     ethr =  2.02E-11,  avg # of iterations =  7.4

[...]

     End of self-consistent calculation

[...]

          k = 0.0380-0.0419 0.0000 ( 17876 PWs)   bands (ev):

[...]

          k =-0.0760-0.0839 0.0000 ( 17948 PWs)   bands (ev):

   -55.8857 -55.8852 -55.8411 -55.8397 -55.7826 -55.7615 -55.7554 -55.7255
   -55.7231 -55.7230 -55.7086 -55.6742 -55.6672 -55.6671 -54.9511 -54.9511
   -32.3393 -32.2716 -32.2707 -32.1772 -32.1741 -32.1728 -32.1571 -32.1340
   -32.1320 -32.1036 -32.1022 -32.0998 -32.0926 -32.0501 -32.0441 -32.0427
   -32.0402 -32.0387 -32.0286 -32.0237 -32.0228 -32.0108 -32.0006 -31.9881
   -31.9834 -31.9832 -31.9809 -31.9788 -31.9592 -31.9582 -31.9551 -31.9476
   -31.9214 -31.9198 -31.9044 -31.8960 -31.8957 -31.8906 -31.8763 -31.8531
   -31.8523 -31.8468 -31.2678 -31.2678 -31.1937 -31.1936 -31.1540 -31.1539
   -21.8228 -16.4115 -16.1045 -16.0643 -15.9497 -15.9447 -15.8637 -15.8481
   -15.7421 -15.6968 -15.6867 -15.6855 -15.6245 -15.6219 -15.6020 -15.5906
   -15.5174 -15.5064 -15.4824 -15.4790 -15.4218 -15.4176 -15.4161 -15.4119
   -15.3743 -15.3737 -15.3381 -15.3350 -15.2159 -15.0485 -13.4503 -13.4502
    -7.2633  -4.9614  -4.9605  -3.9850  -3.4415  -3.3771  -3.3228  -3.1715
    -3.0942  -3.0832  -3.0376  -3.0081  -2.9345  -2.8988  -2.8984  -2.8165
    -2.8067  -2.8014  -2.8000  -2.7323  -2.7191  -2.6890  -2.6730  -2.6210
    -2.6205  -2.5985  -2.5947  -2.5796  -2.5706  -2.5516  -2.5453  -2.5160
    -2.4859  -2.4312  -2.4229  -2.2835  -2.2728  -2.2175  -2.1426  -2.1395
    -2.0575  -2.0427  -2.0065  -1.9751  -1.9100  -1.8946  -1.7255  -1.7046
    -1.7011  -1.6404  -1.5527  -1.5298  -1.4820  -1.4629  -1.4111  -1.3570
    -1.2534  -1.2270  -1.2070  -1.1001  -1.0926  -1.0281  -0.9422  -0.9010
    -0.8992  -0.8946  -0.8710  -0.8509  -0.8488  -0.7471  -0.6964  -0.6488
    -0.6379  -0.6253  -0.4248  -0.3686  -0.3412  -0.2345  -0.1916   0.0046
     0.0123   0.0393   0.1550   0.1557   0.1615   0.2214   0.3480   0.3531
     0.4233   0.4648   0.4928   0.5162   0.5184   1.4069   1.4079   1.5152
     1.5157   3.3527   3.4341   3.4515   3.5085   3.6380   3.6456   3.7004
     3.7389   3.7471   3.7477   3.8336

     the Fermi energy is     3.2563 ev

!    total energy              =   -2924.04892566 Ry
     estimated scf accuracy    <       0.00000005 Ry
     smearing contrib. (-TS)   =      -0.03676891 Ry
     internal energy E=F+TS    =   -2924.01215675 Ry

     The total energy is F=E-TS. E is the sum of the following terms:
     one-electron contribution =  -24117.06710821 Ry
     hartree contribution      =   12140.96575207 Ry
     xc contribution           =    -479.17668391 Ry
     ewald contribution        =    9531.26495699 Ry
     electric field correction =       0.00092631 Ry

     convergence has been achieved in  15 iterations

     Forces acting on atoms (cartesian axes, Ry/au):

     atom    1 type  1   force =     0.00005814    0.00004222    0.09025489
     atom    2 type  1   force =    -0.00002897    0.00038347   -0.18450895
     atom    3 type  2   force =     0.00007438   -0.00045568   -0.02390032
     atom    4 type  2   force =     0.00001926   -0.00008878    0.05158903
     atom    5 type  2   force =    -0.01360075   -0.00063572    0.00573996
     atom    6 type  2   force =     0.01347085   -0.00016116    0.00564744
     atom    7 type  1   force =     0.00011776   -0.00004469    0.00101823
     atom    8 type  1   force =     0.00002066    0.00010325    0.00022307
     atom    9 type  2   force =     0.00005966    0.00012420   -0.00042668
     atom   10 type  2   force =     0.00000198    0.00009069    0.00077667
     atom   11 type  2   force =    -0.00001011    0.00023028    0.00001386
     atom   12 type  2   force =    -0.00000096    0.00023126    0.00010024
     atom   13 type  1   force =     0.00003182    0.00029969   -0.00067666
     atom   14 type  1   force =    -0.00006448    0.00011782   -0.00107772
     atom   15 type  2   force =     0.00009344   -0.00039429   -0.00042819
     atom   16 type  2   force =    -0.00005921    0.00021792   -0.00021831
     atom   17 type  2   force =    -0.00016307   -0.00015084    0.00018079
     atom   18 type  2   force =     0.00024388   -0.00019895    0.00022738
     atom   19 type  1   force =     0.00012548    0.00005270    0.00067519
     atom   20 type  1   force =    -0.00006760    0.00016367    0.00187395
     atom   21 type  2   force =     0.00006978    0.00014795    0.10521794
     atom   22 type  2   force =     0.00001924    0.00005107   -0.00098694
     atom   23 type  2   force =    -0.06755727   -0.00011734   -0.02616537
     atom   24 type  2   force =     0.06748078    0.00031994   -0.02620821
     atom   25 type  1   force =     0.00007434    0.00005641    0.09055706
     atom   26 type  1   force =    -0.00007809   -0.00032557   -0.18444183
     atom   27 type  2   force =     0.00006377   -0.00049224   -0.02272334
     atom   28 type  2   force =     0.00002123   -0.00008446    0.05141889
     atom   29 type  2   force =    -0.01361321   -0.00058052    0.00567427
     atom   30 type  2   force =     0.01347693   -0.00006375    0.00558602
     atom   31 type  1   force =     0.00008417    0.00009256    0.00084597
     atom   32 type  1   force =     0.00001681   -0.00002048    0.00018249
     atom   33 type  2   force =     0.00006983   -0.00005958   -0.00002912
     atom   34 type  2   force =    -0.00000887   -0.00004316    0.00000721
     atom   35 type  2   force =    -0.00009132    0.00001156   -0.00005181
     atom   36 type  2   force =     0.00010978    0.00001000    0.00002092
     atom   37 type  1   force =     0.00008210    0.00011355    0.00083797
     atom   38 type  1   force =    -0.00006940   -0.00017424   -0.00126983
     atom   39 type  2   force =     0.00009988    0.00029951    0.00001456
     atom   40 type  2   force =     0.00004456    0.00003228    0.00014143
     atom   41 type  2   force =     0.00009978    0.00003950    0.00020491
     atom   42 type  2   force =    -0.00002706    0.00000925    0.00026813
     atom   43 type  1   force =     0.00001654    0.00049065    0.00088210
     atom   44 type  1   force =    -0.00008945   -0.00021561    0.00161464
     atom   45 type  2   force =     0.00006544    0.00014268    0.10517774
     atom   46 type  2   force =    -0.06756463   -0.00018913   -0.02616548
     atom   47 type  2   force =     0.06748410    0.00024106   -0.02620816
     atom   48 type  3   force =    -0.00014954    0.00042628    0.00022222
     atom   49 type  3   force =    -0.00045238   -0.00004525   -0.00170825

     Total force =     0.367148     Total SCF correction =     0.000823
  @ DRIVER MODE: Message from server: STATUS
  @ DRIVER MODE: Message from server: GETFORCE
  @ DRIVER MODE: Returning v,forces,stress,ensemble

     Writing config to output data dir ./calc.save/
  @ DRIVER MODE: Message from server: STATUS
  @ DRIVER MODE: Message from server: INIT
  @ DRIVER MODE: Receiving replica           0           0
  @ DRIVER MODE: Receiving encoded integer           2
  @ DRIVER MODE:  SCF:  T  FORCE:  T  STRESS:  F  VC:  F  ENSEMBLE:  F
  @ DRIVER MODE:  SCF:  F  FORCE:  F  STRESS:  F  VC:  F  ENSEMBLE:  T
  @ DRIVER MODE: Message from server: STATUS
  @ DRIVER MODE: Message from server: POSDATA
  @ DRIVER MODE: Reading and sharing positions
  @ DRIVER MODE: Received positions
     NEW-OLD atomic charge density approx. for the potential

[...]

     Adding external electric field

     Computed dipole along edir(3) :
        Dipole                0.7006 Ry au,          1.7808 Debye
        Dipole field          0.0013 Ry au,

        Potential amp.       -0.1226 Ry
        Total length         46.3494 bohr

  @ DRIVER MODE: BEEF-vdw

[...]

     negative rho (up, down):  1.840E-02 0.000E+00

     negative rho (up, down):  1.840E-02 0.000E+00
 BEEFens 2000 ensemble energies
             -0.343974354480889E+02
             -0.201046952513984E+01
             -0.709743892523254E+01
              0.238754734471349E+02
             -0.118317599062073E+02
             -0.914566062949643E+01
             -0.238520485574631E+02
             -0.499078871684081E+02
             -0.213415914572465E+02
             -0.224501190416455E+02
             -0.208327503010561E+02
              0.422506281292626E+01
              0.198068529423008E+01
             -0.104131923613808E+01
              0.170971467234369E+01
              0.263059256373201E+02
             -0.101340248379706E+02
             -0.717575708400108E+01
              0.116357585584490E+02
             -0.614540026793386E+02
              0.307913539816746E+02
             -0.132334377126754E+02
             -0.238199662911189E+01
             -0.556115509318772E+01
             -0.983535132954330E+00
             -0.212510847123697E+01
              0.476529050070264E+02
             -0.149051453359904E+02
             -0.398950906871374E+01
             -0.301234682508096E+02
              0.389692120351251E+02
             -0.433459317857096E+01
             -0.211831854586050E+02
              0.111593603997827E+02
             -0.204205860829424E+01
              0.128902464056948E+02
             -0.551644654501899E+00
              0.274235504384579E+01
              0.187586605358710E+02
             -0.542369676217589E+02
              0.302102673429781E+02
              0.807208646685650E+01
             -0.620318090442152E+01
             -0.173588364076712E+02
              0.684450509460052E+01
             -0.108658824587295E+02
              0.246801957297573E+02
              0.197505367911811E+02
             -0.127409988533785E+02
             -0.162414167748523E+02
             -0.171592843774573E+02
             -0.206357823032519E+02
              0.104501583817392E+02
             -0.268713400195304E+02
              0.822463662309883E+01
              0.343552756119992E+02
              0.395696986137414E+02
              0.184550536015040E+02
              0.824064830184975E+01
              0.171974195495532E+02
[...]
             -0.404767389547538E+02
              0.274859219748458E+01
             -0.144414416224211E+01
             -0.563738285978991E+01
              0.520389404501884E-01
             -0.360490359250434E+02
             -0.698631391103271E+01
              0.486823214983468E+01
              0.734785715358839E+01
              0.269949470982504E+02
             -0.236022991082343E+02
              0.308385885427260E+02
             -0.220634680011826E+02
              0.141667182398679E+02
              0.223120176662128E+02

 BEEF-vdW xc energy contributions
           1 :   -406.108949411719
           2 :    353.831638708313
           3 :   -269.526029664174
           4 :    181.582011202612
           5 :   -112.531931215068
           6 :    71.2512249901032
           7 :   -53.9921538703591
           8 :    50.8339524709898
           9 :   -52.4810922306211
          10 :    53.7659804162282
          11 :   -53.4348725242013
          12 :    51.9758315522615
          13 :   -49.7714157178874
          14 :    46.5900553466470
          15 :   -42.1185371275190
          16 :    36.5953757194410
          17 :   -30.9498507227742
          18 :    26.3677090255134
          19 :   -23.6787873692016
          20 :    22.9935682440087
          21 :   -23.7926009820303
          22 :    25.2985794725349
          23 :   -26.8108387325528
          24 :    27.8117944904296
          25 :   -27.9511907764755
          26 :    27.0429862241021
          27 :   -25.1037088653112
          28 :    22.3894141861116
          29 :   -19.3914687517394
          30 :    16.7329199193679
          31 :   -47.5966900658190
          32 :   -32.3014764343727
  @ DRIVER MODE: Message from server: STATUS
  @ DRIVER MODE: Message from server: GETFORCE
  @ DRIVER MODE: Returning v,forces,stress,ensemble
  @ DRIVE MODE: Returning Ensemble Energies

     Writing config to output data dir ./calc.save/
  @ DRIVER MODE: Message from server: EXIT
  @ DRIVE MODE: Exiting

     General routines

     Parallel routines

   This run was terminated on:  13: 1:59  27Oct2021

   JOB DONE.