     Program PWSCF v.6.7GPU starts on 22Sep2021 at 19:19:59

     R & G space division:  proc/nbgrp/npool/nimage =      10
     Reading input from /storage/home/hcoda1/3/ntian30/research/carbon/CxH_vib/CH_calc/ads_slab/CHN2OH_a/out_0026/pw.inp
Warning: card &CELL ignored
Warning: card   CELL_DYNAMICS='IPI', ignored
Warning: card / ignored

     Current dimensions of program PWSCF are:
     Max number of different atomic species (ntypx) = 10
     Max number of k-points (npk) =  40000
     Max angular momentum in pseudopotentials (lmaxx) =  3
     Presently no symmetry can be used with electric field

     Message from routine cell_base_init:
     DEPRECATED: use true lattice parameter, not A to a.u. conversion factor

     IMPORTANT: XC functional enforced from input :
     Exchange-correlation= BEEF-VDW
                           (   1   4  43  14   2   0   0)
     Any further DFT definition will be discarded
     Please, verify this is what you really want

  @ DRIVER MODE: Connecting to
 qe_1139763_2934093.sched-torque.pace.gatech.edu662ftket_scratch
  using UNIX socket
  @ DRIVER MODE: Message from server: STATUS
  @ DRIVER MODE: Message from server: INIT
  @ DRIVER MODE: Receiving replica           0          -1
  @ DRIVER MODE: Receiving encoded integer          25
  @ DRIVER MODE:  SCF:  T  FORCE:  T  STRESS:  F  VC:  F  ENSEMBLE:  F
  @ DRIVER MODE:  SCF:  T  FORCE:  T  STRESS:  F  VC:  F  ENSEMBLE:  F

     Using Slab Decomposition

     bravais-lattice index     =            0
     lattice parameter (alat)  =       1.8897  a.u.
     unit-cell volume          =    6658.9804 (a.u.)^3
     number of atoms/cell      =           53
     number of atomic types    =            5
     number of electrons       =       400.00
     number of Kohn-Sham states=          210
     kinetic-energy cutoff     =      29.3995  Ry
     charge density cutoff     =     293.9946  Ry
     scf convergence threshold =      7.3E-08
     mixing beta               =       0.0500
     number of iterations used =            8  plain     mixing
     Exchange-correlation= BEEF-VDW
                           (   1   4  43  14   2   0   0)

     celldm(1)=   1.889726  celldm(2)=   0.000000  celldm(3)=   0.000000
     celldm(4)=   0.000000  celldm(5)=   0.000000  celldm(6)=   0.000000

     crystal axes: (cart. coord. in units of alat)
               a(1) = (   6.579727   0.000000   0.000000 )
               a(2) = (  -0.000775   5.961596   0.000000 )
               a(3) = (   0.000000   0.000000  25.155947 )

     reciprocal axes: (cart. coord. in units 2 pi/alat)
               b(1) = (  0.151982  0.000020  0.000000 )
               b(2) = (  0.000000  0.167740  0.000000 )
               b(3) = (  0.000000  0.000000  0.039752 )

     PseudoPot. # 1 for Ti read from file:
     /storage/coda1/p-amedford6/0/shared/rich_project_chbe-medford/medford-share/data/pseudos_module/espresso/nninc/pbe/van/Ti.UPF
     MD5 check sum: 8e4df49b7f0d34bbd5052bf3f5ea0213
     Pseudo is Ultrasoft, Zval = 12.0
     Generated by new atomic code, or converted to UPF format
     Using radial grid of  851 points,  6 beta functions with:
                l(1) =   0
                l(2) =   0
                l(3) =   1
                l(4) =   1
                l(5) =   2
                l(6) =   2
     Q(r) pseudized with  8 coefficients,  rinner =    1.000   1.000   1.000
                                                       1.000   1.000

     PseudoPot. # 2 for O  read from file:
     /storage/coda1/p-amedford6/0/shared/rich_project_chbe-medford/medford-share/data/pseudos_module/espresso/nninc/pbe/van/O.UPF
     MD5 check sum: 78c19812648e8988a0fe644b0f25305e
     Pseudo is Ultrasoft, Zval =  6.0
     Generated by new atomic code, or converted to UPF format
     Using radial grid of  737 points,  4 beta functions with:
                l(1) =   0
                l(2) =   0
                l(3) =   1
                l(4) =   1
     Q(r) pseudized with  8 coefficients,  rinner =    0.800   0.800   0.800

     PseudoPot. # 3 for N  read from file:
     /storage/coda1/p-amedford6/0/shared/rich_project_chbe-medford/medford-share/data/pseudos_module/espresso/nninc/pbe/van/N.UPF
     MD5 check sum: 90d10febe142ad51ac9d5be1deb811c4
     Pseudo is Ultrasoft, Zval =  5.0
     Generated by new atomic code, or converted to UPF format
     Using radial grid of  729 points,  4 beta functions with:
                l(1) =   0
                l(2) =   0
                l(3) =   1
                l(4) =   1
     Q(r) pseudized with  8 coefficients,  rinner =    0.800   0.800   0.800

     PseudoPot. # 4 for C  read from file:
     /storage/coda1/p-amedford6/0/shared/rich_project_chbe-medford/medford-share/data/pseudos_module/espresso/nninc/pbe/van/C.UPF
     MD5 check sum: 1a69bf6b8db32088f5b2163dbdb77a27
     Pseudo is Ultrasoft, Zval =  4.0
     Generated by new atomic code, or converted to UPF format
     Using radial grid of  721 points,  4 beta functions with:
                l(1) =   0
                l(2) =   0
                l(3) =   1
                l(4) =   1
     Q(r) pseudized with  8 coefficients,  rinner =    0.800   0.800   0.800

     PseudoPot. # 5 for H  read from file:
     /storage/coda1/p-amedford6/0/shared/rich_project_chbe-medford/medford-share/data/pseudos_module/espresso/nninc/pbe/van/H.UPF
     MD5 check sum: b5ee9d7bfd3a09ee7748110bda690ff7
     Pseudo is Ultrasoft, Zval =  1.0
     Generated by new atomic code, or converted to UPF format
     Using radial grid of  615 points,  1 beta functions with:
                l(1) =   0
     Q(r) pseudized with  8 coefficients,  rinner =    0.800

     atomic species   valence    mass     pseudopotential
        Ti1           12.00    47.86700     Ti( 1.00)
        O1             6.00    15.99900     O ( 1.00)
        N1             5.00    14.00700     N ( 1.00)
        C1             4.00    12.01100     C ( 1.00)
        H1             1.00     1.00800     H ( 1.00)

     No symmetry found

   Cartesian axes

     site n.     atom                  positions (alat units)
         1           Ti1 tau(   1) = (   0.0004258   2.9801865   6.0000000  )
         2           Ti1 tau(   2) = (   3.2906075   1.4906267   6.0002472  )
         3           O1  tau(   3) = (   0.0006271   0.0005054   7.9858123  )
         4           O1  tau(   4) = (   3.2906025   0.0005020   7.3038282  )
         5           O1  tau(   5) = (   4.5942328   1.4918067   9.2879030  )
         6           O1  tau(   6) = (   1.9868534   1.4903216   9.2879459  )
         7           Ti1 tau(   7) = (   3.2907910   2.8959150   9.1758416  )
         8           Ti1 tau(   8) = (   0.0015273   1.4827037   9.2680791  )
         9           O1  tau(   9) = (   3.2947431   5.9554071  11.2675382  )
        10           O1  tau(  10) = (   0.0116148   5.9584955  10.6183126  )
        11           O1  tau(  11) = (   1.2939190   1.5012022  12.6324650  )
        12           O1  tau(  12) = (   5.3075194   1.4952059  12.6199201  )
        13           Ti1 tau(  13) = (   0.0106221   2.8553259  12.7114016  )
        14           Ti1 tau(  14) = (   3.3038960   1.3182849  12.6556579  )
        15           O1  tau(  15) = (   6.5780848   0.0092190  14.6493773  )
        16           O1  tau(  16) = (   3.3025004   0.0387551  13.8658611  )
        17           O1  tau(  17) = (   4.5583283   1.5306594  16.0644060  )
        18           O1  tau(  18) = (   2.0361898   1.5392772  16.0217891  )
        19           Ti1 tau(  19) = (   3.3091865   3.0111069  15.6373089  )
        20           Ti1 tau(  20) = (   0.0377650   1.3505479  16.0707495  )
        21           O1  tau(  21) = (   3.2904802   0.0005063   4.7018136  )
        22           O1  tau(  22) = (   0.0439016   5.9493915  17.1867805  )
        23           O1  tau(  23) = (   1.3043587   1.4918075   6.0039043  )
        24           O1  tau(  24) = (   5.2767064   1.4903225   6.0039473  )
        25           Ti1 tau(  25) = (   0.0000382   5.9609847   6.0000000  )
        26           Ti1 tau(  26) = (   3.2902200   4.4714249   6.0002472  )
        27           O1  tau(  27) = (   0.0002396   2.9813036   7.9858123  )
        28           O1  tau(  28) = (   3.2902150   2.9813002   7.3038282  )
        29           O1  tau(  29) = (   4.5938453   4.4726049   9.2879030  )
        30           O1  tau(  30) = (   1.9864658   4.4711199   9.2879459  )
        31           Ti1 tau(  31) = (   3.2891106   5.8743827   9.1763621  )
        32           Ti1 tau(  32) = (   0.0006254   4.4649316   9.2693709  )
        33           O1  tau(  33) = (   3.2958776   3.0336607  11.2353185  )
        34           O1  tau(  34) = (   0.0092240   2.9805883  10.6323155  )
        35           O1  tau(  35) = (   1.3000586   4.4853303  12.6229424  )
        36           O1  tau(  36) = (   5.2993189   4.4901910  12.6110906  )
        37           Ti1 tau(  37) = (   0.0093010   5.8444503  12.6145921  )
        38           Ti1 tau(  38) = (   3.2999333   4.4129019  12.4053696  )
        39           O1  tau(  39) = (   6.5685983   3.0141634  14.6646344  )
        40           O1  tau(  40) = (   3.3157979   2.9893391  13.8470085  )
        41           O1  tau(  41) = (   4.5469136   4.4558096  16.0384726  )
        42           O1  tau(  42) = (   2.0285042   4.4377151  15.9822253  )
        43           Ti1 tau(  43) = (   3.3362675   0.0317196  16.2890182  )
        44           Ti1 tau(  44) = (   0.0499865   4.4862307  15.8577502  )
        45           O1  tau(  45) = (   3.2900926   2.9813045   4.7018136  )
        46           O1  tau(  46) = (   1.3039711   4.4726057   6.0039043  )
        47           O1  tau(  47) = (   5.2763189   4.4711207   6.0039473  )
        48           N1  tau(  48) = (   0.0045878   3.1533891  18.5964175  )
        49           N1  tau(  49) = (   0.0147781   3.0160983  17.3860304  )
        50           C1  tau(  50) = (   0.1535999   3.3096653  19.7680592  )
        51           H1  tau(  51) = (   6.1193577   3.4501394  20.6313668  )
        52           O1  tau(  52) = (   3.1801150   5.9596689  18.1025665  )
        53           H1  tau(  53) = (   2.2867615   0.0439400  18.5018857  )

     number of k points=    10  Fermi-Dirac smearing, width (Ry)=  0.0073
                       cart. coord. in units 2pi/alat
        k(    1) = (   0.0000000   0.0000000   0.0000000), wk =   0.1250000
        k(    2) = (   0.0000000   0.0419351   0.0000000), wk =   0.2500000
        k(    3) = (   0.0000000  -0.0838702   0.0000000), wk =   0.1250000
        k(    4) = (   0.0379955   0.0000049   0.0000000), wk =   0.2500000
        k(    5) = (   0.0379955   0.0419400   0.0000000), wk =   0.2500000
        k(    6) = (   0.0379955  -0.0838652   0.0000000), wk =   0.2500000
        k(    7) = (   0.0379955  -0.0419301   0.0000000), wk =   0.2500000
        k(    8) = (  -0.0759910  -0.0000099   0.0000000), wk =   0.1250000
        k(    9) = (  -0.0759910   0.0419252   0.0000000), wk =   0.2500000
        k(   10) = (  -0.0759910  -0.0838800   0.0000000), wk =   0.1250000

     Initial potential from superposition of free atoms

     starting charge  383.99917, renormalised to  400.00000

     negative rho (up, down):  1.461E-02 0.000E+00

     %%%%%%%%%%%%%%%%%%%%%%%%%%%%%%%%%%%%%%%%%%%%%%%%%%%%%%%%%%%%%%%%%%%%%%%%
     %                                                                      %
     % You are using vdW-DF, which was implemented by the Thonhauser group. %
     % Please cite the following two papers that made this development      %
     % possible and the two reviews that describe the various versions:     %
     %                                                                      %
     %   T. Thonhauser et al., PRL 115, 136402 (2015).                      %
     %   T. Thonhauser et al., PRB 76, 125112 (2007).                       %
     %   K. Berland et al., Rep. Prog. Phys. 78, 066501 (2015).             %
     %   D.C. Langreth et al., J. Phys.: Condens. Matter 21, 084203 (2009). %
     %                                                                      %
     %                                                                      %
     % If you are calculating the stress with vdW-DF, please also cite:     %
     %                                                                      %
     %   R. Sabatini et al., J. Phys.: Condens. Matter 24, 424209 (2012).   %
     %                                                                      %
     %%%%%%%%%%%%%%%%%%%%%%%%%%%%%%%%%%%%%%%%%%%%%%%%%%%%%%%%%%%%%%%%%%%%%%%%

     Adding external electric field

     Computed dipole along edir(3) :
        Dipole              -10.4151 Ry au,        -26.4725 Debye
        Dipole field         -0.0197 Ry au,

        Potential amp.        1.8220 Ry
        Total length         46.3494 bohr

     Starting wfcs are  302 atomic wfcs
  @ DRIVER MODE: Message from server: STATUS
  @ DRIVER MODE: Message from server: POSDATA
  @ DRIVER MODE: Reading and sharing cell
  @ DRIVER MODE: Reading and sharing positions
  @ DRIVER MODE: Received positions

     Self-consistent Calculation

     iteration #  1     ecut=    29.40 Ry     beta= 0.05
     Davidson diagonalization with overlap
     c_bands:  1 eigenvalues not converged
     c_bands:  1 eigenvalues not converged
     c_bands:  1 eigenvalues not converged
     c_bands:  1 eigenvalues not converged
     c_bands:  3 eigenvalues not converged
     c_bands:  2 eigenvalues not converged
     c_bands:  3 eigenvalues not converged
     c_bands:  2 eigenvalues not converged
     c_bands:  4 eigenvalues not converged
     c_bands:  2 eigenvalues not converged
     ethr =  1.00E-05,  avg # of iterations = 20.0

[...]

     total energy              =   -2482.24564393 Ry
     estimated scf accuracy    <    5431.08326090 Ry

     iteration #  2     ecut=    29.40 Ry     beta= 0.05
     Davidson diagonalization with overlap
     ethr =  1.00E-02,  avg # of iterations = 22.3

[...]

     iteration # 42     ecut=    29.40 Ry     beta= 0.05
     Davidson diagonalization with overlap
     c_bands:  1 eigenvalues not converged
     ethr =  4.49E-07,  avg # of iterations =  8.3

[...]

     total energy              =   -2970.22387298 Ry
     estimated scf accuracy    <       0.00000011 Ry

     iteration # 70     ecut=    29.40 Ry     beta= 0.05
     Davidson diagonalization with overlap
     ethr =  2.63E-11,  avg # of iterations =  4.0

     negative rho (up, down):  1.522E-02 0.000E+00

     Adding external electric field

     Computed dipole along edir(3) :
        Dipole                0.3085 Ry au,          0.7841 Debye
        Dipole field          0.0006 Ry au,

        Potential amp.       -0.0540 Ry
        Total length         46.3494 bohr

     End of self-consistent calculation

          k = 0.0000 0.0000 0.0000 ( 18029 PWs)   bands (ev):

   -56.8421 -56.8085 -56.0013 -55.9662 -55.7420 -55.6776 -55.4112 -55.3867
   -55.3774 -55.3682 -55.3067 -55.2545 -55.2532 -55.2428 -55.0608 -55.0555
   -33.2635 -33.1175 -33.0894 -33.0178 -32.9273 -32.8903 -32.4857 -32.2220
   -32.2199 -32.1913 -32.1423 -32.1403 -32.1116 -31.9736 -31.9615 -31.9091
   -31.8826 -31.8674 -31.8419 -31.7925 -31.7574 -31.7417 -31.7349 -31.7329
   -31.7172 -31.6522 -31.6498 -31.6206 -31.6162 -31.6045 -31.5975 -31.5357
   -31.5234 -31.5056 -31.5032 -31.4785 -31.4749 -31.4580 -31.4454 -31.4240
   -31.4177 -31.3959 -31.3214 -31.3062 -31.3042 -31.2739 -31.2700 -31.2601
   -19.0034 -16.9632 -16.4391 -16.1697 -16.1430 -16.0750 -16.0473 -16.0358
   -15.9528 -15.7608 -15.6990 -15.6269 -15.6044 -15.5111 -15.3863 -15.2898
   -15.1607 -15.0857 -15.0216 -15.0124 -15.0025 -14.9820 -14.8679 -14.8651
   -14.8592 -14.8168 -14.7711 -14.6125 -14.5253 -14.3655 -14.3296 -13.9087
   -13.8013 -13.6279  -6.2847  -5.0475  -4.5326  -3.9459  -3.9115  -3.8172
    -3.7380  -3.5725  -3.5678  -3.4387  -3.3723  -3.2486  -3.2380  -3.2220
    -3.1546  -3.1363  -2.9896  -2.9409  -2.9254  -2.8206  -2.7897  -2.6364
    -2.6103  -2.5155  -2.4666  -2.4318  -2.3763  -2.3501  -2.2748  -2.2679
    -2.2490  -2.1618  -2.1611  -2.1289  -2.0497  -2.0377  -1.9686  -1.9205
    -1.8822  -1.8234  -1.7977  -1.7239  -1.7203  -1.6000  -1.5177  -1.4763
    -1.4328  -1.4235  -1.3635  -1.3085  -1.1989  -1.1717  -1.0825  -1.0372
    -1.0243  -0.9746  -0.8855  -0.8562  -0.7881  -0.7159  -0.6979  -0.6115
    -0.5842  -0.5596  -0.4535  -0.4347  -0.3798  -0.3538  -0.3230  -0.3119
    -0.2337  -0.1183  -0.1024  -0.0407   0.0111   0.0404   0.1326   0.2250
     0.2726   0.3224   0.3514   0.3700   0.4467   0.4730   0.4958   0.5475
     0.5769   0.6104   0.6152   0.7196   0.7506   0.8142   0.8719   0.8923
     1.0014   1.0386   1.0963   1.1474   1.1884   1.5307   1.6339   1.8772
     2.4456   2.6121   2.8881   3.0207   3.3454   3.4322   3.4405   3.4464
     3.6840   3.8209

[...]

          k = 0.0380-0.0419 0.0000 ( 17876 PWs)   bands (ev):

[...]

          k =-0.0760-0.0000 0.0000 ( 17886 PWs)   bands (ev):

[...]

          k =-0.0760-0.0839 0.0000 ( 17948 PWs)   bands (ev):

   -56.8258 -56.8246 -55.9890 -55.9784 -55.7371 -55.6823 -55.3948 -55.3936
   -55.3827 -55.3667 -55.3104 -55.2531 -55.2516 -55.2444 -55.0621 -55.0568
   -33.1038 -33.1025 -33.0813 -33.0799 -32.9716 -32.9707 -32.3104 -32.3019
   -32.1840 -32.1719 -32.1691 -32.1621 -32.0443 -32.0006 -31.9670 -31.9577
   -31.9101 -31.9049 -31.7464 -31.7455 -31.7141 -31.6609 -31.6590 -31.6506
   -31.6409 -31.6297 -31.6157 -31.6140 -31.6078 -31.6014 -31.5878 -31.5768
   -31.5760 -31.5735 -31.5462 -31.5207 -31.5065 -31.4944 -31.4609 -31.4529
   -31.4490 -31.4427 -31.4097 -31.3796 -31.3260 -31.2952 -31.2740 -31.2627
   -19.0008 -16.3293 -16.3266 -16.2713 -16.2697 -16.1175 -16.0300 -16.0244
   -15.7767 -15.7469 -15.5515 -15.5113 -15.4621 -15.4085 -15.3705 -15.3680
   -15.2296 -15.2178 -15.1144 -15.0353 -15.0133 -14.9813 -14.9698 -14.9483
   -14.9427 -14.8715 -14.7865 -14.7243 -14.7100 -14.5438 -14.4628 -13.9059
   -13.9051 -13.6324  -6.2834  -5.0156  -3.9426  -3.7441  -3.5985  -3.3944
    -3.3921  -3.3871  -3.3792  -3.1502  -3.1397  -2.9658  -2.9594  -2.9336
    -2.8726  -2.8608  -2.7545  -2.6862  -2.6809  -2.6716  -2.6465  -2.6205
    -2.6148  -2.5511  -2.4948  -2.3869  -2.3634  -2.3284  -2.3083  -2.2942
    -2.1748  -2.1483  -2.1371  -2.1081  -2.0928  -2.0801  -2.0436  -2.0184
    -1.8646  -1.8271  -1.7184  -1.7040  -1.6836  -1.6402  -1.6230  -1.6020
    -1.5756  -1.5413  -1.5369  -1.4504  -1.4267  -1.3699  -1.2867  -1.2091
    -1.1609  -1.1482  -1.0867  -1.0352  -0.9253  -0.9008  -0.8653  -0.8457
    -0.8169  -0.7587  -0.7282  -0.6222  -0.5376  -0.5074  -0.4854  -0.4806
    -0.4460  -0.4129  -0.3903  -0.2753  -0.2632  -0.2482  -0.1494  -0.0540
     0.0288   0.0893   0.1048   0.1840   0.2792   0.3236   0.3886   0.4500
     0.4934   0.5096   0.6817   0.7316   0.8538   0.8786   0.9105   0.9726
     0.9869   0.9914   1.0135   1.0228   1.0516   1.1306   1.5531   1.7928
     3.0328   3.0357   3.0919   3.0981   3.4017   3.4051   3.5105   3.5131
     3.7953   3.8068

     the Fermi energy is     2.2212 ev

!    total energy              =   -2970.22390181 Ry
     estimated scf accuracy    <       0.00000005 Ry
     smearing contrib. (-TS)   =      -0.00327209 Ry
     internal energy E=F+TS    =   -2970.22062972 Ry

     The total energy is F=E-TS. E is the sum of the following terms:
     one-electron contribution =  -23874.84229274 Ry
     hartree contribution      =   12028.61159162 Ry
     xc contribution           =    -491.45200150 Ry
     ewald contribution        =    9367.46189328 Ry
     electric field correction =       0.00017961 Ry

     convergence has been achieved in  70 iterations

     Forces acting on atoms (cartesian axes, Ry/au):

     atom    1 type  1   force =     0.00006003   -0.00042192    0.12340205
     atom    2 type  1   force =    -0.00004373    0.00025365   -0.15537181
     atom    3 type  2   force =     0.00000832   -0.00007206   -0.06316999
     atom    4 type  2   force =     0.00000740    0.00024211    0.01791962
     atom    5 type  2   force =    -0.00299504   -0.00167929   -0.01289201
     atom    6 type  2   force =     0.00467442   -0.00105852   -0.01336457
     atom    7 type  1   force =    -0.00007523   -0.00670789    0.05750304
     atom    8 type  1   force =     0.00033090    0.01201479    0.09291622
     atom    9 type  2   force =    -0.00005741   -0.00008709   -0.00015549
     atom   10 type  2   force =    -0.00146741    0.00206141   -0.05862173
     atom   11 type  2   force =    -0.00003784    0.00037477   -0.00009705
     atom   12 type  2   force =    -0.00005633    0.00059683   -0.00003744
     atom   13 type  1   force =    -0.00018894    0.00091082   -0.00021437
     atom   14 type  1   force =    -0.00007211    0.00057347   -0.00036721
     atom   15 type  2   force =     0.00002404   -0.00065508   -0.00050499
     atom   16 type  2   force =    -0.00012737    0.00011773   -0.00130528
     atom   17 type  2   force =     0.00004923   -0.00036946   -0.00054560
     atom   18 type  2   force =    -0.00007381    0.00029208   -0.00016223
     atom   19 type  1   force =     0.00062622   -0.00024218    0.00110584
     atom   20 type  1   force =    -0.00055697    0.00078388    0.00018931
     atom   21 type  2   force =     0.00003222    0.00021417    0.09798338
     atom   22 type  2   force =     0.00060016   -0.00014814    0.00100436
     atom   23 type  2   force =    -0.08222071    0.00004207   -0.03276507
     atom   24 type  2   force =     0.08210146    0.00048148   -0.03283804
     atom   25 type  1   force =     0.00009599   -0.00060264    0.12342138
     atom   26 type  1   force =    -0.00015771   -0.00150701   -0.15593173
     atom   27 type  2   force =     0.00006722   -0.00069193   -0.06138996
     atom   28 type  2   force =     0.00001845    0.00205976    0.01318268
     atom   29 type  2   force =    -0.00127925    0.00546814   -0.01606615
     atom   30 type  2   force =     0.00294584    0.00579999   -0.01651436
     atom   31 type  1   force =    -0.00011484    0.00211924    0.04134103
     atom   32 type  1   force =     0.00052972   -0.01544481    0.09260175
     atom   33 type  2   force =    -0.00021282   -0.00074259   -0.00060309
     atom   34 type  2   force =    -0.00141135    0.00203027   -0.07248758
     atom   35 type  2   force =     0.00017976   -0.00080959    0.00006203
     atom   36 type  2   force =    -0.00022207   -0.00091934    0.00010923
     atom   37 type  1   force =    -0.00023534   -0.00111828   -0.00027479
     atom   38 type  1   force =    -0.00007393   -0.00143957    0.00071763
     atom   39 type  2   force =     0.00038294   -0.00047908    0.00008449
     atom   40 type  2   force =    -0.00004950   -0.00067301   -0.00126293
     atom   41 type  2   force =     0.00040704    0.00010023   -0.00009648
     atom   42 type  2   force =    -0.00000696    0.00047765    0.00088696
     atom   43 type  1   force =     0.00047486   -0.00001153   -0.00020254
     atom   44 type  1   force =    -0.00042648    0.00012555   -0.00089843
     atom   45 type  2   force =     0.00002417    0.00002523    0.09777389
     atom   46 type  2   force =    -0.08228813   -0.00001103   -0.03279789
     atom   47 type  2   force =     0.08213858    0.00043796   -0.03281284
     atom   48 type  3   force =    -0.00049393   -0.00052003    0.00030306
     atom   49 type  3   force =     0.00034045    0.00054440    0.00048680
     atom   50 type  4   force =     0.00113949    0.00020501   -0.00133404
     atom   51 type  5   force =    -0.00123113   -0.00053344    0.00106044
     atom   52 type  2   force =    -0.01646075    0.00033133    0.00753662
     atom   53 type  5   force =     0.01537817   -0.00173854   -0.00650612

     Total force =     0.413091     Total SCF correction =     0.000692
  @ DRIVER MODE: Message from server: STATUS
  @ DRIVER MODE: Message from server: GETFORCE
  @ DRIVER MODE: Returning v,forces,stress,ensemble

     Writing output data file ./calc.save/
  @ DRIVER MODE: Message from server: EXIT
  @ DRIVE MODE: Exiting

     General routines

     Parallel routines

   This run was terminated on:  19:41:42  22Sep2021

   JOB DONE.