     Program PWSCF v.6.7GPU starts on 15Sep2021 at 20:36:30

     R & G space division:  proc/nbgrp/npool/nimage =      10
     Reading input from /storage/home/hcoda1/3/ntian30/research/carbon/CxH_vib/H2O_calc/ads_slab/CHNNHHH2O_a/out_0015/pw.inp
Warning: card &CELL ignored
Warning: card   CELL_DYNAMICS='IPI', ignored
Warning: card / ignored

     Current dimensions of program PWSCF are:
     Max number of different atomic species (ntypx) = 10
     Max number of k-points (npk) =  40000
     Max angular momentum in pseudopotentials (lmaxx) =  3
     Presently no symmetry can be used with electric field

     Message from routine cell_base_init:
     DEPRECATED: use true lattice parameter, not A to a.u. conversion factor

     IMPORTANT: XC functional enforced from input :
     Exchange-correlation= BEEF-VDW
                           (   1   4  43  14   2   0   0)
     Any further DFT definition will be discarded
     Please, verify this is what you really want

  @ DRIVER MODE: Connecting to
 qe_1139763_2852630.sched-torque.pace.gatech.edux8l1xhr6_scratch
  using UNIX socket
  @ DRIVER MODE: Message from server: STATUS
  @ DRIVER MODE: Message from server: INIT
  @ DRIVER MODE: Receiving replica           0          -1
  @ DRIVER MODE: Receiving encoded integer          25
  @ DRIVER MODE:  SCF:  T  FORCE:  T  STRESS:  F  VC:  F  ENSEMBLE:  F
  @ DRIVER MODE:  SCF:  T  FORCE:  T  STRESS:  F  VC:  F  ENSEMBLE:  F

     Using Slab Decomposition

     bravais-lattice index     =            0
     lattice parameter (alat)  =       1.8897  a.u.
     unit-cell volume          =    6658.9804 (a.u.)^3
     number of atoms/cell      =           56
     number of atomic types    =            5
     number of electrons       =       403.00
     number of Kohn-Sham states=          211
     kinetic-energy cutoff     =      29.3995  Ry
     charge density cutoff     =     293.9946  Ry
     scf convergence threshold =      7.3E-08
     mixing beta               =       0.0500
     number of iterations used =            8  plain     mixing
     Exchange-correlation= BEEF-VDW
                           (   1   4  43  14   2   0   0)

     celldm(1)=   1.889726  celldm(2)=   0.000000  celldm(3)=   0.000000
     celldm(4)=   0.000000  celldm(5)=   0.000000  celldm(6)=   0.000000

     crystal axes: (cart. coord. in units of alat)
               a(1) = (   6.579727   0.000000   0.000000 )
               a(2) = (  -0.000775   5.961596   0.000000 )
               a(3) = (   0.000000   0.000000  25.155947 )

     reciprocal axes: (cart. coord. in units 2 pi/alat)
               b(1) = (  0.151982  0.000020  0.000000 )
               b(2) = (  0.000000  0.167740  0.000000 )
               b(3) = (  0.000000  0.000000  0.039752 )

     PseudoPot. # 1 for Ti read from file:
     /storage/coda1/p-amedford6/0/shared/rich_project_chbe-medford/medford-share/data/pseudos_module/espresso/nninc/pbe/van/Ti.UPF
     MD5 check sum: 8e4df49b7f0d34bbd5052bf3f5ea0213
     Pseudo is Ultrasoft, Zval = 12.0
     Generated by new atomic code, or converted to UPF format
     Using radial grid of  851 points,  6 beta functions with:
                l(1) =   0
                l(2) =   0
                l(3) =   1
                l(4) =   1
                l(5) =   2
                l(6) =   2
     Q(r) pseudized with  8 coefficients,  rinner =    1.000   1.000   1.000
                                                       1.000   1.000

     PseudoPot. # 2 for O  read from file:
     /storage/coda1/p-amedford6/0/shared/rich_project_chbe-medford/medford-share/data/pseudos_module/espresso/nninc/pbe/van/O.UPF
     MD5 check sum: 78c19812648e8988a0fe644b0f25305e
     Pseudo is Ultrasoft, Zval =  6.0
     Generated by new atomic code, or converted to UPF format
     Using radial grid of  737 points,  4 beta functions with:
                l(1) =   0
                l(2) =   0
                l(3) =   1
                l(4) =   1
     Q(r) pseudized with  8 coefficients,  rinner =    0.800   0.800   0.800

     PseudoPot. # 3 for N  read from file:
     /storage/coda1/p-amedford6/0/shared/rich_project_chbe-medford/medford-share/data/pseudos_module/espresso/nninc/pbe/van/N.UPF
     MD5 check sum: 90d10febe142ad51ac9d5be1deb811c4
     Pseudo is Ultrasoft, Zval =  5.0
     Generated by new atomic code, or converted to UPF format
     Using radial grid of  729 points,  4 beta functions with:
                l(1) =   0
                l(2) =   0
                l(3) =   1
                l(4) =   1
     Q(r) pseudized with  8 coefficients,  rinner =    0.800   0.800   0.800

     PseudoPot. # 4 for C  read from file:
     /storage/coda1/p-amedford6/0/shared/rich_project_chbe-medford/medford-share/data/pseudos_module/espresso/nninc/pbe/van/C.UPF
     MD5 check sum: 1a69bf6b8db32088f5b2163dbdb77a27
     Pseudo is Ultrasoft, Zval =  4.0
     Generated by new atomic code, or converted to UPF format
     Using radial grid of  721 points,  4 beta functions with:
                l(1) =   0
                l(2) =   0
                l(3) =   1
                l(4) =   1
     Q(r) pseudized with  8 coefficients,  rinner =    0.800   0.800   0.800

     PseudoPot. # 5 for H  read from file:
     /storage/coda1/p-amedford6/0/shared/rich_project_chbe-medford/medford-share/data/pseudos_module/espresso/nninc/pbe/van/H.UPF
     MD5 check sum: b5ee9d7bfd3a09ee7748110bda690ff7
     Pseudo is Ultrasoft, Zval =  1.0
     Generated by new atomic code, or converted to UPF format
     Using radial grid of  615 points,  1 beta functions with:
                l(1) =   0
     Q(r) pseudized with  8 coefficients,  rinner =    0.800

     atomic species   valence    mass     pseudopotential
        Ti1           12.00    47.86700     Ti( 1.00)
        O1             6.00    15.99900     O ( 1.00)
        N1             5.00    14.00700     N ( 1.00)
        C1             4.00    12.01100     C ( 1.00)
        H1             1.00     1.00800     H ( 1.00)

     No symmetry found

   Cartesian axes

     site n.     atom                  positions (alat units)
         1           Ti1 tau(   1) = (   0.0004258   2.9801865   6.0000000  )
         2           Ti1 tau(   2) = (   3.2906075   1.4906267   6.0002472  )
         3           O1  tau(   3) = (   0.0006271   0.0005054   7.9858123  )
         4           O1  tau(   4) = (   3.2906025   0.0005020   7.3038282  )
         5           O1  tau(   5) = (   4.5942328   1.4918067   9.2879030  )
         6           O1  tau(   6) = (   1.9868534   1.4903216   9.2879459  )
         7           Ti1 tau(   7) = (   3.2907910   2.8959150   9.1758416  )
         8           Ti1 tau(   8) = (   0.0015273   1.4827037   9.2680791  )
         9           O1  tau(   9) = (   3.3295752   5.9394884  11.3365386  )
        10           O1  tau(  10) = (   0.0116148   5.9584955  10.6183126  )
        11           O1  tau(  11) = (   1.3416459   1.4853116  12.6004455  )
        12           O1  tau(  12) = (   5.3426426   1.4786053  12.6369034  )
        13           Ti1 tau(  13) = (   0.0116414   2.9353973  12.6160321  )
        14           Ti1 tau(  14) = (   3.2634613   1.4579052  12.5012998  )
        15           O1  tau(  15) = (   0.1064876   0.0498873  14.6156690  )
        16           O1  tau(  16) = (   3.3207907   0.0021492  13.9347054  )
        17           O1  tau(  17) = (   4.6463059   1.4619937  15.9920056  )
        18           O1  tau(  18) = (   2.1466462   1.4989335  16.1123926  )
        19           Ti1 tau(  19) = (   3.4306617   2.9592634  15.6863987  )
        20           Ti1 tau(  20) = (   0.1411245   1.4409179  16.1562347  )
        21           O1  tau(  21) = (   3.2904802   0.0005063   4.7018136  )
        22           O1  tau(  22) = (   0.1093408   5.8617090  17.1288626  )
        23           O1  tau(  23) = (   1.3043587   1.4918075   6.0039043  )
        24           O1  tau(  24) = (   5.2767064   1.4903225   6.0039473  )
        25           Ti1 tau(  25) = (   0.0000382   5.9609847   6.0000000  )
        26           Ti1 tau(  26) = (   3.2902200   4.4714249   6.0002472  )
        27           O1  tau(  27) = (   0.0002396   2.9813036   7.9858123  )
        28           O1  tau(  28) = (   3.2902150   2.9813002   7.3038282  )
        29           O1  tau(  29) = (   4.5938453   4.4726049   9.2879030  )
        30           O1  tau(  30) = (   1.9864658   4.4711199   9.2879459  )
        31           Ti1 tau(  31) = (   3.2891106   5.8743827   9.1763621  )
        32           Ti1 tau(  32) = (   0.0006254   4.4649316   9.2693709  )
        33           O1  tau(  33) = (   3.3252478   2.9725824  11.3426849  )
        34           O1  tau(  34) = (   0.0092240   2.9805883  10.6323155  )
        35           O1  tau(  35) = (   1.3395427   4.4601989  12.6346899  )
        36           O1  tau(  36) = (   5.3460148   4.4586474  12.6692756  )
        37           Ti1 tau(  37) = (   6.5637397   5.9322234  12.5160321  )
        38           Ti1 tau(  38) = (   3.2635149   4.4558096  12.5102435  )
        39           O1  tau(  39) = (   0.1109093   2.9345503  14.7784033  )
        40           O1  tau(  40) = (   3.3425673   2.9461413  13.8942005  )
        41           O1  tau(  41) = (   4.6672108   4.4449251  15.9191901  )
        42           O1  tau(  42) = (   2.1284166   4.4082335  15.9970045  )
        43           Ti1 tau(  43) = (   3.3925976   5.9399099  15.7906296  )
        44           Ti1 tau(  44) = (   0.1175887   4.6074924  15.7225956  )
        45           O1  tau(  45) = (   3.2900926   2.9813045   4.7018136  )
        46           O1  tau(  46) = (   1.3039711   4.4726057   6.0039043  )
        47           O1  tau(  47) = (   5.2763189   4.4711207   6.0039473  )
        48           N1  tau(  48) = (   6.3322197   2.6896666  17.8857888  )
        49           C1  tau(  49) = (   0.7408832   3.1023054  18.6049742  )
        50           H1  tau(  50) = (   1.6825283   2.9474642  18.0630083  )
        51           N1  tau(  51) = (   5.0062801   2.8267163  18.4728511  )
        52           H1  tau(  52) = (   5.1803530   3.0494745  19.4549233  )
        53           H1  tau(  53) = (   4.5789568   1.9025856  18.4370215  )
        54           O1  tau(  54) = (   3.4803961   5.7297960  18.1507158  )
        55           H1  tau(  55) = (   4.0125945   4.9267423  18.3304466  )
        56           H1  tau(  56) = (   2.5980622   5.5532332  18.5227279  )

     number of k points=    10  Fermi-Dirac smearing, width (Ry)=  0.0073
                       cart. coord. in units 2pi/alat
        k(    1) = (   0.0000000   0.0000000   0.0000000), wk =   0.1250000
        k(    2) = (   0.0000000   0.0419351   0.0000000), wk =   0.2500000
        k(    3) = (   0.0000000  -0.0838702   0.0000000), wk =   0.1250000
        k(    4) = (   0.0379955   0.0000049   0.0000000), wk =   0.2500000
        k(    5) = (   0.0379955   0.0419400   0.0000000), wk =   0.2500000
        k(    6) = (   0.0379955  -0.0838652   0.0000000), wk =   0.2500000
        k(    7) = (   0.0379955  -0.0419301   0.0000000), wk =   0.2500000
        k(    8) = (  -0.0759910  -0.0000099   0.0000000), wk =   0.1250000
        k(    9) = (  -0.0759910   0.0419252   0.0000000), wk =   0.2500000
        k(   10) = (  -0.0759910  -0.0838800   0.0000000), wk =   0.1250000

     Initial potential from superposition of free atoms

     starting charge  386.99914, renormalised to  403.00000

     negative rho (up, down):  1.683E-02 0.000E+00

     %%%%%%%%%%%%%%%%%%%%%%%%%%%%%%%%%%%%%%%%%%%%%%%%%%%%%%%%%%%%%%%%%%%%%%%%
     %                                                                      %
     % You are using vdW-DF, which was implemented by the Thonhauser group. %
     % Please cite the following two papers that made this development      %
     % possible and the two reviews that describe the various versions:     %
     %                                                                      %
     %   T. Thonhauser et al., PRL 115, 136402 (2015).                      %
     %   T. Thonhauser et al., PRB 76, 125112 (2007).                       %
     %   K. Berland et al., Rep. Prog. Phys. 78, 066501 (2015).             %
     %   D.C. Langreth et al., J. Phys.: Condens. Matter 21, 084203 (2009). %
     %                                                                      %
     %                                                                      %
     % If you are calculating the stress with vdW-DF, please also cite:     %
     %                                                                      %
     %   R. Sabatini et al., J. Phys.: Condens. Matter 24, 424209 (2012).   %
     %                                                                      %
     %%%%%%%%%%%%%%%%%%%%%%%%%%%%%%%%%%%%%%%%%%%%%%%%%%%%%%%%%%%%%%%%%%%%%%%%

     Adding external electric field

     Computed dipole along edir(3) :
        Dipole              -12.6658 Ry au,        -32.1932 Debye
        Dipole field         -0.0239 Ry au,

        Potential amp.        2.2157 Ry
        Total length         46.3494 bohr

     Starting wfcs are  305 atomic wfcs
  @ DRIVER MODE: Message from server: STATUS
  @ DRIVER MODE: Message from server: POSDATA
  @ DRIVER MODE: Reading and sharing cell
  @ DRIVER MODE: Reading and sharing positions
  @ DRIVER MODE: Received positions

     Self-consistent Calculation

     iteration #  1     ecut=    29.40 Ry     beta= 0.05
     Davidson diagonalization with overlap
     c_bands:  3 eigenvalues not converged
     c_bands:  2 eigenvalues not converged
     c_bands:  5 eigenvalues not converged
     c_bands:  1 eigenvalues not converged
     c_bands:  4 eigenvalues not converged
     c_bands:  1 eigenvalues not converged
     c_bands:  2 eigenvalues not converged
     ethr =  1.00E-05,  avg # of iterations = 26.8

[...]

     total energy              =   -2339.26115870 Ry
     estimated scf accuracy    <    7193.26370107 Ry

     iteration #  2     ecut=    29.40 Ry     beta= 0.05
     Davidson diagonalization with overlap
     ethr =  1.00E-02,  avg # of iterations = 23.7

[...]

     iteration # 62     ecut=    29.40 Ry     beta= 0.05
     Davidson diagonalization with overlap
     c_bands:  2 eigenvalues not converged
     ethr =  3.56E-10,  avg # of iterations = 16.4

[...]

     total energy              =   -2973.87567776 Ry
     estimated scf accuracy    <       0.00000016 Ry

     iteration # 66     ecut=    29.40 Ry     beta= 0.05
     Davidson diagonalization with overlap
     ethr =  4.07E-11,  avg # of iterations = 11.2

     negative rho (up, down):  1.574E-02 0.000E+00

     Adding external electric field

     Computed dipole along edir(3) :
        Dipole                0.4422 Ry au,          1.1239 Debye
        Dipole field          0.0008 Ry au,

        Potential amp.       -0.0773 Ry
        Total length         46.3494 bohr

     End of self-consistent calculation

          k = 0.0000 0.0000 0.0000 ( 18029 PWs)   bands (ev):

   -55.9073 -55.8732 -55.8714 -55.8339 -55.7919 -55.7910 -55.7353 -55.7245
   -55.6972 -55.6905 -55.6900 -55.6566 -55.4676 -55.3790 -54.8900 -54.8559
   -32.4123 -32.3913 -32.2787 -32.2338 -32.2245 -32.1993 -32.1807 -32.1615
   -32.1519 -32.1096 -32.0610 -32.0597 -32.0457 -32.0351 -32.0250 -32.0242
   -32.0132 -32.0091 -32.0054 -31.9946 -31.9875 -31.9732 -31.9646 -31.9312
   -31.9220 -31.9187 -31.9168 -31.9115 -31.8883 -31.8877 -31.8797 -31.8673
   -31.8575 -31.8442 -31.8363 -31.8302 -31.8028 -31.7591 -31.6975 -31.6353
   -31.5928 -31.5213 -31.2971 -31.2085 -31.1861 -31.1140 -31.0275 -30.9163
   -18.8457 -17.1804 -16.6216 -16.3851 -16.1483 -16.0694 -16.0443 -15.8149
   -15.7196 -15.6641 -15.5674 -15.5057 -15.4769 -15.4469 -15.4239 -15.4023
   -15.3619 -15.3497 -15.3299 -15.3290 -15.3023 -15.2931 -15.2559 -15.2502
   -15.2027 -15.0796 -15.0457 -15.0404 -15.0102 -14.9726 -14.5302 -13.3917
   -13.2752 -12.8288  -7.1176  -6.5624  -5.4943  -4.0019  -3.8678  -3.8566
    -3.8160  -3.7508  -3.5974  -3.5731  -3.3740  -3.2373  -3.1743  -3.0949
    -3.0781  -3.0398  -3.0141  -2.9097  -2.8243  -2.7893  -2.7209  -2.7055
    -2.6803  -2.6724  -2.6431  -2.6184  -2.5340  -2.5153  -2.4751  -2.4415
    -2.3262  -2.3075  -2.2509  -2.2225  -2.2154  -2.1962  -2.1725  -2.1630
    -2.1486  -2.1368  -2.0780  -2.0509  -1.9671  -1.9022  -1.8386  -1.7024
    -1.5619  -1.5209  -1.5093  -1.4087  -1.3826  -1.3475  -1.3283  -1.3041
    -1.2878  -1.1656  -1.0869  -1.0235  -1.0166  -0.9459  -0.8532  -0.7931
    -0.7354  -0.6782  -0.6721  -0.6514  -0.6466  -0.6119  -0.5386  -0.4027
    -0.3648  -0.3246  -0.2909  -0.2033  -0.1942  -0.1492  -0.1178  -0.0969
    -0.0642   0.0143   0.0260   0.0570   0.0784   0.0995   0.1224   0.1806
     0.3091   0.3310   0.3496   0.4068   0.4434   0.6028   0.7432   0.7866
     0.8888   1.0618   1.1329   1.1597   1.2241   1.3245   1.7041   1.7499
     2.7609   3.2085   3.3123   3.3462   3.3536   3.4546   3.4798   3.6703
     3.7146   3.7511   3.7822

[...]

          k = 0.0380-0.0419 0.0000 ( 17876 PWs)   bands (ev):

[...]

          k =-0.0760-0.0000 0.0000 ( 17886 PWs)   bands (ev):

[...]

          k =-0.0760-0.0839 0.0000 ( 17948 PWs)   bands (ev):

   -55.8908 -55.8896 -55.8581 -55.8469 -55.7886 -55.7851 -55.7412 -55.7092
   -55.7052 -55.7003 -55.6738 -55.6732 -55.4649 -55.3817 -54.8730 -54.8728
   -32.2287 -32.2070 -32.2067 -32.2062 -32.1852 -32.1844 -32.1272 -32.1192
   -32.0989 -32.0918 -32.0885 -32.0365 -32.0358 -32.0276 -32.0240 -32.0231
   -32.0175 -32.0137 -32.0116 -32.0102 -32.0089 -32.0062 -31.9940 -31.9913
   -31.9745 -31.9527 -31.9515 -31.9117 -31.9097 -31.9026 -31.9020 -31.8994
   -31.8927 -31.8896 -31.8890 -31.8833 -31.8804 -31.7754 -31.6957 -31.6416
   -31.5966 -31.5878 -31.1989 -31.1988 -31.1099 -31.1097 -31.0708 -31.0707
   -18.8434 -17.1718 -16.0484 -15.9633 -15.9251 -15.8358 -15.7900 -15.7564
   -15.6967 -15.6239 -15.5853 -15.5803 -15.5544 -15.4961 -15.4815 -15.4532
   -15.4356 -15.4241 -15.4195 -15.3675 -15.3613 -15.3521 -15.3475 -15.3343
   -15.3319 -15.3063 -15.2314 -15.2285 -15.1063 -14.8955 -14.8712 -13.3771
   -13.3768 -12.8448  -7.0774  -6.5529  -5.4320  -3.6650  -3.3861  -3.3283
    -3.2251  -3.1141  -3.0136  -3.0060  -2.9702  -2.9257  -2.8553  -2.8304
    -2.7747  -2.7538  -2.7404  -2.7237  -2.7194  -2.7085  -2.6754  -2.6524
    -2.5963  -2.5913  -2.5843  -2.5758  -2.5636  -2.5559  -2.5342  -2.5278
    -2.5013  -2.4753  -2.4369  -2.4046  -2.3226  -2.2467  -2.1698  -2.1224
    -2.0910  -2.0581  -2.0516  -2.0080  -1.9879  -1.9762  -1.9592  -1.8947
    -1.7944  -1.6755  -1.6190  -1.5955  -1.5470  -1.5109  -1.4876  -1.3804
    -1.3305  -1.3163  -1.2146  -1.1932  -1.1677  -1.1150  -1.0496  -1.0352
    -0.9924  -0.9486  -0.9062  -0.8659  -0.8605  -0.8103  -0.7651  -0.7379
    -0.6566  -0.6467  -0.6024  -0.5923  -0.5801  -0.5420  -0.4947  -0.4144
    -0.3182  -0.2730  -0.2217  -0.0683   0.0051   0.1407   0.1933   0.2587
     0.2752   0.3751   0.4031   0.4053   0.4870   0.5309   0.5872   0.6192
     0.6240   0.6365   0.8014   1.1069   1.4965   1.4975   1.5696   1.5701
     2.7173   3.5418   3.5991   3.6128   3.6389   3.7250   3.7486   3.7590
     3.7606   3.8797   3.8956

     the Fermi energy is     3.2212 ev

!    total energy              =   -2973.87570702 Ry
     estimated scf accuracy    <       0.00000007 Ry
     smearing contrib. (-TS)   =      -0.02176857 Ry
     internal energy E=F+TS    =   -2973.85393845 Ry

     The total energy is F=E-TS. E is the sum of the following terms:
     one-electron contribution =  -24185.13746388 Ry
     hartree contribution      =   12184.11429579 Ry
     xc contribution           =    -493.99928515 Ry
     ewald contribution        =    9521.16814584 Ry
     electric field correction =       0.00036895 Ry

     convergence has been achieved in  66 iterations

     Forces acting on atoms (cartesian axes, Ry/au):

     atom    1 type  1   force =     0.00016336   -0.00030801    0.09558702
     atom    2 type  1   force =     0.00004662   -0.00045591   -0.17579225
     atom    3 type  2   force =     0.00023281    0.00002235   -0.02351738
     atom    4 type  2   force =     0.00008471   -0.00152772    0.05312518
     atom    5 type  2   force =    -0.01025459   -0.00137175    0.00261545
     atom    6 type  2   force =     0.01292455   -0.00101907    0.00439654
     atom    7 type  1   force =     0.00139792    0.00129172   -0.00567003
     atom    8 type  1   force =    -0.00059929    0.01375027    0.01965090
     atom    9 type  2   force =     0.00024156   -0.00056910    0.00101852
     atom   10 type  2   force =    -0.00153672   -0.00072406   -0.01579796
     atom   11 type  2   force =    -0.00106132    0.00026602   -0.00021670
     atom   12 type  2   force =     0.00041533    0.00000473    0.00014378
     atom   13 type  1   force =     0.00055174    0.00084188    0.00028838
     atom   14 type  1   force =    -0.00021833   -0.00007049    0.00046994
     atom   15 type  2   force =    -0.00035856   -0.00001524   -0.00037927
     atom   16 type  2   force =     0.00000792   -0.00086177   -0.00042870
     atom   17 type  2   force =    -0.00061647   -0.00020594   -0.00027305
     atom   18 type  2   force =     0.00024383   -0.00034036   -0.00053549
     atom   19 type  1   force =     0.00068463   -0.00057190   -0.00090841
     atom   20 type  1   force =    -0.00074915   -0.00082703   -0.00031398
     atom   21 type  2   force =     0.00007320    0.00001779    0.10320941
     atom   22 type  2   force =    -0.00006677    0.00123996    0.00040978
     atom   23 type  2   force =    -0.07148306   -0.00007925   -0.02757566
     atom   24 type  2   force =     0.07145098    0.00037966   -0.02762884
     atom   25 type  1   force =     0.00009519   -0.00026514    0.09540278
     atom   26 type  1   force =     0.00004002   -0.00022176   -0.17585923
     atom   27 type  2   force =     0.00024805   -0.00036752   -0.02227086
     atom   28 type  2   force =     0.00008237   -0.00121944    0.05317542
     atom   29 type  2   force =    -0.01029913    0.00029647    0.00172716
     atom   30 type  2   force =     0.01288946    0.00085614    0.00358686
     atom   31 type  1   force =     0.00161711    0.00306293   -0.01052347
     atom   32 type  1   force =    -0.00067716   -0.01565536    0.01962936
     atom   33 type  2   force =     0.00053691    0.00065405    0.00017089
     atom   34 type  2   force =    -0.00085276    0.00099678   -0.01347994
     atom   35 type  2   force =     0.00109843    0.00005106   -0.00044157
     atom   36 type  2   force =    -0.00119198    0.00013362   -0.00020619
     atom   37 type  1   force =    -0.00031433   -0.00045310    0.00006871
     atom   38 type  1   force =    -0.00090982    0.00037162   -0.00037705
     atom   39 type  2   force =    -0.00047911   -0.00052981    0.00017995
     atom   40 type  2   force =     0.00009964    0.00097081    0.00012129
     atom   41 type  2   force =    -0.00114353    0.00043899    0.00055519
     atom   42 type  2   force =     0.00106148   -0.00024668    0.00048043
     atom   43 type  1   force =    -0.00021534    0.00090454   -0.00034233
     atom   44 type  1   force =    -0.00040151    0.00060457   -0.00158638
     atom   45 type  2   force =     0.00007363    0.00001004    0.10321342
     atom   46 type  2   force =    -0.07147850   -0.00003781   -0.02757553
     atom   47 type  2   force =     0.07144685    0.00038442   -0.02761218
     atom   48 type  3   force =    -0.00049944   -0.00025478    0.00053466
     atom   49 type  4   force =     0.00164029   -0.00110894   -0.00142345
     atom   50 type  5   force =    -0.00206691    0.00061993    0.00121563
     atom   51 type  3   force =     0.00022679    0.00083074   -0.00165806
     atom   52 type  5   force =    -0.00023348   -0.00017573    0.00087852
     atom   53 type  5   force =    -0.00057973   -0.00102186    0.00136061
     atom   54 type  2   force =    -0.00096001   -0.00028794    0.00107284
     atom   55 type  5   force =    -0.00080535    0.00143824   -0.00074883
     atom   56 type  5   force =     0.00037696    0.00035415   -0.00114581

     Total force =     0.366054     Total SCF correction =     0.000558
  @ DRIVER MODE: Message from server: STATUS
  @ DRIVER MODE: Message from server: GETFORCE
  @ DRIVER MODE: Returning v,forces,stress,ensemble

     Writing output data file ./calc.save/
  @ DRIVER MODE: Message from server: EXIT
  @ DRIVE MODE: Exiting

     General routines

     Parallel routines

   This run was terminated on:  20:54:15  15Sep2021

   JOB DONE.