     Program PWSCF v.6.7GPU starts on 23Aug2021 at 20:11:27

     R & G space division:  proc/nbgrp/npool/nimage =       6
     Reading input from /storage/home/hcoda1/3/ntian30/research/carbon/CH_vib/ads_slab/CHNNHHH_a/out_0014/pw.inp
Warning: card &CELL ignored
Warning: card   CELL_DYNAMICS='IPI', ignored
Warning: card / ignored

     Current dimensions of program PWSCF are:
     Max number of different atomic species (ntypx) = 10
     Max number of k-points (npk) =  40000
     Max angular momentum in pseudopotentials (lmaxx) =  3
     Presently no symmetry can be used with electric field

     Message from routine cell_base_init:
     DEPRECATED: use true lattice parameter, not A to a.u. conversion factor

     IMPORTANT: XC functional enforced from input :
     Exchange-correlation= BEEF-VDW
                           (   1   4  43  14   2   0   0)
     Any further DFT definition will be discarded
     Please, verify this is what you really want

  @ DRIVER MODE: Connecting to
 qe_1139763_2632795.sched-torque.pace.gatech.edu3619l9z3_scratch
  using UNIX socket
  @ DRIVER MODE: Message from server: STATUS
  @ DRIVER MODE: Message from server: INIT
  @ DRIVER MODE: Receiving replica           0          -1
  @ DRIVER MODE: Receiving encoded integer          25
  @ DRIVER MODE:  SCF:  T  FORCE:  T  STRESS:  F  VC:  F  ENSEMBLE:  F
  @ DRIVER MODE:  SCF:  T  FORCE:  T  STRESS:  F  VC:  F  ENSEMBLE:  F

     Using Slab Decomposition

     bravais-lattice index     =            0
     lattice parameter (alat)  =       1.8897  a.u.
     unit-cell volume          =    6658.9804 (a.u.)^3
     number of atoms/cell      =           54
     number of atomic types    =            5
     number of electrons       =       396.00
     number of Kohn-Sham states=          208
     kinetic-energy cutoff     =      29.3995  Ry
     charge density cutoff     =     293.9946  Ry
     scf convergence threshold =      7.3E-08
     mixing beta               =       0.0500
     number of iterations used =            8  plain     mixing
     Exchange-correlation= BEEF-VDW
                           (   1   4  43  14   2   0   0)

     celldm(1)=   1.889726  celldm(2)=   0.000000  celldm(3)=   0.000000
     celldm(4)=   0.000000  celldm(5)=   0.000000  celldm(6)=   0.000000

     crystal axes: (cart. coord. in units of alat)
               a(1) = (   6.579727   0.000000   0.000000 )
               a(2) = (  -0.000775   5.961596   0.000000 )
               a(3) = (   0.000000   0.000000  25.155947 )

     reciprocal axes: (cart. coord. in units 2 pi/alat)
               b(1) = (  0.151982  0.000020  0.000000 )
               b(2) = (  0.000000  0.167740  0.000000 )
               b(3) = (  0.000000  0.000000  0.039752 )

     PseudoPot. # 1 for Ti read from file:
     /storage/coda1/p-amedford6/0/shared/rich_project_chbe-medford/medford-share/data/pseudos_module/espresso/nninc/pbe/van/Ti.UPF
     MD5 check sum: 8e4df49b7f0d34bbd5052bf3f5ea0213
     Pseudo is Ultrasoft, Zval = 12.0
     Generated by new atomic code, or converted to UPF format
     Using radial grid of  851 points,  6 beta functions with:
                l(1) =   0
                l(2) =   0
                l(3) =   1
                l(4) =   1
                l(5) =   2
                l(6) =   2
     Q(r) pseudized with  8 coefficients,  rinner =    1.000   1.000   1.000
                                                       1.000   1.000

     PseudoPot. # 2 for O  read from file:
     /storage/coda1/p-amedford6/0/shared/rich_project_chbe-medford/medford-share/data/pseudos_module/espresso/nninc/pbe/van/O.UPF
     MD5 check sum: 78c19812648e8988a0fe644b0f25305e
     Pseudo is Ultrasoft, Zval =  6.0
     Generated by new atomic code, or converted to UPF format
     Using radial grid of  737 points,  4 beta functions with:
                l(1) =   0
                l(2) =   0
                l(3) =   1
                l(4) =   1
     Q(r) pseudized with  8 coefficients,  rinner =    0.800   0.800   0.800

     PseudoPot. # 3 for N  read from file:
     /storage/coda1/p-amedford6/0/shared/rich_project_chbe-medford/medford-share/data/pseudos_module/espresso/nninc/pbe/van/N.UPF
     MD5 check sum: 90d10febe142ad51ac9d5be1deb811c4
     Pseudo is Ultrasoft, Zval =  5.0
     Generated by new atomic code, or converted to UPF format
     Using radial grid of  729 points,  4 beta functions with:
                l(1) =   0
                l(2) =   0
                l(3) =   1
                l(4) =   1
     Q(r) pseudized with  8 coefficients,  rinner =    0.800   0.800   0.800

     PseudoPot. # 4 for C  read from file:
     /storage/coda1/p-amedford6/0/shared/rich_project_chbe-medford/medford-share/data/pseudos_module/espresso/nninc/pbe/van/C.UPF
     MD5 check sum: 1a69bf6b8db32088f5b2163dbdb77a27
     Pseudo is Ultrasoft, Zval =  4.0
     Generated by new atomic code, or converted to UPF format
     Using radial grid of  721 points,  4 beta functions with:
                l(1) =   0
                l(2) =   0
                l(3) =   1
                l(4) =   1
     Q(r) pseudized with  8 coefficients,  rinner =    0.800   0.800   0.800

     PseudoPot. # 5 for H  read from file:
     /storage/coda1/p-amedford6/0/shared/rich_project_chbe-medford/medford-share/data/pseudos_module/espresso/nninc/pbe/van/H.UPF
     MD5 check sum: b5ee9d7bfd3a09ee7748110bda690ff7
     Pseudo is Ultrasoft, Zval =  1.0
     Generated by new atomic code, or converted to UPF format
     Using radial grid of  615 points,  1 beta functions with:
                l(1) =   0
     Q(r) pseudized with  8 coefficients,  rinner =    0.800

     atomic species   valence    mass     pseudopotential
        Ti1           12.00    47.86700     Ti( 1.00)
        O1             6.00    15.99900     O ( 1.00)
        N1             5.00    14.00700     N ( 1.00)
        C1             4.00    12.01100     C ( 1.00)
        H1             1.00     1.00800     H ( 1.00)

     No symmetry found

   Cartesian axes

     site n.     atom                  positions (alat units)
         1           Ti1 tau(   1) = (   0.0004258   2.9801865   6.0000000  )
         2           Ti1 tau(   2) = (   3.2906075   1.4906267   6.0002472  )
         3           O1  tau(   3) = (   0.0006271   0.0005054   7.9858123  )
         4           O1  tau(   4) = (   3.2906025   0.0005020   7.3038282  )
         5           O1  tau(   5) = (   4.5942328   1.4918067   9.2879030  )
         6           O1  tau(   6) = (   1.9868534   1.4903216   9.2879459  )
         7           Ti1 tau(   7) = (   3.2907910   2.8959150   9.1758416  )
         8           Ti1 tau(   8) = (   0.0015273   1.4827037   9.2680791  )
         9           O1  tau(   9) = (   3.3116888   5.9365513  11.3741315  )
        10           O1  tau(  10) = (   0.0116148   5.9584955  10.6183126  )
        11           O1  tau(  11) = (   1.3152863   1.4773744  12.6583839  )
        12           O1  tau(  12) = (   5.3185463   1.4781915  12.6604289  )
        13           Ti1 tau(  13) = (   0.0312267   2.9553392  12.5172039  )
        14           Ti1 tau(  14) = (   3.3247105   1.4628205  12.5237724  )
        15           O1  tau(  15) = (   0.0176705   0.0150782  14.7085838  )
        16           O1  tau(  16) = (   3.3263678   5.9469243  13.9928752  )
        17           O1  tau(  17) = (   4.5829619   1.4750097  16.2211409  )
        18           O1  tau(  18) = (   2.0801478   1.4636096  16.1819230  )
        19           Ti1 tau(  19) = (   3.3264833   2.9461821  15.7545810  )
        20           Ti1 tau(  20) = (   0.0064452   1.3478264  16.0581623  )
        21           O1  tau(  21) = (   3.2904802   0.0005063   4.7018136  )
        22           O1  tau(  22) = (   0.0393124   5.8647722  17.2449945  )
        23           O1  tau(  23) = (   1.3043587   1.4918075   6.0039043  )
        24           O1  tau(  24) = (   5.2767064   1.4903225   6.0039473  )
        25           Ti1 tau(  25) = (   0.0000382   5.9609847   6.0000000  )
        26           Ti1 tau(  26) = (   3.2902200   4.4714249   6.0002472  )
        27           O1  tau(  27) = (   0.0002396   2.9813036   7.9858123  )
        28           O1  tau(  28) = (   3.2902150   2.9813002   7.3038282  )
        29           O1  tau(  29) = (   4.5938453   4.4726049   9.2879030  )
        30           O1  tau(  30) = (   1.9864658   4.4711199   9.2879459  )
        31           Ti1 tau(  31) = (   3.2891106   5.8743827   9.1763621  )
        32           Ti1 tau(  32) = (   0.0006254   4.4649316   9.2693709  )
        33           O1  tau(  33) = (   3.3126387   2.9639063  11.3704323  )
        34           O1  tau(  34) = (   0.0092240   2.9805883  10.6323155  )
        35           O1  tau(  35) = (   1.3140505   4.4512041  12.6779488  )
        36           O1  tau(  36) = (   5.3186431   4.4503656  12.6784002  )
        37           Ti1 tau(  37) = (   0.0306983   5.9434578  12.5012515  )
        38           Ti1 tau(  38) = (   3.3249252   4.4426326  12.5284913  )
        39           O1  tau(  39) = (   0.0332616   2.9308952  14.9693926  )
        40           O1  tau(  40) = (   3.3269026   2.9510973  13.9662216  )
        41           O1  tau(  41) = (   4.5816979   4.4256876  16.1885362  )
        42           O1  tau(  42) = (   2.0739833   4.4348339  16.1471384  )
        43           Ti1 tau(  43) = (   3.3139036   5.9323143  15.7909994  )
        44           Ti1 tau(  44) = (   0.0257917   4.5791344  15.8913375  )
        45           O1  tau(  45) = (   3.2900926   2.9813045   4.7018136  )
        46           O1  tau(  46) = (   1.3039711   4.4726057   6.0039043  )
        47           O1  tau(  47) = (   5.2763189   4.4711207   6.0039473  )
        48           N1  tau(  48) = (   0.2611162   2.7486399  18.0384573  )
        49           C1  tau(  49) = (   1.0666652   3.1333113  18.7681872  )
        50           H1  tau(  50) = (   1.9596291   3.4674532  19.3170853  )
        51           N1  tau(  51) = (   3.9312863   3.7371558  19.5917579  )
        52           H1  tau(  52) = (   4.2637485   4.0673035  20.4913501  )
        53           H1  tau(  53) = (   4.3024207   4.3757745  18.8906580  )
        54           H1  tau(  54) = (   4.4024832   2.8518033  19.4177320  )

     number of k points=    10  Fermi-Dirac smearing, width (Ry)=  0.0073
                       cart. coord. in units 2pi/alat
        k(    1) = (   0.0000000   0.0000000   0.0000000), wk =   0.1250000
        k(    2) = (   0.0000000   0.0419351   0.0000000), wk =   0.2500000
        k(    3) = (   0.0000000  -0.0838702   0.0000000), wk =   0.1250000
        k(    4) = (   0.0379955   0.0000049   0.0000000), wk =   0.2500000
        k(    5) = (   0.0379955   0.0419400   0.0000000), wk =   0.2500000
        k(    6) = (   0.0379955  -0.0838652   0.0000000), wk =   0.2500000
        k(    7) = (   0.0379955  -0.0419301   0.0000000), wk =   0.2500000
        k(    8) = (  -0.0759910  -0.0000099   0.0000000), wk =   0.1250000
        k(    9) = (  -0.0759910   0.0419252   0.0000000), wk =   0.2500000
        k(   10) = (  -0.0759910  -0.0838800   0.0000000), wk =   0.1250000

     Initial potential from superposition of free atoms

     starting charge  379.99915, renormalised to  396.00000

     negative rho (up, down):  1.480E-02 0.000E+00

     %%%%%%%%%%%%%%%%%%%%%%%%%%%%%%%%%%%%%%%%%%%%%%%%%%%%%%%%%%%%%%%%%%%%%%%%
     %                                                                      %
     % You are using vdW-DF, which was implemented by the Thonhauser group. %
     % Please cite the following two papers that made this development      %
     % possible and the two reviews that describe the various versions:     %
     %                                                                      %
     %   T. Thonhauser et al., PRL 115, 136402 (2015).                      %
     %   T. Thonhauser et al., PRB 76, 125112 (2007).                       %
     %   K. Berland et al., Rep. Prog. Phys. 78, 066501 (2015).             %
     %   D.C. Langreth et al., J. Phys.: Condens. Matter 21, 084203 (2009). %
     %                                                                      %
     %                                                                      %
     % If you are calculating the stress with vdW-DF, please also cite:     %
     %                                                                      %
     %   R. Sabatini et al., J. Phys.: Condens. Matter 24, 424209 (2012).   %
     %                                                                      %
     %%%%%%%%%%%%%%%%%%%%%%%%%%%%%%%%%%%%%%%%%%%%%%%%%%%%%%%%%%%%%%%%%%%%%%%%

     Adding external electric field

     Computed dipole along edir(3) :
        Dipole              -10.3171 Ry au,        -26.2235 Debye
        Dipole field         -0.0195 Ry au,

        Potential amp.        1.8048 Ry
        Total length         46.3494 bohr

     Starting wfcs are  300 atomic wfcs
  @ DRIVER MODE: Message from server: STATUS
  @ DRIVER MODE: Message from server: POSDATA
  @ DRIVER MODE: Reading and sharing cell
  @ DRIVER MODE: Reading and sharing positions
  @ DRIVER MODE: Received positions

     Self-consistent Calculation

     iteration #  1     ecut=    29.40 Ry     beta= 0.05
     Davidson diagonalization with overlap
     c_bands:  1 eigenvalues not converged
     c_bands:  2 eigenvalues not converged
     c_bands:  2 eigenvalues not converged
     c_bands:  1 eigenvalues not converged
     c_bands:  3 eigenvalues not converged
     c_bands:  2 eigenvalues not converged
     c_bands:  3 eigenvalues not converged
     c_bands:  2 eigenvalues not converged
     c_bands:  2 eigenvalues not converged
     c_bands:  2 eigenvalues not converged
     ethr =  1.00E-05,  avg # of iterations = 20.0

[...]

     total energy              =   -2524.85240362 Ry
     estimated scf accuracy    <    4650.92496760 Ry

     iteration #  2     ecut=    29.40 Ry     beta= 0.05
     Davidson diagonalization with overlap
     ethr =  1.00E-02,  avg # of iterations = 24.3

[...]

     iteration # 95     ecut=    29.40 Ry     beta= 0.05
     Davidson diagonalization with overlap
     c_bands:  1 eigenvalues not converged
     c_bands:  2 eigenvalues not converged
     ethr =  2.78E-10,  avg # of iterations = 14.5

[...]

     total energy              =   -2940.41307145 Ry
     estimated scf accuracy    <       0.00000025 Ry

     iteration #102     ecut=    29.40 Ry     beta= 0.05
     Davidson diagonalization with overlap
     ethr =  5.48E-11,  avg # of iterations =  9.4

     negative rho (up, down):  1.579E-02 0.000E+00

     Adding external electric field

     Computed dipole along edir(3) :
        Dipole                1.4907 Ry au,          3.7889 Debye
        Dipole field          0.0028 Ry au,

        Potential amp.       -0.2608 Ry
        Total length         46.3494 bohr

     End of self-consistent calculation

          k = 0.0000 0.0000 0.0000 ( 18029 PWs)   bands (ev):

   -55.2530 -55.2170 -55.2043 -55.1702 -55.1302 -55.1221 -55.0983 -55.0949
   -55.0707 -55.0514 -55.0364 -55.0334 -54.9998 -54.9832 -54.2323 -54.1983
   -31.8216 -31.7014 -31.6966 -31.6179 -31.5624 -31.5603 -31.5517 -31.5388
   -31.4933 -31.4808 -31.4618 -31.4586 -31.4489 -31.4241 -31.4082 -31.4037
   -31.3893 -31.3778 -31.3689 -31.3675 -31.3568 -31.3446 -31.3180 -31.3160
   -31.3080 -31.3013 -31.2732 -31.2716 -31.2615 -31.2603 -31.2518 -31.2329
   -31.2318 -31.2238 -31.2199 -31.2183 -31.1847 -31.1846 -31.1667 -31.1614
   -31.1445 -31.0932 -30.6416 -30.5476 -30.5255 -30.4580 -30.3712 -30.2603
   -16.7643 -16.0779 -15.8083 -15.6659 -15.5600 -15.4485 -15.3337 -15.3134
   -15.1768 -15.1669 -15.0880 -14.9692 -14.9185 -14.9003 -14.8855 -14.8717
   -14.8652 -14.7936 -14.7885 -14.7653 -14.7448 -14.7322 -14.6893 -14.6875
   -14.6468 -14.6260 -14.5801 -14.4908 -14.4079 -14.3384 -14.0164 -12.7348
   -12.6174  -7.9119  -5.2639  -5.0577  -4.0056  -3.4169  -3.2665  -3.1705
    -3.1440  -3.1279  -2.9989  -2.8510  -2.8382  -2.7398  -2.6366  -2.5857
    -2.5028  -2.4548  -2.4423  -2.4242  -2.2410  -2.2239  -2.1708  -2.1231
    -2.0931  -2.0571  -2.0368  -2.0178  -2.0005  -1.9912  -1.9270  -1.8132
    -1.7776  -1.7256  -1.6742  -1.6489  -1.5948  -1.5742  -1.5381  -1.5320
    -1.5316  -1.4835  -1.4577  -1.4342  -1.3571  -1.2712  -1.1568  -1.1053
    -0.9506  -0.8879  -0.8318  -0.8195  -0.7562  -0.7361  -0.7071  -0.6297
    -0.6222  -0.5894  -0.4707  -0.3856  -0.3460  -0.3309  -0.2714  -0.2334
    -0.2061  -0.1593  -0.0629  -0.0307  -0.0138  -0.0094   0.1405   0.1544
     0.2234   0.2709   0.2926   0.2932   0.4063   0.4228   0.4951   0.5320
     0.5682   0.6415   0.6814   0.6973   0.7000   0.7336   0.7376   0.8285
     0.8505   0.8589   0.9311   1.0806   1.3070   1.3550   1.3631   1.6968
     1.6983   1.7905   1.9742   2.3664   2.4146   3.8457   3.9172   3.9914
     3.9980   4.0235   4.0838   4.3253   4.3357   4.3483   4.3515   4.3926

[...]

          k = 0.0380-0.0419 0.0000 ( 17876 PWs)   bands (ev):

[...]

          k =-0.0760-0.0000 0.0000 ( 17886 PWs)   bands (ev):

[...]

          k =-0.0760-0.0839 0.0000 ( 17948 PWs)   bands (ev):

   -55.2350 -55.2348 -55.1872 -55.1871 -55.1173 -55.1166 -55.1085 -55.0955
   -55.0557 -55.0545 -55.0521 -55.0169 -55.0164 -54.9861 -54.2152 -54.2152
   -31.6254 -31.6248 -31.6246 -31.5240 -31.5117 -31.5116 -31.5113 -31.4786
   -31.4785 -31.4603 -31.4531 -31.4474 -31.4431 -31.3923 -31.3875 -31.3855
   -31.3843 -31.3842 -31.3786 -31.3730 -31.3492 -31.3456 -31.3352 -31.3259
   -31.3250 -31.3188 -31.3102 -31.3069 -31.3069 -31.3006 -31.2876 -31.2850
   -31.2802 -31.2675 -31.2651 -31.2482 -31.2469 -31.2429 -31.1975 -31.1974
   -31.1918 -31.1854 -30.5382 -30.5381 -30.4541 -30.4540 -30.4146 -30.4146
   -16.7554 -15.6105 -15.4940 -15.4528 -15.2651 -15.2567 -15.2267 -15.2139
   -15.1721 -15.0627 -15.0367 -15.0262 -15.0123 -14.9609 -14.9544 -14.9493
   -14.9278 -14.8565 -14.8481 -14.8461 -14.8291 -14.7629 -14.7581 -14.7538
   -14.7429 -14.6998 -14.6969 -14.6025 -14.6005 -14.5067 -14.3832 -12.7189
   -12.7189  -7.9085  -5.2588  -5.0681  -3.9922  -2.7902  -2.7666  -2.7176
    -2.7109  -2.6955  -2.4766  -2.4538  -2.4168  -2.3669  -2.3054  -2.2542
    -2.2459  -2.2291  -2.1621  -2.1233  -2.1067  -2.0932  -2.0749  -2.0593
    -2.0449  -2.0194  -1.9769  -1.9694  -1.9483  -1.9279  -1.8979  -1.8895
    -1.8584  -1.8374  -1.8222  -1.8048  -1.6900  -1.6663  -1.6079  -1.5688
    -1.5275  -1.4551  -1.4499  -1.3527  -1.3453  -1.2910  -1.2792  -1.2534
    -1.1604  -1.0615  -0.9992  -0.9925  -0.9862  -0.8601  -0.8218  -0.7978
    -0.7608  -0.7326  -0.6738  -0.5952  -0.5737  -0.5396  -0.4550  -0.4467
    -0.3910  -0.3328  -0.2762  -0.2448  -0.2161  -0.2075  -0.1981  -0.1446
    -0.1382  -0.0670  -0.0169   0.0164   0.0276   0.0615   0.2662   0.2830
     0.3358   0.4341   0.5068   0.6270   0.6848   0.7060   0.7772   0.8175
     0.8615   0.9240   1.0262   1.0567   1.0597   1.1343   1.1660   1.2081
     1.2121   2.1475   2.1479   2.2345   2.2347   3.9897   4.0836   4.1057
     4.1539   4.2451   4.2809   4.3633   4.3813   4.4311   4.4331   4.5012

     the Fermi energy is     3.9087 ev

!    total energy              =   -2940.41307401 Ry
     estimated scf accuracy    <       0.00000003 Ry
     smearing contrib. (-TS)   =      -0.03731385 Ry
     internal energy E=F+TS    =   -2940.37576015 Ry

     The total energy is F=E-TS. E is the sum of the following terms:
     one-electron contribution =  -23553.18784994 Ry
     hartree contribution      =   11869.30239865 Ry
     xc contribution           =    -485.96381412 Ry
     ewald contribution        =    9229.46931191 Ry
     electric field correction =       0.00419335 Ry

     convergence has been achieved in 102 iterations

     Forces acting on atoms (cartesian axes, Ry/au):

     atom    1 type  1   force =    -0.00002677   -0.00018042    0.09327088
     atom    2 type  1   force =    -0.00015119   -0.00021791   -0.17813391
     atom    3 type  2   force =     0.00006462   -0.00020349   -0.02048445
     atom    4 type  2   force =     0.00000503   -0.00194829    0.05847228
     atom    5 type  2   force =    -0.01028312   -0.00135254    0.00735349
     atom    6 type  2   force =     0.01227992   -0.00075531    0.00784745
     atom    7 type  1   force =     0.00035996    0.00277297   -0.01407373
     atom    8 type  1   force =    -0.00056167    0.00107366   -0.00335788
     atom    9 type  2   force =     0.00004080    0.00049943   -0.00008179
     atom   10 type  2   force =    -0.00055152   -0.00103197   -0.00004748
     atom   11 type  2   force =     0.00008728    0.00011505    0.00005247
     atom   12 type  2   force =    -0.00025457    0.00016468   -0.00006062
     atom   13 type  1   force =    -0.00001321    0.00089663   -0.00026836
     atom   14 type  1   force =     0.00009372    0.00024235   -0.00016324
     atom   15 type  2   force =    -0.00013457    0.00011306    0.00095290
     atom   16 type  2   force =     0.00004800    0.00010953   -0.00003819
     atom   17 type  2   force =     0.00026499   -0.00030844    0.00005046
     atom   18 type  2   force =    -0.00021119   -0.00047145   -0.00047072
     atom   19 type  1   force =    -0.00066489   -0.00022597   -0.00000521
     atom   20 type  1   force =    -0.00020577    0.00076520    0.00012774
     atom   21 type  2   force =    -0.00001915    0.00000546    0.10388417
     atom   22 type  2   force =    -0.00031607   -0.00065788   -0.00102611
     atom   23 type  2   force =    -0.07044192   -0.00007374   -0.02689259
     atom   24 type  2   force =     0.07027988    0.00036012   -0.02694730
     atom   25 type  1   force =     0.00004365   -0.00005902    0.09289968
     atom   26 type  1   force =    -0.00016930   -0.00018624   -0.17816618
     atom   27 type  2   force =     0.00012459   -0.00033558   -0.01950641
     atom   28 type  2   force =     0.00003236   -0.00168082    0.05804138
     atom   29 type  2   force =    -0.01039630   -0.00124758    0.00692694
     atom   30 type  2   force =     0.01228139   -0.00091993    0.00743671
     atom   31 type  1   force =     0.00034654    0.00516018   -0.01509698
     atom   32 type  1   force =    -0.00046604   -0.00162396   -0.00358187
     atom   33 type  2   force =    -0.00019406   -0.00021914   -0.00019453
     atom   34 type  2   force =     0.00029346   -0.00052729    0.00105592
     atom   35 type  2   force =    -0.00040324    0.00005367    0.00024419
     atom   36 type  2   force =     0.00033660   -0.00002984    0.00030544
     atom   37 type  1   force =    -0.00011840   -0.00043867   -0.00003617
     atom   38 type  1   force =     0.00013280    0.00033966   -0.00028512
     atom   39 type  2   force =    -0.00034930   -0.00043289    0.00113666
     atom   40 type  2   force =     0.00007102    0.00007200   -0.00016878
     atom   41 type  2   force =    -0.00002868    0.00024011   -0.00025589
     atom   42 type  2   force =    -0.00011418    0.00001843   -0.00039642
     atom   43 type  1   force =    -0.00082715   -0.00014451    0.00003168
     atom   44 type  1   force =     0.00013389    0.00044262    0.00009200
     atom   45 type  2   force =    -0.00000907    0.00001072    0.10387213
     atom   46 type  2   force =    -0.07046418   -0.00005084   -0.02689657
     atom   47 type  2   force =     0.07028747    0.00039288   -0.02696836
     atom   48 type  3   force =    -0.00064959   -0.00093929   -0.00020517
     atom   49 type  4   force =     0.00705747    0.00321152    0.00403271
     atom   50 type  5   force =    -0.00661376   -0.00251387   -0.00343867
     atom   51 type  3   force =    -0.00021416   -0.00112759   -0.00106008
     atom   52 type  5   force =     0.00063819    0.00087599    0.00091824
     atom   53 type  5   force =     0.00013826    0.00050226   -0.00057347
     atom   54 type  5   force =    -0.00058889    0.00146628   -0.00012328

     Total force =     0.366164     Total SCF correction =     0.000287
  @ DRIVER MODE: Message from server: STATUS
  @ DRIVER MODE: Message from server: GETFORCE
  @ DRIVER MODE: Returning v,forces,stress,ensemble

     Writing output data file ./calc.save/
  @ DRIVER MODE: Message from server: EXIT
  @ DRIVE MODE: Exiting

     General routines

     Parallel routines

   This run was terminated on:  20:55:21  23Aug2021

   JOB DONE.