     Program PWSCF v.6.7GPU starts on 22Sep2021 at 18:38:54

     R & G space division:  proc/nbgrp/npool/nimage =      10
     Reading input from /storage/home/hcoda1/3/ntian30/research/carbon/CxH_vib/H2O_calc/ads_slab/CH3NHO_a/out_0007/pw.inp
Warning: card &CELL ignored
Warning: card   CELL_DYNAMICS='IPI', ignored
Warning: card / ignored

     Current dimensions of program PWSCF are:
     Max number of different atomic species (ntypx) = 10
     Max number of k-points (npk) =  40000
     Max angular momentum in pseudopotentials (lmaxx) =  3
     Presently no symmetry can be used with electric field

     Message from routine cell_base_init:
     DEPRECATED: use true lattice parameter, not A to a.u. conversion factor

     IMPORTANT: XC functional enforced from input :
     Exchange-correlation= BEEF-VDW
                           (   1   4  43  14   2   0   0)
     Any further DFT definition will be discarded
     Please, verify this is what you really want

  @ DRIVER MODE: Connecting to
 qe_1139763_2937319.sched-torque.pace.gatech.educu2d9wp__scratch
  using UNIX socket
  @ DRIVER MODE: Message from server: STATUS
  @ DRIVER MODE: Message from server: INIT
  @ DRIVER MODE: Receiving replica           0          -1
  @ DRIVER MODE: Receiving encoded integer          25
  @ DRIVER MODE:  SCF:  T  FORCE:  T  STRESS:  F  VC:  F  ENSEMBLE:  F
  @ DRIVER MODE:  SCF:  T  FORCE:  T  STRESS:  F  VC:  F  ENSEMBLE:  F

     Using Slab Decomposition

     bravais-lattice index     =            0
     lattice parameter (alat)  =       1.8897  a.u.
     unit-cell volume          =    6658.9804 (a.u.)^3
     number of atoms/cell      =           54
     number of atomic types    =            5
     number of electrons       =       397.00
     number of Kohn-Sham states=          208
     kinetic-energy cutoff     =      29.3995  Ry
     charge density cutoff     =     293.9946  Ry
     scf convergence threshold =      7.3E-08
     mixing beta               =       0.0500
     number of iterations used =            8  plain     mixing
     Exchange-correlation= BEEF-VDW
                           (   1   4  43  14   2   0   0)

     celldm(1)=   1.889726  celldm(2)=   0.000000  celldm(3)=   0.000000
     celldm(4)=   0.000000  celldm(5)=   0.000000  celldm(6)=   0.000000

     crystal axes: (cart. coord. in units of alat)
               a(1) = (   6.579727   0.000000   0.000000 )
               a(2) = (  -0.000775   5.961596   0.000000 )
               a(3) = (   0.000000   0.000000  25.155947 )

     reciprocal axes: (cart. coord. in units 2 pi/alat)
               b(1) = (  0.151982  0.000020  0.000000 )
               b(2) = (  0.000000  0.167740  0.000000 )
               b(3) = (  0.000000  0.000000  0.039752 )

     PseudoPot. # 1 for Ti read from file:
     /storage/coda1/p-amedford6/0/shared/rich_project_chbe-medford/medford-share/data/pseudos_module/espresso/nninc/pbe/van/Ti.UPF
     MD5 check sum: 8e4df49b7f0d34bbd5052bf3f5ea0213
     Pseudo is Ultrasoft, Zval = 12.0
     Generated by new atomic code, or converted to UPF format
     Using radial grid of  851 points,  6 beta functions with:
                l(1) =   0
                l(2) =   0
                l(3) =   1
                l(4) =   1
                l(5) =   2
                l(6) =   2
     Q(r) pseudized with  8 coefficients,  rinner =    1.000   1.000   1.000
                                                       1.000   1.000

     PseudoPot. # 2 for O  read from file:
     /storage/coda1/p-amedford6/0/shared/rich_project_chbe-medford/medford-share/data/pseudos_module/espresso/nninc/pbe/van/O.UPF
     MD5 check sum: 78c19812648e8988a0fe644b0f25305e
     Pseudo is Ultrasoft, Zval =  6.0
     Generated by new atomic code, or converted to UPF format
     Using radial grid of  737 points,  4 beta functions with:
                l(1) =   0
                l(2) =   0
                l(3) =   1
                l(4) =   1
     Q(r) pseudized with  8 coefficients,  rinner =    0.800   0.800   0.800

     PseudoPot. # 3 for N  read from file:
     /storage/coda1/p-amedford6/0/shared/rich_project_chbe-medford/medford-share/data/pseudos_module/espresso/nninc/pbe/van/N.UPF
     MD5 check sum: 90d10febe142ad51ac9d5be1deb811c4
     Pseudo is Ultrasoft, Zval =  5.0
     Generated by new atomic code, or converted to UPF format
     Using radial grid of  729 points,  4 beta functions with:
                l(1) =   0
                l(2) =   0
                l(3) =   1
                l(4) =   1
     Q(r) pseudized with  8 coefficients,  rinner =    0.800   0.800   0.800

     PseudoPot. # 4 for C  read from file:
     /storage/coda1/p-amedford6/0/shared/rich_project_chbe-medford/medford-share/data/pseudos_module/espresso/nninc/pbe/van/C.UPF
     MD5 check sum: 1a69bf6b8db32088f5b2163dbdb77a27
     Pseudo is Ultrasoft, Zval =  4.0
     Generated by new atomic code, or converted to UPF format
     Using radial grid of  721 points,  4 beta functions with:
                l(1) =   0
                l(2) =   0
                l(3) =   1
                l(4) =   1
     Q(r) pseudized with  8 coefficients,  rinner =    0.800   0.800   0.800

     PseudoPot. # 5 for H  read from file:
     /storage/coda1/p-amedford6/0/shared/rich_project_chbe-medford/medford-share/data/pseudos_module/espresso/nninc/pbe/van/H.UPF
     MD5 check sum: b5ee9d7bfd3a09ee7748110bda690ff7
     Pseudo is Ultrasoft, Zval =  1.0
     Generated by new atomic code, or converted to UPF format
     Using radial grid of  615 points,  1 beta functions with:
                l(1) =   0
     Q(r) pseudized with  8 coefficients,  rinner =    0.800

     atomic species   valence    mass     pseudopotential
        Ti1           12.00    47.86700     Ti( 1.00)
        O1             6.00    15.99900     O ( 1.00)
        N1             5.00    14.00700     N ( 1.00)
        C1             4.00    12.01100     C ( 1.00)
        H1             1.00     1.00800     H ( 1.00)

     No symmetry found

   Cartesian axes

     site n.     atom                  positions (alat units)
         1           Ti1 tau(   1) = (   0.0004258   2.9801865   6.0000000  )
         2           Ti1 tau(   2) = (   3.2906075   1.4906267   6.0002472  )
         3           O1  tau(   3) = (   0.0006271   0.0005054   7.9858123  )
         4           O1  tau(   4) = (   3.2906025   0.0005020   7.3038282  )
         5           O1  tau(   5) = (   4.5942328   1.4918067   9.2879030  )
         6           O1  tau(   6) = (   1.9868534   1.4903216   9.2879459  )
         7           Ti1 tau(   7) = (   3.2907910   2.8959150   9.1758416  )
         8           Ti1 tau(   8) = (   0.0015273   1.4827037   9.2680791  )
         9           O1  tau(   9) = (   3.2880966   5.9442215  11.2779904  )
        10           O1  tau(  10) = (   0.0116148   5.9584955  10.6183126  )
        11           O1  tau(  11) = (   1.2901275   1.4920942  12.6240107  )
        12           O1  tau(  12) = (   5.2966278   1.4852543  12.6143030  )
        13           Ti1 tau(  13) = (   0.0031916   3.1007002  12.7073671  )
        14           Ti1 tau(  14) = (   3.2978183   1.3116672  12.6600973  )
        15           O1  tau(  15) = (   6.5743189   0.0224225  14.6379036  )
        16           O1  tau(  16) = (   3.2931419   0.0435670  13.8892854  )
        17           O1  tau(  17) = (   4.5409235   1.5821231  16.0748620  )
        18           O1  tau(  18) = (   2.0417342   1.5698890  16.0900686  )
        19           Ti1 tau(  19) = (   3.2746960   3.0378214  15.6558348  )
        20           Ti1 tau(  20) = (   6.4705883   1.5381531  15.9030332  )
        21           O1  tau(  21) = (   3.2904802   0.0005063   4.7018136  )
        22           O1  tau(  22) = (   6.5584422   0.0457650  17.1906971  )
        23           O1  tau(  23) = (   1.3043587   1.4918075   6.0039043  )
        24           O1  tau(  24) = (   5.2767064   1.4903225   6.0039473  )
        25           Ti1 tau(  25) = (   0.0000382   5.9609847   6.0000000  )
        26           Ti1 tau(  26) = (   3.2902200   4.4714249   6.0002472  )
        27           O1  tau(  27) = (   0.0002396   2.9813036   7.9858123  )
        28           O1  tau(  28) = (   3.2902150   2.9813002   7.3038282  )
        29           O1  tau(  29) = (   4.5938453   4.4726049   9.2879030  )
        30           O1  tau(  30) = (   1.9864658   4.4711199   9.2879459  )
        31           Ti1 tau(  31) = (   3.2891106   5.8743827   9.1763621  )
        32           Ti1 tau(  32) = (   0.0006254   4.4649316   9.2693709  )
        33           O1  tau(  33) = (   3.2918970   3.0256722  11.2465752  )
        34           O1  tau(  34) = (   0.0092240   2.9805883  10.6323155  )
        35           O1  tau(  35) = (   1.2932338   4.4650182  12.6342030  )
        36           O1  tau(  36) = (   5.2897350   4.4662865  12.6224893  )
        37           Ti1 tau(  37) = (   0.0112454   0.1207271  12.6557084  )
        38           Ti1 tau(  38) = (   3.2993242   4.4067673  12.4119285  )
        39           O1  tau(  39) = (   6.5542949   2.9732608  14.6543823  )
        40           O1  tau(  40) = (   3.2957262   2.9928748  13.8751945  )
        41           O1  tau(  41) = (   4.5169628   4.4726675  16.1294972  )
        42           O1  tau(  42) = (   2.0179035   4.4711894  16.0655614  )
        43           Ti1 tau(  43) = (   3.1791666   0.0518155  16.3463265  )
        44           Ti1 tau(  44) = (   6.5235282   4.6410908  16.0777984  )
        45           O1  tau(  45) = (   3.2900926   2.9813045   4.7018136  )
        46           O1  tau(  46) = (   1.3039711   4.4726057   6.0039043  )
        47           O1  tau(  47) = (   5.2763189   4.4711207   6.0039473  )
        48           N1  tau(  48) = (   0.0679940   2.9882472  17.3287890  )
        49           C1  tau(  49) = (   0.3345104   2.8919884  18.7043053  )
        50           H1  tau(  50) = (   0.5935414   3.8503421  19.1719745  )
        51           H1  tau(  51) = (   6.0379261   2.4644003  19.2136804  )
        52           H1  tau(  52) = (   1.1315070   2.1426081  18.8955932  )
        53           O1  tau(  53) = (   3.2362511   0.0690349  18.1809703  )
        54           H1  tau(  54) = (   3.8186072   5.4079590  18.6400750  )

     number of k points=    10  Fermi-Dirac smearing, width (Ry)=  0.0073
                       cart. coord. in units 2pi/alat
        k(    1) = (   0.0000000   0.0000000   0.0000000), wk =   0.1250000
        k(    2) = (   0.0000000   0.0419351   0.0000000), wk =   0.2500000
        k(    3) = (   0.0000000  -0.0838702   0.0000000), wk =   0.1250000
        k(    4) = (   0.0379955   0.0000049   0.0000000), wk =   0.2500000
        k(    5) = (   0.0379955   0.0419400   0.0000000), wk =   0.2500000
        k(    6) = (   0.0379955  -0.0838652   0.0000000), wk =   0.2500000
        k(    7) = (   0.0379955  -0.0419301   0.0000000), wk =   0.2500000
        k(    8) = (  -0.0759910  -0.0000099   0.0000000), wk =   0.1250000
        k(    9) = (  -0.0759910   0.0419252   0.0000000), wk =   0.2500000
        k(   10) = (  -0.0759910  -0.0838800   0.0000000), wk =   0.1250000

     Initial potential from superposition of free atoms

     starting charge  380.99916, renormalised to  397.00000

     negative rho (up, down):  1.676E-02 0.000E+00

     %%%%%%%%%%%%%%%%%%%%%%%%%%%%%%%%%%%%%%%%%%%%%%%%%%%%%%%%%%%%%%%%%%%%%%%%
     %                                                                      %
     % You are using vdW-DF, which was implemented by the Thonhauser group. %
     % Please cite the following two papers that made this development      %
     % possible and the two reviews that describe the various versions:     %
     %                                                                      %
     %   T. Thonhauser et al., PRL 115, 136402 (2015).                      %
     %   T. Thonhauser et al., PRB 76, 125112 (2007).                       %
     %   K. Berland et al., Rep. Prog. Phys. 78, 066501 (2015).             %
     %   D.C. Langreth et al., J. Phys.: Condens. Matter 21, 084203 (2009). %
     %                                                                      %
     %                                                                      %
     % If you are calculating the stress with vdW-DF, please also cite:     %
     %                                                                      %
     %   R. Sabatini et al., J. Phys.: Condens. Matter 24, 424209 (2012).   %
     %                                                                      %
     %%%%%%%%%%%%%%%%%%%%%%%%%%%%%%%%%%%%%%%%%%%%%%%%%%%%%%%%%%%%%%%%%%%%%%%%

     Adding external electric field

     Computed dipole along edir(3) :
        Dipole               -8.2921 Ry au,        -21.0764 Debye
        Dipole field         -0.0156 Ry au,

        Potential amp.        1.4506 Ry
        Total length         46.3494 bohr

     Starting wfcs are  300 atomic wfcs
  @ DRIVER MODE: Message from server: STATUS
  @ DRIVER MODE: Message from server: POSDATA
  @ DRIVER MODE: Reading and sharing cell
  @ DRIVER MODE: Reading and sharing positions
  @ DRIVER MODE: Received positions

     Self-consistent Calculation

     iteration #  1     ecut=    29.40 Ry     beta= 0.05
     Davidson diagonalization with overlap
     c_bands:  1 eigenvalues not converged
     c_bands:  1 eigenvalues not converged
     c_bands:  1 eigenvalues not converged
     c_bands:  3 eigenvalues not converged
     c_bands:  2 eigenvalues not converged
     c_bands:  1 eigenvalues not converged
     c_bands:  1 eigenvalues not converged
     ethr =  1.00E-05,  avg # of iterations = 19.2

[...]

     total energy              =   -2606.40971223 Ry
     estimated scf accuracy    <    3821.20326933 Ry

     iteration #  2     ecut=    29.40 Ry     beta= 0.05
     Davidson diagonalization with overlap
     ethr =  1.00E-02,  avg # of iterations = 23.6

[...]

     iteration # 40     ecut=    29.40 Ry     beta= 0.05
     Davidson diagonalization with overlap
     c_bands:  1 eigenvalues not converged
     ethr =  1.74E-06,  avg # of iterations = 12.6

[...]

     total energy              =   -2952.64734649 Ry
     estimated scf accuracy    <       0.00000008 Ry

     iteration # 80     ecut=    29.40 Ry     beta= 0.05
     Davidson diagonalization with overlap
     ethr =  2.04E-11,  avg # of iterations =  1.1

     negative rho (up, down):  1.696E-02 0.000E+00

     Adding external electric field

     Computed dipole along edir(3) :
        Dipole                0.3594 Ry au,          0.9136 Debye
        Dipole field          0.0007 Ry au,

        Potential amp.       -0.0629 Ry
        Total length         46.3494 bohr

     End of self-consistent calculation

          k = 0.0000 0.0000 0.0000 ( 18029 PWs)   bands (ev):

   -56.8769 -56.8434 -55.9471 -55.9115 -55.7363 -55.6715 -55.5497 -55.4284
   -55.3945 -55.3143 -55.3122 -55.2417 -55.2198 -55.1164 -55.0476 -54.9202
   -33.2957 -33.1472 -33.1191 -33.0567 -32.9665 -32.9228 -32.4282 -32.2116
   -32.1673 -32.1469 -32.0915 -32.0831 -32.0576 -31.9701 -31.9487 -31.9064
   -31.8913 -31.8741 -31.8337 -31.8062 -31.7956 -31.7944 -31.7809 -31.7754
   -31.7509 -31.7309 -31.6661 -31.6325 -31.5918 -31.5831 -31.5522 -31.5292
   -31.5168 -31.5090 -31.4756 -31.4667 -31.4408 -31.4314 -31.4093 -31.3949
   -31.3571 -31.3063 -31.2996 -31.2833 -31.2513 -31.1921 -31.1568 -31.1035
   -16.9797 -16.4633 -16.4176 -16.1931 -16.0706 -16.0649 -16.0194 -15.9573
   -15.7842 -15.7301 -15.6904 -15.6270 -15.4756 -15.3652 -15.2683 -15.0723
   -15.0370 -15.0056 -15.0038 -14.9902 -14.9593 -14.9470 -14.8715 -14.8205
   -14.7898 -14.7077 -14.7011 -14.5397 -14.3107 -14.2875 -13.9260 -13.8190
   -13.8098  -8.0294  -4.5555  -4.0900  -3.8861  -3.7111  -3.5616  -3.4861
    -3.4621  -3.3954  -3.3810  -3.2511  -3.2363  -3.2317  -3.2231  -3.1393
    -3.0753  -3.0165  -2.9273  -2.9117  -2.8212  -2.7706  -2.6115  -2.5764
    -2.4893  -2.4109  -2.4051  -2.3389  -2.3195  -2.2779  -2.2433  -2.2114
    -2.1816  -2.1390  -2.0843  -2.0746  -1.9798  -1.9730  -1.8913  -1.8754
    -1.8700  -1.7477  -1.7091  -1.6494  -1.5095  -1.4882  -1.4708  -1.4398
    -1.4011  -1.3412  -1.2362  -1.1788  -1.1497  -1.0961  -1.0262  -0.9693
    -0.9492  -0.8752  -0.8485  -0.7744  -0.7298  -0.7155  -0.6954  -0.6703
    -0.5323  -0.4502  -0.4153  -0.3627  -0.3475  -0.3089  -0.2830  -0.2288
    -0.1704  -0.1484  -0.0502  -0.0478   0.0889   0.1568   0.1594   0.2574
     0.3021   0.3084   0.3654   0.4338   0.4456   0.5094   0.5296   0.5876
     0.5928   0.6359   0.7196   0.7965   0.8398   0.8694   0.9099   0.9303
     1.0421   1.0672   1.1302   1.1866   1.5021   1.5704   2.1767   2.4175
     2.5895   2.8669   3.0624   3.3623   3.4035   3.4217   3.4219   3.7320

[...]

          k = 0.0380-0.0419 0.0000 ( 17876 PWs)   bands (ev):

[...]

          k =-0.0760-0.0000 0.0000 ( 17886 PWs)   bands (ev):

[...]

          k =-0.0760-0.0839 0.0000 ( 17948 PWs)   bands (ev):

   -56.8608 -56.8594 -55.9351 -55.9233 -55.7315 -55.6762 -55.5489 -55.4120
   -55.4108 -55.3149 -55.3076 -55.2459 -55.2184 -55.1150 -55.0491 -54.9215
   -33.1337 -33.1322 -33.1136 -33.1123 -33.0108 -33.0096 -32.2533 -32.2431
   -32.1296 -32.1254 -32.1175 -32.1165 -32.0297 -31.9891 -31.9633 -31.9495
   -31.9018 -31.9003 -31.8348 -31.7922 -31.7720 -31.7645 -31.7636 -31.6871
   -31.6371 -31.6323 -31.6308 -31.6057 -31.5954 -31.5921 -31.5911 -31.5850
   -31.5363 -31.5284 -31.5118 -31.4862 -31.4813 -31.4656 -31.4359 -31.4113
   -31.3942 -31.3600 -31.3084 -31.2938 -31.2607 -31.2571 -31.1591 -31.1412
   -16.4526 -16.3375 -16.3356 -16.2931 -16.2916 -16.0279 -16.0235 -15.7755
   -15.7464 -15.5705 -15.4587 -15.4365 -15.3949 -15.3544 -15.2768 -15.2256
   -15.2127 -15.1847 -15.1582 -15.0861 -15.0525 -14.9508 -14.9153 -14.8535
   -14.8189 -14.7453 -14.7050 -14.6766 -14.4813 -14.4206 -13.9236 -13.9229
   -13.8334  -8.0281  -4.0936  -3.4707  -3.4145  -3.4102  -3.3748  -3.3677
    -3.2878  -3.1633  -3.1600  -3.0510  -2.9591  -2.9322  -2.9024  -2.8484
    -2.8353  -2.7387  -2.6890  -2.6841  -2.6687  -2.6342  -2.6031  -2.5961
    -2.5384  -2.4118  -2.3667  -2.3302  -2.2903  -2.2225  -2.1908  -2.1827
    -2.1505  -2.1110  -2.0925  -2.0636  -2.0511  -2.0444  -2.0341  -1.9458
    -1.7997  -1.7729  -1.6797  -1.6768  -1.6669  -1.6269  -1.5973  -1.5833
    -1.5632  -1.5295  -1.4528  -1.4270  -1.3629  -1.2283  -1.2135  -1.1793
    -1.1255  -1.0232  -1.0079  -0.9123  -0.8945  -0.8843  -0.8197  -0.7979
    -0.7814  -0.7192  -0.6813  -0.5613  -0.4899  -0.4811  -0.4637  -0.4544
    -0.4040  -0.3557  -0.2837  -0.2800  -0.2636  -0.1554  -0.0594   0.0346
     0.0425   0.1094   0.1261   0.1798   0.3373   0.3481   0.3897   0.4512
     0.5675   0.6593   0.7130   0.8124   0.8455   0.9515   0.9698   0.9749
     0.9941   1.0029   1.0473   1.1026   1.1661   1.4846   1.9752   3.0103
     3.0135   3.0719   3.0774   3.3886   3.3908   3.5030   3.5079   3.8370

     the Fermi energy is     2.0736 ev

!    total energy              =   -2952.64735332 Ry
     estimated scf accuracy    <       0.00000006 Ry
     smearing contrib. (-TS)   =      -0.01069570 Ry
     internal energy E=F+TS    =   -2952.63665762 Ry

     The total energy is F=E-TS. E is the sum of the following terms:
     one-electron contribution =  -24061.20895254 Ry
     hartree contribution      =   12121.04877469 Ry
     xc contribution           =    -487.77791237 Ry
     ewald contribution        =    9475.30118879 Ry
     electric field correction =       0.00024380 Ry

     convergence has been achieved in  80 iterations

     Forces acting on atoms (cartesian axes, Ry/au):

     atom    1 type  1   force =     0.00006298   -0.00036802    0.12634465
     atom    2 type  1   force =    -0.00005800    0.00039302   -0.15472846
     atom    3 type  2   force =     0.00003782    0.00023139   -0.06868609
     atom    4 type  2   force =     0.00004363    0.00001260    0.01722230
     atom    5 type  2   force =    -0.00541827   -0.00183251   -0.01283477
     atom    6 type  2   force =     0.00700131   -0.00107217   -0.01373601
     atom    7 type  1   force =    -0.00029877   -0.00640519    0.05894530
     atom    8 type  1   force =     0.00058459    0.00674776    0.10096677
     atom    9 type  2   force =     0.00031891    0.00037236    0.00010600
     atom   10 type  2   force =    -0.00198441    0.00132384   -0.06338149
     atom   11 type  2   force =    -0.00014813   -0.00065644    0.00023007
     atom   12 type  2   force =    -0.00038140   -0.00041402    0.00004796
     atom   13 type  1   force =     0.00056498   -0.00075402    0.00028674
     atom   14 type  1   force =    -0.00003516   -0.00055456    0.00120128
     atom   15 type  2   force =    -0.00003229   -0.00001912    0.00026692
     atom   16 type  2   force =     0.00006557   -0.00020693   -0.00083144
     atom   17 type  2   force =    -0.00042415   -0.00055315   -0.00044741
     atom   18 type  2   force =    -0.00048366   -0.00055521   -0.00057866
     atom   19 type  1   force =     0.00115750    0.00041854   -0.00081466
     atom   20 type  1   force =    -0.00081416    0.00090755   -0.00076290
     atom   21 type  2   force =     0.00009640    0.00015014    0.09785025
     atom   22 type  2   force =    -0.00015806   -0.00006973   -0.00038744
     atom   23 type  2   force =    -0.08272548    0.00003514   -0.03314174
     atom   24 type  2   force =     0.08269415    0.00046698   -0.03320616
     atom   25 type  1   force =     0.00005550   -0.00040103    0.12671288
     atom   26 type  1   force =    -0.00005045   -0.00140284   -0.15488232
     atom   27 type  2   force =     0.00011990   -0.00036954   -0.06708874
     atom   28 type  2   force =     0.00007154    0.00177069    0.01243770
     atom   29 type  2   force =    -0.00383965    0.00476302   -0.01598116
     atom   30 type  2   force =     0.00536864    0.00500247   -0.01690996
     atom   31 type  1   force =    -0.00028813    0.00187892    0.04204033
     atom   32 type  1   force =     0.00075226   -0.00887076    0.10189679
     atom   33 type  2   force =    -0.00004690   -0.00035338   -0.00061044
     atom   34 type  2   force =    -0.00187834    0.00205667   -0.07571011
     atom   35 type  2   force =     0.00014675   -0.00012261   -0.00047917
     atom   36 type  2   force =    -0.00032185    0.00007379   -0.00020741
     atom   37 type  1   force =     0.00046318    0.00056193    0.00037013
     atom   38 type  1   force =    -0.00035018   -0.00073699   -0.00037058
     atom   39 type  2   force =     0.00003805   -0.00050172    0.00060097
     atom   40 type  2   force =    -0.00008670   -0.00057451   -0.00045570
     atom   41 type  2   force =     0.00056280   -0.00040265   -0.00056092
     atom   42 type  2   force =    -0.00118769    0.00027587   -0.00013103
     atom   43 type  1   force =     0.00074723   -0.00069851   -0.00064076
     atom   44 type  1   force =    -0.00080822   -0.00068230   -0.00014960
     atom   45 type  2   force =     0.00008329   -0.00002717    0.09771779
     atom   46 type  2   force =    -0.08275865    0.00001559   -0.03315276
     atom   47 type  2   force =     0.08272315    0.00042905   -0.03319977
     atom   48 type  3   force =    -0.00166443   -0.00078775   -0.00250725
     atom   49 type  4   force =     0.01565921    0.00040825    0.00002365
     atom   50 type  5   force =    -0.00229999   -0.00186082   -0.00009586
     atom   51 type  5   force =    -0.00622218   -0.00293364    0.00306107
     atom   52 type  5   force =    -0.00625105    0.00469493   -0.00085847
     atom   53 type  2   force =     0.00038113    0.00026145   -0.00090604
     atom   54 type  5   force =     0.00121586    0.00093528    0.00010574

     Total force =     0.421604     Total SCF correction =     0.000688
  @ DRIVER MODE: Message from server: STATUS
  @ DRIVER MODE: Message from server: GETFORCE
  @ DRIVER MODE: Returning v,forces,stress,ensemble

     Writing output data file ./calc.save/
  @ DRIVER MODE: Message from server: EXIT
  @ DRIVE MODE: Exiting

     General routines

     Parallel routines

   This run was terminated on:  18:58:21  22Sep2021

   JOB DONE.