     Program PWSCF v.6.7GPU starts on 11Sep2021 at  0:22:46

     R & G space division:  proc/nbgrp/npool/nimage =      10
     Reading input from /storage/home/hcoda1/3/ntian30/research/carbon/CxH_vib/CH2_calc/ads_slab/CH2N2H_e/out_0019/pw.inp
Warning: card &CELL ignored
Warning: card   CELL_DYNAMICS='IPI', ignored
Warning: card / ignored

     Current dimensions of program PWSCF are:
     Max number of different atomic species (ntypx) = 10
     Max number of k-points (npk) =  40000
     Max angular momentum in pseudopotentials (lmaxx) =  3
     Presently no symmetry can be used with electric field

     Message from routine cell_base_init:
     DEPRECATED: use true lattice parameter, not A to a.u. conversion factor

     IMPORTANT: XC functional enforced from input :
     Exchange-correlation= BEEF-VDW
                           (   1   4  43  14   2   0   0)
     Any further DFT definition will be discarded
     Please, verify this is what you really want

  @ DRIVER MODE: Connecting to
 qe_1139763_2792041.sched-torque.pace.gatech.edupzh5jzvg_scratch
  using UNIX socket
  @ DRIVER MODE: Message from server: STATUS
  @ DRIVER MODE: Message from server: INIT
  @ DRIVER MODE: Receiving replica           0          -1
  @ DRIVER MODE: Receiving encoded integer          25
  @ DRIVER MODE:  SCF:  T  FORCE:  T  STRESS:  F  VC:  F  ENSEMBLE:  F
  @ DRIVER MODE:  SCF:  T  FORCE:  T  STRESS:  F  VC:  F  ENSEMBLE:  F

     Using Slab Decomposition

     bravais-lattice index     =            0
     lattice parameter (alat)  =       1.8897  a.u.
     unit-cell volume          =    6658.9804 (a.u.)^3
     number of atoms/cell      =           53
     number of atomic types    =            5
     number of electrons       =       395.00
     number of Kohn-Sham states=          207
     kinetic-energy cutoff     =      29.3995  Ry
     charge density cutoff     =     293.9946  Ry
     scf convergence threshold =      7.3E-08
     mixing beta               =       0.0500
     number of iterations used =            8  plain     mixing
     Exchange-correlation= BEEF-VDW
                           (   1   4  43  14   2   0   0)

     celldm(1)=   1.889726  celldm(2)=   0.000000  celldm(3)=   0.000000
     celldm(4)=   0.000000  celldm(5)=   0.000000  celldm(6)=   0.000000

     crystal axes: (cart. coord. in units of alat)
               a(1) = (   6.579727   0.000000   0.000000 )
               a(2) = (  -0.000775   5.961596   0.000000 )
               a(3) = (   0.000000   0.000000  25.155947 )

     reciprocal axes: (cart. coord. in units 2 pi/alat)
               b(1) = (  0.151982  0.000020  0.000000 )
               b(2) = (  0.000000  0.167740  0.000000 )
               b(3) = (  0.000000  0.000000  0.039752 )

     PseudoPot. # 1 for Ti read from file:
     /storage/coda1/p-amedford6/0/shared/rich_project_chbe-medford/medford-share/data/pseudos_module/espresso/nninc/pbe/van/Ti.UPF
     MD5 check sum: 8e4df49b7f0d34bbd5052bf3f5ea0213
     Pseudo is Ultrasoft, Zval = 12.0
     Generated by new atomic code, or converted to UPF format
     Using radial grid of  851 points,  6 beta functions with:
                l(1) =   0
                l(2) =   0
                l(3) =   1
                l(4) =   1
                l(5) =   2
                l(6) =   2
     Q(r) pseudized with  8 coefficients,  rinner =    1.000   1.000   1.000
                                                       1.000   1.000

     PseudoPot. # 2 for O  read from file:
     /storage/coda1/p-amedford6/0/shared/rich_project_chbe-medford/medford-share/data/pseudos_module/espresso/nninc/pbe/van/O.UPF
     MD5 check sum: 78c19812648e8988a0fe644b0f25305e
     Pseudo is Ultrasoft, Zval =  6.0
     Generated by new atomic code, or converted to UPF format
     Using radial grid of  737 points,  4 beta functions with:
                l(1) =   0
                l(2) =   0
                l(3) =   1
                l(4) =   1
     Q(r) pseudized with  8 coefficients,  rinner =    0.800   0.800   0.800

     PseudoPot. # 3 for N  read from file:
     /storage/coda1/p-amedford6/0/shared/rich_project_chbe-medford/medford-share/data/pseudos_module/espresso/nninc/pbe/van/N.UPF
     MD5 check sum: 90d10febe142ad51ac9d5be1deb811c4
     Pseudo is Ultrasoft, Zval =  5.0
     Generated by new atomic code, or converted to UPF format
     Using radial grid of  729 points,  4 beta functions with:
                l(1) =   0
                l(2) =   0
                l(3) =   1
                l(4) =   1
     Q(r) pseudized with  8 coefficients,  rinner =    0.800   0.800   0.800

     PseudoPot. # 4 for C  read from file:
     /storage/coda1/p-amedford6/0/shared/rich_project_chbe-medford/medford-share/data/pseudos_module/espresso/nninc/pbe/van/C.UPF
     MD5 check sum: 1a69bf6b8db32088f5b2163dbdb77a27
     Pseudo is Ultrasoft, Zval =  4.0
     Generated by new atomic code, or converted to UPF format
     Using radial grid of  721 points,  4 beta functions with:
                l(1) =   0
                l(2) =   0
                l(3) =   1
                l(4) =   1
     Q(r) pseudized with  8 coefficients,  rinner =    0.800   0.800   0.800

     PseudoPot. # 5 for H  read from file:
     /storage/coda1/p-amedford6/0/shared/rich_project_chbe-medford/medford-share/data/pseudos_module/espresso/nninc/pbe/van/H.UPF
     MD5 check sum: b5ee9d7bfd3a09ee7748110bda690ff7
     Pseudo is Ultrasoft, Zval =  1.0
     Generated by new atomic code, or converted to UPF format
     Using radial grid of  615 points,  1 beta functions with:
                l(1) =   0
     Q(r) pseudized with  8 coefficients,  rinner =    0.800

     atomic species   valence    mass     pseudopotential
        Ti1           12.00    47.86700     Ti( 1.00)
        O1             6.00    15.99900     O ( 1.00)
        N1             5.00    14.00700     N ( 1.00)
        C1             4.00    12.01100     C ( 1.00)
        H1             1.00     1.00800     H ( 1.00)

     No symmetry found

   Cartesian axes

     site n.     atom                  positions (alat units)
         1           Ti1 tau(   1) = (   0.0004258   2.9801865   6.0000000  )
         2           Ti1 tau(   2) = (   3.2906075   1.4906267   6.0002472  )
         3           O1  tau(   3) = (   0.0006271   0.0005054   7.9858123  )
         4           O1  tau(   4) = (   3.2906025   0.0005020   7.3038282  )
         5           O1  tau(   5) = (   4.5942328   1.4918067   9.2879030  )
         6           O1  tau(   6) = (   1.9868534   1.4903216   9.2879459  )
         7           Ti1 tau(   7) = (   3.2907910   2.8959150   9.1758416  )
         8           Ti1 tau(   8) = (   0.0015273   1.4827037   9.2680791  )
         9           O1  tau(   9) = (   3.2922140   0.0036562  11.3253104  )
        10           O1  tau(  10) = (   0.0116148   5.9584955  10.6183126  )
        11           O1  tau(  11) = (   1.2860832   1.4889729  12.6258215  )
        12           O1  tau(  12) = (   5.2729595   1.4828594  12.6177116  )
        13           Ti1 tau(  13) = (   0.0641184   3.0073180  12.5883652  )
        14           Ti1 tau(  14) = (   3.3767723   1.4911129  12.4765728  )
        15           O1  tau(  15) = (   6.5781935   5.9569561  14.6821271  )
        16           O1  tau(  16) = (   3.2819581   0.0025077  13.9050320  )
        17           O1  tau(  17) = (   4.5172158   1.5234625  16.0337941  )
        18           O1  tau(  18) = (   2.0475084   1.5263597  16.0453316  )
        19           Ti1 tau(  19) = (   3.2743797   3.0127756  15.6984511  )
        20           Ti1 tau(  20) = (   6.5512008   1.5842238  15.7855373  )
        21           O1  tau(  21) = (   3.2904802   0.0005063   4.7018136  )
        22           O1  tau(  22) = (   6.5742344   0.0609322  17.2932839  )
        23           O1  tau(  23) = (   1.3043587   1.4918075   6.0039043  )
        24           O1  tau(  24) = (   5.2767064   1.4903225   6.0039473  )
        25           Ti1 tau(  25) = (   0.0000382   5.9609847   6.0000000  )
        26           Ti1 tau(  26) = (   3.2902200   4.4714249   6.0002472  )
        27           O1  tau(  27) = (   0.0002396   2.9813036   7.9858123  )
        28           O1  tau(  28) = (   3.2902150   2.9813002   7.3038282  )
        29           O1  tau(  29) = (   4.5938453   4.4726049   9.2879030  )
        30           O1  tau(  30) = (   1.9864658   4.4711199   9.2879459  )
        31           Ti1 tau(  31) = (   3.2891106   5.8743827   9.1763621  )
        32           Ti1 tau(  32) = (   0.0006254   4.4649316   9.2693709  )
        33           O1  tau(  33) = (   3.2917412   2.9831059  11.3263362  )
        34           O1  tau(  34) = (   0.0092240   2.9805883  10.6323155  )
        35           O1  tau(  35) = (   1.2859270   4.4784489  12.6216084  )
        36           O1  tau(  36) = (   5.2779610   4.4756213  12.6128944  )
        37           Ti1 tau(  37) = (   0.0616295   0.0157230  12.5710002  )
        38           Ti1 tau(  38) = (   3.3796684   4.4726909  12.4790056  )
        39           O1  tau(  39) = (   6.5693437   2.9756239  14.6354252  )
        40           O1  tau(  40) = (   3.2842310   3.0020566  13.9003041  )
        41           O1  tau(  41) = (   4.5171552   4.5052370  16.0986928  )
        42           O1  tau(  42) = (   2.0408908   4.5012300  16.0971631  )
        43           Ti1 tau(  43) = (   3.2680294   0.0293594  15.7040856  )
        44           Ti1 tau(  44) = (   6.5592110   4.6908586  16.1766550  )
        45           O1  tau(  45) = (   3.2900926   2.9813045   4.7018136  )
        46           O1  tau(  46) = (   1.3039711   4.4726057   6.0039043  )
        47           O1  tau(  47) = (   5.2763189   4.4711207   6.0039473  )
        48           N1  tau(  48) = (   0.0931655   2.5901963  18.5587852  )
        49           N1  tau(  49) = (   6.5755498   2.9338716  17.3126873  )
        50           C1  tau(  50) = (   0.1889803   3.3462807  19.6294495  )
        51           H1  tau(  51) = (   0.2440540   2.8541835  20.5836859  )
        52           H1  tau(  52) = (   0.1890997   4.4171571  19.5098884  )
        53           H1  tau(  53) = (   0.0969130   1.5623892  18.6894177  )

     number of k points=    10  Fermi-Dirac smearing, width (Ry)=  0.0073
                       cart. coord. in units 2pi/alat
        k(    1) = (   0.0000000   0.0000000   0.0000000), wk =   0.1250000
        k(    2) = (   0.0000000   0.0419351   0.0000000), wk =   0.2500000
        k(    3) = (   0.0000000  -0.0838702   0.0000000), wk =   0.1250000
        k(    4) = (   0.0379955   0.0000049   0.0000000), wk =   0.2500000
        k(    5) = (   0.0379955   0.0419400   0.0000000), wk =   0.2500000
        k(    6) = (   0.0379955  -0.0838652   0.0000000), wk =   0.2500000
        k(    7) = (   0.0379955  -0.0419301   0.0000000), wk =   0.2500000
        k(    8) = (  -0.0759910  -0.0000099   0.0000000), wk =   0.1250000
        k(    9) = (  -0.0759910   0.0419252   0.0000000), wk =   0.2500000
        k(   10) = (  -0.0759910  -0.0838800   0.0000000), wk =   0.1250000

     Initial potential from superposition of free atoms

     starting charge  378.99916, renormalised to  395.00000

     negative rho (up, down):  1.523E-02 0.000E+00

     %%%%%%%%%%%%%%%%%%%%%%%%%%%%%%%%%%%%%%%%%%%%%%%%%%%%%%%%%%%%%%%%%%%%%%%%
     %                                                                      %
     % You are using vdW-DF, which was implemented by the Thonhauser group. %
     % Please cite the following two papers that made this development      %
     % possible and the two reviews that describe the various versions:     %
     %                                                                      %
     %   T. Thonhauser et al., PRL 115, 136402 (2015).                      %
     %   T. Thonhauser et al., PRB 76, 125112 (2007).                       %
     %   K. Berland et al., Rep. Prog. Phys. 78, 066501 (2015).             %
     %   D.C. Langreth et al., J. Phys.: Condens. Matter 21, 084203 (2009). %
     %                                                                      %
     %                                                                      %
     % If you are calculating the stress with vdW-DF, please also cite:     %
     %                                                                      %
     %   R. Sabatini et al., J. Phys.: Condens. Matter 24, 424209 (2012).   %
     %                                                                      %
     %%%%%%%%%%%%%%%%%%%%%%%%%%%%%%%%%%%%%%%%%%%%%%%%%%%%%%%%%%%%%%%%%%%%%%%%

     Adding external electric field

     Computed dipole along edir(3) :
        Dipole               -8.7485 Ry au,        -22.2364 Debye
        Dipole field         -0.0165 Ry au,

        Potential amp.        1.5304 Ry
        Total length         46.3494 bohr

     Starting wfcs are  299 atomic wfcs
  @ DRIVER MODE: Message from server: STATUS
  @ DRIVER MODE: Message from server: POSDATA
  @ DRIVER MODE: Reading and sharing cell
  @ DRIVER MODE: Reading and sharing positions
  @ DRIVER MODE: Received positions

     Self-consistent Calculation

     iteration #  1     ecut=    29.40 Ry     beta= 0.05
     Davidson diagonalization with overlap
     c_bands:  2 eigenvalues not converged
     c_bands:  1 eigenvalues not converged
     c_bands:  1 eigenvalues not converged
     c_bands:  3 eigenvalues not converged
     c_bands:  2 eigenvalues not converged
     c_bands:  1 eigenvalues not converged
     c_bands:  1 eigenvalues not converged
     ethr =  1.00E-05,  avg # of iterations = 19.1

[...]

     total energy              =   -2617.00506380 Ry
     estimated scf accuracy    <    3577.46650556 Ry

[...]

     iteration #  3     ecut=    29.40 Ry     beta= 0.05
     Davidson diagonalization with overlap
     ethr =  1.00E-02,  avg # of iterations = 15.2

[...]

     iteration # 66     ecut=    29.40 Ry     beta= 0.05
     Davidson diagonalization with overlap
     c_bands:  1 eigenvalues not converged
     ethr =  3.60E-11,  avg # of iterations = 15.5

[...]

     total energy              =   -2939.15587681 Ry
     estimated scf accuracy    <       0.00000018 Ry

     iteration # 67     ecut=    29.40 Ry     beta= 0.05
     Davidson diagonalization with overlap
     ethr =  3.60E-11,  avg # of iterations = 10.0

     negative rho (up, down):  1.569E-02 0.000E+00

     Adding external electric field

     Computed dipole along edir(3) :
        Dipole                1.1199 Ry au,          2.8464 Debye
        Dipole field          0.0021 Ry au,

        Potential amp.       -0.1959 Ry
        Total length         46.3494 bohr

     End of self-consistent calculation

          k = 0.0000 0.0000 0.0000 ( 18029 PWs)   bands (ev):

   -55.5875 -55.5840 -55.5534 -55.5480 -55.4553 -55.4355 -55.4191 -55.4011
   -55.4003 -55.3671 -55.3621 -55.3285 -54.9564 -54.8684 -54.5656 -54.5315
   -32.1387 -32.0704 -31.9561 -31.8995 -31.8963 -31.8882 -31.8802 -31.8533
   -31.8312 -31.8114 -31.7791 -31.7695 -31.7632 -31.7396 -31.7369 -31.7238
   -31.6922 -31.6816 -31.6716 -31.6588 -31.6557 -31.6446 -31.6099 -31.6036
   -31.5936 -31.5900 -31.5857 -31.5769 -31.5666 -31.5642 -31.5397 -31.5299
   -31.5159 -31.5107 -31.5024 -31.4750 -31.4634 -31.1956 -31.1878 -31.1490
   -31.1011 -31.0474 -30.9726 -30.8845 -30.8620 -30.7895 -30.7030 -30.5918
   -18.9376 -16.3422 -16.0657 -15.8179 -15.7377 -15.7211 -15.6051 -15.4329
   -15.3165 -15.2651 -15.1621 -15.1611 -15.1248 -15.0905 -15.0421 -15.0390
   -15.0343 -15.0074 -14.9981 -14.9777 -14.9479 -14.9296 -14.8902 -14.7911
   -14.7726 -14.7232 -14.6942 -14.6678 -14.6479 -14.2639 -13.0681 -12.9517
   -12.7037  -8.8757  -6.3292  -4.8592  -3.7176  -3.6522  -3.5599  -3.4952
    -3.4592  -3.4269  -3.2325  -3.1921  -3.1427  -2.8364  -2.7756  -2.7573
    -2.7471  -2.7174  -2.4929  -2.4540  -2.4029  -2.3721  -2.3604  -2.3580
    -2.3564  -2.3265  -2.3082  -2.1672  -2.1326  -2.0421  -2.0028  -1.9963
    -1.9874  -1.9006  -1.8685  -1.8419  -1.8318  -1.8220  -1.7942  -1.7847
    -1.7764  -1.6423  -1.5634  -1.4116  -1.3911  -1.3507  -1.2194  -1.1957
    -1.0636  -1.0468  -1.0177  -0.9809  -0.9608  -0.8921  -0.7719  -0.7503
    -0.7146  -0.6996  -0.6091  -0.5708  -0.5032  -0.4686  -0.4445  -0.3969
    -0.3582  -0.3493  -0.3272  -0.2008  -0.0711  -0.0135  -0.0042   0.0230
     0.0915   0.1291   0.1896   0.2396   0.2495   0.2860   0.3375   0.3819
     0.3940   0.3964   0.4117   0.4498   0.5910   0.6075   0.6727   0.7181
     0.7615   0.8766   0.9284   1.0642   1.1563   1.3149   1.3838   1.4565
     1.5294   1.6488   2.0271   2.0463   2.0730   3.5428   3.6315   3.6757
     3.6810   3.7869   3.8825   3.9942   4.0139   4.0344   4.0900

[...]

          k = 0.0380-0.0419 0.0000 ( 17876 PWs)   bands (ev):

[...]

          k =-0.0760-0.0000 0.0000 ( 17886 PWs)   bands (ev):

[...]

          k =-0.0760-0.0839 0.0000 ( 17948 PWs)   bands (ev):

   -55.5706 -55.5701 -55.5663 -55.5655 -55.4427 -55.4316 -55.4212 -55.4145
   -55.3840 -55.3837 -55.3460 -55.3448 -54.9537 -54.8711 -54.5485 -54.5484
   -31.9421 -31.9403 -31.8859 -31.8854 -31.8659 -31.8652 -31.8382 -31.8380
   -31.8036 -31.7912 -31.7668 -31.7606 -31.7263 -31.7182 -31.7032 -31.7007
   -31.6988 -31.6956 -31.6900 -31.6897 -31.6862 -31.6836 -31.6560 -31.6483
   -31.6299 -31.6272 -31.6208 -31.6147 -31.5845 -31.5831 -31.5777 -31.5763
   -31.5616 -31.5611 -31.5607 -31.5589 -31.3661 -31.2322 -31.1964 -31.1632
   -31.1033 -31.0915 -30.8748 -30.8747 -30.7855 -30.7853 -30.7463 -30.7462
   -18.9338 -15.7723 -15.7576 -15.5315 -15.5161 -15.5050 -15.4960 -15.3487
   -15.3217 -15.2837 -15.2807 -15.2087 -15.1632 -15.1469 -15.1313 -15.1286
   -15.1101 -15.1020 -15.0536 -15.0465 -15.0455 -15.0276 -15.0210 -14.9066
   -14.9026 -14.8946 -14.8422 -14.7930 -14.6760 -14.3916 -13.0535 -13.0534
   -12.7094  -8.8758  -6.3235  -4.8205  -3.6659  -3.3320  -3.0600  -3.0487
    -2.7588  -2.7480  -2.7456  -2.7025  -2.5101  -2.5052  -2.4911  -2.4591
    -2.4256  -2.4144  -2.4045  -2.3903  -2.3848  -2.3361  -2.3141  -2.2690
    -2.2560  -2.2527  -2.2514  -2.2160  -2.2057  -2.1635  -2.1529  -2.1297
    -2.1175  -2.0854  -2.0545  -1.9077  -1.8215  -1.8024  -1.7286  -1.7218
    -1.6895  -1.6525  -1.6389  -1.5940  -1.5593  -1.4426  -1.3305  -1.2885
    -1.2740  -1.1739  -1.1376  -1.0993  -1.0468  -0.9726  -0.9645  -0.9355
    -0.8694  -0.7973  -0.7809  -0.7582  -0.6940  -0.6698  -0.5962  -0.5750
    -0.5502  -0.5453  -0.4886  -0.4229  -0.4071  -0.3556  -0.3474  -0.3064
    -0.2719  -0.2428  -0.2233  -0.0840  -0.0826  -0.0423   0.0924   0.1483
     0.3808   0.4301   0.4500   0.5217   0.6215   0.6700   0.6834   0.7250
     0.7345   0.7497   0.8098   0.9396   0.9451   1.0138   1.0547   1.1564
     1.8205   1.8209   1.8929   1.8930   1.9061   3.8391   3.8655   3.8782
     3.9020   4.0498   4.0597   4.0794   4.0801   4.2003   4.2210

     the Fermi energy is     3.5444 ev

!    total energy              =   -2939.15590000 Ry
     estimated scf accuracy    <       0.00000003 Ry
     smearing contrib. (-TS)   =      -0.02147260 Ry
     internal energy E=F+TS    =   -2939.13442740 Ry

     The total energy is F=E-TS. E is the sum of the following terms:
     one-electron contribution =  -24212.83385237 Ry
     hartree contribution      =   12196.25697152 Ry
     xc contribution           =    -485.25499230 Ry
     ewald contribution        =    9562.69507908 Ry
     electric field correction =       0.00236666 Ry

     convergence has been achieved in  67 iterations

     Forces acting on atoms (cartesian axes, Ry/au):

     atom    1 type  1   force =     0.00008851   -0.00018044    0.09642775
     atom    2 type  1   force =    -0.00019015   -0.00072727   -0.17537187
     atom    3 type  2   force =     0.00004398   -0.00013197   -0.02409258
     atom    4 type  2   force =     0.00007641   -0.00140945    0.05266600
     atom    5 type  2   force =    -0.01130142   -0.00007361    0.00339337
     atom    6 type  2   force =     0.01295176    0.00064065    0.00223903
     atom    7 type  1   force =    -0.00120149    0.00047109   -0.01223503
     atom    8 type  1   force =     0.00043189    0.00232497    0.02518869
     atom    9 type  2   force =    -0.00025340    0.00018648    0.00001563
     atom   10 type  2   force =    -0.00120565    0.00198635   -0.01304067
     atom   11 type  2   force =     0.00057367    0.00015706    0.00024402
     atom   12 type  2   force =    -0.00049476    0.00006335    0.00011908
     atom   13 type  1   force =    -0.00049694    0.00027671    0.00017938
     atom   14 type  1   force =     0.00061408   -0.00036928   -0.00027907
     atom   15 type  2   force =    -0.00005450    0.00029142    0.00004105
     atom   16 type  2   force =    -0.00002206    0.00018127    0.00057344
     atom   17 type  2   force =    -0.00051423   -0.00002867   -0.00006081
     atom   18 type  2   force =     0.00018017   -0.00012441   -0.00031242
     atom   19 type  1   force =     0.00011977    0.00076154    0.00048521
     atom   20 type  1   force =    -0.00000002    0.00032076   -0.00012396
     atom   21 type  2   force =     0.00009871   -0.00012217    0.10313734
     atom   22 type  2   force =    -0.00025014    0.00016319    0.00008733
     atom   23 type  2   force =    -0.07149800   -0.00020993   -0.02772440
     atom   24 type  2   force =     0.07149940    0.00025245   -0.02773221
     atom   25 type  1   force =     0.00012035   -0.00026084    0.09594767
     atom   26 type  1   force =    -0.00011371   -0.00044375   -0.17552245
     atom   27 type  2   force =     0.00009594   -0.00012617   -0.02333780
     atom   28 type  2   force =     0.00010989   -0.00121614    0.05262955
     atom   29 type  2   force =    -0.01154978   -0.00029882    0.00347638
     atom   30 type  2   force =     0.01313438    0.00016403    0.00228300
     atom   31 type  1   force =    -0.00120283    0.00345963   -0.01234727
     atom   32 type  1   force =     0.00054439   -0.00379384    0.02547095
     atom   33 type  2   force =     0.00002597   -0.00016894   -0.00003918
     atom   34 type  2   force =    -0.00098653    0.00046728   -0.02167639
     atom   35 type  2   force =     0.00013903    0.00000926    0.00018986
     atom   36 type  2   force =    -0.00014084    0.00002254    0.00007392
     atom   37 type  1   force =    -0.00044528   -0.00032211    0.00014926
     atom   38 type  1   force =     0.00044028    0.00027563   -0.00028655
     atom   39 type  2   force =    -0.00002558   -0.00045314    0.00030976
     atom   40 type  2   force =    -0.00012967   -0.00008471    0.00012453
     atom   41 type  2   force =    -0.00080199   -0.00017618   -0.00025854
     atom   42 type  2   force =     0.00088265    0.00002178   -0.00002685
     atom   43 type  1   force =    -0.00001794   -0.00077250    0.00011166
     atom   44 type  1   force =    -0.00002519    0.00004916    0.00015491
     atom   45 type  2   force =     0.00010301   -0.00010832    0.10317256
     atom   46 type  2   force =    -0.07149784   -0.00015192   -0.02771276
     atom   47 type  2   force =     0.07150489    0.00029183   -0.02771942
     atom   48 type  3   force =     0.00013654   -0.00147674   -0.00076737
     atom   49 type  3   force =     0.00051597   -0.00012637   -0.00023077
     atom   50 type  4   force =    -0.00075041    0.00101807    0.00039504
     atom   51 type  5   force =     0.00079416   -0.00073578    0.00095716
     atom   52 type  5   force =     0.00018289   -0.00058202    0.00038193
     atom   53 type  5   force =    -0.00023835    0.00081900    0.00027289

     Total force =     0.366694     Total SCF correction =     0.000536
  @ DRIVER MODE: Message from server: STATUS
  @ DRIVER MODE: Message from server: GETFORCE
  @ DRIVER MODE: Returning v,forces,stress,ensemble

     Writing output data file ./calc.save/
  @ DRIVER MODE: Message from server: EXIT
  @ DRIVE MODE: Exiting

     General routines

     Parallel routines

   This run was terminated on:   0:41:22  11Sep2021

   JOB DONE.