     Program PWSCF v.6.7GPU starts on 26Sep2021 at 10:54:19

     R & G space division:  proc/nbgrp/npool/nimage =       8
     Reading input from /storage/home/hcoda1/3/ntian30/research/carbon/CxH_vib/H2O_calc/ads_slab/CH3ON2H2O_a/out_0040/pw.inp
Warning: card &CELL ignored
Warning: card   CELL_DYNAMICS='IPI', ignored
Warning: card / ignored

     Current dimensions of program PWSCF are:
     Max number of different atomic species (ntypx) = 10
     Max number of k-points (npk) =  40000
     Max angular momentum in pseudopotentials (lmaxx) =  3
     Presently no symmetry can be used with electric field

     Message from routine cell_base_init:
     DEPRECATED: use true lattice parameter, not A to a.u. conversion factor

     IMPORTANT: XC functional enforced from input :
     Exchange-correlation= BEEF-VDW
                           (   1   4  43  14   2   0   0)
     Any further DFT definition will be discarded
     Please, verify this is what you really want

  @ DRIVER MODE: Connecting to
 qe_1139763_2971672.sched-torque.pace.gatech.edu18dkz6fp_scratch
  using UNIX socket
  @ DRIVER MODE: Message from server: STATUS
  @ DRIVER MODE: Message from server: INIT
  @ DRIVER MODE: Receiving replica           0          -1
  @ DRIVER MODE: Receiving encoded integer          25
  @ DRIVER MODE:  SCF:  T  FORCE:  T  STRESS:  F  VC:  F  ENSEMBLE:  F
  @ DRIVER MODE:  SCF:  T  FORCE:  T  STRESS:  F  VC:  F  ENSEMBLE:  F

     Using Slab Decomposition

     bravais-lattice index     =            0
     lattice parameter (alat)  =       1.8897  a.u.
     unit-cell volume          =    6658.9804 (a.u.)^3
     number of atoms/cell      =           57
     number of atomic types    =            5
     number of electrons       =       409.00
     number of Kohn-Sham states=          214
     kinetic-energy cutoff     =      29.3995  Ry
     charge density cutoff     =     293.9946  Ry
     scf convergence threshold =      7.3E-08
     mixing beta               =       0.0500
     number of iterations used =            8  plain     mixing
     Exchange-correlation= BEEF-VDW
                           (   1   4  43  14   2   0   0)

     celldm(1)=   1.889726  celldm(2)=   0.000000  celldm(3)=   0.000000
     celldm(4)=   0.000000  celldm(5)=   0.000000  celldm(6)=   0.000000

     crystal axes: (cart. coord. in units of alat)
               a(1) = (   6.579727   0.000000   0.000000 )
               a(2) = (  -0.000775   5.961596   0.000000 )
               a(3) = (   0.000000   0.000000  25.155947 )

     reciprocal axes: (cart. coord. in units 2 pi/alat)
               b(1) = (  0.151982  0.000020  0.000000 )
               b(2) = (  0.000000  0.167740  0.000000 )
               b(3) = (  0.000000  0.000000  0.039752 )

     PseudoPot. # 1 for Ti read from file:
     /storage/coda1/p-amedford6/0/shared/rich_project_chbe-medford/medford-share/data/pseudos_module/espresso/nninc/pbe/van/Ti.UPF
     MD5 check sum: 8e4df49b7f0d34bbd5052bf3f5ea0213
     Pseudo is Ultrasoft, Zval = 12.0
     Generated by new atomic code, or converted to UPF format
     Using radial grid of  851 points,  6 beta functions with:
                l(1) =   0
                l(2) =   0
                l(3) =   1
                l(4) =   1
                l(5) =   2
                l(6) =   2
     Q(r) pseudized with  8 coefficients,  rinner =    1.000   1.000   1.000
                                                       1.000   1.000

     PseudoPot. # 2 for O  read from file:
     /storage/coda1/p-amedford6/0/shared/rich_project_chbe-medford/medford-share/data/pseudos_module/espresso/nninc/pbe/van/O.UPF
     MD5 check sum: 78c19812648e8988a0fe644b0f25305e
     Pseudo is Ultrasoft, Zval =  6.0
     Generated by new atomic code, or converted to UPF format
     Using radial grid of  737 points,  4 beta functions with:
                l(1) =   0
                l(2) =   0
                l(3) =   1
                l(4) =   1
     Q(r) pseudized with  8 coefficients,  rinner =    0.800   0.800   0.800

     PseudoPot. # 3 for C  read from file:
     /storage/coda1/p-amedford6/0/shared/rich_project_chbe-medford/medford-share/data/pseudos_module/espresso/nninc/pbe/van/C.UPF
     MD5 check sum: 1a69bf6b8db32088f5b2163dbdb77a27
     Pseudo is Ultrasoft, Zval =  4.0
     Generated by new atomic code, or converted to UPF format
     Using radial grid of  721 points,  4 beta functions with:
                l(1) =   0
                l(2) =   0
                l(3) =   1
                l(4) =   1
     Q(r) pseudized with  8 coefficients,  rinner =    0.800   0.800   0.800

     PseudoPot. # 4 for H  read from file:
     /storage/coda1/p-amedford6/0/shared/rich_project_chbe-medford/medford-share/data/pseudos_module/espresso/nninc/pbe/van/H.UPF
     MD5 check sum: b5ee9d7bfd3a09ee7748110bda690ff7
     Pseudo is Ultrasoft, Zval =  1.0
     Generated by new atomic code, or converted to UPF format
     Using radial grid of  615 points,  1 beta functions with:
                l(1) =   0
     Q(r) pseudized with  8 coefficients,  rinner =    0.800

     PseudoPot. # 5 for N  read from file:
     /storage/coda1/p-amedford6/0/shared/rich_project_chbe-medford/medford-share/data/pseudos_module/espresso/nninc/pbe/van/N.UPF
     MD5 check sum: 90d10febe142ad51ac9d5be1deb811c4
     Pseudo is Ultrasoft, Zval =  5.0
     Generated by new atomic code, or converted to UPF format
     Using radial grid of  729 points,  4 beta functions with:
                l(1) =   0
                l(2) =   0
                l(3) =   1
                l(4) =   1
     Q(r) pseudized with  8 coefficients,  rinner =    0.800   0.800   0.800

     atomic species   valence    mass     pseudopotential
        Ti1           12.00    47.86700     Ti( 1.00)
        O1             6.00    15.99900     O ( 1.00)
        C1             4.00    12.01100     C ( 1.00)
        H1             1.00     1.00800     H ( 1.00)
        N1             5.00    14.00700     N ( 1.00)

     No symmetry found

   Cartesian axes

     site n.     atom                  positions (alat units)
         1           Ti1 tau(   1) = (   0.0004258   2.9801865   6.0000000  )
         2           Ti1 tau(   2) = (   3.2906075   1.4906267   6.0002472  )
         3           O1  tau(   3) = (   0.0006271   0.0005054   7.9858123  )
         4           O1  tau(   4) = (   3.2906025   0.0005020   7.3038282  )
         5           O1  tau(   5) = (   4.5942328   1.4918067   9.2879030  )
         6           O1  tau(   6) = (   1.9868534   1.4903216   9.2879459  )
         7           Ti1 tau(   7) = (   3.3113259   3.0354369   9.1618307  )
         8           Ti1 tau(   8) = (   0.0141821   1.6139659   9.3625064  )
         9           O1  tau(   9) = (   3.2964399   0.0287090  11.3517035  )
        10           O1  tau(  10) = (   0.0046459   0.0167322  10.6079620  )
        11           O1  tau(  11) = (   1.2916403   1.5142126  12.6509924  )
        12           O1  tau(  12) = (   5.2954765   1.5212855  12.6445515  )
        13           Ti1 tau(  13) = (   0.0303381   3.0181167  12.7741416  )
        14           Ti1 tau(  14) = (   3.3376880   1.5190318  12.5019279  )
        15           O1  tau(  15) = (   6.5702980   0.0162101  14.7136675  )
        16           O1  tau(  16) = (   3.3118210   0.0215951  13.9605728  )
        17           O1  tau(  17) = (   4.5586303   1.5408398  16.0643691  )
        18           O1  tau(  18) = (   2.0376984   1.5397913  16.0346728  )
        19           Ti1 tau(  19) = (   3.2806018   3.0126274  15.6982083  )
        20           Ti1 tau(  20) = (   0.0204579   1.3876160  16.0921805  )
        21           O1  tau(  21) = (   3.2904802   0.0005063   4.7018136  )
        22           O1  tau(  22) = (   0.0362274   0.0182013  17.2505027  )
        23           O1  tau(  23) = (   1.3043587   1.4918075   6.0039043  )
        24           O1  tau(  24) = (   5.2767064   1.4903225   6.0039473  )
        25           Ti1 tau(  25) = (   0.0000382   5.9609847   6.0000000  )
        26           Ti1 tau(  26) = (   3.2902200   4.4714249   6.0002472  )
        27           O1  tau(  27) = (   0.0002396   2.9813036   7.9858123  )
        28           O1  tau(  28) = (   3.2902150   2.9813002   7.3038282  )
        29           O1  tau(  29) = (   4.5938453   4.4726049   9.2879030  )
        30           O1  tau(  30) = (   1.9864658   4.4711199   9.2879459  )
        31           Ti1 tau(  31) = (   3.2918133   0.0584897   9.1554610  )
        32           Ti1 tau(  32) = (   0.0176696   4.5429683   9.2683582  )
        33           O1  tau(  33) = (   3.2944385   3.0046939  11.3531965  )
        34           O1  tau(  34) = (   0.0071923   2.9964285  10.5824339  )
        35           O1  tau(  35) = (   1.2923070   4.5060354  12.6395470  )
        36           O1  tau(  36) = (   5.2930342   4.4972821  12.6335129  )
        37           Ti1 tau(  37) = (   0.0360028   0.0369787  12.5252624  )
        38           Ti1 tau(  38) = (   3.3378333   4.5109478  12.5016189  )
        39           O1  tau(  39) = (   0.0182598   3.0415135  14.6926035  )
        40           O1  tau(  40) = (   3.2973286   3.0139918  13.9115332  )
        41           O1  tau(  41) = (   4.5518717   4.4752506  16.0920674  )
        42           O1  tau(  42) = (   2.0385343   4.4722040  16.0556704  )
        43           Ti1 tau(  43) = (   3.3273276   0.0437280  15.7880462  )
        44           Ti1 tau(  44) = (   0.0148993   4.5306414  15.9319406  )
        45           O1  tau(  45) = (   3.2900926   2.9813045   4.7018136  )
        46           O1  tau(  46) = (   1.3039711   4.4726057   6.0039043  )
        47           O1  tau(  47) = (   5.2763189   4.4711207   6.0039473  )
        48           C1  tau(  48) = (   6.0619278   3.0088867  18.6555636  )
        49           O1  tau(  49) = (   6.5788924   2.9994598  17.3400993  )
        50           H1  tau(  50) = (   4.9713474   2.8828304  18.6515055  )
        51           H1  tau(  51) = (   6.4909130   2.1836263  19.2313859  )
        52           H1  tau(  52) = (   6.3070107   3.9563896  19.1453893  )
        53           N1  tau(  53) = (   5.9950546   3.0301018  22.7159517  )
        54           N1  tau(  54) = (   5.2276613   3.1927328  21.9368001  )
        55           O1  tau(  55) = (   3.1818816   0.0591848  18.2205797  )
        56           H1  tau(  56) = (   3.8437189   5.3938241  18.5518935  )
        57           H1  tau(  57) = (   2.3086839   5.6188137  18.3735615  )

     number of k points=    10  Fermi-Dirac smearing, width (Ry)=  0.0073
                       cart. coord. in units 2pi/alat
        k(    1) = (   0.0000000   0.0000000   0.0000000), wk =   0.1250000
        k(    2) = (   0.0000000   0.0419351   0.0000000), wk =   0.2500000
        k(    3) = (   0.0000000  -0.0838702   0.0000000), wk =   0.1250000
        k(    4) = (   0.0379955   0.0000049   0.0000000), wk =   0.2500000
        k(    5) = (   0.0379955   0.0419400   0.0000000), wk =   0.2500000
        k(    6) = (   0.0379955  -0.0838652   0.0000000), wk =   0.2500000
        k(    7) = (   0.0379955  -0.0419301   0.0000000), wk =   0.2500000
        k(    8) = (  -0.0759910  -0.0000099   0.0000000), wk =   0.1250000
        k(    9) = (  -0.0759910   0.0419252   0.0000000), wk =   0.2500000
        k(   10) = (  -0.0759910  -0.0838800   0.0000000), wk =   0.1250000

     Initial potential from superposition of free atoms

     starting charge  392.99914, renormalised to  409.00000

     negative rho (up, down):  9.750E-03 0.000E+00

     %%%%%%%%%%%%%%%%%%%%%%%%%%%%%%%%%%%%%%%%%%%%%%%%%%%%%%%%%%%%%%%%%%%%%%%%
     %                                                                      %
     % You are using vdW-DF, which was implemented by the Thonhauser group. %
     % Please cite the following two papers that made this development      %
     % possible and the two reviews that describe the various versions:     %
     %                                                                      %
     %   T. Thonhauser et al., PRL 115, 136402 (2015).                      %
     %   T. Thonhauser et al., PRB 76, 125112 (2007).                       %
     %   K. Berland et al., Rep. Prog. Phys. 78, 066501 (2015).             %
     %   D.C. Langreth et al., J. Phys.: Condens. Matter 21, 084203 (2009). %
     %                                                                      %
     %                                                                      %
     % If you are calculating the stress with vdW-DF, please also cite:     %
     %                                                                      %
     %   R. Sabatini et al., J. Phys.: Condens. Matter 24, 424209 (2012).   %
     %                                                                      %
     %%%%%%%%%%%%%%%%%%%%%%%%%%%%%%%%%%%%%%%%%%%%%%%%%%%%%%%%%%%%%%%%%%%%%%%%

     Adding external electric field

     Computed dipole along edir(3) :
        Dipole              -18.5715 Ry au,        -47.2041 Debye
        Dipole field         -0.0350 Ry au,

        Potential amp.        3.2488 Ry
        Total length         46.3494 bohr

     Starting wfcs are  309 atomic wfcs
  @ DRIVER MODE: Message from server: STATUS
  @ DRIVER MODE: Message from server: POSDATA
  @ DRIVER MODE: Reading and sharing cell
  @ DRIVER MODE: Reading and sharing positions
  @ DRIVER MODE: Received positions

     Self-consistent Calculation

     iteration #  1     ecut=    29.40 Ry     beta= 0.05
     Davidson diagonalization with overlap
     c_bands:  3 eigenvalues not converged
     c_bands:  2 eigenvalues not converged
     c_bands:  2 eigenvalues not converged
     c_bands:  5 eigenvalues not converged
     c_bands:  5 eigenvalues not converged
     c_bands:  5 eigenvalues not converged
     c_bands:  1 eigenvalues not converged
     c_bands:  3 eigenvalues not converged
     ethr =  1.00E-05,  avg # of iterations = 28.5

[...]

     total energy              =   -2113.12512082 Ry
     estimated scf accuracy    <   10297.58829180 Ry

     iteration #  2     ecut=    29.40 Ry     beta= 0.05
     Davidson diagonalization with overlap
     ethr =  1.00E-02,  avg # of iterations = 31.1

[...]

     iteration # 66     ecut=    29.40 Ry     beta= 0.05
     Davidson diagonalization with overlap
     c_bands:  2 eigenvalues not converged
     ethr =  3.36E-10,  avg # of iterations = 16.4

[...]

     total energy              =   -3006.52133452 Ry
     estimated scf accuracy    <       0.00000009 Ry

     iteration # 71     ecut=    29.40 Ry     beta= 0.05
     Davidson diagonalization with overlap
     ethr =  2.30E-11,  avg # of iterations = 10.8

     negative rho (up, down):  1.092E-02 0.000E+00

     Adding external electric field

     Computed dipole along edir(3) :
        Dipole                0.9964 Ry au,          2.5327 Debye
        Dipole field          0.0019 Ry au,

        Potential amp.       -0.1743 Ry
        Total length         46.3494 bohr

     End of self-consistent calculation

          k = 0.0000 0.0000 0.0000 ( 18029 PWs)   bands (ev):

   -55.2855 -55.2511 -55.2496 -55.2148 -55.1922 -55.1768 -55.1689 -55.1333
   -55.0827 -55.0643 -55.0490 -55.0410 -55.0071 -54.9531 -54.2921 -54.2581
   -31.8082 -31.7547 -31.6781 -31.6460 -31.6246 -31.5773 -31.5600 -31.5567
   -31.5203 -31.5152 -31.4786 -31.4651 -31.4586 -31.4496 -31.4453 -31.4325
   -31.4264 -31.3902 -31.3850 -31.3770 -31.3730 -31.3543 -31.3503 -31.3412
   -31.3335 -31.3272 -31.3116 -31.2900 -31.2796 -31.2742 -31.2709 -31.2637
   -31.2604 -31.2450 -31.2323 -31.2222 -31.2202 -31.1856 -31.1705 -31.1502
   -31.1378 -31.1365 -30.7015 -30.6056 -30.5832 -30.5180 -30.4319 -30.3209
   -21.4029 -18.7347 -17.1984 -16.0003 -15.7298 -15.5698 -15.4385 -15.4032
   -15.2164 -15.0946 -14.9621 -14.9379 -14.8840 -14.8569 -14.8224 -14.8116
   -14.8066 -14.7946 -14.7866 -14.7398 -14.7051 -14.6877 -14.6872 -14.6637
   -14.6151 -14.5615 -14.4969 -14.4316 -14.4029 -14.3614 -14.2922 -14.2839
   -12.7929 -12.6750  -9.1237  -6.6123  -6.5280  -4.5519  -4.5407  -3.9166
    -3.7666  -3.4719  -3.3639  -3.2850  -3.2122  -3.1899  -3.1681  -3.0928
    -2.9823  -2.8457  -2.7504  -2.5111  -2.4557  -2.4129  -2.3813  -2.3523
    -2.1957  -2.1708  -2.1020  -2.0909  -2.0822  -2.0715  -2.0446  -2.0153
    -1.9898  -1.9581  -1.8990  -1.8748  -1.8042  -1.6733  -1.6648  -1.6328
    -1.5863  -1.5701  -1.5686  -1.5417  -1.4976  -1.4788  -1.4544  -1.4489
    -1.3519  -1.2598  -1.2169  -1.1226  -1.0430  -0.9699  -0.8475  -0.8091
    -0.7355  -0.7023  -0.6861  -0.6324  -0.5833  -0.5730  -0.5143  -0.4675
    -0.3599  -0.3174  -0.2753  -0.2384  -0.1870  -0.1431  -0.0723  -0.0388
    -0.0062  -0.0016   0.0194   0.2177   0.2288   0.2803   0.2930   0.3902
     0.4427   0.4771   0.4904   0.4996   0.5375   0.6130   0.6688   0.6773
     0.7091   0.7449   0.7643   0.8103   0.8511   0.9036   0.9331   0.9679
     1.0346   1.0749   1.2289   1.3234   1.3676   1.4835   1.6406   1.7319
     1.8056   1.9059   2.3186   2.3760   3.8960   3.9300   3.9569   3.9749
     4.0432   4.1422   4.2587   4.3498   4.3592   4.3896

[...]

          k = 0.0380-0.0419 0.0000 ( 17876 PWs)   bands (ev):

[...]

          k =-0.0760-0.0000 0.0000 ( 17886 PWs)   bands (ev):

[...]

          k =-0.0760-0.0839 0.0000 ( 17948 PWs)   bands (ev):

   -55.2734 -55.2616 -55.2351 -55.2306 -55.1890 -55.1746 -55.1582 -55.1441
   -55.0853 -55.0612 -55.0513 -55.0263 -55.0219 -54.9557 -54.2756 -54.2745
   -31.6200 -31.6035 -31.5776 -31.5760 -31.5654 -31.5640 -31.5466 -31.5139
   -31.5070 -31.4900 -31.4868 -31.4763 -31.4413 -31.4309 -31.4104 -31.4062
   -31.4012 -31.3993 -31.3977 -31.3916 -31.3887 -31.3853 -31.3738 -31.3654
   -31.3591 -31.3506 -31.3496 -31.3481 -31.3426 -31.3171 -31.2911 -31.2784
   -31.2756 -31.2745 -31.2714 -31.2628 -31.2542 -31.2416 -31.2320 -31.2227
   -31.1810 -31.1473 -30.5965 -30.5952 -30.5149 -30.5140 -30.4755 -30.4745
   -21.4028 -18.7337 -17.1680 -15.4685 -15.3593 -15.2303 -15.1658 -15.1428
   -15.1163 -15.0634 -15.0471 -14.9915 -14.9874 -14.9369 -14.9305 -14.8875
   -14.8807 -14.8266 -14.7984 -14.7893 -14.7604 -14.7277 -14.7117 -14.7109
   -14.6707 -14.6494 -14.6405 -14.6101 -14.6028 -14.5407 -14.5040 -14.4704
   -12.7772 -12.7755  -9.1256  -6.6131  -6.5214  -4.5523  -4.5480  -3.8264
    -3.7255  -3.4979  -3.2717  -3.0031  -2.7539  -2.5712  -2.4798  -2.4110
    -2.3578  -2.3397  -2.2302  -2.2057  -2.1758  -2.1411  -2.1187  -2.1079
    -2.0904  -2.0814  -2.0743  -2.0567  -2.0231  -2.0034  -1.9775  -1.9525
    -1.9374  -1.9138  -1.8962  -1.8888  -1.8640  -1.8362  -1.8295  -1.8266
    -1.7639  -1.7241  -1.5657  -1.5207  -1.4997  -1.4095  -1.3900  -1.3735
    -1.3479  -1.3339  -1.3173  -1.1985  -1.1474  -1.1193  -1.0110  -0.9930
    -0.9669  -0.8287  -0.8051  -0.7724  -0.7441  -0.7021  -0.6326  -0.6091
    -0.5536  -0.5406  -0.4393  -0.4022  -0.3773  -0.3641  -0.2680  -0.2458
    -0.2403  -0.2146  -0.1513  -0.1197  -0.0743  -0.0444  -0.0136   0.0109
     0.0569   0.0768   0.1706   0.1909   0.2271   0.2699   0.3639   0.5304
     0.6236   0.7339   0.7595   0.8064   0.8669   0.9090   0.9594   1.0128
     1.0606   1.0673   1.1300   1.1672   1.2521   1.2660   1.2693   1.3377
     2.0932   2.0935   2.1814   2.1904   4.1373   4.1456   4.2027   4.2223
     4.3618   4.3680   4.3814   4.3891   4.4836   4.5416

     the Fermi energy is     3.8659 ev

!    total energy              =   -3006.52134928 Ry
     estimated scf accuracy    <       0.00000006 Ry
     smearing contrib. (-TS)   =      -0.02294521 Ry
     internal energy E=F+TS    =   -3006.49840407 Ry

     The total energy is F=E-TS. E is the sum of the following terms:
     one-electron contribution =  -22563.05822577 Ry
     hartree contribution      =   11380.87147894 Ry
     xc contribution           =    -501.14289124 Ry
     ewald contribution        =    8676.82936024 Ry
     electric field correction =       0.00187375 Ry

     convergence has been achieved in  71 iterations

     Forces acting on atoms (cartesian axes, Ry/au):

     atom    1 type  1   force =    -0.00014805   -0.00166494    0.10538419
     atom    2 type  1   force =    -0.00021841    0.00113605   -0.17916997
     atom    3 type  2   force =     0.00020819   -0.00553730   -0.03233367
     atom    4 type  2   force =     0.00010337    0.00072254    0.04630376
     atom    5 type  2   force =    -0.01804285    0.00052791    0.00424490
     atom    6 type  2   force =     0.01844130   -0.00044642    0.00411332
     atom    7 type  1   force =     0.00007704    0.00019829    0.00004635
     atom    8 type  1   force =     0.00006882    0.00031072   -0.00014310
     atom    9 type  2   force =     0.00017633    0.00034459   -0.00005627
     atom   10 type  2   force =     0.00016964   -0.00000790    0.00004749
     atom   11 type  2   force =     0.00004809   -0.00035032   -0.00037414
     atom   12 type  2   force =    -0.00006175   -0.00052317   -0.00051444
     atom   13 type  1   force =     0.00048411    0.00023846    0.00005563
     atom   14 type  1   force =    -0.00026420   -0.00047606   -0.00044993
     atom   15 type  2   force =     0.00004351   -0.00054116    0.00031936
     atom   16 type  2   force =    -0.00008792    0.00030787   -0.00024040
     atom   17 type  2   force =    -0.00042803   -0.00061548    0.00006911
     atom   18 type  2   force =     0.00004101   -0.00049177    0.00019767
     atom   19 type  1   force =     0.00041749   -0.00027337   -0.00008831
     atom   20 type  1   force =    -0.00008391   -0.00073450   -0.00084527
     atom   21 type  2   force =    -0.00003206    0.00010058    0.10395099
     atom   22 type  2   force =    -0.00001585   -0.00053018    0.00053482
     atom   23 type  2   force =    -0.06942073    0.00051530   -0.02947567
     atom   24 type  2   force =     0.06917448    0.00096722   -0.02952818
     atom   25 type  1   force =    -0.00002987    0.00156466    0.11480879
     atom   26 type  1   force =    -0.00022364   -0.00046723   -0.17917760
     atom   27 type  2   force =     0.00021335    0.00414724   -0.02603032
     atom   28 type  2   force =     0.00042715    0.00092829    0.04808920
     atom   29 type  2   force =    -0.01631088    0.00162831    0.00385370
     atom   30 type  2   force =     0.01736741    0.00217712    0.00362299
     atom   31 type  1   force =    -0.00014075    0.00010203   -0.00025278
     atom   32 type  1   force =     0.00011149   -0.00007916    0.00025999
     atom   33 type  2   force =     0.00028801   -0.00050704    0.00021136
     atom   34 type  2   force =    -0.00004097   -0.00030721   -0.00025857
     atom   35 type  2   force =    -0.00046119   -0.00013202    0.00002014
     atom   36 type  2   force =     0.00053947    0.00002032    0.00001093
     atom   37 type  1   force =     0.00046111   -0.00073497   -0.00006624
     atom   38 type  1   force =    -0.00037480   -0.00002528   -0.00038526
     atom   39 type  2   force =    -0.00042144   -0.00049870   -0.00047748
     atom   40 type  2   force =     0.00035848   -0.00041324   -0.00026527
     atom   41 type  2   force =    -0.00019154   -0.00003121    0.00006452
     atom   42 type  2   force =    -0.00032325   -0.00021943    0.00005998
     atom   43 type  1   force =     0.00025253    0.00008724    0.00138692
     atom   44 type  1   force =     0.00002794   -0.00034578   -0.00079008
     atom   45 type  2   force =    -0.00003758    0.00007921    0.10398594
     atom   46 type  2   force =    -0.06902586   -0.00106039   -0.02952949
     atom   47 type  2   force =     0.06883793   -0.00062030   -0.02960554
     atom   48 type  3   force =    -0.00021928    0.00003085    0.00031612
     atom   49 type  2   force =    -0.00000335    0.00024378   -0.00084298
     atom   50 type  4   force =    -0.00043742   -0.00005201    0.00003031
     atom   51 type  4   force =     0.00029643   -0.00027997    0.00015675
     atom   52 type  4   force =    -0.00005062    0.00035753   -0.00043490
     atom   53 type  5   force =    -0.00685863    0.00104224   -0.00695599
     atom   54 type  5   force =     0.00630672   -0.00088712    0.00664882
     atom   55 type  2   force =     0.00070760   -0.00002602    0.00036398
     atom   56 type  4   force =    -0.00156933    0.00013370   -0.00065238
     atom   57 type  4   force =    -0.00012483    0.00096756   -0.00021380

     Total force =     0.374768     Total SCF correction =     0.000568
  @ DRIVER MODE: Message from server: STATUS
  @ DRIVER MODE: Message from server: GETFORCE
  @ DRIVER MODE: Returning v,forces,stress,ensemble

     Writing output data file ./calc.save/
  @ DRIVER MODE: Message from server: EXIT
  @ DRIVE MODE: Exiting

     General routines

     Parallel routines

   This run was terminated on:  11:23:31  26Sep2021

   JOB DONE.