     Program PWSCF v.6.7GPU starts on 25Sep2021 at 21:52:38

     R & G space division:  proc/nbgrp/npool/nimage =       8
     Reading input from /storage/home/hcoda1/3/ntian30/research/carbon/CxH_vib/H2O_calc/ads_slab/CH2OHN2HO_a/out_0013/pw.inp
Warning: card &CELL ignored
Warning: card   CELL_DYNAMICS='IPI', ignored
Warning: card / ignored

     Current dimensions of program PWSCF are:
     Max number of different atomic species (ntypx) = 10
     Max number of k-points (npk) =  40000
     Max angular momentum in pseudopotentials (lmaxx) =  3
     Presently no symmetry can be used with electric field

     Message from routine cell_base_init:
     DEPRECATED: use true lattice parameter, not A to a.u. conversion factor

     IMPORTANT: XC functional enforced from input :
     Exchange-correlation= BEEF-VDW
                           (   1   4  43  14   2   0   0)
     Any further DFT definition will be discarded
     Please, verify this is what you really want

  @ DRIVER MODE: Connecting to
 qe_1139763_2971670.sched-torque.pace.gatech.eduv9kzit1s_scratch
  using UNIX socket
  @ DRIVER MODE: Message from server: STATUS
  @ DRIVER MODE: Message from server: INIT
  @ DRIVER MODE: Receiving replica           0          -1
  @ DRIVER MODE: Receiving encoded integer          25
  @ DRIVER MODE:  SCF:  T  FORCE:  T  STRESS:  F  VC:  F  ENSEMBLE:  F
  @ DRIVER MODE:  SCF:  T  FORCE:  T  STRESS:  F  VC:  F  ENSEMBLE:  F

     Using Slab Decomposition

     bravais-lattice index     =            0
     lattice parameter (alat)  =       1.8897  a.u.
     unit-cell volume          =    6658.9804 (a.u.)^3
     number of atoms/cell      =           56
     number of atomic types    =            5
     number of electrons       =       408.00
     number of Kohn-Sham states=          214
     kinetic-energy cutoff     =      29.3995  Ry
     charge density cutoff     =     293.9946  Ry
     scf convergence threshold =      7.3E-08
     mixing beta               =       0.0500
     number of iterations used =            8  plain     mixing
     Exchange-correlation= BEEF-VDW
                           (   1   4  43  14   2   0   0)

     celldm(1)=   1.889726  celldm(2)=   0.000000  celldm(3)=   0.000000
     celldm(4)=   0.000000  celldm(5)=   0.000000  celldm(6)=   0.000000

     crystal axes: (cart. coord. in units of alat)
               a(1) = (   6.579727   0.000000   0.000000 )
               a(2) = (  -0.000775   5.961596   0.000000 )
               a(3) = (   0.000000   0.000000  25.155947 )

     reciprocal axes: (cart. coord. in units 2 pi/alat)
               b(1) = (  0.151982  0.000020  0.000000 )
               b(2) = (  0.000000  0.167740  0.000000 )
               b(3) = (  0.000000  0.000000  0.039752 )

     PseudoPot. # 1 for C  read from file:
     /storage/coda1/p-amedford6/0/shared/rich_project_chbe-medford/medford-share/data/pseudos_module/espresso/nninc/pbe/van/C.UPF
     MD5 check sum: 1a69bf6b8db32088f5b2163dbdb77a27
     Pseudo is Ultrasoft, Zval =  4.0
     Generated by new atomic code, or converted to UPF format
     Using radial grid of  721 points,  4 beta functions with:
                l(1) =   0
                l(2) =   0
                l(3) =   1
                l(4) =   1
     Q(r) pseudized with  8 coefficients,  rinner =    0.800   0.800   0.800

     PseudoPot. # 2 for H  read from file:
     /storage/coda1/p-amedford6/0/shared/rich_project_chbe-medford/medford-share/data/pseudos_module/espresso/nninc/pbe/van/H.UPF
     MD5 check sum: b5ee9d7bfd3a09ee7748110bda690ff7
     Pseudo is Ultrasoft, Zval =  1.0
     Generated by new atomic code, or converted to UPF format
     Using radial grid of  615 points,  1 beta functions with:
                l(1) =   0
     Q(r) pseudized with  8 coefficients,  rinner =    0.800

     PseudoPot. # 3 for O  read from file:
     /storage/coda1/p-amedford6/0/shared/rich_project_chbe-medford/medford-share/data/pseudos_module/espresso/nninc/pbe/van/O.UPF
     MD5 check sum: 78c19812648e8988a0fe644b0f25305e
     Pseudo is Ultrasoft, Zval =  6.0
     Generated by new atomic code, or converted to UPF format
     Using radial grid of  737 points,  4 beta functions with:
                l(1) =   0
                l(2) =   0
                l(3) =   1
                l(4) =   1
     Q(r) pseudized with  8 coefficients,  rinner =    0.800   0.800   0.800

     PseudoPot. # 4 for Ti read from file:
     /storage/coda1/p-amedford6/0/shared/rich_project_chbe-medford/medford-share/data/pseudos_module/espresso/nninc/pbe/van/Ti.UPF
     MD5 check sum: 8e4df49b7f0d34bbd5052bf3f5ea0213
     Pseudo is Ultrasoft, Zval = 12.0
     Generated by new atomic code, or converted to UPF format
     Using radial grid of  851 points,  6 beta functions with:
                l(1) =   0
                l(2) =   0
                l(3) =   1
                l(4) =   1
                l(5) =   2
                l(6) =   2
     Q(r) pseudized with  8 coefficients,  rinner =    1.000   1.000   1.000
                                                       1.000   1.000

     PseudoPot. # 5 for N  read from file:
     /storage/coda1/p-amedford6/0/shared/rich_project_chbe-medford/medford-share/data/pseudos_module/espresso/nninc/pbe/van/N.UPF
     MD5 check sum: 90d10febe142ad51ac9d5be1deb811c4
     Pseudo is Ultrasoft, Zval =  5.0
     Generated by new atomic code, or converted to UPF format
     Using radial grid of  729 points,  4 beta functions with:
                l(1) =   0
                l(2) =   0
                l(3) =   1
                l(4) =   1
     Q(r) pseudized with  8 coefficients,  rinner =    0.800   0.800   0.800

     atomic species   valence    mass     pseudopotential
        C1             4.00    12.01100     C ( 1.00)
        H1             1.00     1.00800     H ( 1.00)
        O1             6.00    15.99900     O ( 1.00)
        Ti1           12.00    47.86700     Ti( 1.00)
        N1             5.00    14.00700     N ( 1.00)

     No symmetry found

   Cartesian axes

     site n.     atom                  positions (alat units)
         1           C1  tau(   1) = (   4.4694424   3.1333252  19.5683752  )
         2           H1  tau(   2) = (   3.5225350   3.1610456  19.0510688  )
         3           H1  tau(   3) = (   5.8501665   2.9975095  17.9951248  )
         4           H1  tau(   4) = (   4.8161173   2.2403860  20.0673745  )
         5           O1  tau(   5) = (   0.0006271   0.0005054   7.9858123  )
         6           O1  tau(   6) = (   3.2906025   0.0005020   7.3038282  )
         7           O1  tau(   7) = (   4.5942328   1.4918067   9.2879030  )
         8           O1  tau(   8) = (   1.9868534   1.4903216   9.2879459  )
         9           O1  tau(   9) = (   3.2658522   0.0207364  11.3165592  )
        10           O1  tau(  10) = (   0.0022773   0.0111808  10.5833539  )
        11           O1  tau(  11) = (   1.2584498   1.5025451  12.6333345  )
        12           O1  tau(  12) = (   5.2827793   1.4879884  12.6049259  )
        13           O1  tau(  13) = (   6.5229081   0.0016576  14.6697044  )
        14           O1  tau(  14) = (   3.2671471   5.9223268  13.9212949  )
        15           O1  tau(  15) = (   4.5038562   1.5078053  16.0770842  )
        16           O1  tau(  16) = (   1.9713840   1.5400684  15.9915579  )
        17           O1  tau(  17) = (   3.2904802   0.0005063   4.7018136  )
        18           O1  tau(  18) = (   0.0083768   5.9574009  17.1899481  )
        19           O1  tau(  19) = (   1.3043587   1.4918075   6.0039043  )
        20           O1  tau(  20) = (   5.2767064   1.4903225   6.0039473  )
        21           O1  tau(  21) = (   0.0002396   2.9813036   7.9858123  )
        22           O1  tau(  22) = (   3.2902150   2.9813002   7.3038282  )
        23           O1  tau(  23) = (   4.5938453   4.4726049   9.2879030  )
        24           O1  tau(  24) = (   1.9864658   4.4711199   9.2879459  )
        25           O1  tau(  25) = (   3.2699439   2.9592623  11.2883102  )
        26           O1  tau(  26) = (   0.0014687   2.9942081  10.5424492  )
        27           O1  tau(  27) = (   1.2624719   4.4656417  12.6394791  )
        28           O1  tau(  28) = (   5.2897987   4.4902883  12.6063686  )
        29           O1  tau(  29) = (   6.5205774   2.9949485  14.6561412  )
        30           O1  tau(  30) = (   3.3050662   2.9767913  13.8748461  )
        31           O1  tau(  31) = (   4.4950179   4.4323158  16.0974573  )
        32           O1  tau(  32) = (   1.9671975   4.4064719  15.9829847  )
        33           O1  tau(  33) = (   3.2900926   2.9813045   4.7018136  )
        34           O1  tau(  34) = (   1.3039711   4.4726057   6.0039043  )
        35           O1  tau(  35) = (   5.2763189   4.4711207   6.0039473  )
        36           O1  tau(  36) = (   6.5424668   2.9800173  17.2949776  )
        37           Ti1 tau(  37) = (   0.0004258   2.9801865   6.0000000  )
        38           Ti1 tau(  38) = (   3.2906075   1.4906267   6.0002472  )
        39           Ti1 tau(  39) = (   3.3167600   3.1006338   9.2159236  )
        40           Ti1 tau(  40) = (   0.0391818   1.5627686   9.3440282  )
        41           Ti1 tau(  41) = (   6.5783755   3.0458713  12.7937554  )
        42           Ti1 tau(  42) = (   3.2318486   1.5634082  12.4209175  )
        43           Ti1 tau(  43) = (   3.2670811   2.9501284  15.6494465  )
        44           Ti1 tau(  44) = (   0.0280251   1.4030395  16.0254105  )
        45           Ti1 tau(  45) = (   0.0000382   5.9609847   6.0000000  )
        46           Ti1 tau(  46) = (   3.2902200   4.4714249   6.0002472  )
        47           Ti1 tau(  47) = (   3.3194908   0.1157174   9.1781592  )
        48           Ti1 tau(  48) = (   0.0398790   4.5135925   9.3581580  )
        49           Ti1 tau(  49) = (   6.5007586   0.0629955  12.6074658  )
        50           Ti1 tau(  50) = (   3.2410718   4.6571100  12.6672192  )
        51           Ti1 tau(  51) = (   3.3282601   5.9350673  16.2366838  )
        52           Ti1 tau(  52) = (   0.0495319   4.5308688  15.9870001  )
        53           N1  tau(  53) = (   5.2748021   5.2735043  20.4272172  )
        54           N1  tau(  54) = (   4.8779203   4.2732533  20.0576380  )
        55           O1  tau(  55) = (   3.0402417   5.9484128  18.0530970  )
        56           H1  tau(  56) = (   2.1234608   0.1014992  18.3542784  )

     number of k points=    10  Fermi-Dirac smearing, width (Ry)=  0.0073
                       cart. coord. in units 2pi/alat
        k(    1) = (   0.0000000   0.0000000   0.0000000), wk =   0.1250000
        k(    2) = (   0.0000000   0.0419351   0.0000000), wk =   0.2500000
        k(    3) = (   0.0000000  -0.0838702   0.0000000), wk =   0.1250000
        k(    4) = (   0.0379955   0.0000049   0.0000000), wk =   0.2500000
        k(    5) = (   0.0379955   0.0419400   0.0000000), wk =   0.2500000
        k(    6) = (   0.0379955  -0.0838652   0.0000000), wk =   0.2500000
        k(    7) = (   0.0379955  -0.0419301   0.0000000), wk =   0.2500000
        k(    8) = (  -0.0759910  -0.0000099   0.0000000), wk =   0.1250000
        k(    9) = (  -0.0759910   0.0419252   0.0000000), wk =   0.2500000
        k(   10) = (  -0.0759910  -0.0838800   0.0000000), wk =   0.1250000

     Initial potential from superposition of free atoms

     starting charge  391.99915, renormalised to  408.00000

     negative rho (up, down):  1.413E-02 0.000E+00

     %%%%%%%%%%%%%%%%%%%%%%%%%%%%%%%%%%%%%%%%%%%%%%%%%%%%%%%%%%%%%%%%%%%%%%%%
     %                                                                      %
     % You are using vdW-DF, which was implemented by the Thonhauser group. %
     % Please cite the following two papers that made this development      %
     % possible and the two reviews that describe the various versions:     %
     %                                                                      %
     %   T. Thonhauser et al., PRL 115, 136402 (2015).                      %
     %   T. Thonhauser et al., PRB 76, 125112 (2007).                       %
     %   K. Berland et al., Rep. Prog. Phys. 78, 066501 (2015).             %
     %   D.C. Langreth et al., J. Phys.: Condens. Matter 21, 084203 (2009). %
     %                                                                      %
     %                                                                      %
     % If you are calculating the stress with vdW-DF, please also cite:     %
     %                                                                      %
     %   R. Sabatini et al., J. Phys.: Condens. Matter 24, 424209 (2012).   %
     %                                                                      %
     %%%%%%%%%%%%%%%%%%%%%%%%%%%%%%%%%%%%%%%%%%%%%%%%%%%%%%%%%%%%%%%%%%%%%%%%

     Adding external electric field

     Computed dipole along edir(3) :
        Dipole              -15.5929 Ry au,        -39.6331 Debye
        Dipole field         -0.0294 Ry au,

        Potential amp.        2.7277 Ry
        Total length         46.3494 bohr

     Starting wfcs are  308 atomic wfcs
  @ DRIVER MODE: Message from server: STATUS
  @ DRIVER MODE: Message from server: POSDATA
  @ DRIVER MODE: Reading and sharing cell
  @ DRIVER MODE: Reading and sharing positions
  @ DRIVER MODE: Received positions

     Self-consistent Calculation

     iteration #  1     ecut=    29.40 Ry     beta= 0.05
     Davidson diagonalization with overlap
     c_bands:  3 eigenvalues not converged
     c_bands:  1 eigenvalues not converged
     c_bands:  1 eigenvalues not converged
     c_bands:  4 eigenvalues not converged
     c_bands:  2 eigenvalues not converged
     ethr =  1.00E-05,  avg # of iterations = 30.0

[...]

     total energy              =   -2234.24916390 Ry
     estimated scf accuracy    <    8817.72083788 Ry

     iteration #  2     ecut=    29.40 Ry     beta= 0.05
     Davidson diagonalization with overlap
     ethr =  1.00E-02,  avg # of iterations = 33.1

[...]

     iteration # 38     ecut=    29.40 Ry     beta= 0.05
     Davidson diagonalization with overlap
     c_bands:  1 eigenvalues not converged
     ethr =  1.02E-06,  avg # of iterations = 11.9

[...]

     total energy              =   -3005.15891737 Ry
     estimated scf accuracy    <       0.00000013 Ry

     iteration # 73     ecut=    29.40 Ry     beta= 0.05
     Davidson diagonalization with overlap
     ethr =  2.41E-11,  avg # of iterations =  5.0

     negative rho (up, down):  1.446E-02 0.000E+00

     Adding external electric field

     Computed dipole along edir(3) :
        Dipole                0.4959 Ry au,          1.2604 Debye
        Dipole field          0.0009 Ry au,

        Potential amp.       -0.0867 Ry
        Total length         46.3494 bohr

     End of self-consistent calculation

          k = 0.0000 0.0000 0.0000 ( 18029 PWs)   bands (ev):

   -56.1951 -56.1487 -55.6507 -55.6443 -55.6279 -55.5812 -55.5695 -55.5291
   -55.5169 -55.4913 -55.4448 -55.4023 -55.3976 -55.2731 -54.8195 -54.7856
   -32.6093 -32.4584 -32.4097 -32.3754 -32.2810 -32.2357 -32.1458 -32.0863
   -32.0765 -32.0214 -31.9545 -31.9423 -31.9409 -31.8855 -31.8841 -31.8769
   -31.8618 -31.8436 -31.8288 -31.8107 -31.8008 -31.7930 -31.7568 -31.7330
   -31.7296 -31.7139 -31.7069 -31.7043 -31.7026 -31.6935 -31.6877 -31.6794
   -31.6690 -31.6506 -31.6473 -31.6061 -31.5971 -31.5897 -31.5642 -31.5269
   -31.4870 -31.4760 -31.2143 -31.1588 -31.1345 -31.0313 -30.9464 -30.8353
   -20.6081 -16.8435 -16.4170 -16.3580 -16.2151 -15.9848 -15.8477 -15.7633
   -15.5326 -15.5162 -15.4031 -15.3945 -15.3513 -15.2392 -15.2250 -15.1882
   -15.1816 -15.1685 -15.1553 -15.1203 -15.1162 -15.1090 -15.0427 -15.0143
   -14.9866 -14.9421 -14.8874 -14.8471 -14.7786 -14.7719 -14.7281 -14.5226
   -13.7529 -13.3201 -13.2111  -6.3501  -5.3679  -4.8361  -4.2693  -4.0109
    -3.8835  -3.6676  -3.5724  -3.5638  -3.3971  -3.3713  -3.2749  -3.0553
    -2.9225  -2.8400  -2.8094  -2.7493  -2.7265  -2.6577  -2.6227  -2.6133
    -2.5728  -2.5222  -2.4715  -2.4569  -2.4439  -2.3996  -2.3896  -2.3538
    -2.3391  -2.3352  -2.2942  -2.1486  -2.1356  -2.0793  -2.0689  -2.0237
    -2.0155  -1.9878  -1.9774  -1.9314  -1.8924  -1.7539  -1.7371  -1.7227
    -1.6553  -1.4376  -1.4025  -1.3056  -1.2460  -1.2101  -1.1159  -1.1140
    -1.0803  -1.0511  -1.0032  -0.9225  -0.8895  -0.8327  -0.7877  -0.7794
    -0.7313  -0.6642  -0.6140  -0.5567  -0.5207  -0.4784  -0.4028  -0.3509
    -0.2848  -0.2662  -0.2148  -0.1756  -0.0850  -0.0514  -0.0220   0.0304
     0.0538   0.1192   0.1234   0.1616   0.1831   0.2607   0.2904   0.3071
     0.3573   0.3840   0.3969   0.4613   0.5245   0.5649   0.6115   0.7139
     0.7596   0.7844   0.8543   0.9311   1.0994   1.1990   1.2278   1.4234
     1.4557   1.7528   1.8008   1.8563   3.1031   3.2679   3.5556   3.6445
     3.6823   3.7135   3.8106   3.8410   3.9962   4.0518

[...]

          k = 0.0380-0.0419 0.0000 ( 17876 PWs)   bands (ev):

[...]

          k =-0.0760-0.0000 0.0000 ( 17886 PWs)   bands (ev):

[...]

          k =-0.0760-0.0839 0.0000 ( 17948 PWs)   bands (ev):

   -56.1878 -56.1558 -55.6489 -55.6423 -55.6225 -55.5750 -55.5744 -55.5357
   -55.5183 -55.4931 -55.4364 -55.4107 -55.3953 -55.2752 -54.8027 -54.8023
   -32.4537 -32.4398 -32.4140 -32.4124 -32.3403 -32.3131 -32.0352 -31.9516
   -31.9512 -31.9237 -31.9200 -31.8854 -31.8840 -31.8726 -31.8626 -31.8528
   -31.8431 -31.8313 -31.8167 -31.8109 -31.8024 -31.7995 -31.7912 -31.7880
   -31.7824 -31.7819 -31.7696 -31.7529 -31.7235 -31.7198 -31.7131 -31.7034
   -31.7002 -31.6754 -31.6588 -31.6485 -31.6438 -31.6237 -31.5945 -31.5885
   -31.5266 -31.4795 -31.1476 -31.1474 -31.0298 -31.0281 -30.9886 -30.9877
   -20.6073 -16.7671 -16.3922 -15.7988 -15.6693 -15.6616 -15.6608 -15.6255
   -15.5844 -15.5317 -15.5051 -15.4504 -15.3821 -15.3561 -15.3374 -15.3127
   -15.2668 -15.2385 -15.2227 -15.1499 -15.1123 -15.1000 -15.0841 -15.0779
   -15.0318 -15.0282 -15.0090 -15.0022 -14.9940 -14.9382 -14.8406 -14.6630
   -13.7601 -13.3152 -13.3142  -6.2821  -5.4110  -4.7849  -4.2400  -3.9840
    -3.4908  -3.0264  -2.9252  -2.8465  -2.8394  -2.7513  -2.7105  -2.6793
    -2.6596  -2.6414  -2.6145  -2.5659  -2.5440  -2.5058  -2.4959  -2.4925
    -2.4760  -2.4696  -2.4492  -2.4249  -2.4102  -2.3962  -2.3825  -2.3590
    -2.3473  -2.3384  -2.3227  -2.2922  -2.2455  -2.2262  -2.0496  -2.0186
    -2.0110  -2.0106  -1.9432  -1.9388  -1.8823  -1.8081  -1.7917  -1.7701
    -1.7522  -1.6366  -1.5017  -1.4553  -1.3975  -1.3748  -1.3065  -1.2550
    -1.1590  -1.1393  -1.1292  -1.1116  -1.0671  -1.0632  -0.9774  -0.9223
    -0.8802  -0.8764  -0.8555  -0.8098  -0.6924  -0.6855  -0.6423  -0.6241
    -0.6077  -0.5051  -0.4736  -0.4548  -0.4394  -0.4269  -0.3222  -0.2745
    -0.2299  -0.1791  -0.1184  -0.0598   0.0620   0.0880   0.1811   0.2120
     0.2537   0.3864   0.4124   0.4653   0.4937   0.5508   0.5881   0.6026
     0.7320   0.7850   0.8044   0.8714   0.8912   0.9284   0.9519   1.5915
     1.5976   1.6048   1.6072   1.7942   3.6454   3.6718   3.6780   3.7125
     3.8966   3.9255   4.0037   4.0272   4.0422   4.0536

     the Fermi energy is     2.5629 ev

!    total energy              =   -3005.15893800 Ry
     estimated scf accuracy    <       0.00000005 Ry
     smearing contrib. (-TS)   =      -0.00024024 Ry
     internal energy E=F+TS    =   -3005.15869776 Ry

     The total energy is F=E-TS. E is the sum of the following terms:
     one-electron contribution =  -22952.20501761 Ry
     hartree contribution      =   11572.01844423 Ry
     xc contribution           =    -500.30636211 Ry
     ewald contribution        =    8875.33377367 Ry
     electric field correction =       0.00046407 Ry

     convergence has been achieved in  73 iterations

     Forces acting on atoms (cartesian axes, Ry/au):

     atom    1 type  1   force =     0.00060096   -0.00030712    0.00017904
     atom    2 type  2   force =    -0.00021044    0.00020992   -0.00007019
     atom    3 type  2   force =    -0.00002631    0.00000774   -0.00027334
     atom    4 type  2   force =    -0.00039927   -0.00011275    0.00011545
     atom    5 type  3   force =     0.00028089   -0.00316570   -0.05387079
     atom    6 type  3   force =     0.00043752    0.00120041    0.04055401
     atom    7 type  3   force =    -0.00980840   -0.00221359    0.00043042
     atom    8 type  3   force =     0.00887489   -0.00512167   -0.00068130
     atom    9 type  3   force =    -0.00028024    0.00004074    0.00002086
     atom   10 type  3   force =     0.00005685    0.00003393   -0.00002899
     atom   11 type  3   force =     0.00042679    0.00007236   -0.00012553
     atom   12 type  3   force =     0.00038345    0.00019961    0.00004717
     atom   13 type  3   force =     0.00016937    0.00001666    0.00001038
     atom   14 type  3   force =    -0.00050548   -0.00009310    0.00033153
     atom   15 type  3   force =    -0.00002703    0.00009420    0.00010323
     atom   16 type  3   force =    -0.00001882   -0.00011172   -0.00001227
     atom   17 type  3   force =    -0.00007036    0.00016471    0.09946970
     atom   18 type  3   force =     0.00009513   -0.00005816    0.00003534
     atom   19 type  3   force =    -0.08024399    0.00059153   -0.03415341
     atom   20 type  3   force =     0.08000940    0.00110637   -0.03418093
     atom   21 type  3   force =     0.00052267    0.00001872   -0.05294221
     atom   22 type  3   force =     0.00037744    0.00049199    0.04231239
     atom   23 type  3   force =    -0.01095879    0.00574671    0.00229431
     atom   24 type  3   force =     0.01004021    0.00213098    0.00124342
     atom   25 type  3   force =    -0.00014762    0.00004508    0.00009294
     atom   26 type  3   force =     0.00013112    0.00008261    0.00004191
     atom   27 type  3   force =     0.00028673    0.00042739   -0.00008843
     atom   28 type  3   force =     0.00091484   -0.00005076    0.00015740
     atom   29 type  3   force =     0.00031390   -0.00011213   -0.00003829
     atom   30 type  3   force =    -0.00024769   -0.00000600    0.00001632
     atom   31 type  3   force =     0.00007555   -0.00004199   -0.00003094
     atom   32 type  3   force =    -0.00005036   -0.00019733    0.00009199
     atom   33 type  3   force =    -0.00008433    0.00025523    0.09903893
     atom   34 type  3   force =    -0.08024185   -0.00144938   -0.03415454
     atom   35 type  3   force =     0.08001915   -0.00092649   -0.03420351
     atom   36 type  3   force =     0.00006639   -0.00013546    0.00000361
     atom   37 type  4   force =     0.00019826    0.00017289    0.13338052
     atom   38 type  4   force =     0.00002585    0.00798727   -0.15912360
     atom   39 type  4   force =     0.00003125   -0.00006254    0.00000007
     atom   40 type  4   force =    -0.00010760    0.00015058    0.00001810
     atom   41 type  4   force =    -0.00301762   -0.00037347   -0.00000341
     atom   42 type  4   force =     0.00041149    0.00008195   -0.00007123
     atom   43 type  4   force =     0.00023523   -0.00004013   -0.00001539
     atom   44 type  4   force =     0.00016805   -0.00007934   -0.00005657
     atom   45 type  4   force =    -0.00024441   -0.00008935    0.14215402
     atom   46 type  4   force =    -0.00018515   -0.00648251   -0.15859099
     atom   47 type  4   force =     0.00018507   -0.00008126    0.00005504
     atom   48 type  4   force =    -0.00027850    0.00019137    0.00009482
     atom   49 type  4   force =    -0.00265436   -0.00018694    0.00007961
     atom   50 type  4   force =     0.00373899   -0.00010097   -0.00002248
     atom   51 type  4   force =     0.00026974    0.00006158    0.00017334
     atom   52 type  4   force =     0.00000687   -0.00001989    0.00018920
     atom   53 type  5   force =     0.00023176   -0.00000481   -0.00041170
     atom   54 type  5   force =    -0.00000932    0.00012451    0.00053814
     atom   55 type  3   force =    -0.00013431    0.00032646   -0.00046039
     atom   56 type  2   force =     0.00036646   -0.00040898    0.00033722

     Total force =     0.385093     Total SCF correction =     0.000838
  @ DRIVER MODE: Message from server: STATUS
  @ DRIVER MODE: Message from server: GETFORCE
  @ DRIVER MODE: Returning v,forces,stress,ensemble

     Writing output data file ./calc.save/
  @ DRIVER MODE: Message from server: EXIT
  @ DRIVE MODE: Exiting

     General routines

     Parallel routines

   This run was terminated on:  22:20:31  25Sep2021

   JOB DONE.