     Program PWSCF v.6.7GPU starts on 24Aug2021 at 14:46:19

     R & G space division:  proc/nbgrp/npool/nimage =      72
     Reading input from /storage/home/hcoda1/3/ntian30/research/carbon/CH2_vib/ads_slab/CH2N_a/out_0018/pw.inp
Warning: card &CELL ignored
Warning: card   CELL_DYNAMICS='IPI', ignored
Warning: card / ignored

     Current dimensions of program PWSCF are:
     Max number of different atomic species (ntypx) = 10
     Max number of k-points (npk) =  40000
     Max angular momentum in pseudopotentials (lmaxx) =  3
     Presently no symmetry can be used with electric field

     Message from routine cell_base_init:
     DEPRECATED: use true lattice parameter, not A to a.u. conversion factor

     IMPORTANT: XC functional enforced from input :
     Exchange-correlation= BEEF-VDW
                           (   1   4  43  14   2   0   0)
     Any further DFT definition will be discarded
     Please, verify this is what you really want

  @ DRIVER MODE: Connecting to
 qe_1139763_2641441.sched-torque.pace.gatech.eduvt665srm_scratch
  using UNIX socket
  @ DRIVER MODE: Message from server: STATUS
  @ DRIVER MODE: Message from server: INIT
  @ DRIVER MODE: Receiving replica           0          -1
  @ DRIVER MODE: Receiving encoded integer          25
  @ DRIVER MODE:  SCF:  T  FORCE:  T  STRESS:  F  VC:  F  ENSEMBLE:  F
  @ DRIVER MODE:  SCF:  T  FORCE:  T  STRESS:  F  VC:  F  ENSEMBLE:  F

     Using Slab Decomposition

     bravais-lattice index     =            0
     lattice parameter (alat)  =       1.8897  a.u.
     unit-cell volume          =    6658.9804 (a.u.)^3
     number of atoms/cell      =           51
     number of atomic types    =            5
     number of electrons       =       389.00
     number of Kohn-Sham states=          204
     kinetic-energy cutoff     =      29.3995  Ry
     charge density cutoff     =     293.9946  Ry
     scf convergence threshold =      7.3E-08
     mixing beta               =       0.0500
     number of iterations used =            8  plain     mixing
     Exchange-correlation= BEEF-VDW
                           (   1   4  43  14   2   0   0)

     celldm(1)=   1.889726  celldm(2)=   0.000000  celldm(3)=   0.000000
     celldm(4)=   0.000000  celldm(5)=   0.000000  celldm(6)=   0.000000

     crystal axes: (cart. coord. in units of alat)
               a(1) = (   6.579727   0.000000   0.000000 )
               a(2) = (  -0.000775   5.961596   0.000000 )
               a(3) = (   0.000000   0.000000  25.155947 )

     reciprocal axes: (cart. coord. in units 2 pi/alat)
               b(1) = (  0.151982  0.000020  0.000000 )
               b(2) = (  0.000000  0.167740  0.000000 )
               b(3) = (  0.000000  0.000000  0.039752 )

     PseudoPot. # 1 for Ti read from file:
     /storage/coda1/p-amedford6/0/shared/rich_project_chbe-medford/medford-share/data/pseudos_module/espresso/nninc/pbe/van/Ti.UPF
     MD5 check sum: 8e4df49b7f0d34bbd5052bf3f5ea0213
     Pseudo is Ultrasoft, Zval = 12.0
     Generated by new atomic code, or converted to UPF format
     Using radial grid of  851 points,  6 beta functions with:
                l(1) =   0
                l(2) =   0
                l(3) =   1
                l(4) =   1
                l(5) =   2
                l(6) =   2
     Q(r) pseudized with  8 coefficients,  rinner =    1.000   1.000   1.000
                                                       1.000   1.000

     PseudoPot. # 2 for O  read from file:
     /storage/coda1/p-amedford6/0/shared/rich_project_chbe-medford/medford-share/data/pseudos_module/espresso/nninc/pbe/van/O.UPF
     MD5 check sum: 78c19812648e8988a0fe644b0f25305e
     Pseudo is Ultrasoft, Zval =  6.0
     Generated by new atomic code, or converted to UPF format
     Using radial grid of  737 points,  4 beta functions with:
                l(1) =   0
                l(2) =   0
                l(3) =   1
                l(4) =   1
     Q(r) pseudized with  8 coefficients,  rinner =    0.800   0.800   0.800

     PseudoPot. # 3 for N  read from file:
     /storage/coda1/p-amedford6/0/shared/rich_project_chbe-medford/medford-share/data/pseudos_module/espresso/nninc/pbe/van/N.UPF
     MD5 check sum: 90d10febe142ad51ac9d5be1deb811c4
     Pseudo is Ultrasoft, Zval =  5.0
     Generated by new atomic code, or converted to UPF format
     Using radial grid of  729 points,  4 beta functions with:
                l(1) =   0
                l(2) =   0
                l(3) =   1
                l(4) =   1
     Q(r) pseudized with  8 coefficients,  rinner =    0.800   0.800   0.800

     PseudoPot. # 4 for C  read from file:
     /storage/coda1/p-amedford6/0/shared/rich_project_chbe-medford/medford-share/data/pseudos_module/espresso/nninc/pbe/van/C.UPF
     MD5 check sum: 1a69bf6b8db32088f5b2163dbdb77a27
     Pseudo is Ultrasoft, Zval =  4.0
     Generated by new atomic code, or converted to UPF format
     Using radial grid of  721 points,  4 beta functions with:
                l(1) =   0
                l(2) =   0
                l(3) =   1
                l(4) =   1
     Q(r) pseudized with  8 coefficients,  rinner =    0.800   0.800   0.800

     PseudoPot. # 5 for H  read from file:
     /storage/coda1/p-amedford6/0/shared/rich_project_chbe-medford/medford-share/data/pseudos_module/espresso/nninc/pbe/van/H.UPF
     MD5 check sum: b5ee9d7bfd3a09ee7748110bda690ff7
     Pseudo is Ultrasoft, Zval =  1.0
     Generated by new atomic code, or converted to UPF format
     Using radial grid of  615 points,  1 beta functions with:
                l(1) =   0
     Q(r) pseudized with  8 coefficients,  rinner =    0.800

     atomic species   valence    mass     pseudopotential
        Ti1           12.00    47.86700     Ti( 1.00)
        O1             6.00    15.99900     O ( 1.00)
        N1             5.00    14.00700     N ( 1.00)
        C1             4.00    12.01100     C ( 1.00)
        H1             1.00     1.00800     H ( 1.00)

     No symmetry found

   Cartesian axes

     site n.     atom                  positions (alat units)
         1           Ti1 tau(   1) = (   0.0004258   2.9801865   6.0000000  )
         2           Ti1 tau(   2) = (   3.2906075   1.4906267   6.0002472  )
         3           O1  tau(   3) = (   0.0006271   0.0005054   7.9858123  )
         4           O1  tau(   4) = (   3.2906025   0.0005020   7.3038282  )
         5           O1  tau(   5) = (   4.5942328   1.4918067   9.2879030  )
         6           O1  tau(   6) = (   1.9868534   1.4903216   9.2879459  )
         7           Ti1 tau(   7) = (   3.2907910   2.8959150   9.1758416  )
         8           Ti1 tau(   8) = (   0.0015273   1.4827037   9.2680791  )
         9           O1  tau(   9) = (   3.3121109   0.0111249  11.3310253  )
        10           O1  tau(  10) = (   0.0116148   5.9584955  10.6183126  )
        11           O1  tau(  11) = (   1.3329579   1.5011098  12.6063046  )
        12           O1  tau(  12) = (   5.3158149   1.4916659  12.6245769  )
        13           Ti1 tau(  13) = (   6.5431557   2.9598450  12.6156978  )
        14           Ti1 tau(  14) = (   3.2273839   1.5049138  12.4779161  )
        15           O1  tau(  15) = (   0.0471551   0.0364395  14.6528705  )
        16           O1  tau(  16) = (   3.3160098   0.0207640  13.9215624  )
        17           O1  tau(  17) = (   4.5810600   1.5471256  16.0564497  )
        18           O1  tau(  18) = (   2.0947546   1.5446786  16.0656860  )
        19           Ti1 tau(  19) = (   3.3354243   3.0239694  15.7034691  )
        20           Ti1 tau(  20) = (   0.0419518   1.5622418  15.8401859  )
        21           O1  tau(  21) = (   3.2904802   0.0005063   4.7018136  )
        22           O1  tau(  22) = (   0.0415632   0.0558952  17.2248266  )
        23           O1  tau(  23) = (   1.3043587   1.4918075   6.0039043  )
        24           O1  tau(  24) = (   5.2767064   1.4903225   6.0039473  )
        25           Ti1 tau(  25) = (   0.0000382   5.9609847   6.0000000  )
        26           Ti1 tau(  26) = (   3.2902200   4.4714249   6.0002472  )
        27           O1  tau(  27) = (   0.0002396   2.9813036   7.9858123  )
        28           O1  tau(  28) = (   3.2902150   2.9813002   7.3038282  )
        29           O1  tau(  29) = (   4.5938453   4.4726049   9.2879030  )
        30           O1  tau(  30) = (   1.9864658   4.4711199   9.2879459  )
        31           Ti1 tau(  31) = (   3.2891106   5.8743827   9.1763621  )
        32           Ti1 tau(  32) = (   0.0006254   4.4649316   9.2693709  )
        33           O1  tau(  33) = (   3.3101407   2.9955762  11.3294870  )
        34           O1  tau(  34) = (   0.0092240   2.9805883  10.6323155  )
        35           O1  tau(  35) = (   1.3272401   4.4878838  12.6173354  )
        36           O1  tau(  36) = (   5.3164082   4.4812184  12.6342743  )
        37           Ti1 tau(  37) = (   6.5430856   5.9365306  12.5602028  )
        38           Ti1 tau(  38) = (   3.2246414   4.4845729  12.4831641  )
        39           O1  tau(  39) = (   0.0420920   2.9623338  14.6463429  )
        40           O1  tau(  40) = (   3.3182946   3.0055568  13.9055467  )
        41           O1  tau(  41) = (   4.5797692   4.5125808  16.0776662  )
        42           O1  tau(  42) = (   2.0972274   4.5146901  16.0918111  )
        43           Ti1 tau(  43) = (   3.3319946   0.0399457  15.7186693  )
        44           Ti1 tau(  44) = (   0.0407629   4.6953510  16.1098173  )
        45           O1  tau(  45) = (   3.2900926   2.9813045   4.7018136  )
        46           O1  tau(  46) = (   1.3039711   4.4726057   6.0039043  )
        47           O1  tau(  47) = (   5.2763189   4.4711207   6.0039473  )
        48           N1  tau(  48) = (   0.0554023   2.9932257  17.3910969  )
        49           C1  tau(  49) = (   0.1090839   2.9222626  18.6472186  )
        50           H1  tau(  50) = (   0.1225839   3.8204711  19.2873028  )
        51           H1  tau(  51) = (   0.1417253   1.9549180  19.1625725  )

     number of k points=    10  Fermi-Dirac smearing, width (Ry)=  0.0073
                       cart. coord. in units 2pi/alat
        k(    1) = (   0.0000000   0.0000000   0.0000000), wk =   0.1250000
        k(    2) = (   0.0000000   0.0419351   0.0000000), wk =   0.2500000
        k(    3) = (   0.0000000  -0.0838702   0.0000000), wk =   0.1250000
        k(    4) = (   0.0379955   0.0000049   0.0000000), wk =   0.2500000
        k(    5) = (   0.0379955   0.0419400   0.0000000), wk =   0.2500000
        k(    6) = (   0.0379955  -0.0838652   0.0000000), wk =   0.2500000
        k(    7) = (   0.0379955  -0.0419301   0.0000000), wk =   0.2500000
        k(    8) = (  -0.0759910  -0.0000099   0.0000000), wk =   0.1250000
        k(    9) = (  -0.0759910   0.0419252   0.0000000), wk =   0.2500000
        k(   10) = (  -0.0759910  -0.0838800   0.0000000), wk =   0.1250000

     Initial potential from superposition of free atoms

     starting charge  372.99918, renormalised to  389.00000

     negative rho (up, down):  1.812E-02 0.000E+00

     %%%%%%%%%%%%%%%%%%%%%%%%%%%%%%%%%%%%%%%%%%%%%%%%%%%%%%%%%%%%%%%%%%%%%%%%
     %                                                                      %
     % You are using vdW-DF, which was implemented by the Thonhauser group. %
     % Please cite the following two papers that made this development      %
     % possible and the two reviews that describe the various versions:     %
     %                                                                      %
     %   T. Thonhauser et al., PRL 115, 136402 (2015).                      %
     %   T. Thonhauser et al., PRB 76, 125112 (2007).                       %
     %   K. Berland et al., Rep. Prog. Phys. 78, 066501 (2015).             %
     %   D.C. Langreth et al., J. Phys.: Condens. Matter 21, 084203 (2009). %
     %                                                                      %
     %                                                                      %
     % If you are calculating the stress with vdW-DF, please also cite:     %
     %                                                                      %
     %   R. Sabatini et al., J. Phys.: Condens. Matter 24, 424209 (2012).   %
     %                                                                      %
     %%%%%%%%%%%%%%%%%%%%%%%%%%%%%%%%%%%%%%%%%%%%%%%%%%%%%%%%%%%%%%%%%%%%%%%%

     Adding external electric field

     Computed dipole along edir(3) :
        Dipole               -4.6864 Ry au,        -11.9117 Debye
        Dipole field         -0.0088 Ry au,

        Potential amp.        0.8198 Ry
        Total length         46.3494 bohr

     Starting wfcs are  294 atomic wfcs
  @ DRIVER MODE: Message from server: STATUS
  @ DRIVER MODE: Message from server: POSDATA
  @ DRIVER MODE: Reading and sharing cell
  @ DRIVER MODE: Reading and sharing positions
  @ DRIVER MODE: Received positions

     Self-consistent Calculation

     iteration #  1     ecut=    29.40 Ry     beta= 0.05
     Davidson diagonalization with overlap
     c_bands:  3 eigenvalues not converged
     c_bands:  1 eigenvalues not converged
     c_bands:  1 eigenvalues not converged
     c_bands:  3 eigenvalues not converged
     c_bands:  3 eigenvalues not converged
     c_bands:  2 eigenvalues not converged
     c_bands:  2 eigenvalues not converged
     ethr =  1.00E-05,  avg # of iterations = 19.9

[...]

     total energy              =   -2865.37651872 Ry
     estimated scf accuracy    <     598.55246869 Ry

     iteration #  2     ecut=    29.40 Ry     beta= 0.05
     Davidson diagonalization with overlap
     ethr =  1.00E-02,  avg # of iterations = 14.2

[...]

     iteration # 42     ecut=    29.40 Ry     beta= 0.05
     Davidson diagonalization with overlap
     c_bands:  1 eigenvalues not converged
     ethr =  2.99E-07,  avg # of iterations = 13.7

[...]

     total energy              =   -2917.92291367 Ry
     estimated scf accuracy    <       0.00000009 Ry

     iteration # 61     ecut=    29.40 Ry     beta= 0.05
     Davidson diagonalization with overlap
     ethr =  2.41E-11,  avg # of iterations =  9.8

     negative rho (up, down):  1.842E-02 0.000E+00

     Adding external electric field

     Computed dipole along edir(3) :
        Dipole                0.7693 Ry au,          1.9554 Debye
        Dipole field          0.0015 Ry au,

        Potential amp.       -0.1346 Ry
        Total length         46.3494 bohr

     End of self-consistent calculation

          k = 0.0000 0.0000 0.0000 ( 18029 PWs)   bands (ev):

   -55.9947 -55.9854 -55.9607 -55.9491 -55.8721 -55.8424 -55.8222 -55.8081
   -55.8036 -55.7696 -55.7671 -55.7335 -55.5224 -55.2475 -54.9716 -54.9376
   -32.5398 -32.4771 -32.3437 -32.3243 -32.3024 -32.2972 -32.2875 -32.2578
   -32.2373 -32.2122 -32.2053 -32.1832 -32.1656 -32.1469 -32.1386 -32.1253
   -32.1047 -32.0990 -32.0844 -32.0518 -32.0511 -32.0482 -32.0020 -32.0008
   -31.9996 -31.9977 -31.9914 -31.9838 -31.9694 -31.9574 -31.9500 -31.9427
   -31.9340 -31.9338 -31.9203 -31.9111 -31.8794 -31.7720 -31.7045 -31.5367
   -31.5022 -31.4601 -31.3788 -31.2905 -31.2681 -31.1955 -31.1090 -30.9979
   -16.7371 -16.4687 -16.2435 -16.1467 -16.1157 -15.9993 -15.8334 -15.7150
   -15.6640 -15.5659 -15.5523 -15.5307 -15.4968 -15.4662 -15.4643 -15.4379
   -15.4345 -15.4151 -15.4018 -15.3539 -15.3317 -15.2972 -15.1996 -15.1686
   -15.1289 -15.1005 -15.0596 -15.0503 -14.9220 -14.5611 -13.4742 -13.3578
    -7.5493  -4.3052  -4.1147  -4.0046  -3.9495  -3.9002  -3.8414  -3.6350
    -3.5439  -3.5212  -3.2249  -3.1785  -3.1610  -3.1486  -3.1101  -2.8946
    -2.8407  -2.8094  -2.7883  -2.7741  -2.7629  -2.7551  -2.7349  -2.7081
    -2.5948  -2.5390  -2.5356  -2.4127  -2.3850  -2.3283  -2.3067  -2.2596
    -2.2441  -2.2354  -2.2084  -2.1976  -2.1844  -2.1540  -2.0760  -1.9625
    -1.8114  -1.7926  -1.7569  -1.6304  -1.6016  -1.5404  -1.4502  -1.4347
    -1.4201  -1.3859  -1.3686  -1.2973  -1.1713  -1.1473  -1.1378  -1.0370
    -0.9902  -0.9718  -0.8753  -0.8398  -0.7695  -0.7586  -0.7472  -0.7096
    -0.5480  -0.4923  -0.4630  -0.3963  -0.3665  -0.3073  -0.2948  -0.2659
    -0.1834  -0.1313  -0.1112  -0.1042  -0.0561  -0.0199  -0.0031   0.0064
     0.0177   0.0317   0.2043   0.2772   0.2842   0.3632   0.3732   0.5340
     0.5952   0.6626   0.7707   0.9758   1.0503   1.1394   1.2427   1.4368
     1.6215   1.6670   3.1417   3.2253   3.2735   3.2830   3.3844   3.4210
     3.5947   3.6011   3.6155   3.6895

[...]

          k = 0.0380-0.0419 0.0000 ( 17876 PWs)   bands (ev):

[...]

          k =-0.0760-0.0000 0.0000 ( 17886 PWs)   bands (ev):

[...]

          k =-0.0760-0.0839 0.0000 ( 17948 PWs)   bands (ev):

   -55.9780 -55.9773 -55.9699 -55.9644 -55.8651 -55.8291 -55.8256 -55.8248
   -55.7871 -55.7856 -55.7512 -55.7496 -55.5214 -55.2484 -54.9546 -54.9545
   -32.3456 -32.3405 -32.2927 -32.2922 -32.2733 -32.2726 -32.2552 -32.2432
   -32.1953 -32.1891 -32.1828 -32.1760 -32.1392 -32.1210 -32.1159 -32.1146
   -32.1054 -32.0994 -32.0974 -32.0967 -32.0902 -32.0876 -32.0685 -32.0445
   -32.0410 -32.0303 -32.0209 -32.0073 -31.9860 -31.9856 -31.9829 -31.9813
   -31.9659 -31.9650 -31.9614 -31.9583 -31.8843 -31.7745 -31.7007 -31.6021
   -31.5038 -31.4807 -31.2809 -31.2808 -31.1916 -31.1914 -31.1523 -31.1522
   -16.1693 -16.1501 -15.9383 -15.9111 -15.9061 -15.8947 -15.7665 -15.7059
   -15.6894 -15.6874 -15.6086 -15.5867 -15.5655 -15.5379 -15.5263 -15.5140
   -15.5078 -15.4991 -15.4562 -15.4501 -15.4306 -15.4234 -15.3207 -15.3110
   -15.3069 -15.2514 -15.1775 -15.0388 -14.9390 -14.7291 -13.4597 -13.4596
    -7.5451  -4.2869  -3.6919  -3.4597  -3.4370  -3.1685  -3.1515  -3.1425
    -3.0825  -2.9097  -2.8938  -2.8708  -2.8499  -2.8212  -2.8194  -2.7981
    -2.7961  -2.7852  -2.7409  -2.7338  -2.7082  -2.6716  -2.6613  -2.6498
    -2.6411  -2.6173  -2.6070  -2.5652  -2.5357  -2.5284  -2.5135  -2.4900
    -2.3047  -2.2217  -2.1954  -2.1321  -2.1247  -2.0898  -2.0585  -2.0464
    -2.0304  -1.9800  -1.9018  -1.7275  -1.6947  -1.6766  -1.6186  -1.5901
    -1.5491  -1.4629  -1.3950  -1.3704  -1.3644  -1.3159  -1.2072  -1.1855
    -1.1715  -1.0980  -1.0624  -1.0437  -1.0031  -0.9879  -0.9549  -0.9495
    -0.8561  -0.8067  -0.7600  -0.7577  -0.7121  -0.6459  -0.6328  -0.6052
    -0.4964  -0.4774  -0.4062  -0.3778  -0.2762  -0.2075  -0.0108   0.0517
     0.0771   0.1355   0.2157   0.2968   0.3110   0.3249   0.3253   0.3727
     0.4421   0.5379   0.5473   0.6008   0.7056   1.3307   1.4140   1.4146
     1.4869   1.4869   3.4275   3.4373   3.4766   3.4984   3.6346   3.6501
     3.6731   3.6742   3.7293   3.8141

     the Fermi energy is     3.1394 ev

!    total energy              =   -2917.92295307 Ry
     estimated scf accuracy    <       0.00000006 Ry
     smearing contrib. (-TS)   =      -0.02181471 Ry
     internal energy E=F+TS    =   -2917.90113836 Ry

     The total energy is F=E-TS. E is the sum of the following terms:
     one-electron contribution =  -24777.71123386 Ry
     hartree contribution      =   12472.50982481 Ry
     xc contribution           =    -479.18078998 Ry
     ewald contribution        =    9866.47994377 Ry
     electric field correction =       0.00111689 Ry

     convergence has been achieved in  61 iterations

     Forces acting on atoms (cartesian axes, Ry/au):

     atom    1 type  1   force =     0.00017158   -0.00023530    0.09669274
     atom    2 type  1   force =     0.00006833   -0.00053290   -0.17540962
     atom    3 type  2   force =     0.00018040    0.00000643   -0.02478128
     atom    4 type  2   force =     0.00005745   -0.00133247    0.05291740
     atom    5 type  2   force =    -0.01177076    0.00012271    0.00258817
     atom    6 type  2   force =     0.01394057    0.00051045    0.00338973
     atom    7 type  1   force =     0.00129434    0.00071063   -0.01177592
     atom    8 type  1   force =    -0.00005338    0.00766849    0.02821024
     atom    9 type  2   force =    -0.00024049   -0.00023603   -0.00012166
     atom   10 type  2   force =    -0.00220614    0.00207284   -0.01527929
     atom   11 type  2   force =    -0.00000042   -0.00009409    0.00023164
     atom   12 type  2   force =    -0.00004245    0.00014368   -0.00005911
     atom   13 type  1   force =    -0.00104311   -0.00025300   -0.00002766
     atom   14 type  1   force =    -0.00022574   -0.00026717    0.00058131
     atom   15 type  2   force =    -0.00030716    0.00004483   -0.00018760
     atom   16 type  2   force =     0.00025480    0.00007877   -0.00054839
     atom   17 type  2   force =     0.00008941    0.00007461   -0.00022961
     atom   18 type  2   force =    -0.00014874    0.00031485   -0.00054379
     atom   19 type  1   force =    -0.00063155    0.00012455   -0.00029887
     atom   20 type  1   force =     0.00014642   -0.00115827    0.00022982
     atom   21 type  2   force =     0.00008907   -0.00004856    0.10324244
     atom   22 type  2   force =     0.00043790   -0.00026806   -0.00018232
     atom   23 type  2   force =    -0.07147865   -0.00015720   -0.02768420
     atom   24 type  2   force =     0.07147215    0.00033258   -0.02776864
     atom   25 type  1   force =     0.00018692   -0.00022364    0.09619680
     atom   26 type  1   force =     0.00011104   -0.00029182   -0.17554302
     atom   27 type  2   force =     0.00022315   -0.00011748   -0.02386699
     atom   28 type  2   force =     0.00008970   -0.00110147    0.05286511
     atom   29 type  2   force =    -0.01197554    0.00068054    0.00233772
     atom   30 type  2   force =     0.01400962    0.00103047    0.00318914
     atom   31 type  1   force =     0.00114455    0.00334754   -0.01209903
     atom   32 type  1   force =    -0.00024588   -0.00974624    0.02864705
     atom   33 type  2   force =    -0.00017378    0.00031502   -0.00009462
     atom   34 type  2   force =    -0.00172825    0.00175405   -0.02356945
     atom   35 type  2   force =    -0.00000224    0.00009274    0.00023192
     atom   36 type  2   force =     0.00055215    0.00012413    0.00021844
     atom   37 type  1   force =    -0.00099129   -0.00038939    0.00023758
     atom   38 type  1   force =     0.00023245   -0.00011505    0.00051953
     atom   39 type  2   force =    -0.00005831   -0.00054672   -0.00073234
     atom   40 type  2   force =    -0.00004275    0.00025556    0.00045295
     atom   41 type  2   force =    -0.00066493   -0.00046023   -0.00018830
     atom   42 type  2   force =    -0.00012725   -0.00073892   -0.00075275
     atom   43 type  1   force =    -0.00047644   -0.00000130   -0.00006254
     atom   44 type  1   force =     0.00013479    0.00040125    0.00053557
     atom   45 type  2   force =     0.00006518   -0.00006677    0.10324812
     atom   46 type  2   force =    -0.07148225   -0.00008368   -0.02769641
     atom   47 type  2   force =     0.07149809    0.00033639   -0.02777587
     atom   48 type  3   force =     0.00105371    0.00044639    0.00159357
     atom   49 type  4   force =    -0.00142915    0.00300444    0.00380339
     atom   50 type  5   force =     0.00020941   -0.00450881   -0.00509379
     atom   51 type  5   force =    -0.00016653   -0.00101935    0.00021269

     Total force =     0.368068     Total SCF correction =     0.000469
  @ DRIVER MODE: Message from server: STATUS
  @ DRIVER MODE: Message from server: GETFORCE
  @ DRIVER MODE: Returning v,forces,stress,ensemble

     Writing output data file ./calc.save/
  @ DRIVER MODE: Message from server: EXIT
  @ DRIVE MODE: Exiting

     General routines

     Parallel routines

   This run was terminated on:  15: 2:30  24Aug2021

   JOB DONE.