     Program PWSCF v.6.7GPU starts on 22Sep2021 at 19:12:38

     R & G space division:  proc/nbgrp/npool/nimage =      10
     Reading input from /storage/home/hcoda1/3/ntian30/research/carbon/CxH_vib/H2O_calc/ads_slab/CH2N2HHO_a/out_0008/pw.inp
Warning: card &CELL ignored
Warning: card   CELL_DYNAMICS='IPI', ignored
Warning: card / ignored

     Current dimensions of program PWSCF are:
     Max number of different atomic species (ntypx) = 10
     Max number of k-points (npk) =  40000
     Max angular momentum in pseudopotentials (lmaxx) =  3
     Presently no symmetry can be used with electric field

     Message from routine cell_base_init:
     DEPRECATED: use true lattice parameter, not A to a.u. conversion factor

     IMPORTANT: XC functional enforced from input :
     Exchange-correlation= BEEF-VDW
                           (   1   4  43  14   2   0   0)
     Any further DFT definition will be discarded
     Please, verify this is what you really want

  @ DRIVER MODE: Connecting to
 qe_1139763_2937323.sched-torque.pace.gatech.eduvmoo806s_scratch
  using UNIX socket
  @ DRIVER MODE: Message from server: STATUS
  @ DRIVER MODE: Message from server: INIT
  @ DRIVER MODE: Receiving replica           0          -1
  @ DRIVER MODE: Receiving encoded integer          25
  @ DRIVER MODE:  SCF:  T  FORCE:  T  STRESS:  F  VC:  F  ENSEMBLE:  F
  @ DRIVER MODE:  SCF:  T  FORCE:  T  STRESS:  F  VC:  F  ENSEMBLE:  F

     Using Slab Decomposition

     bravais-lattice index     =            0
     lattice parameter (alat)  =       1.8897  a.u.
     unit-cell volume          =    6658.9804 (a.u.)^3
     number of atoms/cell      =           55
     number of atomic types    =            5
     number of electrons       =       402.00
     number of Kohn-Sham states=          211
     kinetic-energy cutoff     =      29.3995  Ry
     charge density cutoff     =     293.9946  Ry
     scf convergence threshold =      7.3E-08
     mixing beta               =       0.0500
     number of iterations used =            8  plain     mixing
     Exchange-correlation= BEEF-VDW
                           (   1   4  43  14   2   0   0)

     celldm(1)=   1.889726  celldm(2)=   0.000000  celldm(3)=   0.000000
     celldm(4)=   0.000000  celldm(5)=   0.000000  celldm(6)=   0.000000

     crystal axes: (cart. coord. in units of alat)
               a(1) = (   6.579727   0.000000   0.000000 )
               a(2) = (  -0.000775   5.961596   0.000000 )
               a(3) = (   0.000000   0.000000  25.155947 )

     reciprocal axes: (cart. coord. in units 2 pi/alat)
               b(1) = (  0.151982  0.000020  0.000000 )
               b(2) = (  0.000000  0.167740  0.000000 )
               b(3) = (  0.000000  0.000000  0.039752 )

     PseudoPot. # 1 for Ti read from file:
     /storage/coda1/p-amedford6/0/shared/rich_project_chbe-medford/medford-share/data/pseudos_module/espresso/nninc/pbe/van/Ti.UPF
     MD5 check sum: 8e4df49b7f0d34bbd5052bf3f5ea0213
     Pseudo is Ultrasoft, Zval = 12.0
     Generated by new atomic code, or converted to UPF format
     Using radial grid of  851 points,  6 beta functions with:
                l(1) =   0
                l(2) =   0
                l(3) =   1
                l(4) =   1
                l(5) =   2
                l(6) =   2
     Q(r) pseudized with  8 coefficients,  rinner =    1.000   1.000   1.000
                                                       1.000   1.000

     PseudoPot. # 2 for O  read from file:
     /storage/coda1/p-amedford6/0/shared/rich_project_chbe-medford/medford-share/data/pseudos_module/espresso/nninc/pbe/van/O.UPF
     MD5 check sum: 78c19812648e8988a0fe644b0f25305e
     Pseudo is Ultrasoft, Zval =  6.0
     Generated by new atomic code, or converted to UPF format
     Using radial grid of  737 points,  4 beta functions with:
                l(1) =   0
                l(2) =   0
                l(3) =   1
                l(4) =   1
     Q(r) pseudized with  8 coefficients,  rinner =    0.800   0.800   0.800

     PseudoPot. # 3 for N  read from file:
     /storage/coda1/p-amedford6/0/shared/rich_project_chbe-medford/medford-share/data/pseudos_module/espresso/nninc/pbe/van/N.UPF
     MD5 check sum: 90d10febe142ad51ac9d5be1deb811c4
     Pseudo is Ultrasoft, Zval =  5.0
     Generated by new atomic code, or converted to UPF format
     Using radial grid of  729 points,  4 beta functions with:
                l(1) =   0
                l(2) =   0
                l(3) =   1
                l(4) =   1
     Q(r) pseudized with  8 coefficients,  rinner =    0.800   0.800   0.800

     PseudoPot. # 4 for C  read from file:
     /storage/coda1/p-amedford6/0/shared/rich_project_chbe-medford/medford-share/data/pseudos_module/espresso/nninc/pbe/van/C.UPF
     MD5 check sum: 1a69bf6b8db32088f5b2163dbdb77a27
     Pseudo is Ultrasoft, Zval =  4.0
     Generated by new atomic code, or converted to UPF format
     Using radial grid of  721 points,  4 beta functions with:
                l(1) =   0
                l(2) =   0
                l(3) =   1
                l(4) =   1
     Q(r) pseudized with  8 coefficients,  rinner =    0.800   0.800   0.800

     PseudoPot. # 5 for H  read from file:
     /storage/coda1/p-amedford6/0/shared/rich_project_chbe-medford/medford-share/data/pseudos_module/espresso/nninc/pbe/van/H.UPF
     MD5 check sum: b5ee9d7bfd3a09ee7748110bda690ff7
     Pseudo is Ultrasoft, Zval =  1.0
     Generated by new atomic code, or converted to UPF format
     Using radial grid of  615 points,  1 beta functions with:
                l(1) =   0
     Q(r) pseudized with  8 coefficients,  rinner =    0.800

     atomic species   valence    mass     pseudopotential
        Ti1           12.00    47.86700     Ti( 1.00)
        O1             6.00    15.99900     O ( 1.00)
        N1             5.00    14.00700     N ( 1.00)
        C1             4.00    12.01100     C ( 1.00)
        H1             1.00     1.00800     H ( 1.00)

     No symmetry found

   Cartesian axes

     site n.     atom                  positions (alat units)
         1           Ti1 tau(   1) = (   0.0004258   2.9801865   6.0000000  )
         2           Ti1 tau(   2) = (   3.2906075   1.4906267   6.0002472  )
         3           O1  tau(   3) = (   0.0006271   0.0005054   7.9858123  )
         4           O1  tau(   4) = (   3.2906025   0.0005020   7.3038282  )
         5           O1  tau(   5) = (   4.5942328   1.4918067   9.2879030  )
         6           O1  tau(   6) = (   1.9868534   1.4903216   9.2879459  )
         7           Ti1 tau(   7) = (   3.2907910   2.8959150   9.1758416  )
         8           Ti1 tau(   8) = (   0.0015273   1.4827037   9.2680791  )
         9           O1  tau(   9) = (   3.3002520   5.9418316  11.2747492  )
        10           O1  tau(  10) = (   0.0116148   5.9584955  10.6183126  )
        11           O1  tau(  11) = (   1.2897458   1.4862980  12.6211975  )
        12           O1  tau(  12) = (   5.3051886   1.5023792  12.6347999  )
        13           Ti1 tau(  13) = (   0.0146078   2.8478158  12.7200684  )
        14           Ti1 tau(  14) = (   3.3063360   1.3081926  12.6482236  )
        15           O1  tau(  15) = (   0.0235978   5.9609164  14.6274833  )
        16           O1  tau(  16) = (   3.2983906   0.0399142  13.8749830  )
        17           O1  tau(  17) = (   4.5813539   1.5856785  16.0626423  )
        18           O1  tau(  18) = (   2.0324892   1.5097802  16.0098020  )
        19           Ti1 tau(  19) = (   3.2774956   2.9544257  15.6266065  )
        20           Ti1 tau(  20) = (   6.5530467   1.3151789  15.9772938  )
        21           O1  tau(  21) = (   3.2904802   0.0005063   4.7018136  )
        22           O1  tau(  22) = (   6.5059356   5.9265713  17.1294848  )
        23           O1  tau(  23) = (   1.3043587   1.4918075   6.0039043  )
        24           O1  tau(  24) = (   5.2767064   1.4903225   6.0039473  )
        25           Ti1 tau(  25) = (   0.0000382   5.9609847   6.0000000  )
        26           Ti1 tau(  26) = (   3.2902200   4.4714249   6.0002472  )
        27           O1  tau(  27) = (   0.0002396   2.9813036   7.9858123  )
        28           O1  tau(  28) = (   3.2902150   2.9813002   7.3038282  )
        29           O1  tau(  29) = (   4.5938453   4.4726049   9.2879030  )
        30           O1  tau(  30) = (   1.9864658   4.4711199   9.2879459  )
        31           Ti1 tau(  31) = (   3.2891106   5.8743827   9.1763621  )
        32           Ti1 tau(  32) = (   0.0006254   4.4649316   9.2693709  )
        33           O1  tau(  33) = (   3.2992753   3.0242338  11.2405823  )
        34           O1  tau(  34) = (   0.0092240   2.9805883  10.6323155  )
        35           O1  tau(  35) = (   1.2972400   4.4705050  12.6241655  )
        36           O1  tau(  36) = (   5.3008088   4.4694758  12.6340222  )
        37           Ti1 tau(  37) = (   0.0289225   5.8314391  12.5906285  )
        38           Ti1 tau(  38) = (   3.3189507   4.3956991  12.4097224  )
        39           O1  tau(  39) = (   0.0312427   2.9750824  14.7260556  )
        40           O1  tau(  40) = (   3.2762925   2.9668711  13.8358254  )
        41           O1  tau(  41) = (   4.5358187   4.4455929  15.9064879  )
        42           O1  tau(  42) = (   2.0572077   4.4429961  16.0439637  )
        43           Ti1 tau(  43) = (   3.2186928   5.9141907  16.2420754  )
        44           Ti1 tau(  44) = (   6.4642982   4.4840528  15.9061301  )
        45           O1  tau(  45) = (   3.2900926   2.9813045   4.7018136  )
        46           O1  tau(  46) = (   1.3039711   4.4726057   6.0039043  )
        47           O1  tau(  47) = (   5.2763189   4.4711207   6.0039473  )
        48           N1  tau(  48) = (   0.2499663   2.3419386  17.9913213  )
        49           C1  tau(  49) = (   0.6308863   1.8700663  19.1394302  )
        50           H1  tau(  50) = (   0.7431952   2.5333404  19.9929579  )
        51           H1  tau(  51) = (   0.8399735   0.8189210  19.2161768  )
        52           N1  tau(  52) = (   6.5658643   3.6116587  17.7752569  )
        53           H1  tau(  53) = (   0.1300021   4.2235620  18.5825096  )
        54           O1  tau(  54) = (   3.3713844   5.9089882  18.0735649  )
        55           H1  tau(  55) = (   4.1655974   0.3538959  18.4550359  )

     number of k points=    10  Fermi-Dirac smearing, width (Ry)=  0.0073
                       cart. coord. in units 2pi/alat
        k(    1) = (   0.0000000   0.0000000   0.0000000), wk =   0.1250000
        k(    2) = (   0.0000000   0.0419351   0.0000000), wk =   0.2500000
        k(    3) = (   0.0000000  -0.0838702   0.0000000), wk =   0.1250000
        k(    4) = (   0.0379955   0.0000049   0.0000000), wk =   0.2500000
        k(    5) = (   0.0379955   0.0419400   0.0000000), wk =   0.2500000
        k(    6) = (   0.0379955  -0.0838652   0.0000000), wk =   0.2500000
        k(    7) = (   0.0379955  -0.0419301   0.0000000), wk =   0.2500000
        k(    8) = (  -0.0759910  -0.0000099   0.0000000), wk =   0.1250000
        k(    9) = (  -0.0759910   0.0419252   0.0000000), wk =   0.2500000
        k(   10) = (  -0.0759910  -0.0838800   0.0000000), wk =   0.1250000

     Initial potential from superposition of free atoms

     starting charge  385.99915, renormalised to  402.00000

     negative rho (up, down):  1.591E-02 0.000E+00

     %%%%%%%%%%%%%%%%%%%%%%%%%%%%%%%%%%%%%%%%%%%%%%%%%%%%%%%%%%%%%%%%%%%%%%%%
     %                                                                      %
     % You are using vdW-DF, which was implemented by the Thonhauser group. %
     % Please cite the following two papers that made this development      %
     % possible and the two reviews that describe the various versions:     %
     %                                                                      %
     %   T. Thonhauser et al., PRL 115, 136402 (2015).                      %
     %   T. Thonhauser et al., PRB 76, 125112 (2007).                       %
     %   K. Berland et al., Rep. Prog. Phys. 78, 066501 (2015).             %
     %   D.C. Langreth et al., J. Phys.: Condens. Matter 21, 084203 (2009). %
     %                                                                      %
     %                                                                      %
     % If you are calculating the stress with vdW-DF, please also cite:     %
     %                                                                      %
     %   R. Sabatini et al., J. Phys.: Condens. Matter 24, 424209 (2012).   %
     %                                                                      %
     %%%%%%%%%%%%%%%%%%%%%%%%%%%%%%%%%%%%%%%%%%%%%%%%%%%%%%%%%%%%%%%%%%%%%%%%

     Adding external electric field

     Computed dipole along edir(3) :
        Dipole              -11.3527 Ry au,        -28.8557 Debye
        Dipole field         -0.0214 Ry au,

        Potential amp.        1.9860 Ry
        Total length         46.3494 bohr

     Starting wfcs are  304 atomic wfcs
  @ DRIVER MODE: Message from server: STATUS
  @ DRIVER MODE: Message from server: POSDATA
  @ DRIVER MODE: Reading and sharing cell
  @ DRIVER MODE: Reading and sharing positions
  @ DRIVER MODE: Received positions

     Self-consistent Calculation

     iteration #  1     ecut=    29.40 Ry     beta= 0.05
     Davidson diagonalization with overlap
     c_bands:  4 eigenvalues not converged
     c_bands:  3 eigenvalues not converged
     c_bands:  3 eigenvalues not converged
     c_bands:  5 eigenvalues not converged
     c_bands:  5 eigenvalues not converged
     c_bands:  1 eigenvalues not converged
     c_bands:  5 eigenvalues not converged
     c_bands:  4 eigenvalues not converged
     c_bands:  5 eigenvalues not converged
     c_bands:  1 eigenvalues not converged
     ethr =  1.00E-05,  avg # of iterations = 24.0

[...]

     total energy              =   -2410.16849612 Ry
     estimated scf accuracy    <    6308.38659872 Ry

     iteration #  2     ecut=    29.40 Ry     beta= 0.05
     Davidson diagonalization with overlap
     ethr =  1.00E-02,  avg # of iterations = 22.5

[...]

     iteration # 43     ecut=    29.40 Ry     beta= 0.05
     Davidson diagonalization with overlap
     c_bands:  1 eigenvalues not converged
     ethr =  6.67E-07,  avg # of iterations = 11.7

[...]

     total energy              =   -2972.72750034 Ry
     estimated scf accuracy    <       0.00000009 Ry

     iteration # 88     ecut=    29.40 Ry     beta= 0.05
     Davidson diagonalization with overlap
     ethr =  2.35E-11,  avg # of iterations =  4.6

     negative rho (up, down):  1.620E-02 0.000E+00

     Adding external electric field

     Computed dipole along edir(3) :
        Dipole                0.4616 Ry au,          1.1732 Debye
        Dipole field          0.0009 Ry au,

        Potential amp.       -0.0807 Ry
        Total length         46.3494 bohr

     End of self-consistent calculation

          k = 0.0000 0.0000 0.0000 ( 18029 PWs)   bands (ev):

   -56.5369 -56.5033 -55.8854 -55.8499 -55.6229 -55.5634 -55.3794 -55.3254
   -55.3012 -55.2297 -55.1998 -55.1883 -55.1544 -55.0327 -55.0322 -54.9857
   -32.9692 -32.8217 -32.7937 -32.7044 -32.6131 -32.5949 -32.3684 -32.1049
   -32.1034 -32.0758 -32.0286 -32.0249 -31.9919 -31.8689 -31.8516 -31.8438
   -31.7908 -31.7671 -31.7262 -31.7088 -31.6917 -31.6469 -31.6451 -31.5867
   -31.5849 -31.5805 -31.5772 -31.5339 -31.5292 -31.5263 -31.5055 -31.5051
   -31.4837 -31.4793 -31.4234 -31.4054 -31.3981 -31.3543 -31.3154 -31.2939
   -31.2884 -31.2789 -31.2439 -31.2422 -31.2176 -31.2035 -31.1768 -31.1563
   -17.8074 -16.7225 -16.2887 -16.1708 -15.9806 -15.9068 -15.8824 -15.8510
   -15.7849 -15.6140 -15.5334 -15.5087 -15.4983 -15.4394 -15.2718 -15.1753
   -15.1585 -15.0924 -15.0141 -14.9901 -14.9509 -14.8972 -14.8709 -14.8558
   -14.8400 -14.8051 -14.6820 -14.6018 -14.5038 -14.3231 -14.3069 -13.6858
   -13.5763 -11.9567  -7.7314  -5.1506  -4.3621  -4.2730  -3.7956  -3.7743
    -3.6050  -3.4258  -3.3693  -3.2260  -3.1663  -3.1161  -3.0600  -3.0456
    -2.9419  -2.7995  -2.7928  -2.7384  -2.7163  -2.7129  -2.6932  -2.5906
    -2.5277  -2.5183  -2.4232  -2.3314  -2.3108  -2.2717  -2.2313  -2.2236
    -2.1804  -2.1415  -2.0870  -2.0495  -2.0343  -1.9364  -1.9173  -1.8116
    -1.7837  -1.7644  -1.7513  -1.7178  -1.6782  -1.6198  -1.5514  -1.4338
    -1.3416  -1.3223  -1.2500  -1.2478  -1.2186  -1.0568  -1.0160  -1.0135
    -0.9535  -0.8772  -0.8477  -0.7923  -0.7549  -0.7104  -0.6587  -0.6182
    -0.5811  -0.4518  -0.4481  -0.3975  -0.3140  -0.2921  -0.2605  -0.2375
    -0.1565  -0.1014  -0.0651   0.0060   0.0662   0.0727   0.1172   0.1749
     0.2843   0.3270   0.3514   0.3820   0.4249   0.4492   0.5172   0.5647
     0.5958   0.6048   0.6805   0.7826   0.8000   0.8348   0.9231   0.9487
     1.0338   1.0716   1.0890   1.1734   1.1931   1.3730   1.4113   1.5808
     2.3856   2.7276   2.8776   3.1601   3.1749   3.4669   3.6898   3.7177
     3.7205   3.8001   3.9376

[...]

          k = 0.0380-0.0419 0.0000 ( 17876 PWs)   bands (ev):

[...]

          k =-0.0760-0.0000 0.0000 ( 17886 PWs)   bands (ev):

[...]

          k =-0.0760-0.0839 0.0000 ( 17948 PWs)   bands (ev):

   -56.5204 -56.5197 -55.8734 -55.8617 -55.6176 -55.5686 -55.3733 -55.3313
   -55.2992 -55.2283 -55.2016 -55.1719 -55.1707 -55.0336 -55.0254 -54.9929
   -32.8077 -32.8069 -32.7863 -32.7854 -32.6573 -32.6570 -32.1945 -32.1850
   -32.0671 -32.0542 -32.0539 -32.0460 -31.9257 -31.8869 -31.8454 -31.8388
   -31.7956 -31.7895 -31.7025 -31.6701 -31.6282 -31.6103 -31.5921 -31.5871
   -31.5744 -31.5640 -31.5500 -31.5386 -31.5229 -31.5185 -31.5176 -31.5092
   -31.4728 -31.4687 -31.4297 -31.4101 -31.3959 -31.3945 -31.3867 -31.3575
   -31.3564 -31.2985 -31.2814 -31.2599 -31.2459 -31.2450 -31.2201 -31.1791
   -17.7935 -16.1512 -16.1060 -16.1017 -16.0184 -16.0160 -15.8123 -15.8052
   -15.6248 -15.6012 -15.5275 -15.4590 -15.3496 -15.3165 -15.2924 -15.2411
   -15.1964 -15.1680 -15.1121 -15.0802 -14.9973 -14.9661 -14.9501 -14.9386
   -14.9061 -14.8535 -14.7210 -14.6862 -14.6688 -14.5880 -14.4536 -13.6803
   -13.6796 -11.9144  -7.6616  -5.2119  -4.4352  -3.7489  -3.2182  -3.1899
    -3.1410  -3.1319  -2.9339  -2.8934  -2.8724  -2.8208  -2.7838  -2.7667
    -2.7246  -2.7185  -2.6369  -2.5846  -2.5528  -2.5402  -2.5163  -2.4565
    -2.4354  -2.4048  -2.3926  -2.3614  -2.3505  -2.3414  -2.3175  -2.2503
    -2.2030  -2.1487  -2.1166  -2.0747  -2.0169  -2.0116  -1.9775  -1.9689
    -1.8902  -1.8066  -1.7627  -1.6859  -1.6039  -1.5697  -1.5416  -1.5245
    -1.4809  -1.4237  -1.3967  -1.3477  -1.3222  -1.2693  -1.2328  -1.2230
    -1.1572  -1.1189  -1.0523  -1.0306  -0.9517  -0.8389  -0.7834  -0.7586
    -0.7315  -0.7187  -0.6498  -0.5865  -0.5393  -0.5202  -0.4472  -0.4395
    -0.4125  -0.3627  -0.3482  -0.3130  -0.2010  -0.1387  -0.0768   0.0073
     0.0467   0.0831   0.1620   0.2174   0.2416   0.3175   0.3975   0.4776
     0.4937   0.5329   0.5387   0.7062   0.7354   0.8450   0.8772   0.9528
     0.9873   1.0275   1.1484   1.1907   1.2230   1.2242   1.2449   1.2627
     2.3316   3.2973   3.3000   3.3497   3.3578   3.6254   3.6338   3.7718
     3.7737   3.8919   3.9312

     the Fermi energy is     2.6069 ev

!    total energy              =   -2972.72750566 Ry
     estimated scf accuracy    <       0.00000004 Ry
     smearing contrib. (-TS)   =      -0.00745345 Ry
     internal energy E=F+TS    =   -2972.72005221 Ry

     The total energy is F=E-TS. E is the sum of the following terms:
     one-electron contribution =  -24031.63369983 Ry
     hartree contribution      =   12109.46535013 Ry
     xc contribution           =    -493.28158789 Ry
     ewald contribution        =    9442.72948332 Ry
     electric field correction =       0.00040204 Ry

     convergence has been achieved in  88 iterations

     Forces acting on atoms (cartesian axes, Ry/au):

     atom    1 type  1   force =    -0.00000182   -0.00043074    0.11613802
     atom    2 type  1   force =    -0.00007165    0.00014674   -0.15941509
     atom    3 type  2   force =     0.00002627    0.00000761   -0.05252346
     atom    4 type  2   force =     0.00005305   -0.00013857    0.02470907
     atom    5 type  2   force =    -0.00348441   -0.00224363   -0.01041461
     atom    6 type  2   force =     0.00528055   -0.00174578   -0.01061241
     atom    7 type  1   force =     0.00000089   -0.00614082    0.04625392
     atom    8 type  1   force =     0.00041660    0.01612573    0.08036206
     atom    9 type  2   force =    -0.00000931   -0.00061407    0.00016112
     atom   10 type  2   force =    -0.00257433    0.00058584   -0.04971229
     atom   11 type  2   force =    -0.00056013   -0.00013423   -0.00014360
     atom   12 type  2   force =     0.00059889   -0.00027941    0.00001270
     atom   13 type  1   force =    -0.00018088    0.00043554   -0.00007476
     atom   14 type  1   force =     0.00017342    0.00005773   -0.00109202
     atom   15 type  2   force =    -0.00022487   -0.00045526   -0.00051372
     atom   16 type  2   force =     0.00013026   -0.00065887    0.00076222
     atom   17 type  2   force =     0.00003365    0.00053964    0.00007613
     atom   18 type  2   force =     0.00010995    0.00053815   -0.00032015
     atom   19 type  1   force =    -0.00057614   -0.00035380   -0.00047884
     atom   20 type  1   force =     0.00054553    0.00039695   -0.00008576
     atom   21 type  2   force =     0.00004718    0.00021736    0.09896585
     atom   22 type  2   force =     0.00000462   -0.00056862   -0.00020409
     atom   23 type  2   force =    -0.07985639    0.00004189   -0.03163742
     atom   24 type  2   force =     0.07975125    0.00047653   -0.03169416
     atom   25 type  1   force =     0.00007041   -0.00058014    0.11644614
     atom   26 type  1   force =    -0.00011575   -0.00143154   -0.15993761
     atom   27 type  2   force =     0.00007197   -0.00069824   -0.05053681
     atom   28 type  2   force =     0.00005423    0.00166734    0.02024571
     atom   29 type  2   force =    -0.00168594    0.00505429   -0.01370234
     atom   30 type  2   force =     0.00360046    0.00547752   -0.01383367
     atom   31 type  1   force =    -0.00017348    0.00218871    0.03173979
     atom   32 type  1   force =     0.00031990   -0.01973206    0.08001511
     atom   33 type  2   force =     0.00014507   -0.00035795    0.00017525
     atom   34 type  2   force =    -0.00158573    0.00085467   -0.06326077
     atom   35 type  2   force =     0.00039612    0.00002935   -0.00016154
     atom   36 type  2   force =     0.00016752   -0.00005157   -0.00023205
     atom   37 type  1   force =    -0.00013252   -0.00024144   -0.00063880
     atom   38 type  1   force =     0.00013249    0.00047037    0.00007294
     atom   39 type  2   force =    -0.00028394    0.00057385    0.00017381
     atom   40 type  2   force =     0.00023833    0.00011604    0.00066308
     atom   41 type  2   force =     0.00132618    0.00001418   -0.00010424
     atom   42 type  2   force =    -0.00131704   -0.00054881    0.00008210
     atom   43 type  1   force =    -0.00052252    0.00055029   -0.00035817
     atom   44 type  1   force =    -0.00008975    0.00044072   -0.00004491
     atom   45 type  2   force =     0.00005166    0.00003166    0.09876745
     atom   46 type  2   force =    -0.07990654    0.00000670   -0.03163753
     atom   47 type  2   force =     0.07980218    0.00043852   -0.03171067
     atom   48 type  3   force =     0.00296972   -0.00115345    0.00360798
     atom   49 type  4   force =    -0.00581329    0.00429681   -0.00613803
     atom   50 type  5   force =     0.00114041    0.00013657    0.00077914
     atom   51 type  5   force =     0.00144647   -0.00193370    0.00002148
     atom   52 type  3   force =    -0.00053855   -0.00161694    0.00130317
     atom   53 type  5   force =    -0.00016402    0.00036244   -0.00009234
     atom   54 type  2   force =    -0.00032066   -0.00023171   -0.00085882
     atom   55 type  5   force =     0.00108442    0.00006158    0.00063644

     Total force =     0.396833     Total SCF correction =     0.000424
  @ DRIVER MODE: Message from server: STATUS
  @ DRIVER MODE: Message from server: GETFORCE
  @ DRIVER MODE: Returning v,forces,stress,ensemble

     Writing output data file ./calc.save/
  @ DRIVER MODE: Message from server: EXIT
  @ DRIVE MODE: Exiting

     General routines

     Parallel routines

   This run was terminated on:  19:36:29  22Sep2021

   JOB DONE.