     Program PWSCF v.6.7GPU starts on 24Aug2021 at 20:51:14

     R & G space division:  proc/nbgrp/npool/nimage =      72
     Reading input from /storage/home/hcoda1/3/ntian30/research/carbon/CH2_vib/ads_slab/CH2NHH_a/out_0031/pw.inp
Warning: card &CELL ignored
Warning: card   CELL_DYNAMICS='IPI', ignored
Warning: card / ignored

     Current dimensions of program PWSCF are:
     Max number of different atomic species (ntypx) = 10
     Max number of k-points (npk) =  40000
     Max angular momentum in pseudopotentials (lmaxx) =  3
     Presently no symmetry can be used with electric field

     Message from routine cell_base_init:
     DEPRECATED: use true lattice parameter, not A to a.u. conversion factor

     IMPORTANT: XC functional enforced from input :
     Exchange-correlation= BEEF-VDW
                           (   1   4  43  14   2   0   0)
     Any further DFT definition will be discarded
     Please, verify this is what you really want

  @ DRIVER MODE: Connecting to
 qe_1139763_2641439.sched-torque.pace.gatech.edupezqu545_scratch
  using UNIX socket
  @ DRIVER MODE: Message from server: STATUS
  @ DRIVER MODE: Message from server: INIT
  @ DRIVER MODE: Receiving replica           0          -1
  @ DRIVER MODE: Receiving encoded integer          25
  @ DRIVER MODE:  SCF:  T  FORCE:  T  STRESS:  F  VC:  F  ENSEMBLE:  F
  @ DRIVER MODE:  SCF:  T  FORCE:  T  STRESS:  F  VC:  F  ENSEMBLE:  F

     Using Slab Decomposition

     bravais-lattice index     =            0
     lattice parameter (alat)  =       1.8897  a.u.
     unit-cell volume          =    6658.9804 (a.u.)^3
     number of atoms/cell      =           53
     number of atomic types    =            5
     number of electrons       =       391.00
     number of Kohn-Sham states=          205
     kinetic-energy cutoff     =      29.3995  Ry
     charge density cutoff     =     293.9946  Ry
     scf convergence threshold =      7.3E-08
     mixing beta               =       0.0500
     number of iterations used =            8  plain     mixing
     Exchange-correlation= BEEF-VDW
                           (   1   4  43  14   2   0   0)

     celldm(1)=   1.889726  celldm(2)=   0.000000  celldm(3)=   0.000000
     celldm(4)=   0.000000  celldm(5)=   0.000000  celldm(6)=   0.000000

     crystal axes: (cart. coord. in units of alat)
               a(1) = (   6.579727   0.000000   0.000000 )
               a(2) = (  -0.000775   5.961596   0.000000 )
               a(3) = (   0.000000   0.000000  25.155947 )

     reciprocal axes: (cart. coord. in units 2 pi/alat)
               b(1) = (  0.151982  0.000020  0.000000 )
               b(2) = (  0.000000  0.167740  0.000000 )
               b(3) = (  0.000000  0.000000  0.039752 )

     PseudoPot. # 1 for Ti read from file:
     /storage/coda1/p-amedford6/0/shared/rich_project_chbe-medford/medford-share/data/pseudos_module/espresso/nninc/pbe/van/Ti.UPF
     MD5 check sum: 8e4df49b7f0d34bbd5052bf3f5ea0213
     Pseudo is Ultrasoft, Zval = 12.0
     Generated by new atomic code, or converted to UPF format
     Using radial grid of  851 points,  6 beta functions with:
                l(1) =   0
                l(2) =   0
                l(3) =   1
                l(4) =   1
                l(5) =   2
                l(6) =   2
     Q(r) pseudized with  8 coefficients,  rinner =    1.000   1.000   1.000
                                                       1.000   1.000

     PseudoPot. # 2 for O  read from file:
     /storage/coda1/p-amedford6/0/shared/rich_project_chbe-medford/medford-share/data/pseudos_module/espresso/nninc/pbe/van/O.UPF
     MD5 check sum: 78c19812648e8988a0fe644b0f25305e
     Pseudo is Ultrasoft, Zval =  6.0
     Generated by new atomic code, or converted to UPF format
     Using radial grid of  737 points,  4 beta functions with:
                l(1) =   0
                l(2) =   0
                l(3) =   1
                l(4) =   1
     Q(r) pseudized with  8 coefficients,  rinner =    0.800   0.800   0.800

     PseudoPot. # 3 for N  read from file:
     /storage/coda1/p-amedford6/0/shared/rich_project_chbe-medford/medford-share/data/pseudos_module/espresso/nninc/pbe/van/N.UPF
     MD5 check sum: 90d10febe142ad51ac9d5be1deb811c4
     Pseudo is Ultrasoft, Zval =  5.0
     Generated by new atomic code, or converted to UPF format
     Using radial grid of  729 points,  4 beta functions with:
                l(1) =   0
                l(2) =   0
                l(3) =   1
                l(4) =   1
     Q(r) pseudized with  8 coefficients,  rinner =    0.800   0.800   0.800

     PseudoPot. # 4 for C  read from file:
     /storage/coda1/p-amedford6/0/shared/rich_project_chbe-medford/medford-share/data/pseudos_module/espresso/nninc/pbe/van/C.UPF
     MD5 check sum: 1a69bf6b8db32088f5b2163dbdb77a27
     Pseudo is Ultrasoft, Zval =  4.0
     Generated by new atomic code, or converted to UPF format
     Using radial grid of  721 points,  4 beta functions with:
                l(1) =   0
                l(2) =   0
                l(3) =   1
                l(4) =   1
     Q(r) pseudized with  8 coefficients,  rinner =    0.800   0.800   0.800

     PseudoPot. # 5 for H  read from file:
     /storage/coda1/p-amedford6/0/shared/rich_project_chbe-medford/medford-share/data/pseudos_module/espresso/nninc/pbe/van/H.UPF
     MD5 check sum: b5ee9d7bfd3a09ee7748110bda690ff7
     Pseudo is Ultrasoft, Zval =  1.0
     Generated by new atomic code, or converted to UPF format
     Using radial grid of  615 points,  1 beta functions with:
                l(1) =   0
     Q(r) pseudized with  8 coefficients,  rinner =    0.800

     atomic species   valence    mass     pseudopotential
        Ti1           12.00    47.86700     Ti( 1.00)
        O1             6.00    15.99900     O ( 1.00)
        N1             5.00    14.00700     N ( 1.00)
        C1             4.00    12.01100     C ( 1.00)
        H1             1.00     1.00800     H ( 1.00)

     No symmetry found

   Cartesian axes

     site n.     atom                  positions (alat units)
         1           Ti1 tau(   1) = (   0.0004258   2.9801865   6.0000000  )
         2           Ti1 tau(   2) = (   3.2906075   1.4906267   6.0002472  )
         3           O1  tau(   3) = (   0.0006271   0.0005054   7.9858123  )
         4           O1  tau(   4) = (   3.2906025   0.0005020   7.3038282  )
         5           O1  tau(   5) = (   4.5942328   1.4918067   9.2879030  )
         6           O1  tau(   6) = (   1.9868534   1.4903216   9.2879459  )
         7           Ti1 tau(   7) = (   3.2907910   2.8959150   9.1758416  )
         8           Ti1 tau(   8) = (   0.0015273   1.4827037   9.2680791  )
         9           O1  tau(   9) = (   3.2941312   5.9515177  11.3840049  )
        10           O1  tau(  10) = (   0.0116148   5.9584955  10.6183126  )
        11           O1  tau(  11) = (   1.2915503   1.4777401  12.6967708  )
        12           O1  tau(  12) = (   5.3002239   1.4803738  12.6794006  )
        13           Ti1 tau(  13) = (   0.0161863   2.9610389  12.5056540  )
        14           Ti1 tau(  14) = (   3.3199580   1.4690355  12.5397617  )
        15           O1  tau(  15) = (   6.5577523   5.8663973  14.6994336  )
        16           O1  tau(  16) = (   3.3105950   5.9380289  14.0083265  )
        17           O1  tau(  17) = (   4.5355139   1.5078041  16.1868020  )
        18           O1  tau(  18) = (   2.0231344   1.4922588  16.1350940  )
        19           Ti1 tau(  19) = (   3.2781988   2.9761027  15.7713632  )
        20           Ti1 tau(  20) = (   0.0162001   1.2772015  15.8797579  )
        21           O1  tau(  21) = (   3.2904802   0.0005063   4.7018136  )
        22           O1  tau(  22) = (   6.5682446   0.1140876  17.2519115  )
        23           O1  tau(  23) = (   1.3043587   1.4918075   6.0039043  )
        24           O1  tau(  24) = (   5.2767064   1.4903225   6.0039473  )
        25           Ti1 tau(  25) = (   0.0000382   5.9609847   6.0000000  )
        26           Ti1 tau(  26) = (   3.2902200   4.4714249   6.0002472  )
        27           O1  tau(  27) = (   0.0002396   2.9813036   7.9858123  )
        28           O1  tau(  28) = (   3.2902150   2.9813002   7.3038282  )
        29           O1  tau(  29) = (   4.5938453   4.4726049   9.2879030  )
        30           O1  tau(  30) = (   1.9864658   4.4711199   9.2879459  )
        31           Ti1 tau(  31) = (   3.2891106   5.8743827   9.1763621  )
        32           Ti1 tau(  32) = (   0.0006254   4.4649316   9.2693709  )
        33           O1  tau(  33) = (   3.2958891   2.9587481  11.3780895  )
        34           O1  tau(  34) = (   0.0092240   2.9805883  10.6323155  )
        35           O1  tau(  35) = (   1.2947421   4.4484190  12.6652604  )
        36           O1  tau(  36) = (   5.2996063   4.4466420  12.6515021  )
        37           Ti1 tau(  37) = (   0.0283143   5.9336383  12.5061025  )
        38           Ti1 tau(  38) = (   3.3214233   4.4478814  12.5310514  )
        39           O1  tau(  39) = (   6.5589476   3.0029366  14.9874712  )
        40           O1  tau(  40) = (   3.3011147   2.9794859  13.9794371  )
        41           O1  tau(  41) = (   4.5155863   4.4560770  16.2359875  )
        42           O1  tau(  42) = (   2.0187475   4.4548860  16.2131175  )
        43           Ti1 tau(  43) = (   3.3138217   5.9556645  15.8088081  )
        44           Ti1 tau(  44) = (   0.0451788   4.5003401  16.0524233  )
        45           O1  tau(  45) = (   3.2900926   2.9813045   4.7018136  )
        46           O1  tau(  46) = (   1.3039711   4.4726057   6.0039043  )
        47           O1  tau(  47) = (   5.2763189   4.4711207   6.0039473  )
        48           N1  tau(  48) = (   6.2013940   3.4221407  18.2524812  )
        49           C1  tau(  49) = (   0.6861764   3.1362451  19.0985974  )
        50           H1  tau(  50) = (   1.2250757   3.9700495  19.5149693  )
        51           H1  tau(  51) = (   1.1126790   2.1486344  19.0481404  )
        52           H1  tau(  52) = (   5.7034377   4.2789310  18.4761913  )
        53           H1  tau(  53) = (   5.5330662   2.6552022  18.1284619  )

     number of k points=    10  Fermi-Dirac smearing, width (Ry)=  0.0073
                       cart. coord. in units 2pi/alat
        k(    1) = (   0.0000000   0.0000000   0.0000000), wk =   0.1250000
        k(    2) = (   0.0000000   0.0419351   0.0000000), wk =   0.2500000
        k(    3) = (   0.0000000  -0.0838702   0.0000000), wk =   0.1250000
        k(    4) = (   0.0379955   0.0000049   0.0000000), wk =   0.2500000
        k(    5) = (   0.0379955   0.0419400   0.0000000), wk =   0.2500000
        k(    6) = (   0.0379955  -0.0838652   0.0000000), wk =   0.2500000
        k(    7) = (   0.0379955  -0.0419301   0.0000000), wk =   0.2500000
        k(    8) = (  -0.0759910  -0.0000099   0.0000000), wk =   0.1250000
        k(    9) = (  -0.0759910   0.0419252   0.0000000), wk =   0.2500000
        k(   10) = (  -0.0759910  -0.0838800   0.0000000), wk =   0.1250000

     Initial potential from superposition of free atoms

     starting charge  374.99916, renormalised to  391.00000

     negative rho (up, down):  1.684E-02 0.000E+00

     %%%%%%%%%%%%%%%%%%%%%%%%%%%%%%%%%%%%%%%%%%%%%%%%%%%%%%%%%%%%%%%%%%%%%%%%
     %                                                                      %
     % You are using vdW-DF, which was implemented by the Thonhauser group. %
     % Please cite the following two papers that made this development      %
     % possible and the two reviews that describe the various versions:     %
     %                                                                      %
     %   T. Thonhauser et al., PRL 115, 136402 (2015).                      %
     %   T. Thonhauser et al., PRB 76, 125112 (2007).                       %
     %   K. Berland et al., Rep. Prog. Phys. 78, 066501 (2015).             %
     %   D.C. Langreth et al., J. Phys.: Condens. Matter 21, 084203 (2009). %
     %                                                                      %
     %                                                                      %
     % If you are calculating the stress with vdW-DF, please also cite:     %
     %                                                                      %
     %   R. Sabatini et al., J. Phys.: Condens. Matter 24, 424209 (2012).   %
     %                                                                      %
     %%%%%%%%%%%%%%%%%%%%%%%%%%%%%%%%%%%%%%%%%%%%%%%%%%%%%%%%%%%%%%%%%%%%%%%%

     Adding external electric field

     Computed dipole along edir(3) :
        Dipole               -6.9321 Ry au,        -17.6197 Debye
        Dipole field         -0.0131 Ry au,

        Potential amp.        1.2127 Ry
        Total length         46.3494 bohr

     Starting wfcs are  296 atomic wfcs
  @ DRIVER MODE: Message from server: STATUS
  @ DRIVER MODE: Message from server: POSDATA
  @ DRIVER MODE: Reading and sharing cell
  @ DRIVER MODE: Reading and sharing positions
  @ DRIVER MODE: Received positions

     Self-consistent Calculation

     iteration #  1     ecut=    29.40 Ry     beta= 0.05
     Davidson diagonalization with overlap
     c_bands:  1 eigenvalues not converged
     ethr =  1.00E-05,  avg # of iterations = 15.4

[...]

     total energy              =   -2713.45506511 Ry
     estimated scf accuracy    <    2282.69344692 Ry

[...]

     iteration #  3     ecut=    29.40 Ry     beta= 0.05
     Davidson diagonalization with overlap
     ethr =  1.00E-02,  avg # of iterations = 15.6

[...]

     iteration # 90     ecut=    29.40 Ry     beta= 0.05
     Davidson diagonalization with overlap
     c_bands:  1 eigenvalues not converged
     ethr =  3.73E-11,  avg # of iterations = 12.5

[...]

     total energy              =   -2920.25690252 Ry
     estimated scf accuracy    <       0.00000010 Ry

     iteration # 93     ecut=    29.40 Ry     beta= 0.05
     Davidson diagonalization with overlap
     ethr =  2.42E-11,  avg # of iterations =  8.1

     negative rho (up, down):  1.610E-02 0.000E+00

     Adding external electric field

     Computed dipole along edir(3) :
        Dipole                0.8924 Ry au,          2.2681 Debye
        Dipole field          0.0017 Ry au,

        Potential amp.       -0.1561 Ry
        Total length         46.3494 bohr

     End of self-consistent calculation

          k = 0.0000 0.0000 0.0000 ( 18029 PWs)   bands (ev):

   -55.7229 -55.6870 -55.6749 -55.6408 -55.6124 -55.6032 -55.5688 -55.5473
   -55.5393 -55.5128 -55.5064 -55.4727 -55.4654 -55.3048 -54.7069 -54.6728
   -32.2883 -32.1680 -32.0912 -32.0576 -32.0437 -32.0363 -32.0329 -32.0124
   -31.9638 -31.9580 -31.9348 -31.9290 -31.9198 -31.8920 -31.8765 -31.8747
   -31.8618 -31.8505 -31.8427 -31.8274 -31.8219 -31.7894 -31.7818 -31.7779
   -31.7497 -31.7453 -31.7354 -31.7320 -31.7261 -31.7217 -31.7058 -31.7041
   -31.6957 -31.6929 -31.6719 -31.6606 -31.6581 -31.6428 -31.6343 -31.6179
   -31.5255 -31.4727 -31.1164 -31.0218 -30.9998 -30.9328 -30.8460 -30.7351
   -16.6547 -16.5276 -16.2737 -16.1133 -16.0192 -15.9229 -15.7912 -15.7636
   -15.6475 -15.5709 -15.4292 -15.3982 -15.3828 -15.3615 -15.3437 -15.3321
   -15.2707 -15.2647 -15.2447 -15.2193 -15.2159 -15.1690 -15.1643 -15.1239
   -15.1000 -15.0469 -14.9692 -14.8848 -14.8121 -14.4887 -13.2095 -13.0919
    -9.5167  -6.8174  -4.9475  -3.8874  -3.7440  -3.6752  -3.6256  -3.6169
    -3.4753  -3.3014  -3.1566  -3.1397  -3.0853  -2.9957  -2.9280  -2.9142
    -2.8898  -2.7481  -2.7337  -2.6799  -2.6524  -2.5754  -2.5710  -2.5282
    -2.5090  -2.4741  -2.4700  -2.4403  -2.2997  -2.2926  -2.2504  -2.1912
    -2.1321  -2.1295  -2.0743  -2.0551  -2.0138  -2.0047  -1.9955  -1.9525
    -1.9480  -1.9140  -1.8188  -1.7487  -1.6217  -1.5851  -1.4422  -1.3644
    -1.3166  -1.2964  -1.2155  -1.2083  -1.1487  -1.1034  -1.1025  -1.0621
    -0.9506  -0.8686  -0.8164  -0.7590  -0.7245  -0.7084  -0.6236  -0.5260
    -0.5028  -0.4903  -0.4537  -0.3545  -0.3295  -0.2683  -0.2045  -0.1922
    -0.1792  -0.0934  -0.0566   0.0158   0.0662   0.0861   0.1628   0.1853
     0.2087   0.2146   0.2455   0.2609   0.3331   0.3520   0.3768   0.4642
     0.5850   0.8277   0.8862   0.8955   1.2150   1.2201   1.3159   1.4990
     1.8924   1.9407   3.3697   3.3871   3.4517   3.5198   3.5236   3.5858
     3.6106   3.8572   3.8764   3.8845   3.9022

[...]

          k = 0.0380-0.0419 0.0000 ( 17876 PWs)   bands (ev):

[...]

          k =-0.0760-0.0000 0.0000 ( 17886 PWs)   bands (ev):

[...]

          k =-0.0760-0.0839 0.0000 ( 17948 PWs)   bands (ev):

   -55.7063 -55.7034 -55.6578 -55.6577 -55.6081 -55.5868 -55.5852 -55.5434
   -55.5318 -55.5279 -55.4900 -55.4893 -55.4633 -55.3069 -54.6899 -54.6897
   -32.0939 -32.0914 -32.0008 -31.9832 -31.9830 -31.9797 -31.9695 -31.9492
   -31.9489 -31.9328 -31.9262 -31.9192 -31.9147 -31.8754 -31.8670 -31.8640
   -31.8597 -31.8549 -31.8506 -31.8457 -31.8319 -31.8129 -31.8012 -31.8002
   -31.7819 -31.7780 -31.7775 -31.7772 -31.7648 -31.7609 -31.7444 -31.7422
   -31.7405 -31.7306 -31.7229 -31.7201 -31.6860 -31.6702 -31.6697 -31.6506
   -31.5648 -31.5276 -31.0126 -31.0123 -30.9290 -30.9288 -30.8894 -30.8893
   -16.6180 -16.0388 -15.9466 -15.9086 -15.7607 -15.7230 -15.6879 -15.6756
   -15.5529 -15.5269 -15.5014 -15.4803 -15.4447 -15.4288 -15.4217 -15.3738
   -15.3423 -15.3229 -15.3172 -15.3052 -15.2423 -15.2343 -15.2305 -15.2234
   -15.1741 -15.1705 -15.0795 -15.0765 -15.0635 -14.7739 -13.1934 -13.1934
    -9.5183  -6.7999  -4.9282  -3.2155  -3.1898  -3.1616  -3.1297  -2.9792
    -2.9109  -2.8964  -2.8753  -2.7972  -2.7565  -2.7356  -2.6946  -2.6836
    -2.6316  -2.6047  -2.5770  -2.5614  -2.5568  -2.5405  -2.5196  -2.4849
    -2.4565  -2.4538  -2.4433  -2.4029  -2.3758  -2.3620  -2.3279  -2.3183
    -2.3109  -2.2816  -2.2212  -2.1150  -2.0916  -2.0590  -1.9648  -1.9322
    -1.9274  -1.8472  -1.8169  -1.7588  -1.7557  -1.7444  -1.5973  -1.5156
    -1.4728  -1.4702  -1.4480  -1.3210  -1.3117  -1.2268  -1.2045  -1.1943
    -1.1046  -1.0816  -1.0440  -1.0185  -0.9360  -0.9107  -0.8447  -0.7566
    -0.7201  -0.7123  -0.6808  -0.6781  -0.6288  -0.6173  -0.5362  -0.4940
    -0.4577  -0.4476  -0.4065  -0.2216  -0.2048  -0.1615  -0.0332   0.0132
     0.1448   0.1624   0.2272   0.3033   0.3357   0.3897   0.4259   0.5719
     0.5816   0.6150   0.6584   0.6679   0.7275   0.7366   1.6720   1.6727
     1.7606   1.7609   3.3923   3.6188   3.6254   3.6643   3.6871   3.8399
     3.8904   3.9287   3.9542   3.9591   3.9758

     the Fermi energy is     3.4378 ev

!    total energy              =   -2920.25690477 Ry
     estimated scf accuracy    <       0.00000005 Ry
     smearing contrib. (-TS)   =      -0.04299559 Ry
     internal energy E=F+TS    =   -2920.21390918 Ry

     The total energy is F=E-TS. E is the sum of the following terms:
     one-electron contribution =  -24043.94933746 Ry
     hartree contribution      =   12108.11631388 Ry
     xc contribution           =    -480.85186361 Ry
     ewald contribution        =    9496.46947530 Ry
     electric field correction =       0.00150271 Ry

     convergence has been achieved in  93 iterations

     Forces acting on atoms (cartesian axes, Ry/au):

     atom    1 type  1   force =     0.00008698   -0.00016156    0.09317646
     atom    2 type  1   force =    -0.00020758   -0.00025264   -0.17848213
     atom    3 type  2   force =     0.00003751   -0.00036596   -0.02010911
     atom    4 type  2   force =    -0.00002009   -0.00199444    0.05916398
     atom    5 type  2   force =    -0.01040452   -0.00113830    0.00789279
     atom    6 type  2   force =     0.01196221   -0.00052204    0.00731798
     atom    7 type  1   force =    -0.00041656    0.00229683   -0.01386768
     atom    8 type  1   force =     0.00003923   -0.00144023   -0.00477280
     atom    9 type  2   force =     0.00000224   -0.00028517   -0.00035917
     atom   10 type  2   force =    -0.00082752    0.00066294    0.00151860
     atom   11 type  2   force =     0.00011066   -0.00004059    0.00025694
     atom   12 type  2   force =    -0.00008243    0.00008570    0.00034147
     atom   13 type  1   force =    -0.00056763    0.00062306   -0.00006697
     atom   14 type  1   force =     0.00025345    0.00021954    0.00009973
     atom   15 type  2   force =    -0.00017441    0.00051149    0.00036884
     atom   16 type  2   force =    -0.00015972   -0.00006432   -0.00009904
     atom   17 type  2   force =    -0.00016618   -0.00003815    0.00002089
     atom   18 type  2   force =    -0.00014802   -0.00014118   -0.00044830
     atom   19 type  1   force =    -0.00012160    0.00010467   -0.00017520
     atom   20 type  1   force =    -0.00008854   -0.00005098    0.00011921
     atom   21 type  2   force =     0.00001264   -0.00001359    0.10399260
     atom   22 type  2   force =     0.00000842    0.00037694    0.00053994
     atom   23 type  2   force =    -0.07039261   -0.00011319   -0.02690626
     atom   24 type  2   force =     0.07020822    0.00031732   -0.02696613
     atom   25 type  1   force =    -0.00000900   -0.00012056    0.09257638
     atom   26 type  1   force =    -0.00018017   -0.00038742   -0.17852501
     atom   27 type  2   force =     0.00009454   -0.00027016   -0.01918408
     atom   28 type  2   force =     0.00002761   -0.00176261    0.05848541
     atom   29 type  2   force =    -0.01089552   -0.00133398    0.00842768
     atom   30 type  2   force =     0.01234796   -0.00099484    0.00777667
     atom   31 type  1   force =    -0.00022640    0.00598270   -0.01474172
     atom   32 type  1   force =     0.00005885    0.00098653   -0.00535543
     atom   33 type  2   force =    -0.00030805    0.00024091    0.00013424
     atom   34 type  2   force =    -0.00022344   -0.00291351    0.00010309
     atom   35 type  2   force =     0.00061245    0.00021915   -0.00003188
     atom   36 type  2   force =    -0.00065688    0.00017950   -0.00026098
     atom   37 type  1   force =    -0.00054655   -0.00048440   -0.00006758
     atom   38 type  1   force =     0.00016280   -0.00050630    0.00012367
     atom   39 type  2   force =     0.00003110   -0.00022885    0.00029870
     atom   40 type  2   force =    -0.00000676    0.00045393   -0.00056828
     atom   41 type  2   force =    -0.00007251    0.00048277   -0.00016667
     atom   42 type  2   force =     0.00011741    0.00055350   -0.00013065
     atom   43 type  1   force =    -0.00013742    0.00028116   -0.00069804
     atom   44 type  1   force =    -0.00055607   -0.00026359    0.00029831
     atom   45 type  2   force =     0.00000302   -0.00002447    0.10395832
     atom   46 type  2   force =    -0.07037049   -0.00004266   -0.02687321
     atom   47 type  2   force =     0.07020355    0.00038724   -0.02692131
     atom   48 type  3   force =    -0.00812743   -0.00634069   -0.00129503
     atom   49 type  4   force =     0.00070468   -0.00101884   -0.00119466
     atom   50 type  5   force =     0.00017235   -0.00003766   -0.00051622
     atom   51 type  5   force =    -0.00026601    0.00059785    0.00012265
     atom   52 type  5   force =     0.00105969    0.00032112    0.00035378
     atom   53 type  5   force =     0.00804256    0.00746804    0.00131517

     Total force =     0.366741     Total SCF correction =     0.000721
  @ DRIVER MODE: Message from server: STATUS
  @ DRIVER MODE: Message from server: GETFORCE
  @ DRIVER MODE: Returning v,forces,stress,ensemble

     Writing output data file ./calc.save/
  @ DRIVER MODE: Message from server: EXIT
  @ DRIVE MODE: Exiting

     General routines

     Parallel routines

   This run was terminated on:  21:14:36  24Aug2021

   JOB DONE.