     Program PWSCF v.6.7GPU starts on  8Sep2021 at 23: 4:12

     R & G space division:  proc/nbgrp/npool/nimage =      10
     Reading input from /storage/home/hcoda1/3/ntian30/research/carbon/CxH_vib/CH_calc/ads_slab/CHNNHH_a/out_0004/pw.inp
Warning: card &CELL ignored
Warning: card   CELL_DYNAMICS='IPI', ignored
Warning: card / ignored

     Current dimensions of program PWSCF are:
     Max number of different atomic species (ntypx) = 10
     Max number of k-points (npk) =  40000
     Max angular momentum in pseudopotentials (lmaxx) =  3
     Presently no symmetry can be used with electric field

     Message from routine cell_base_init:
     DEPRECATED: use true lattice parameter, not A to a.u. conversion factor

     IMPORTANT: XC functional enforced from input :
     Exchange-correlation= BEEF-VDW
                           (   1   4  43  14   2   0   0)
     Any further DFT definition will be discarded
     Please, verify this is what you really want

  @ DRIVER MODE: Connecting to
 qe_1139763_2767382.sched-torque.pace.gatech.edue802suop_scratch
  using UNIX socket
  @ DRIVER MODE: Message from server: STATUS
  @ DRIVER MODE: Message from server: INIT
  @ DRIVER MODE: Receiving replica           0          -1
  @ DRIVER MODE: Receiving encoded integer          25
  @ DRIVER MODE:  SCF:  T  FORCE:  T  STRESS:  F  VC:  F  ENSEMBLE:  F
  @ DRIVER MODE:  SCF:  T  FORCE:  T  STRESS:  F  VC:  F  ENSEMBLE:  F

     Using Slab Decomposition

     bravais-lattice index     =            0
     lattice parameter (alat)  =       1.8897  a.u.
     unit-cell volume          =    6658.9804 (a.u.)^3
     number of atoms/cell      =           53
     number of atomic types    =            5
     number of electrons       =       395.00
     number of Kohn-Sham states=          207
     kinetic-energy cutoff     =      29.3995  Ry
     charge density cutoff     =     293.9946  Ry
     scf convergence threshold =      7.3E-08
     mixing beta               =       0.0500
     number of iterations used =            8  plain     mixing
     Exchange-correlation= BEEF-VDW
                           (   1   4  43  14   2   0   0)

     celldm(1)=   1.889726  celldm(2)=   0.000000  celldm(3)=   0.000000
     celldm(4)=   0.000000  celldm(5)=   0.000000  celldm(6)=   0.000000

     crystal axes: (cart. coord. in units of alat)
               a(1) = (   6.579727   0.000000   0.000000 )
               a(2) = (  -0.000775   5.961596   0.000000 )
               a(3) = (   0.000000   0.000000  25.155947 )

     reciprocal axes: (cart. coord. in units 2 pi/alat)
               b(1) = (  0.151982  0.000020  0.000000 )
               b(2) = (  0.000000  0.167740  0.000000 )
               b(3) = (  0.000000  0.000000  0.039752 )

     PseudoPot. # 1 for Ti read from file:
     /storage/coda1/p-amedford6/0/shared/rich_project_chbe-medford/medford-share/data/pseudos_module/espresso/nninc/pbe/van/Ti.UPF
     MD5 check sum: 8e4df49b7f0d34bbd5052bf3f5ea0213
     Pseudo is Ultrasoft, Zval = 12.0
     Generated by new atomic code, or converted to UPF format
     Using radial grid of  851 points,  6 beta functions with:
                l(1) =   0
                l(2) =   0
                l(3) =   1
                l(4) =   1
                l(5) =   2
                l(6) =   2
     Q(r) pseudized with  8 coefficients,  rinner =    1.000   1.000   1.000
                                                       1.000   1.000

     PseudoPot. # 2 for O  read from file:
     /storage/coda1/p-amedford6/0/shared/rich_project_chbe-medford/medford-share/data/pseudos_module/espresso/nninc/pbe/van/O.UPF
     MD5 check sum: 78c19812648e8988a0fe644b0f25305e
     Pseudo is Ultrasoft, Zval =  6.0
     Generated by new atomic code, or converted to UPF format
     Using radial grid of  737 points,  4 beta functions with:
                l(1) =   0
                l(2) =   0
                l(3) =   1
                l(4) =   1
     Q(r) pseudized with  8 coefficients,  rinner =    0.800   0.800   0.800

     PseudoPot. # 3 for N  read from file:
     /storage/coda1/p-amedford6/0/shared/rich_project_chbe-medford/medford-share/data/pseudos_module/espresso/nninc/pbe/van/N.UPF
     MD5 check sum: 90d10febe142ad51ac9d5be1deb811c4
     Pseudo is Ultrasoft, Zval =  5.0
     Generated by new atomic code, or converted to UPF format
     Using radial grid of  729 points,  4 beta functions with:
                l(1) =   0
                l(2) =   0
                l(3) =   1
                l(4) =   1
     Q(r) pseudized with  8 coefficients,  rinner =    0.800   0.800   0.800

     PseudoPot. # 4 for C  read from file:
     /storage/coda1/p-amedford6/0/shared/rich_project_chbe-medford/medford-share/data/pseudos_module/espresso/nninc/pbe/van/C.UPF
     MD5 check sum: 1a69bf6b8db32088f5b2163dbdb77a27
     Pseudo is Ultrasoft, Zval =  4.0
     Generated by new atomic code, or converted to UPF format
     Using radial grid of  721 points,  4 beta functions with:
                l(1) =   0
                l(2) =   0
                l(3) =   1
                l(4) =   1
     Q(r) pseudized with  8 coefficients,  rinner =    0.800   0.800   0.800

     PseudoPot. # 5 for H  read from file:
     /storage/coda1/p-amedford6/0/shared/rich_project_chbe-medford/medford-share/data/pseudos_module/espresso/nninc/pbe/van/H.UPF
     MD5 check sum: b5ee9d7bfd3a09ee7748110bda690ff7
     Pseudo is Ultrasoft, Zval =  1.0
     Generated by new atomic code, or converted to UPF format
     Using radial grid of  615 points,  1 beta functions with:
                l(1) =   0
     Q(r) pseudized with  8 coefficients,  rinner =    0.800

     atomic species   valence    mass     pseudopotential
        Ti1           12.00    47.86700     Ti( 1.00)
        O1             6.00    15.99900     O ( 1.00)
        N1             5.00    14.00700     N ( 1.00)
        C1             4.00    12.01100     C ( 1.00)
        H1             1.00     1.00800     H ( 1.00)

     No symmetry found

   Cartesian axes

     site n.     atom                  positions (alat units)
         1           Ti1 tau(   1) = (   0.0004258   2.9801865   6.0000000  )
         2           Ti1 tau(   2) = (   3.2906075   1.4906267   6.0002472  )
         3           O1  tau(   3) = (   0.0006271   0.0005054   7.9858123  )
         4           O1  tau(   4) = (   3.2906025   0.0005020   7.3038282  )
         5           O1  tau(   5) = (   4.5942328   1.4918067   9.2879030  )
         6           O1  tau(   6) = (   1.9868534   1.4903216   9.2879459  )
         7           Ti1 tau(   7) = (   3.2907910   2.8959150   9.1758416  )
         8           Ti1 tau(   8) = (   0.0015273   1.4827037   9.2680791  )
         9           O1  tau(   9) = (   3.2912281   5.9459940  11.3193265  )
        10           O1  tau(  10) = (   0.0116148   5.9584955  10.6183126  )
        11           O1  tau(  11) = (   1.3103257   1.4650607  12.6442557  )
        12           O1  tau(  12) = (   5.3047449   1.4806448  12.6312737  )
        13           Ti1 tau(  13) = (   6.5337005   3.0128982  12.6900614  )
        14           Ti1 tau(  14) = (   3.2207025   1.4698770  12.4715817  )
        15           O1  tau(  15) = (   6.5518216   5.9146589  14.6704082  )
        16           O1  tau(  16) = (   3.3240203   5.9583723  13.8895330  )
        17           O1  tau(  17) = (   4.5456974   1.5225049  16.1264218  )
        18           O1  tau(  18) = (   2.0489736   1.4727210  15.9535721  )
        19           Ti1 tau(  19) = (   3.2591190   2.9927146  15.6788090  )
        20           Ti1 tau(  20) = (   0.0289511   1.3544711  15.7732889  )
        21           O1  tau(  21) = (   3.2904802   0.0005063   4.7018136  )
        22           O1  tau(  22) = (   0.0559926   0.0451390  17.2112278  )
        23           O1  tau(  23) = (   1.3043587   1.4918075   6.0039043  )
        24           O1  tau(  24) = (   5.2767064   1.4903225   6.0039473  )
        25           Ti1 tau(  25) = (   0.0000382   5.9609847   6.0000000  )
        26           Ti1 tau(  26) = (   3.2902200   4.4714249   6.0002472  )
        27           O1  tau(  27) = (   0.0002396   2.9813036   7.9858123  )
        28           O1  tau(  28) = (   3.2902150   2.9813002   7.3038282  )
        29           O1  tau(  29) = (   4.5938453   4.4726049   9.2879030  )
        30           O1  tau(  30) = (   1.9864658   4.4711199   9.2879459  )
        31           Ti1 tau(  31) = (   3.2891106   5.8743827   9.1763621  )
        32           Ti1 tau(  32) = (   0.0006254   4.4649316   9.2693709  )
        33           O1  tau(  33) = (   3.2889932   2.9698301  11.3211337  )
        34           O1  tau(  34) = (   0.0092240   2.9805883  10.6323155  )
        35           O1  tau(  35) = (   1.3069247   4.4567274  12.6410950  )
        36           O1  tau(  36) = (   5.3013738   4.4587240  12.6283471  )
        37           Ti1 tau(  37) = (   6.5339814   0.0202798  12.5235249  )
        38           Ti1 tau(  38) = (   3.2191325   4.4512509  12.4750946  )
        39           O1  tau(  39) = (   6.5688456   2.9522374  14.7547250  )
        40           O1  tau(  40) = (   3.3031296   2.9710333  13.8824388  )
        41           O1  tau(  41) = (   4.5425837   4.4734130  15.9989242  )
        42           O1  tau(  42) = (   2.0771424   4.4889556  16.0364895  )
        43           Ti1 tau(  43) = (   3.3121389   0.0026565  15.6888161  )
        44           Ti1 tau(  44) = (   6.5128106   4.4989306  16.3061806  )
        45           O1  tau(  45) = (   3.2900926   2.9813045   4.7018136  )
        46           O1  tau(  46) = (   1.3039711   4.4726057   6.0039043  )
        47           O1  tau(  47) = (   5.2763189   4.4711207   6.0039473  )
        48           N1  tau(  48) = (   0.4628824   2.9949886  17.7976856  )
        49           C1  tau(  49) = (   1.4182946   2.9518240  18.6700831  )
        50           H1  tau(  50) = (   2.3503500   2.6458988  18.1556329  )
        51           N1  tau(  51) = (   5.7893717   3.5482605  18.2279111  )
        52           H1  tau(  52) = (   5.8942619   4.0012392  19.1365464  )
        53           H1  tau(  53) = (   5.0734348   2.8266848  18.2415795  )

     number of k points=    10  Fermi-Dirac smearing, width (Ry)=  0.0073
                       cart. coord. in units 2pi/alat
        k(    1) = (   0.0000000   0.0000000   0.0000000), wk =   0.1250000
        k(    2) = (   0.0000000   0.0419351   0.0000000), wk =   0.2500000
        k(    3) = (   0.0000000  -0.0838702   0.0000000), wk =   0.1250000
        k(    4) = (   0.0379955   0.0000049   0.0000000), wk =   0.2500000
        k(    5) = (   0.0379955   0.0419400   0.0000000), wk =   0.2500000
        k(    6) = (   0.0379955  -0.0838652   0.0000000), wk =   0.2500000
        k(    7) = (   0.0379955  -0.0419301   0.0000000), wk =   0.2500000
        k(    8) = (  -0.0759910  -0.0000099   0.0000000), wk =   0.1250000
        k(    9) = (  -0.0759910   0.0419252   0.0000000), wk =   0.2500000
        k(   10) = (  -0.0759910  -0.0838800   0.0000000), wk =   0.1250000

     Initial potential from superposition of free atoms

     starting charge  378.99916, renormalised to  395.00000

     negative rho (up, down):  1.775E-02 0.000E+00

     %%%%%%%%%%%%%%%%%%%%%%%%%%%%%%%%%%%%%%%%%%%%%%%%%%%%%%%%%%%%%%%%%%%%%%%%
     %                                                                      %
     % You are using vdW-DF, which was implemented by the Thonhauser group. %
     % Please cite the following two papers that made this development      %
     % possible and the two reviews that describe the various versions:     %
     %                                                                      %
     %   T. Thonhauser et al., PRL 115, 136402 (2015).                      %
     %   T. Thonhauser et al., PRB 76, 125112 (2007).                       %
     %   K. Berland et al., Rep. Prog. Phys. 78, 066501 (2015).             %
     %   D.C. Langreth et al., J. Phys.: Condens. Matter 21, 084203 (2009). %
     %                                                                      %
     %                                                                      %
     % If you are calculating the stress with vdW-DF, please also cite:     %
     %                                                                      %
     %   R. Sabatini et al., J. Phys.: Condens. Matter 24, 424209 (2012).   %
     %                                                                      %
     %%%%%%%%%%%%%%%%%%%%%%%%%%%%%%%%%%%%%%%%%%%%%%%%%%%%%%%%%%%%%%%%%%%%%%%%

     Adding external electric field

     Computed dipole along edir(3) :
        Dipole               -8.0620 Ry au,        -20.4914 Debye
        Dipole field         -0.0152 Ry au,

        Potential amp.        1.4103 Ry
        Total length         46.3494 bohr

     Starting wfcs are  299 atomic wfcs
  @ DRIVER MODE: Message from server: STATUS
  @ DRIVER MODE: Message from server: POSDATA
  @ DRIVER MODE: Reading and sharing cell
  @ DRIVER MODE: Reading and sharing positions
  @ DRIVER MODE: Received positions

     Self-consistent Calculation

     iteration #  1     ecut=    29.40 Ry     beta= 0.05
     Davidson diagonalization with overlap
     c_bands:  1 eigenvalues not converged
     c_bands:  1 eigenvalues not converged
     c_bands:  2 eigenvalues not converged
     c_bands:  3 eigenvalues not converged
     c_bands:  3 eigenvalues not converged
     c_bands:  2 eigenvalues not converged
     c_bands:  1 eigenvalues not converged
     ethr =  1.00E-05,  avg # of iterations = 19.3

[...]

     total energy              =   -2614.85997708 Ry
     estimated scf accuracy    <    3583.90519433 Ry

[...]

     iteration #  3     ecut=    29.40 Ry     beta= 0.05
     Davidson diagonalization with overlap
     ethr =  1.00E-02,  avg # of iterations = 13.9

[...]

     iteration # 74     ecut=    29.40 Ry     beta= 0.05
     Davidson diagonalization with overlap
     c_bands:  2 eigenvalues not converged
     ethr =  1.91E-11,  avg # of iterations = 16.2

[...]

     total energy              =   -2939.00606143 Ry
     estimated scf accuracy    <       0.00000009 Ry

     iteration # 76     ecut=    29.40 Ry     beta= 0.05
     Davidson diagonalization with overlap
     ethr =  1.91E-11,  avg # of iterations = 14.3

     negative rho (up, down):  1.647E-02 0.000E+00

     Adding external electric field

     Computed dipole along edir(3) :
        Dipole                0.3058 Ry au,          0.7772 Debye
        Dipole field          0.0006 Ry au,

        Potential amp.       -0.0535 Ry
        Total length         46.3494 bohr

     End of self-consistent calculation

          k = 0.0000 0.0000 0.0000 ( 18029 PWs)   bands (ev):

   -56.1052 -56.1032 -56.0711 -56.0668 -55.9935 -55.9592 -55.9532 -55.9183
   -55.9027 -55.8685 -55.8677 -55.8335 -55.6394 -55.5850 -55.0751 -55.0411
   -32.6623 -32.5863 -32.4851 -32.4250 -32.4107 -32.4064 -32.3977 -32.3589
   -32.3453 -32.3308 -32.3051 -32.2837 -32.2775 -32.2576 -32.2507 -32.2441
   -32.2082 -32.1953 -32.1926 -32.1882 -32.1843 -32.1626 -32.1550 -32.1405
   -32.1147 -32.1015 -32.1002 -32.0994 -32.0944 -32.0907 -32.0698 -32.0429
   -32.0422 -32.0277 -32.0208 -32.0008 -31.9797 -31.9500 -31.8696 -31.8392
   -31.8012 -31.7337 -31.4818 -31.3945 -31.3720 -31.2987 -31.2122 -31.1010
   -18.0128 -16.8714 -16.5815 -16.3666 -16.2606 -16.2453 -16.1389 -15.9535
   -15.8201 -15.7921 -15.6854 -15.6789 -15.6373 -15.6254 -15.5962 -15.5728
   -15.5643 -15.5381 -15.5353 -15.5187 -15.4745 -15.4514 -15.4323 -15.3359
   -15.2963 -15.2354 -15.2137 -15.1526 -15.0302 -14.7949 -13.5771 -13.4608
   -13.3120  -8.0768  -6.3801  -4.3757  -4.2456  -4.0690  -4.0078  -3.9685
    -3.9610  -3.7179  -3.6851  -3.3261  -3.2938  -3.2748  -3.2636  -3.2523
    -3.1452  -3.0173  -2.9616  -2.9195  -2.9093  -2.8988  -2.8916  -2.8788
    -2.8529  -2.8306  -2.7265  -2.6850  -2.6519  -2.5425  -2.5234  -2.4383
    -2.4152  -2.4042  -2.3698  -2.3497  -2.3408  -2.3143  -2.3033  -2.2787
    -2.1912  -2.1427  -2.0277  -1.9597  -1.8840  -1.8489  -1.7018  -1.6583
    -1.5705  -1.5640  -1.5453  -1.5231  -1.4899  -1.4040  -1.3297  -1.2402
    -1.1985  -1.1607  -1.1248  -1.0814  -0.9997  -0.9809  -0.9636  -0.8673
    -0.8634  -0.8540  -0.8114  -0.6096  -0.5849  -0.5509  -0.5382  -0.4615
    -0.4026  -0.3862  -0.3648  -0.3171  -0.2568  -0.1936  -0.1477  -0.1327
    -0.1213  -0.1178  -0.0836  -0.0576   0.0852   0.0960   0.1900   0.2018
     0.2252   0.3525   0.5261   0.5640   0.5858   0.7063   0.8781   0.9474
     1.0490   1.1404   1.5178   1.5631   2.4059   3.0326   3.1187   3.1524
     3.1718   3.2771   3.3107   3.4801   3.4953   3.5303   3.5495

[...]

          k = 0.0380-0.0419 0.0000 ( 17876 PWs)   bands (ev):

[...]

          k =-0.0760-0.0000 0.0000 ( 17886 PWs)   bands (ev):

[...]

          k =-0.0760-0.0839 0.0000 ( 17948 PWs)   bands (ev):

   -56.0892 -56.0870 -56.0869 -56.0829 -55.9843 -55.9623 -55.9496 -55.9278
   -55.8875 -55.8832 -55.8541 -55.8473 -55.6357 -55.5887 -55.0581 -55.0579
   -32.4658 -32.4613 -32.4023 -32.4009 -32.3841 -32.3824 -32.3644 -32.3522
   -32.3331 -32.3137 -32.2903 -32.2739 -32.2479 -32.2382 -32.2376 -32.2190
   -32.2188 -32.2091 -32.2066 -32.2012 -32.1999 -32.1925 -32.1867 -32.1720
   -32.1672 -32.1491 -32.1328 -32.1301 -32.0873 -32.0855 -32.0836 -32.0799
   -32.0695 -32.0688 -32.0642 -32.0634 -32.0586 -31.9684 -31.8804 -31.8326
   -31.8045 -31.7903 -31.3848 -31.3846 -31.2947 -31.2944 -31.2556 -31.2554
   -18.0031 -16.3071 -16.2913 -16.0747 -16.0301 -16.0261 -16.0050 -15.9167
   -15.8266 -15.8071 -15.7931 -15.7753 -15.7610 -15.6805 -15.6550 -15.6326
   -15.6287 -15.6159 -15.5612 -15.5555 -15.5525 -15.5471 -15.5272 -15.4942
   -15.4116 -15.4067 -15.3960 -15.1575 -15.0915 -15.0202 -13.5628 -13.5624
   -13.3250  -8.0341  -6.3199  -4.3936  -3.6002  -3.5814  -3.3566  -3.3166
    -3.2830  -3.2736  -3.1582  -3.0560  -3.0255  -3.0130  -2.9748  -2.9564
    -2.9439  -2.9315  -2.9185  -2.8990  -2.8736  -2.8399  -2.8351  -2.7893
    -2.7721  -2.7510  -2.7335  -2.7119  -2.7106  -2.6704  -2.6651  -2.6257
    -2.5874  -2.5429  -2.4355  -2.3786  -2.3403  -2.2914  -2.2344  -2.2235
    -2.2139  -2.1601  -2.1549  -2.1204  -2.0365  -1.9607  -1.8249  -1.8036
    -1.7704  -1.7303  -1.6967  -1.5995  -1.5554  -1.5054  -1.4541  -1.3976
    -1.3862  -1.3438  -1.3066  -1.2404  -1.2235  -1.1839  -1.1629  -1.1004
    -1.0586  -1.0544  -0.9912  -0.9240  -0.8659  -0.8626  -0.8423  -0.8266
    -0.7696  -0.7217  -0.6550  -0.6059  -0.5642  -0.4665  -0.4102  -0.2937
    -0.1857  -0.0671   0.0045   0.0083   0.0641   0.1410   0.1871   0.2217
     0.2322   0.2505   0.3418   0.4137   0.4327   0.4465   0.5153   0.6992
     1.3122   1.3133   1.3824   1.3832   2.4036   3.3206   3.3586   3.3730
     3.4043   3.5492   3.5520   3.5642   3.5680   3.6865   3.7198

     the Fermi energy is     3.0296 ev

!    total energy              =   -2939.00607000 Ry
     estimated scf accuracy    <       0.00000006 Ry
     smearing contrib. (-TS)   =      -0.02200129 Ry
     internal energy E=F+TS    =   -2938.98406871 Ry

     The total energy is F=E-TS. E is the sum of the following terms:
     one-electron contribution =  -24452.90959944 Ry
     hartree contribution      =   12311.53730959 Ry
     xc contribution           =    -485.13336553 Ry
     ewald contribution        =    9687.52141022 Ry
     electric field correction =       0.00017645 Ry

     convergence has been achieved in  76 iterations

     Forces acting on atoms (cartesian axes, Ry/au):

     atom    1 type  1   force =     0.00018297   -0.00028047    0.09687545
     atom    2 type  1   force =     0.00006112   -0.00078318   -0.17501539
     atom    3 type  2   force =     0.00014749   -0.00008713   -0.02553231
     atom    4 type  2   force =    -0.00003101   -0.00142652    0.05154963
     atom    5 type  2   force =    -0.01205748   -0.00173695    0.00278379
     atom    6 type  2   force =     0.01348152   -0.00134374    0.00222642
     atom    7 type  1   force =     0.00040335    0.00015758   -0.01211371
     atom    8 type  1   force =     0.00018724    0.02419343    0.02896776
     atom    9 type  2   force =    -0.00004041    0.00051728   -0.00006334
     atom   10 type  2   force =    -0.00266084    0.00014256   -0.01162456
     atom   11 type  2   force =    -0.00001996    0.00026984    0.00004731
     atom   12 type  2   force =    -0.00025562   -0.00002014    0.00014757
     atom   13 type  1   force =    -0.00012257    0.00113868   -0.00015250
     atom   14 type  1   force =    -0.00000235    0.00050404    0.00006343
     atom   15 type  2   force =     0.00015377    0.00027193   -0.00007599
     atom   16 type  2   force =    -0.00021015    0.00023886   -0.00031168
     atom   17 type  2   force =     0.00043272    0.00025643   -0.00025273
     atom   18 type  2   force =    -0.00040498    0.00019576    0.00004311
     atom   19 type  1   force =    -0.00020767    0.00006237   -0.00058427
     atom   20 type  1   force =     0.00019440   -0.00065505   -0.00061575
     atom   21 type  2   force =     0.00006605   -0.00007297    0.10300225
     atom   22 type  2   force =     0.00003479    0.00059436   -0.00026387
     atom   23 type  2   force =    -0.07168311   -0.00016933   -0.02791632
     atom   24 type  2   force =     0.07158878    0.00028943   -0.02795304
     atom   25 type  1   force =     0.00003432   -0.00025853    0.09678263
     atom   26 type  1   force =    -0.00001014   -0.00017230   -0.17515911
     atom   27 type  2   force =     0.00015833   -0.00026839   -0.02419599
     atom   28 type  2   force =     0.00001583   -0.00117895    0.05210000
     atom   29 type  2   force =    -0.01221464    0.00077732    0.00246369
     atom   30 type  2   force =     0.01352313    0.00126237    0.00187459
     atom   31 type  1   force =     0.00045368    0.00286508   -0.01398244
     atom   32 type  1   force =     0.00038799   -0.02516210    0.03046108
     atom   33 type  2   force =     0.00004393   -0.00007733   -0.00016865
     atom   34 type  2   force =    -0.00184012   -0.00050055   -0.02070404
     atom   35 type  2   force =    -0.00000687    0.00022429   -0.00003911
     atom   36 type  2   force =     0.00016748    0.00033597    0.00017755
     atom   37 type  1   force =    -0.00021082   -0.00084613   -0.00004567
     atom   38 type  1   force =     0.00009212    0.00012969   -0.00019128
     atom   39 type  2   force =     0.00006962    0.00029508   -0.00019655
     atom   40 type  2   force =    -0.00006399    0.00007734    0.00041192
     atom   41 type  2   force =     0.00025954    0.00000854   -0.00019527
     atom   42 type  2   force =    -0.00001162    0.00000900   -0.00040754
     atom   43 type  1   force =    -0.00036187    0.00007691    0.00005289
     atom   44 type  1   force =    -0.00004920    0.00039356   -0.00026246
     atom   45 type  2   force =     0.00005442   -0.00006594    0.10301671
     atom   46 type  2   force =    -0.07170889   -0.00011970   -0.02791588
     atom   47 type  2   force =     0.07159785    0.00025338   -0.02793993
     atom   48 type  3   force =     0.00280319   -0.00366701   -0.00143534
     atom   49 type  4   force =    -0.00107456    0.00000606    0.00053818
     atom   50 type  5   force =     0.00005246    0.00120650   -0.00058738
     atom   51 type  3   force =    -0.00125642    0.00270490    0.00223698
     atom   52 type  5   force =    -0.00075039    0.00007207    0.00001634
     atom   53 type  5   force =     0.00060758   -0.00063818    0.00006279

     Total force =     0.369051     Total SCF correction =     0.000678
  @ DRIVER MODE: Message from server: STATUS
  @ DRIVER MODE: Message from server: GETFORCE
  @ DRIVER MODE: Returning v,forces,stress,ensemble

     Writing output data file ./calc.save/
  @ DRIVER MODE: Message from server: EXIT
  @ DRIVE MODE: Exiting

     General routines

     Parallel routines

   This run was terminated on:  23:25:40   8Sep2021

   JOB DONE.