     Program PWSCF v.6.7GPU starts on 14Sep2021 at 22:53:19

     R & G space division:  proc/nbgrp/npool/nimage =      10
     Reading input from /storage/home/hcoda1/3/ntian30/research/carbon/CxH_vib/CH_calc/ads_slab/CHOHN2_a/out_0027/pw.inp
Warning: card &CELL ignored
Warning: card   CELL_DYNAMICS='IPI', ignored
Warning: card / ignored

     Current dimensions of program PWSCF are:
     Max number of different atomic species (ntypx) = 10
     Max number of k-points (npk) =  40000
     Max angular momentum in pseudopotentials (lmaxx) =  3
     Presently no symmetry can be used with electric field

     Message from routine cell_base_init:
     DEPRECATED: use true lattice parameter, not A to a.u. conversion factor

     IMPORTANT: XC functional enforced from input :
     Exchange-correlation= BEEF-VDW
                           (   1   4  43  14   2   0   0)
     Any further DFT definition will be discarded
     Please, verify this is what you really want

  @ DRIVER MODE: Connecting to
 qe_1139763_2840439.sched-torque.pace.gatech.eduf14az3cw_scratch
  using UNIX socket
  @ DRIVER MODE: Message from server: STATUS
  @ DRIVER MODE: Message from server: INIT
  @ DRIVER MODE: Receiving replica           0          -1
  @ DRIVER MODE: Receiving encoded integer          25
  @ DRIVER MODE:  SCF:  T  FORCE:  T  STRESS:  F  VC:  F  ENSEMBLE:  F
  @ DRIVER MODE:  SCF:  T  FORCE:  T  STRESS:  F  VC:  F  ENSEMBLE:  F

     Using Slab Decomposition

     bravais-lattice index     =            0
     lattice parameter (alat)  =       1.8897  a.u.
     unit-cell volume          =    6658.9804 (a.u.)^3
     number of atoms/cell      =           53
     number of atomic types    =            5
     number of electrons       =       400.00
     number of Kohn-Sham states=          210
     kinetic-energy cutoff     =      29.3995  Ry
     charge density cutoff     =     293.9946  Ry
     scf convergence threshold =      7.3E-08
     mixing beta               =       0.0500
     number of iterations used =            8  plain     mixing
     Exchange-correlation= BEEF-VDW
                           (   1   4  43  14   2   0   0)

     celldm(1)=   1.889726  celldm(2)=   0.000000  celldm(3)=   0.000000
     celldm(4)=   0.000000  celldm(5)=   0.000000  celldm(6)=   0.000000

     crystal axes: (cart. coord. in units of alat)
               a(1) = (   6.579727   0.000000   0.000000 )
               a(2) = (  -0.000775   5.961596   0.000000 )
               a(3) = (   0.000000   0.000000  25.155947 )

     reciprocal axes: (cart. coord. in units 2 pi/alat)
               b(1) = (  0.151982  0.000020  0.000000 )
               b(2) = (  0.000000  0.167740  0.000000 )
               b(3) = (  0.000000  0.000000  0.039752 )

     PseudoPot. # 1 for C  read from file:
     /storage/coda1/p-amedford6/0/shared/rich_project_chbe-medford/medford-share/data/pseudos_module/espresso/nninc/pbe/van/C.UPF
     MD5 check sum: 1a69bf6b8db32088f5b2163dbdb77a27
     Pseudo is Ultrasoft, Zval =  4.0
     Generated by new atomic code, or converted to UPF format
     Using radial grid of  721 points,  4 beta functions with:
                l(1) =   0
                l(2) =   0
                l(3) =   1
                l(4) =   1
     Q(r) pseudized with  8 coefficients,  rinner =    0.800   0.800   0.800

     PseudoPot. # 2 for H  read from file:
     /storage/coda1/p-amedford6/0/shared/rich_project_chbe-medford/medford-share/data/pseudos_module/espresso/nninc/pbe/van/H.UPF
     MD5 check sum: b5ee9d7bfd3a09ee7748110bda690ff7
     Pseudo is Ultrasoft, Zval =  1.0
     Generated by new atomic code, or converted to UPF format
     Using radial grid of  615 points,  1 beta functions with:
                l(1) =   0
     Q(r) pseudized with  8 coefficients,  rinner =    0.800

     PseudoPot. # 3 for O  read from file:
     /storage/coda1/p-amedford6/0/shared/rich_project_chbe-medford/medford-share/data/pseudos_module/espresso/nninc/pbe/van/O.UPF
     MD5 check sum: 78c19812648e8988a0fe644b0f25305e
     Pseudo is Ultrasoft, Zval =  6.0
     Generated by new atomic code, or converted to UPF format
     Using radial grid of  737 points,  4 beta functions with:
                l(1) =   0
                l(2) =   0
                l(3) =   1
                l(4) =   1
     Q(r) pseudized with  8 coefficients,  rinner =    0.800   0.800   0.800

     PseudoPot. # 4 for Ti read from file:
     /storage/coda1/p-amedford6/0/shared/rich_project_chbe-medford/medford-share/data/pseudos_module/espresso/nninc/pbe/van/Ti.UPF
     MD5 check sum: 8e4df49b7f0d34bbd5052bf3f5ea0213
     Pseudo is Ultrasoft, Zval = 12.0
     Generated by new atomic code, or converted to UPF format
     Using radial grid of  851 points,  6 beta functions with:
                l(1) =   0
                l(2) =   0
                l(3) =   1
                l(4) =   1
                l(5) =   2
                l(6) =   2
     Q(r) pseudized with  8 coefficients,  rinner =    1.000   1.000   1.000
                                                       1.000   1.000

     PseudoPot. # 5 for N  read from file:
     /storage/coda1/p-amedford6/0/shared/rich_project_chbe-medford/medford-share/data/pseudos_module/espresso/nninc/pbe/van/N.UPF
     MD5 check sum: 90d10febe142ad51ac9d5be1deb811c4
     Pseudo is Ultrasoft, Zval =  5.0
     Generated by new atomic code, or converted to UPF format
     Using radial grid of  729 points,  4 beta functions with:
                l(1) =   0
                l(2) =   0
                l(3) =   1
                l(4) =   1
     Q(r) pseudized with  8 coefficients,  rinner =    0.800   0.800   0.800

     atomic species   valence    mass     pseudopotential
        C1             4.00    12.01100     C ( 1.00)
        H1             1.00     1.00800     H ( 1.00)
        O1             6.00    15.99900     O ( 1.00)
        Ti1           12.00    47.86700     Ti( 1.00)
        N1             5.00    14.00700     N ( 1.00)

     No symmetry found

   Cartesian axes

     site n.     atom                  positions (alat units)
         1           C1  tau(   1) = (   5.6818245   3.0934261  18.8613826  )
         2           H1  tau(   2) = (   0.9295697   3.0331078  18.1055300  )
         3           H1  tau(   3) = (   5.3049293   4.0639705  19.1352297  )
         4           O1  tau(   4) = (   3.2904802   0.0005063   4.7018136  )
         5           O1  tau(   5) = (   3.2900926   2.9813045   4.7018136  )
         6           O1  tau(   6) = (   1.3043587   1.4918075   6.0039043  )
         7           O1  tau(   7) = (   1.3039711   4.4726057   6.0039043  )
         8           O1  tau(   8) = (   5.2767064   1.4903225   6.0039473  )
         9           O1  tau(   9) = (   5.2763189   4.4711207   6.0039473  )
        10           O1  tau(  10) = (   3.2906025   0.0005020   7.3038282  )
        11           O1  tau(  11) = (   3.2902150   2.9813002   7.3038282  )
        12           O1  tau(  12) = (   0.0006271   0.0005054   7.9858123  )
        13           O1  tau(  13) = (   0.0002396   2.9813036   7.9858123  )
        14           O1  tau(  14) = (   4.5942328   1.4918067   9.2879030  )
        15           O1  tau(  15) = (   4.5938453   4.4726049   9.2879030  )
        16           O1  tau(  16) = (   1.9868534   1.4903216   9.2879459  )
        17           O1  tau(  17) = (   1.9864658   4.4711199   9.2879459  )
        18           O1  tau(  18) = (   6.5737290   0.0025997  10.6073112  )
        19           O1  tau(  19) = (   6.5745157   2.9846488  10.6292520  )
        20           O1  tau(  20) = (   3.2733922   2.9888808  11.3669225  )
        21           O1  tau(  21) = (   3.2734535   0.0083669  11.3733985  )
        22           O1  tau(  22) = (   1.2686495   4.4776606  12.6533150  )
        23           O1  tau(  23) = (   1.2691242   1.4995788  12.6525255  )
        24           O1  tau(  24) = (   5.2697113   4.4789153  12.6558726  )
        25           O1  tau(  25) = (   5.2698035   1.4991558  12.6558074  )
        26           O1  tau(  26) = (   3.2614338   2.9920807  13.9552461  )
        27           O1  tau(  27) = (   3.2541646   0.0113981  14.0020514  )
        28           O1  tau(  28) = (   6.5688946   0.0096870  14.6775192  )
        29           O1  tau(  29) = (   6.5667413   2.9928499  14.8718366  )
        30           O1  tau(  30) = (   4.5340645   4.4751187  16.1466513  )
        31           O1  tau(  31) = (   4.5349815   1.5188077  16.1513287  )
        32           O1  tau(  32) = (   2.0116004   1.5352794  16.1924295  )
        33           O1  tau(  33) = (   2.0125852   4.4566501  16.1924965  )
        34           O1  tau(  34) = (   6.5583959   0.0051910  17.1951124  )
        35           O1  tau(  35) = (   0.0128280   2.9917589  17.7791131  )
        36           Ti1 tau(  36) = (   0.0004258   2.9801865   6.0000000  )
        37           Ti1 tau(  37) = (   0.0000382   5.9609847   6.0000000  )
        38           Ti1 tau(  38) = (   3.2906075   1.4906267   6.0002472  )
        39           Ti1 tau(  39) = (   3.2902200   4.4714249   6.0002472  )
        40           Ti1 tau(  40) = (   3.3204229   0.0006979   9.1540291  )
        41           Ti1 tau(  41) = (   3.3226256   2.9815539   9.1563990  )
        42           Ti1 tau(  42) = (   0.0414996   4.4578595   9.2720048  )
        43           Ti1 tau(  43) = (   0.0419130   1.4910583   9.2667342  )
        44           Ti1 tau(  44) = (   6.5463313   0.0151476  12.4833176  )
        45           Ti1 tau(  45) = (   3.2510826   4.4792010  12.5152252  )
        46           Ti1 tau(  46) = (   3.2519543   1.5009035  12.5151888  )
        47           Ti1 tau(  47) = (   6.5510796   2.9946678  12.5453677  )
        48           Ti1 tau(  48) = (   3.2768179   2.9983465  15.7429562  )
        49           Ti1 tau(  49) = (   3.2517467   0.0179395  15.7976682  )
        50           Ti1 tau(  50) = (   6.5407926   4.5826425  15.9111250  )
        51           Ti1 tau(  51) = (   6.5448107   1.3670631  15.9596882  )
        52           N1  tau(  52) = (   4.6962475   1.0070953  19.6889386  )
        53           N1  tau(  53) = (   5.1479752   2.0001232  19.2934520  )

     number of k points=    10  Fermi-Dirac smearing, width (Ry)=  0.0073
                       cart. coord. in units 2pi/alat
        k(    1) = (   0.0000000   0.0000000   0.0000000), wk =   0.1250000
        k(    2) = (   0.0000000   0.0419351   0.0000000), wk =   0.2500000
        k(    3) = (   0.0000000  -0.0838702   0.0000000), wk =   0.1250000
        k(    4) = (   0.0379955   0.0000049   0.0000000), wk =   0.2500000
        k(    5) = (   0.0379955   0.0419400   0.0000000), wk =   0.2500000
        k(    6) = (   0.0379955  -0.0838652   0.0000000), wk =   0.2500000
        k(    7) = (   0.0379955  -0.0419301   0.0000000), wk =   0.2500000
        k(    8) = (  -0.0759910  -0.0000099   0.0000000), wk =   0.1250000
        k(    9) = (  -0.0759910   0.0419252   0.0000000), wk =   0.2500000
        k(   10) = (  -0.0759910  -0.0838800   0.0000000), wk =   0.1250000

     Initial potential from superposition of free atoms

     starting charge  383.99917, renormalised to  400.00000

     negative rho (up, down):  1.647E-02 0.000E+00

     %%%%%%%%%%%%%%%%%%%%%%%%%%%%%%%%%%%%%%%%%%%%%%%%%%%%%%%%%%%%%%%%%%%%%%%%
     %                                                                      %
     % You are using vdW-DF, which was implemented by the Thonhauser group. %
     % Please cite the following two papers that made this development      %
     % possible and the two reviews that describe the various versions:     %
     %                                                                      %
     %   T. Thonhauser et al., PRL 115, 136402 (2015).                      %
     %   T. Thonhauser et al., PRB 76, 125112 (2007).                       %
     %   K. Berland et al., Rep. Prog. Phys. 78, 066501 (2015).             %
     %   D.C. Langreth et al., J. Phys.: Condens. Matter 21, 084203 (2009). %
     %                                                                      %
     %                                                                      %
     % If you are calculating the stress with vdW-DF, please also cite:     %
     %                                                                      %
     %   R. Sabatini et al., J. Phys.: Condens. Matter 24, 424209 (2012).   %
     %                                                                      %
     %%%%%%%%%%%%%%%%%%%%%%%%%%%%%%%%%%%%%%%%%%%%%%%%%%%%%%%%%%%%%%%%%%%%%%%%

     Adding external electric field

     Computed dipole along edir(3) :
        Dipole              -12.5100 Ry au,        -31.7972 Debye
        Dipole field         -0.0236 Ry au,

        Potential amp.        2.1884 Ry
        Total length         46.3494 bohr

     Starting wfcs are  302 atomic wfcs
  @ DRIVER MODE: Message from server: STATUS
  @ DRIVER MODE: Message from server: POSDATA
  @ DRIVER MODE: Reading and sharing cell
  @ DRIVER MODE: Reading and sharing positions
  @ DRIVER MODE: Received positions

     Self-consistent Calculation

     iteration #  1     ecut=    29.40 Ry     beta= 0.05
     Davidson diagonalization with overlap
     c_bands:  3 eigenvalues not converged
     c_bands:  1 eigenvalues not converged
     c_bands:  4 eigenvalues not converged
     c_bands:  3 eigenvalues not converged
     c_bands:  5 eigenvalues not converged
     c_bands:  5 eigenvalues not converged
     c_bands:  1 eigenvalues not converged
     c_bands:  2 eigenvalues not converged
     c_bands:  1 eigenvalues not converged
     ethr =  1.00E-05,  avg # of iterations = 20.9

[...]

     total energy              =   -2397.17279397 Ry
     estimated scf accuracy    <    6493.60421446 Ry

     iteration #  2     ecut=    29.40 Ry     beta= 0.05
     Davidson diagonalization with overlap
     ethr =  1.00E-02,  avg # of iterations = 23.6

[...]

     iteration # 64     ecut=    29.40 Ry     beta= 0.05
     Davidson diagonalization with overlap
     c_bands:  1 eigenvalues not converged
     ethr =  4.83E-11,  avg # of iterations = 13.5

[...]

     total energy              =   -2970.16535447 Ry
     estimated scf accuracy    <       0.00000009 Ry

     iteration # 67     ecut=    29.40 Ry     beta= 0.05
     Davidson diagonalization with overlap
     ethr =  2.36E-11,  avg # of iterations =  5.4

     negative rho (up, down):  1.634E-02 0.000E+00

     Adding external electric field

     Computed dipole along edir(3) :
        Dipole                0.8024 Ry au,          2.0394 Debye
        Dipole field          0.0015 Ry au,

        Potential amp.       -0.1404 Ry
        Total length         46.3494 bohr

     End of self-consistent calculation

          k = 0.0000 0.0000 0.0000 ( 18029 PWs)   bands (ev):

   -55.5785 -55.5480 -55.5425 -55.5136 -55.4748 -55.4682 -55.4536 -55.4219
   -55.4164 -55.4003 -55.3822 -55.3745 -55.3614 -55.3276 -54.6412 -54.6071
   -32.1486 -32.0775 -32.0434 -31.9521 -31.8978 -31.8919 -31.8886 -31.8710
   -31.8363 -31.8268 -31.7906 -31.7896 -31.7825 -31.7610 -31.7543 -31.7321
   -31.7285 -31.7135 -31.7046 -31.7020 -31.6985 -31.6935 -31.6731 -31.6642
   -31.6635 -31.6450 -31.6438 -31.6145 -31.6071 -31.6052 -31.5898 -31.5674
   -31.5671 -31.5654 -31.5568 -31.5459 -31.5423 -31.5153 -31.5056 -31.4967
   -31.4826 -31.4721 -31.0535 -30.9504 -30.9288 -30.8697 -30.7834 -30.6723
   -20.9969 -20.2149 -16.4027 -16.1465 -15.9985 -15.8998 -15.7959 -15.6592
   -15.6233 -15.5170 -15.3874 -15.3042 -15.2458 -15.2383 -15.2250 -15.2114
   -15.1960 -15.1933 -15.1356 -15.1059 -15.0807 -15.0669 -15.0587 -15.0235
   -14.9681 -14.9613 -14.9427 -14.8072 -14.7397 -14.6801 -14.3710 -14.2051
   -13.1417 -13.0222  -8.5242  -6.7742  -5.6331  -4.4385  -3.9953  -3.7372
    -3.6674  -3.5859  -3.5114  -3.4926  -3.4250  -3.3224  -3.1702  -3.0078
    -2.9224  -2.8614  -2.8333  -2.7832  -2.7438  -2.7074  -2.5379  -2.5253
    -2.4925  -2.4701  -2.4513  -2.4465  -2.4114  -2.3461  -2.3249  -2.3175
    -2.2904  -2.1602  -2.1409  -2.0470  -2.0036  -1.9753  -1.9166  -1.9023
    -1.8974  -1.8663  -1.8463  -1.8325  -1.8280  -1.7870  -1.6051  -1.6019
    -1.4833  -1.4401  -1.3594  -1.3047  -1.1381  -1.1354  -1.0772  -1.0623
    -1.0237  -0.9837  -0.9760  -0.9366  -0.8212  -0.7339  -0.6868  -0.6165
    -0.5787  -0.5130  -0.4756  -0.3754  -0.3665  -0.3498  -0.3354  -0.2139
    -0.1490  -0.1063  -0.0767  -0.0321  -0.0192   0.0812   0.1005   0.1809
     0.1868   0.2457   0.2460   0.3499   0.3684   0.3690   0.3945   0.4158
     0.5014   0.5760   0.5774   0.5930   0.7629   0.9562   0.9795   1.0239
     1.2722   1.3749   1.3850   1.5439   1.5509   1.9718   2.0273   3.5174
     3.5856   3.6248   3.6421   3.6581   3.7244   3.9747   4.0069   4.0252
     4.0417   4.0487

[...]

          k = 0.0380-0.0419 0.0000 ( 17876 PWs)   bands (ev):

[...]

          k =-0.0760-0.0000 0.0000 ( 17886 PWs)   bands (ev):

[...]

          k =-0.0760-0.0839 0.0000 ( 17948 PWs)   bands (ev):

   -55.5609 -55.5599 -55.5328 -55.5287 -55.4714 -55.4606 -55.4470 -55.4294
   -55.4072 -55.4003 -55.3980 -55.3774 -55.3455 -55.3436 -54.6241 -54.6240
   -31.9986 -31.9523 -31.9509 -31.8709 -31.8603 -31.8564 -31.8377 -31.8256
   -31.8178 -31.7976 -31.7811 -31.7790 -31.7741 -31.7344 -31.7299 -31.7201
   -31.7169 -31.7158 -31.7064 -31.7011 -31.7001 -31.6993 -31.6863 -31.6645
   -31.6616 -31.6607 -31.6583 -31.6555 -31.6516 -31.6492 -31.6470 -31.6214
   -31.6186 -31.6078 -31.5985 -31.5982 -31.5848 -31.5707 -31.5692 -31.5581
   -31.5317 -31.5289 -30.9414 -30.9413 -30.8662 -30.8660 -30.8266 -30.8265
   -20.9945 -20.2147 -15.9547 -15.8185 -15.7587 -15.5825 -15.5744 -15.5660
   -15.5416 -15.4012 -15.3877 -15.3751 -15.3383 -15.3283 -15.3100 -15.2987
   -15.2849 -15.1711 -15.1691 -15.1602 -15.1575 -15.0960 -15.0928 -15.0780
   -15.0616 -15.0217 -15.0211 -15.0081 -15.0042 -14.8361 -14.7331 -14.2126
   -13.1235 -13.1228  -8.5138  -6.7759  -5.6411  -4.4182  -3.9682  -3.5595
    -3.0963  -3.0516  -3.0207  -2.7962  -2.7803  -2.7417  -2.7068  -2.6484
    -2.5741  -2.5630  -2.5605  -2.4901  -2.4851  -2.4734  -2.4674  -2.4528
    -2.4025  -2.4018  -2.3646  -2.3557  -2.3132  -2.2864  -2.2752  -2.2476
    -2.2404  -2.2401  -2.2176  -2.2016  -2.1876  -2.1809  -2.0697  -2.0190
    -1.9363  -1.9076  -1.8168  -1.8046  -1.7897  -1.7123  -1.6766  -1.6539
    -1.5910  -1.5862  -1.5158  -1.3927  -1.3762  -1.3688  -1.2954  -1.2328
    -1.2074  -1.1654  -1.1144  -1.0574  -1.0434  -0.9571  -0.9060  -0.8864
    -0.7802  -0.7690  -0.7157  -0.6078  -0.5743  -0.5726  -0.5672  -0.5539
    -0.4795  -0.4617  -0.4126  -0.3723  -0.3233  -0.2986  -0.2776  -0.0765
    -0.0642   0.0067   0.1077   0.1497   0.3205   0.3407   0.3721   0.4452
     0.4903   0.5007   0.5843   0.6933   0.7005   0.7384   0.8090   0.8476
     0.8559   0.8949   1.5026   1.7367   1.7374   1.8409   1.8440   3.6695
     3.7564   3.7709   3.7968   3.8491   3.9417   4.0259   4.0436   4.0701
     4.0786   4.1576

     the Fermi energy is     3.5732 ev

!    total energy              =   -2970.16537704 Ry
     estimated scf accuracy    <       0.00000006 Ry
     smearing contrib. (-TS)   =      -0.03783783 Ry
     internal energy E=F+TS    =   -2970.12753921 Ry

     The total energy is F=E-TS. E is the sum of the following terms:
     one-electron contribution =  -23545.98030293 Ry
     hartree contribution      =   11864.62688667 Ry
     xc contribution           =    -491.68810901 Ry
     ewald contribution        =    9202.91277114 Ry
     electric field correction =       0.00121493 Ry

     convergence has been achieved in  67 iterations

     Forces acting on atoms (cartesian axes, Ry/au):

     atom    1 type  1   force =    -0.00123561   -0.00217752    0.00175600
     atom    2 type  2   force =     0.00072205   -0.00018146    0.00035533
     atom    3 type  2   force =     0.00030885    0.00001638   -0.00028480
     atom    4 type  3   force =     0.00006065   -0.00000160    0.10503033
     atom    5 type  3   force =     0.00004342    0.00002260    0.10502644
     atom    6 type  3   force =    -0.06778155   -0.00001573   -0.02684491
     atom    7 type  3   force =    -0.06781150   -0.00059700   -0.02687837
     atom    8 type  3   force =     0.06765528    0.00043171   -0.02690435
     atom    9 type  3   force =     0.06768515   -0.00016074   -0.02694010
     atom   10 type  3   force =     0.00072152    0.00002217    0.05052170
     atom   11 type  3   force =     0.00077395    0.00001197    0.05059403
     atom   12 type  3   force =     0.00061191   -0.00003395   -0.02309534
     atom   13 type  3   force =     0.00057322   -0.00016802   -0.02183043
     atom   14 type  3   force =    -0.01559067   -0.00018368    0.00501128
     atom   15 type  3   force =    -0.01566032    0.00008615    0.00497976
     atom   16 type  3   force =     0.01436320    0.00025687    0.00478961
     atom   17 type  3   force =     0.01443871    0.00059332    0.00479919
     atom   18 type  3   force =    -0.00007242    0.00000593   -0.00009557
     atom   19 type  3   force =    -0.00013496   -0.00000758   -0.00022069
     atom   20 type  3   force =    -0.00012213    0.00007706   -0.00007939
     atom   21 type  3   force =     0.00004480   -0.00011964    0.00011049
     atom   22 type  3   force =     0.00026108    0.00026016    0.00000051
     atom   23 type  3   force =     0.00001220    0.00004520    0.00004367
     atom   24 type  3   force =    -0.00017356    0.00012738    0.00017708
     atom   25 type  3   force =     0.00007395   -0.00012389    0.00007162
     atom   26 type  3   force =     0.00023005   -0.00013707   -0.00005911
     atom   27 type  3   force =    -0.00009087    0.00017463   -0.00021068
     atom   28 type  3   force =    -0.00007937    0.00023854   -0.00015328
     atom   29 type  3   force =     0.00032362   -0.00001408    0.00004678
     atom   30 type  3   force =     0.00009643   -0.00013039   -0.00043755
     atom   31 type  3   force =     0.00005953   -0.00005314   -0.00025683
     atom   32 type  3   force =     0.00014263   -0.00024942   -0.00013588
     atom   33 type  3   force =     0.00012322   -0.00007098   -0.00034808
     atom   34 type  3   force =     0.00009497   -0.00007542   -0.00057606
     atom   35 type  3   force =    -0.00049324    0.00033874   -0.00143146
     atom   36 type  4   force =    -0.00021125    0.00013277    0.09297119
     atom   37 type  4   force =    -0.00016215   -0.00012635    0.09678569
     atom   38 type  4   force =    -0.00010263    0.00037395   -0.18354730
     atom   39 type  4   force =    -0.00005685   -0.00058045   -0.18366979
     atom   40 type  4   force =     0.00000700    0.00003739    0.00019151
     atom   41 type  4   force =     0.00017733   -0.00001671    0.00010178
     atom   42 type  4   force =    -0.00036816    0.00012217   -0.00011291
     atom   43 type  4   force =    -0.00022624    0.00030394    0.00015624
     atom   44 type  4   force =     0.00018701    0.00014432    0.00038703
     atom   45 type  4   force =    -0.00007748    0.00001679    0.00028045
     atom   46 type  4   force =    -0.00010663    0.00010168    0.00027309
     atom   47 type  4   force =    -0.00008256   -0.00013551   -0.00007485
     atom   48 type  4   force =    -0.00003031   -0.00031620    0.00012958
     atom   49 type  4   force =    -0.00007971    0.00007945    0.00041888
     atom   50 type  4   force =    -0.00006940   -0.00016721    0.00017967
     atom   51 type  4   force =     0.00009648   -0.00054192    0.00018295
     atom   52 type  5   force =     0.01118270    0.02654707   -0.01161963
     atom   53 type  5   force =    -0.01025136   -0.02418268    0.01043551

     Total force =     0.371006     Total SCF correction =     0.000458
  @ DRIVER MODE: Message from server: STATUS
  @ DRIVER MODE: Message from server: GETFORCE
  @ DRIVER MODE: Returning v,forces,stress,ensemble

     Writing output data file ./calc.save/
  @ DRIVER MODE: Message from server: EXIT
  @ DRIVE MODE: Exiting

     General routines

     Parallel routines

   This run was terminated on:  23:11: 2  14Sep2021

   JOB DONE.