     Program PWSCF v.6.7GPU starts on 23Sep2021 at 21:26:51

     R & G space division:  proc/nbgrp/npool/nimage =       8
     Reading input from /storage/home/hcoda1/3/ntian30/research/carbon/CxH_vib/H2O_calc/ads_slab/CH3NHHHO_a/out_0026/pw.inp
Warning: card &CELL ignored
Warning: card   CELL_DYNAMICS='IPI', ignored
Warning: card / ignored

     Current dimensions of program PWSCF are:
     Max number of different atomic species (ntypx) = 10
     Max number of k-points (npk) =  40000
     Max angular momentum in pseudopotentials (lmaxx) =  3
     Presently no symmetry can be used with electric field

     Message from routine cell_base_init:
     DEPRECATED: use true lattice parameter, not A to a.u. conversion factor

     IMPORTANT: XC functional enforced from input :
     Exchange-correlation= BEEF-VDW
                           (   1   4  43  14   2   0   0)
     Any further DFT definition will be discarded
     Please, verify this is what you really want

  @ DRIVER MODE: Connecting to
 qe_1139763_2947311.sched-torque.pace.gatech.eduxly8ztvm_scratch
  using UNIX socket
  @ DRIVER MODE: Message from server: STATUS
  @ DRIVER MODE: Message from server: INIT
  @ DRIVER MODE: Receiving replica           0          -1
  @ DRIVER MODE: Receiving encoded integer          25
  @ DRIVER MODE:  SCF:  T  FORCE:  T  STRESS:  F  VC:  F  ENSEMBLE:  F
  @ DRIVER MODE:  SCF:  T  FORCE:  T  STRESS:  F  VC:  F  ENSEMBLE:  F

     Using Slab Decomposition

     bravais-lattice index     =            0
     lattice parameter (alat)  =       1.8897  a.u.
     unit-cell volume          =    6658.9804 (a.u.)^3
     number of atoms/cell      =           56
     number of atomic types    =            5
     number of electrons       =       399.00
     number of Kohn-Sham states=          209
     kinetic-energy cutoff     =      29.3995  Ry
     charge density cutoff     =     293.9946  Ry
     scf convergence threshold =      7.3E-08
     mixing beta               =       0.0500
     number of iterations used =            8  plain     mixing
     Exchange-correlation= BEEF-VDW
                           (   1   4  43  14   2   0   0)

     celldm(1)=   1.889726  celldm(2)=   0.000000  celldm(3)=   0.000000
     celldm(4)=   0.000000  celldm(5)=   0.000000  celldm(6)=   0.000000

     crystal axes: (cart. coord. in units of alat)
               a(1) = (   6.579727   0.000000   0.000000 )
               a(2) = (  -0.000775   5.961596   0.000000 )
               a(3) = (   0.000000   0.000000  25.155947 )

     reciprocal axes: (cart. coord. in units 2 pi/alat)
               b(1) = (  0.151982  0.000020  0.000000 )
               b(2) = (  0.000000  0.167740  0.000000 )
               b(3) = (  0.000000  0.000000  0.039752 )

     PseudoPot. # 1 for Ti read from file:
     /storage/coda1/p-amedford6/0/shared/rich_project_chbe-medford/medford-share/data/pseudos_module/espresso/nninc/pbe/van/Ti.UPF
     MD5 check sum: 8e4df49b7f0d34bbd5052bf3f5ea0213
     Pseudo is Ultrasoft, Zval = 12.0
     Generated by new atomic code, or converted to UPF format
     Using radial grid of  851 points,  6 beta functions with:
                l(1) =   0
                l(2) =   0
                l(3) =   1
                l(4) =   1
                l(5) =   2
                l(6) =   2
     Q(r) pseudized with  8 coefficients,  rinner =    1.000   1.000   1.000
                                                       1.000   1.000

     PseudoPot. # 2 for O  read from file:
     /storage/coda1/p-amedford6/0/shared/rich_project_chbe-medford/medford-share/data/pseudos_module/espresso/nninc/pbe/van/O.UPF
     MD5 check sum: 78c19812648e8988a0fe644b0f25305e
     Pseudo is Ultrasoft, Zval =  6.0
     Generated by new atomic code, or converted to UPF format
     Using radial grid of  737 points,  4 beta functions with:
                l(1) =   0
                l(2) =   0
                l(3) =   1
                l(4) =   1
     Q(r) pseudized with  8 coefficients,  rinner =    0.800   0.800   0.800

     PseudoPot. # 3 for N  read from file:
     /storage/coda1/p-amedford6/0/shared/rich_project_chbe-medford/medford-share/data/pseudos_module/espresso/nninc/pbe/van/N.UPF
     MD5 check sum: 90d10febe142ad51ac9d5be1deb811c4
     Pseudo is Ultrasoft, Zval =  5.0
     Generated by new atomic code, or converted to UPF format
     Using radial grid of  729 points,  4 beta functions with:
                l(1) =   0
                l(2) =   0
                l(3) =   1
                l(4) =   1
     Q(r) pseudized with  8 coefficients,  rinner =    0.800   0.800   0.800

     PseudoPot. # 4 for C  read from file:
     /storage/coda1/p-amedford6/0/shared/rich_project_chbe-medford/medford-share/data/pseudos_module/espresso/nninc/pbe/van/C.UPF
     MD5 check sum: 1a69bf6b8db32088f5b2163dbdb77a27
     Pseudo is Ultrasoft, Zval =  4.0
     Generated by new atomic code, or converted to UPF format
     Using radial grid of  721 points,  4 beta functions with:
                l(1) =   0
                l(2) =   0
                l(3) =   1
                l(4) =   1
     Q(r) pseudized with  8 coefficients,  rinner =    0.800   0.800   0.800

     PseudoPot. # 5 for H  read from file:
     /storage/coda1/p-amedford6/0/shared/rich_project_chbe-medford/medford-share/data/pseudos_module/espresso/nninc/pbe/van/H.UPF
     MD5 check sum: b5ee9d7bfd3a09ee7748110bda690ff7
     Pseudo is Ultrasoft, Zval =  1.0
     Generated by new atomic code, or converted to UPF format
     Using radial grid of  615 points,  1 beta functions with:
                l(1) =   0
     Q(r) pseudized with  8 coefficients,  rinner =    0.800

     atomic species   valence    mass     pseudopotential
        Ti1           12.00    47.86700     Ti( 1.00)
        O1             6.00    15.99900     O ( 1.00)
        N1             5.00    14.00700     N ( 1.00)
        C1             4.00    12.01100     C ( 1.00)
        H1             1.00     1.00800     H ( 1.00)

     No symmetry found

   Cartesian axes

     site n.     atom                  positions (alat units)
         1           Ti1 tau(   1) = (   0.0004258   2.9801865   6.0000000  )
         2           Ti1 tau(   2) = (   3.2906075   1.4906267   6.0002472  )
         3           O1  tau(   3) = (   0.0006271   0.0005054   7.9858123  )
         4           O1  tau(   4) = (   3.2906025   0.0005020   7.3038282  )
         5           O1  tau(   5) = (   4.5942328   1.4918067   9.2879030  )
         6           O1  tau(   6) = (   1.9868534   1.4903216   9.2879459  )
         7           Ti1 tau(   7) = (   3.2907910   2.8959150   9.1758416  )
         8           Ti1 tau(   8) = (   0.0015273   1.4827037   9.2680791  )
         9           O1  tau(   9) = (   3.2949530   5.9481847  11.3666340  )
        10           O1  tau(  10) = (   0.0116148   5.9584955  10.6183126  )
        11           O1  tau(  11) = (   1.2732546   1.4916747  12.6876809  )
        12           O1  tau(  12) = (   5.3119445   1.4892451  12.6851550  )
        13           Ti1 tau(  13) = (   6.5688325   2.9465269  12.5174317  )
        14           Ti1 tau(  14) = (   3.2996026   1.2975375  12.7241829  )
        15           O1  tau(  15) = (   0.0172205   5.8793003  14.6619373  )
        16           O1  tau(  16) = (   3.2917661   0.0702926  14.0149596  )
        17           O1  tau(  17) = (   4.5643074   1.5920826  16.1346482  )
        18           O1  tau(  18) = (   2.0131957   1.5841813  16.0575481  )
        19           Ti1 tau(  19) = (   3.2662748   3.0407108  15.6947786  )
        20           Ti1 tau(  20) = (   0.0618610   1.3206105  15.7998127  )
        21           O1  tau(  21) = (   3.2904802   0.0005063   4.7018136  )
        22           O1  tau(  22) = (   0.0233933   0.1570098  17.1842078  )
        23           O1  tau(  23) = (   1.3043587   1.4918075   6.0039043  )
        24           O1  tau(  24) = (   5.2767064   1.4903225   6.0039473  )
        25           Ti1 tau(  25) = (   0.0000382   5.9609847   6.0000000  )
        26           Ti1 tau(  26) = (   3.2902200   4.4714249   6.0002472  )
        27           O1  tau(  27) = (   0.0002396   2.9813036   7.9858123  )
        28           O1  tau(  28) = (   3.2902150   2.9813002   7.3038282  )
        29           O1  tau(  29) = (   4.5938453   4.4726049   9.2879030  )
        30           O1  tau(  30) = (   1.9864658   4.4711199   9.2879459  )
        31           Ti1 tau(  31) = (   3.2891106   5.8743827   9.1763621  )
        32           Ti1 tau(  32) = (   0.0006254   4.4649316   9.2693709  )
        33           O1  tau(  33) = (   3.2948289   2.9949798  11.3176834  )
        34           O1  tau(  34) = (   0.0092240   2.9805883  10.6323155  )
        35           O1  tau(  35) = (   1.2828652   4.4571597  12.6432593  )
        36           O1  tau(  36) = (   5.3079144   4.4605214  12.6419564  )
        37           Ti1 tau(  37) = (   0.0266940   5.9154698  12.5044250  )
        38           Ti1 tau(  38) = (   3.3008436   4.3760658  12.4353554  )
        39           O1  tau(  39) = (   6.5507285   3.0461080  14.9005035  )
        40           O1  tau(  40) = (   3.2938476   3.0131494  13.9233183  )
        41           O1  tau(  41) = (   4.5350990   4.4864192  16.1518712  )
        42           O1  tau(  42) = (   1.9883536   4.4285065  16.1690201  )
        43           Ti1 tau(  43) = (   3.3916644   0.0784854  16.2809578  )
        44           Ti1 tau(  44) = (   0.0590441   4.5159846  16.0209683  )
        45           O1  tau(  45) = (   3.2900926   2.9813045   4.7018136  )
        46           O1  tau(  46) = (   1.3039711   4.4726057   6.0039043  )
        47           O1  tau(  47) = (   5.2763189   4.4711207   6.0039473  )
        48           N1  tau(  48) = (   6.2706434   3.3837210  18.0754458  )
        49           C1  tau(  49) = (   0.7642246   3.1223808  19.0622891  )
        50           H1  tau(  50) = (   1.3158356   4.0410886  19.2409436  )
        51           H1  tau(  51) = (   0.3597117   2.7583523  20.0089400  )
        52           H1  tau(  52) = (   1.4617744   2.3810259  18.6668870  )
        53           H1  tau(  53) = (   5.6745199   4.1349376  18.4206214  )
        54           H1  tau(  54) = (   5.6587021   2.5696541  18.0151127  )
        55           O1  tau(  55) = (   3.1972372   0.0910451  18.1323504  )
        56           H1  tau(  56) = (   2.2767176   0.1080423  18.4377142  )

     number of k points=    10  Fermi-Dirac smearing, width (Ry)=  0.0073
                       cart. coord. in units 2pi/alat
        k(    1) = (   0.0000000   0.0000000   0.0000000), wk =   0.1250000
        k(    2) = (   0.0000000   0.0419351   0.0000000), wk =   0.2500000
        k(    3) = (   0.0000000  -0.0838702   0.0000000), wk =   0.1250000
        k(    4) = (   0.0379955   0.0000049   0.0000000), wk =   0.2500000
        k(    5) = (   0.0379955   0.0419400   0.0000000), wk =   0.2500000
        k(    6) = (   0.0379955  -0.0838652   0.0000000), wk =   0.2500000
        k(    7) = (   0.0379955  -0.0419301   0.0000000), wk =   0.2500000
        k(    8) = (  -0.0759910  -0.0000099   0.0000000), wk =   0.1250000
        k(    9) = (  -0.0759910   0.0419252   0.0000000), wk =   0.2500000
        k(   10) = (  -0.0759910  -0.0838800   0.0000000), wk =   0.1250000

     Initial potential from superposition of free atoms

     starting charge  382.99914, renormalised to  399.00000

     negative rho (up, down):  1.588E-02 0.000E+00

     %%%%%%%%%%%%%%%%%%%%%%%%%%%%%%%%%%%%%%%%%%%%%%%%%%%%%%%%%%%%%%%%%%%%%%%%
     %                                                                      %
     % You are using vdW-DF, which was implemented by the Thonhauser group. %
     % Please cite the following two papers that made this development      %
     % possible and the two reviews that describe the various versions:     %
     %                                                                      %
     %   T. Thonhauser et al., PRL 115, 136402 (2015).                      %
     %   T. Thonhauser et al., PRB 76, 125112 (2007).                       %
     %   K. Berland et al., Rep. Prog. Phys. 78, 066501 (2015).             %
     %   D.C. Langreth et al., J. Phys.: Condens. Matter 21, 084203 (2009). %
     %                                                                      %
     %                                                                      %
     % If you are calculating the stress with vdW-DF, please also cite:     %
     %                                                                      %
     %   R. Sabatini et al., J. Phys.: Condens. Matter 24, 424209 (2012).   %
     %                                                                      %
     %%%%%%%%%%%%%%%%%%%%%%%%%%%%%%%%%%%%%%%%%%%%%%%%%%%%%%%%%%%%%%%%%%%%%%%%

     Adding external electric field

     Computed dipole along edir(3) :
        Dipole              -10.6962 Ry au,        -27.1870 Debye
        Dipole field         -0.0202 Ry au,

        Potential amp.        1.8711 Ry
        Total length         46.3494 bohr

     Starting wfcs are  302 atomic wfcs
  @ DRIVER MODE: Message from server: STATUS
  @ DRIVER MODE: Message from server: POSDATA
  @ DRIVER MODE: Reading and sharing cell
  @ DRIVER MODE: Reading and sharing positions
  @ DRIVER MODE: Received positions

     Self-consistent Calculation

     iteration #  1     ecut=    29.40 Ry     beta= 0.05
     Davidson diagonalization with overlap
     c_bands:  3 eigenvalues not converged
     c_bands:  2 eigenvalues not converged
     c_bands:  2 eigenvalues not converged
     c_bands:  5 eigenvalues not converged
     c_bands:  2 eigenvalues not converged
     c_bands:  5 eigenvalues not converged
     c_bands:  4 eigenvalues not converged
     c_bands:  3 eigenvalues not converged
     ethr =  1.00E-05,  avg # of iterations = 21.6

[...]

     total energy              =   -2438.26322130 Ry
     estimated scf accuracy    <    5770.45223255 Ry

     iteration #  2     ecut=    29.40 Ry     beta= 0.05
     Davidson diagonalization with overlap
     ethr =  1.00E-02,  avg # of iterations = 23.0

[...]

     iteration # 53     ecut=    29.40 Ry     beta= 0.05
     Davidson diagonalization with overlap
     c_bands:  1 eigenvalues not converged
     ethr =  2.05E-07,  avg # of iterations = 14.0

[...]

     total energy              =   -2955.26288770 Ry
     estimated scf accuracy    <       0.00000008 Ry

     iteration # 74     ecut=    29.40 Ry     beta= 0.05
     Davidson diagonalization with overlap
     ethr =  1.91E-11,  avg # of iterations = 10.3

     negative rho (up, down):  1.647E-02 0.000E+00

     Adding external electric field

     Computed dipole along edir(3) :
        Dipole                0.9740 Ry au,          2.4756 Debye
        Dipole field          0.0018 Ry au,

        Potential amp.       -0.1704 Ry
        Total length         46.3494 bohr

     End of self-consistent calculation

          k = 0.0000 0.0000 0.0000 ( 18029 PWs)   bands (ev):

   -55.6831 -55.6368 -55.6027 -55.5122 -55.5021 -55.4664 -55.4658 -55.4638
   -55.4317 -55.4183 -55.3676 -55.2726 -55.2264 -55.2125 -54.6126 -54.5786
   -32.1222 -32.0199 -32.0118 -31.9882 -31.9686 -31.9565 -31.9275 -31.9015
   -31.8944 -31.8828 -31.8827 -31.7899 -31.7895 -31.7744 -31.7491 -31.7453
   -31.7441 -31.7427 -31.7420 -31.7057 -31.6943 -31.6648 -31.6619 -31.6559
   -31.6502 -31.6442 -31.6362 -31.6059 -31.6036 -31.5982 -31.5929 -31.5896
   -31.5787 -31.5635 -31.5490 -31.5237 -31.4640 -31.4554 -31.4455 -31.4221
   -31.4191 -31.4144 -31.0187 -30.9322 -30.9098 -30.8362 -30.7498 -30.6380
   -16.5119 -16.2964 -16.1497 -15.9788 -15.8393 -15.8103 -15.7693 -15.5990
   -15.5063 -15.4425 -15.2422 -15.2213 -15.1755 -15.1641 -15.1588 -15.1360
   -15.1263 -15.0813 -15.0628 -15.0594 -15.0495 -15.0319 -14.9955 -14.9532
   -14.9100 -14.8890 -14.7765 -14.7201 -14.6795 -14.4684 -14.3998 -13.1109
   -12.9945  -9.9762  -6.0136  -4.5885  -4.0636  -3.7673  -3.6447  -3.5469
    -3.5355  -3.4162  -3.4065  -3.1658  -3.0421  -2.9829  -2.9048  -2.7822
    -2.7498  -2.6733  -2.6300  -2.5862  -2.5685  -2.5304  -2.4895  -2.4484
    -2.4232  -2.3952  -2.3615  -2.3059  -2.2945  -2.1961  -2.1819  -2.1589
    -2.0535  -2.0125  -1.9724  -1.9543  -1.9494  -1.9302  -1.8915  -1.8852
    -1.8655  -1.7874  -1.7184  -1.6721  -1.6374  -1.6095  -1.3319  -1.2465
    -1.2028  -1.1881  -1.0843  -1.0606  -1.0324  -1.0185  -0.9818  -0.9657
    -0.8535  -0.8375  -0.7687  -0.7188  -0.7047  -0.6669  -0.5480  -0.5112
    -0.4605  -0.4205  -0.3702  -0.3527  -0.3479  -0.2532  -0.2266  -0.1916
    -0.0834  -0.0666  -0.0040   0.0811   0.0908   0.1422   0.1660   0.2260
     0.2304   0.2851   0.3148   0.3370   0.3904   0.4228   0.4592   0.4921
     0.5093   0.6116   0.6868   0.6996   0.7964   0.8713   0.9248   1.0288
     1.0965   1.3605   1.4141   1.4377   1.6061   1.9813   2.0267   3.4449
     3.5940   3.6095   3.6841   3.6967   3.7739   3.9345   3.9594   4.0943
     4.1339

[...]

          k = 0.0380-0.0419 0.0000 ( 17876 PWs)   bands (ev):

[...]

          k =-0.0760-0.0000 0.0000 ( 17886 PWs)   bands (ev):

[...]

          k =-0.0760-0.0839 0.0000 ( 17948 PWs)   bands (ev):

   -55.6821 -55.6198 -55.6195 -55.5109 -55.4909 -55.4749 -55.4673 -55.4493
   -55.4477 -55.4119 -55.3740 -55.2678 -55.2275 -55.2172 -54.5960 -54.5950
   -31.9529 -31.9450 -31.9376 -31.9374 -31.9301 -31.9132 -31.9128 -31.8968
   -31.8523 -31.8110 -31.7930 -31.7802 -31.7761 -31.7745 -31.7528 -31.7431
   -31.7398 -31.7393 -31.7287 -31.7249 -31.7173 -31.7164 -31.7017 -31.6778
   -31.6717 -31.6671 -31.6578 -31.6474 -31.6321 -31.6312 -31.6291 -31.6236
   -31.6220 -31.5967 -31.5962 -31.5552 -31.5306 -31.4950 -31.4683 -31.4635
   -31.4478 -31.4185 -30.9229 -30.9221 -30.8322 -30.8309 -30.7934 -30.7926
   -16.4819 -15.9388 -15.8576 -15.7447 -15.6217 -15.6083 -15.4973 -15.4143
   -15.4108 -15.3803 -15.3495 -15.3217 -15.3123 -15.2953 -15.2483 -15.2048
   -15.1696 -15.1418 -15.1398 -15.0940 -15.0869 -15.0755 -15.0629 -15.0406
   -15.0068 -14.9571 -14.9427 -14.9039 -14.7661 -14.6896 -14.5907 -13.0966
   -13.0961  -9.9783  -5.9934  -4.5859  -4.0271  -3.7266  -3.0562  -2.9600
    -2.8480  -2.7219  -2.7114  -2.6910  -2.6425  -2.6109  -2.5853  -2.5441
    -2.4870  -2.4645  -2.4466  -2.4302  -2.4080  -2.3905  -2.3817  -2.3765
    -2.3400  -2.3223  -2.3140  -2.2729  -2.2653  -2.2482  -2.2286  -2.2114
    -2.1806  -2.1761  -2.1470  -2.0953  -2.0462  -1.9722  -1.8792  -1.7979
    -1.7869  -1.7684  -1.7189  -1.7123  -1.6668  -1.6589  -1.6342  -1.5478
    -1.4366  -1.3860  -1.2755  -1.2556  -1.2288  -1.1892  -1.1363  -1.1221
    -1.0766  -1.0462  -0.9863  -0.8853  -0.8552  -0.8001  -0.6867  -0.6491
    -0.6106  -0.5906  -0.5785  -0.5535  -0.5368  -0.4971  -0.4690  -0.4211
    -0.3813  -0.3472  -0.3204  -0.2949  -0.2487  -0.1463  -0.0520  -0.0147
     0.0867   0.1331   0.1752   0.2070   0.2690   0.4036   0.4305   0.5265
     0.5412   0.5702   0.6719   0.6820   0.7830   0.8073   0.8454   0.8864
     0.9111   0.9322   0.9519   1.7757   1.7843   1.8471   1.8472   3.7378
     3.9304   3.9455   3.9617   4.0064   4.0136   4.0406   4.0463   4.1128
     4.1237

     the Fermi energy is     3.4838 ev

!    total energy              =   -2955.26290108 Ry
     estimated scf accuracy    <       0.00000004 Ry
     smearing contrib. (-TS)   =      -0.01953036 Ry
     internal energy E=F+TS    =   -2955.24337073 Ry

     The total energy is F=E-TS. E is the sum of the following terms:
     one-electron contribution =  -23741.50917974 Ry
     hartree contribution      =   11962.86458805 Ry
     xc contribution           =    -489.73301529 Ry
     ewald contribution        =    9313.13244606 Ry
     electric field correction =       0.00179020 Ry

     convergence has been achieved in  74 iterations

     Forces acting on atoms (cartesian axes, Ry/au):

     atom    1 type  1   force =     0.00009502   -0.00029183    0.09413706
     atom    2 type  1   force =    -0.00004050    0.00043105   -0.17543469
     atom    3 type  2   force =     0.00003918   -0.00033726   -0.02110107
     atom    4 type  2   force =     0.00002261   -0.00197783    0.05462585
     atom    5 type  2   force =    -0.00673864   -0.00245176    0.00301851
     atom    6 type  2   force =     0.00834213   -0.00187518    0.00243886
     atom    7 type  1   force =    -0.00017784   -0.00404295    0.00897075
     atom    8 type  1   force =     0.00031603    0.00082328    0.00312295
     atom    9 type  2   force =    -0.00058214    0.00058392   -0.00018005
     atom   10 type  2   force =    -0.00139211    0.00172931   -0.00927027
     atom   11 type  2   force =     0.00004221   -0.00015753    0.00038380
     atom   12 type  2   force =    -0.00005954   -0.00011274   -0.00029941
     atom   13 type  1   force =    -0.00049093   -0.00025394    0.00004870
     atom   14 type  1   force =     0.00000633   -0.00033567   -0.00006363
     atom   15 type  2   force =    -0.00031274   -0.00004059   -0.00016206
     atom   16 type  2   force =     0.00032327   -0.00054845   -0.00039287
     atom   17 type  2   force =     0.00044450   -0.00014448   -0.00077948
     atom   18 type  2   force =    -0.00045019    0.00014023   -0.00016466
     atom   19 type  1   force =     0.00047061   -0.00062144    0.00066922
     atom   20 type  1   force =     0.00051601    0.00027367    0.00045493
     atom   21 type  2   force =     0.00007450    0.00004733    0.10326240
     atom   22 type  2   force =    -0.00050397    0.00034162    0.00017466
     atom   23 type  2   force =    -0.07191424   -0.00018959   -0.02720678
     atom   24 type  2   force =     0.07184016    0.00025044   -0.02724842
     atom   25 type  1   force =     0.00002519   -0.00024226    0.09380127
     atom   26 type  1   force =    -0.00006463   -0.00132817   -0.17561689
     atom   27 type  2   force =     0.00015537   -0.00011280   -0.01986605
     atom   28 type  2   force =     0.00006932   -0.00032151    0.04990225
     atom   29 type  2   force =    -0.00612924    0.00232192    0.00252538
     atom   30 type  2   force =     0.00762004    0.00268673    0.00197461
     atom   31 type  1   force =     0.00002357    0.00839300   -0.00275061
     atom   32 type  1   force =     0.00011789   -0.00235714    0.00260438
     atom   33 type  2   force =     0.00005023   -0.00001360   -0.00005354
     atom   34 type  2   force =    -0.00211804   -0.00248656   -0.01004146
     atom   35 type  2   force =    -0.00014093   -0.00002044    0.00053701
     atom   36 type  2   force =    -0.00007841    0.00006973   -0.00007267
     atom   37 type  1   force =     0.00016852   -0.00008858   -0.00023712
     atom   38 type  1   force =     0.00005666   -0.00017014    0.00024022
     atom   39 type  2   force =    -0.00013537    0.00009565   -0.00029623
     atom   40 type  2   force =     0.00017038   -0.00025150   -0.00009331
     atom   41 type  2   force =    -0.00035407   -0.00074253    0.00063935
     atom   42 type  2   force =     0.00050360    0.00005180   -0.00019687
     atom   43 type  1   force =    -0.00079254   -0.00060839    0.00025258
     atom   44 type  1   force =     0.00041624    0.00049790   -0.00025977
     atom   45 type  2   force =     0.00006812   -0.00006988    0.10305853
     atom   46 type  2   force =    -0.07192929   -0.00004208   -0.02723609
     atom   47 type  2   force =     0.07189192    0.00039561   -0.02728620
     atom   48 type  3   force =     0.00059067   -0.00040720    0.00013958
     atom   49 type  4   force =     0.00613009   -0.00362032   -0.00176041
     atom   50 type  5   force =     0.00005998    0.00130857    0.00006439
     atom   51 type  5   force =     0.00017884    0.00038562   -0.00006178
     atom   52 type  5   force =    -0.00580850    0.00443330    0.00166127
     atom   53 type  5   force =    -0.00024008    0.00058594   -0.00058415
     atom   54 type  5   force =     0.00033438   -0.00002080   -0.00002169
     atom   55 type  2   force =    -0.00044171    0.00036894    0.00045950
     atom   56 type  5   force =    -0.00026791    0.00006958   -0.00042977

     Total force =     0.362366     Total SCF correction =     0.000494
  @ DRIVER MODE: Message from server: STATUS
  @ DRIVER MODE: Message from server: GETFORCE
  @ DRIVER MODE: Returning v,forces,stress,ensemble

     Writing output data file ./calc.save/
  @ DRIVER MODE: Message from server: EXIT
  @ DRIVE MODE: Exiting

     General routines

     Parallel routines

   This run was terminated on:  21:52:45  23Sep2021

   JOB DONE.