     Program PWSCF v.6.7GPU starts on 24Aug2021 at  1:37:53

     R & G space division:  proc/nbgrp/npool/nimage =       6
     Reading input from /storage/home/hcoda1/3/ntian30/research/carbon/CH2_vib/ads_slab/CH2NHN_a/out_0023/pw.inp
Warning: card &CELL ignored
Warning: card   CELL_DYNAMICS='IPI', ignored
Warning: card / ignored

     Current dimensions of program PWSCF are:
     Max number of different atomic species (ntypx) = 10
     Max number of k-points (npk) =  40000
     Max angular momentum in pseudopotentials (lmaxx) =  3
     Presently no symmetry can be used with electric field

     Message from routine cell_base_init:
     DEPRECATED: use true lattice parameter, not A to a.u. conversion factor

     IMPORTANT: XC functional enforced from input :
     Exchange-correlation= BEEF-VDW
                           (   1   4  43  14   2   0   0)
     Any further DFT definition will be discarded
     Please, verify this is what you really want

  @ DRIVER MODE: Connecting to
 qe_1139763_2632804.sched-torque.pace.gatech.edux57usokd_scratch
  using UNIX socket
  @ DRIVER MODE: Message from server: STATUS
  @ DRIVER MODE: Message from server: INIT
  @ DRIVER MODE: Receiving replica           0          -1
  @ DRIVER MODE: Receiving encoded integer          25
  @ DRIVER MODE:  SCF:  T  FORCE:  T  STRESS:  F  VC:  F  ENSEMBLE:  F
  @ DRIVER MODE:  SCF:  T  FORCE:  T  STRESS:  F  VC:  F  ENSEMBLE:  F

     Using Slab Decomposition

     bravais-lattice index     =            0
     lattice parameter (alat)  =       1.8897  a.u.
     unit-cell volume          =    6658.9804 (a.u.)^3
     number of atoms/cell      =           53
     number of atomic types    =            5
     number of electrons       =       395.00
     number of Kohn-Sham states=          207
     kinetic-energy cutoff     =      29.3995  Ry
     charge density cutoff     =     293.9946  Ry
     scf convergence threshold =      7.3E-08
     mixing beta               =       0.0500
     number of iterations used =            8  plain     mixing
     Exchange-correlation= BEEF-VDW
                           (   1   4  43  14   2   0   0)

     celldm(1)=   1.889726  celldm(2)=   0.000000  celldm(3)=   0.000000
     celldm(4)=   0.000000  celldm(5)=   0.000000  celldm(6)=   0.000000

     crystal axes: (cart. coord. in units of alat)
               a(1) = (   6.579727   0.000000   0.000000 )
               a(2) = (  -0.000775   5.961596   0.000000 )
               a(3) = (   0.000000   0.000000  25.155947 )

     reciprocal axes: (cart. coord. in units 2 pi/alat)
               b(1) = (  0.151982  0.000020  0.000000 )
               b(2) = (  0.000000  0.167740  0.000000 )
               b(3) = (  0.000000  0.000000  0.039752 )

     PseudoPot. # 1 for Ti read from file:
     /storage/coda1/p-amedford6/0/shared/rich_project_chbe-medford/medford-share/data/pseudos_module/espresso/nninc/pbe/van/Ti.UPF
     MD5 check sum: 8e4df49b7f0d34bbd5052bf3f5ea0213
     Pseudo is Ultrasoft, Zval = 12.0
     Generated by new atomic code, or converted to UPF format
     Using radial grid of  851 points,  6 beta functions with:
                l(1) =   0
                l(2) =   0
                l(3) =   1
                l(4) =   1
                l(5) =   2
                l(6) =   2
     Q(r) pseudized with  8 coefficients,  rinner =    1.000   1.000   1.000
                                                       1.000   1.000

     PseudoPot. # 2 for O  read from file:
     /storage/coda1/p-amedford6/0/shared/rich_project_chbe-medford/medford-share/data/pseudos_module/espresso/nninc/pbe/van/O.UPF
     MD5 check sum: 78c19812648e8988a0fe644b0f25305e
     Pseudo is Ultrasoft, Zval =  6.0
     Generated by new atomic code, or converted to UPF format
     Using radial grid of  737 points,  4 beta functions with:
                l(1) =   0
                l(2) =   0
                l(3) =   1
                l(4) =   1
     Q(r) pseudized with  8 coefficients,  rinner =    0.800   0.800   0.800

     PseudoPot. # 3 for H  read from file:
     /storage/coda1/p-amedford6/0/shared/rich_project_chbe-medford/medford-share/data/pseudos_module/espresso/nninc/pbe/van/H.UPF
     MD5 check sum: b5ee9d7bfd3a09ee7748110bda690ff7
     Pseudo is Ultrasoft, Zval =  1.0
     Generated by new atomic code, or converted to UPF format
     Using radial grid of  615 points,  1 beta functions with:
                l(1) =   0
     Q(r) pseudized with  8 coefficients,  rinner =    0.800

     PseudoPot. # 4 for N  read from file:
     /storage/coda1/p-amedford6/0/shared/rich_project_chbe-medford/medford-share/data/pseudos_module/espresso/nninc/pbe/van/N.UPF
     MD5 check sum: 90d10febe142ad51ac9d5be1deb811c4
     Pseudo is Ultrasoft, Zval =  5.0
     Generated by new atomic code, or converted to UPF format
     Using radial grid of  729 points,  4 beta functions with:
                l(1) =   0
                l(2) =   0
                l(3) =   1
                l(4) =   1
     Q(r) pseudized with  8 coefficients,  rinner =    0.800   0.800   0.800

     PseudoPot. # 5 for C  read from file:
     /storage/coda1/p-amedford6/0/shared/rich_project_chbe-medford/medford-share/data/pseudos_module/espresso/nninc/pbe/van/C.UPF
     MD5 check sum: 1a69bf6b8db32088f5b2163dbdb77a27
     Pseudo is Ultrasoft, Zval =  4.0
     Generated by new atomic code, or converted to UPF format
     Using radial grid of  721 points,  4 beta functions with:
                l(1) =   0
                l(2) =   0
                l(3) =   1
                l(4) =   1
     Q(r) pseudized with  8 coefficients,  rinner =    0.800   0.800   0.800

     atomic species   valence    mass     pseudopotential
        Ti1           12.00    47.86700     Ti( 1.00)
        O1             6.00    15.99900     O ( 1.00)
        H1             1.00     1.00800     H ( 1.00)
        N1             5.00    14.00700     N ( 1.00)
        C1             4.00    12.01100     C ( 1.00)

     No symmetry found

   Cartesian axes

     site n.     atom                  positions (alat units)
         1           Ti1 tau(   1) = (   0.0004258   2.9801865   6.0000000  )
         2           Ti1 tau(   2) = (   3.2906075   1.4906267   6.0002472  )
         3           O1  tau(   3) = (   0.0006271   0.0005054   7.9858123  )
         4           O1  tau(   4) = (   3.2906025   0.0005020   7.3038282  )
         5           O1  tau(   5) = (   4.5942328   1.4918067   9.2879030  )
         6           O1  tau(   6) = (   1.9868534   1.4903216   9.2879459  )
         7           Ti1 tau(   7) = (   3.2907910   2.8959150   9.1758416  )
         8           Ti1 tau(   8) = (   0.0015273   1.4827037   9.2680791  )
         9           O1  tau(   9) = (   3.2899722   5.9582610  11.3470199  )
        10           O1  tau(  10) = (   0.0116148   5.9584955  10.6183126  )
        11           O1  tau(  11) = (   1.3017974   1.5038179  12.6264390  )
        12           O1  tau(  12) = (   5.3008627   1.4977989  12.6274213  )
        13           Ti1 tau(  13) = (   6.5569486   2.9952213  12.5532680  )
        14           Ti1 tau(  14) = (   3.2411515   1.4937708  12.4940153  )
        15           O1  tau(  15) = (   0.0420230   0.0496738  14.6358928  )
        16           O1  tau(  16) = (   3.2967895   0.0255587  13.9395418  )
        17           O1  tau(  17) = (   4.5559197   1.4885259  16.1071037  )
        18           O1  tau(  18) = (   2.0591626   1.5161495  16.1621771  )
        19           Ti1 tau(  19) = (   3.3530411   3.0041182  15.7164831  )
        20           Ti1 tau(  20) = (   0.0838170   1.4186333  16.1871295  )
        21           O1  tau(  21) = (   3.2904802   0.0005063   4.7018136  )
        22           O1  tau(  22) = (   0.0186128   5.8515937  17.1570623  )
        23           O1  tau(  23) = (   1.3043587   1.4918075   6.0039043  )
        24           O1  tau(  24) = (   5.2767064   1.4903225   6.0039473  )
        25           Ti1 tau(  25) = (   0.0000382   5.9609847   6.0000000  )
        26           Ti1 tau(  26) = (   3.2902200   4.4714249   6.0002472  )
        27           O1  tau(  27) = (   0.0002396   2.9813036   7.9858123  )
        28           O1  tau(  28) = (   3.2902150   2.9813002   7.3038282  )
        29           O1  tau(  29) = (   4.5938453   4.4726049   9.2879030  )
        30           O1  tau(  30) = (   1.9864658   4.4711199   9.2879459  )
        31           Ti1 tau(  31) = (   3.2891106   5.8743827   9.1763621  )
        32           Ti1 tau(  32) = (   0.0006254   4.4649316   9.2693709  )
        33           O1  tau(  33) = (   3.2942209   2.9913469  11.3437431  )
        34           O1  tau(  34) = (   0.0092240   2.9805883  10.6323155  )
        35           O1  tau(  35) = (   1.3035300   4.4624727  12.6575770  )
        36           O1  tau(  36) = (   5.3036227   4.4740614  12.6577195  )
        37           Ti1 tau(  37) = (   6.5462442   0.0298550  12.5256591  )
        38           Ti1 tau(  38) = (   3.2421849   4.4737490  12.5077532  )
        39           O1  tau(  39) = (   0.0112388   2.9415499  14.8853239  )
        40           O1  tau(  40) = (   3.3099764   2.9718378  13.9238501  )
        41           O1  tau(  41) = (   4.5641009   4.4837371  16.0358624  )
        42           O1  tau(  42) = (   2.0725645   4.4682733  16.0457710  )
        43           Ti1 tau(  43) = (   3.3278145   0.0095312  15.7444629  )
        44           Ti1 tau(  44) = (   0.0453891   4.6133464  15.7643304  )
        45           O1  tau(  45) = (   3.2900926   2.9813045   4.7018136  )
        46           O1  tau(  46) = (   1.3039711   4.4726057   6.0039043  )
        47           O1  tau(  47) = (   5.2763189   4.4711207   6.0039473  )
        48           H1  tau(  48) = (   4.6525291   2.0178258  18.2241430  )
        49           N1  tau(  49) = (   6.4431608   2.5827981  18.1004554  )
        50           C1  tau(  50) = (   0.9260493   3.0590344  18.7174074  )
        51           H1  tau(  51) = (   0.8415052   3.4111086  19.7259056  )
        52           H1  tau(  52) = (   1.8727361   3.0611994  18.2151121  )
        53           N1  tau(  53) = (   5.2929592   2.6053404  18.7594781  )

     number of k points=    10  Fermi-Dirac smearing, width (Ry)=  0.0073
                       cart. coord. in units 2pi/alat
        k(    1) = (   0.0000000   0.0000000   0.0000000), wk =   0.1250000
        k(    2) = (   0.0000000   0.0419351   0.0000000), wk =   0.2500000
        k(    3) = (   0.0000000  -0.0838702   0.0000000), wk =   0.1250000
        k(    4) = (   0.0379955   0.0000049   0.0000000), wk =   0.2500000
        k(    5) = (   0.0379955   0.0419400   0.0000000), wk =   0.2500000
        k(    6) = (   0.0379955  -0.0838652   0.0000000), wk =   0.2500000
        k(    7) = (   0.0379955  -0.0419301   0.0000000), wk =   0.2500000
        k(    8) = (  -0.0759910  -0.0000099   0.0000000), wk =   0.1250000
        k(    9) = (  -0.0759910   0.0419252   0.0000000), wk =   0.2500000
        k(   10) = (  -0.0759910  -0.0838800   0.0000000), wk =   0.1250000

     Initial potential from superposition of free atoms

     starting charge  378.99916, renormalised to  395.00000

     negative rho (up, down):  1.718E-02 0.000E+00

     %%%%%%%%%%%%%%%%%%%%%%%%%%%%%%%%%%%%%%%%%%%%%%%%%%%%%%%%%%%%%%%%%%%%%%%%
     %                                                                      %
     % You are using vdW-DF, which was implemented by the Thonhauser group. %
     % Please cite the following two papers that made this development      %
     % possible and the two reviews that describe the various versions:     %
     %                                                                      %
     %   T. Thonhauser et al., PRL 115, 136402 (2015).                      %
     %   T. Thonhauser et al., PRB 76, 125112 (2007).                       %
     %   K. Berland et al., Rep. Prog. Phys. 78, 066501 (2015).             %
     %   D.C. Langreth et al., J. Phys.: Condens. Matter 21, 084203 (2009). %
     %                                                                      %
     %                                                                      %
     % If you are calculating the stress with vdW-DF, please also cite:     %
     %                                                                      %
     %   R. Sabatini et al., J. Phys.: Condens. Matter 24, 424209 (2012).   %
     %                                                                      %
     %%%%%%%%%%%%%%%%%%%%%%%%%%%%%%%%%%%%%%%%%%%%%%%%%%%%%%%%%%%%%%%%%%%%%%%%

     Adding external electric field

     Computed dipole along edir(3) :
        Dipole               -8.7881 Ry au,        -22.3371 Debye
        Dipole field         -0.0166 Ry au,

        Potential amp.        1.5373 Ry
        Total length         46.3494 bohr

     Starting wfcs are  299 atomic wfcs
  @ DRIVER MODE: Message from server: STATUS
  @ DRIVER MODE: Message from server: POSDATA
  @ DRIVER MODE: Reading and sharing cell
  @ DRIVER MODE: Reading and sharing positions
  @ DRIVER MODE: Received positions

     Self-consistent Calculation

     iteration #  1     ecut=    29.40 Ry     beta= 0.05
     Davidson diagonalization with overlap
     c_bands:  1 eigenvalues not converged
     c_bands:  1 eigenvalues not converged
     c_bands:  1 eigenvalues not converged
     c_bands:  2 eigenvalues not converged
     c_bands:  2 eigenvalues not converged
     c_bands:  1 eigenvalues not converged
     c_bands:  2 eigenvalues not converged
     ethr =  1.00E-05,  avg # of iterations = 18.8

[...]

     total energy              =   -2593.22113922 Ry
     estimated scf accuracy    <    3846.16102948 Ry

     iteration #  2     ecut=    29.40 Ry     beta= 0.05
     Davidson diagonalization with overlap
     ethr =  1.00E-02,  avg # of iterations = 22.6

[...]

     iteration # 70     ecut=    29.40 Ry     beta= 0.05
     Davidson diagonalization with overlap
     c_bands:  2 eigenvalues not converged
     ethr =  9.23E-11,  avg # of iterations = 12.6

[...]

     total energy              =   -2939.05431827 Ry
     estimated scf accuracy    <       0.00000009 Ry

     iteration # 72     ecut=    29.40 Ry     beta= 0.05
     Davidson diagonalization with overlap
     ethr =  2.19E-11,  avg # of iterations = 11.5

     negative rho (up, down):  1.685E-02 0.000E+00

     Adding external electric field

     Computed dipole along edir(3) :
        Dipole                0.0820 Ry au,          0.2085 Debye
        Dipole field          0.0002 Ry au,

        Potential amp.       -0.0144 Ry
        Total length         46.3494 bohr

     End of self-consistent calculation

          k = 0.0000 0.0000 0.0000 ( 18029 PWs)   bands (ev):

   -56.2645 -56.2410 -56.2275 -56.2069 -56.1479 -56.1450 -56.1104 -56.1088
   -56.0718 -56.0622 -56.0366 -56.0295 -55.9039 -55.7007 -55.2448 -55.2108
   -32.8250 -32.7293 -32.6408 -32.6069 -32.5724 -32.5711 -32.5543 -32.5317
   -32.4865 -32.4845 -32.4796 -32.4679 -32.4377 -32.4110 -32.4062 -32.3934
   -32.3865 -32.3836 -32.3730 -32.3706 -32.3509 -32.3332 -32.3185 -32.2979
   -32.2932 -32.2873 -32.2862 -32.2723 -32.2655 -32.2649 -32.2527 -32.2309
   -32.2162 -32.2156 -32.1991 -32.1867 -32.1721 -32.1535 -32.1221 -32.0501
   -31.9261 -31.8605 -31.6530 -31.5620 -31.5398 -31.4697 -31.3830 -31.2719
   -17.6131 -17.0452 -16.7713 -16.5583 -16.4585 -16.4386 -16.2942 -16.1531
   -16.0580 -15.9744 -15.9400 -15.8732 -15.8617 -15.8057 -15.7966 -15.7857
   -15.7627 -15.7443 -15.7310 -15.6850 -15.6745 -15.6429 -15.6325 -15.6107
   -15.5674 -15.4806 -15.4373 -15.4035 -15.3489 -14.7968 -13.7472 -13.6302
   -11.9884  -7.0554  -5.3004  -4.4117  -4.2583  -4.1668  -4.1604  -4.1340
    -3.9598  -3.8374  -3.6552  -3.5886  -3.4889  -3.4437  -3.4417  -3.4139
    -3.3258  -3.2015  -3.1739  -3.1058  -3.0746  -3.0623  -3.0579  -3.0372
    -2.9966  -2.9528  -2.9445  -2.8775  -2.8469  -2.7781  -2.7005  -2.6752
    -2.6001  -2.5795  -2.5512  -2.5372  -2.5348  -2.5263  -2.5018  -2.4751
    -2.4085  -2.3069  -2.2283  -2.1333  -2.0631  -2.0011  -1.9368  -1.8876
    -1.8276  -1.7874  -1.7487  -1.7225  -1.6536  -1.5850  -1.5061  -1.4644
    -1.4016  -1.3668  -1.3152  -1.2470  -1.1880  -1.1323  -1.0586  -1.0462
    -1.0429  -1.0242  -0.9927  -0.8151  -0.7674  -0.7564  -0.7415  -0.6954
    -0.6391  -0.6053  -0.5004  -0.4846  -0.4436  -0.4256  -0.3513  -0.3309
    -0.2966  -0.2878  -0.2628  -0.2003  -0.1098  -0.0925  -0.0684  -0.0195
     0.0279   0.1791   0.3673   0.4255   0.4750   0.6955   0.7755   0.7778
     0.9658   1.3509   1.3977   1.5584   2.7373   2.8503   2.9409   2.9647
     2.9886   3.0834   3.1126   3.3182   3.3235   3.3646   3.3748

[...]

          k = 0.0380-0.0419 0.0000 ( 17876 PWs)   bands (ev):

[...]

          k =-0.0760-0.0000 0.0000 ( 17886 PWs)   bands (ev):

[...]

          k =-0.0760-0.0839 0.0000 ( 17948 PWs)   bands (ev):

   -56.2503 -56.2416 -56.2239 -56.2239 -56.1377 -56.1296 -56.1256 -56.1190
   -56.0548 -56.0521 -56.0471 -56.0459 -55.9026 -55.7019 -55.2277 -55.2277
   -32.6306 -32.6256 -32.5445 -32.5445 -32.5329 -32.5180 -32.5172 -32.5171
   -32.4851 -32.4694 -32.4647 -32.4490 -32.4184 -32.4034 -32.3979 -32.3944
   -32.3852 -32.3844 -32.3820 -32.3794 -32.3449 -32.3431 -32.3431 -32.3405
   -32.3375 -32.3371 -32.3241 -32.3216 -32.2896 -32.2789 -32.2773 -32.2684
   -32.2672 -32.2624 -32.2609 -32.2345 -32.2312 -32.1569 -32.1302 -32.0575
   -31.9287 -31.9274 -31.5525 -31.5525 -31.4656 -31.4655 -31.4264 -31.4263
   -17.6060 -16.4715 -16.4378 -16.2940 -16.2262 -16.2017 -16.1858 -16.1627
   -16.0264 -15.9793 -15.9694 -15.9437 -15.9145 -15.9085 -15.8497 -15.8349
   -15.8237 -15.8154 -15.8052 -15.7527 -15.7485 -15.7397 -15.7181 -15.7131
   -15.6896 -15.6576 -15.6014 -15.5996 -15.2310 -15.1884 -13.7319 -13.7319
   -12.0035  -6.9796  -5.2559  -3.8099  -3.7441  -3.7114  -3.5663  -3.4404
    -3.4241  -3.4211  -3.2775  -3.2321  -3.2133  -3.1910  -3.1334  -3.1169
    -3.1067  -3.0849  -3.0699  -3.0568  -3.0312  -3.0014  -2.9881  -2.9676
    -2.9577  -2.9400  -2.9218  -2.8973  -2.8926  -2.8756  -2.8357  -2.8273
    -2.8015  -2.7824  -2.6110  -2.5556  -2.5383  -2.4408  -2.4387  -2.4135
    -2.3770  -2.3310  -2.3110  -2.2617  -2.2269  -2.1871  -2.0570  -1.9969
    -1.9834  -1.9348  -1.9151  -1.8519  -1.7633  -1.7300  -1.6901  -1.6553
    -1.5649  -1.5205  -1.5104  -1.4683  -1.4221  -1.4107  -1.3370  -1.2870
    -1.2228  -1.2213  -1.2143  -1.1711  -1.0562  -1.0396  -1.0254  -1.0231
    -0.9759  -0.9654  -0.9126  -0.8252  -0.7045  -0.6494  -0.6198  -0.4504
    -0.3686  -0.2987  -0.1944  -0.1540  -0.1076  -0.0849  -0.0290   0.0359
     0.0427   0.1039   0.1286   0.2159   0.2272   0.2342   0.3063   1.1383
     1.1389   1.2177   1.2180   1.5550   2.6961   3.1151   3.1485   3.1750
     3.1845   3.3449   3.3697   3.4088   3.4109   3.4830   3.5097

     the Fermi energy is     2.8802 ev

!    total energy              =   -2939.05434197 Ry
     estimated scf accuracy    <       0.00000006 Ry
     smearing contrib. (-TS)   =      -0.03336545 Ry
     internal energy E=F+TS    =   -2939.02097652 Ry

     The total energy is F=E-TS. E is the sum of the following terms:
     one-electron contribution =  -24158.08632659 Ry
     hartree contribution      =   12162.29043263 Ry
     xc contribution           =    -485.18059369 Ry
     ewald contribution        =    9541.95549842 Ry
     electric field correction =       0.00001270 Ry

     convergence has been achieved in  72 iterations

     Forces acting on atoms (cartesian axes, Ry/au):

     atom    1 type  1   force =     0.00009662   -0.00024895    0.09470199
     atom    2 type  1   force =     0.00010204   -0.00053594   -0.17676407
     atom    3 type  2   force =     0.00011881   -0.00001781   -0.02173313
     atom    4 type  2   force =     0.00001632   -0.00163203    0.05554694
     atom    5 type  2   force =    -0.01058127   -0.00065943    0.00571651
     atom    6 type  2   force =     0.01212073    0.00002754    0.00516097
     atom    7 type  1   force =     0.00034836    0.00220285   -0.01237520
     atom    8 type  1   force =     0.00038624    0.00262890    0.00924291
     atom    9 type  2   force =     0.00020889   -0.00033273   -0.00020988
     atom   10 type  2   force =    -0.00209139    0.00001826   -0.00883508
     atom   11 type  2   force =     0.00085694   -0.00014788    0.00006142
     atom   12 type  2   force =    -0.00026682   -0.00009636    0.00045165
     atom   13 type  1   force =    -0.00036039   -0.00039530    0.00076657
     atom   14 type  1   force =     0.00055165   -0.00043380    0.00065976
     atom   15 type  2   force =    -0.00019587   -0.00028396    0.00029273
     atom   16 type  2   force =    -0.00003683   -0.00041238    0.00075115
     atom   17 type  2   force =     0.00059614   -0.00032001   -0.00031068
     atom   18 type  2   force =     0.00007954   -0.00037117   -0.00048984
     atom   19 type  1   force =    -0.00053973   -0.00054920   -0.00005273
     atom   20 type  1   force =     0.00052546    0.00020541   -0.00060932
     atom   21 type  2   force =     0.00009397   -0.00011480    0.10355793
     atom   22 type  2   force =    -0.00014658    0.00003409    0.00097061
     atom   23 type  2   force =    -0.07096346   -0.00024427   -0.02724393
     atom   24 type  2   force =     0.07095000    0.00023275   -0.02729607
     atom   25 type  1   force =     0.00027862   -0.00026534    0.09411449
     atom   26 type  1   force =     0.00011103   -0.00041326   -0.17692955
     atom   27 type  2   force =     0.00010854   -0.00040851   -0.02062213
     atom   28 type  2   force =     0.00010190   -0.00136675    0.05523017
     atom   29 type  2   force =    -0.01064513   -0.00021892    0.00495581
     atom   30 type  2   force =     0.01206108   -0.00000738    0.00432215
     atom   31 type  1   force =     0.00037012    0.00375024   -0.01356422
     atom   32 type  1   force =     0.00032779   -0.00313395    0.00922627
     atom   33 type  2   force =     0.00004690   -0.00000453    0.00009585
     atom   34 type  2   force =    -0.00266088    0.00249502   -0.00568322
     atom   35 type  2   force =     0.00102891    0.00033598    0.00011024
     atom   36 type  2   force =    -0.00075040    0.00005743    0.00082656
     atom   37 type  1   force =    -0.00056987    0.00022168   -0.00005480
     atom   38 type  1   force =     0.00059432    0.00016351   -0.00026561
     atom   39 type  2   force =     0.00038078   -0.00005879   -0.00016581
     atom   40 type  2   force =     0.00008256   -0.00009781   -0.00042735
     atom   41 type  2   force =     0.00062921   -0.00003898   -0.00040385
     atom   42 type  2   force =     0.00034315    0.00005703   -0.00020398
     atom   43 type  1   force =    -0.00101480   -0.00028979   -0.00102753
     atom   44 type  1   force =     0.00029237   -0.00097978   -0.00037242
     atom   45 type  2   force =     0.00008480   -0.00014203    0.10353625
     atom   46 type  2   force =    -0.07098065   -0.00015270   -0.02724159
     atom   47 type  2   force =     0.07097045    0.00023123   -0.02726511
     atom   48 type  3   force =    -0.00076102   -0.00020313    0.00059775
     atom   49 type  4   force =    -0.00083389   -0.00048049   -0.00207011
     atom   50 type  5   force =     0.00050497   -0.00261241   -0.01099877
     atom   51 type  3   force =    -0.00200674    0.00471879    0.01345237
     atom   52 type  3   force =     0.00054357    0.00030928   -0.00004925
     atom   53 type  4   force =    -0.00050706   -0.00001942   -0.00108383

     Total force =     0.365550     Total SCF correction =     0.000759
  @ DRIVER MODE: Message from server: STATUS
  @ DRIVER MODE: Message from server: GETFORCE
  @ DRIVER MODE: Returning v,forces,stress,ensemble

     Writing output data file ./calc.save/
  @ DRIVER MODE: Message from server: EXIT
  @ DRIVE MODE: Exiting

     General routines

     Parallel routines

   This run was terminated on:   2:11:33  24Aug2021

   JOB DONE.