     Program PWSCF v.6.7GPU starts on 22Sep2021 at 23:18:38

     R & G space division:  proc/nbgrp/npool/nimage =      10
     Reading input from /storage/home/hcoda1/3/ntian30/research/carbon/CxH_vib/H2O_calc/ads_slab/CH2N2HHO_a/out_0020/pw.inp
Warning: card &CELL ignored
Warning: card   CELL_DYNAMICS='IPI', ignored
Warning: card / ignored

     Current dimensions of program PWSCF are:
     Max number of different atomic species (ntypx) = 10
     Max number of k-points (npk) =  40000
     Max angular momentum in pseudopotentials (lmaxx) =  3
     Presently no symmetry can be used with electric field

     Message from routine cell_base_init:
     DEPRECATED: use true lattice parameter, not A to a.u. conversion factor

     IMPORTANT: XC functional enforced from input :
     Exchange-correlation= BEEF-VDW
                           (   1   4  43  14   2   0   0)
     Any further DFT definition will be discarded
     Please, verify this is what you really want

  @ DRIVER MODE: Connecting to
 qe_1139763_2937323.sched-torque.pace.gatech.edudxwihcmx_scratch
  using UNIX socket
  @ DRIVER MODE: Message from server: STATUS
  @ DRIVER MODE: Message from server: INIT
  @ DRIVER MODE: Receiving replica           0          -1
  @ DRIVER MODE: Receiving encoded integer          25
  @ DRIVER MODE:  SCF:  T  FORCE:  T  STRESS:  F  VC:  F  ENSEMBLE:  F
  @ DRIVER MODE:  SCF:  T  FORCE:  T  STRESS:  F  VC:  F  ENSEMBLE:  F

     Using Slab Decomposition

     bravais-lattice index     =            0
     lattice parameter (alat)  =       1.8897  a.u.
     unit-cell volume          =    6658.9804 (a.u.)^3
     number of atoms/cell      =           55
     number of atomic types    =            5
     number of electrons       =       402.00
     number of Kohn-Sham states=          211
     kinetic-energy cutoff     =      29.3995  Ry
     charge density cutoff     =     293.9946  Ry
     scf convergence threshold =      7.3E-08
     mixing beta               =       0.0500
     number of iterations used =            8  plain     mixing
     Exchange-correlation= BEEF-VDW
                           (   1   4  43  14   2   0   0)

     celldm(1)=   1.889726  celldm(2)=   0.000000  celldm(3)=   0.000000
     celldm(4)=   0.000000  celldm(5)=   0.000000  celldm(6)=   0.000000

     crystal axes: (cart. coord. in units of alat)
               a(1) = (   6.579727   0.000000   0.000000 )
               a(2) = (  -0.000775   5.961596   0.000000 )
               a(3) = (   0.000000   0.000000  25.155947 )

     reciprocal axes: (cart. coord. in units 2 pi/alat)
               b(1) = (  0.151982  0.000020  0.000000 )
               b(2) = (  0.000000  0.167740  0.000000 )
               b(3) = (  0.000000  0.000000  0.039752 )

     PseudoPot. # 1 for Ti read from file:
     /storage/coda1/p-amedford6/0/shared/rich_project_chbe-medford/medford-share/data/pseudos_module/espresso/nninc/pbe/van/Ti.UPF
     MD5 check sum: 8e4df49b7f0d34bbd5052bf3f5ea0213
     Pseudo is Ultrasoft, Zval = 12.0
     Generated by new atomic code, or converted to UPF format
     Using radial grid of  851 points,  6 beta functions with:
                l(1) =   0
                l(2) =   0
                l(3) =   1
                l(4) =   1
                l(5) =   2
                l(6) =   2
     Q(r) pseudized with  8 coefficients,  rinner =    1.000   1.000   1.000
                                                       1.000   1.000

     PseudoPot. # 2 for O  read from file:
     /storage/coda1/p-amedford6/0/shared/rich_project_chbe-medford/medford-share/data/pseudos_module/espresso/nninc/pbe/van/O.UPF
     MD5 check sum: 78c19812648e8988a0fe644b0f25305e
     Pseudo is Ultrasoft, Zval =  6.0
     Generated by new atomic code, or converted to UPF format
     Using radial grid of  737 points,  4 beta functions with:
                l(1) =   0
                l(2) =   0
                l(3) =   1
                l(4) =   1
     Q(r) pseudized with  8 coefficients,  rinner =    0.800   0.800   0.800

     PseudoPot. # 3 for N  read from file:
     /storage/coda1/p-amedford6/0/shared/rich_project_chbe-medford/medford-share/data/pseudos_module/espresso/nninc/pbe/van/N.UPF
     MD5 check sum: 90d10febe142ad51ac9d5be1deb811c4
     Pseudo is Ultrasoft, Zval =  5.0
     Generated by new atomic code, or converted to UPF format
     Using radial grid of  729 points,  4 beta functions with:
                l(1) =   0
                l(2) =   0
                l(3) =   1
                l(4) =   1
     Q(r) pseudized with  8 coefficients,  rinner =    0.800   0.800   0.800

     PseudoPot. # 4 for C  read from file:
     /storage/coda1/p-amedford6/0/shared/rich_project_chbe-medford/medford-share/data/pseudos_module/espresso/nninc/pbe/van/C.UPF
     MD5 check sum: 1a69bf6b8db32088f5b2163dbdb77a27
     Pseudo is Ultrasoft, Zval =  4.0
     Generated by new atomic code, or converted to UPF format
     Using radial grid of  721 points,  4 beta functions with:
                l(1) =   0
                l(2) =   0
                l(3) =   1
                l(4) =   1
     Q(r) pseudized with  8 coefficients,  rinner =    0.800   0.800   0.800

     PseudoPot. # 5 for H  read from file:
     /storage/coda1/p-amedford6/0/shared/rich_project_chbe-medford/medford-share/data/pseudos_module/espresso/nninc/pbe/van/H.UPF
     MD5 check sum: b5ee9d7bfd3a09ee7748110bda690ff7
     Pseudo is Ultrasoft, Zval =  1.0
     Generated by new atomic code, or converted to UPF format
     Using radial grid of  615 points,  1 beta functions with:
                l(1) =   0
     Q(r) pseudized with  8 coefficients,  rinner =    0.800

     atomic species   valence    mass     pseudopotential
        Ti1           12.00    47.86700     Ti( 1.00)
        O1             6.00    15.99900     O ( 1.00)
        N1             5.00    14.00700     N ( 1.00)
        C1             4.00    12.01100     C ( 1.00)
        H1             1.00     1.00800     H ( 1.00)

     No symmetry found

   Cartesian axes

     site n.     atom                  positions (alat units)
         1           Ti1 tau(   1) = (   0.0004258   2.9801865   6.0000000  )
         2           Ti1 tau(   2) = (   3.2906075   1.4906267   6.0002472  )
         3           O1  tau(   3) = (   0.0006271   0.0005054   7.9858123  )
         4           O1  tau(   4) = (   3.2906025   0.0005020   7.3038282  )
         5           O1  tau(   5) = (   4.5942328   1.4918067   9.2879030  )
         6           O1  tau(   6) = (   1.9868534   1.4903216   9.2879459  )
         7           Ti1 tau(   7) = (   3.2907910   2.8959150   9.1758416  )
         8           Ti1 tau(   8) = (   0.0015273   1.4827037   9.2680791  )
         9           O1  tau(   9) = (   3.3002520   5.9418316  11.2747492  )
        10           O1  tau(  10) = (   0.0116148   5.9584955  10.6183126  )
        11           O1  tau(  11) = (   1.2897458   1.4862980  12.6211975  )
        12           O1  tau(  12) = (   5.3051886   1.5023792  12.6347999  )
        13           Ti1 tau(  13) = (   0.0146078   2.8478158  12.7200684  )
        14           Ti1 tau(  14) = (   3.3063360   1.3081926  12.6482236  )
        15           O1  tau(  15) = (   0.0235978   5.9609164  14.6274833  )
        16           O1  tau(  16) = (   3.2983906   0.0399142  13.8749830  )
        17           O1  tau(  17) = (   4.5813539   1.5856785  16.0626423  )
        18           O1  tau(  18) = (   2.0324892   1.5097802  16.0098020  )
        19           Ti1 tau(  19) = (   3.2774956   2.9544257  15.6266065  )
        20           Ti1 tau(  20) = (   6.5530467   1.3151789  15.9772938  )
        21           O1  tau(  21) = (   3.2904802   0.0005063   4.7018136  )
        22           O1  tau(  22) = (   6.5059356   5.9265713  17.1294848  )
        23           O1  tau(  23) = (   1.3043587   1.4918075   6.0039043  )
        24           O1  tau(  24) = (   5.2767064   1.4903225   6.0039473  )
        25           Ti1 tau(  25) = (   0.0000382   5.9609847   6.0000000  )
        26           Ti1 tau(  26) = (   3.2902200   4.4714249   6.0002472  )
        27           O1  tau(  27) = (   0.0002396   2.9813036   7.9858123  )
        28           O1  tau(  28) = (   3.2902150   2.9813002   7.3038282  )
        29           O1  tau(  29) = (   4.5938453   4.4726049   9.2879030  )
        30           O1  tau(  30) = (   1.9864658   4.4711199   9.2879459  )
        31           Ti1 tau(  31) = (   3.2891106   5.8743827   9.1763621  )
        32           Ti1 tau(  32) = (   0.0006254   4.4649316   9.2693709  )
        33           O1  tau(  33) = (   3.2992753   3.0242338  11.2405823  )
        34           O1  tau(  34) = (   0.0092240   2.9805883  10.6323155  )
        35           O1  tau(  35) = (   1.2972400   4.4705050  12.6241655  )
        36           O1  tau(  36) = (   5.3008088   4.4694758  12.6340222  )
        37           Ti1 tau(  37) = (   0.0289225   5.8314391  12.5906285  )
        38           Ti1 tau(  38) = (   3.3189507   4.3956991  12.4097224  )
        39           O1  tau(  39) = (   0.0312427   2.9750824  14.7260556  )
        40           O1  tau(  40) = (   3.2762925   2.9668711  13.8358254  )
        41           O1  tau(  41) = (   4.5358187   4.4455929  15.9064879  )
        42           O1  tau(  42) = (   2.0572077   4.4429961  16.0439637  )
        43           Ti1 tau(  43) = (   3.2186928   5.9141907  16.2420754  )
        44           Ti1 tau(  44) = (   6.4642982   4.4840528  15.9061301  )
        45           O1  tau(  45) = (   3.2900926   2.9813045   4.7018136  )
        46           O1  tau(  46) = (   1.3039711   4.4726057   6.0039043  )
        47           O1  tau(  47) = (   5.2763189   4.4711207   6.0039473  )
        48           N1  tau(  48) = (   0.2499663   2.3419386  17.9913213  )
        49           C1  tau(  49) = (   0.6208863   1.8700663  19.1394302  )
        50           H1  tau(  50) = (   0.7431952   2.5333404  19.9929579  )
        51           H1  tau(  51) = (   0.8499735   0.8189210  19.2161768  )
        52           N1  tau(  52) = (   6.5658643   3.6116587  17.7752569  )
        53           H1  tau(  53) = (   0.1300021   4.2235620  18.5825096  )
        54           O1  tau(  54) = (   3.3713844   5.9089882  18.0735649  )
        55           H1  tau(  55) = (   4.1655974   0.3538959  18.4550359  )

     number of k points=    10  Fermi-Dirac smearing, width (Ry)=  0.0073
                       cart. coord. in units 2pi/alat
        k(    1) = (   0.0000000   0.0000000   0.0000000), wk =   0.1250000
        k(    2) = (   0.0000000   0.0419351   0.0000000), wk =   0.2500000
        k(    3) = (   0.0000000  -0.0838702   0.0000000), wk =   0.1250000
        k(    4) = (   0.0379955   0.0000049   0.0000000), wk =   0.2500000
        k(    5) = (   0.0379955   0.0419400   0.0000000), wk =   0.2500000
        k(    6) = (   0.0379955  -0.0838652   0.0000000), wk =   0.2500000
        k(    7) = (   0.0379955  -0.0419301   0.0000000), wk =   0.2500000
        k(    8) = (  -0.0759910  -0.0000099   0.0000000), wk =   0.1250000
        k(    9) = (  -0.0759910   0.0419252   0.0000000), wk =   0.2500000
        k(   10) = (  -0.0759910  -0.0838800   0.0000000), wk =   0.1250000

     Initial potential from superposition of free atoms

     starting charge  385.99915, renormalised to  402.00000

     negative rho (up, down):  1.591E-02 0.000E+00

     %%%%%%%%%%%%%%%%%%%%%%%%%%%%%%%%%%%%%%%%%%%%%%%%%%%%%%%%%%%%%%%%%%%%%%%%
     %                                                                      %
     % You are using vdW-DF, which was implemented by the Thonhauser group. %
     % Please cite the following two papers that made this development      %
     % possible and the two reviews that describe the various versions:     %
     %                                                                      %
     %   T. Thonhauser et al., PRL 115, 136402 (2015).                      %
     %   T. Thonhauser et al., PRB 76, 125112 (2007).                       %
     %   K. Berland et al., Rep. Prog. Phys. 78, 066501 (2015).             %
     %   D.C. Langreth et al., J. Phys.: Condens. Matter 21, 084203 (2009). %
     %                                                                      %
     %                                                                      %
     % If you are calculating the stress with vdW-DF, please also cite:     %
     %                                                                      %
     %   R. Sabatini et al., J. Phys.: Condens. Matter 24, 424209 (2012).   %
     %                                                                      %
     %%%%%%%%%%%%%%%%%%%%%%%%%%%%%%%%%%%%%%%%%%%%%%%%%%%%%%%%%%%%%%%%%%%%%%%%

     Adding external electric field

     Computed dipole along edir(3) :
        Dipole              -11.3527 Ry au,        -28.8557 Debye
        Dipole field         -0.0214 Ry au,

        Potential amp.        1.9860 Ry
        Total length         46.3494 bohr

     Starting wfcs are  304 atomic wfcs
  @ DRIVER MODE: Message from server: STATUS
  @ DRIVER MODE: Message from server: POSDATA
  @ DRIVER MODE: Reading and sharing cell
  @ DRIVER MODE: Reading and sharing positions
  @ DRIVER MODE: Received positions

     Self-consistent Calculation

     iteration #  1     ecut=    29.40 Ry     beta= 0.05
     Davidson diagonalization with overlap
     c_bands:  4 eigenvalues not converged
     c_bands:  3 eigenvalues not converged
     c_bands:  3 eigenvalues not converged
     c_bands:  5 eigenvalues not converged
     c_bands:  5 eigenvalues not converged
     c_bands:  1 eigenvalues not converged
     c_bands:  5 eigenvalues not converged
     c_bands:  4 eigenvalues not converged
     c_bands:  5 eigenvalues not converged
     c_bands:  1 eigenvalues not converged
     ethr =  1.00E-05,  avg # of iterations = 24.0

[...]

     total energy              =   -2410.17087051 Ry
     estimated scf accuracy    <    6308.36328768 Ry

     iteration #  2     ecut=    29.40 Ry     beta= 0.05
     Davidson diagonalization with overlap
     ethr =  1.00E-02,  avg # of iterations = 23.4

[...]

     iteration # 42     ecut=    29.40 Ry     beta= 0.05
     Davidson diagonalization with overlap
     c_bands:  1 eigenvalues not converged
     ethr =  1.33E-06,  avg # of iterations =  8.9

[...]

     total energy              =   -2972.72751623 Ry
     estimated scf accuracy    <       0.00000009 Ry

     iteration # 68     ecut=    29.40 Ry     beta= 0.05
     Davidson diagonalization with overlap
     ethr =  2.34E-11,  avg # of iterations =  2.0

     negative rho (up, down):  1.620E-02 0.000E+00

     Adding external electric field

     Computed dipole along edir(3) :
        Dipole                0.4604 Ry au,          1.1702 Debye
        Dipole field          0.0009 Ry au,

        Potential amp.       -0.0805 Ry
        Total length         46.3494 bohr

     End of self-consistent calculation

          k = 0.0000 0.0000 0.0000 ( 18029 PWs)   bands (ev):

   -56.5388 -56.5052 -55.8866 -55.8511 -55.6241 -55.5646 -55.3799 -55.3260
   -55.3015 -55.2305 -55.2000 -55.1900 -55.1561 -55.0330 -55.0324 -54.9854
   -32.9710 -32.8234 -32.7954 -32.7062 -32.6149 -32.5967 -32.3696 -32.1061
   -32.1046 -32.0770 -32.0297 -32.0261 -31.9930 -31.8695 -31.8528 -31.8449
   -31.7920 -31.7683 -31.7274 -31.7096 -31.6920 -31.6474 -31.6448 -31.5871
   -31.5853 -31.5811 -31.5786 -31.5345 -31.5308 -31.5267 -31.5066 -31.5060
   -31.4843 -31.4800 -31.4241 -31.4056 -31.3997 -31.3545 -31.3170 -31.2947
   -31.2882 -31.2797 -31.2440 -31.2429 -31.2175 -31.2051 -31.1765 -31.1561
   -17.8188 -16.7240 -16.2900 -16.1714 -15.9816 -15.9083 -15.8837 -15.8524
   -15.7864 -15.6145 -15.5349 -15.5096 -15.4997 -15.4408 -15.2733 -15.1767
   -15.1589 -15.0927 -15.0150 -14.9908 -14.9518 -14.8986 -14.8712 -14.8566
   -14.8410 -14.8056 -14.6832 -14.6027 -14.5041 -14.3238 -14.3064 -13.6875
   -13.5779 -11.9685  -7.7239  -5.1548  -4.3528  -4.2745  -3.7969  -3.7749
    -3.6063  -3.4267  -3.3707  -3.2254  -3.1671  -3.1175  -3.0614  -3.0470
    -2.9433  -2.8009  -2.7934  -2.7400  -2.7177  -2.7142  -2.6950  -2.5942
    -2.5285  -2.5194  -2.4244  -2.3326  -2.3115  -2.2728  -2.2325  -2.2248
    -2.1816  -2.1427  -2.0879  -2.0510  -2.0346  -1.9372  -1.9181  -1.8115
    -1.7851  -1.7602  -1.7514  -1.7188  -1.6795  -1.6211  -1.5493  -1.4324
    -1.3427  -1.3232  -1.2508  -1.2445  -1.2200  -1.0579  -1.0170  -1.0148
    -0.9545  -0.8783  -0.8491  -0.7932  -0.7557  -0.7119  -0.6596  -0.6177
    -0.5820  -0.4531  -0.4493  -0.3982  -0.3144  -0.2932  -0.2617  -0.2387
    -0.1579  -0.1024  -0.0660   0.0062   0.0654   0.0719   0.1166   0.1742
     0.2833   0.3263   0.3507   0.3813   0.4241   0.4483   0.5162   0.5638
     0.5948   0.6039   0.6799   0.7817   0.7991   0.8333   0.9229   0.9473
     1.0334   1.0709   1.0874   1.1728   1.1925   1.3713   1.4097   1.5800
     2.3834   2.7257   2.8757   3.1583   3.1734   3.4656   3.6880   3.7158
     3.7187   3.7990   3.9365

[...]

          k = 0.0380-0.0419 0.0000 ( 17876 PWs)   bands (ev):

[...]

          k =-0.0760-0.0000 0.0000 ( 17886 PWs)   bands (ev):

[...]

          k =-0.0760-0.0839 0.0000 ( 17948 PWs)   bands (ev):

   -56.5223 -56.5215 -55.8746 -55.8628 -55.6188 -55.5698 -55.3738 -55.3319
   -55.2995 -55.2290 -55.2019 -55.1735 -55.1724 -55.0343 -55.0251 -54.9926
   -32.8094 -32.8087 -32.7882 -32.7872 -32.6591 -32.6588 -32.1956 -32.1861
   -32.0682 -32.0554 -32.0551 -32.0472 -31.9269 -31.8881 -31.8466 -31.8400
   -31.7969 -31.7907 -31.7031 -31.6708 -31.6286 -31.6108 -31.5925 -31.5876
   -31.5748 -31.5646 -31.5503 -31.5386 -31.5232 -31.5200 -31.5192 -31.5098
   -31.4733 -31.4691 -31.4304 -31.4104 -31.3975 -31.3961 -31.3875 -31.3591
   -31.3581 -31.2993 -31.2813 -31.2596 -31.2466 -31.2449 -31.2199 -31.1788
   -17.8051 -16.1519 -16.1074 -16.1031 -16.0198 -16.0174 -15.8137 -15.8066
   -15.6262 -15.6025 -15.5284 -15.4598 -15.3510 -15.3175 -15.2937 -15.2425
   -15.1971 -15.1691 -15.1127 -15.0808 -14.9981 -14.9667 -14.9509 -14.9395
   -14.9067 -14.8538 -14.7216 -14.6874 -14.6696 -14.5875 -14.4543 -13.6820
   -13.6813 -11.9260  -7.6543  -5.2158  -4.4268  -3.7495  -3.2195  -3.1913
    -3.1424  -3.1333  -2.9352  -2.8948  -2.8736  -2.8222  -2.7857  -2.7703
    -2.7259  -2.7200  -2.6381  -2.5858  -2.5541  -2.5415  -2.5176  -2.4577
    -2.4359  -2.4060  -2.3939  -2.3623  -2.3513  -2.3418  -2.3182  -2.2512
    -2.2005  -2.1493  -2.1162  -2.0753  -2.0181  -2.0127  -1.9785  -1.9698
    -1.8920  -1.7996  -1.7625  -1.6866  -1.6046  -1.5706  -1.5428  -1.5245
    -1.4810  -1.4249  -1.3979  -1.3490  -1.3233  -1.2696  -1.2342  -1.2240
    -1.1581  -1.1202  -1.0529  -1.0312  -0.9516  -0.8398  -0.7840  -0.7598
    -0.7324  -0.7199  -0.6508  -0.5873  -0.5400  -0.5211  -0.4483  -0.4403
    -0.4135  -0.3636  -0.3492  -0.3146  -0.2018  -0.1383  -0.0782   0.0060
     0.0456   0.0823   0.1624   0.2169   0.2404   0.3165   0.3964   0.4767
     0.4929   0.5321   0.5384   0.7053   0.7351   0.8443   0.8770   0.9520
     0.9866   1.0269   1.1475   1.1901   1.2213   1.2226   1.2434   1.2613
     2.3291   3.2955   3.2982   3.3479   3.3560   3.6238   3.6322   3.7698
     3.7717   3.8908   3.9300

     the Fermi energy is     2.6049 ev

!    total energy              =   -2972.72755316 Ry
     estimated scf accuracy    <       0.00000006 Ry
     smearing contrib. (-TS)   =      -0.00744349 Ry
     internal energy E=F+TS    =   -2972.72010967 Ry

     The total energy is F=E-TS. E is the sum of the following terms:
     one-electron contribution =  -24031.66541913 Ry
     hartree contribution      =   12109.47358432 Ry
     xc contribution           =    -493.28166529 Ry
     ewald contribution        =    9442.75299045 Ry
     electric field correction =       0.00039997 Ry

     convergence has been achieved in  68 iterations

     Forces acting on atoms (cartesian axes, Ry/au):

     atom    1 type  1   force =    -0.00000679   -0.00043830    0.11620137
     atom    2 type  1   force =    -0.00007365    0.00013435   -0.15936521
     atom    3 type  2   force =     0.00002589    0.00000597   -0.05253994
     atom    4 type  2   force =     0.00005150   -0.00013716    0.02467296
     atom    5 type  2   force =    -0.00348890   -0.00224786   -0.01042921
     atom    6 type  2   force =     0.00528569   -0.00174911   -0.01062754
     atom    7 type  1   force =     0.00000350   -0.00613243    0.04626869
     atom    8 type  1   force =     0.00041396    0.01612591    0.08037715
     atom    9 type  2   force =    -0.00001171   -0.00062662    0.00013411
     atom   10 type  2   force =    -0.00257467    0.00058311   -0.04976008
     atom   11 type  2   force =    -0.00056867   -0.00013911   -0.00014613
     atom   12 type  2   force =     0.00060641   -0.00028512    0.00000989
     atom   13 type  1   force =    -0.00018385    0.00043585   -0.00002371
     atom   14 type  1   force =     0.00017680    0.00007135   -0.00108454
     atom   15 type  2   force =    -0.00023244   -0.00041784   -0.00054596
     atom   16 type  2   force =     0.00013043   -0.00064163    0.00072624
     atom   17 type  2   force =     0.00002019    0.00054424    0.00009363
     atom   18 type  2   force =     0.00012797    0.00055050   -0.00026802
     atom   19 type  1   force =    -0.00057540   -0.00031418   -0.00046329
     atom   20 type  1   force =     0.00057553    0.00029047   -0.00014206
     atom   21 type  2   force =     0.00004767    0.00021668    0.09895216
     atom   22 type  2   force =     0.00001493   -0.00050409   -0.00038103
     atom   23 type  2   force =    -0.07984372    0.00004121   -0.03164464
     atom   24 type  2   force =     0.07974289    0.00047605   -0.03170385
     atom   25 type  1   force =     0.00006929   -0.00057569    0.11649278
     atom   26 type  1   force =    -0.00010923   -0.00143210   -0.15988585
     atom   27 type  2   force =     0.00007063   -0.00069821   -0.05055458
     atom   28 type  2   force =     0.00005393    0.00166725    0.02021018
     atom   29 type  2   force =    -0.00169356    0.00505530   -0.01371491
     atom   30 type  2   force =     0.00360579    0.00547695   -0.01384680
     atom   31 type  1   force =    -0.00017077    0.00219602    0.03175702
     atom   32 type  1   force =     0.00032054   -0.01973140    0.08003641
     atom   33 type  2   force =     0.00014222   -0.00036462    0.00013898
     atom   34 type  2   force =    -0.00158672    0.00085455   -0.06330337
     atom   35 type  2   force =     0.00039596    0.00003366   -0.00016853
     atom   36 type  2   force =     0.00016606   -0.00004749   -0.00023959
     atom   37 type  1   force =    -0.00013373   -0.00023531   -0.00058735
     atom   38 type  1   force =     0.00012986    0.00046601    0.00008936
     atom   39 type  2   force =    -0.00028828    0.00056529    0.00012809
     atom   40 type  2   force =     0.00023907    0.00011383    0.00065614
     atom   41 type  2   force =     0.00125571    0.00002411   -0.00010689
     atom   42 type  2   force =    -0.00122611   -0.00050822    0.00005158
     atom   43 type  1   force =    -0.00050501    0.00048811   -0.00039022
     atom   44 type  1   force =    -0.00004103    0.00039374    0.00021587
     atom   45 type  2   force =     0.00004882    0.00003102    0.09875662
     atom   46 type  2   force =    -0.07990138    0.00000701   -0.03164863
     atom   47 type  2   force =     0.07979195    0.00043666   -0.03171882
     atom   48 type  3   force =     0.00019527    0.00009960   -0.00020185
     atom   49 type  4   force =     0.00111939   -0.00223951    0.00015852
     atom   50 type  5   force =    -0.00029670   -0.00015181   -0.00019450
     atom   51 type  5   force =    -0.00118207    0.00290191   -0.00081858
     atom   52 type  3   force =    -0.00063353   -0.00081963    0.00060577
     atom   53 type  5   force =    -0.00029473    0.00028286   -0.00005434
     atom   54 type  2   force =    -0.00033454   -0.00017792   -0.00082298
     atom   55 type  5   force =     0.00112934    0.00004582    0.00064946

     Total force =     0.396703     Total SCF correction =     0.000702
  @ DRIVER MODE: Message from server: STATUS
  @ DRIVER MODE: Message from server: GETFORCE
  @ DRIVER MODE: Returning v,forces,stress,ensemble

     Writing output data file ./calc.save/
  @ DRIVER MODE: Message from server: EXIT
  @ DRIVE MODE: Exiting

     General routines

     Parallel routines

   This run was terminated on:  23:36:34  22Sep2021

   JOB DONE.