     Program PWSCF v.6.7GPU starts on 24Aug2021 at  6:26:24

     R & G space division:  proc/nbgrp/npool/nimage =       6
     Reading input from /storage/home/hcoda1/3/ntian30/research/carbon/CH_vib/ads_slab/CHNNH3_a/out_0035/pw.inp
Warning: card &CELL ignored
Warning: card   CELL_DYNAMICS='IPI', ignored
Warning: card / ignored

     Current dimensions of program PWSCF are:
     Max number of different atomic species (ntypx) = 10
     Max number of k-points (npk) =  40000
     Max angular momentum in pseudopotentials (lmaxx) =  3
     Presently no symmetry can be used with electric field

     Message from routine cell_base_init:
     DEPRECATED: use true lattice parameter, not A to a.u. conversion factor

     IMPORTANT: XC functional enforced from input :
     Exchange-correlation= BEEF-VDW
                           (   1   4  43  14   2   0   0)
     Any further DFT definition will be discarded
     Please, verify this is what you really want

  @ DRIVER MODE: Connecting to
 qe_1139763_2632800.sched-torque.pace.gatech.edu2ktgx4xf_scratch
  using UNIX socket
  @ DRIVER MODE: Message from server: STATUS
  @ DRIVER MODE: Message from server: INIT
  @ DRIVER MODE: Receiving replica           0          -1
  @ DRIVER MODE: Receiving encoded integer          25
  @ DRIVER MODE:  SCF:  T  FORCE:  T  STRESS:  F  VC:  F  ENSEMBLE:  F
  @ DRIVER MODE:  SCF:  T  FORCE:  T  STRESS:  F  VC:  F  ENSEMBLE:  F

     Using Slab Decomposition

     bravais-lattice index     =            0
     lattice parameter (alat)  =       1.8897  a.u.
     unit-cell volume          =    6658.9804 (a.u.)^3
     number of atoms/cell      =           54
     number of atomic types    =            5
     number of electrons       =       396.00
     number of Kohn-Sham states=          208
     kinetic-energy cutoff     =      29.3995  Ry
     charge density cutoff     =     293.9946  Ry
     scf convergence threshold =      7.3E-08
     mixing beta               =       0.0500
     number of iterations used =            8  plain     mixing
     Exchange-correlation= BEEF-VDW
                           (   1   4  43  14   2   0   0)

     celldm(1)=   1.889726  celldm(2)=   0.000000  celldm(3)=   0.000000
     celldm(4)=   0.000000  celldm(5)=   0.000000  celldm(6)=   0.000000

     crystal axes: (cart. coord. in units of alat)
               a(1) = (   6.579727   0.000000   0.000000 )
               a(2) = (  -0.000775   5.961596   0.000000 )
               a(3) = (   0.000000   0.000000  25.155947 )

     reciprocal axes: (cart. coord. in units 2 pi/alat)
               b(1) = (  0.151982  0.000020  0.000000 )
               b(2) = (  0.000000  0.167740  0.000000 )
               b(3) = (  0.000000  0.000000  0.039752 )

     PseudoPot. # 1 for Ti read from file:
     /storage/coda1/p-amedford6/0/shared/rich_project_chbe-medford/medford-share/data/pseudos_module/espresso/nninc/pbe/van/Ti.UPF
     MD5 check sum: 8e4df49b7f0d34bbd5052bf3f5ea0213
     Pseudo is Ultrasoft, Zval = 12.0
     Generated by new atomic code, or converted to UPF format
     Using radial grid of  851 points,  6 beta functions with:
                l(1) =   0
                l(2) =   0
                l(3) =   1
                l(4) =   1
                l(5) =   2
                l(6) =   2
     Q(r) pseudized with  8 coefficients,  rinner =    1.000   1.000   1.000
                                                       1.000   1.000

     PseudoPot. # 2 for O  read from file:
     /storage/coda1/p-amedford6/0/shared/rich_project_chbe-medford/medford-share/data/pseudos_module/espresso/nninc/pbe/van/O.UPF
     MD5 check sum: 78c19812648e8988a0fe644b0f25305e
     Pseudo is Ultrasoft, Zval =  6.0
     Generated by new atomic code, or converted to UPF format
     Using radial grid of  737 points,  4 beta functions with:
                l(1) =   0
                l(2) =   0
                l(3) =   1
                l(4) =   1
     Q(r) pseudized with  8 coefficients,  rinner =    0.800   0.800   0.800

     PseudoPot. # 3 for N  read from file:
     /storage/coda1/p-amedford6/0/shared/rich_project_chbe-medford/medford-share/data/pseudos_module/espresso/nninc/pbe/van/N.UPF
     MD5 check sum: 90d10febe142ad51ac9d5be1deb811c4
     Pseudo is Ultrasoft, Zval =  5.0
     Generated by new atomic code, or converted to UPF format
     Using radial grid of  729 points,  4 beta functions with:
                l(1) =   0
                l(2) =   0
                l(3) =   1
                l(4) =   1
     Q(r) pseudized with  8 coefficients,  rinner =    0.800   0.800   0.800

     PseudoPot. # 4 for C  read from file:
     /storage/coda1/p-amedford6/0/shared/rich_project_chbe-medford/medford-share/data/pseudos_module/espresso/nninc/pbe/van/C.UPF
     MD5 check sum: 1a69bf6b8db32088f5b2163dbdb77a27
     Pseudo is Ultrasoft, Zval =  4.0
     Generated by new atomic code, or converted to UPF format
     Using radial grid of  721 points,  4 beta functions with:
                l(1) =   0
                l(2) =   0
                l(3) =   1
                l(4) =   1
     Q(r) pseudized with  8 coefficients,  rinner =    0.800   0.800   0.800

     PseudoPot. # 5 for H  read from file:
     /storage/coda1/p-amedford6/0/shared/rich_project_chbe-medford/medford-share/data/pseudos_module/espresso/nninc/pbe/van/H.UPF
     MD5 check sum: b5ee9d7bfd3a09ee7748110bda690ff7
     Pseudo is Ultrasoft, Zval =  1.0
     Generated by new atomic code, or converted to UPF format
     Using radial grid of  615 points,  1 beta functions with:
                l(1) =   0
     Q(r) pseudized with  8 coefficients,  rinner =    0.800

     atomic species   valence    mass     pseudopotential
        Ti1           12.00    47.86700     Ti( 1.00)
        O1             6.00    15.99900     O ( 1.00)
        N1             5.00    14.00700     N ( 1.00)
        C1             4.00    12.01100     C ( 1.00)
        H1             1.00     1.00800     H ( 1.00)

     No symmetry found

   Cartesian axes

     site n.     atom                  positions (alat units)
         1           Ti1 tau(   1) = (   0.0004258   2.9801865   6.0000000  )
         2           Ti1 tau(   2) = (   3.2906075   1.4906267   6.0002472  )
         3           O1  tau(   3) = (   0.0006271   0.0005054   7.9858123  )
         4           O1  tau(   4) = (   3.2906025   0.0005020   7.3038282  )
         5           O1  tau(   5) = (   4.5942328   1.4918067   9.2879030  )
         6           O1  tau(   6) = (   1.9868534   1.4903216   9.2879459  )
         7           Ti1 tau(   7) = (   3.2907910   2.8959150   9.1758416  )
         8           Ti1 tau(   8) = (   0.0015273   1.4827037   9.2680791  )
         9           O1  tau(   9) = (   3.2881108   5.9505233  11.3735460  )
        10           O1  tau(  10) = (   0.0116148   5.9584955  10.6183126  )
        11           O1  tau(  11) = (   1.2866665   1.4805866  12.6825740  )
        12           O1  tau(  12) = (   5.2924821   1.4818622  12.6792165  )
        13           Ti1 tau(  13) = (   0.0021322   2.9639872  12.5157261  )
        14           Ti1 tau(  14) = (   3.2862601   1.4710115  12.5283183  )
        15           O1  tau(  15) = (   6.5551702   5.8950557  14.7042857  )
        16           O1  tau(  16) = (   3.2890300   5.9388001  13.9877656  )
        17           O1  tau(  17) = (   4.5349758   1.4880922  16.1718967  )
        18           O1  tau(  18) = (   2.0258431   1.4790072  16.1496753  )
        19           Ti1 tau(  19) = (   3.2732025   2.9690136  15.7622034  )
        20           Ti1 tau(  20) = (   6.5610264   1.3286824  15.8731419  )
        21           O1  tau(  21) = (   3.2904802   0.0005063   4.7018136  )
        22           O1  tau(  22) = (   6.5785393   0.0648448  17.2431192  )
        23           O1  tau(  23) = (   1.3043587   1.4918075   6.0039043  )
        24           O1  tau(  24) = (   5.2767064   1.4903225   6.0039473  )
        25           Ti1 tau(  25) = (   0.0000382   5.9609847   6.0000000  )
        26           Ti1 tau(  26) = (   3.2902200   4.4714249   6.0002472  )
        27           O1  tau(  27) = (   0.0002396   2.9813036   7.9858123  )
        28           O1  tau(  28) = (   3.2902150   2.9813002   7.3038282  )
        29           O1  tau(  29) = (   4.5938453   4.4726049   9.2879030  )
        30           O1  tau(  30) = (   1.9864658   4.4711199   9.2879459  )
        31           Ti1 tau(  31) = (   3.2891106   5.8743827   9.1763621  )
        32           Ti1 tau(  32) = (   0.0006254   4.4649316   9.2693709  )
        33           O1  tau(  33) = (   3.2883663   2.9615298  11.3703760  )
        34           O1  tau(  34) = (   0.0092240   2.9805883  10.6323155  )
        35           O1  tau(  35) = (   1.2870507   4.4533538  12.6624524  )
        36           O1  tau(  36) = (   5.2892318   4.4513974  12.6520950  )
        37           Ti1 tau(  37) = (   6.5724215   5.9362995  12.5032772  )
        38           Ti1 tau(  38) = (   3.2850067   4.4496593  12.5237361  )
        39           O1  tau(  39) = (   6.5755915   2.9911963  14.9688396  )
        40           O1  tau(  40) = (   3.2879019   2.9755095  13.9706832  )
        41           O1  tau(  41) = (   4.5370027   4.4458050  16.2043726  )
        42           O1  tau(  42) = (   2.0318725   4.4540161  16.1993262  )
        43           Ti1 tau(  43) = (   3.2771836   5.9440081  15.7837661  )
        44           Ti1 tau(  44) = (   6.5399960   4.5546841  16.0715688  )
        45           O1  tau(  45) = (   3.2900926   2.9813045   4.7018136  )
        46           O1  tau(  46) = (   1.3039711   4.4726057   6.0039043  )
        47           O1  tau(  47) = (   5.2763189   4.4711207   6.0039473  )
        48           N1  tau(  48) = (   0.1065663   3.2111123  17.9981644  )
        49           C1  tau(  49) = (   0.5134299   2.5375629  18.8400175  )
        50           H1  tau(  50) = (   1.0173682   1.8396193  19.5020221  )
        51           N1  tau(  51) = (   2.4304062   0.3108210  19.4519584  )
        52           H1  tau(  52) = (   3.2527645   0.6626300  18.9680575  )
        53           H1  tau(  53) = (   1.8610457   5.7841108  18.7510151  )
        54           H1  tau(  54) = (   2.7602249   5.5844085  20.1185638  )

     number of k points=    10  Fermi-Dirac smearing, width (Ry)=  0.0073
                       cart. coord. in units 2pi/alat
        k(    1) = (   0.0000000   0.0000000   0.0000000), wk =   0.1250000
        k(    2) = (   0.0000000   0.0419351   0.0000000), wk =   0.2500000
        k(    3) = (   0.0000000  -0.0838702   0.0000000), wk =   0.1250000
        k(    4) = (   0.0379955   0.0000049   0.0000000), wk =   0.2500000
        k(    5) = (   0.0379955   0.0419400   0.0000000), wk =   0.2500000
        k(    6) = (   0.0379955  -0.0838652   0.0000000), wk =   0.2500000
        k(    7) = (   0.0379955  -0.0419301   0.0000000), wk =   0.2500000
        k(    8) = (  -0.0759910  -0.0000099   0.0000000), wk =   0.1250000
        k(    9) = (  -0.0759910   0.0419252   0.0000000), wk =   0.2500000
        k(   10) = (  -0.0759910  -0.0838800   0.0000000), wk =   0.1250000

     Initial potential from superposition of free atoms

     starting charge  379.99915, renormalised to  396.00000

     negative rho (up, down):  1.529E-02 0.000E+00

     %%%%%%%%%%%%%%%%%%%%%%%%%%%%%%%%%%%%%%%%%%%%%%%%%%%%%%%%%%%%%%%%%%%%%%%%
     %                                                                      %
     % You are using vdW-DF, which was implemented by the Thonhauser group. %
     % Please cite the following two papers that made this development      %
     % possible and the two reviews that describe the various versions:     %
     %                                                                      %
     %   T. Thonhauser et al., PRL 115, 136402 (2015).                      %
     %   T. Thonhauser et al., PRB 76, 125112 (2007).                       %
     %   K. Berland et al., Rep. Prog. Phys. 78, 066501 (2015).             %
     %   D.C. Langreth et al., J. Phys.: Condens. Matter 21, 084203 (2009). %
     %                                                                      %
     %                                                                      %
     % If you are calculating the stress with vdW-DF, please also cite:     %
     %                                                                      %
     %   R. Sabatini et al., J. Phys.: Condens. Matter 24, 424209 (2012).   %
     %                                                                      %
     %%%%%%%%%%%%%%%%%%%%%%%%%%%%%%%%%%%%%%%%%%%%%%%%%%%%%%%%%%%%%%%%%%%%%%%%

     Adding external electric field

     Computed dipole along edir(3) :
        Dipole              -10.2009 Ry au,        -25.9280 Debye
        Dipole field         -0.0193 Ry au,

        Potential amp.        1.7845 Ry
        Total length         46.3494 bohr

     Starting wfcs are  300 atomic wfcs
  @ DRIVER MODE: Message from server: STATUS
  @ DRIVER MODE: Message from server: POSDATA
  @ DRIVER MODE: Reading and sharing cell
  @ DRIVER MODE: Reading and sharing positions
  @ DRIVER MODE: Received positions

     Self-consistent Calculation

     iteration #  1     ecut=    29.40 Ry     beta= 0.05
     Davidson diagonalization with overlap
     c_bands:  1 eigenvalues not converged
     c_bands:  2 eigenvalues not converged
     c_bands:  2 eigenvalues not converged
     c_bands:  1 eigenvalues not converged
     c_bands:  2 eigenvalues not converged
     c_bands:  2 eigenvalues not converged
     c_bands:  2 eigenvalues not converged
     c_bands:  3 eigenvalues not converged
     c_bands:  2 eigenvalues not converged
     c_bands:  1 eigenvalues not converged
     ethr =  1.00E-05,  avg # of iterations = 20.0

[...]

     total energy              =   -2542.44306097 Ry
     estimated scf accuracy    <    4466.61254869 Ry

     iteration #  2     ecut=    29.40 Ry     beta= 0.05
     Davidson diagonalization with overlap
     ethr =  1.00E-02,  avg # of iterations = 27.3

[...]

     iteration # 58     ecut=    29.40 Ry     beta= 0.05
     Davidson diagonalization with overlap
     c_bands:  1 eigenvalues not converged
     ethr =  2.56E-08,  avg # of iterations =  6.1

[...]

     total energy              =   -2940.42010622 Ry
     estimated scf accuracy    <       0.00000012 Ry

     iteration # 73     ecut=    29.40 Ry     beta= 0.05
     Davidson diagonalization with overlap
     ethr =  2.93E-11,  avg # of iterations =  5.5

     negative rho (up, down):  1.581E-02 0.000E+00

     Adding external electric field

     Computed dipole along edir(3) :
        Dipole                1.3048 Ry au,          3.3165 Debye
        Dipole field          0.0025 Ry au,

        Potential amp.       -0.2283 Ry
        Total length         46.3494 bohr

     End of self-consistent calculation

          k = 0.0000 0.0000 0.0000 ( 18029 PWs)   bands (ev):

   -55.3732 -55.3372 -55.3249 -55.2908 -55.2495 -55.2440 -55.2192 -55.2148
   -55.1907 -55.1740 -55.1563 -55.1544 -55.1207 -55.0901 -54.3525 -54.3184
   -31.9408 -31.8172 -31.8074 -31.7375 -31.6834 -31.6802 -31.6728 -31.6596
   -31.6139 -31.6042 -31.5817 -31.5738 -31.5696 -31.5430 -31.5281 -31.5224
   -31.5095 -31.4986 -31.4878 -31.4857 -31.4774 -31.4631 -31.4386 -31.4278
   -31.4276 -31.4211 -31.3936 -31.3931 -31.3821 -31.3802 -31.3724 -31.3534
   -31.3517 -31.3463 -31.3405 -31.3383 -31.3045 -31.2914 -31.2885 -31.2824
   -31.2653 -31.2140 -30.7618 -30.6678 -30.6457 -30.5782 -30.4914 -30.3805
   -16.9948 -16.1946 -15.9269 -15.7795 -15.6678 -15.5681 -15.4450 -15.4258
   -15.2948 -15.2068 -15.0869 -15.0427 -15.0201 -15.0065 -14.9914 -14.9854
   -14.9136 -14.9086 -14.8837 -14.8651 -14.8540 -14.8442 -14.8092 -14.8073
   -14.7670 -14.7464 -14.6967 -14.6091 -14.5278 -14.4588 -14.1660 -12.8552
   -12.7378  -8.1791  -4.9936  -4.8494  -4.3198  -3.5352  -3.3857  -3.2888
    -3.2698  -3.2643  -3.1208  -3.0699  -2.9647  -2.8775  -2.7634  -2.7002
    -2.6253  -2.5736  -2.5597  -2.5416  -2.3656  -2.3328  -2.2900  -2.2436
    -2.2121  -2.1779  -2.1567  -2.1294  -2.1167  -2.1102  -2.0774  -1.9334
    -1.8927  -1.8428  -1.7922  -1.7688  -1.7126  -1.6947  -1.6579  -1.6515
    -1.6462  -1.6007  -1.5820  -1.5521  -1.4608  -1.3932  -1.2785  -1.2203
    -1.0794  -1.0080  -0.9537  -0.9399  -0.8584  -0.8552  -0.8282  -0.7502
    -0.7432  -0.7104  -0.5894  -0.4908  -0.4539  -0.4029  -0.3543  -0.3258
    -0.2839  -0.1988  -0.1482  -0.1352  -0.1253  -0.0237   0.0233   0.0350
     0.1096   0.1552   0.1719   0.1771   0.2912   0.3050   0.3713   0.4201
     0.4497   0.5186   0.5667   0.5712   0.5812   0.6160   0.6178   0.7090
     0.7302   0.7389   0.8133   0.9587   1.1779   1.2349   1.2429   1.5766
     1.5789   1.6701   1.8539   2.2460   2.2942   3.7256   3.7976   3.8710
     3.8777   3.9026   3.9634   4.2021   4.2059   4.2294   4.2312   4.2597

[...]

          k = 0.0380-0.0419 0.0000 ( 17876 PWs)   bands (ev):

[...]

          k =-0.0760-0.0000 0.0000 ( 17886 PWs)   bands (ev):

[...]

          k =-0.0760-0.0839 0.0000 ( 17948 PWs)   bands (ev):

   -55.3566 -55.3536 -55.3080 -55.3075 -55.2392 -55.2347 -55.2295 -55.2168
   -55.1783 -55.1744 -55.1722 -55.1380 -55.1373 -55.0926 -54.3355 -54.3353
   -31.7456 -31.7432 -31.7278 -31.6489 -31.6324 -31.6320 -31.6270 -31.5993
   -31.5991 -31.5798 -31.5732 -31.5688 -31.5602 -31.5125 -31.5075 -31.5056
   -31.5042 -31.5038 -31.4980 -31.4931 -31.4714 -31.4675 -31.4470 -31.4454
   -31.4443 -31.4396 -31.4282 -31.4277 -31.4273 -31.4219 -31.4072 -31.4051
   -31.4021 -31.3876 -31.3851 -31.3695 -31.3669 -31.3666 -31.3186 -31.3180
   -31.3056 -31.2966 -30.6585 -30.6582 -30.5744 -30.5742 -30.5349 -30.5347
   -16.9871 -15.7005 -15.5984 -15.5798 -15.3878 -15.3714 -15.3400 -15.3359
   -15.1842 -15.1549 -15.1472 -15.1297 -15.0814 -15.0733 -15.0678 -15.0560
   -14.9770 -14.9661 -14.9639 -14.9468 -14.8858 -14.8758 -14.8728 -14.8630
   -14.8456 -14.8205 -14.8169 -14.7232 -14.7202 -14.6353 -14.5287 -12.8394
   -12.8393  -8.1809  -4.9893  -4.8512  -4.3213  -2.9952  -2.8951  -2.8552
    -2.8439  -2.8047  -2.5997  -2.5675  -2.5391  -2.4823  -2.4148  -2.3732
    -2.3629  -2.3428  -2.2832  -2.2347  -2.2301  -2.2121  -2.1919  -2.1901
    -2.1666  -2.1393  -2.0991  -2.0890  -2.0698  -2.0517  -2.0229  -2.0035
    -1.9750  -1.9565  -1.9344  -1.9278  -1.8187  -1.8049  -1.7285  -1.6944
    -1.6384  -1.5750  -1.5699  -1.4726  -1.4653  -1.4085  -1.3991  -1.3823
    -1.2634  -1.1781  -1.1237  -1.1126  -1.1051  -0.9941  -0.9434  -0.9133
    -0.8787  -0.8554  -0.7773  -0.7140  -0.6939  -0.6535  -0.5780  -0.5679
    -0.5083  -0.3952  -0.3654  -0.3446  -0.3274  -0.3218  -0.2681  -0.2563
    -0.1834  -0.1374  -0.1035  -0.0930  -0.0575  -0.0174   0.1534   0.1655
     0.2059   0.3209   0.3804   0.4943   0.5689   0.5836   0.6633   0.6980
     0.7416   0.8021   0.8925   0.9347   0.9393   1.0180   1.0436   1.0861
     1.0943   2.0271   2.0274   2.1141   2.1143   3.8636   3.9771   3.9867
     4.0333   4.1335   4.1581   4.2450   4.2641   4.3111   4.3133   4.3822

     the Fermi energy is     3.7882 ev

!    total energy              =   -2940.42011701 Ry
     estimated scf accuracy    <       0.00000003 Ry
     smearing contrib. (-TS)   =      -0.03734133 Ry
     internal energy E=F+TS    =   -2940.38277568 Ry

     The total energy is F=E-TS. E is the sum of the following terms:
     one-electron contribution =  -23617.70088068 Ry
     hartree contribution      =   11900.67186192 Ry
     xc contribution           =    -485.96878159 Ry
     ewald contribution        =    9262.61181170 Ry
     electric field correction =       0.00321298 Ry

     convergence has been achieved in  73 iterations

     Forces acting on atoms (cartesian axes, Ry/au):

     atom    1 type  1   force =     0.00014213   -0.00014687    0.09349661
     atom    2 type  1   force =    -0.00005334   -0.00032898   -0.17809092
     atom    3 type  2   force =     0.00009626   -0.00032796   -0.02051284
     atom    4 type  2   force =     0.00002634   -0.00189924    0.05841859
     atom    5 type  2   force =    -0.01038677   -0.00109026    0.00772125
     atom    6 type  2   force =     0.01183985   -0.00048045    0.00667434
     atom    7 type  1   force =    -0.00029291    0.00213967   -0.01417820
     atom    8 type  1   force =     0.00033090    0.00049905   -0.00326656
     atom    9 type  2   force =    -0.00006677    0.00009166   -0.00000867
     atom   10 type  2   force =    -0.00246777    0.00082560    0.00005683
     atom   11 type  2   force =    -0.00018098   -0.00029108    0.00029100
     atom   12 type  2   force =    -0.00011378   -0.00014343   -0.00057171
     atom   13 type  1   force =    -0.00001787   -0.00006947   -0.00002091
     atom   14 type  1   force =     0.00009206    0.00018227    0.00006425
     atom   15 type  2   force =     0.00029764    0.00005627   -0.00024658
     atom   16 type  2   force =     0.00027861   -0.00000820   -0.00005624
     atom   17 type  2   force =     0.00016990   -0.00016304   -0.00052295
     atom   18 type  2   force =     0.00021751    0.00031565   -0.00007080
     atom   19 type  1   force =    -0.00000071    0.00003497   -0.00004765
     atom   20 type  1   force =    -0.00065496    0.00041433   -0.00025401
     atom   21 type  2   force =     0.00010229    0.00000297    0.10391715
     atom   22 type  2   force =     0.00050437    0.00043538    0.00008631
     atom   23 type  2   force =    -0.07040048   -0.00012081   -0.02693596
     atom   24 type  2   force =     0.07037916    0.00034615   -0.02698319
     atom   25 type  1   force =     0.00020558   -0.00016181    0.09278170
     atom   26 type  1   force =    -0.00009567   -0.00029996   -0.17829179
     atom   27 type  2   force =     0.00012949   -0.00024209   -0.01951267
     atom   28 type  2   force =     0.00007406   -0.00167690    0.05799748
     atom   29 type  2   force =    -0.01080518   -0.00121916    0.00799437
     atom   30 type  2   force =     0.01214678   -0.00083499    0.00703311
     atom   31 type  1   force =    -0.00034937    0.00574524   -0.01493405
     atom   32 type  1   force =     0.00039190   -0.00107098   -0.00339111
     atom   33 type  2   force =    -0.00030817    0.00005444   -0.00019247
     atom   34 type  2   force =    -0.00155362   -0.00230379    0.00038409
     atom   35 type  2   force =    -0.00008514    0.00014167   -0.00004225
     atom   36 type  2   force =     0.00010403    0.00010777    0.00011416
     atom   37 type  1   force =     0.00024617   -0.00002387   -0.00006210
     atom   38 type  1   force =     0.00004831    0.00013450   -0.00016151
     atom   39 type  2   force =     0.00011251    0.00018128    0.00010074
     atom   40 type  2   force =     0.00014109    0.00001642   -0.00003450
     atom   41 type  2   force =    -0.00002412    0.00018850    0.00000652
     atom   42 type  2   force =     0.00038314    0.00003965    0.00019726
     atom   43 type  1   force =    -0.00020472    0.00023482    0.00025574
     atom   44 type  1   force =    -0.00026379   -0.00035755   -0.00014494
     atom   45 type  2   force =     0.00009771   -0.00002220    0.10383593
     atom   46 type  2   force =    -0.07040011   -0.00004216   -0.02691643
     atom   47 type  2   force =     0.07035322    0.00037435   -0.02694502
     atom   48 type  3   force =    -0.00099619    0.00056767   -0.00003799
     atom   49 type  4   force =     0.00056312    0.00044633    0.00006379
     atom   50 type  5   force =     0.00024626   -0.00036753   -0.00000521
     atom   51 type  3   force =    -0.00674008   -0.00318967   -0.00843055
     atom   52 type  5   force =     0.00077403    0.00000920    0.00027753
     atom   53 type  5   force =     0.00625016    0.00521392    0.00845829
     atom   54 type  5   force =    -0.00028211   -0.00191732    0.00064269

     Total force =     0.366399     Total SCF correction =     0.000382
  @ DRIVER MODE: Message from server: STATUS
  @ DRIVER MODE: Message from server: GETFORCE
  @ DRIVER MODE: Returning v,forces,stress,ensemble

     Writing output data file ./calc.save/
  @ DRIVER MODE: Message from server: EXIT
  @ DRIVE MODE: Exiting

     General routines

     Parallel routines

   This run was terminated on:   6:56:39  24Aug2021

   JOB DONE.