     Program PWSCF v.6.7GPU starts on 23Sep2021 at 15:27: 7

     R & G space division:  proc/nbgrp/npool/nimage =       8
     Reading input from /storage/home/hcoda1/3/ntian30/research/carbon/CxH_vib/H2O_calc/ads_slab/CH3NNHHHHO_a/out_0012/pw.inp
Warning: card &CELL ignored
Warning: card   CELL_DYNAMICS='IPI', ignored
Warning: card / ignored

     Current dimensions of program PWSCF are:
     Max number of different atomic species (ntypx) = 10
     Max number of k-points (npk) =  40000
     Max angular momentum in pseudopotentials (lmaxx) =  3
     Presently no symmetry can be used with electric field

     Message from routine cell_base_init:
     DEPRECATED: use true lattice parameter, not A to a.u. conversion factor

     IMPORTANT: XC functional enforced from input :
     Exchange-correlation= BEEF-VDW
                           (   1   4  43  14   2   0   0)
     Any further DFT definition will be discarded
     Please, verify this is what you really want

  @ DRIVER MODE: Connecting to
 qe_1139763_2947308.sched-torque.pace.gatech.eduv9_rx03c_scratch
  using UNIX socket
  @ DRIVER MODE: Message from server: STATUS
  @ DRIVER MODE: Message from server: INIT
  @ DRIVER MODE: Receiving replica           0          -1
  @ DRIVER MODE: Receiving encoded integer          25
  @ DRIVER MODE:  SCF:  T  FORCE:  T  STRESS:  F  VC:  F  ENSEMBLE:  F
  @ DRIVER MODE:  SCF:  T  FORCE:  T  STRESS:  F  VC:  F  ENSEMBLE:  F

     Using Slab Decomposition

     bravais-lattice index     =            0
     lattice parameter (alat)  =       1.8897  a.u.
     unit-cell volume          =    6658.9804 (a.u.)^3
     number of atoms/cell      =           58
     number of atomic types    =            5
     number of electrons       =       405.00
     number of Kohn-Sham states=          212
     kinetic-energy cutoff     =      29.3995  Ry
     charge density cutoff     =     293.9946  Ry
     scf convergence threshold =      7.3E-08
     mixing beta               =       0.0500
     number of iterations used =            8  plain     mixing
     Exchange-correlation= BEEF-VDW
                           (   1   4  43  14   2   0   0)

     celldm(1)=   1.889726  celldm(2)=   0.000000  celldm(3)=   0.000000
     celldm(4)=   0.000000  celldm(5)=   0.000000  celldm(6)=   0.000000

     crystal axes: (cart. coord. in units of alat)
               a(1) = (   6.579727   0.000000   0.000000 )
               a(2) = (  -0.000775   5.961596   0.000000 )
               a(3) = (   0.000000   0.000000  25.155947 )

     reciprocal axes: (cart. coord. in units 2 pi/alat)
               b(1) = (  0.151982  0.000020  0.000000 )
               b(2) = (  0.000000  0.167740  0.000000 )
               b(3) = (  0.000000  0.000000  0.039752 )

     PseudoPot. # 1 for Ti read from file:
     /storage/coda1/p-amedford6/0/shared/rich_project_chbe-medford/medford-share/data/pseudos_module/espresso/nninc/pbe/van/Ti.UPF
     MD5 check sum: 8e4df49b7f0d34bbd5052bf3f5ea0213
     Pseudo is Ultrasoft, Zval = 12.0
     Generated by new atomic code, or converted to UPF format
     Using radial grid of  851 points,  6 beta functions with:
                l(1) =   0
                l(2) =   0
                l(3) =   1
                l(4) =   1
                l(5) =   2
                l(6) =   2
     Q(r) pseudized with  8 coefficients,  rinner =    1.000   1.000   1.000
                                                       1.000   1.000

     PseudoPot. # 2 for O  read from file:
     /storage/coda1/p-amedford6/0/shared/rich_project_chbe-medford/medford-share/data/pseudos_module/espresso/nninc/pbe/van/O.UPF
     MD5 check sum: 78c19812648e8988a0fe644b0f25305e
     Pseudo is Ultrasoft, Zval =  6.0
     Generated by new atomic code, or converted to UPF format
     Using radial grid of  737 points,  4 beta functions with:
                l(1) =   0
                l(2) =   0
                l(3) =   1
                l(4) =   1
     Q(r) pseudized with  8 coefficients,  rinner =    0.800   0.800   0.800

     PseudoPot. # 3 for N  read from file:
     /storage/coda1/p-amedford6/0/shared/rich_project_chbe-medford/medford-share/data/pseudos_module/espresso/nninc/pbe/van/N.UPF
     MD5 check sum: 90d10febe142ad51ac9d5be1deb811c4
     Pseudo is Ultrasoft, Zval =  5.0
     Generated by new atomic code, or converted to UPF format
     Using radial grid of  729 points,  4 beta functions with:
                l(1) =   0
                l(2) =   0
                l(3) =   1
                l(4) =   1
     Q(r) pseudized with  8 coefficients,  rinner =    0.800   0.800   0.800

     PseudoPot. # 4 for C  read from file:
     /storage/coda1/p-amedford6/0/shared/rich_project_chbe-medford/medford-share/data/pseudos_module/espresso/nninc/pbe/van/C.UPF
     MD5 check sum: 1a69bf6b8db32088f5b2163dbdb77a27
     Pseudo is Ultrasoft, Zval =  4.0
     Generated by new atomic code, or converted to UPF format
     Using radial grid of  721 points,  4 beta functions with:
                l(1) =   0
                l(2) =   0
                l(3) =   1
                l(4) =   1
     Q(r) pseudized with  8 coefficients,  rinner =    0.800   0.800   0.800

     PseudoPot. # 5 for H  read from file:
     /storage/coda1/p-amedford6/0/shared/rich_project_chbe-medford/medford-share/data/pseudos_module/espresso/nninc/pbe/van/H.UPF
     MD5 check sum: b5ee9d7bfd3a09ee7748110bda690ff7
     Pseudo is Ultrasoft, Zval =  1.0
     Generated by new atomic code, or converted to UPF format
     Using radial grid of  615 points,  1 beta functions with:
                l(1) =   0
     Q(r) pseudized with  8 coefficients,  rinner =    0.800

     atomic species   valence    mass     pseudopotential
        Ti1           12.00    47.86700     Ti( 1.00)
        O1             6.00    15.99900     O ( 1.00)
        N1             5.00    14.00700     N ( 1.00)
        C1             4.00    12.01100     C ( 1.00)
        H1             1.00     1.00800     H ( 1.00)

     No symmetry found

   Cartesian axes

     site n.     atom                  positions (alat units)
         1           Ti1 tau(   1) = (   0.0004258   2.9801865   6.0000000  )
         2           Ti1 tau(   2) = (   3.2906075   1.4906267   6.0002472  )
         3           O1  tau(   3) = (   0.0006271   0.0005054   7.9858123  )
         4           O1  tau(   4) = (   3.2906025   0.0005020   7.3038282  )
         5           O1  tau(   5) = (   4.5942328   1.4918067   9.2879030  )
         6           O1  tau(   6) = (   1.9868534   1.4903216   9.2879459  )
         7           Ti1 tau(   7) = (   3.2907910   2.8959150   9.1758416  )
         8           Ti1 tau(   8) = (   0.0015273   1.4827037   9.2680791  )
         9           O1  tau(   9) = (   3.3066316   0.0080679  11.3583267  )
        10           O1  tau(  10) = (   0.0116148   5.9584955  10.6183126  )
        11           O1  tau(  11) = (   1.3000076   1.5005770  12.6434233  )
        12           O1  tau(  12) = (   5.3281586   1.4930334  12.6431679  )
        13           Ti1 tau(  13) = (   0.0126194   3.0144704  12.5166071  )
        14           Ti1 tau(  14) = (   3.3185830   1.5708444  12.4374219  )
        15           O1  tau(  15) = (   0.0449490   0.0685618  14.6579901  )
        16           O1  tau(  16) = (   3.3164028   5.8986079  13.9921319  )
        17           O1  tau(  17) = (   4.5763498   1.4919541  16.1892649  )
        18           O1  tau(  18) = (   2.0390356   1.5007807  16.1677599  )
        19           Ti1 tau(  19) = (   3.3152479   2.9236451  15.6986563  )
        20           Ti1 tau(  20) = (   0.0808212   1.4292116  16.0039943  )
        21           O1  tau(  21) = (   3.2904802   0.0005063   4.7018136  )
        22           O1  tau(  22) = (   0.0303022   5.8046116  17.1736243  )
        23           O1  tau(  23) = (   1.3043587   1.4918075   6.0039043  )
        24           O1  tau(  24) = (   5.2767064   1.4903225   6.0039473  )
        25           Ti1 tau(  25) = (   0.0000382   5.9609847   6.0000000  )
        26           Ti1 tau(  26) = (   3.2902200   4.4714249   6.0002472  )
        27           O1  tau(  27) = (   0.0002396   2.9813036   7.9858123  )
        28           O1  tau(  28) = (   3.2902150   2.9813002   7.3038282  )
        29           O1  tau(  29) = (   4.5938453   4.4726049   9.2879030  )
        30           O1  tau(  30) = (   1.9864658   4.4711199   9.2879459  )
        31           Ti1 tau(  31) = (   3.2891106   5.8743827   9.1763621  )
        32           Ti1 tau(  32) = (   0.0006254   4.4649316   9.2693709  )
        33           O1  tau(  33) = (   3.3101163   2.9547251  11.3177968  )
        34           O1  tau(  34) = (   0.0092240   2.9805883  10.6323155  )
        35           O1  tau(  35) = (   1.2917786   4.4638488  12.6831265  )
        36           O1  tau(  36) = (   5.3332004   4.4701953  12.6833355  )
        37           Ti1 tau(  37) = (   0.0360484   0.0435164  12.5022323  )
        38           Ti1 tau(  38) = (   3.3166134   4.6596848  12.7231989  )
        39           O1  tau(  39) = (   6.5734590   2.9070644  14.8960501  )
        40           O1  tau(  40) = (   3.3256711   2.9499323  13.9293234  )
        41           O1  tau(  41) = (   4.5718193   4.3849529  16.1598725  )
        42           O1  tau(  42) = (   2.0293811   4.3548050  16.0908550  )
        43           Ti1 tau(  43) = (   3.3839698   5.9011270  16.3477160  )
        44           Ti1 tau(  44) = (   0.0762916   4.6312412  15.8077656  )
        45           O1  tau(  45) = (   3.2900926   2.9813045   4.7018136  )
        46           O1  tau(  46) = (   1.3039711   4.4726057   6.0039043  )
        47           O1  tau(  47) = (   5.2763189   4.4711207   6.0039473  )
        48           N1  tau(  48) = (   1.0338470   3.0145746  18.8549854  )
        49           N1  tau(  49) = (   6.4614719   2.5758313  18.1022931  )
        50           C1  tau(  50) = (   0.6385090   3.7489381  20.0602371  )
        51           H1  tau(  51) = (   6.5128770   4.5633600  19.8465500  )
        52           H1  tau(  52) = (   0.1876125   3.0656416  20.7809517  )
        53           H1  tau(  53) = (   1.5398112   4.1767214  20.4987412  )
        54           H1  tau(  54) = (   5.7034478   3.2665398  18.1448723  )
        55           H1  tau(  55) = (   6.1095767   1.7263867  18.5341855  )
        56           H1  tau(  56) = (   1.5400177   3.6533120  18.2466354  )
        57           O1  tau(  57) = (   3.2295176   5.8880611  18.1942677  )
        58           H1  tau(  58) = (   2.6769533   0.6239085  18.5854980  )

     number of k points=    10  Fermi-Dirac smearing, width (Ry)=  0.0073
                       cart. coord. in units 2pi/alat
        k(    1) = (   0.0000000   0.0000000   0.0000000), wk =   0.1250000
        k(    2) = (   0.0000000   0.0419351   0.0000000), wk =   0.2500000
        k(    3) = (   0.0000000  -0.0838702   0.0000000), wk =   0.1250000
        k(    4) = (   0.0379955   0.0000049   0.0000000), wk =   0.2500000
        k(    5) = (   0.0379955   0.0419400   0.0000000), wk =   0.2500000
        k(    6) = (   0.0379955  -0.0838652   0.0000000), wk =   0.2500000
        k(    7) = (   0.0379955  -0.0419301   0.0000000), wk =   0.2500000
        k(    8) = (  -0.0759910  -0.0000099   0.0000000), wk =   0.1250000
        k(    9) = (  -0.0759910   0.0419252   0.0000000), wk =   0.2500000
        k(   10) = (  -0.0759910  -0.0838800   0.0000000), wk =   0.1250000

     Initial potential from superposition of free atoms

     starting charge  388.99913, renormalised to  405.00000

     negative rho (up, down):  1.325E-02 0.000E+00

     %%%%%%%%%%%%%%%%%%%%%%%%%%%%%%%%%%%%%%%%%%%%%%%%%%%%%%%%%%%%%%%%%%%%%%%%
     %                                                                      %
     % You are using vdW-DF, which was implemented by the Thonhauser group. %
     % Please cite the following two papers that made this development      %
     % possible and the two reviews that describe the various versions:     %
     %                                                                      %
     %   T. Thonhauser et al., PRL 115, 136402 (2015).                      %
     %   T. Thonhauser et al., PRB 76, 125112 (2007).                       %
     %   K. Berland et al., Rep. Prog. Phys. 78, 066501 (2015).             %
     %   D.C. Langreth et al., J. Phys.: Condens. Matter 21, 084203 (2009). %
     %                                                                      %
     %                                                                      %
     % If you are calculating the stress with vdW-DF, please also cite:     %
     %                                                                      %
     %   R. Sabatini et al., J. Phys.: Condens. Matter 24, 424209 (2012).   %
     %                                                                      %
     %%%%%%%%%%%%%%%%%%%%%%%%%%%%%%%%%%%%%%%%%%%%%%%%%%%%%%%%%%%%%%%%%%%%%%%%

     Adding external electric field

     Computed dipole along edir(3) :
        Dipole              -14.7690 Ry au,        -37.5391 Debye
        Dipole field         -0.0279 Ry au,

        Potential amp.        2.5836 Ry
        Total length         46.3494 bohr

     Starting wfcs are  307 atomic wfcs
  @ DRIVER MODE: Message from server: STATUS
  @ DRIVER MODE: Message from server: POSDATA
  @ DRIVER MODE: Reading and sharing cell
  @ DRIVER MODE: Reading and sharing positions
  @ DRIVER MODE: Received positions

     Self-consistent Calculation

     iteration #  1     ecut=    29.40 Ry     beta= 0.05
     Davidson diagonalization with overlap
     c_bands:  3 eigenvalues not converged
     c_bands:  4 eigenvalues not converged
     c_bands:  2 eigenvalues not converged
     c_bands:  3 eigenvalues not converged
     c_bands:  3 eigenvalues not converged
     c_bands:  3 eigenvalues not converged
     ethr =  1.00E-05,  avg # of iterations = 23.2

[...]

     total energy              =   -2204.18989106 Ry
     estimated scf accuracy    <    8786.43600479 Ry

     iteration #  2     ecut=    29.40 Ry     beta= 0.05
     Davidson diagonalization with overlap
     ethr =  1.00E-02,  avg # of iterations = 28.9

[...]

     iteration # 62     ecut=    29.40 Ry     beta= 0.05
     Davidson diagonalization with overlap
     c_bands:  1 eigenvalues not converged
     c_bands:  1 eigenvalues not converged
     ethr =  1.09E-10,  avg # of iterations = 16.1

[...]

     total energy              =   -2976.49814537 Ry
     estimated scf accuracy    <       0.00000014 Ry

     iteration # 66     ecut=    29.40 Ry     beta= 0.05
     Davidson diagonalization with overlap
     ethr =  3.53E-11,  avg # of iterations =  5.3

     negative rho (up, down):  1.444E-02 0.000E+00

     Adding external electric field

     Computed dipole along edir(3) :
        Dipole                0.9869 Ry au,          2.5086 Debye
        Dipole field          0.0019 Ry au,

        Potential amp.       -0.1727 Ry
        Total length         46.3494 bohr

     End of self-consistent calculation

          k = 0.0000 0.0000 0.0000 ( 18029 PWs)   bands (ev):

   -55.5855 -55.5026 -55.4685 -55.3688 -55.3465 -55.3305 -55.3166 -55.3101
   -55.2967 -55.2670 -55.2233 -55.1013 -55.0904 -55.0133 -54.4718 -54.4377
   -31.9871 -31.9222 -31.8823 -31.8341 -31.8325 -31.8128 -31.8023 -31.7935
   -31.7535 -31.7485 -31.7304 -31.6552 -31.6318 -31.6110 -31.6091 -31.6071
   -31.6016 -31.5898 -31.5874 -31.5602 -31.5540 -31.5286 -31.5279 -31.5163
   -31.5012 -31.4899 -31.4823 -31.4654 -31.4606 -31.4577 -31.4481 -31.4422
   -31.4384 -31.4189 -31.3771 -31.3753 -31.3048 -31.2978 -31.2839 -31.2629
   -31.2261 -31.2188 -30.8774 -30.7919 -30.7694 -30.6951 -30.6087 -30.4968
   -17.6145 -16.4020 -16.1435 -15.9811 -15.7652 -15.6800 -15.6513 -15.4588
   -15.3533 -15.3004 -15.1145 -15.0677 -15.0375 -15.0260 -15.0110 -14.9882
   -14.9685 -14.9303 -14.9218 -14.9115 -14.9058 -14.8673 -14.8450 -14.7945
   -14.7713 -14.7090 -14.6370 -14.5693 -14.5219 -14.2608 -14.2429 -12.9701
   -12.9581 -12.8538  -9.4627  -6.1762  -5.2406  -4.6285  -3.9634  -3.5078
    -3.4071  -3.3910  -3.3342  -3.2723  -3.1625  -2.9996  -2.8911  -2.8363
    -2.7365  -2.6292  -2.5741  -2.5107  -2.4793  -2.4343  -2.4014  -2.3888
    -2.3829  -2.2866  -2.2780  -2.2508  -2.2151  -2.1594  -2.1439  -2.0660
    -2.0296  -2.0211  -1.8963  -1.8840  -1.8183  -1.8141  -1.8078  -1.7741
    -1.7530  -1.7381  -1.7090  -1.6253  -1.5722  -1.5014  -1.4782  -1.4493
    -1.1879  -1.0981  -1.0604  -1.0325  -0.9348  -0.9134  -0.9019  -0.8940
    -0.8875  -0.8379  -0.7881  -0.7076  -0.5963  -0.5697  -0.5564  -0.5233
    -0.4581  -0.3767  -0.3033  -0.2737  -0.2365  -0.2236  -0.1568  -0.0795
    -0.0638  -0.0508   0.0579   0.0723   0.1537   0.2136   0.2266   0.2711
     0.3128   0.3464   0.4015   0.4379   0.4684   0.4741   0.5078   0.5519
     0.6078   0.6386   0.6661   0.7485   0.8040   0.8493   0.8770   1.0491
     1.0796   1.1393   1.1746   1.2621   1.5046   1.5549   1.5941   1.7492
     2.1211   2.1663   3.5820   3.7332   3.7483   3.8180   3.8429   3.9339
     4.0714   4.1391   4.2776   4.3292

[...]

          k = 0.0380-0.0419 0.0000 ( 17876 PWs)   bands (ev):

[...]

          k =-0.0760-0.0000 0.0000 ( 17886 PWs)   bands (ev):

[...]

          k =-0.0760-0.0839 0.0000 ( 17948 PWs)   bands (ev):

   -55.5848 -55.4856 -55.4853 -55.3675 -55.3334 -55.3231 -55.3172 -55.3136
   -55.3132 -55.2590 -55.2313 -55.0981 -55.0915 -55.0164 -54.4549 -54.4545
   -31.8694 -31.8112 -31.8077 -31.8026 -31.8023 -31.7876 -31.7791 -31.7787
   -31.7098 -31.6539 -31.6459 -31.6384 -31.6337 -31.6206 -31.6056 -31.6056
   -31.6034 -31.6032 -31.5886 -31.5784 -31.5708 -31.5627 -31.5412 -31.5230
   -31.5202 -31.5162 -31.5090 -31.5060 -31.4938 -31.4863 -31.4839 -31.4779
   -31.4728 -31.4541 -31.4484 -31.3713 -31.3596 -31.3454 -31.3067 -31.3019
   -31.2682 -31.2221 -30.7823 -30.7820 -30.6905 -30.6901 -30.6521 -30.6517
   -17.6087 -16.3876 -15.7526 -15.5734 -15.4774 -15.4710 -15.3401 -15.2744
   -15.2655 -15.2308 -15.2123 -15.1972 -15.1644 -15.1469 -15.1073 -15.0546
   -15.0214 -14.9987 -14.9871 -14.9500 -14.9376 -14.9156 -14.9082 -14.8996
   -14.8412 -14.8092 -14.8001 -14.7698 -14.5739 -14.5515 -14.3755 -12.9596
   -12.9558 -12.9556  -9.4602  -6.1617  -5.2424  -4.6383  -3.9595  -3.1599
    -2.9261  -2.7824  -2.7063  -2.5719  -2.5622  -2.5047  -2.4910  -2.4512
    -2.4432  -2.4025  -2.3483  -2.3319  -2.2891  -2.2840  -2.2533  -2.2406
    -2.2301  -2.2212  -2.1955  -2.1765  -2.1675  -2.1266  -2.1222  -2.1063
    -2.0864  -2.0704  -2.0427  -2.0318  -1.9915  -1.9521  -1.8859  -1.8129
    -1.7275  -1.6446  -1.6339  -1.6232  -1.5769  -1.5704  -1.5237  -1.5096
    -1.4637  -1.4082  -1.2993  -1.1738  -1.1352  -1.1101  -1.0780  -1.0450
    -0.9913  -0.9685  -0.9336  -0.8854  -0.8528  -0.7288  -0.7182  -0.6526
    -0.5586  -0.5282  -0.4595  -0.4462  -0.4302  -0.4149  -0.3937  -0.3768
    -0.3456  -0.3235  -0.2270  -0.2030  -0.2000  -0.1757  -0.1221  -0.0236
     0.0513   0.1330   0.2360   0.2863   0.3136   0.3472   0.4476   0.5657
     0.5910   0.6542   0.6854   0.7285   0.7956   0.8162   0.8642   0.9493
     1.0027   1.0349   1.0613   1.0662   1.1211   1.1563   1.9179   1.9264
     1.9865   1.9868   3.7959   4.0721   4.0974   4.1135   4.1510   4.1550
     4.1769   4.1914   4.2565   4.2718

     the Fermi energy is     3.6190 ev

!    total energy              =   -2976.49818716 Ry
     estimated scf accuracy    <       0.00000006 Ry
     smearing contrib. (-TS)   =      -0.01952361 Ry
     internal energy E=F+TS    =   -2976.47866356 Ry

     The total energy is F=E-TS. E is the sum of the following terms:
     one-electron contribution =  -23032.10270101 Ry
     hartree contribution      =   11612.37511347 Ry
     xc contribution           =    -495.71564147 Ry
     ewald contribution        =    8938.96272727 Ry
     electric field correction =       0.00183818 Ry

     convergence has been achieved in  66 iterations

     Forces acting on atoms (cartesian axes, Ry/au):

     atom    1 type  1   force =     0.00000865   -0.00022900    0.09407116
     atom    2 type  1   force =    -0.00016277    0.00024746   -0.17513697
     atom    3 type  2   force =     0.00007397   -0.00016524   -0.02117571
     atom    4 type  2   force =     0.00000388   -0.00104199    0.05354593
     atom    5 type  2   force =    -0.00454656   -0.00322554    0.00114944
     atom    6 type  2   force =     0.00660534   -0.00242571    0.00161411
     atom    7 type  1   force =     0.00037581    0.00457578    0.01037696
     atom    8 type  1   force =    -0.00056165    0.00198712    0.00312173
     atom    9 type  2   force =     0.00010365   -0.00050869   -0.00048839
     atom   10 type  2   force =    -0.00030733   -0.00004324   -0.01129191
     atom   11 type  2   force =    -0.00023425    0.00046181    0.00005095
     atom   12 type  2   force =    -0.00026576    0.00067754    0.00009060
     atom   13 type  1   force =     0.00061872   -0.00066055    0.00019871
     atom   14 type  1   force =    -0.00036223    0.00017343    0.00020523
     atom   15 type  2   force =    -0.00015385    0.00027626    0.00058626
     atom   16 type  2   force =     0.00004768   -0.00000460    0.00042733
     atom   17 type  2   force =    -0.00024347    0.00030405    0.00013599
     atom   18 type  2   force =    -0.00004814    0.00013250    0.00024715
     atom   19 type  1   force =    -0.00010374    0.00054595   -0.00023753
     atom   20 type  1   force =    -0.00010558   -0.00018427    0.00052077
     atom   21 type  2   force =     0.00002984   -0.00001410    0.10311934
     atom   22 type  2   force =    -0.00009117   -0.00008596   -0.00041761
     atom   23 type  2   force =    -0.07214323   -0.00021318   -0.02726226
     atom   24 type  2   force =     0.07204829    0.00022936   -0.02734173
     atom   25 type  1   force =     0.00006485   -0.00035068    0.09405053
     atom   26 type  1   force =    -0.00000460   -0.00127816   -0.17515668
     atom   27 type  2   force =     0.00015626   -0.00021539   -0.01995386
     atom   28 type  2   force =     0.00008656   -0.00111253    0.04906671
     atom   29 type  2   force =    -0.00668316    0.00152319    0.00212649
     atom   30 type  2   force =     0.00855270    0.00170126    0.00249837
     atom   31 type  1   force =     0.00049662   -0.00019822    0.00053353
     atom   32 type  1   force =    -0.00021023   -0.00145855    0.00351298
     atom   33 type  2   force =    -0.00007791    0.00001778   -0.00003619
     atom   34 type  2   force =    -0.00088833    0.00246286   -0.01149947
     atom   35 type  2   force =     0.00003940   -0.00043388    0.00049826
     atom   36 type  2   force =    -0.00053541   -0.00040884    0.00035389
     atom   37 type  1   force =     0.00036919    0.00029581   -0.00002444
     atom   38 type  1   force =    -0.00037640    0.00019077    0.00031091
     atom   39 type  2   force =    -0.00051410    0.00043602    0.00061235
     atom   40 type  2   force =    -0.00002106   -0.00007220   -0.00005732
     atom   41 type  2   force =    -0.00029396   -0.00032951    0.00025917
     atom   42 type  2   force =    -0.00026817   -0.00027469   -0.00027219
     atom   43 type  1   force =    -0.00004080   -0.00038878    0.00092353
     atom   44 type  1   force =    -0.00018168    0.00025350    0.00021835
     atom   45 type  2   force =     0.00002218   -0.00001634    0.10297421
     atom   46 type  2   force =    -0.07215455   -0.00008651   -0.02725950
     atom   47 type  2   force =     0.07200881    0.00035110   -0.02730251
     atom   48 type  3   force =     0.00078086    0.00033035    0.00342267
     atom   49 type  3   force =    -0.00022077    0.00318798   -0.01067702
     atom   50 type  4   force =     0.00188249    0.00022692    0.00120769
     atom   51 type  5   force =    -0.00030372    0.00013066   -0.00010670
     atom   52 type  5   force =    -0.00006805   -0.00080192   -0.00008200
     atom   53 type  5   force =     0.00012129   -0.00037530    0.00028511
     atom   54 type  5   force =    -0.00002438    0.00049003    0.00075836
     atom   55 type  5   force =    -0.00176830   -0.00449618    0.00449605
     atom   56 type  5   force =    -0.00008273   -0.00002248   -0.00075911
     atom   57 type  2   force =    -0.00021101    0.00052427   -0.00088933
     atom   58 type  5   force =    -0.00023801   -0.00061153   -0.00014237

     Total force =     0.361963     Total SCF correction =     0.000537
  @ DRIVER MODE: Message from server: STATUS
  @ DRIVER MODE: Message from server: GETFORCE
  @ DRIVER MODE: Returning v,forces,stress,ensemble

     Writing output data file ./calc.save/
  @ DRIVER MODE: Message from server: EXIT
  @ DRIVE MODE: Exiting

     General routines

     Parallel routines

   This run was terminated on:  15:50:59  23Sep2021

   JOB DONE.