     Program PWSCF v.6.7GPU starts on 24Sep2021 at  4: 8:29

     R & G space division:  proc/nbgrp/npool/nimage =       8
     Reading input from /storage/home/hcoda1/3/ntian30/research/carbon/CxH_vib/H2O_calc/ads_slab/CH3NHNH2HO_a/out_0035/pw.inp
Warning: card &CELL ignored
Warning: card   CELL_DYNAMICS='IPI', ignored
Warning: card / ignored

     Current dimensions of program PWSCF are:
     Max number of different atomic species (ntypx) = 10
     Max number of k-points (npk) =  40000
     Max angular momentum in pseudopotentials (lmaxx) =  3
     Presently no symmetry can be used with electric field

     Message from routine cell_base_init:
     DEPRECATED: use true lattice parameter, not A to a.u. conversion factor

     IMPORTANT: XC functional enforced from input :
     Exchange-correlation= BEEF-VDW
                           (   1   4  43  14   2   0   0)
     Any further DFT definition will be discarded
     Please, verify this is what you really want

  @ DRIVER MODE: Connecting to
 qe_1139763_2947307.sched-torque.pace.gatech.edursemfjkw_scratch
  using UNIX socket
  @ DRIVER MODE: Message from server: STATUS
  @ DRIVER MODE: Message from server: INIT
  @ DRIVER MODE: Receiving replica           0          -1
  @ DRIVER MODE: Receiving encoded integer          25
  @ DRIVER MODE:  SCF:  T  FORCE:  T  STRESS:  F  VC:  F  ENSEMBLE:  F
  @ DRIVER MODE:  SCF:  T  FORCE:  T  STRESS:  F  VC:  F  ENSEMBLE:  F

     Using Slab Decomposition

     bravais-lattice index     =            0
     lattice parameter (alat)  =       1.8897  a.u.
     unit-cell volume          =    6658.9804 (a.u.)^3
     number of atoms/cell      =           58
     number of atomic types    =            5
     number of electrons       =       405.00
     number of Kohn-Sham states=          212
     kinetic-energy cutoff     =      29.3995  Ry
     charge density cutoff     =     293.9946  Ry
     scf convergence threshold =      7.3E-08
     mixing beta               =       0.0500
     number of iterations used =            8  plain     mixing
     Exchange-correlation= BEEF-VDW
                           (   1   4  43  14   2   0   0)

     celldm(1)=   1.889726  celldm(2)=   0.000000  celldm(3)=   0.000000
     celldm(4)=   0.000000  celldm(5)=   0.000000  celldm(6)=   0.000000

     crystal axes: (cart. coord. in units of alat)
               a(1) = (   6.579727   0.000000   0.000000 )
               a(2) = (  -0.000775   5.961596   0.000000 )
               a(3) = (   0.000000   0.000000  25.155947 )

     reciprocal axes: (cart. coord. in units 2 pi/alat)
               b(1) = (  0.151982  0.000020  0.000000 )
               b(2) = (  0.000000  0.167740  0.000000 )
               b(3) = (  0.000000  0.000000  0.039752 )

     PseudoPot. # 1 for Ti read from file:
     /storage/coda1/p-amedford6/0/shared/rich_project_chbe-medford/medford-share/data/pseudos_module/espresso/nninc/pbe/van/Ti.UPF
     MD5 check sum: 8e4df49b7f0d34bbd5052bf3f5ea0213
     Pseudo is Ultrasoft, Zval = 12.0
     Generated by new atomic code, or converted to UPF format
     Using radial grid of  851 points,  6 beta functions with:
                l(1) =   0
                l(2) =   0
                l(3) =   1
                l(4) =   1
                l(5) =   2
                l(6) =   2
     Q(r) pseudized with  8 coefficients,  rinner =    1.000   1.000   1.000
                                                       1.000   1.000

     PseudoPot. # 2 for O  read from file:
     /storage/coda1/p-amedford6/0/shared/rich_project_chbe-medford/medford-share/data/pseudos_module/espresso/nninc/pbe/van/O.UPF
     MD5 check sum: 78c19812648e8988a0fe644b0f25305e
     Pseudo is Ultrasoft, Zval =  6.0
     Generated by new atomic code, or converted to UPF format
     Using radial grid of  737 points,  4 beta functions with:
                l(1) =   0
                l(2) =   0
                l(3) =   1
                l(4) =   1
     Q(r) pseudized with  8 coefficients,  rinner =    0.800   0.800   0.800

     PseudoPot. # 3 for N  read from file:
     /storage/coda1/p-amedford6/0/shared/rich_project_chbe-medford/medford-share/data/pseudos_module/espresso/nninc/pbe/van/N.UPF
     MD5 check sum: 90d10febe142ad51ac9d5be1deb811c4
     Pseudo is Ultrasoft, Zval =  5.0
     Generated by new atomic code, or converted to UPF format
     Using radial grid of  729 points,  4 beta functions with:
                l(1) =   0
                l(2) =   0
                l(3) =   1
                l(4) =   1
     Q(r) pseudized with  8 coefficients,  rinner =    0.800   0.800   0.800

     PseudoPot. # 4 for C  read from file:
     /storage/coda1/p-amedford6/0/shared/rich_project_chbe-medford/medford-share/data/pseudos_module/espresso/nninc/pbe/van/C.UPF
     MD5 check sum: 1a69bf6b8db32088f5b2163dbdb77a27
     Pseudo is Ultrasoft, Zval =  4.0
     Generated by new atomic code, or converted to UPF format
     Using radial grid of  721 points,  4 beta functions with:
                l(1) =   0
                l(2) =   0
                l(3) =   1
                l(4) =   1
     Q(r) pseudized with  8 coefficients,  rinner =    0.800   0.800   0.800

     PseudoPot. # 5 for H  read from file:
     /storage/coda1/p-amedford6/0/shared/rich_project_chbe-medford/medford-share/data/pseudos_module/espresso/nninc/pbe/van/H.UPF
     MD5 check sum: b5ee9d7bfd3a09ee7748110bda690ff7
     Pseudo is Ultrasoft, Zval =  1.0
     Generated by new atomic code, or converted to UPF format
     Using radial grid of  615 points,  1 beta functions with:
                l(1) =   0
     Q(r) pseudized with  8 coefficients,  rinner =    0.800

     atomic species   valence    mass     pseudopotential
        Ti1           12.00    47.86700     Ti( 1.00)
        O1             6.00    15.99900     O ( 1.00)
        N1             5.00    14.00700     N ( 1.00)
        C1             4.00    12.01100     C ( 1.00)
        H1             1.00     1.00800     H ( 1.00)

     No symmetry found

   Cartesian axes

     site n.     atom                  positions (alat units)
         1           Ti1 tau(   1) = (   0.0004258   2.9801865   6.0000000  )
         2           Ti1 tau(   2) = (   3.2906075   1.4906267   6.0002472  )
         3           O1  tau(   3) = (   0.0006271   0.0005054   7.9858123  )
         4           O1  tau(   4) = (   3.2906025   0.0005020   7.3038282  )
         5           O1  tau(   5) = (   4.5942328   1.4918067   9.2879030  )
         6           O1  tau(   6) = (   1.9868534   1.4903216   9.2879459  )
         7           Ti1 tau(   7) = (   3.2907910   2.8959150   9.1758416  )
         8           Ti1 tau(   8) = (   0.0015273   1.4827037   9.2680791  )
         9           O1  tau(   9) = (   3.3003128   0.0493987  11.3625472  )
        10           O1  tau(  10) = (   0.0116148   5.9584955  10.6183126  )
        11           O1  tau(  11) = (   1.2863924   1.5188706  12.6959087  )
        12           O1  tau(  12) = (   5.3173592   1.5183023  12.6957539  )
        13           Ti1 tau(  13) = (   0.0130489   2.9571150  12.5182267  )
        14           Ti1 tau(  14) = (   3.3124343   1.5987737  12.4587140  )
        15           O1  tau(  15) = (   0.0455642   5.8537743  14.6515032  )
        16           O1  tau(  16) = (   3.3135256   5.8999501  14.0036581  )
        17           O1  tau(  17) = (   4.5824137   1.5787328  16.0473457  )
        18           O1  tau(  18) = (   2.0456054   1.5356268  16.0652349  )
        19           Ti1 tau(  19) = (   3.2855744   2.9948502  15.7047272  )
        20           Ti1 tau(  20) = (   0.0729980   1.3194477  15.7501807  )
        21           O1  tau(  21) = (   3.2904802   0.0005063   4.7018136  )
        22           O1  tau(  22) = (   6.5643345   0.1786488  17.1561759  )
        23           O1  tau(  23) = (   1.3043587   1.4918075   6.0039043  )
        24           O1  tau(  24) = (   5.2767064   1.4903225   6.0039473  )
        25           Ti1 tau(  25) = (   0.0000382   5.9609847   6.0000000  )
        26           Ti1 tau(  26) = (   3.2902200   4.4714249   6.0002472  )
        27           O1  tau(  27) = (   0.0002396   2.9813036   7.9858123  )
        28           O1  tau(  28) = (   3.2902150   2.9813002   7.3038282  )
        29           O1  tau(  29) = (   4.5938453   4.4726049   9.2879030  )
        30           O1  tau(  30) = (   1.9864658   4.4711199   9.2879459  )
        31           Ti1 tau(  31) = (   3.2891106   5.8743827   9.1763621  )
        32           Ti1 tau(  32) = (   0.0006254   4.4649316   9.2693709  )
        33           O1  tau(  33) = (   3.3044115   2.9646987  11.3227374  )
        34           O1  tau(  34) = (   0.0092240   2.9805883  10.6323155  )
        35           O1  tau(  35) = (   1.2889249   4.4812606  12.6373974  )
        36           O1  tau(  36) = (   5.3198440   4.4849614  12.6453916  )
        37           Ti1 tau(  37) = (   0.0274371   5.9167426  12.5032498  )
        38           Ti1 tau(  38) = (   3.3124303   4.6827448  12.7121475  )
        39           O1  tau(  39) = (   0.0064664   3.0605765  14.9143048  )
        40           O1  tau(  40) = (   3.2921723   3.0190953  13.9337278  )
        41           O1  tau(  41) = (   4.5343043   4.4484976  16.2223827  )
        42           O1  tau(  42) = (   2.0055671   4.4324605  16.2273083  )
        43           Ti1 tau(  43) = (   3.3963104   0.0511244  16.3072024  )
        44           Ti1 tau(  44) = (   0.1011521   4.5293608  16.0606835  )
        45           O1  tau(  45) = (   3.2900926   2.9813045   4.7018136  )
        46           O1  tau(  46) = (   1.3039711   4.4726057   6.0039043  )
        47           O1  tau(  47) = (   5.2763189   4.4711207   6.0039473  )
        48           N1  tau(  48) = (   0.7799224   3.1460235  19.0808133  )
        49           N1  tau(  49) = (   6.3029119   3.3142126  18.0946246  )
        50           C1  tau(  50) = (   0.9829876   4.3811599  19.8296872  )
        51           H1  tau(  51) = (   0.0599524   4.7630682  20.2995108  )
        52           H1  tau(  52) = (   1.7087173   4.1728717  20.6153690  )
        53           H1  tau(  53) = (   1.3778604   5.1510331  19.1645456  )
        54           H1  tau(  54) = (   0.4845774   2.4057476  19.7140978  )
        55           H1  tau(  55) = (   5.5451363   3.8924421  18.4761980  )
        56           H1  tau(  56) = (   5.8791802   2.3931312  17.9634808  )
        57           O1  tau(  57) = (   3.3895457   0.1916509  18.1699706  )
        58           H1  tau(  58) = (   3.8128180   5.4341384  18.6581559  )

     number of k points=    10  Fermi-Dirac smearing, width (Ry)=  0.0073
                       cart. coord. in units 2pi/alat
        k(    1) = (   0.0000000   0.0000000   0.0000000), wk =   0.1250000
        k(    2) = (   0.0000000   0.0419351   0.0000000), wk =   0.2500000
        k(    3) = (   0.0000000  -0.0838702   0.0000000), wk =   0.1250000
        k(    4) = (   0.0379955   0.0000049   0.0000000), wk =   0.2500000
        k(    5) = (   0.0379955   0.0419400   0.0000000), wk =   0.2500000
        k(    6) = (   0.0379955  -0.0838652   0.0000000), wk =   0.2500000
        k(    7) = (   0.0379955  -0.0419301   0.0000000), wk =   0.2500000
        k(    8) = (  -0.0759910  -0.0000099   0.0000000), wk =   0.1250000
        k(    9) = (  -0.0759910   0.0419252   0.0000000), wk =   0.2500000
        k(   10) = (  -0.0759910  -0.0838800   0.0000000), wk =   0.1250000

     Initial potential from superposition of free atoms

     starting charge  388.99913, renormalised to  405.00000

     negative rho (up, down):  1.368E-02 0.000E+00

     %%%%%%%%%%%%%%%%%%%%%%%%%%%%%%%%%%%%%%%%%%%%%%%%%%%%%%%%%%%%%%%%%%%%%%%%
     %                                                                      %
     % You are using vdW-DF, which was implemented by the Thonhauser group. %
     % Please cite the following two papers that made this development      %
     % possible and the two reviews that describe the various versions:     %
     %                                                                      %
     %   T. Thonhauser et al., PRL 115, 136402 (2015).                      %
     %   T. Thonhauser et al., PRB 76, 125112 (2007).                       %
     %   K. Berland et al., Rep. Prog. Phys. 78, 066501 (2015).             %
     %   D.C. Langreth et al., J. Phys.: Condens. Matter 21, 084203 (2009). %
     %                                                                      %
     %                                                                      %
     % If you are calculating the stress with vdW-DF, please also cite:     %
     %                                                                      %
     %   R. Sabatini et al., J. Phys.: Condens. Matter 24, 424209 (2012).   %
     %                                                                      %
     %%%%%%%%%%%%%%%%%%%%%%%%%%%%%%%%%%%%%%%%%%%%%%%%%%%%%%%%%%%%%%%%%%%%%%%%

     Adding external electric field

     Computed dipole along edir(3) :
        Dipole              -14.8116 Ry au,        -37.6474 Debye
        Dipole field         -0.0280 Ry au,

        Potential amp.        2.5911 Ry
        Total length         46.3494 bohr

     Starting wfcs are  307 atomic wfcs
  @ DRIVER MODE: Message from server: STATUS
  @ DRIVER MODE: Message from server: POSDATA
  @ DRIVER MODE: Reading and sharing cell
  @ DRIVER MODE: Reading and sharing positions
  @ DRIVER MODE: Received positions

     Self-consistent Calculation

     iteration #  1     ecut=    29.40 Ry     beta= 0.05
     Davidson diagonalization with overlap
     c_bands:  4 eigenvalues not converged
     c_bands:  4 eigenvalues not converged
     c_bands:  5 eigenvalues not converged
     c_bands:  2 eigenvalues not converged
     c_bands:  3 eigenvalues not converged
     c_bands:  4 eigenvalues not converged
     c_bands:  2 eigenvalues not converged
     ethr =  1.00E-05,  avg # of iterations = 22.9

[...]

     total energy              =   -2202.99742332 Ry
     estimated scf accuracy    <    8803.83993854 Ry

     iteration #  2     ecut=    29.40 Ry     beta= 0.05
     Davidson diagonalization with overlap
     ethr =  1.00E-02,  avg # of iterations = 29.8

[...]

     iteration # 48     ecut=    29.40 Ry     beta= 0.05
     Davidson diagonalization with overlap
     c_bands:  1 eigenvalues not converged
     c_bands:  1 eigenvalues not converged
     ethr =  1.22E-08,  avg # of iterations = 18.2

[...]

     total energy              =   -2976.46399139 Ry
     estimated scf accuracy    <       0.00000009 Ry

     iteration # 66     ecut=    29.40 Ry     beta= 0.05
     Davidson diagonalization with overlap
     ethr =  2.21E-11,  avg # of iterations = 11.3

     negative rho (up, down):  1.441E-02 0.000E+00

     Adding external electric field

     Computed dipole along edir(3) :
        Dipole                1.2253 Ry au,          3.1145 Debye
        Dipole field          0.0023 Ry au,

        Potential amp.       -0.2144 Ry
        Total length         46.3494 bohr

     End of self-consistent calculation

          k = 0.0000 0.0000 0.0000 ( 18029 PWs)   bands (ev):

   -55.4455 -55.3573 -55.3233 -55.2185 -55.2157 -55.1880 -55.1860 -55.1782
   -55.1540 -55.1311 -55.0880 -54.9859 -54.9377 -54.8944 -54.3323 -54.2982
   -31.8425 -31.7918 -31.7223 -31.7050 -31.6908 -31.6761 -31.6553 -31.6482
   -31.6172 -31.6035 -31.5975 -31.5098 -31.4949 -31.4877 -31.4679 -31.4644
   -31.4605 -31.4512 -31.4507 -31.4211 -31.4147 -31.3932 -31.3861 -31.3762
   -31.3714 -31.3554 -31.3544 -31.3225 -31.3220 -31.3155 -31.3148 -31.3091
   -31.3006 -31.2828 -31.2587 -31.2404 -31.1750 -31.1535 -31.1417 -31.1333
   -31.1126 -31.1035 -30.7383 -30.6519 -30.6294 -30.5558 -30.4694 -30.3576
   -17.7416 -16.3676 -16.0115 -15.8476 -15.6328 -15.5401 -15.5131 -15.3143
   -15.2193 -15.1611 -14.9596 -14.9326 -14.8950 -14.8822 -14.8733 -14.8522
   -14.8486 -14.7971 -14.7816 -14.7717 -14.7682 -14.7378 -14.7108 -14.6715
   -14.6119 -14.5981 -14.4957 -14.4402 -14.4003 -14.1589 -14.1388 -13.1737
   -12.8308 -12.7145  -9.4250  -6.4453  -5.7351  -4.2697  -3.9342  -3.3695
    -3.2681  -3.2565  -3.1999  -3.1325  -2.9738  -2.8847  -2.7808  -2.7415
    -2.6026  -2.5958  -2.4927  -2.4441  -2.3707  -2.3248  -2.2836  -2.2486
    -2.2208  -2.1650  -2.1429  -2.1169  -2.1056  -2.0329  -2.0144  -1.9242
    -1.8920  -1.8783  -1.7609  -1.7259  -1.6915  -1.6783  -1.6693  -1.6625
    -1.6190  -1.6090  -1.5983  -1.5560  -1.4557  -1.4477  -1.4301  -1.3396
    -1.2420  -0.9920  -0.9609  -0.9104  -0.8987  -0.8207  -0.7821  -0.7505
    -0.7176  -0.6479  -0.6367  -0.6105  -0.5492  -0.4739  -0.4196  -0.3720
    -0.3377  -0.2259  -0.1759  -0.1321  -0.0993  -0.0625   0.0005   0.0401
     0.0641   0.1073   0.1949   0.2585   0.2858   0.3024   0.3527   0.3946
     0.4324   0.4730   0.5447   0.5673   0.5774   0.6166   0.6253   0.6462
     0.7416   0.7601   0.8196   0.8468   0.9348   0.9657   1.0099   1.1793
     1.2489   1.3073   1.3859   1.4800   1.6396   1.6941   1.7191   1.8881
     2.2615   2.3069   3.7265   3.8739   3.8901   3.9678   3.9848   4.0490
     4.2153   4.2746   4.4119   4.4233

[...]

          k = 0.0380-0.0419 0.0000 ( 17876 PWs)   bands (ev):

[...]

          k =-0.0760-0.0000 0.0000 ( 17886 PWs)   bands (ev):

[...]

          k =-0.0760-0.0839 0.0000 ( 17948 PWs)   bands (ev):

   -55.4447 -55.3404 -55.3401 -55.2172 -55.2041 -55.1899 -55.1867 -55.1722
   -55.1694 -55.1230 -55.0962 -54.9828 -54.9388 -54.8974 -54.3152 -54.3152
   -31.7305 -31.6702 -31.6578 -31.6577 -31.6566 -31.6425 -31.6339 -31.6335
   -31.5765 -31.5315 -31.5101 -31.4992 -31.4938 -31.4886 -31.4660 -31.4602
   -31.4596 -31.4567 -31.4503 -31.4377 -31.4310 -31.4281 -31.4166 -31.3907
   -31.3860 -31.3840 -31.3765 -31.3687 -31.3502 -31.3449 -31.3416 -31.3412
   -31.3383 -31.3183 -31.3167 -31.2520 -31.2350 -31.2073 -31.1792 -31.1557
   -31.1496 -31.1083 -30.6422 -30.6421 -30.5513 -30.5510 -30.5127 -30.5125
   -17.7375 -16.3576 -15.5920 -15.4472 -15.3388 -15.3284 -15.2044 -15.1373
   -15.1275 -15.0939 -15.0711 -15.0492 -15.0307 -15.0156 -14.9608 -14.9211
   -14.8897 -14.8623 -14.8577 -14.8147 -14.8050 -14.7936 -14.7758 -14.7642
   -14.7089 -14.6728 -14.6631 -14.6046 -14.4655 -14.4451 -14.2891 -13.1751
   -12.8164 -12.8162  -9.4440  -6.4298  -5.7412  -4.2556  -3.9231  -2.9605
    -2.8009  -2.6586  -2.5904  -2.5629  -2.4495  -2.4243  -2.3675  -2.3170
    -2.2929  -2.2713  -2.2193  -2.2093  -2.1633  -2.1472  -2.1231  -2.1081
    -2.0918  -2.0853  -2.0574  -2.0416  -2.0313  -2.0177  -1.9913  -1.9802
    -1.9619  -1.9332  -1.9130  -1.9039  -1.8704  -1.8280  -1.7666  -1.6562
    -1.5819  -1.5712  -1.5276  -1.5027  -1.4865  -1.4455  -1.4329  -1.3919
    -1.3744  -1.3082  -1.1502  -1.1250  -1.1107  -0.9682  -0.9610  -0.9321
    -0.8580  -0.8163  -0.7944  -0.7363  -0.7067  -0.6657  -0.5896  -0.5462
    -0.4917  -0.4258  -0.3260  -0.3184  -0.3024  -0.2823  -0.2662  -0.2583
    -0.2250  -0.1879  -0.1149  -0.0683  -0.0597  -0.0537  -0.0025   0.0775
     0.1283   0.2427   0.3889   0.3933   0.4603   0.4612   0.6608   0.6697
     0.7464   0.7817   0.8161   0.8434   0.9371   0.9551   0.9927   1.0754
     1.1392   1.1687   1.1896   1.1943   1.2475   1.4625   2.0564   2.0643
     2.1272   2.1273   3.9676   4.2005   4.2408   4.2540   4.2724   4.2988
     4.3124   4.3266   4.3934   4.4169

     the Fermi energy is     3.7637 ev

!    total energy              =   -2976.46402388 Ry
     estimated scf accuracy    <       0.00000005 Ry
     smearing contrib. (-TS)   =      -0.01955713 Ry
     internal energy E=F+TS    =   -2976.44446675 Ry

     The total energy is F=E-TS. E is the sum of the following terms:
     one-electron contribution =  -23037.68500487 Ry
     hartree contribution      =   11616.56340878 Ry
     xc contribution           =    -495.72181056 Ry
     ewald contribution        =    8940.39610651 Ry
     electric field correction =       0.00283339 Ry

     convergence has been achieved in  66 iterations

     Forces acting on atoms (cartesian axes, Ry/au):

     atom    1 type  1   force =     0.00016086   -0.00022629    0.09417309
     atom    2 type  1   force =    -0.00010137    0.00018212   -0.17536318
     atom    3 type  2   force =     0.00005487   -0.00049352   -0.02103781
     atom    4 type  2   force =    -0.00002470   -0.00093637    0.05424487
     atom    5 type  2   force =    -0.00488562   -0.00215679    0.00106401
     atom    6 type  2   force =     0.00670904   -0.00138293    0.00107907
     atom    7 type  1   force =     0.00005850    0.00331138    0.00865329
     atom    8 type  1   force =    -0.00010165    0.00119859    0.00271646
     atom    9 type  2   force =    -0.00022018   -0.00030208   -0.00058542
     atom   10 type  2   force =    -0.00112012    0.00429214   -0.01026245
     atom   11 type  2   force =    -0.00007630   -0.00055185   -0.00011485
     atom   12 type  2   force =     0.00061829   -0.00031608   -0.00027786
     atom   13 type  1   force =    -0.00143420    0.00019618   -0.00057652
     atom   14 type  1   force =     0.00070968    0.00016737   -0.00047028
     atom   15 type  2   force =     0.00013523   -0.00001137    0.00004112
     atom   16 type  2   force =    -0.00009530   -0.00069584   -0.00031136
     atom   17 type  2   force =    -0.00043498    0.00068952    0.00008395
     atom   18 type  2   force =    -0.00076121    0.00030801   -0.00020652
     atom   19 type  1   force =     0.00042261   -0.00093381    0.00060496
     atom   20 type  1   force =    -0.00068727   -0.00006437    0.00052095
     atom   21 type  2   force =     0.00003705   -0.00000889    0.10320308
     atom   22 type  2   force =    -0.00012533    0.00004891    0.00040564
     atom   23 type  2   force =    -0.07200359   -0.00019697   -0.02726512
     atom   24 type  2   force =     0.07187959    0.00025957   -0.02733558
     atom   25 type  1   force =     0.00007375   -0.00016774    0.09389721
     atom   26 type  1   force =    -0.00012217   -0.00136910   -0.17550428
     atom   27 type  2   force =     0.00011116   -0.00005400   -0.01984909
     atom   28 type  2   force =     0.00006488   -0.00105026    0.04979580
     atom   29 type  2   force =    -0.00746680    0.00209763    0.00338647
     atom   30 type  2   force =     0.00907125    0.00223894    0.00330557
     atom   31 type  1   force =     0.00019619    0.00151770    0.00005313
     atom   32 type  1   force =    -0.00008846   -0.00227027    0.00302798
     atom   33 type  2   force =    -0.00017679   -0.00031667   -0.00002610
     atom   34 type  2   force =    -0.00117123   -0.00218463   -0.00965679
     atom   35 type  2   force =     0.00063929    0.00005660   -0.00022848
     atom   36 type  2   force =     0.00037718    0.00011717   -0.00035652
     atom   37 type  1   force =    -0.00096674    0.00025695    0.00035151
     atom   38 type  1   force =     0.00096321   -0.00023934    0.00019473
     atom   39 type  2   force =    -0.00016788   -0.00052019    0.00010052
     atom   40 type  2   force =    -0.00020131   -0.00019402   -0.00016700
     atom   41 type  2   force =     0.00024378   -0.00031166   -0.00009028
     atom   42 type  2   force =    -0.00066350    0.00006813   -0.00008403
     atom   43 type  1   force =     0.00025629    0.00093120    0.00046713
     atom   44 type  1   force =    -0.00042019    0.00082410    0.00006501
     atom   45 type  2   force =     0.00002468    0.00003436    0.10301945
     atom   46 type  2   force =    -0.07195279   -0.00008160   -0.02721770
     atom   47 type  2   force =     0.07184438    0.00035102   -0.02730129
     atom   48 type  3   force =    -0.00024578   -0.00168186   -0.00023382
     atom   49 type  3   force =    -0.00031138   -0.00018233   -0.00039982
     atom   50 type  4   force =     0.00233929    0.00428677   -0.00561934
     atom   51 type  5   force =    -0.00090969    0.00009637    0.00023598
     atom   52 type  5   force =     0.00091225    0.00042909   -0.00006965
     atom   53 type  5   force =    -0.00265647   -0.00377164    0.00561590
     atom   54 type  5   force =     0.00057428   -0.00045262   -0.00002301
     atom   55 type  5   force =     0.00052204   -0.00058327    0.00005012
     atom   56 type  5   force =     0.00065081   -0.00002389   -0.00004670
     atom   57 type  2   force =     0.00075458   -0.00117834    0.00007067
     atom   58 type  5   force =    -0.00081202    0.00095078    0.00025317

     Total force =     0.362146     Total SCF correction =     0.000590
  @ DRIVER MODE: Message from server: STATUS
  @ DRIVER MODE: Message from server: GETFORCE
  @ DRIVER MODE: Returning v,forces,stress,ensemble

     Writing output data file ./calc.save/
  @ DRIVER MODE: Message from server: EXIT
  @ DRIVE MODE: Exiting

     General routines

     Parallel routines

   This run was terminated on:   4:37:19  24Sep2021

   JOB DONE.