     Program PWSCF v.6.7GPU starts on 26Sep2021 at 11:23:56

     R & G space division:  proc/nbgrp/npool/nimage =       8
     Reading input from /storage/home/hcoda1/3/ntian30/research/carbon/CxH_vib/CH_calc/ads_slab/CHONHNH_a/out_0000/pw.inp
Warning: card &CELL ignored
Warning: card   CELL_DYNAMICS='IPI', ignored
Warning: card / ignored

     Current dimensions of program PWSCF are:
     Max number of different atomic species (ntypx) = 10
     Max number of k-points (npk) =  40000
     Max angular momentum in pseudopotentials (lmaxx) =  3
     Presently no symmetry can be used with electric field

     Message from routine cell_base_init:
     DEPRECATED: use true lattice parameter, not A to a.u. conversion factor

     IMPORTANT: XC functional enforced from input :
     Exchange-correlation= BEEF-VDW
                           (   1   4  43  14   2   0   0)
     Any further DFT definition will be discarded
     Please, verify this is what you really want

  @ DRIVER MODE: Connecting to
 qe_1139763_2982671.sched-torque.pace.gatech.edu25jwcudf_scratch
  using UNIX socket
  @ DRIVER MODE: Message from server: STATUS
  @ DRIVER MODE: Message from server: INIT
  @ DRIVER MODE: Receiving replica           0          -1
  @ DRIVER MODE: Receiving encoded integer          25
  @ DRIVER MODE:  SCF:  T  FORCE:  T  STRESS:  F  VC:  F  ENSEMBLE:  F
  @ DRIVER MODE:  SCF:  T  FORCE:  T  STRESS:  F  VC:  F  ENSEMBLE:  F

     Using Slab Decomposition

     bravais-lattice index     =            0
     lattice parameter (alat)  =       1.8897  a.u.
     unit-cell volume          =    6658.9804 (a.u.)^3
     number of atoms/cell      =           54
     number of atomic types    =            5
     number of electrons       =       401.00
     number of Kohn-Sham states=          210
     kinetic-energy cutoff     =      29.3995  Ry
     charge density cutoff     =     293.9946  Ry
     scf convergence threshold =      7.3E-08
     mixing beta               =       0.0500
     number of iterations used =            8  plain     mixing
     Exchange-correlation= BEEF-VDW
                           (   1   4  43  14   2   0   0)

     celldm(1)=   1.889726  celldm(2)=   0.000000  celldm(3)=   0.000000
     celldm(4)=   0.000000  celldm(5)=   0.000000  celldm(6)=   0.000000

     crystal axes: (cart. coord. in units of alat)
               a(1) = (   6.579727   0.000000   0.000000 )
               a(2) = (  -0.000775   5.961596   0.000000 )
               a(3) = (   0.000000   0.000000  25.155947 )

     reciprocal axes: (cart. coord. in units 2 pi/alat)
               b(1) = (  0.151982  0.000020  0.000000 )
               b(2) = (  0.000000  0.167740  0.000000 )
               b(3) = (  0.000000  0.000000  0.039752 )

     PseudoPot. # 1 for O  read from file:
     /storage/coda1/p-amedford6/0/shared/rich_project_chbe-medford/medford-share/data/pseudos_module/espresso/nninc/pbe/van/O.UPF
     MD5 check sum: 78c19812648e8988a0fe644b0f25305e
     Pseudo is Ultrasoft, Zval =  6.0
     Generated by new atomic code, or converted to UPF format
     Using radial grid of  737 points,  4 beta functions with:
                l(1) =   0
                l(2) =   0
                l(3) =   1
                l(4) =   1
     Q(r) pseudized with  8 coefficients,  rinner =    0.800   0.800   0.800

     PseudoPot. # 2 for Ti read from file:
     /storage/coda1/p-amedford6/0/shared/rich_project_chbe-medford/medford-share/data/pseudos_module/espresso/nninc/pbe/van/Ti.UPF
     MD5 check sum: 8e4df49b7f0d34bbd5052bf3f5ea0213
     Pseudo is Ultrasoft, Zval = 12.0
     Generated by new atomic code, or converted to UPF format
     Using radial grid of  851 points,  6 beta functions with:
                l(1) =   0
                l(2) =   0
                l(3) =   1
                l(4) =   1
                l(5) =   2
                l(6) =   2
     Q(r) pseudized with  8 coefficients,  rinner =    1.000   1.000   1.000
                                                       1.000   1.000

     PseudoPot. # 3 for N  read from file:
     /storage/coda1/p-amedford6/0/shared/rich_project_chbe-medford/medford-share/data/pseudos_module/espresso/nninc/pbe/van/N.UPF
     MD5 check sum: 90d10febe142ad51ac9d5be1deb811c4
     Pseudo is Ultrasoft, Zval =  5.0
     Generated by new atomic code, or converted to UPF format
     Using radial grid of  729 points,  4 beta functions with:
                l(1) =   0
                l(2) =   0
                l(3) =   1
                l(4) =   1
     Q(r) pseudized with  8 coefficients,  rinner =    0.800   0.800   0.800

     PseudoPot. # 4 for C  read from file:
     /storage/coda1/p-amedford6/0/shared/rich_project_chbe-medford/medford-share/data/pseudos_module/espresso/nninc/pbe/van/C.UPF
     MD5 check sum: 1a69bf6b8db32088f5b2163dbdb77a27
     Pseudo is Ultrasoft, Zval =  4.0
     Generated by new atomic code, or converted to UPF format
     Using radial grid of  721 points,  4 beta functions with:
                l(1) =   0
                l(2) =   0
                l(3) =   1
                l(4) =   1
     Q(r) pseudized with  8 coefficients,  rinner =    0.800   0.800   0.800

     PseudoPot. # 5 for H  read from file:
     /storage/coda1/p-amedford6/0/shared/rich_project_chbe-medford/medford-share/data/pseudos_module/espresso/nninc/pbe/van/H.UPF
     MD5 check sum: b5ee9d7bfd3a09ee7748110bda690ff7
     Pseudo is Ultrasoft, Zval =  1.0
     Generated by new atomic code, or converted to UPF format
     Using radial grid of  615 points,  1 beta functions with:
                l(1) =   0
     Q(r) pseudized with  8 coefficients,  rinner =    0.800

     atomic species   valence    mass     pseudopotential
        O1             6.00    15.99900     O ( 1.00)
        Ti1           12.00    47.86700     Ti( 1.00)
        N1             5.00    14.00700     N ( 1.00)
        C1             4.00    12.01100     C ( 1.00)
        H1             1.00     1.00800     H ( 1.00)

     No symmetry found

   Cartesian axes

     site n.     atom                  positions (alat units)
         1           O1  tau(   1) = (   3.2904802   0.0005063   4.7018136  )
         2           O1  tau(   2) = (   3.2900926   2.9813045   4.7018136  )
         3           Ti1 tau(   3) = (   0.0004258   2.9801865   6.0000000  )
         4           Ti1 tau(   4) = (   0.0000382   5.9609847   6.0000000  )
         5           Ti1 tau(   5) = (   3.2906075   1.4906267   6.0002472  )
         6           Ti1 tau(   6) = (   3.2902200   4.4714249   6.0002472  )
         7           O1  tau(   7) = (   1.3043587   1.4918075   6.0039043  )
         8           O1  tau(   8) = (   1.3039711   4.4726057   6.0039043  )
         9           O1  tau(   9) = (   5.2767064   1.4903225   6.0039473  )
        10           O1  tau(  10) = (   5.2763189   4.4711207   6.0039473  )
        11           O1  tau(  11) = (   3.2906025   0.0005020   7.3038282  )
        12           O1  tau(  12) = (   3.2902150   2.9813002   7.3038282  )
        13           O1  tau(  13) = (   0.0006271   0.0005054   7.9858123  )
        14           O1  tau(  14) = (   0.0002396   2.9813036   7.9858123  )
        15           Ti1 tau(  15) = (   3.2907910   2.8959150   9.1758416  )
        16           Ti1 tau(  16) = (   3.2891106   5.8743827   9.1763621  )
        17           Ti1 tau(  17) = (   0.0015273   1.4827037   9.2680791  )
        18           Ti1 tau(  18) = (   0.0006254   4.4649316   9.2693709  )
        19           O1  tau(  19) = (   4.5942328   1.4918067   9.2879030  )
        20           O1  tau(  20) = (   4.5938453   4.4726049   9.2879030  )
        21           O1  tau(  21) = (   1.9868534   1.4903216   9.2879459  )
        22           O1  tau(  22) = (   1.9864658   4.4711199   9.2879459  )
        23           O1  tau(  23) = (   0.0116148   5.9584955  10.6183126  )
        24           O1  tau(  24) = (   0.0092240   2.9805883  10.6323155  )
        25           O1  tau(  25) = (   3.2531556   2.9620241  11.3322950  )
        26           O1  tau(  26) = (   3.2474763   5.9435521  11.3438280  )
        27           Ti1 tau(  27) = (   3.3237694   4.3814390  12.5572636  )
        28           Ti1 tau(  28) = (   0.0094504   0.0092305  12.5172013  )
        29           Ti1 tau(  29) = (   3.3224445   1.4452456  12.4745429  )
        30           Ti1 tau(  30) = (   0.0090234   2.9988230  12.5821063  )
        31           O1  tau(  31) = (   5.2496676   1.4726344  12.6006421  )
        32           O1  tau(  32) = (   5.2531746   4.4496067  12.6010712  )
        33           O1  tau(  33) = (   1.2410339   1.4659728  12.6671891  )
        34           O1  tau(  34) = (   1.2387123   4.4686174  12.6665250  )
        35           O1  tau(  35) = (   3.3067986   5.9564546  13.9007842  )
        36           O1  tau(  36) = (   3.2420318   3.0005841  13.9279729  )
        37           O1  tau(  37) = (   6.4209026   5.9439257  14.7021623  )
        38           O1  tau(  38) = (   6.4587925   2.9577525  14.6988961  )
        39           Ti1 tau(  39) = (   3.2423495   0.0283394  15.6829305  )
        40           Ti1 tau(  40) = (   6.4236859   1.5154006  15.7784978  )
        41           Ti1 tau(  41) = (   3.0799157   3.0146384  15.8599260  )
        42           O1  tau(  42) = (   1.9357555   1.4358950  15.9107064  )
        43           O1  tau(  43) = (   1.9271111   4.5447382  15.9660097  )
        44           Ti1 tau(  44) = (   6.4519450   4.6669281  16.1370820  )
        45           O1  tau(  45) = (   4.4443926   1.5071054  16.1134243  )
        46           O1  tau(  46) = (   4.4397279   4.4733020  16.1527106  )
        47           O1  tau(  47) = (   6.5167551   0.0277669  17.2715591  )
        48           N1  tau(  48) = (   0.3759035   2.6095042  18.6336219  )
        49           C1  tau(  49) = (   2.8136782   2.9081565  18.1516972  )
        50           H1  tau(  50) = (   0.1656462   1.5987175  18.7006542  )
        51           N1  tau(  51) = (   1.8163940   2.6652851  18.9293397  )
        52           H1  tau(  52) = (   3.7261332   2.9868749  18.7514029  )
        53           H1  tau(  53) = (   1.8928842   2.5952305  19.9427491  )
        54           O1  tau(  54) = (   0.0982553   2.9165792  17.3165359  )

     number of k points=    10  Fermi-Dirac smearing, width (Ry)=  0.0073
                       cart. coord. in units 2pi/alat
        k(    1) = (   0.0000000   0.0000000   0.0000000), wk =   0.1250000
        k(    2) = (   0.0000000   0.0419351   0.0000000), wk =   0.2500000
        k(    3) = (   0.0000000  -0.0838702   0.0000000), wk =   0.1250000
        k(    4) = (   0.0379955   0.0000049   0.0000000), wk =   0.2500000
        k(    5) = (   0.0379955   0.0419400   0.0000000), wk =   0.2500000
        k(    6) = (   0.0379955  -0.0838652   0.0000000), wk =   0.2500000
        k(    7) = (   0.0379955  -0.0419301   0.0000000), wk =   0.2500000
        k(    8) = (  -0.0759910  -0.0000099   0.0000000), wk =   0.1250000
        k(    9) = (  -0.0759910   0.0419252   0.0000000), wk =   0.2500000
        k(   10) = (  -0.0759910  -0.0838800   0.0000000), wk =   0.1250000

     Initial potential from superposition of free atoms

     starting charge  384.99916, renormalised to  401.00000

     negative rho (up, down):  1.631E-02 0.000E+00

     %%%%%%%%%%%%%%%%%%%%%%%%%%%%%%%%%%%%%%%%%%%%%%%%%%%%%%%%%%%%%%%%%%%%%%%%
     %                                                                      %
     % You are using vdW-DF, which was implemented by the Thonhauser group. %
     % Please cite the following two papers that made this development      %
     % possible and the two reviews that describe the various versions:     %
     %                                                                      %
     %   T. Thonhauser et al., PRL 115, 136402 (2015).                      %
     %   T. Thonhauser et al., PRB 76, 125112 (2007).                       %
     %   K. Berland et al., Rep. Prog. Phys. 78, 066501 (2015).             %
     %   D.C. Langreth et al., J. Phys.: Condens. Matter 21, 084203 (2009). %
     %                                                                      %
     %                                                                      %
     % If you are calculating the stress with vdW-DF, please also cite:     %
     %                                                                      %
     %   R. Sabatini et al., J. Phys.: Condens. Matter 24, 424209 (2012).   %
     %                                                                      %
     %%%%%%%%%%%%%%%%%%%%%%%%%%%%%%%%%%%%%%%%%%%%%%%%%%%%%%%%%%%%%%%%%%%%%%%%

     Adding external electric field

     Computed dipole along edir(3) :
        Dipole              -11.6315 Ry au,        -29.5642 Debye
        Dipole field         -0.0220 Ry au,

        Potential amp.        2.0347 Ry
        Total length         46.3494 bohr

     Starting wfcs are  303 atomic wfcs
  @ DRIVER MODE: Message from server: STATUS
  @ DRIVER MODE: Message from server: POSDATA
  @ DRIVER MODE: Reading and sharing cell
  @ DRIVER MODE: Reading and sharing positions
  @ DRIVER MODE: Received positions

     Self-consistent Calculation

     iteration #  1     ecut=    29.40 Ry     beta= 0.05
     Davidson diagonalization with overlap
     ethr =  1.00E-02,  avg # of iterations =  3.5

[...]

     total energy              =   -2442.86777231 Ry
     estimated scf accuracy    <    5987.54651332 Ry

[...]

     iteration #  4     ecut=    29.40 Ry     beta= 0.05
     Davidson diagonalization with overlap
     c_bands:  1 eigenvalues not converged
     ethr =  1.00E-02,  avg # of iterations = 12.7

[...]

     iteration # 54     ecut=    29.40 Ry     beta= 0.05
     Davidson diagonalization with overlap
     c_bands:  1 eigenvalues not converged
     ethr =  2.53E-10,  avg # of iterations = 14.2

[...]

     total energy              =   -2971.36035847 Ry
     estimated scf accuracy    <       0.00000012 Ry

     iteration # 62     ecut=    29.40 Ry     beta= 0.05
     Davidson diagonalization with overlap
     ethr =  3.07E-11,  avg # of iterations =  8.6

     negative rho (up, down):  1.695E-02 0.000E+00

     Adding external electric field

     Computed dipole along edir(3) :
        Dipole                1.3749 Ry au,          3.4946 Debye
        Dipole field          0.0026 Ry au,

        Potential amp.       -0.2405 Ry
        Total length         46.3494 bohr

     End of self-consistent calculation

          k = 0.0000 0.0000 0.0000 ( 18029 PWs)   bands (ev):

   -55.3637 -55.3297 -55.2842 -55.2399 -55.2338 -55.2241 -55.1966 -55.1848
   -55.1509 -55.1425 -55.1299 -55.1073 -55.0344 -54.9946 -54.3433 -54.3093
   -31.8482 -31.8088 -31.7326 -31.6851 -31.6797 -31.6554 -31.6328 -31.6090
   -31.5995 -31.5691 -31.5409 -31.5161 -31.5025 -31.4959 -31.4701 -31.4667
   -31.4630 -31.4491 -31.4374 -31.4209 -31.4027 -31.3991 -31.3939 -31.3823
   -31.3782 -31.3776 -31.3736 -31.3643 -31.3418 -31.3410 -31.3339 -31.3244
   -31.3226 -31.3153 -31.2969 -31.2939 -31.2864 -31.2554 -31.2354 -31.2237
   -31.2092 -31.1791 -30.7501 -30.6623 -30.6399 -30.5673 -30.4808 -30.3694
   -20.1977 -17.3483 -16.0546 -15.8426 -15.6381 -15.5294 -15.4811 -15.2486
   -15.1312 -15.1014 -15.0146 -14.9438 -14.9279 -14.9036 -14.8926 -14.8737
   -14.8149 -14.8025 -14.7913 -14.7880 -14.7598 -14.7388 -14.7156 -14.7029
   -14.5821 -14.5688 -14.5397 -14.5076 -14.4855 -14.4245 -14.1663 -12.8441
   -12.7372 -12.7276  -9.0608  -7.2336  -5.7122  -4.9627  -3.4273  -3.3138
    -3.2863  -3.2703  -3.1879  -3.1450  -3.0222  -2.8059  -2.6583  -2.5580
    -2.5326  -2.4530  -2.3823  -2.3584  -2.3155  -2.2601  -2.2057  -2.1594
    -2.1347  -2.1104  -2.1023  -2.0964  -2.0035  -1.9842  -1.9438  -1.8919
    -1.8568  -1.7604  -1.7433  -1.6865  -1.6785  -1.6373  -1.6269  -1.6177
    -1.6088  -1.5903  -1.5071  -1.4917  -1.4436  -1.3667  -1.1769  -1.1241
    -1.0260  -0.9719  -0.8686  -0.8440  -0.8016  -0.7720  -0.7653  -0.7567
    -0.7108  -0.6163  -0.5739  -0.5218  -0.4606  -0.3827  -0.3134  -0.2734
    -0.1630  -0.1494  -0.1227  -0.1149  -0.0829   0.0590   0.1177   0.1680
     0.1924   0.2298   0.2957   0.3566   0.3709   0.4167   0.4406   0.5061
     0.5429   0.5622   0.5820   0.6099   0.6234   0.6523   0.6677   0.7167
     0.8423   0.8528   0.9010   0.9439   1.0039   1.1212   1.1285   1.2897
     1.3755   1.5602   1.6186   1.6807   1.7426   1.8723   2.2504   2.2961
     3.7419   3.8568   3.8890   3.9172   4.0008   4.0402   4.2102   4.2752
     4.2983   4.3364

[...]

          k = 0.0380-0.0419 0.0000 ( 17876 PWs)   bands (ev):

[...]

          k =-0.0760-0.0000 0.0000 ( 17886 PWs)   bands (ev):

[...]

          k =-0.0760-0.0839 0.0000 ( 17948 PWs)   bands (ev):

   -55.3468 -55.3465 -55.2782 -55.2313 -55.2311 -55.2296 -55.2051 -55.1679
   -55.1673 -55.1325 -55.1302 -55.1197 -55.0265 -55.0023 -54.3263 -54.3262
   -31.6636 -31.6633 -31.6501 -31.6410 -31.6407 -31.5911 -31.5683 -31.5493
   -31.5420 -31.5259 -31.5054 -31.4955 -31.4924 -31.4858 -31.4798 -31.4721
   -31.4663 -31.4661 -31.4633 -31.4598 -31.4561 -31.4396 -31.4379 -31.4308
   -31.4218 -31.4162 -31.4044 -31.3844 -31.3715 -31.3694 -31.3571 -31.3467
   -31.3463 -31.3436 -31.3414 -31.3406 -31.3374 -31.3312 -31.2629 -31.2493
   -31.2309 -31.2107 -30.6526 -30.6526 -30.5630 -30.5629 -30.5241 -30.5240
   -20.1927 -17.3457 -15.4864 -15.3741 -15.3703 -15.3035 -15.2495 -15.1780
   -15.1287 -15.0981 -15.0589 -15.0407 -15.0141 -14.9726 -14.9326 -14.9213
   -14.8965 -14.8877 -14.8662 -14.8223 -14.8135 -14.8055 -14.7993 -14.7726
   -14.7323 -14.7058 -14.6838 -14.6792 -14.6497 -14.5123 -14.3664 -12.8294
   -12.8294 -12.7418  -9.0540  -7.1765  -5.7230  -4.9840  -3.3251  -2.7514
    -2.6604  -2.5744  -2.5035  -2.4317  -2.3927  -2.3703  -2.3122  -2.3072
    -2.2779  -2.2180  -2.1988  -2.1829  -2.1673  -2.1370  -2.1290  -2.1067
    -2.0965  -2.0892  -2.0484  -2.0453  -2.0204  -2.0182  -1.9926  -1.9852
    -1.9556  -1.9270  -1.9060  -1.8678  -1.8231  -1.7226  -1.6374  -1.5662
    -1.5121  -1.5009  -1.4916  -1.4368  -1.4196  -1.3881  -1.3606  -1.3250
    -1.1906  -1.0519  -1.0417  -1.0068  -0.9421  -0.9103  -0.8720  -0.8501
    -0.7750  -0.7585  -0.7251  -0.6981  -0.6274  -0.5368  -0.4923  -0.4517
    -0.4209  -0.3656  -0.3379  -0.3182  -0.3012  -0.2871  -0.2522  -0.1860
    -0.1415  -0.1179  -0.0856  -0.0593  -0.0374  -0.0123   0.1596   0.1774
     0.2757   0.3440   0.4024   0.5379   0.6392   0.6780   0.7201   0.7794
     0.8467   0.8990   0.9326   0.9498   0.9681   1.0320   1.0884   1.1545
     1.1703   1.2029   1.2812   1.4467   2.0443   2.0467   2.1161   2.1163
     4.1130   4.1616   4.1859   4.1964   4.2639   4.2881   4.3051   4.3087
     4.4137   4.4328

     the Fermi energy is     3.7622 ev

!    total energy              =   -2971.36040011 Ry
     estimated scf accuracy    <       0.00000003 Ry
     smearing contrib. (-TS)   =      -0.02057398 Ry
     internal energy E=F+TS    =   -2971.33982612 Ry

     The total energy is F=E-TS. E is the sum of the following terms:
     one-electron contribution =  -24168.82054677 Ry
     hartree contribution      =   12180.05719312 Ry
     xc contribution           =    -492.42942485 Ry
     ewald contribution        =    9509.84938516 Ry
     electric field correction =       0.00356722 Ry

     convergence has been achieved in  62 iterations

     Forces acting on atoms (cartesian axes, Ry/au):

     atom    1 type  1   force =     0.00007345   -0.00012202    0.10312166
     atom    2 type  1   force =     0.00007530   -0.00010513    0.10315442
     atom    3 type  2   force =     0.00002665   -0.00019321    0.09531504
     atom    4 type  2   force =     0.00008070   -0.00048466    0.09487929
     atom    5 type  2   force =    -0.00021321   -0.00070872   -0.17563321
     atom    6 type  2   force =    -0.00005324   -0.00023479   -0.17575779
     atom    7 type  1   force =    -0.07170675   -0.00018579   -0.02758141
     atom    8 type  1   force =    -0.07169022   -0.00021250   -0.02750961
     atom    9 type  1   force =     0.07157320    0.00025947   -0.02758614
     atom   10 type  1   force =     0.07154359    0.00025851   -0.02756043
     atom   11 type  1   force =    -0.00007864   -0.00144103    0.05241604
     atom   12 type  1   force =    -0.00000296   -0.00150125    0.05287869
     atom   13 type  1   force =    -0.00013002   -0.00018027   -0.02268401
     atom   14 type  1   force =    -0.00005814   -0.00028906   -0.02181005
     atom   15 type  2   force =    -0.00222114    0.00205997   -0.00873085
     atom   16 type  2   force =    -0.00226580    0.00207402   -0.00151349
     atom   17 type  2   force =     0.00140460    0.00931964    0.01491332
     atom   18 type  2   force =     0.00155278   -0.01043052    0.01569457
     atom   19 type  1   force =    -0.01012483   -0.00094352    0.00484012
     atom   20 type  1   force =    -0.01050347   -0.00075720    0.00458749
     atom   21 type  1   force =     0.01029664   -0.00000832    0.00093672
     atom   22 type  1   force =     0.01057491   -0.00053636    0.00075528
     atom   23 type  1   force =    -0.00214278    0.00037060   -0.01187302
     atom   24 type  1   force =    -0.00061336   -0.00078426   -0.01487474
     atom   25 type  1   force =     0.00002206    0.00040527   -0.00000805
     atom   26 type  1   force =     0.00010417   -0.00026289   -0.00045267
     atom   27 type  2   force =     0.00052603   -0.00011937   -0.00071572
     atom   28 type  2   force =    -0.00021034   -0.00020943   -0.00003928
     atom   29 type  2   force =     0.00020095    0.00076357    0.00012587
     atom   30 type  2   force =    -0.00030929   -0.00027956   -0.00000453
     atom   31 type  1   force =     0.00023559    0.00057252    0.00024130
     atom   32 type  1   force =    -0.00064574    0.00047026    0.00002751
     atom   33 type  1   force =     0.00044819    0.00052273    0.00010034
     atom   34 type  1   force =     0.00072481    0.00023052   -0.00017048
     atom   35 type  1   force =    -0.00010351   -0.00034779   -0.00002987
     atom   36 type  1   force =     0.00080632    0.00057655   -0.00072849
     atom   37 type  1   force =     0.00038695    0.00022944    0.00024486
     atom   38 type  1   force =     0.00057494    0.00068658    0.00067502
     atom   39 type  2   force =     0.00041534   -0.00022089   -0.00025684
     atom   40 type  2   force =    -0.00024081   -0.00028806   -0.00001264
     atom   41 type  2   force =     0.00063498    0.00018768    0.00014323
     atom   42 type  1   force =     0.00036203    0.00014353    0.00007868
     atom   43 type  1   force =     0.00035878    0.00014632    0.00021744
     atom   44 type  2   force =    -0.00026672    0.00069703   -0.00037265
     atom   45 type  1   force =     0.00006917   -0.00007490   -0.00052320
     atom   46 type  1   force =     0.00011037    0.00070516    0.00019905
     atom   47 type  1   force =    -0.00031867    0.00040356    0.00003696
     atom   48 type  3   force =    -0.00092909   -0.00095713    0.00050293
     atom   49 type  4   force =     0.00001167   -0.00051024    0.00008733
     atom   50 type  5   force =     0.00054028    0.00087259   -0.00048742
     atom   51 type  3   force =    -0.00004341    0.00034265   -0.00106428
     atom   52 type  5   force =     0.00136651   -0.00005576    0.00081860
     atom   53 type  5   force =    -0.00033535   -0.00007636    0.00110366
     atom   54 type  1   force =     0.00010649    0.00022283   -0.00011456

     Total force =     0.364460     Total SCF correction =     0.000492
  @ DRIVER MODE: Message from server: STATUS
  @ DRIVER MODE: Message from server: GETFORCE
  @ DRIVER MODE: Returning v,forces,stress,ensemble

     Writing output data file ./calc.save/
  @ DRIVER MODE: Message from server: EXIT
  @ DRIVE MODE: Exiting

     General routines

     Parallel routines

   This run was terminated on:  11:47:14  26Sep2021

   JOB DONE.