     Program PWSCF v.6.7GPU starts on 10Sep2021 at  5:20:43

     R & G space division:  proc/nbgrp/npool/nimage =      10
     Reading input from /storage/home/hcoda1/3/ntian30/research/carbon/CxH_vib/CH3_calc/ads_slab/CH3N2H2O_e/out_0025/pw.inp
Warning: card &CELL ignored
Warning: card   CELL_DYNAMICS='IPI', ignored
Warning: card / ignored

     Current dimensions of program PWSCF are:
     Max number of different atomic species (ntypx) = 10
     Max number of k-points (npk) =  40000
     Max angular momentum in pseudopotentials (lmaxx) =  3
     Presently no symmetry can be used with electric field

     Message from routine cell_base_init:
     DEPRECATED: use true lattice parameter, not A to a.u. conversion factor

     IMPORTANT: XC functional enforced from input :
     Exchange-correlation= BEEF-VDW
                           (   1   4  43  14   2   0   0)
     Any further DFT definition will be discarded
     Please, verify this is what you really want

  @ DRIVER MODE: Connecting to
 qe_1139763_2779715.sched-torque.pace.gatech.edui__vf4tt_scratch
  using UNIX socket
  @ DRIVER MODE: Message from server: STATUS
  @ DRIVER MODE: Message from server: INIT
  @ DRIVER MODE: Receiving replica           0          -1
  @ DRIVER MODE: Receiving encoded integer          25
  @ DRIVER MODE:  SCF:  T  FORCE:  T  STRESS:  F  VC:  F  ENSEMBLE:  F
  @ DRIVER MODE:  SCF:  T  FORCE:  T  STRESS:  F  VC:  F  ENSEMBLE:  F

     Using Slab Decomposition

     bravais-lattice index     =            0
     lattice parameter (alat)  =       1.8897  a.u.
     unit-cell volume          =    6658.9804 (a.u.)^3
     number of atoms/cell      =           56
     number of atomic types    =            5
     number of electrons       =       403.00
     number of Kohn-Sham states=          211
     kinetic-energy cutoff     =      29.3995  Ry
     charge density cutoff     =     293.9946  Ry
     scf convergence threshold =      7.3E-08
     mixing beta               =       0.0500
     number of iterations used =            8  plain     mixing
     Exchange-correlation= BEEF-VDW
                           (   1   4  43  14   2   0   0)

     celldm(1)=   1.889726  celldm(2)=   0.000000  celldm(3)=   0.000000
     celldm(4)=   0.000000  celldm(5)=   0.000000  celldm(6)=   0.000000

     crystal axes: (cart. coord. in units of alat)
               a(1) = (   6.579727   0.000000   0.000000 )
               a(2) = (  -0.000775   5.961596   0.000000 )
               a(3) = (   0.000000   0.000000  25.155947 )

     reciprocal axes: (cart. coord. in units 2 pi/alat)
               b(1) = (  0.151982  0.000020  0.000000 )
               b(2) = (  0.000000  0.167740  0.000000 )
               b(3) = (  0.000000  0.000000  0.039752 )

     PseudoPot. # 1 for Ti read from file:
     /storage/coda1/p-amedford6/0/shared/rich_project_chbe-medford/medford-share/data/pseudos_module/espresso/nninc/pbe/van/Ti.UPF
     MD5 check sum: 8e4df49b7f0d34bbd5052bf3f5ea0213
     Pseudo is Ultrasoft, Zval = 12.0
     Generated by new atomic code, or converted to UPF format
     Using radial grid of  851 points,  6 beta functions with:
                l(1) =   0
                l(2) =   0
                l(3) =   1
                l(4) =   1
                l(5) =   2
                l(6) =   2
     Q(r) pseudized with  8 coefficients,  rinner =    1.000   1.000   1.000
                                                       1.000   1.000

     PseudoPot. # 2 for O  read from file:
     /storage/coda1/p-amedford6/0/shared/rich_project_chbe-medford/medford-share/data/pseudos_module/espresso/nninc/pbe/van/O.UPF
     MD5 check sum: 78c19812648e8988a0fe644b0f25305e
     Pseudo is Ultrasoft, Zval =  6.0
     Generated by new atomic code, or converted to UPF format
     Using radial grid of  737 points,  4 beta functions with:
                l(1) =   0
                l(2) =   0
                l(3) =   1
                l(4) =   1
     Q(r) pseudized with  8 coefficients,  rinner =    0.800   0.800   0.800

     PseudoPot. # 3 for N  read from file:
     /storage/coda1/p-amedford6/0/shared/rich_project_chbe-medford/medford-share/data/pseudos_module/espresso/nninc/pbe/van/N.UPF
     MD5 check sum: 90d10febe142ad51ac9d5be1deb811c4
     Pseudo is Ultrasoft, Zval =  5.0
     Generated by new atomic code, or converted to UPF format
     Using radial grid of  729 points,  4 beta functions with:
                l(1) =   0
                l(2) =   0
                l(3) =   1
                l(4) =   1
     Q(r) pseudized with  8 coefficients,  rinner =    0.800   0.800   0.800

     PseudoPot. # 4 for C  read from file:
     /storage/coda1/p-amedford6/0/shared/rich_project_chbe-medford/medford-share/data/pseudos_module/espresso/nninc/pbe/van/C.UPF
     MD5 check sum: 1a69bf6b8db32088f5b2163dbdb77a27
     Pseudo is Ultrasoft, Zval =  4.0
     Generated by new atomic code, or converted to UPF format
     Using radial grid of  721 points,  4 beta functions with:
                l(1) =   0
                l(2) =   0
                l(3) =   1
                l(4) =   1
     Q(r) pseudized with  8 coefficients,  rinner =    0.800   0.800   0.800

     PseudoPot. # 5 for H  read from file:
     /storage/coda1/p-amedford6/0/shared/rich_project_chbe-medford/medford-share/data/pseudos_module/espresso/nninc/pbe/van/H.UPF
     MD5 check sum: b5ee9d7bfd3a09ee7748110bda690ff7
     Pseudo is Ultrasoft, Zval =  1.0
     Generated by new atomic code, or converted to UPF format
     Using radial grid of  615 points,  1 beta functions with:
                l(1) =   0
     Q(r) pseudized with  8 coefficients,  rinner =    0.800

     atomic species   valence    mass     pseudopotential
        Ti1           12.00    47.86700     Ti( 1.00)
        O1             6.00    15.99900     O ( 1.00)
        N1             5.00    14.00700     N ( 1.00)
        C1             4.00    12.01100     C ( 1.00)
        H1             1.00     1.00800     H ( 1.00)

     No symmetry found

   Cartesian axes

     site n.     atom                  positions (alat units)
         1           Ti1 tau(   1) = (   0.0004258   2.9801865   6.0000000  )
         2           Ti1 tau(   2) = (   3.2906075   1.4906267   6.0002472  )
         3           O1  tau(   3) = (   0.0006271   0.0005054   7.9858123  )
         4           O1  tau(   4) = (   3.2906025   0.0005020   7.3038282  )
         5           O1  tau(   5) = (   4.5942328   1.4918067   9.2879030  )
         6           O1  tau(   6) = (   1.9868534   1.4903216   9.2879459  )
         7           Ti1 tau(   7) = (   3.2907910   2.8959150   9.1758416  )
         8           Ti1 tau(   8) = (   0.0015273   1.4827037   9.2680791  )
         9           O1  tau(   9) = (   3.2823942   0.0140684  11.3428430  )
        10           O1  tau(  10) = (   0.0116148   5.9584955  10.6183126  )
        11           O1  tau(  11) = (   1.2742013   1.4978990  12.6323156  )
        12           O1  tau(  12) = (   5.2614901   1.5083079  12.6129891  )
        13           Ti1 tau(  13) = (   0.0550148   2.9595524  12.6160221  )
        14           Ti1 tau(  14) = (   3.3718896   1.5084997  12.4944496  )
        15           O1  tau(  15) = (   6.5380961   0.0278828  14.6255036  )
        16           O1  tau(  16) = (   3.2758616   0.0189586  13.9121306  )
        17           O1  tau(  17) = (   4.4976875   1.5333668  16.0433440  )
        18           O1  tau(  18) = (   1.9922867   1.5271532  16.0291573  )
        19           Ti1 tau(  19) = (   3.1858679   3.0241111  15.7732818  )
        20           Ti1 tau(  20) = (   6.4842391   1.5502874  15.8011710  )
        21           O1  tau(  21) = (   3.2904802   0.0005063   4.7018136  )
        22           O1  tau(  22) = (   6.5196731   0.0665875  17.1891134  )
        23           O1  tau(  23) = (   1.3043587   1.4918075   6.0039043  )
        24           O1  tau(  24) = (   5.2767064   1.4903225   6.0039473  )
        25           Ti1 tau(  25) = (   0.0000382   5.9609847   6.0000000  )
        26           Ti1 tau(  26) = (   3.2902200   4.4714249   6.0002472  )
        27           O1  tau(  27) = (   0.0002396   2.9813036   7.9858123  )
        28           O1  tau(  28) = (   3.2902150   2.9813002   7.3038282  )
        29           O1  tau(  29) = (   4.5938453   4.4726049   9.2879030  )
        30           O1  tau(  30) = (   1.9864658   4.4711199   9.2879459  )
        31           Ti1 tau(  31) = (   3.2891106   5.8743827   9.1763621  )
        32           Ti1 tau(  32) = (   0.0006254   4.4649316   9.2693709  )
        33           O1  tau(  33) = (   3.2807012   2.9937711  11.3380227  )
        34           O1  tau(  34) = (   0.0092240   2.9805883  10.6323155  )
        35           O1  tau(  35) = (   1.2734598   4.4826339  12.6318047  )
        36           O1  tau(  36) = (   5.2665626   4.4910389  12.6093644  )
        37           Ti1 tau(  37) = (   0.0550181   5.9329888  12.5453996  )
        38           Ti1 tau(  38) = (   3.3741151   4.4737790  12.4977360  )
        39           O1  tau(  39) = (   6.5373474   2.9946220  14.6524478  )
        40           O1  tau(  40) = (   3.2677173   3.0168568  13.9399215  )
        41           O1  tau(  41) = (   4.4884636   4.5316779  16.1079578  )
        42           O1  tau(  42) = (   1.9830865   4.5332738  16.0531499  )
        43           Ti1 tau(  43) = (   3.2469912   0.0413792  15.7000251  )
        44           Ti1 tau(  44) = (   6.5198411   4.7064707  16.0702691  )
        45           O1  tau(  45) = (   3.2900926   2.9813045   4.7018136  )
        46           O1  tau(  46) = (   1.3039711   4.4726057   6.0039043  )
        47           O1  tau(  47) = (   5.2763189   4.4711207   6.0039473  )
        48           N1  tau(  48) = (   0.0943371   2.6987919  18.6315974  )
        49           N1  tau(  49) = (   6.5718678   2.9345059  17.4339123  )
        50           C1  tau(  50) = (   0.1779456   3.8407003  19.5793842  )
        51           H1  tau(  51) = (   6.4148796   4.7858965  19.1557567  )
        52           H1  tau(  52) = (   6.1871438   3.5603257  20.4715321  )
        53           H1  tau(  53) = (   1.2306852   3.9282498  19.8556806  )
        54           O1  tau(  54) = (   3.3096034   3.0730741  18.2289406  )
        55           H1  tau(  55) = (   4.0988663   3.6297178  18.3192648  )
        56           H1  tau(  56) = (   3.5789210   2.1977314  18.5501991  )

     number of k points=    10  Fermi-Dirac smearing, width (Ry)=  0.0073
                       cart. coord. in units 2pi/alat
        k(    1) = (   0.0000000   0.0000000   0.0000000), wk =   0.1250000
        k(    2) = (   0.0000000   0.0419351   0.0000000), wk =   0.2500000
        k(    3) = (   0.0000000  -0.0838702   0.0000000), wk =   0.1250000
        k(    4) = (   0.0379955   0.0000049   0.0000000), wk =   0.2500000
        k(    5) = (   0.0379955   0.0419400   0.0000000), wk =   0.2500000
        k(    6) = (   0.0379955  -0.0838652   0.0000000), wk =   0.2500000
        k(    7) = (   0.0379955  -0.0419301   0.0000000), wk =   0.2500000
        k(    8) = (  -0.0759910  -0.0000099   0.0000000), wk =   0.1250000
        k(    9) = (  -0.0759910   0.0419252   0.0000000), wk =   0.2500000
        k(   10) = (  -0.0759910  -0.0838800   0.0000000), wk =   0.1250000

     Initial potential from superposition of free atoms

     starting charge  386.99914, renormalised to  403.00000

     negative rho (up, down):  1.478E-02 0.000E+00

     %%%%%%%%%%%%%%%%%%%%%%%%%%%%%%%%%%%%%%%%%%%%%%%%%%%%%%%%%%%%%%%%%%%%%%%%
     %                                                                      %
     % You are using vdW-DF, which was implemented by the Thonhauser group. %
     % Please cite the following two papers that made this development      %
     % possible and the two reviews that describe the various versions:     %
     %                                                                      %
     %   T. Thonhauser et al., PRL 115, 136402 (2015).                      %
     %   T. Thonhauser et al., PRB 76, 125112 (2007).                       %
     %   K. Berland et al., Rep. Prog. Phys. 78, 066501 (2015).             %
     %   D.C. Langreth et al., J. Phys.: Condens. Matter 21, 084203 (2009). %
     %                                                                      %
     %                                                                      %
     % If you are calculating the stress with vdW-DF, please also cite:     %
     %                                                                      %
     %   R. Sabatini et al., J. Phys.: Condens. Matter 24, 424209 (2012).   %
     %                                                                      %
     %%%%%%%%%%%%%%%%%%%%%%%%%%%%%%%%%%%%%%%%%%%%%%%%%%%%%%%%%%%%%%%%%%%%%%%%

     Adding external electric field

     Computed dipole along edir(3) :
        Dipole              -13.2300 Ry au,        -33.6274 Debye
        Dipole field         -0.0250 Ry au,

        Potential amp.        2.3144 Ry
        Total length         46.3494 bohr

     Starting wfcs are  305 atomic wfcs
  @ DRIVER MODE: Message from server: STATUS
  @ DRIVER MODE: Message from server: POSDATA
  @ DRIVER MODE: Reading and sharing cell
  @ DRIVER MODE: Reading and sharing positions
  @ DRIVER MODE: Received positions

     Self-consistent Calculation

     iteration #  1     ecut=    29.40 Ry     beta= 0.05
     Davidson diagonalization with overlap
     c_bands:  5 eigenvalues not converged
     c_bands:  2 eigenvalues not converged
     c_bands:  5 eigenvalues not converged
     c_bands:  5 eigenvalues not converged
     c_bands:  1 eigenvalues not converged
     c_bands:  1 eigenvalues not converged
     c_bands:  4 eigenvalues not converged
     c_bands:  2 eigenvalues not converged
     c_bands:  3 eigenvalues not converged
     ethr =  1.00E-05,  avg # of iterations = 26.9

[...]

     total energy              =   -2368.08311141 Ry
     estimated scf accuracy    <    6913.01061204 Ry

     iteration #  2     ecut=    29.40 Ry     beta= 0.05
     Davidson diagonalization with overlap
     ethr =  1.00E-02,  avg # of iterations = 23.7

[...]

     iteration # 58     ecut=    29.40 Ry     beta= 0.05
     Davidson diagonalization with overlap
     c_bands:  1 eigenvalues not converged
     ethr =  2.26E-10,  avg # of iterations = 11.0

[...]

     total energy              =   -2973.98641205 Ry
     estimated scf accuracy    <       0.00000016 Ry

     iteration # 64     ecut=    29.40 Ry     beta= 0.05
     Davidson diagonalization with overlap
     ethr =  2.92E-11,  avg # of iterations =  5.7

     negative rho (up, down):  1.503E-02 0.000E+00

     Adding external electric field

     Computed dipole along edir(3) :
        Dipole                0.9042 Ry au,          2.2982 Debye
        Dipole field          0.0017 Ry au,

        Potential amp.       -0.1582 Ry
        Total length         46.3494 bohr

     End of self-consistent calculation

          k = 0.0000 0.0000 0.0000 ( 18029 PWs)   bands (ev):

   -55.6047 -55.5706 -55.5686 -55.5328 -55.5002 -55.4499 -55.4401 -55.4158
   -55.4036 -55.3818 -55.3803 -55.3462 -55.0100 -54.8385 -54.5839 -54.5499
   -32.1134 -32.0873 -31.9604 -31.9441 -31.9144 -31.8975 -31.8827 -31.8700
   -31.8479 -31.8077 -31.7999 -31.7691 -31.7569 -31.7473 -31.7389 -31.7287
   -31.7092 -31.6996 -31.6972 -31.6618 -31.6577 -31.6473 -31.6344 -31.6088
   -31.6043 -31.5996 -31.5943 -31.5874 -31.5797 -31.5704 -31.5557 -31.5556
   -31.5467 -31.5331 -31.5224 -31.5102 -31.4920 -31.2872 -31.2006 -31.0990
   -31.0941 -31.0574 -30.9912 -30.9025 -30.8801 -30.8078 -30.7213 -30.6103
   -19.0417 -18.3035 -16.3191 -16.0781 -15.8761 -15.7611 -15.7201 -15.5276
   -15.4296 -15.3310 -15.2342 -15.1658 -15.1428 -15.1354 -15.1316 -15.1059
   -15.0810 -15.0693 -15.0481 -15.0316 -15.0168 -14.9570 -14.9435 -14.9344
   -14.8449 -14.7901 -14.7556 -14.7368 -14.6792 -14.6606 -14.1788 -13.0865
   -12.9701 -11.2817  -6.8758  -6.7266  -4.1973  -4.0656  -3.7852  -3.6894
    -3.5576  -3.5104  -3.4493  -3.4190  -3.2221  -3.1031  -3.0304  -2.8448
    -2.7877  -2.7600  -2.7305  -2.6593  -2.5229  -2.4722  -2.4213  -2.4150
    -2.4032  -2.3716  -2.3669  -2.3459  -2.2465  -2.2430  -2.1918  -2.1514
    -2.0821  -2.0026  -1.9835  -1.9359  -1.9176  -1.9051  -1.8770  -1.8541
    -1.8432  -1.8082  -1.7955  -1.7227  -1.6178  -1.5476  -1.4989  -1.4643
    -1.3989  -1.3860  -1.2190  -1.1544  -1.1081  -1.0727  -1.0539  -1.0335
    -0.9997  -0.9921  -0.8830  -0.7587  -0.7546  -0.6749  -0.6144  -0.5363
    -0.5276  -0.4501  -0.3933  -0.3750  -0.3626  -0.3516  -0.3230  -0.2496
    -0.1042  -0.0609  -0.0363  -0.0011   0.0283   0.0939   0.1374   0.2069
     0.2417   0.2828   0.3179   0.3420   0.3662   0.3737   0.3890   0.4011
     0.4204   0.6029   0.6628   0.6844   0.7491   0.7785   0.9214   0.9880
     1.0519   1.1586   1.3634   1.4381   1.5290   1.6303   2.0095   2.0552
     2.7713   3.5297   3.6146   3.6615   3.7034   3.7760   3.7937   3.9661
     3.9851   4.0280   4.1176

[...]

          k = 0.0380-0.0419 0.0000 ( 17876 PWs)   bands (ev):

[...]

          k =-0.0760-0.0000 0.0000 ( 17886 PWs)   bands (ev):

[...]

          k =-0.0760-0.0839 0.0000 ( 17948 PWs)   bands (ev):

   -55.5880 -55.5871 -55.5517 -55.5495 -55.4934 -55.4566 -55.4278 -55.4160
   -55.3992 -55.3978 -55.3661 -55.3607 -55.0084 -54.8399 -54.5669 -54.5667
   -31.9276 -31.9121 -31.9029 -31.9023 -31.8833 -31.8825 -31.8524 -31.8180
   -31.7956 -31.7919 -31.7829 -31.7627 -31.7599 -31.7409 -31.7194 -31.7148
   -31.7129 -31.7082 -31.7076 -31.7066 -31.7057 -31.7035 -31.6992 -31.6599
   -31.6487 -31.6355 -31.6254 -31.6118 -31.5990 -31.5984 -31.5964 -31.5890
   -31.5801 -31.5764 -31.5696 -31.5661 -31.4277 -31.2889 -31.2061 -31.1550
   -31.1002 -31.0834 -30.8929 -30.8928 -30.8040 -30.8038 -30.7646 -30.7645
   -19.0367 -18.3052 -15.7655 -15.6836 -15.5612 -15.5226 -15.4790 -15.4352
   -15.4151 -15.3221 -15.3024 -15.2931 -15.2417 -15.2275 -15.2046 -15.1610
   -15.1388 -15.1296 -15.1254 -15.0897 -15.0614 -15.0446 -15.0412 -15.0354
   -14.9730 -14.9242 -14.9222 -14.9173 -14.7905 -14.6616 -14.3574 -13.0719
   -13.0718 -11.2794  -6.8761  -6.7406  -4.1266  -3.8731  -3.7642  -3.2836
    -3.0504  -2.8891  -2.8189  -2.7287  -2.6993  -2.6919  -2.5482  -2.5158
    -2.4861  -2.4385  -2.4337  -2.4298  -2.4225  -2.4071  -2.4003  -2.3842
    -2.3322  -2.3197  -2.2950  -2.2823  -2.2746  -2.2571  -2.2353  -2.2251
    -2.2031  -2.1690  -2.1548  -2.1194  -2.1131  -2.0223  -1.8371  -1.8263
    -1.7803  -1.7471  -1.7330  -1.7076  -1.6710  -1.6574  -1.6492  -1.5976
    -1.4670  -1.4330  -1.3443  -1.2971  -1.2800  -1.2285  -1.1635  -1.1395
    -1.0699  -1.0250  -0.9883  -0.9659  -0.9433  -0.7987  -0.7861  -0.7328
    -0.7196  -0.6825  -0.6348  -0.5768  -0.5644  -0.5543  -0.5371  -0.5042
    -0.4358  -0.3667  -0.3550  -0.3268  -0.2758  -0.2592  -0.2159  -0.1276
    -0.1078  -0.0714   0.0266   0.1286   0.2203   0.3549   0.4407   0.4640
     0.5202   0.5973   0.6953   0.7051   0.7135   0.7497   0.7735   0.8338
     0.9273   0.9473   0.9743   1.0970   1.8016   1.8023   1.8748   1.8751
     2.8124   3.7908   3.8504   3.8961   3.9152   4.0077   4.0408   4.0627
     4.0652   4.1124   4.2225

     the Fermi energy is     3.5288 ev

!    total energy              =   -2973.98644744 Ry
     estimated scf accuracy    <       0.00000005 Ry
     smearing contrib. (-TS)   =      -0.02191968 Ry
     internal energy E=F+TS    =   -2973.96452777 Ry

     The total energy is F=E-TS. E is the sum of the following terms:
     one-electron contribution =  -23875.26084746 Ry
     hartree contribution      =   12032.07327365 Ry
     xc contribution           =    -494.07939186 Ry
     ewald contribution        =    9363.30089514 Ry
     electric field correction =       0.00154277 Ry

     convergence has been achieved in  64 iterations

     Forces acting on atoms (cartesian axes, Ry/au):

     atom    1 type  1   force =     0.00006436   -0.00017506    0.09645733
     atom    2 type  1   force =    -0.00015796   -0.00063643   -0.17544628
     atom    3 type  2   force =    -0.00003608    0.00001636   -0.02462508
     atom    4 type  2   force =     0.00005864   -0.00136685    0.05309045
     atom    5 type  2   force =    -0.01208459    0.00003895    0.00386167
     atom    6 type  2   force =     0.01330392    0.00071608    0.00206835
     atom    7 type  1   force =    -0.00148225    0.00064423   -0.01048597
     atom    8 type  1   force =     0.00072454    0.00971133    0.02661972
     atom    9 type  2   force =    -0.00040374    0.00008709   -0.00031046
     atom   10 type  2   force =    -0.00180982    0.00305967   -0.01773658
     atom   11 type  2   force =    -0.00015941   -0.00023636    0.00011592
     atom   12 type  2   force =    -0.00017780   -0.00029200   -0.00030504
     atom   13 type  1   force =    -0.00021230   -0.00021109   -0.00008689
     atom   14 type  1   force =    -0.00035788   -0.00018258   -0.00034920
     atom   15 type  2   force =     0.00003586   -0.00089617    0.00024614
     atom   16 type  2   force =     0.00006089    0.00015543   -0.00001492
     atom   17 type  2   force =    -0.00004896   -0.00057058    0.00020905
     atom   18 type  2   force =     0.00024800   -0.00041111    0.00038174
     atom   19 type  1   force =     0.00041807   -0.00021481   -0.00010714
     atom   20 type  1   force =     0.00029880   -0.00071441    0.00013226
     atom   21 type  2   force =     0.00008419   -0.00004753    0.10319626
     atom   22 type  2   force =     0.00053473   -0.00048585   -0.00035438
     atom   23 type  2   force =    -0.07147263   -0.00008323   -0.02774053
     atom   24 type  2   force =     0.07141208    0.00030279   -0.02774327
     atom   25 type  1   force =     0.00007301   -0.00028612    0.09593287
     atom   26 type  1   force =    -0.00025028   -0.00023080   -0.17572968
     atom   27 type  2   force =     0.00007136   -0.00008445   -0.02364726
     atom   28 type  2   force =     0.00006298   -0.00118910    0.05337309
     atom   29 type  2   force =    -0.01231950    0.00061890    0.00389983
     atom   30 type  2   force =     0.01347657    0.00110152    0.00206967
     atom   31 type  1   force =    -0.00129694    0.00373206   -0.00846565
     atom   32 type  1   force =     0.00085238   -0.01166368    0.02704617
     atom   33 type  2   force =    -0.00001924    0.00013242   -0.00009486
     atom   34 type  2   force =    -0.00128251    0.00169815   -0.02365682
     atom   35 type  2   force =    -0.00024509   -0.00003342    0.00003886
     atom   36 type  2   force =     0.00004746   -0.00002548    0.00017817
     atom   37 type  1   force =    -0.00000260   -0.00018051    0.00016248
     atom   38 type  1   force =    -0.00056035   -0.00029058    0.00054316
     atom   39 type  2   force =     0.00022018   -0.00061562    0.00050572
     atom   40 type  2   force =    -0.00001911   -0.00009461    0.00019056
     atom   41 type  2   force =     0.00020016   -0.00050955   -0.00033290
     atom   42 type  2   force =     0.00016656   -0.00035987   -0.00045169
     atom   43 type  1   force =     0.00074227   -0.00039974    0.00019105
     atom   44 type  1   force =    -0.00004534   -0.00016382   -0.00081919
     atom   45 type  2   force =     0.00009057   -0.00005580    0.10319672
     atom   46 type  2   force =    -0.07147005   -0.00007777   -0.02774561
     atom   47 type  2   force =     0.07141802    0.00035348   -0.02775847
     atom   48 type  3   force =    -0.00038211   -0.00075554    0.00090084
     atom   49 type  3   force =     0.00021909    0.00064221   -0.00049533
     atom   50 type  4   force =    -0.00471592    0.00018943    0.00367200
     atom   51 type  5   force =     0.00161791   -0.00066154   -0.00010901
     atom   52 type  5   force =     0.00477239    0.00152619   -0.00479890
     atom   53 type  5   force =    -0.00059581   -0.00042086    0.00138369
     atom   54 type  2   force =    -0.00062399   -0.00112033   -0.00001521
     atom   55 type  5   force =     0.00041737    0.00030185    0.00026941
     atom   56 type  5   force =     0.00053990    0.00071507   -0.00050689

     Total force =     0.367919     Total SCF correction =     0.000798
  @ DRIVER MODE: Message from server: STATUS
  @ DRIVER MODE: Message from server: GETFORCE
  @ DRIVER MODE: Returning v,forces,stress,ensemble

     Writing output data file ./calc.save/
  @ DRIVER MODE: Message from server: EXIT
  @ DRIVE MODE: Exiting

     General routines

     Parallel routines

   This run was terminated on:   5:39: 0  10Sep2021

   JOB DONE.