     Program PWSCF v.6.7GPU starts on 19Oct2021 at  6: 7: 1

     R & G space division:  proc/nbgrp/npool/nimage =       8
     Reading input from /storage/home/hcoda1/3/ntian30/research/carbon/CxH_vib/Thiel_calc/ads_slab/NH3NH3_perslab/out_0039/pw.inp
Warning: card &CELL ignored
Warning: card   CELL_DYNAMICS='IPI', ignored
Warning: card / ignored

     Current dimensions of program PWSCF are:
     Max number of different atomic species (ntypx) = 10
     Max number of k-points (npk) =  40000
     Max angular momentum in pseudopotentials (lmaxx) =  3
     Presently no symmetry can be used with electric field

     Message from routine cell_base_init:
     DEPRECATED: use true lattice parameter, not A to a.u. conversion factor

     IMPORTANT: XC functional enforced from input :
     Exchange-correlation= BEEF-VDW
                           (   1   4  43  14   2   0   0)
     Any further DFT definition will be discarded
     Please, verify this is what you really want

  @ DRIVER MODE: Connecting to
 qe_1139763_3255140.sched-torque.pace.gatech.edu002bp52d_scratch
  using UNIX socket
  @ DRIVER MODE: Message from server: STATUS
  @ DRIVER MODE: Message from server: INIT
  @ DRIVER MODE: Receiving replica           0          -1
  @ DRIVER MODE: Receiving encoded integer          25
  @ DRIVER MODE:  SCF:  T  FORCE:  T  STRESS:  F  VC:  F  ENSEMBLE:  F
  @ DRIVER MODE:  SCF:  T  FORCE:  T  STRESS:  F  VC:  F  ENSEMBLE:  F

     Using Slab Decomposition

     bravais-lattice index     =            0
     lattice parameter (alat)  =       1.8897  a.u.
     unit-cell volume          =    9988.4706 (a.u.)^3
     number of atoms/cell      =           61
     number of atomic types    =            4
     number of electrons       =       442.00
     number of Kohn-Sham states=          231
     kinetic-energy cutoff     =      29.3995  Ry
     charge density cutoff     =     293.9946  Ry
     scf convergence threshold =      7.3E-08
     mixing beta               =       0.0500
     number of iterations used =            8  plain     mixing
     Exchange-correlation= BEEF-VDW
                           (   1   4  43  14   2   0   0)

     celldm(1)=   1.889726  celldm(2)=   0.000000  celldm(3)=   0.000000
     celldm(4)=   0.000000  celldm(5)=   0.000000  celldm(6)=   0.000000

     crystal axes: (cart. coord. in units of alat)
               a(1) = (   6.579727   0.000000   0.000000 )
               a(2) = (  -0.001163   8.942395   0.000000 )
               a(3) = (   0.000000   0.000000  25.155947 )

     reciprocal axes: (cart. coord. in units 2 pi/alat)
               b(1) = (  0.151982  0.000020  0.000000 )
               b(2) = (  0.000000  0.111827  0.000000 )
               b(3) = (  0.000000  0.000000  0.039752 )

     PseudoPot. # 1 for O  read from file:
     /storage/coda1/p-amedford6/0/shared/rich_project_chbe-medford/medford-share/data/pseudos_module/espresso/nninc/pbe/van/O.UPF
     MD5 check sum: 78c19812648e8988a0fe644b0f25305e
     Pseudo is Ultrasoft, Zval =  6.0
     Generated by new atomic code, or converted to UPF format
     Using radial grid of  737 points,  4 beta functions with:
                l(1) =   0
                l(2) =   0
                l(3) =   1
                l(4) =   1
     Q(r) pseudized with  8 coefficients,  rinner =    0.800   0.800   0.800

     PseudoPot. # 2 for Ti read from file:
     /storage/coda1/p-amedford6/0/shared/rich_project_chbe-medford/medford-share/data/pseudos_module/espresso/nninc/pbe/van/Ti.UPF
     MD5 check sum: 8e4df49b7f0d34bbd5052bf3f5ea0213
     Pseudo is Ultrasoft, Zval = 12.0
     Generated by new atomic code, or converted to UPF format
     Using radial grid of  851 points,  6 beta functions with:
                l(1) =   0
                l(2) =   0
                l(3) =   1
                l(4) =   1
                l(5) =   2
                l(6) =   2
     Q(r) pseudized with  8 coefficients,  rinner =    1.000   1.000   1.000
                                                       1.000   1.000

     PseudoPot. # 3 for N  read from file:
     /storage/coda1/p-amedford6/0/shared/rich_project_chbe-medford/medford-share/data/pseudos_module/espresso/nninc/pbe/van/N.UPF
     MD5 check sum: 90d10febe142ad51ac9d5be1deb811c4
     Pseudo is Ultrasoft, Zval =  5.0
     Generated by new atomic code, or converted to UPF format
     Using radial grid of  729 points,  4 beta functions with:
                l(1) =   0
                l(2) =   0
                l(3) =   1
                l(4) =   1
     Q(r) pseudized with  8 coefficients,  rinner =    0.800   0.800   0.800

     PseudoPot. # 4 for H  read from file:
     /storage/coda1/p-amedford6/0/shared/rich_project_chbe-medford/medford-share/data/pseudos_module/espresso/nninc/pbe/van/H.UPF
     MD5 check sum: b5ee9d7bfd3a09ee7748110bda690ff7
     Pseudo is Ultrasoft, Zval =  1.0
     Generated by new atomic code, or converted to UPF format
     Using radial grid of  615 points,  1 beta functions with:
                l(1) =   0
     Q(r) pseudized with  8 coefficients,  rinner =    0.800

     atomic species   valence    mass     pseudopotential
        O1             6.00    15.99900     O ( 1.00)
        Ti1           12.00    47.86700     Ti( 1.00)
        N1             5.00    14.00700     N ( 1.00)
        H1             1.00     1.00800     H ( 1.00)

     No symmetry found

   Cartesian axes

     site n.     atom                  positions (alat units)
         1           O1  tau(   1) = (   0.0007354   0.0005023  10.5931620  )
         2           O1  tau(   2) = (   3.2905679   0.0262843  13.8966672  )
         3           O1  tau(   3) = (   0.0007290   0.0579300  17.2579193  )
         4           O1  tau(   4) = (   0.0006271   0.0005054   7.9858123  )
         5           O1  tau(   5) = (   3.2893100   8.9214726  11.1892856  )
         6           O1  tau(   6) = (   0.0005199   0.0455907  14.6396817  )
         7           O1  tau(   7) = (   1.9868534   1.4903216   9.2879459  )
         8           O1  tau(   8) = (   5.2380180   1.6024468  12.5713634  )
         9           O1  tau(   9) = (   2.0277759   1.4975965  16.1012153  )
        10           Ti1 tau(  10) = (   0.0007404   1.4906270   9.2895810  )
        11           Ti1 tau(  11) = (   3.2903786   1.3551844  12.4711573  )
        12           Ti1 tau(  12) = (   0.0003174   1.4440192  15.7330511  )
        13           O1  tau(  13) = (   4.5942328   1.4918067   9.2879030  )
        14           O1  tau(  14) = (   1.3426987   1.6023923  12.5713351  )
        15           O1  tau(  15) = (   4.5529958   1.4977110  16.1013444  )
        16           Ti1 tau(  16) = (   3.2902859   2.9801868   9.2893338  )
        17           Ti1 tau(  17) = (   0.0005333   2.8255407  12.4640987  )
        18           Ti1 tau(  18) = (   3.2895849   3.0341113  15.6952405  )
        19           O1  tau(  19) = (   0.0003479   2.9813005  10.5931620  )
        20           O1  tau(  20) = (   3.2900438   2.9627632  13.8881152  )
        21           O1  tau(  21) = (   0.0002396   2.9813036   7.9858123  )
        22           O1  tau(  22) = (   3.2902621   2.9759438  11.1922459  )
        23           O1  tau(  23) = (   0.0002943   2.9805036  14.7119039  )
        24           O1  tau(  24) = (   1.9864658   4.4711199   9.2879459  )
        25           O1  tau(  25) = (   5.2407125   4.5787950  12.5855407  )
        26           O1  tau(  26) = (   1.9842138   4.3634165  16.0604883  )
        27           Ti1 tau(  27) = (   0.0003529   4.4714252   9.2895810  )
        28           Ti1 tau(  28) = (   3.2904166   4.3402611  12.5252975  )
        29           Ti1 tau(  29) = (  -0.0003584   4.7219071  15.7914592  )
        30           O1  tau(  30) = (   4.5938453   4.4726049   9.2879030  )
        31           O1  tau(  31) = (   1.3394863   4.5787101  12.5854501  )
        32           O1  tau(  32) = (   4.5953883   4.3633133  16.0606172  )
        33           Ti1 tau(  33) = (   3.2898983   5.9609850   9.2893338  )
        34           Ti1 tau(  34) = (   0.0004309   5.8055675  12.4642027  )
        35           Ti1 tau(  35) = (   3.2895961   6.0676247  15.8182862  )
        36           O1  tau(  36) = (  -0.0000397   5.9620987  10.5931620  )
        37           O1  tau(  37) = (   3.2897974   5.9491097  13.9522666  )
        38           O1  tau(  38) = (  -0.0001005   5.9419674  17.2168411  )
        39           O1  tau(  39) = (  -0.0001480   5.9621018   7.9858123  )
        40           O1  tau(  40) = (   3.2898294   5.9516608  11.2068290  )
        41           O1  tau(  41) = (  -0.0002620   6.0093330  14.6024556  )
        42           O1  tau(  42) = (   1.9860782   7.4519181   9.2879459  )
        43           O1  tau(  43) = (   5.2335766   7.5615516  12.5803788  )
        44           O1  tau(  44) = (   2.0229086   7.4656171  16.0362607  )
        45           Ti1 tau(  45) = (  -0.0000347   7.4522234   9.2895810  )
        46           Ti1 tau(  46) = (   3.2895523   7.2794780  12.5477951  )
        47           Ti1 tau(  47) = (  -0.0001499   7.5569733  16.2601047  )
        48           O1  tau(  48) = (   4.5934577   7.4534031   9.2879030  )
        49           O1  tau(  49) = (   1.3453152   7.5613653  12.5804751  )
        50           O1  tau(  50) = (   4.5562564   7.4656138  16.0364310  )
        51           Ti1 tau(  51) = (   3.2895107   8.9417832   9.2893338  )
        52           Ti1 tau(  52) = (  -0.0004710   8.7769229  12.4586551  )
        53           Ti1 tau(  53) = (   3.2909234   0.0582169  15.6986445  )
        54           N1  tau(  54) = (   3.2892347   5.9685454  18.1810142  )
        55           H1  tau(  55) = (   3.2893406   5.0219839  18.5418895  )
        56           H1  tau(  56) = (   2.4590131   6.4368771  18.5304692  )
        57           H1  tau(  57) = (   4.1190552   6.4372901  18.5310312  )
        58           N1  tau(  58) = (  -0.0003436   2.9015831  17.9177722  )
        59           H1  tau(  59) = (   6.5794260   1.9611702  18.3102355  )
        60           H1  tau(  60) = (   5.7593157   3.3819262  18.2600543  )
        61           H1  tau(  61) = (   0.8192290   3.3923488  18.2608005  )

     number of k points=    10  Fermi-Dirac smearing, width (Ry)=  0.0073
                       cart. coord. in units 2pi/alat
        k(    1) = (   0.0000000   0.0000000   0.0000000), wk =   0.1250000
        k(    2) = (   0.0000000   0.0279567   0.0000000), wk =   0.2500000
        k(    3) = (   0.0000000  -0.0559134   0.0000000), wk =   0.1250000
        k(    4) = (   0.0379955   0.0000049   0.0000000), wk =   0.2500000
        k(    5) = (   0.0379955   0.0279617   0.0000000), wk =   0.2500000
        k(    6) = (   0.0379955  -0.0559085   0.0000000), wk =   0.2500000
        k(    7) = (   0.0379955  -0.0279518   0.0000000), wk =   0.2500000
        k(    8) = (  -0.0759910  -0.0000099   0.0000000), wk =   0.1250000
        k(    9) = (  -0.0759910   0.0279468   0.0000000), wk =   0.2500000
        k(   10) = (  -0.0759910  -0.0559233   0.0000000), wk =   0.1250000

     Initial potential from superposition of free atoms

     starting charge  423.99908, renormalised to  442.00000

     negative rho (up, down):  3.646E-02 0.000E+00

     %%%%%%%%%%%%%%%%%%%%%%%%%%%%%%%%%%%%%%%%%%%%%%%%%%%%%%%%%%%%%%%%%%%%%%%%
     %                                                                      %
     % You are using vdW-DF, which was implemented by the Thonhauser group. %
     % Please cite the following two papers that made this development      %
     % possible and the two reviews that describe the various versions:     %
     %                                                                      %
     %   T. Thonhauser et al., PRL 115, 136402 (2015).                      %
     %   T. Thonhauser et al., PRB 76, 125112 (2007).                       %
     %   K. Berland et al., Rep. Prog. Phys. 78, 066501 (2015).             %
     %   D.C. Langreth et al., J. Phys.: Condens. Matter 21, 084203 (2009). %
     %                                                                      %
     %                                                                      %
     % If you are calculating the stress with vdW-DF, please also cite:     %
     %                                                                      %
     %   R. Sabatini et al., J. Phys.: Condens. Matter 24, 424209 (2012).   %
     %                                                                      %
     %%%%%%%%%%%%%%%%%%%%%%%%%%%%%%%%%%%%%%%%%%%%%%%%%%%%%%%%%%%%%%%%%%%%%%%%

     Adding external electric field

     Computed dipole along edir(3) :
        Dipole               -6.4271 Ry au,        -16.3360 Debye
        Dipole field         -0.0081 Ry au,

        Potential amp.        0.7495 Ry
        Total length         46.3494 bohr

     Starting wfcs are  334 atomic wfcs
  @ DRIVER MODE: Message from server: STATUS
  @ DRIVER MODE: Message from server: POSDATA
  @ DRIVER MODE: Reading and sharing cell
  @ DRIVER MODE: Reading and sharing positions
  @ DRIVER MODE: Received positions

     Self-consistent Calculation

     iteration #  1     ecut=    29.40 Ry     beta= 0.05
     Davidson diagonalization with overlap
     c_bands:  1 eigenvalues not converged
     c_bands:  2 eigenvalues not converged
     c_bands:  2 eigenvalues not converged
     c_bands:  1 eigenvalues not converged
     c_bands:  3 eigenvalues not converged
     c_bands:  5 eigenvalues not converged
     c_bands:  3 eigenvalues not converged
     c_bands:  2 eigenvalues not converged
     c_bands:  3 eigenvalues not converged
     ethr =  1.00E-05,  avg # of iterations = 19.8

[...]

     total energy              =   -3273.09732440 Ry
     estimated scf accuracy    <     292.47344975 Ry

     iteration #  2     ecut=    29.40 Ry     beta= 0.05
     Davidson diagonalization with overlap
     ethr =  1.00E-02,  avg # of iterations = 16.6

[...]

     iteration # 34     ecut=    29.40 Ry     beta= 0.05
     Davidson diagonalization with overlap
     c_bands:  1 eigenvalues not converged
     ethr =  2.30E-06,  avg # of iterations =  7.4

[...]

     total energy              =   -3295.91280160 Ry
     estimated scf accuracy    <       0.00000025 Ry

     iteration # 60     ecut=    29.40 Ry     beta= 0.05
     Davidson diagonalization with overlap
     ethr =  5.59E-11,  avg # of iterations =  7.1

     negative rho (up, down):  3.470E-02 0.000E+00

     Adding external electric field

     Computed dipole along edir(3) :
        Dipole                1.8695 Ry au,          4.7518 Debye
        Dipole field          0.0024 Ry au,

        Potential amp.       -0.2180 Ry
        Total length         46.3494 bohr

     End of self-consistent calculation

          k = 0.0000 0.0000 0.0000 ( 26871 PWs)   bands (ev):

   -57.5937 -57.5534 -57.5299 -57.5238 -57.4936 -57.3945 -57.3869 -57.3660
   -57.3514 -57.3263 -57.2999 -57.2809 -57.2178 -57.1580 -57.0608 -56.5655
   -56.5403 -56.5393 -33.9745 -33.9350 -33.9305 -33.9043 -33.8863 -33.8677
   -33.8656 -33.8562 -33.8295 -33.8192 -33.8084 -33.7932 -33.7766 -33.7587
   -33.7485 -33.7348 -33.7205 -33.6877 -33.6800 -33.6767 -33.6668 -33.6520
   -33.6468 -33.6440 -33.6379 -33.6067 -33.5880 -33.5846 -33.5745 -33.5602
   -33.5572 -33.5512 -33.5373 -33.5358 -33.5326 -33.5185 -33.5142 -33.5006
   -33.4988 -33.4702 -33.4118 -33.3659 -33.3377 -33.3319 -33.2383 -32.8808
   -32.8784 -32.8769 -32.8642 -32.8631 -32.7913 -32.7273 -32.7263 -32.5911
   -18.3891 -18.0512 -17.8383 -17.7841 -17.7611 -17.6883 -17.6386 -17.6215
   -17.5538 -17.4935 -17.3671 -17.3267 -17.3219 -17.3094 -17.3043 -17.2372
   -17.2224 -17.2085 -17.2028 -17.1859 -17.1820 -17.1389 -17.0661 -17.0566
   -17.0156 -17.0016 -16.9810 -16.9784 -16.9304 -16.8782 -16.8677 -16.6738
   -16.6341 -16.4812 -15.0322 -14.9751 -14.9728  -7.7441  -7.7261  -7.5033
    -7.4862  -5.7129  -5.5305  -5.4653  -5.3709  -4.9986  -4.9410  -4.9267
    -4.9006  -4.8588  -4.8177  -4.8025  -4.7776  -4.7765  -4.7331  -4.6893
    -4.6639  -4.6444  -4.5448  -4.5077  -4.4694  -4.4393  -4.4330  -4.3817
    -4.3659  -4.3261  -4.3257  -4.2775  -4.2370  -4.2264  -4.2054  -4.1382
    -4.1199  -4.0157  -3.9275  -3.8698  -3.8627  -3.8217  -3.8086  -3.7628
    -3.7401  -3.7027  -3.6808  -3.6345  -3.6104  -3.5423  -3.4903  -3.3900
    -3.2938  -3.2671  -3.2407  -3.2187  -3.1736  -3.1206  -3.0012  -2.9606
    -2.9284  -2.9062  -2.8170  -2.8169  -2.7263  -2.7105  -2.6957  -2.6517
    -2.6005  -2.5859  -2.5519  -2.4350  -2.4143  -2.3220  -2.3124  -2.3105
    -2.2810  -2.2193  -2.2076  -2.1837  -2.1619  -2.1343  -2.1199  -2.0813
    -2.0778  -1.9791  -1.9576  -1.9013  -1.8786  -1.8784  -1.7799  -1.7625
    -1.7371  -1.7245  -1.6568  -1.5731  -1.4627  -1.4122  -1.3869  -1.3838
    -1.2846  -1.2563  -1.2133  -1.1328  -0.7970  -0.6003  -0.3132  -0.2690
    -0.2687  -0.0062  -0.0045   0.1241   1.4467   1.6619   1.6833   1.8753
     1.8975   1.9415   2.0280   2.0359   2.0978   2.1975   2.2133

[...]

          k = 0.0380-0.0280 0.0000 ( 26873 PWs)   bands (ev):

[...]

          k =-0.0760-0.0000 0.0000 ( 26902 PWs)   bands (ev):

[...]

          k =-0.0760-0.0559 0.0000 ( 26868 PWs)   bands (ev):

   -57.5935 -57.5473 -57.5418 -57.5180 -57.4938 -57.3921 -57.3868 -57.3709
   -57.3485 -57.3243 -57.3044 -57.2788 -57.2176 -57.1583 -57.0606 -56.5574
   -56.5563 -56.5314 -34.0260 -34.0139 -33.9174 -33.8922 -33.8824 -33.8776
   -33.8761 -33.8545 -33.8259 -33.8128 -33.7778 -33.7435 -33.7380 -33.7350
   -33.7237 -33.6962 -33.6926 -33.6879 -33.6823 -33.6795 -33.6419 -33.6359
   -33.6329 -33.6258 -33.6073 -33.6072 -33.6046 -33.6024 -33.5986 -33.5859
   -33.5785 -33.5705 -33.5690 -33.5599 -33.5391 -33.5271 -33.5227 -33.5150
   -33.4990 -33.4245 -33.4182 -33.3714 -33.3382 -33.3336 -33.2712 -32.9693
   -32.8799 -32.8789 -32.8551 -32.7704 -32.7693 -32.7052 -32.6887 -32.6874
   -18.0790 -18.0156 -17.7597 -17.7054 -17.6890 -17.6532 -17.6380 -17.5606
   -17.5405 -17.5251 -17.5039 -17.4520 -17.3857 -17.3366 -17.3347 -17.3279
   -17.2577 -17.2529 -17.2451 -17.2405 -17.1945 -17.1802 -17.1641 -17.1144
   -17.0366 -16.9668 -16.9542 -16.9471 -16.9081 -16.8932 -16.8422 -16.7076
   -16.6988 -16.4084 -15.0307 -15.0282 -14.9116  -7.7564  -7.7086  -7.5118
    -7.4847  -5.3357  -5.3055  -5.2760  -5.2116  -5.0210  -4.8610  -4.8303
    -4.8238  -4.7862  -4.7366  -4.7095  -4.7028  -4.6938  -4.6765  -4.6618
    -4.6140  -4.6095  -4.5840  -4.5114  -4.4702  -4.4654  -4.4464  -4.4324
    -4.4263  -4.3583  -4.2836  -4.2165  -4.1702  -4.1556  -4.1392  -4.0914
    -4.0549  -4.0250  -3.9819  -3.9718  -3.9030  -3.7953  -3.7115  -3.6716
    -3.6712  -3.6304  -3.5814  -3.5806  -3.4796  -3.4177  -3.3426  -3.2111
    -3.2050  -3.1922  -3.1675  -3.1535  -3.1146  -3.1038  -3.0794  -3.0281
    -3.0182  -2.9965  -2.9360  -2.8699  -2.7843  -2.7564  -2.7226  -2.7169
    -2.6922  -2.6812  -2.6534  -2.6505  -2.6165  -2.6074  -2.5535  -2.5264
    -2.4751  -2.4478  -2.4041  -2.3187  -2.3029  -2.2807  -2.1896  -2.1268
    -2.1100  -2.1049  -2.0757  -2.0285  -1.9316  -1.8375  -1.8020  -1.7577
    -1.6460  -1.6453  -1.6418  -1.6259  -1.5525  -1.5380  -1.3343  -1.3222
    -1.2627  -1.1874  -1.1479  -1.1122  -1.1098  -0.8925  -0.4820  -0.1986
    -0.1854  -0.1619  -0.0092  -0.0041   1.5928   1.6747   1.7096   1.7592
     1.7950   1.7982   1.8043   1.8679   1.9317   1.9415   2.1812

     the Fermi energy is     1.5309 ev

!    total energy              =   -3295.91284068 Ry
     estimated scf accuracy    <       0.00000006 Ry
     smearing contrib. (-TS)   =      -0.03397257 Ry
     internal energy E=F+TS    =   -3295.87886811 Ry

     The total energy is F=E-TS. E is the sum of the following terms:
     one-electron contribution =  -34427.51393152 Ry
     hartree contribution      =   17282.27072100 Ry
     xc contribution           =    -543.76110692 Ry
     ewald contribution        =   14393.12105230 Ry
     electric field correction =       0.00439703 Ry

     convergence has been achieved in  60 iterations

     Forces acting on atoms (cartesian axes, Ry/au):

     atom    1 type  1   force =     0.00001598    0.00450626    0.05616757
     atom    2 type  1   force =     0.00000104   -0.00095096   -0.00072238
     atom    3 type  1   force =    -0.00003036    0.00145690   -0.00020239
     atom    4 type  1   force =     0.00005844    0.00031444    0.10698502
     atom    5 type  1   force =     0.00000233    0.00080717    0.00981586
     atom    6 type  1   force =     0.00000368   -0.00264079    0.00105172
     atom    7 type  1   force =     0.06728783   -0.00022819   -0.02911257
     atom    8 type  1   force =     0.00475504   -0.02827901    0.00257367
     atom    9 type  1   force =     0.00735058   -0.00159008   -0.00302098
     atom   10 type  2   force =    -0.00005192   -0.00148437   -0.18424462
     atom   11 type  2   force =     0.00003625    0.02164586   -0.00779623
     atom   12 type  2   force =     0.00006783   -0.00245948    0.01228553
     atom   13 type  1   force =    -0.06739006   -0.00069011   -0.02907727
     atom   14 type  1   force =    -0.00478183   -0.02827997    0.00257339
     atom   15 type  1   force =    -0.00734670   -0.00157061   -0.00299355
     atom   16 type  2   force =     0.00009467    0.00012952    0.06630044
     atom   17 type  2   force =    -0.00001142    0.03587059    0.00369537
     atom   18 type  2   force =     0.00002630   -0.01051250   -0.00437972
     atom   19 type  1   force =     0.00001947    0.00443707    0.05989035
     atom   20 type  1   force =    -0.00000223    0.00082707   -0.00595759
     atom   21 type  1   force =     0.00005895    0.00018566    0.10722168
     atom   22 type  1   force =    -0.00000130   -0.00066478    0.00886216
     atom   23 type  1   force =    -0.00000439    0.00497335    0.00313592
     atom   24 type  1   force =     0.06803748    0.00051150   -0.02900803
     atom   25 type  1   force =     0.00342167   -0.02997028    0.00208517
     atom   26 type  1   force =     0.01010546    0.02027970    0.00207239
     atom   27 type  2   force =    -0.00005944    0.00003155   -0.18366415
     atom   28 type  2   force =     0.00003527    0.02158656   -0.00596064
     atom   29 type  2   force =    -0.00004052   -0.02171688   -0.00583348
     atom   30 type  1   force =    -0.06813727    0.00006407   -0.02897651
     atom   31 type  1   force =    -0.00345391   -0.02995748    0.00209317
     atom   32 type  1   force =    -0.01016064    0.02027453    0.00203248
     atom   33 type  2   force =     0.00010300   -0.00026288    0.06932250
     atom   34 type  2   force =    -0.00001597    0.03687060    0.00370881
     atom   35 type  2   force =     0.00002022   -0.02929570    0.01040810
     atom   36 type  1   force =     0.00002586    0.00481953    0.05629485
     atom   37 type  1   force =    -0.00001170    0.00205647   -0.00519749
     atom   38 type  1   force =     0.00001514    0.00429569   -0.00012434
     atom   39 type  1   force =     0.00005584    0.00002706    0.10681910
     atom   40 type  1   force =    -0.00000506   -0.00060843    0.00813557
     atom   41 type  1   force =     0.00000190    0.00071581    0.00246386
     atom   42 type  1   force =     0.06805872   -0.00121347   -0.02960573
     atom   43 type  1   force =     0.00353225   -0.02805126    0.00205484
     atom   44 type  1   force =     0.01054535    0.01134457    0.00281927
     atom   45 type  2   force =    -0.00005974   -0.00196914   -0.18353730
     atom   46 type  2   force =     0.00003462    0.01958727   -0.00654646
     atom   47 type  2   force =    -0.00000895   -0.01035952   -0.01265085
     atom   48 type  1   force =    -0.06815392   -0.00165318   -0.02956903
     atom   49 type  1   force =    -0.00354765   -0.02805240    0.00205262
     atom   50 type  1   force =    -0.01056578    0.01134631    0.00280845
     atom   51 type  2   force =     0.00009663   -0.00308034    0.06759441
     atom   52 type  2   force =    -0.00002037    0.03494270    0.00626016
     atom   53 type  2   force =    -0.00001846    0.00507098    0.00129179
     atom   54 type  3   force =     0.00006751    0.00065073   -0.00246579
     atom   55 type  4   force =     0.00001401   -0.00142268   -0.00039846
     atom   56 type  4   force =    -0.00129872    0.00056847    0.00022013
     atom   57 type  4   force =     0.00120519    0.00051285    0.00018283
     atom   58 type  3   force =     0.00542351   -0.00711478   -0.00083912
     atom   59 type  4   force =     0.00116970   -0.00058764   -0.00042678
     atom   60 type  4   force =    -0.00508651    0.00455230    0.00158179
     atom   61 type  4   force =    -0.00148291   -0.00059628   -0.00054953

     Total force =     0.454923     Total SCF correction =     0.000560
  @ DRIVER MODE: Message from server: STATUS
  @ DRIVER MODE: Message from server: GETFORCE
  @ DRIVER MODE: Returning v,forces,stress,ensemble

     Writing output data file ./calc.save/
  @ DRIVER MODE: Message from server: EXIT
  @ DRIVE MODE: Exiting

     General routines

     Parallel routines

   This run was terminated on:   6:38:20  19Oct2021

   JOB DONE.