     Program PWSCF v.6.7GPU starts on 24Aug2021 at 13:50:25

     R & G space division:  proc/nbgrp/npool/nimage =      72
     Reading input from /storage/home/hcoda1/3/ntian30/research/carbon/CH2_vib/ads_slab/CH2N_a/out_0015/pw.inp
Warning: card &CELL ignored
Warning: card   CELL_DYNAMICS='IPI', ignored
Warning: card / ignored

     Current dimensions of program PWSCF are:
     Max number of different atomic species (ntypx) = 10
     Max number of k-points (npk) =  40000
     Max angular momentum in pseudopotentials (lmaxx) =  3
     Presently no symmetry can be used with electric field

     Message from routine cell_base_init:
     DEPRECATED: use true lattice parameter, not A to a.u. conversion factor

     IMPORTANT: XC functional enforced from input :
     Exchange-correlation= BEEF-VDW
                           (   1   4  43  14   2   0   0)
     Any further DFT definition will be discarded
     Please, verify this is what you really want

  @ DRIVER MODE: Connecting to
 qe_1139763_2641441.sched-torque.pace.gatech.eduqpu54k4v_scratch
  using UNIX socket
  @ DRIVER MODE: Message from server: STATUS
  @ DRIVER MODE: Message from server: INIT
  @ DRIVER MODE: Receiving replica           0          -1
  @ DRIVER MODE: Receiving encoded integer          25
  @ DRIVER MODE:  SCF:  T  FORCE:  T  STRESS:  F  VC:  F  ENSEMBLE:  F
  @ DRIVER MODE:  SCF:  T  FORCE:  T  STRESS:  F  VC:  F  ENSEMBLE:  F

     Using Slab Decomposition

     bravais-lattice index     =            0
     lattice parameter (alat)  =       1.8897  a.u.
     unit-cell volume          =    6658.9804 (a.u.)^3
     number of atoms/cell      =           51
     number of atomic types    =            5
     number of electrons       =       389.00
     number of Kohn-Sham states=          204
     kinetic-energy cutoff     =      29.3995  Ry
     charge density cutoff     =     293.9946  Ry
     scf convergence threshold =      7.3E-08
     mixing beta               =       0.0500
     number of iterations used =            8  plain     mixing
     Exchange-correlation= BEEF-VDW
                           (   1   4  43  14   2   0   0)

     celldm(1)=   1.889726  celldm(2)=   0.000000  celldm(3)=   0.000000
     celldm(4)=   0.000000  celldm(5)=   0.000000  celldm(6)=   0.000000

     crystal axes: (cart. coord. in units of alat)
               a(1) = (   6.579727   0.000000   0.000000 )
               a(2) = (  -0.000775   5.961596   0.000000 )
               a(3) = (   0.000000   0.000000  25.155947 )

     reciprocal axes: (cart. coord. in units 2 pi/alat)
               b(1) = (  0.151982  0.000020  0.000000 )
               b(2) = (  0.000000  0.167740  0.000000 )
               b(3) = (  0.000000  0.000000  0.039752 )

     PseudoPot. # 1 for Ti read from file:
     /storage/coda1/p-amedford6/0/shared/rich_project_chbe-medford/medford-share/data/pseudos_module/espresso/nninc/pbe/van/Ti.UPF
     MD5 check sum: 8e4df49b7f0d34bbd5052bf3f5ea0213
     Pseudo is Ultrasoft, Zval = 12.0
     Generated by new atomic code, or converted to UPF format
     Using radial grid of  851 points,  6 beta functions with:
                l(1) =   0
                l(2) =   0
                l(3) =   1
                l(4) =   1
                l(5) =   2
                l(6) =   2
     Q(r) pseudized with  8 coefficients,  rinner =    1.000   1.000   1.000
                                                       1.000   1.000

     PseudoPot. # 2 for O  read from file:
     /storage/coda1/p-amedford6/0/shared/rich_project_chbe-medford/medford-share/data/pseudos_module/espresso/nninc/pbe/van/O.UPF
     MD5 check sum: 78c19812648e8988a0fe644b0f25305e
     Pseudo is Ultrasoft, Zval =  6.0
     Generated by new atomic code, or converted to UPF format
     Using radial grid of  737 points,  4 beta functions with:
                l(1) =   0
                l(2) =   0
                l(3) =   1
                l(4) =   1
     Q(r) pseudized with  8 coefficients,  rinner =    0.800   0.800   0.800

     PseudoPot. # 3 for N  read from file:
     /storage/coda1/p-amedford6/0/shared/rich_project_chbe-medford/medford-share/data/pseudos_module/espresso/nninc/pbe/van/N.UPF
     MD5 check sum: 90d10febe142ad51ac9d5be1deb811c4
     Pseudo is Ultrasoft, Zval =  5.0
     Generated by new atomic code, or converted to UPF format
     Using radial grid of  729 points,  4 beta functions with:
                l(1) =   0
                l(2) =   0
                l(3) =   1
                l(4) =   1
     Q(r) pseudized with  8 coefficients,  rinner =    0.800   0.800   0.800

     PseudoPot. # 4 for C  read from file:
     /storage/coda1/p-amedford6/0/shared/rich_project_chbe-medford/medford-share/data/pseudos_module/espresso/nninc/pbe/van/C.UPF
     MD5 check sum: 1a69bf6b8db32088f5b2163dbdb77a27
     Pseudo is Ultrasoft, Zval =  4.0
     Generated by new atomic code, or converted to UPF format
     Using radial grid of  721 points,  4 beta functions with:
                l(1) =   0
                l(2) =   0
                l(3) =   1
                l(4) =   1
     Q(r) pseudized with  8 coefficients,  rinner =    0.800   0.800   0.800

     PseudoPot. # 5 for H  read from file:
     /storage/coda1/p-amedford6/0/shared/rich_project_chbe-medford/medford-share/data/pseudos_module/espresso/nninc/pbe/van/H.UPF
     MD5 check sum: b5ee9d7bfd3a09ee7748110bda690ff7
     Pseudo is Ultrasoft, Zval =  1.0
     Generated by new atomic code, or converted to UPF format
     Using radial grid of  615 points,  1 beta functions with:
                l(1) =   0
     Q(r) pseudized with  8 coefficients,  rinner =    0.800

     atomic species   valence    mass     pseudopotential
        Ti1           12.00    47.86700     Ti( 1.00)
        O1             6.00    15.99900     O ( 1.00)
        N1             5.00    14.00700     N ( 1.00)
        C1             4.00    12.01100     C ( 1.00)
        H1             1.00     1.00800     H ( 1.00)

     No symmetry found

   Cartesian axes

     site n.     atom                  positions (alat units)
         1           Ti1 tau(   1) = (   0.0004258   2.9801865   6.0000000  )
         2           Ti1 tau(   2) = (   3.2906075   1.4906267   6.0002472  )
         3           O1  tau(   3) = (   0.0006271   0.0005054   7.9858123  )
         4           O1  tau(   4) = (   3.2906025   0.0005020   7.3038282  )
         5           O1  tau(   5) = (   4.5942328   1.4918067   9.2879030  )
         6           O1  tau(   6) = (   1.9868534   1.4903216   9.2879459  )
         7           Ti1 tau(   7) = (   3.2907910   2.8959150   9.1758416  )
         8           Ti1 tau(   8) = (   0.0015273   1.4827037   9.2680791  )
         9           O1  tau(   9) = (   3.3121109   0.0111249  11.3310253  )
        10           O1  tau(  10) = (   0.0116148   5.9584955  10.6183126  )
        11           O1  tau(  11) = (   1.3329579   1.5011098  12.6063046  )
        12           O1  tau(  12) = (   5.3158149   1.4916659  12.6245769  )
        13           Ti1 tau(  13) = (   6.5431557   2.9598450  12.6156978  )
        14           Ti1 tau(  14) = (   3.2273839   1.5049138  12.4779161  )
        15           O1  tau(  15) = (   0.0471551   0.0364395  14.6528705  )
        16           O1  tau(  16) = (   3.3160098   0.0207640  13.9215624  )
        17           O1  tau(  17) = (   4.5810600   1.5471256  16.0564497  )
        18           O1  tau(  18) = (   2.0947546   1.5446786  16.0656860  )
        19           Ti1 tau(  19) = (   3.3354243   3.0239694  15.7034691  )
        20           Ti1 tau(  20) = (   0.0419518   1.5622418  15.8401859  )
        21           O1  tau(  21) = (   3.2904802   0.0005063   4.7018136  )
        22           O1  tau(  22) = (   0.0415632   0.0558952  17.2248266  )
        23           O1  tau(  23) = (   1.3043587   1.4918075   6.0039043  )
        24           O1  tau(  24) = (   5.2767064   1.4903225   6.0039473  )
        25           Ti1 tau(  25) = (   0.0000382   5.9609847   6.0000000  )
        26           Ti1 tau(  26) = (   3.2902200   4.4714249   6.0002472  )
        27           O1  tau(  27) = (   0.0002396   2.9813036   7.9858123  )
        28           O1  tau(  28) = (   3.2902150   2.9813002   7.3038282  )
        29           O1  tau(  29) = (   4.5938453   4.4726049   9.2879030  )
        30           O1  tau(  30) = (   1.9864658   4.4711199   9.2879459  )
        31           Ti1 tau(  31) = (   3.2891106   5.8743827   9.1763621  )
        32           Ti1 tau(  32) = (   0.0006254   4.4649316   9.2693709  )
        33           O1  tau(  33) = (   3.3101407   2.9955762  11.3294870  )
        34           O1  tau(  34) = (   0.0092240   2.9805883  10.6323155  )
        35           O1  tau(  35) = (   1.3272401   4.4878838  12.6173354  )
        36           O1  tau(  36) = (   5.3164082   4.4812184  12.6342743  )
        37           Ti1 tau(  37) = (   6.5430856   5.9365306  12.5602028  )
        38           Ti1 tau(  38) = (   3.2246414   4.4845729  12.4831641  )
        39           O1  tau(  39) = (   0.0420920   2.9623338  14.6463429  )
        40           O1  tau(  40) = (   3.3182946   3.0055568  13.9055467  )
        41           O1  tau(  41) = (   4.5797692   4.5125808  16.0776662  )
        42           O1  tau(  42) = (   2.0972274   4.5146901  16.0918111  )
        43           Ti1 tau(  43) = (   3.3319946   0.0399457  15.7186693  )
        44           Ti1 tau(  44) = (   0.0407629   4.6953510  16.1098173  )
        45           O1  tau(  45) = (   3.2900926   2.9813045   4.7018136  )
        46           O1  tau(  46) = (   1.3039711   4.4726057   6.0039043  )
        47           O1  tau(  47) = (   5.2763189   4.4711207   6.0039473  )
        48           N1  tau(  48) = (   0.0554023   2.9932257  17.3910969  )
        49           C1  tau(  49) = (   0.1090839   2.9222626  18.6472186  )
        50           H1  tau(  50) = (   0.1225839   3.8104711  19.2773028  )
        51           H1  tau(  51) = (   0.1417253   1.9549180  19.1625725  )

     number of k points=    10  Fermi-Dirac smearing, width (Ry)=  0.0073
                       cart. coord. in units 2pi/alat
        k(    1) = (   0.0000000   0.0000000   0.0000000), wk =   0.1250000
        k(    2) = (   0.0000000   0.0419351   0.0000000), wk =   0.2500000
        k(    3) = (   0.0000000  -0.0838702   0.0000000), wk =   0.1250000
        k(    4) = (   0.0379955   0.0000049   0.0000000), wk =   0.2500000
        k(    5) = (   0.0379955   0.0419400   0.0000000), wk =   0.2500000
        k(    6) = (   0.0379955  -0.0838652   0.0000000), wk =   0.2500000
        k(    7) = (   0.0379955  -0.0419301   0.0000000), wk =   0.2500000
        k(    8) = (  -0.0759910  -0.0000099   0.0000000), wk =   0.1250000
        k(    9) = (  -0.0759910   0.0419252   0.0000000), wk =   0.2500000
        k(   10) = (  -0.0759910  -0.0838800   0.0000000), wk =   0.1250000

     Initial potential from superposition of free atoms

     starting charge  372.99918, renormalised to  389.00000

     negative rho (up, down):  1.813E-02 0.000E+00

     %%%%%%%%%%%%%%%%%%%%%%%%%%%%%%%%%%%%%%%%%%%%%%%%%%%%%%%%%%%%%%%%%%%%%%%%
     %                                                                      %
     % You are using vdW-DF, which was implemented by the Thonhauser group. %
     % Please cite the following two papers that made this development      %
     % possible and the two reviews that describe the various versions:     %
     %                                                                      %
     %   T. Thonhauser et al., PRL 115, 136402 (2015).                      %
     %   T. Thonhauser et al., PRB 76, 125112 (2007).                       %
     %   K. Berland et al., Rep. Prog. Phys. 78, 066501 (2015).             %
     %   D.C. Langreth et al., J. Phys.: Condens. Matter 21, 084203 (2009). %
     %                                                                      %
     %                                                                      %
     % If you are calculating the stress with vdW-DF, please also cite:     %
     %                                                                      %
     %   R. Sabatini et al., J. Phys.: Condens. Matter 24, 424209 (2012).   %
     %                                                                      %
     %%%%%%%%%%%%%%%%%%%%%%%%%%%%%%%%%%%%%%%%%%%%%%%%%%%%%%%%%%%%%%%%%%%%%%%%

     Adding external electric field

     Computed dipole along edir(3) :
        Dipole               -4.6856 Ry au,        -11.9097 Debye
        Dipole field         -0.0088 Ry au,

        Potential amp.        0.8197 Ry
        Total length         46.3494 bohr

     Starting wfcs are  294 atomic wfcs
  @ DRIVER MODE: Message from server: STATUS
  @ DRIVER MODE: Message from server: POSDATA
  @ DRIVER MODE: Reading and sharing cell
  @ DRIVER MODE: Reading and sharing positions
  @ DRIVER MODE: Received positions

     Self-consistent Calculation

     iteration #  1     ecut=    29.40 Ry     beta= 0.05
     Davidson diagonalization with overlap
     c_bands:  3 eigenvalues not converged
     c_bands:  1 eigenvalues not converged
     c_bands:  1 eigenvalues not converged
     c_bands:  3 eigenvalues not converged
     c_bands:  3 eigenvalues not converged
     c_bands:  2 eigenvalues not converged
     c_bands:  2 eigenvalues not converged
     ethr =  1.00E-05,  avg # of iterations = 19.8

[...]

     total energy              =   -2866.31241646 Ry
     estimated scf accuracy    <     588.81775325 Ry

     iteration #  2     ecut=    29.40 Ry     beta= 0.05
     Davidson diagonalization with overlap
     ethr =  1.00E-02,  avg # of iterations = 14.6

[...]

     iteration # 85     ecut=    29.40 Ry     beta= 0.05
     Davidson diagonalization with overlap
     c_bands:  1 eigenvalues not converged
     ethr =  1.41E-10,  avg # of iterations = 12.3

[...]

     total energy              =   -2917.92291684 Ry
     estimated scf accuracy    <       0.00000008 Ry

     iteration # 89     ecut=    29.40 Ry     beta= 0.05
     Davidson diagonalization with overlap
     ethr =  2.11E-11,  avg # of iterations =  9.9

     negative rho (up, down):  1.844E-02 0.000E+00

     Adding external electric field

     Computed dipole along edir(3) :
        Dipole                0.7729 Ry au,          1.9644 Debye
        Dipole field          0.0015 Ry au,

        Potential amp.       -0.1352 Ry
        Total length         46.3494 bohr

     End of self-consistent calculation

          k = 0.0000 0.0000 0.0000 ( 18029 PWs)   bands (ev):

   -55.9931 -55.9836 -55.9590 -55.9472 -55.8705 -55.8405 -55.8205 -55.8062
   -55.8018 -55.7678 -55.7655 -55.7318 -55.5195 -55.2453 -54.9697 -54.9357
   -32.5379 -32.4756 -32.3417 -32.3226 -32.3007 -32.2954 -32.2861 -32.2561
   -32.2357 -32.2104 -32.2036 -32.1815 -32.1637 -32.1452 -32.1367 -32.1234
   -32.1030 -32.0975 -32.0827 -32.0501 -32.0493 -32.0464 -32.0003 -31.9989
   -31.9976 -31.9960 -31.9897 -31.9820 -31.9677 -31.9555 -31.9477 -31.9411
   -31.9322 -31.9321 -31.9187 -31.9092 -31.8778 -31.7693 -31.7015 -31.5344
   -31.5000 -31.4576 -31.3769 -31.2887 -31.2662 -31.1937 -31.1072 -30.9961
   -16.7352 -16.4670 -16.2418 -16.1450 -16.1137 -15.9974 -15.8317 -15.7133
   -15.6620 -15.5640 -15.5503 -15.5290 -15.4951 -15.4645 -15.4623 -15.4361
   -15.4326 -15.4134 -15.4000 -15.3522 -15.3299 -15.2952 -15.1976 -15.1666
   -15.1271 -15.0989 -15.0577 -15.0485 -14.9250 -14.5596 -13.4725 -13.3560
    -7.5905  -4.3434  -4.1128  -4.0043  -3.9478  -3.8985  -3.8397  -3.6334
    -3.5423  -3.5200  -3.2233  -3.1767  -3.1593  -3.1467  -3.1083  -2.8928
    -2.8391  -2.8077  -2.7866  -2.7724  -2.7612  -2.7533  -2.7331  -2.7063
    -2.5930  -2.5373  -2.5339  -2.4108  -2.3830  -2.3264  -2.3051  -2.2581
    -2.2424  -2.2337  -2.2067  -2.1959  -2.1827  -2.1522  -2.0743  -1.9608
    -1.8099  -1.7908  -1.7553  -1.6295  -1.5999  -1.5386  -1.4485  -1.4329
    -1.4184  -1.3843  -1.3669  -1.2955  -1.1699  -1.1455  -1.1358  -1.0351
    -0.9885  -0.9700  -0.8734  -0.8380  -0.7682  -0.7569  -0.7457  -0.7084
    -0.5469  -0.4907  -0.4613  -0.3945  -0.3648  -0.3061  -0.2931  -0.2642
    -0.1818  -0.1297  -0.1094  -0.1029  -0.0544  -0.0182  -0.0013   0.0083
     0.0194   0.0335   0.2061   0.2790   0.2860   0.3650   0.3749   0.5358
     0.5968   0.6643   0.7724   0.9774   1.0519   1.1412   1.2444   1.4378
     1.6233   1.6688   3.1434   3.2271   3.2752   3.2849   3.3861   3.4229
     3.5965   3.6030   3.6174   3.6914

[...]

          k = 0.0380-0.0419 0.0000 ( 17876 PWs)   bands (ev):

[...]

          k =-0.0760-0.0000 0.0000 ( 17886 PWs)   bands (ev):

[...]

          k =-0.0760-0.0839 0.0000 ( 17948 PWs)   bands (ev):

   -55.9764 -55.9756 -55.9680 -55.9626 -55.8635 -55.8273 -55.8236 -55.8230
   -55.7853 -55.7837 -55.7495 -55.7479 -55.5186 -55.2461 -54.9527 -54.9526
   -32.3437 -32.3386 -32.2912 -32.2906 -32.2718 -32.2710 -32.2535 -32.2414
   -32.1934 -32.1872 -32.1810 -32.1743 -32.1375 -32.1191 -32.1141 -32.1128
   -32.1035 -32.0976 -32.0958 -32.0950 -32.0886 -32.0860 -32.0669 -32.0426
   -32.0392 -32.0286 -32.0191 -32.0054 -31.9843 -31.9839 -31.9811 -31.9796
   -31.9642 -31.9634 -31.9596 -31.9565 -31.8817 -31.7719 -31.6977 -31.5998
   -31.5016 -31.4783 -31.2790 -31.2789 -31.1897 -31.1896 -31.1505 -31.1504
   -16.1674 -16.1482 -15.9366 -15.9094 -15.9042 -15.8928 -15.7645 -15.7039
   -15.6876 -15.6857 -15.6068 -15.5850 -15.5637 -15.5362 -15.5244 -15.5122
   -15.5059 -15.4975 -15.4544 -15.4483 -15.4289 -15.4217 -15.3187 -15.3093
   -15.3052 -15.2493 -15.1755 -15.0368 -14.9421 -14.7275 -13.4579 -13.4578
    -7.5865  -4.3248  -3.6940  -3.4579  -3.4352  -3.1668  -3.1496  -3.1407
    -3.0808  -2.9079  -2.8920  -2.8689  -2.8480  -2.8194  -2.8175  -2.7964
    -2.7942  -2.7835  -2.7392  -2.7320  -2.7065  -2.6698  -2.6596  -2.6481
    -2.6394  -2.6156  -2.6053  -2.5635  -2.5340  -2.5267  -2.5118  -2.4882
    -2.3030  -2.2198  -2.1934  -2.1304  -2.1230  -2.0881  -2.0568  -2.0447
    -2.0286  -1.9782  -1.9002  -1.7258  -1.6930  -1.6749  -1.6172  -1.5883
    -1.5474  -1.4612  -1.3934  -1.3687  -1.3627  -1.3141  -1.2053  -1.1838
    -1.1696  -1.0962  -1.0608  -1.0423  -1.0013  -0.9862  -0.9532  -0.9478
    -0.8544  -0.8049  -0.7583  -0.7559  -0.7104  -0.6441  -0.6311  -0.6036
    -0.4946  -0.4756  -0.4054  -0.3766  -0.2748  -0.2066  -0.0089   0.0534
     0.0789   0.1373   0.2175   0.2984   0.3128   0.3266   0.3270   0.3745
     0.4437   0.5396   0.5490   0.6027   0.7074   1.3323   1.4157   1.4163
     1.4887   1.4887   3.4293   3.4392   3.4785   3.5004   3.6363   3.6519
     3.6747   3.6759   3.7309   3.8128

     the Fermi energy is     3.1412 ev

!    total energy              =   -2917.92292124 Ry
     estimated scf accuracy    <       0.00000005 Ry
     smearing contrib. (-TS)   =      -0.02181473 Ry
     internal energy E=F+TS    =   -2917.90110651 Ry

     The total energy is F=E-TS. E is the sum of the following terms:
     one-electron contribution =  -24778.28605258 Ry
     hartree contribution      =   12472.81780752 Ry
     xc contribution           =    -479.19081174 Ry
     ewald contribution        =    9866.75682308 Ry
     electric field correction =       0.00112721 Ry

     convergence has been achieved in  89 iterations

     Forces acting on atoms (cartesian axes, Ry/au):

     atom    1 type  1   force =     0.00017232   -0.00024147    0.09668283
     atom    2 type  1   force =     0.00007163   -0.00054136   -0.17542570
     atom    3 type  2   force =     0.00018110    0.00000691   -0.02481059
     atom    4 type  2   force =     0.00005816   -0.00133211    0.05289599
     atom    5 type  2   force =    -0.01176040    0.00012359    0.00259070
     atom    6 type  2   force =     0.01393104    0.00051184    0.00339429
     atom    7 type  1   force =     0.00129533    0.00070274   -0.01175315
     atom    8 type  1   force =    -0.00005263    0.00766550    0.02824362
     atom    9 type  2   force =    -0.00023938   -0.00023487   -0.00013411
     atom   10 type  2   force =    -0.00220365    0.00207578   -0.01526923
     atom   11 type  2   force =     0.00000939   -0.00008680    0.00023261
     atom   12 type  2   force =    -0.00004870    0.00015078   -0.00005844
     atom   13 type  1   force =    -0.00104549   -0.00025603    0.00000472
     atom   14 type  1   force =    -0.00021474   -0.00026394    0.00057896
     atom   15 type  2   force =    -0.00030660   -0.00002303   -0.00025050
     atom   16 type  2   force =     0.00025264    0.00007940   -0.00052481
     atom   17 type  2   force =     0.00007377    0.00007570   -0.00020518
     atom   18 type  2   force =    -0.00013967    0.00031497   -0.00051308
     atom   19 type  1   force =    -0.00063275    0.00011704   -0.00036526
     atom   20 type  1   force =     0.00013870   -0.00101612    0.00024852
     atom   21 type  2   force =     0.00008668   -0.00004573    0.10326269
     atom   22 type  2   force =     0.00043944   -0.00026122   -0.00006638
     atom   23 type  2   force =    -0.07147640   -0.00015708   -0.02769249
     atom   24 type  2   force =     0.07147207    0.00033337   -0.02777569
     atom   25 type  1   force =     0.00018433   -0.00023260    0.09619877
     atom   26 type  1   force =     0.00011343   -0.00028661   -0.17556384
     atom   27 type  2   force =     0.00022350   -0.00011715   -0.02388874
     atom   28 type  2   force =     0.00009097   -0.00110196    0.05284764
     atom   29 type  2   force =    -0.01196519    0.00067776    0.00234124
     atom   30 type  2   force =     0.01399982    0.00102540    0.00319356
     atom   31 type  1   force =     0.00114438    0.00334273   -0.01207761
     atom   32 type  1   force =    -0.00024360   -0.00973019    0.02867584
     atom   33 type  2   force =    -0.00017238    0.00032029   -0.00010663
     atom   34 type  2   force =    -0.00172608    0.00175447   -0.02356362
     atom   35 type  2   force =     0.00000580    0.00009080    0.00023229
     atom   36 type  2   force =     0.00054795    0.00012103    0.00022004
     atom   37 type  1   force =    -0.00100220   -0.00039454    0.00028004
     atom   38 type  1   force =     0.00023363   -0.00011264    0.00052076
     atom   39 type  2   force =    -0.00005761   -0.00052764   -0.00075511
     atom   40 type  2   force =    -0.00004367    0.00026167    0.00047242
     atom   41 type  2   force =    -0.00066391   -0.00046551   -0.00015517
     atom   42 type  2   force =    -0.00013104   -0.00074365   -0.00072327
     atom   43 type  1   force =    -0.00047449    0.00001253   -0.00013007
     atom   44 type  1   force =     0.00012592    0.00034336    0.00051081
     atom   45 type  2   force =     0.00006485   -0.00006690    0.10326744
     atom   46 type  2   force =    -0.07147855   -0.00008368   -0.02770736
     atom   47 type  2   force =     0.07149552    0.00033702   -0.02778402
     atom   48 type  3   force =     0.00098801   -0.00019584   -0.00006655
     atom   49 type  4   force =    -0.00154946   -0.00920460   -0.00425979
     atom   50 type  5   force =     0.00040997    0.00859387    0.00470575
     atom   51 type  5   force =    -0.00018176   -0.00131524    0.00002484

     Total force =     0.368267     Total SCF correction =     0.000475
  @ DRIVER MODE: Message from server: STATUS
  @ DRIVER MODE: Message from server: GETFORCE
  @ DRIVER MODE: Returning v,forces,stress,ensemble

     Writing output data file ./calc.save/
  @ DRIVER MODE: Message from server: EXIT
  @ DRIVE MODE: Exiting

     General routines

     Parallel routines

   This run was terminated on:  14:14:51  24Aug2021

   JOB DONE.