     Program PWSCF v.6.8 starts on 15Oct2021 at 16:12:46

     R & G space division:  proc/nbgrp/npool/nimage =       4

     Reading input from /storage/home/hcoda1/3/ntian30/research/carbon/Thiel_calc/ads_slab/NH2HNH_perslab/Thiel_calc.log/pw.inp
Warning: card &CELL ignored
Warning: card   CELL_DYNAMICS='IPI', ignored
Warning: card / ignored

     Current dimensions of program PWSCF are:
     Max number of different atomic species (ntypx) = 10
     Max number of k-points (npk) =  40000
     Max angular momentum in pseudopotentials (lmaxx) =  4
     Presently no symmetry can be used with electric field

     Message from routine cell_base_init:
     DEPRECATED: use true lattice parameter, not A to a.u. conversion factor

     IMPORTANT: XC functional enforced from input :
     Exchange-correlation= BEEF-VDW
                           (   1   4  43  14   2   0   0)
     Any further DFT definition will be discarded
     Please, verify this is what you really want

  @ DRIVER MODE: Connecting to
 qe_1139763_3223921.sched-torque.pace.gatech.edu2nlturjc_scratch
  using UNIX socket
  @ DRIVER MODE: Message from server: STATUS
  @ DRIVER MODE: Message from server: INIT
  @ DRIVER MODE: Receiving replica           0          -1
  @ DRIVER MODE: Receiving encoded integer          25
  @ DRIVER MODE:  SCF:  T  FORCE:  T  STRESS:  F  VC:  F  ENSEMBLE:  F
  @ DRIVER MODE:  SCF:  T  FORCE:  T  STRESS:  F  VC:  F  ENSEMBLE:  F

     Using Slab Decomposition

     bravais-lattice index     =            0
     lattice parameter (alat)  =       1.8897  a.u.
     unit-cell volume          =    9988.4706 (a.u.)^3
     number of atoms/cell      =           59
     number of atomic types    =            4
     number of electrons       =       440.00
     number of Kohn-Sham states=          230
     kinetic-energy cutoff     =      29.3995  Ry
     charge density cutoff     =     293.9946  Ry
     scf convergence threshold =      7.3E-08
     mixing beta               =       0.0500
     number of iterations used =            8  plain     mixing
     Exchange-correlation= BEEF-VDW
                           (   1   4  43  14   2   0   0)

     celldm(1)=   1.889726  celldm(2)=   0.000000  celldm(3)=   0.000000
     celldm(4)=   0.000000  celldm(5)=   0.000000  celldm(6)=   0.000000

     crystal axes: (cart. coord. in units of alat)
               a(1) = (   6.579727   0.000000   0.000000 )
               a(2) = (  -0.001163   8.942395   0.000000 )
               a(3) = (   0.000000   0.000000  25.155947 )

     reciprocal axes: (cart. coord. in units 2 pi/alat)
               b(1) = (  0.151982  0.000020  0.000000 )
               b(2) = (  0.000000  0.111827  0.000000 )
               b(3) = (  0.000000  0.000000  0.039752 )

     PseudoPot. # 1 for O  read from file:
     /storage/coda1/p-amedford6/0/shared/rich_project_chbe-medford/medford-share/data/pseudos_module/espresso/nninc/pbe/van/O.UPF
     MD5 check sum: 78c19812648e8988a0fe644b0f25305e
     Pseudo is Ultrasoft, Zval =  6.0
     Generated by new atomic code, or converted to UPF format
     Using radial grid of  737 points,  4 beta functions with:
                l(1) =   0
                l(2) =   0
                l(3) =   1
                l(4) =   1
     Q(r) pseudized with  8 coefficients,  rinner =    0.800   0.800   0.800

     PseudoPot. # 2 for Ti read from file:
     /storage/coda1/p-amedford6/0/shared/rich_project_chbe-medford/medford-share/data/pseudos_module/espresso/nninc/pbe/van/Ti.UPF
     MD5 check sum: 8e4df49b7f0d34bbd5052bf3f5ea0213
     Pseudo is Ultrasoft, Zval = 12.0
     Generated by new atomic code, or converted to UPF format
     Using radial grid of  851 points,  6 beta functions with:
                l(1) =   0
                l(2) =   0
                l(3) =   1
                l(4) =   1
                l(5) =   2
                l(6) =   2
     Q(r) pseudized with  8 coefficients,  rinner =    1.000   1.000   1.000
                                                       1.000   1.000

     PseudoPot. # 3 for H  read from file:
     /storage/coda1/p-amedford6/0/shared/rich_project_chbe-medford/medford-share/data/pseudos_module/espresso/nninc/pbe/van/H.UPF
     MD5 check sum: b5ee9d7bfd3a09ee7748110bda690ff7
     Pseudo is Ultrasoft, Zval =  1.0
     Generated by new atomic code, or converted to UPF format
     Using radial grid of  615 points,  1 beta functions with:
                l(1) =   0
     Q(r) pseudized with  8 coefficients,  rinner =    0.800

     PseudoPot. # 4 for N  read from file:
     /storage/coda1/p-amedford6/0/shared/rich_project_chbe-medford/medford-share/data/pseudos_module/espresso/nninc/pbe/van/N.UPF
     MD5 check sum: 90d10febe142ad51ac9d5be1deb811c4
     Pseudo is Ultrasoft, Zval =  5.0
     Generated by new atomic code, or converted to UPF format
     Using radial grid of  729 points,  4 beta functions with:
                l(1) =   0
                l(2) =   0
                l(3) =   1
                l(4) =   1
     Q(r) pseudized with  8 coefficients,  rinner =    0.800   0.800   0.800

     atomic species   valence    mass     pseudopotential
        O1             6.00    15.99900     O ( 1.00)
        Ti1           12.00    47.86700     Ti( 1.00)
        H1             1.00     1.00800     H ( 1.00)
        N1             5.00    14.00700     N ( 1.00)

     No symmetry found

   Cartesian axes

     site n.     atom                  positions (alat units)
         1           O1  tau(   1) = (   0.0007354   0.0005023  10.5931620  )
         2           O1  tau(   2) = (   3.2905955   0.0005026  13.8824958  )
         3           O1  tau(   3) = (   0.0007284   0.0005029  17.1718295  )
         4           O1  tau(   4) = (   0.0006271   0.0005054   7.9858123  )
         5           O1  tau(   5) = (   3.2904872   0.0005057  11.2751460  )
         6           O1  tau(   6) = (   0.0006201   0.0005060  14.5644798  )
         7           O1  tau(   7) = (   1.9868534   1.4903216   9.2879459  )
         8           O1  tau(   8) = (   5.2767135   1.4903219  12.5772797  )
         9           O1  tau(   9) = (   1.9868463   1.4903222  15.8666135  )
        10           Ti1 tau(  10) = (   0.0007404   1.4906270   9.2895810  )
        11           Ti1 tau(  11) = (   3.2906005   1.4906273  12.5789147  )
        12           Ti1 tau(  12) = (   0.0007334   1.4906276  15.8682485  )
        13           O1  tau(  13) = (   4.5942328   1.4918067   9.2879030  )
        14           O1  tau(  14) = (   1.3043657   1.4918069  12.5772368  )
        15           O1  tau(  15) = (   4.5942258   1.4918072  15.8665706  )
        16           Ti1 tau(  16) = (   3.2902859   2.9801868   9.2893338  )
        17           Ti1 tau(  17) = (   0.0004188   2.9801870  12.5786675  )
        18           Ti1 tau(  18) = (   3.2902789   2.9801873  15.8680013  )
        19           O1  tau(  19) = (   0.0003479   2.9813005  10.5931620  )
        20           O1  tau(  20) = (   3.2902079   2.9813008  13.8824958  )
        21           O1  tau(  21) = (   0.0002396   2.9813036   7.9858123  )
        22           O1  tau(  22) = (   3.2900997   2.9813039  11.2751460  )
        23           O1  tau(  23) = (   0.0002325   2.9813042  14.5644798  )
        24           O1  tau(  24) = (   1.9864658   4.4711199   9.2879459  )
        25           O1  tau(  25) = (   5.2763259   4.4711201  12.5772797  )
        26           O1  tau(  26) = (   1.9864588   4.4711204  15.8666135  )
        27           Ti1 tau(  27) = (   0.0003529   4.4714252   9.2895810  )
        28           Ti1 tau(  28) = (   3.2902129   4.4714255  12.5789147  )
        29           Ti1 tau(  29) = (   0.0003458   4.4714258  15.8682485  )
        30           O1  tau(  30) = (   4.5938453   4.4726049   9.2879030  )
        31           O1  tau(  31) = (   1.3039782   4.4726052  12.5772368  )
        32           O1  tau(  32) = (   4.5938383   4.4726054  15.8665706  )
        33           Ti1 tau(  33) = (   3.2898983   5.9609850   9.2893338  )
        34           Ti1 tau(  34) = (   0.0000312   5.9609853  12.5786675  )
        35           Ti1 tau(  35) = (   3.2898913   5.9609855  15.8680013  )
        36           O1  tau(  36) = (  -0.0000397   5.9620987  10.5931620  )
        37           O1  tau(  37) = (   3.2898204   5.9620990  13.8824958  )
        38           O1  tau(  38) = (  -0.0000467   5.9620993  17.1718295  )
        39           O1  tau(  39) = (  -0.0001480   5.9621018   7.9858123  )
        40           O1  tau(  40) = (   3.2897121   5.9621021  11.2751460  )
        41           O1  tau(  41) = (  -0.0001550   5.9621024  14.5644798  )
        42           O1  tau(  42) = (   1.9860782   7.4519181   9.2879459  )
        43           O1  tau(  43) = (   5.2759383   7.4519184  12.5772797  )
        44           O1  tau(  44) = (   1.9860712   7.4519187  15.8666135  )
        45           Ti1 tau(  45) = (  -0.0000347   7.4522234   9.2895810  )
        46           Ti1 tau(  46) = (   3.2898254   7.4522237  12.5789147  )
        47           Ti1 tau(  47) = (  -0.0000417   7.4522240  15.8682485  )
        48           O1  tau(  48) = (   4.5934577   7.4534031   9.2879030  )
        49           O1  tau(  49) = (   1.3035906   7.4534034  12.5772368  )
        50           O1  tau(  50) = (   4.5934507   7.4534037  15.8665706  )
        51           Ti1 tau(  51) = (   3.2895107   8.9417832   9.2893338  )
        52           Ti1 tau(  52) = (  -0.0003564   8.9417835  12.5786675  )
        53           Ti1 tau(  53) = (   3.2895037   8.9417838  15.8680013  )
        54           H1  tau(  54) = (   0.0003408   2.9813011  18.5418495  )
        55           H1  tau(  55) = (   0.0007284   0.0005029  18.1718295  )
        56           N1  tau(  56) = (   0.0003408   2.9813011  17.5418495  )
        57           N1  tau(  57) = (   3.2898913   5.9609855  18.1718295  )
        58           H1  tau(  58) = (   3.2898913   5.1545435  18.8094325  )
        59           H1  tau(  59) = (   3.2898913   6.7674275  18.8094325  )

     number of k points=     1  Fermi-Dirac smearing, width (Ry)=  0.0073
                       cart. coord. in units 2pi/alat
        k(    1) = (   0.0000000   0.0000000   0.0000000), wk =   2.0000000

     Initial potential from superposition of free atoms

     starting charge  421.99910, renormalised to  440.00000

     negative rho (up, down):  3.334E-02 0.000E+00

     %%%%%%%%%%%%%%%%%%%%%%%%%%%%%%%%%%%%%%%%%%%%%%%%%%%%%%%%%%%%%%%%%%%%%%%%
     %                                                                      %
     % You are using vdW-DF, which was implemented by the Thonhauser group. %
     % Please cite the following two papers that made this development      %
     % possible and the two reviews that describe the various versions:     %
     %                                                                      %
     %   T. Thonhauser et al., PRL 115, 136402 (2015).                      %
     %   T. Thonhauser et al., PRB 76, 125112 (2007).                       %
     %   K. Berland et al., Rep. Prog. Phys. 78, 066501 (2015).             %
[...]
     atom   31 type  1   force =     0.01157924   -0.00306752    0.00471274
     atom   32 type  1   force =    -0.05452235   -0.03477974    0.01870355
     atom   33 type  2   force =     0.00007827   -0.00044034    0.11288421
     atom   34 type  2   force =     0.00007575   -0.00001587   -0.03303272
     atom   35 type  2   force =     0.00011482   -0.01093635    0.06330066
     atom   36 type  1   force =     0.00000370    0.00003479    0.05679989
     atom   37 type  1   force =     0.00001519    0.00066507   -0.01384133
     atom   38 type  1   force =     0.00001924    0.02312492   -0.09688736
     atom   39 type  1   force =     0.00004606    0.00009341    0.09925510
     atom   40 type  1   force =     0.00005220   -0.00036974   -0.03256457
     atom   41 type  1   force =     0.00004231    0.00840829    0.00352985
     atom   42 type  1   force =     0.08493185    0.00057115   -0.03311916
     atom   43 type  1   force =    -0.01173425    0.00304439    0.00440113
     atom   44 type  1   force =     0.04407660    0.03895006    0.02314172
     atom   45 type  2   force =    -0.00004500   -0.00152177   -0.14625089
     atom   46 type  2   force =    -0.00002690   -0.01532185    0.00556526
     atom   47 type  2   force =     0.00000065   -0.14014304    0.04256666
     atom   48 type  1   force =    -0.08502447    0.00026225   -0.03308263
     atom   49 type  1   force =     0.01162668    0.00261447    0.00442753
     atom   50 type  1   force =    -0.04421597    0.03857067    0.02316945
     atom   51 type  2   force =     0.00007943   -0.00050865    0.11229435
     atom   52 type  2   force =     0.00009686   -0.00425910   -0.04191032
     atom   53 type  2   force =     0.00012189   -0.03389135   -0.13088241
     atom   54 type  3   force =    -0.00001091    0.00742281    0.02651135
     atom   55 type  3   force =    -0.00001258   -0.00066274   -0.06755629
     atom   56 type  4   force =     0.00001858   -0.03838454   -0.17572704
     atom   57 type  4   force =    -0.00001076    0.00175715   -0.03377698
     atom   58 type  3   force =     0.00000458    0.00511149   -0.01991337
     atom   59 type  3   force =    -0.00002916   -0.00538693   -0.01867143

     Total force =     0.617499     Total SCF correction =     0.000848
  @ DRIVER MODE: Message from server: STATUS
  @ DRIVER MODE: Message from server: GETFORCE
  @ DRIVER MODE: Returning v,forces,stress,ensemble

     Writing config to output data dir ./calc.save/
     Message from routine punch:
     wavefunctions written to file
  @ DRIVER MODE: Message from server: STATUS
  @ DRIVER MODE: Message from server: INIT
  @ DRIVER MODE: Receiving replica           0           0
  @ DRIVER MODE: Receiving encoded integer          25
  @ DRIVER MODE:  SCF:  T  FORCE:  T  STRESS:  F  VC:  F  ENSEMBLE:  F
  @ DRIVER MODE:  SCF:  T  FORCE:  T  STRESS:  F  VC:  F  ENSEMBLE:  F
  @ DRIVER MODE: Message from server: STATUS
  @ DRIVER MODE: Message from server: POSDATA
  @ DRIVER MODE: Reading and sharing positions
  @ DRIVER MODE: Received positions
     NEW-OLD atomic charge density approx. for the potential

[...]

     Self-consistent Calculation

     iteration #  1     ecut=    29.40 Ry     beta= 0.05
     Davidson diagonalization with overlap
     c_bands:  1 eigenvalues not converged
     ethr =  1.70E-11,  avg # of iterations = 20.0

[...]

     total energy              =   -3293.20981887 Ry
     estimated scf accuracy    <       0.00000014 Ry

     iteration # 24     ecut=    29.40 Ry     beta= 0.05
     Davidson diagonalization with overlap
     ethr =  2.19E-11,  avg # of iterations =  5.0

[...]

     End of self-consistent calculation

          k = 0.0000 0.0000 0.0000 ( 26871 PWs)   bands (ev):

   -58.2977 -58.2743 -58.2689 -58.1715 -58.1135 -57.7797 -57.7380 -57.7270
   -57.5906 -57.5520 -57.5379 -57.5178 -57.5123 -56.9549 -56.9298 -56.9139
   -56.8768 -56.8095 -34.6782 -34.6546 -34.6295 -34.6245 -34.6185 -34.5894
   -34.4974 -34.4588 -34.4576 -34.3930 -34.3883 -34.3725 -34.3516 -34.3403
   -34.3130 -34.1933 -34.1554 -34.1374 -34.0780 -34.0639 -34.0565 -34.0454
   -34.0258 -33.9960 -33.9631 -33.9426 -33.8799 -33.8759 -33.8422 -33.8270
   -33.8120 -33.7923 -33.7722 -33.7622 -33.7484 -33.7230 -33.7098 -33.7050
   -33.6823 -33.3271 -33.2988 -33.2801 -33.2647 -33.2462 -33.2281 -33.1808
   -33.1592 -33.1567 -33.0987 -33.0974 -33.0803 -33.0521 -32.9936 -32.9522
   -18.8906 -18.8130 -18.3143 -18.2763 -18.1610 -18.1345 -18.0952 -18.0494
   -17.9338 -17.7430 -17.6955 -17.5977 -17.5930 -17.5774 -17.5546 -17.5380
   -17.5069 -17.4318 -17.4186 -17.3638 -17.3456 -17.3398 -17.3290 -17.2984
   -17.1611 -17.1163 -17.1053 -17.0737 -17.0311 -16.9300 -16.7420 -16.3824
   -15.3498 -15.3096 -15.3006 -15.1791 -13.5533  -6.9571  -6.6487  -6.1645
    -5.9214  -5.8018  -5.6369  -5.5131  -5.4521  -5.3514  -5.3139  -5.2790
    -5.2731  -5.2043  -5.1671  -5.1671  -5.0968  -5.0346  -4.9825  -4.8698
    -4.8292  -4.8207  -4.7569  -4.7371  -4.7079  -4.6890  -4.6175  -4.6129
    -4.5807  -4.5186  -4.5031  -4.4917  -4.4222  -4.3807  -4.3757  -4.2875
    -4.2591  -4.1964  -4.1758  -4.1580  -4.0517  -4.0364  -4.0083  -4.0006
    -3.9912  -3.9348  -3.8997  -3.8240  -3.7930  -3.6723  -3.6363  -3.6054
    -3.5042  -3.3810  -3.3695  -3.3119  -3.1967  -3.1296  -3.1254  -3.0778
    -3.0516  -3.0128  -3.0014  -2.9904  -2.9762  -2.8685  -2.8577  -2.8015
    -2.7964  -2.7490  -2.7348  -2.7254  -2.7115  -2.6680  -2.5854  -2.5706
    -2.5561  -2.5345  -2.4534  -2.4399  -2.3387  -2.3362  -2.2692  -2.2494
    -2.2405  -2.1730  -2.0926  -2.0155  -2.0034  -1.9983  -1.8112  -1.8012
    -1.7262  -1.7201  -1.6422  -1.6035  -1.5804  -1.5302  -1.4135  -1.3807
    -1.2784  -1.1559  -1.0165  -0.7846  -0.6072  -0.5742  -0.5662  -0.5232
    -0.4062  -0.3625  -0.3465  -0.2457   1.0081   1.1480   1.2868   1.3101
     1.4986   1.6192   1.6384   1.6905   1.7664   1.8696

     the Fermi energy is     0.4014 ev

!    total energy              =   -3293.20981901 Ry
     estimated scf accuracy    <       0.00000005 Ry
     smearing contrib. (-TS)   =      -0.00073916 Ry
     internal energy E=F+TS    =   -3293.20907986 Ry

     The total energy is F=E-TS. E is the sum of the following terms:
     one-electron contribution =  -34639.07401039 Ry
     hartree contribution      =   17384.07044153 Ry
     xc contribution           =    -542.18992155 Ry
     ewald contribution        =   14503.98228394 Ry
     electric field correction =       0.00212662 Ry

     convergence has been achieved in  24 iterations

     Forces acting on atoms (cartesian axes, Ry/au):

     atom    1 type  1   force =     0.00000843    0.00109529    0.05389605
     atom    2 type  1   force =     0.00000488    0.00001760    0.00069735
     atom    3 type  1   force =    -0.00000223   -0.00029597    0.00008155
     atom    4 type  1   force =     0.00005135   -0.00113872    0.10413666
     atom    5 type  1   force =    -0.00000846   -0.00073434   -0.00130416
     atom    6 type  1   force =    -0.00001425   -0.00004472   -0.00040347
     atom    7 type  1   force =     0.07350804    0.00112462   -0.03775598
     atom    8 type  1   force =    -0.00007478    0.00031994   -0.00012912
     atom    9 type  1   force =     0.00026371   -0.00018004    0.00005853
     atom   10 type  2   force =    -0.00005535    0.00915213   -0.16501337
     atom   11 type  2   force =    -0.00005323    0.00017735    0.00058313
     atom   12 type  2   force =     0.00003972   -0.00001404   -0.00031887
     atom   13 type  1   force =    -0.07359515    0.00077547   -0.03774632
     atom   14 type  1   force =     0.00004329    0.00035334   -0.00012741
     atom   15 type  1   force =    -0.00019960   -0.00014396    0.00006348
     atom   16 type  2   force =     0.00011839    0.00041731    0.08290872
     atom   17 type  2   force =     0.00003828   -0.00027099    0.00116778
     atom   18 type  2   force =    -0.00009185    0.00034407   -0.00016458
     atom   19 type  1   force =     0.00004688    0.00165985    0.05729891
     atom   20 type  1   force =    -0.00001393    0.00019665    0.00028307
     atom   21 type  1   force =     0.00005141   -0.00107652    0.10259099
     atom   22 type  1   force =    -0.00001325    0.00009793   -0.00069552
     atom   23 type  1   force =    -0.00001439   -0.00027689    0.00036642
     atom   24 type  1   force =     0.07430668    0.00117431   -0.03857092
     atom   25 type  1   force =    -0.00011940   -0.00033245    0.00012829
     atom   26 type  1   force =     0.00013812   -0.00007526   -0.00002364
     atom   27 type  2   force =    -0.00006289   -0.00780918   -0.16142971
     atom   28 type  2   force =    -0.00003633    0.00002694   -0.00003559
     atom   29 type  2   force =     0.00002406   -0.00049356   -0.00007226
     atom   30 type  1   force =    -0.07439368    0.00087266   -0.03856997
     atom   31 type  1   force =     0.00012290   -0.00032802    0.00013368
     atom   32 type  1   force =    -0.00008629   -0.00004640    0.00000589
     atom   33 type  2   force =     0.00012511   -0.00348709    0.08876875
     atom   34 type  2   force =     0.00003435    0.00117842    0.00053480
     atom   35 type  2   force =    -0.00004235   -0.00044147    0.00025174
     atom   36 type  1   force =     0.00004818    0.00177520    0.05903393
     atom   37 type  1   force =     0.00000117    0.00047200   -0.00014089
     atom   38 type  1   force =    -0.00001754   -0.00059915    0.00022230
     atom   39 type  1   force =     0.00004569    0.00265760    0.10357431
     atom   40 type  1   force =    -0.00000771    0.00020090   -0.00072035
     atom   41 type  1   force =    -0.00002075    0.00004119    0.00000982
     atom   42 type  1   force =     0.07336416    0.00126813   -0.03730294
     atom   43 type  1   force =    -0.00028052    0.00053167   -0.00027235
     atom   44 type  1   force =     0.00074437   -0.00041955    0.00023736
     atom   45 type  2   force =    -0.00005721   -0.00590070   -0.17140088
     atom   46 type  2   force =    -0.00003949    0.00010674    0.00033321
     atom   47 type  2   force =     0.00003378    0.00076763   -0.00038881
     atom   48 type  1   force =    -0.07345506    0.00092015   -0.03729096
     atom   49 type  1   force =     0.00020779    0.00058842   -0.00026640
     atom   50 type  1   force =    -0.00072656   -0.00038493    0.00024587
     atom   51 type  2   force =     0.00011499   -0.00527002    0.07095389
     atom   52 type  2   force =     0.00010780    0.00023726    0.00108596
     atom   53 type  2   force =    -0.00004612   -0.00008261   -0.00054488
     atom   54 type  3   force =    -0.00001003    0.00128760   -0.00036806
     atom   55 type  3   force =    -0.00001820    0.00010659    0.00006812
     atom   56 type  4   force =    -0.00001090    0.00040711    0.00105579
     atom   57 type  4   force =    -0.00000724   -0.00009800    0.00019897
     atom   58 type  3   force =    -0.00000318   -0.00000993   -0.00004615
     atom   59 type  3   force =    -0.00001560   -0.00039758    0.00012823

     Total force =     0.430985     Total SCF correction =     0.000823
  @ DRIVER MODE: Message from server: STATUS
  @ DRIVER MODE: Message from server: GETFORCE
  @ DRIVER MODE: Returning v,forces,stress,ensemble

     Writing config to output data dir ./calc.save/
     Message from routine punch:
     wavefunctions written to file
  @ DRIVER MODE: Message from server: STATUS
  @ DRIVER MODE: Message from server: INIT
  @ DRIVER MODE: Receiving replica           0           0
  @ DRIVER MODE: Receiving encoded integer           2
  @ DRIVER MODE:  SCF:  T  FORCE:  T  STRESS:  F  VC:  F  ENSEMBLE:  F
  @ DRIVER MODE:  SCF:  F  FORCE:  F  STRESS:  F  VC:  F  ENSEMBLE:  T
  @ DRIVER MODE: Message from server: STATUS
  @ DRIVER MODE: Message from server: POSDATA
  @ DRIVER MODE: Reading and sharing positions
  @ DRIVER MODE: Received positions
     NEW-OLD atomic charge density approx. for the potential

[...]

     Adding external electric field

     Computed dipole along edir(3) :
        Dipole                1.3001 Ry au,          3.3046 Debye
        Dipole field          0.0016 Ry au,

        Potential amp.       -0.1516 Ry
        Total length         46.3494 bohr

  @ DRIVER MODE: BEEF-vdw

[...]

     negative rho (up, down):  3.605E-02 0.000E+00

     negative rho (up, down):  3.605E-02 0.000E+00
 BEEFens 2000 ensemble energies
             -0.389201588309348E+02
             -0.226186949058726E+01
             -0.803927277591790E+01
              0.270155576218090E+02
             -0.133874156527371E+02
             -0.103614418480937E+02
             -0.270282507899483E+02
             -0.565046372393050E+02
             -0.241612383263203E+02
             -0.254059249027332E+02
             -0.235406751837039E+02
              0.477600798949473E+01
              0.222446885593794E+01
             -0.116199643322361E+01
              0.194606711645639E+01
              0.297283123038443E+02
             -0.115056953968791E+02
             -0.812986681546555E+01
              0.131296757780973E+02
             -0.695313994098445E+02
              0.348491838430314E+02
             -0.149142587907194E+02
             -0.271129455112089E+01
             -0.629379867016982E+01
             -0.109480196454382E+01
             -0.242555330820883E+01
              0.539341017582376E+02
             -0.167687717782012E+02
             -0.455421595889919E+01
             -0.340726069382763E+02
              0.441067458368625E+02
             -0.491961835443253E+01
             -0.239849125066857E+02
              0.126372518463654E+02
             -0.230117294931568E+01
              0.145814908101532E+02
             -0.607629422144015E+00
              0.309972969566306E+01
              0.211884168298731E+02
             -0.614065086917835E+02
              0.341743639941534E+02
              0.910804970777087E+01
             -0.698808133764595E+01
             -0.196563713716579E+02
              0.771786283913983E+01
             -0.122750352184295E+02
              0.279389609304077E+02
              0.223485270500549E+02
             -0.143987824553859E+02
             -0.183701130934907E+02
             -0.193733897596864E+02
             -0.233233351377879E+02
              0.118003901966405E+02
             -0.304447039876420E+02
              0.931409339966694E+01
              0.388710486684751E+02
              0.447692221010542E+02
              0.208906486530582E+02
              0.936705877463723E+01
              0.194412191366938E+02
[...]
             -0.457953382674184E+02
              0.308218680897011E+01
             -0.158328479620171E+01
             -0.638306724144940E+01
              0.864491136121615E-01
             -0.407839073954383E+02
             -0.790426685896004E+01
              0.553311646607810E+01
              0.829425112324068E+01
              0.305354132306173E+02
             -0.266749899416696E+02
              0.349218902811262E+02
             -0.249434284905323E+02
              0.160162472595080E+02
              0.252521350233773E+02

 BEEF-vdW xc energy contributions
           1 :   -459.434375491516
           2 :    400.156497932222
           3 :   -304.709078201500
           4 :    205.304688636311
           5 :   -127.321632620936
           6 :    80.6160743710975
           7 :   -60.8725579480574
           8 :    56.9456340340688
           9 :   -58.4795325506871
          10 :    59.7522868196480
          11 :   -59.3866375126006
          12 :    57.8916144145220
          13 :   -55.5995339463352
          14 :    52.1551891692444
          15 :   -47.1966762500703
          16 :    41.0691351521374
          17 :   -34.8862142094671
          18 :    29.9567563790303
          19 :   -27.1112657696441
          20 :    26.3759228032647
          21 :   -27.1371705678908
          22 :    28.5520728186356
          23 :   -29.8996022933349
          24 :    30.6970204842872
          25 :   -30.6473053143146
          26 :    29.5778359325772
          27 :   -27.4772177980326
          28 :    24.5803877896141
          29 :   -21.3971536948025
          30 :    18.5926075532454
          31 :   -53.9174494301360
          32 :   -36.5742795222632
  @ DRIVER MODE: Message from server: STATUS
  @ DRIVER MODE: Message from server: GETFORCE
  @ DRIVER MODE: Returning v,forces,stress,ensemble
  @ DRIVE MODE: Returning Ensemble Energies

     Writing config to output data dir ./calc.save/
     Message from routine punch:
     wavefunctions written to file
  @ DRIVER MODE: Message from server: EXIT
  @ DRIVE MODE: Exiting

     General routines

     Parallel routines

   This run was terminated on:  20:53:54  15Oct2021

   JOB DONE.