     Program PWSCF v.6.7GPU starts on 12Oct2021 at 19:49:54

     R & G space division:  proc/nbgrp/npool/nimage =       8
     Reading input from /storage/home/hcoda1/3/ntian30/research/carbon/CxH_vib/CH_calc/ads_slab/CHNHH_b/out_0019/pw.inp
Warning: card &CELL ignored
Warning: card   CELL_DYNAMICS='IPI', ignored
Warning: card / ignored

     Current dimensions of program PWSCF are:
     Max number of different atomic species (ntypx) = 10
     Max number of k-points (npk) =  40000
     Max angular momentum in pseudopotentials (lmaxx) =  3
     Presently no symmetry can be used with electric field

     Message from routine cell_base_init:
     DEPRECATED: use true lattice parameter, not A to a.u. conversion factor

     IMPORTANT: XC functional enforced from input :
     Exchange-correlation= BEEF-VDW
                           (   1   4  43  14   2   0   0)
     Any further DFT definition will be discarded
     Please, verify this is what you really want

  @ DRIVER MODE: Connecting to
 qe_1139763_3182856.sched-torque.pace.gatech.edusgz2mofj_scratch
  using UNIX socket
  @ DRIVER MODE: Message from server: STATUS
  @ DRIVER MODE: Message from server: INIT
  @ DRIVER MODE: Receiving replica           0          -1
  @ DRIVER MODE: Receiving encoded integer          25
  @ DRIVER MODE:  SCF:  T  FORCE:  T  STRESS:  F  VC:  F  ENSEMBLE:  F
  @ DRIVER MODE:  SCF:  T  FORCE:  T  STRESS:  F  VC:  F  ENSEMBLE:  F

     Using Slab Decomposition

     bravais-lattice index     =            0
     lattice parameter (alat)  =       1.8897  a.u.
     unit-cell volume          =    6658.9804 (a.u.)^3
     number of atoms/cell      =           52
     number of atomic types    =            5
     number of electrons       =       390.00
     number of Kohn-Sham states=          205
     kinetic-energy cutoff     =      29.3995  Ry
     charge density cutoff     =     293.9946  Ry
     scf convergence threshold =      7.3E-08
     mixing beta               =       0.0500
     number of iterations used =            8  plain     mixing
     Exchange-correlation= BEEF-VDW
                           (   1   4  43  14   2   0   0)

     celldm(1)=   1.889726  celldm(2)=   0.000000  celldm(3)=   0.000000
     celldm(4)=   0.000000  celldm(5)=   0.000000  celldm(6)=   0.000000

     crystal axes: (cart. coord. in units of alat)
               a(1) = (   6.579727   0.000000   0.000000 )
               a(2) = (  -0.000775   5.961596   0.000000 )
               a(3) = (   0.000000   0.000000  25.155947 )

     reciprocal axes: (cart. coord. in units 2 pi/alat)
               b(1) = (  0.151982  0.000020  0.000000 )
               b(2) = (  0.000000  0.167740  0.000000 )
               b(3) = (  0.000000  0.000000  0.039752 )

     PseudoPot. # 1 for Ti read from file:
     /storage/coda1/p-amedford6/0/shared/rich_project_chbe-medford/medford-share/data/pseudos_module/espresso/nninc/pbe/van/Ti.UPF
     MD5 check sum: 8e4df49b7f0d34bbd5052bf3f5ea0213
     Pseudo is Ultrasoft, Zval = 12.0
     Generated by new atomic code, or converted to UPF format
     Using radial grid of  851 points,  6 beta functions with:
                l(1) =   0
                l(2) =   0
                l(3) =   1
                l(4) =   1
                l(5) =   2
                l(6) =   2
     Q(r) pseudized with  8 coefficients,  rinner =    1.000   1.000   1.000
                                                       1.000   1.000

     PseudoPot. # 2 for O  read from file:
     /storage/coda1/p-amedford6/0/shared/rich_project_chbe-medford/medford-share/data/pseudos_module/espresso/nninc/pbe/van/O.UPF
     MD5 check sum: 78c19812648e8988a0fe644b0f25305e
     Pseudo is Ultrasoft, Zval =  6.0
     Generated by new atomic code, or converted to UPF format
     Using radial grid of  737 points,  4 beta functions with:
                l(1) =   0
                l(2) =   0
                l(3) =   1
                l(4) =   1
     Q(r) pseudized with  8 coefficients,  rinner =    0.800   0.800   0.800

     PseudoPot. # 3 for C  read from file:
     /storage/coda1/p-amedford6/0/shared/rich_project_chbe-medford/medford-share/data/pseudos_module/espresso/nninc/pbe/van/C.UPF
     MD5 check sum: 1a69bf6b8db32088f5b2163dbdb77a27
     Pseudo is Ultrasoft, Zval =  4.0
     Generated by new atomic code, or converted to UPF format
     Using radial grid of  721 points,  4 beta functions with:
                l(1) =   0
                l(2) =   0
                l(3) =   1
                l(4) =   1
     Q(r) pseudized with  8 coefficients,  rinner =    0.800   0.800   0.800

     PseudoPot. # 4 for H  read from file:
     /storage/coda1/p-amedford6/0/shared/rich_project_chbe-medford/medford-share/data/pseudos_module/espresso/nninc/pbe/van/H.UPF
     MD5 check sum: b5ee9d7bfd3a09ee7748110bda690ff7
     Pseudo is Ultrasoft, Zval =  1.0
     Generated by new atomic code, or converted to UPF format
     Using radial grid of  615 points,  1 beta functions with:
                l(1) =   0
     Q(r) pseudized with  8 coefficients,  rinner =    0.800

     PseudoPot. # 5 for N  read from file:
     /storage/coda1/p-amedford6/0/shared/rich_project_chbe-medford/medford-share/data/pseudos_module/espresso/nninc/pbe/van/N.UPF
     MD5 check sum: 90d10febe142ad51ac9d5be1deb811c4
     Pseudo is Ultrasoft, Zval =  5.0
     Generated by new atomic code, or converted to UPF format
     Using radial grid of  729 points,  4 beta functions with:
                l(1) =   0
                l(2) =   0
                l(3) =   1
                l(4) =   1
     Q(r) pseudized with  8 coefficients,  rinner =    0.800   0.800   0.800

     atomic species   valence    mass     pseudopotential
        Ti1           12.00    47.86700     Ti( 1.00)
        O1             6.00    15.99900     O ( 1.00)
        C1             4.00    12.01100     C ( 1.00)
        H1             1.00     1.00800     H ( 1.00)
        N1             5.00    14.00700     N ( 1.00)

     No symmetry found

   Cartesian axes

     site n.     atom                  positions (alat units)
         1           Ti1 tau(   1) = (   0.0004258   2.9801865   6.0000000  )
         2           Ti1 tau(   2) = (   3.2906075   1.4906267   6.0002472  )
         3           O1  tau(   3) = (   0.0006271   0.0005054   7.9858123  )
         4           O1  tau(   4) = (   3.2906025   0.0005020   7.3038282  )
         5           O1  tau(   5) = (   4.5942328   1.4918067   9.2879030  )
         6           O1  tau(   6) = (   1.9868534   1.4903216   9.2879459  )
         7           Ti1 tau(   7) = (   3.2907309   2.9776765   9.1658812  )
         8           Ti1 tau(   8) = (   0.0014263   1.4814950   9.2876947  )
         9           O1  tau(   9) = (   3.2944750   0.0002302  11.3604974  )
        10           O1  tau(  10) = (   0.0008895   5.9586890  10.6035392  )
        11           O1  tau(  11) = (   1.2972031   1.4939413  12.6393260  )
        12           O1  tau(  12) = (   5.2935702   1.4970258  12.6342454  )
        13           Ti1 tau(  13) = (   6.5783930   2.9813526  12.8381062  )
        14           Ti1 tau(  14) = (   3.2906537   1.4978773  12.4963327  )
        15           O1  tau(  15) = (   6.5733175   0.0290402  14.6574804  )
        16           O1  tau(  16) = (   3.3054662   0.0216765  13.9740687  )
        17           O1  tau(  17) = (   4.5350609   1.5403548  16.2059549  )
        18           O1  tau(  18) = (   2.0349166   1.5291342  16.1470642  )
        19           Ti1 tau(  19) = (   3.2872240   3.0047607  15.7234092  )
        20           Ti1 tau(  20) = (   0.0410825   1.5194215  16.1276637  )
        21           O1  tau(  21) = (   3.2904802   0.0005063   4.7018136  )
        22           O1  tau(  22) = (   6.5652676   5.8907541  17.2497628  )
        23           O1  tau(  23) = (   1.3043587   1.4918075   6.0039043  )
        24           O1  tau(  24) = (   5.2767064   1.4903225   6.0039473  )
        25           Ti1 tau(  25) = (   0.0000382   5.9609847   6.0000000  )
        26           Ti1 tau(  26) = (   3.2902200   4.4714249   6.0002472  )
        27           O1  tau(  27) = (   0.0002396   2.9813036   7.9858123  )
        28           O1  tau(  28) = (   3.2902150   2.9813002   7.3038282  )
        29           O1  tau(  29) = (   4.5938453   4.4726049   9.2879030  )
        30           O1  tau(  30) = (   1.9864658   4.4711199   9.2879459  )
        31           Ti1 tau(  31) = (   3.2906741   5.9584693   9.1623309  )
        32           Ti1 tau(  32) = (   0.0012165   4.4014169   9.3465426  )
        33           O1  tau(  33) = (   3.2924083   2.9889881  11.3543434  )
        34           O1  tau(  34) = (   0.0022264   2.9772995  10.5544931  )
        35           O1  tau(  35) = (   1.2986444   4.4679898  12.6568800  )
        36           O1  tau(  36) = (   5.2923799   4.4657857  12.6543205  )
        37           Ti1 tau(  37) = (   0.0025552   0.0092372  12.5181211  )
        38           Ti1 tau(  38) = (   3.2887235   4.4740353  12.4983661  )
        39           O1  tau(  39) = (   0.0036310   2.9570434  14.7349056  )
        40           O1  tau(  40) = (   3.2990611   2.9752856  13.9364830  )
        41           O1  tau(  41) = (   4.5418486   4.4722619  16.1017917  )
        42           O1  tau(  42) = (   2.0452692   4.4787779  16.1069431  )
        43           Ti1 tau(  43) = (   3.3182015   0.0155015  15.7624703  )
        44           Ti1 tau(  44) = (   0.0016332   4.6944760  15.9151726  )
        45           O1  tau(  45) = (   3.2900926   2.9813045   4.7018136  )
        46           C1  tau(  46) = (   0.0781255   2.7894620  17.8686468  )
        47           O1  tau(  47) = (   1.3039711   4.4726057   6.0039043  )
        48           O1  tau(  48) = (   5.2763189   4.4711207   6.0039473  )
        49           H1  tau(  49) = (   0.9954384   3.2332450  18.2619424  )
        50           H1  tau(  50) = (   4.7724221   2.4647446  18.5698542  )
        51           N1  tau(  51) = (   5.6745287   2.8438018  18.7814782  )
        52           H1  tau(  52) = (   5.7759989   3.3395087  19.6567880  )

     number of k points=    10  Fermi-Dirac smearing, width (Ry)=  0.0073
                       cart. coord. in units 2pi/alat
        k(    1) = (   0.0000000   0.0000000   0.0000000), wk =   0.1250000
        k(    2) = (   0.0000000   0.0419351   0.0000000), wk =   0.2500000
        k(    3) = (   0.0000000  -0.0838702   0.0000000), wk =   0.1250000
        k(    4) = (   0.0379955   0.0000049   0.0000000), wk =   0.2500000
        k(    5) = (   0.0379955   0.0419400   0.0000000), wk =   0.2500000
        k(    6) = (   0.0379955  -0.0838652   0.0000000), wk =   0.2500000
        k(    7) = (   0.0379955  -0.0419301   0.0000000), wk =   0.2500000
        k(    8) = (  -0.0759910  -0.0000099   0.0000000), wk =   0.1250000
        k(    9) = (  -0.0759910   0.0419252   0.0000000), wk =   0.2500000
        k(   10) = (  -0.0759910  -0.0838800   0.0000000), wk =   0.1250000

     Initial potential from superposition of free atoms

     starting charge  373.99917, renormalised to  390.00000

     negative rho (up, down):  1.780E-02 0.000E+00

     %%%%%%%%%%%%%%%%%%%%%%%%%%%%%%%%%%%%%%%%%%%%%%%%%%%%%%%%%%%%%%%%%%%%%%%%
     %                                                                      %
     % You are using vdW-DF, which was implemented by the Thonhauser group. %
     % Please cite the following two papers that made this development      %
     % possible and the two reviews that describe the various versions:     %
     %                                                                      %
     %   T. Thonhauser et al., PRL 115, 136402 (2015).                      %
     %   T. Thonhauser et al., PRB 76, 125112 (2007).                       %
     %   K. Berland et al., Rep. Prog. Phys. 78, 066501 (2015).             %
     %   D.C. Langreth et al., J. Phys.: Condens. Matter 21, 084203 (2009). %
     %                                                                      %
     %                                                                      %
     % If you are calculating the stress with vdW-DF, please also cite:     %
     %                                                                      %
     %   R. Sabatini et al., J. Phys.: Condens. Matter 24, 424209 (2012).   %
     %                                                                      %
     %%%%%%%%%%%%%%%%%%%%%%%%%%%%%%%%%%%%%%%%%%%%%%%%%%%%%%%%%%%%%%%%%%%%%%%%

     Adding external electric field

     Computed dipole along edir(3) :
        Dipole               -5.3776 Ry au,        -13.6685 Debye
        Dipole field         -0.0101 Ry au,

        Potential amp.        0.9407 Ry
        Total length         46.3494 bohr

     Starting wfcs are  295 atomic wfcs
  @ DRIVER MODE: Message from server: STATUS
  @ DRIVER MODE: Message from server: POSDATA
  @ DRIVER MODE: Reading and sharing cell
  @ DRIVER MODE: Reading and sharing positions
  @ DRIVER MODE: Received positions

     Self-consistent Calculation

     iteration #  1     ecut=    29.40 Ry     beta= 0.05
     Davidson diagonalization with overlap
     c_bands:  5 eigenvalues not converged
     c_bands:  1 eigenvalues not converged
     c_bands:  2 eigenvalues not converged
     c_bands:  5 eigenvalues not converged
     c_bands:  1 eigenvalues not converged
     c_bands:  5 eigenvalues not converged
     c_bands:  1 eigenvalues not converged
     c_bands:  1 eigenvalues not converged
     ethr =  1.00E-05,  avg # of iterations = 20.9

[...]

     total energy              =   -2826.66573525 Ry
     estimated scf accuracy    <    1028.80873832 Ry

     iteration #  2     ecut=    29.40 Ry     beta= 0.05
     Davidson diagonalization with overlap
     ethr =  1.00E-02,  avg # of iterations = 15.9

[...]

     iteration # 73     ecut=    29.40 Ry     beta= 0.05
     Davidson diagonalization with overlap
     c_bands:  1 eigenvalues not converged
     ethr =  1.48E-10,  avg # of iterations = 13.7

[...]

     total energy              =   -2919.05141850 Ry
     estimated scf accuracy    <       0.00000011 Ry

     iteration # 78     ecut=    29.40 Ry     beta= 0.05
     Davidson diagonalization with overlap
     ethr =  2.77E-11,  avg # of iterations =  7.0

     negative rho (up, down):  1.780E-02 0.000E+00

     Adding external electric field

     Computed dipole along edir(3) :
        Dipole                1.2177 Ry au,          3.0951 Debye
        Dipole field          0.0023 Ry au,

        Potential amp.       -0.2130 Ry
        Total length         46.3494 bohr

     End of self-consistent calculation

          k = 0.0000 0.0000 0.0000 ( 18029 PWs)   bands (ev):

   -55.6472 -55.6282 -55.6067 -55.5919 -55.5523 -55.5089 -55.4592 -55.4512
   -55.4040 -55.3913 -55.3692 -55.3070 -55.0235 -54.9667 -54.6291 -54.5950
   -32.1983 -32.1084 -31.9780 -31.9675 -31.9620 -31.9382 -31.9021 -31.8884
   -31.8754 -31.8605 -31.8404 -31.8321 -31.8108 -31.8086 -31.7765 -31.7743
   -31.7578 -31.7308 -31.7257 -31.7131 -31.6894 -31.6764 -31.6691 -31.6513
   -31.6512 -31.6383 -31.6227 -31.6097 -31.6006 -31.5897 -31.5591 -31.5521
   -31.5416 -31.5167 -31.4997 -31.4961 -31.4655 -31.3764 -31.3202 -31.2559
   -31.0800 -31.0442 -31.0383 -30.9436 -30.9210 -30.8546 -30.7683 -30.6575
   -16.5044 -16.3826 -16.0804 -15.9525 -15.7919 -15.7516 -15.6717 -15.4583
   -15.3395 -15.2639 -15.2465 -15.2291 -15.2089 -15.2039 -15.1604 -15.1485
   -15.1262 -15.0811 -15.0591 -15.0300 -15.0244 -15.0016 -14.9451 -14.9040
   -14.9007 -14.7852 -14.7451 -14.6194 -14.5816 -14.4331 -13.1312 -13.0136
    -9.1253  -6.8772  -4.3862  -3.7393  -3.5471  -3.5189  -3.5108  -3.4422
    -3.2169  -3.1960  -2.8632  -2.8044  -2.7947  -2.7615  -2.7443  -2.5986
    -2.5425  -2.4842  -2.4484  -2.4375  -2.4305  -2.4175  -2.3975  -2.3660
    -2.3517  -2.3220  -2.2290  -2.1589  -2.0584  -2.0363  -1.9824  -1.9323
    -1.8954  -1.8881  -1.8508  -1.8408  -1.8172  -1.7843  -1.7685  -1.7187
    -1.5360  -1.5253  -1.4920  -1.4396  -1.2963  -1.2590  -1.2252  -1.0993
    -1.0538  -1.0273  -0.9499  -0.9474  -0.9330  -0.8757  -0.8381  -0.7834
    -0.6869  -0.6613  -0.5748  -0.5609  -0.5055  -0.4705  -0.3555  -0.3459
    -0.3278  -0.3035  -0.1236  -0.1148  -0.0890  -0.0749   0.0259   0.0628
     0.0847   0.1597   0.1715   0.1860   0.2081   0.3273   0.3658   0.3725
     0.3945   0.4013   0.4093   0.5758   0.6035   0.6756   0.7003   0.7534
     0.9126   0.9356   1.0332   1.0997   1.3010   1.3934   1.4603   1.5705
     1.9805   2.0452   3.4284   3.5610   3.5667   3.6189   3.6448   3.7024
     3.9058   3.9441   3.9695   4.0030   4.0290

[...]

          k = 0.0380-0.0419 0.0000 ( 17876 PWs)   bands (ev):

[...]

          k =-0.0760-0.0000 0.0000 ( 17886 PWs)   bands (ev):

[...]

          k =-0.0760-0.0839 0.0000 ( 17948 PWs)   bands (ev):

   -55.6379 -55.6159 -55.6114 -55.6085 -55.5490 -55.5041 -55.4623 -55.4560
   -55.3884 -55.3883 -55.3840 -55.3105 -55.0186 -54.9715 -54.6123 -54.6117
   -32.0018 -31.9997 -31.9402 -31.9349 -31.9296 -31.9137 -31.8945 -31.8944
   -31.8402 -31.8386 -31.8331 -31.8067 -31.8033 -31.7662 -31.7533 -31.7514
   -31.7509 -31.7486 -31.7452 -31.7282 -31.7149 -31.7046 -31.7028 -31.6962
   -31.6686 -31.6677 -31.6628 -31.6359 -31.6356 -31.6287 -31.5900 -31.5877
   -31.5772 -31.5756 -31.5231 -31.5061 -31.4844 -31.3805 -31.3143 -31.2584
   -31.1560 -31.0470 -30.9340 -30.9334 -30.8513 -30.8510 -30.8117 -30.8112
   -16.4918 -15.8575 -15.7987 -15.5827 -15.5617 -15.5614 -15.4773 -15.4035
   -15.3967 -15.3667 -15.3486 -15.3250 -15.3158 -15.2622 -15.2375 -15.1738
   -15.1505 -15.1342 -15.1321 -15.0752 -15.0671 -15.0327 -15.0127 -15.0010
   -14.9785 -14.9479 -14.9373 -14.8096 -14.7715 -14.5599 -13.1169 -13.1132
    -9.1358  -6.8806  -4.3436  -3.1488  -3.0794  -2.7937  -2.7858  -2.7691
    -2.6642  -2.5816  -2.5694  -2.5372  -2.4775  -2.4531  -2.4506  -2.4376
    -2.4184  -2.4137  -2.4083  -2.3997  -2.3562  -2.3298  -2.2986  -2.2565
    -2.2489  -2.2379  -2.2240  -2.1825  -2.1718  -2.1618  -2.1582  -2.1491
    -2.0872  -1.9180  -1.8907  -1.8714  -1.7676  -1.7512  -1.7158  -1.6879
    -1.6850  -1.6437  -1.6264  -1.5608  -1.4605  -1.3802  -1.3471  -1.3272
    -1.2912  -1.2511  -1.1553  -1.0534  -1.0151  -0.9848  -0.9530  -0.9185
    -0.8885  -0.8812  -0.7764  -0.7268  -0.7068  -0.6549  -0.6002  -0.5775
    -0.5447  -0.5009  -0.4887  -0.4411  -0.3689  -0.3489  -0.2889  -0.2369
    -0.2132  -0.2126  -0.1571  -0.1456  -0.0320   0.0140   0.2113   0.2772
     0.3519   0.3899   0.4081   0.5511   0.5609   0.6655   0.7222   0.7330
     0.7601   0.8402   0.9171   0.9320   0.9635   1.0187   1.7549   1.7573
     1.8404   1.8540   3.5545   3.7268   3.7579   3.7638   3.8631   4.0073
     4.0210   4.0311   4.0411   4.1452   4.2013

     the Fermi energy is     3.5100 ev

!    total energy              =   -2919.05142663 Ry
     estimated scf accuracy    <       0.00000006 Ry
     smearing contrib. (-TS)   =      -0.03125509 Ry
     internal energy E=F+TS    =   -2919.02017154 Ry

     The total energy is F=E-TS. E is the sum of the following terms:
     one-electron contribution =  -24311.29249814 Ry
     hartree contribution      =   12243.07670915 Ry
     xc contribution           =    -479.92563536 Ry
     ewald contribution        =    9629.11845458 Ry
     electric field correction =       0.00279823 Ry

     convergence has been achieved in  78 iterations

     Forces acting on atoms (cartesian axes, Ry/au):

     atom    1 type  1   force =     0.00005971    0.00096890    0.10692914
     atom    2 type  1   force =    -0.00004981    0.00019247   -0.17813228
     atom    3 type  2   force =     0.00007912    0.00467576   -0.03576737
     atom    4 type  2   force =     0.00003092    0.00016347    0.04948258
     atom    5 type  2   force =    -0.02036945   -0.00163505    0.00504727
     atom    6 type  2   force =     0.02053011   -0.00128510    0.00512742
     atom    7 type  1   force =     0.00006383    0.00148420   -0.00757916
     atom    8 type  1   force =     0.00003141   -0.00050936   -0.00007922
     atom    9 type  2   force =    -0.00002876    0.00000540   -0.00043994
     atom   10 type  2   force =     0.00010414   -0.00036367    0.00067615
     atom   11 type  2   force =     0.00037678   -0.00019276   -0.00000639
     atom   12 type  2   force =    -0.00029423   -0.00020496   -0.00010545
     atom   13 type  1   force =    -0.00020294   -0.00064787   -0.00001690
     atom   14 type  1   force =    -0.00012024   -0.00008440    0.00013175
     atom   15 type  2   force =     0.00011147    0.00024702    0.00034559
     atom   16 type  2   force =     0.00011137    0.00024475   -0.00068869
     atom   17 type  2   force =    -0.00050726   -0.00010894    0.00008034
     atom   18 type  2   force =     0.00063741   -0.00015784   -0.00000537
     atom   19 type  1   force =     0.00011136    0.00030591    0.00060214
     atom   20 type  1   force =    -0.00032245    0.00027356    0.00134728
     atom   21 type  2   force =     0.00003808    0.00000302    0.10382814
     atom   22 type  2   force =     0.00006142   -0.00030529   -0.00217617
     atom   23 type  2   force =    -0.06933853    0.00127701   -0.03017040
     atom   24 type  2   force =     0.06921257    0.00170431   -0.03021100
     atom   25 type  1   force =     0.00002594   -0.00088298    0.12347539
     atom   26 type  1   force =    -0.00007627   -0.00067984   -0.17775200
     atom   27 type  2   force =     0.00001125   -0.00219886   -0.03268069
     atom   28 type  2   force =     0.00001466   -0.00014489    0.05055100
     atom   29 type  2   force =    -0.02135691    0.00085919    0.00494233
     atom   30 type  2   force =     0.02155307    0.00148529    0.00503870
     atom   31 type  1   force =     0.00025276   -0.00213396   -0.00796241
     atom   32 type  1   force =     0.00000698   -0.00074732    0.00063018
     atom   33 type  2   force =    -0.00002919   -0.00000005   -0.00022401
     atom   34 type  2   force =     0.00002153    0.00023521    0.00078097
     atom   35 type  2   force =     0.00023106    0.00028266   -0.00010563
     atom   36 type  2   force =    -0.00015595    0.00031701   -0.00023010
     atom   37 type  1   force =    -0.00001519    0.00057605    0.00130743
     atom   38 type  1   force =    -0.00010811   -0.00032838    0.00041994
     atom   39 type  2   force =    -0.00003097    0.00050337   -0.00014823
     atom   40 type  2   force =     0.00004047    0.00023873   -0.00134841
     atom   41 type  2   force =    -0.00116802    0.00061205    0.00015102
     atom   42 type  2   force =     0.00121670    0.00049134    0.00044296
     atom   43 type  1   force =     0.00022982    0.00024339    0.00032178
     atom   44 type  1   force =     0.00034207   -0.00003422    0.00167228
     atom   45 type  2   force =     0.00005098    0.00006734    0.10388129
     atom   46 type  3   force =    -0.00889656   -0.00080514    0.00458321
     atom   47 type  2   force =    -0.06957368   -0.00177416   -0.03016002
     atom   48 type  2   force =     0.06948115   -0.00133465   -0.03022273
     atom   49 type  4   force =    -0.00181632    0.00001341    0.00136378
     atom   50 type  4   force =    -0.01283406   -0.00565252   -0.00295831
     atom   51 type  5   force =     0.02575666    0.00679734   -0.00265043
     atom   52 type  4   force =    -0.00349989   -0.00205597   -0.00133875

     Total force =     0.380716     Total SCF correction =     0.000734
  @ DRIVER MODE: Message from server: STATUS
  @ DRIVER MODE: Message from server: GETFORCE
  @ DRIVER MODE: Returning v,forces,stress,ensemble

     Writing output data file ./calc.save/
  @ DRIVER MODE: Message from server: EXIT
  @ DRIVE MODE: Exiting

     General routines

     Parallel routines

   This run was terminated on:  20:17:16  12Oct2021

   JOB DONE.