     Program PWSCF v.6.7GPU starts on 22Sep2021 at 19:37: 4

     R & G space division:  proc/nbgrp/npool/nimage =      10
     Reading input from /storage/home/hcoda1/3/ntian30/research/carbon/CxH_vib/H2O_calc/ads_slab/CH2NHNHH2O_b/out_0011/pw.inp
Warning: card &CELL ignored
Warning: card   CELL_DYNAMICS='IPI', ignored
Warning: card / ignored

     Current dimensions of program PWSCF are:
     Max number of different atomic species (ntypx) = 10
     Max number of k-points (npk) =  40000
     Max angular momentum in pseudopotentials (lmaxx) =  3
     Presently no symmetry can be used with electric field

     Message from routine cell_base_init:
     DEPRECATED: use true lattice parameter, not A to a.u. conversion factor

     IMPORTANT: XC functional enforced from input :
     Exchange-correlation= BEEF-VDW
                           (   1   4  43  14   2   0   0)
     Any further DFT definition will be discarded
     Please, verify this is what you really want

  @ DRIVER MODE: Connecting to
 qe_1139763_2937310.sched-torque.pace.gatech.edu15vl55gy_scratch
  using UNIX socket
  @ DRIVER MODE: Message from server: STATUS
  @ DRIVER MODE: Message from server: INIT
  @ DRIVER MODE: Receiving replica           0          -1
  @ DRIVER MODE: Receiving encoded integer          25
  @ DRIVER MODE:  SCF:  T  FORCE:  T  STRESS:  F  VC:  F  ENSEMBLE:  F
  @ DRIVER MODE:  SCF:  T  FORCE:  T  STRESS:  F  VC:  F  ENSEMBLE:  F

     Using Slab Decomposition

     bravais-lattice index     =            0
     lattice parameter (alat)  =       1.8897  a.u.
     unit-cell volume          =    6658.9804 (a.u.)^3
     number of atoms/cell      =           57
     number of atomic types    =            5
     number of electrons       =       404.00
     number of Kohn-Sham states=          212
     kinetic-energy cutoff     =      29.3995  Ry
     charge density cutoff     =     293.9946  Ry
     scf convergence threshold =      7.3E-08
     mixing beta               =       0.0500
     number of iterations used =            8  plain     mixing
     Exchange-correlation= BEEF-VDW
                           (   1   4  43  14   2   0   0)

     celldm(1)=   1.889726  celldm(2)=   0.000000  celldm(3)=   0.000000
     celldm(4)=   0.000000  celldm(5)=   0.000000  celldm(6)=   0.000000

     crystal axes: (cart. coord. in units of alat)
               a(1) = (   6.579727   0.000000   0.000000 )
               a(2) = (  -0.000775   5.961596   0.000000 )
               a(3) = (   0.000000   0.000000  25.155947 )

     reciprocal axes: (cart. coord. in units 2 pi/alat)
               b(1) = (  0.151982  0.000020  0.000000 )
               b(2) = (  0.000000  0.167740  0.000000 )
               b(3) = (  0.000000  0.000000  0.039752 )

     PseudoPot. # 1 for Ti read from file:
     /storage/coda1/p-amedford6/0/shared/rich_project_chbe-medford/medford-share/data/pseudos_module/espresso/nninc/pbe/van/Ti.UPF
     MD5 check sum: 8e4df49b7f0d34bbd5052bf3f5ea0213
     Pseudo is Ultrasoft, Zval = 12.0
     Generated by new atomic code, or converted to UPF format
     Using radial grid of  851 points,  6 beta functions with:
                l(1) =   0
                l(2) =   0
                l(3) =   1
                l(4) =   1
                l(5) =   2
                l(6) =   2
     Q(r) pseudized with  8 coefficients,  rinner =    1.000   1.000   1.000
                                                       1.000   1.000

     PseudoPot. # 2 for O  read from file:
     /storage/coda1/p-amedford6/0/shared/rich_project_chbe-medford/medford-share/data/pseudos_module/espresso/nninc/pbe/van/O.UPF
     MD5 check sum: 78c19812648e8988a0fe644b0f25305e
     Pseudo is Ultrasoft, Zval =  6.0
     Generated by new atomic code, or converted to UPF format
     Using radial grid of  737 points,  4 beta functions with:
                l(1) =   0
                l(2) =   0
                l(3) =   1
                l(4) =   1
     Q(r) pseudized with  8 coefficients,  rinner =    0.800   0.800   0.800

     PseudoPot. # 3 for N  read from file:
     /storage/coda1/p-amedford6/0/shared/rich_project_chbe-medford/medford-share/data/pseudos_module/espresso/nninc/pbe/van/N.UPF
     MD5 check sum: 90d10febe142ad51ac9d5be1deb811c4
     Pseudo is Ultrasoft, Zval =  5.0
     Generated by new atomic code, or converted to UPF format
     Using radial grid of  729 points,  4 beta functions with:
                l(1) =   0
                l(2) =   0
                l(3) =   1
                l(4) =   1
     Q(r) pseudized with  8 coefficients,  rinner =    0.800   0.800   0.800

     PseudoPot. # 4 for C  read from file:
     /storage/coda1/p-amedford6/0/shared/rich_project_chbe-medford/medford-share/data/pseudos_module/espresso/nninc/pbe/van/C.UPF
     MD5 check sum: 1a69bf6b8db32088f5b2163dbdb77a27
     Pseudo is Ultrasoft, Zval =  4.0
     Generated by new atomic code, or converted to UPF format
     Using radial grid of  721 points,  4 beta functions with:
                l(1) =   0
                l(2) =   0
                l(3) =   1
                l(4) =   1
     Q(r) pseudized with  8 coefficients,  rinner =    0.800   0.800   0.800

     PseudoPot. # 5 for H  read from file:
     /storage/coda1/p-amedford6/0/shared/rich_project_chbe-medford/medford-share/data/pseudos_module/espresso/nninc/pbe/van/H.UPF
     MD5 check sum: b5ee9d7bfd3a09ee7748110bda690ff7
     Pseudo is Ultrasoft, Zval =  1.0
     Generated by new atomic code, or converted to UPF format
     Using radial grid of  615 points,  1 beta functions with:
                l(1) =   0
     Q(r) pseudized with  8 coefficients,  rinner =    0.800

     atomic species   valence    mass     pseudopotential
        Ti1           12.00    47.86700     Ti( 1.00)
        O1             6.00    15.99900     O ( 1.00)
        N1             5.00    14.00700     N ( 1.00)
        C1             4.00    12.01100     C ( 1.00)
        H1             1.00     1.00800     H ( 1.00)

     No symmetry found

   Cartesian axes

     site n.     atom                  positions (alat units)
         1           Ti1 tau(   1) = (   0.0004258   2.9801865   6.0000000  )
         2           Ti1 tau(   2) = (   3.2906075   1.4906267   6.0002472  )
         3           O1  tau(   3) = (   0.0006271   0.0005054   7.9858123  )
         4           O1  tau(   4) = (   3.2906025   0.0005020   7.3038282  )
         5           O1  tau(   5) = (   4.5942328   1.4918067   9.2879030  )
         6           O1  tau(   6) = (   1.9868534   1.4903216   9.2879459  )
         7           Ti1 tau(   7) = (   3.2907910   2.8959150   9.1758416  )
         8           Ti1 tau(   8) = (   0.0015273   1.4827037   9.2680791  )
         9           O1  tau(   9) = (   3.2740695   5.9399032  11.3612631  )
        10           O1  tau(  10) = (   0.0116148   5.9584955  10.6183126  )
        11           O1  tau(  11) = (   1.2665466   1.4659349  12.6457467  )
        12           O1  tau(  12) = (   5.2636777   1.4644475  12.6520517  )
        13           Ti1 tau(  13) = (   0.0254019   2.9535957  12.5508080  )
        14           Ti1 tau(  14) = (   3.3235577   1.4585364  12.5144190  )
        15           O1  tau(  15) = (   0.0066209   5.9388471  14.7046414  )
        16           O1  tau(  16) = (   3.2471877   5.9405099  14.0100224  )
        17           O1  tau(  17) = (   4.5302733   1.5208160  16.0462967  )
        18           O1  tau(  18) = (   1.9955500   1.4995475  16.2009832  )
        19           Ti1 tau(  19) = (   3.2567830   2.9699832  15.6929747  )
        20           Ti1 tau(  20) = (   6.4949666   1.4732860  15.8443191  )
        21           O1  tau(  21) = (   3.2904802   0.0005063   4.7018136  )
        22           O1  tau(  22) = (   6.4419287   5.8812218  17.2824568  )
        23           O1  tau(  23) = (   1.3043587   1.4918075   6.0039043  )
        24           O1  tau(  24) = (   5.2767064   1.4903225   6.0039473  )
        25           Ti1 tau(  25) = (   0.0000382   5.9609847   6.0000000  )
        26           Ti1 tau(  26) = (   3.2902200   4.4714249   6.0002472  )
        27           O1  tau(  27) = (   0.0002396   2.9813036   7.9858123  )
        28           O1  tau(  28) = (   3.2902150   2.9813002   7.3038282  )
        29           O1  tau(  29) = (   4.5938453   4.4726049   9.2879030  )
        30           O1  tau(  30) = (   1.9864658   4.4711199   9.2879459  )
        31           Ti1 tau(  31) = (   3.2891106   5.8743827   9.1763621  )
        32           Ti1 tau(  32) = (   0.0006254   4.4649316   9.2693709  )
        33           O1  tau(  33) = (   3.2800166   2.9600013  11.3546200  )
        34           O1  tau(  34) = (   0.0092240   2.9805883  10.6323155  )
        35           O1  tau(  35) = (   1.2663080   4.4508225  12.6496728  )
        36           O1  tau(  36) = (   5.2650692   4.4524444  12.6537221  )
        37           Ti1 tau(  37) = (   0.0180281   5.9297397  12.5120547  )
        38           Ti1 tau(  38) = (   3.3242103   4.4456960  12.5094407  )
        39           O1  tau(  39) = (   0.0028395   2.9305241  14.7702868  )
        40           O1  tau(  40) = (   3.2369197   2.9632653  13.9133312  )
        41           O1  tau(  41) = (   4.5259019   4.3784886  16.1008109  )
        42           O1  tau(  42) = (   2.0017919   4.4285960  16.1845674  )
        43           Ti1 tau(  43) = (   3.2453488   5.9423767  15.8283900  )
        44           Ti1 tau(  44) = (   6.5728488   4.6138345  16.0446011  )
        45           O1  tau(  45) = (   3.2900926   2.9813045   4.7018136  )
        46           O1  tau(  46) = (   1.3039711   4.4726057   6.0039043  )
        47           O1  tau(  47) = (   5.2763189   4.4711207   6.0039473  )
        48           N1  tau(  48) = (   0.9567011   2.5879941  18.4848429  )
        49           N1  tau(  49) = (   6.5185693   2.8362889  17.6264570  )
        50           C1  tau(  50) = (   1.0658718   2.8740630  19.7563100  )
        51           H1  tau(  51) = (   1.9437682   2.5238050  20.2723566  )
        52           H1  tau(  52) = (   0.2809834   3.4210577  20.2544045  )
        53           H1  tau(  53) = (   1.7014144   2.0656717  17.9989220  )
        54           H1  tau(  54) = (   5.6742842   3.0275795  18.1730567  )
        55           O1  tau(  55) = (   3.7618585   0.1297276  18.3074903  )
        56           H1  tau(  56) = (   4.7330396   0.0541995  18.1289380  )
        57           H1  tau(  57) = (   3.4892521   5.2388606  18.6788193  )

     number of k points=    10  Fermi-Dirac smearing, width (Ry)=  0.0073
                       cart. coord. in units 2pi/alat
        k(    1) = (   0.0000000   0.0000000   0.0000000), wk =   0.1250000
        k(    2) = (   0.0000000   0.0419351   0.0000000), wk =   0.2500000
        k(    3) = (   0.0000000  -0.0838702   0.0000000), wk =   0.1250000
        k(    4) = (   0.0379955   0.0000049   0.0000000), wk =   0.2500000
        k(    5) = (   0.0379955   0.0419400   0.0000000), wk =   0.2500000
        k(    6) = (   0.0379955  -0.0838652   0.0000000), wk =   0.2500000
        k(    7) = (   0.0379955  -0.0419301   0.0000000), wk =   0.2500000
        k(    8) = (  -0.0759910  -0.0000099   0.0000000), wk =   0.1250000
        k(    9) = (  -0.0759910   0.0419252   0.0000000), wk =   0.2500000
        k(   10) = (  -0.0759910  -0.0838800   0.0000000), wk =   0.1250000

     Initial potential from superposition of free atoms

     starting charge  387.99913, renormalised to  404.00000

     negative rho (up, down):  1.394E-02 0.000E+00

     %%%%%%%%%%%%%%%%%%%%%%%%%%%%%%%%%%%%%%%%%%%%%%%%%%%%%%%%%%%%%%%%%%%%%%%%
     %                                                                      %
     % You are using vdW-DF, which was implemented by the Thonhauser group. %
     % Please cite the following two papers that made this development      %
     % possible and the two reviews that describe the various versions:     %
     %                                                                      %
     %   T. Thonhauser et al., PRL 115, 136402 (2015).                      %
     %   T. Thonhauser et al., PRB 76, 125112 (2007).                       %
     %   K. Berland et al., Rep. Prog. Phys. 78, 066501 (2015).             %
     %   D.C. Langreth et al., J. Phys.: Condens. Matter 21, 084203 (2009). %
     %                                                                      %
     %                                                                      %
     % If you are calculating the stress with vdW-DF, please also cite:     %
     %                                                                      %
     %   R. Sabatini et al., J. Phys.: Condens. Matter 24, 424209 (2012).   %
     %                                                                      %
     %%%%%%%%%%%%%%%%%%%%%%%%%%%%%%%%%%%%%%%%%%%%%%%%%%%%%%%%%%%%%%%%%%%%%%%%

     Adding external electric field

     Computed dipole along edir(3) :
        Dipole              -14.1733 Ry au,        -36.0250 Debye
        Dipole field         -0.0267 Ry au,

        Potential amp.        2.4794 Ry
        Total length         46.3494 bohr

     Starting wfcs are  306 atomic wfcs
  @ DRIVER MODE: Message from server: STATUS
  @ DRIVER MODE: Message from server: POSDATA
  @ DRIVER MODE: Reading and sharing cell
  @ DRIVER MODE: Reading and sharing positions
  @ DRIVER MODE: Received positions

     Self-consistent Calculation

     iteration #  1     ecut=    29.40 Ry     beta= 0.05
     Davidson diagonalization with overlap
     c_bands:  4 eigenvalues not converged
     c_bands:  1 eigenvalues not converged
     c_bands:  2 eigenvalues not converged
     c_bands:  2 eigenvalues not converged
     c_bands:  1 eigenvalues not converged
     c_bands:  1 eigenvalues not converged
     c_bands:  4 eigenvalues not converged
     c_bands:  1 eigenvalues not converged
     c_bands:  1 eigenvalues not converged
     ethr =  1.00E-05,  avg # of iterations = 30.7

[...]

     total energy              =   -2249.31250004 Ry
     estimated scf accuracy    <    8255.10527900 Ry

     iteration #  2     ecut=    29.40 Ry     beta= 0.05
     Davidson diagonalization with overlap
     ethr =  1.00E-02,  avg # of iterations = 27.8

[...]

     iteration # 65     ecut=    29.40 Ry     beta= 0.05
     Davidson diagonalization with overlap
     ethr =  2.81E-11,  avg # of iterations =  4.7

[...]

     total energy              =   -2975.20149741 Ry
     estimated scf accuracy    <       0.00000010 Ry

     iteration # 66     ecut=    29.40 Ry     beta= 0.05
     Davidson diagonalization with overlap
     c_bands:  1 eigenvalues not converged
     c_bands:  1 eigenvalues not converged
     ethr =  2.37E-11,  avg # of iterations = 13.8

     negative rho (up, down):  1.353E-02 0.000E+00

     Adding external electric field

     Computed dipole along edir(3) :
        Dipole                1.4202 Ry au,          3.6099 Debye
        Dipole field          0.0027 Ry au,

        Potential amp.       -0.2485 Ry
        Total length         46.3494 bohr

     End of self-consistent calculation

          k = 0.0000 0.0000 0.0000 ( 18029 PWs)   bands (ev):

   -55.1468 -55.1184 -55.1102 -55.0843 -55.0822 -55.0326 -54.9908 -54.9583
   -54.9432 -54.9272 -54.9229 -54.9151 -54.9101 -54.8331 -54.1309 -54.0969
   -31.7097 -31.6081 -31.5257 -31.4829 -31.4584 -31.4570 -31.4474 -31.4451
   -31.4082 -31.3881 -31.3661 -31.3627 -31.3462 -31.3242 -31.3074 -31.2936
   -31.2879 -31.2710 -31.2680 -31.2593 -31.2296 -31.2167 -31.2125 -31.1879
   -31.1769 -31.1753 -31.1658 -31.1585 -31.1575 -31.1513 -31.1396 -31.1376
   -31.1159 -31.1074 -31.1025 -31.0917 -31.0857 -31.0745 -31.0719 -31.0513
   -31.0506 -31.0131 -30.5394 -30.4473 -30.4251 -30.3560 -30.2693 -30.1583
   -19.1965 -18.5883 -15.9629 -15.6979 -15.5664 -15.4009 -15.3383 -15.1670
   -15.0835 -15.0205 -14.9354 -14.8749 -14.8618 -14.8547 -14.7644 -14.7454
   -14.6916 -14.6814 -14.6743 -14.6435 -14.6356 -14.5774 -14.5733 -14.5663
   -14.5343 -14.5214 -14.4913 -14.3734 -14.2931 -14.2363 -14.0203 -13.6558
   -12.6332 -12.5161  -9.9918  -6.8149  -6.4379  -6.3601  -4.0494  -3.8856
    -3.3147  -3.1704  -3.1535  -3.0704  -3.0473  -2.9228  -2.8685  -2.7080
    -2.6084  -2.5019  -2.4117  -2.3422  -2.3339  -2.3061  -2.1892  -2.1259
    -2.0804  -2.0367  -2.0182  -2.0057  -1.9581  -1.9219  -1.9195  -1.8528
    -1.8507  -1.7137  -1.6271  -1.6158  -1.5803  -1.5647  -1.4762  -1.4518
    -1.4429  -1.4376  -1.4315  -1.4237  -1.3893  -1.3420  -1.3193  -1.2349
    -1.1824  -1.1389  -1.0084  -0.9042  -0.8322  -0.7762  -0.6876  -0.6842
    -0.6169  -0.5490  -0.5354  -0.5341  -0.4748  -0.3526  -0.3044  -0.2552
    -0.2351  -0.2092  -0.1210  -0.1032  -0.0335   0.0391   0.0669   0.0772
     0.0987   0.2729   0.2810   0.3095   0.3280   0.4173   0.4697   0.5124
     0.5188   0.5414   0.6070   0.6450   0.7364   0.7841   0.7946   0.8157
     0.8369   0.8776   0.9544   0.9642   1.0039   1.0275   1.1702   1.2047
     1.2574   1.4742   1.4756   1.8047   1.8450   1.8919   2.0780   2.4663
     2.5136   3.9528   4.0427   4.0817   4.0836   4.1022   4.1878   4.3181
     4.4339   4.4442   4.4569   4.4785

[...]

          k = 0.0380-0.0419 0.0000 ( 17876 PWs)   bands (ev):

[...]

          k =-0.0760-0.0000 0.0000 ( 17886 PWs)   bands (ev):

[...]

          k =-0.0760-0.0839 0.0000 ( 17948 PWs)   bands (ev):

   -55.1320 -55.1247 -55.1016 -55.1009 -55.0803 -55.0235 -54.9998 -54.9433
   -54.9369 -54.9287 -54.9275 -54.9264 -54.9117 -54.8366 -54.1139 -54.1138
   -31.5181 -31.5099 -31.4248 -31.4235 -31.4229 -31.4077 -31.3939 -31.3932
   -31.3688 -31.3633 -31.3616 -31.3552 -31.3443 -31.3139 -31.2840 -31.2773
   -31.2768 -31.2763 -31.2718 -31.2660 -31.2589 -31.2408 -31.2267 -31.2241
   -31.2210 -31.2208 -31.2203 -31.1991 -31.1765 -31.1679 -31.1621 -31.1571
   -31.1511 -31.1487 -31.1465 -31.1424 -31.1398 -31.1133 -31.1081 -31.1061
   -31.0874 -31.0576 -30.4379 -30.4377 -30.3521 -30.3519 -30.3127 -30.3126
   -19.1937 -18.5878 -15.4572 -15.2979 -15.2867 -15.1352 -15.1214 -15.1128
   -15.0876 -15.0120 -14.9925 -14.9289 -14.9171 -14.8732 -14.8478 -14.8337
   -14.8230 -14.7303 -14.7230 -14.7166 -14.7007 -14.6506 -14.6385 -14.6213
   -14.5981 -14.5940 -14.5570 -14.4928 -14.4895 -14.4535 -14.2214 -13.6667
   -12.6178 -12.6176  -9.9948  -6.8092  -6.4438  -6.3492  -4.0259  -3.8696
    -2.9335  -2.7226  -2.5399  -2.5092  -2.4730  -2.3688  -2.3284  -2.2873
    -2.1894  -2.1412  -2.1259  -2.1046  -2.0889  -2.0304  -2.0257  -2.0227
    -1.9878  -1.9794  -1.9647  -1.9403  -1.9158  -1.8836  -1.8690  -1.8596
    -1.8467  -1.8075  -1.7875  -1.7593  -1.7463  -1.7170  -1.7005  -1.6309
    -1.5265  -1.4971  -1.4439  -1.3499  -1.3332  -1.3276  -1.2422  -1.2086
    -1.1962  -1.1808  -1.1661  -1.1040  -0.9687  -0.8817  -0.8716  -0.8185
    -0.7532  -0.7196  -0.6773  -0.6488  -0.6206  -0.5681  -0.5177  -0.4943
    -0.4209  -0.3674  -0.3614  -0.3286  -0.1826  -0.1592  -0.1120  -0.1097
    -0.0947  -0.0858   0.0032   0.0200   0.0645   0.0839   0.1235   0.1421
     0.2135   0.2321   0.3516   0.4219   0.4845   0.5899   0.7320   0.7440
     0.8162   0.8750   0.9159   0.9811   1.0394   1.0738   1.1542   1.1641
     1.1817   1.2819   1.3310   1.3376   1.3549   2.2505   2.2521   2.3336
     2.3337   4.1157   4.1367   4.2270   4.2401   4.2928   4.3763   4.4650
     4.4916   4.5265   4.5304   4.6102

     the Fermi energy is     4.0008 ev

!    total energy              =   -2975.20152708 Ry
     estimated scf accuracy    <       0.00000004 Ry
     smearing contrib. (-TS)   =      -0.03820986 Ry
     internal energy E=F+TS    =   -2975.16331722 Ry

     The total energy is F=E-TS. E is the sum of the following terms:
     one-electron contribution =  -23648.74706856 Ry
     hartree contribution      =   11922.54477694 Ry
     xc contribution           =    -494.96636697 Ry
     ewald contribution        =    9246.00153483 Ry
     electric field correction =       0.00380653 Ry

     convergence has been achieved in  66 iterations

     Forces acting on atoms (cartesian axes, Ry/au):

     atom    1 type  1   force =     0.00014075   -0.00013125    0.09424264
     atom    2 type  1   force =    -0.00022910   -0.00026190   -0.17732813
     atom    3 type  2   force =     0.00001953   -0.00026215   -0.02168774
     atom    4 type  2   force =    -0.00004465   -0.00184464    0.05693635
     atom    5 type  2   force =    -0.01105598   -0.00171597    0.00686688
     atom    6 type  2   force =     0.01214256   -0.00091060    0.00493462
     atom    7 type  1   force =    -0.00121865    0.00154840   -0.01218934
     atom    8 type  1   force =     0.00072898    0.00497911    0.00604025
     atom    9 type  2   force =     0.00026578    0.00050623    0.00032355
     atom   10 type  2   force =    -0.00307362   -0.00067087   -0.00510704
     atom   11 type  2   force =     0.00082621    0.00021509   -0.00027660
     atom   12 type  2   force =    -0.00009805    0.00050954   -0.00002645
     atom   13 type  1   force =    -0.00020780    0.00009999    0.00010410
     atom   14 type  1   force =    -0.00001115    0.00012759   -0.00005364
     atom   15 type  2   force =    -0.00003384   -0.00015441   -0.00012685
     atom   16 type  2   force =     0.00040743    0.00035212   -0.00016639
     atom   17 type  2   force =    -0.00010022   -0.00015966    0.00016008
     atom   18 type  2   force =     0.00039494   -0.00030486   -0.00008116
     atom   19 type  1   force =     0.00030509    0.00032063    0.00008823
     atom   20 type  1   force =     0.00004981    0.00034965   -0.00047148
     atom   21 type  2   force =     0.00004764    0.00002415    0.10367999
     atom   22 type  2   force =     0.00053446   -0.00010184   -0.00019056
     atom   23 type  2   force =    -0.07084747   -0.00009614   -0.02720885
     atom   24 type  2   force =     0.07068147    0.00038465   -0.02724732
     atom   25 type  1   force =    -0.00006216   -0.00028135    0.09394287
     atom   26 type  1   force =    -0.00032474   -0.00035435   -0.17749925
     atom   27 type  2   force =     0.00000828   -0.00023242   -0.02072981
     atom   28 type  2   force =     0.00003567   -0.00148539    0.05596191
     atom   29 type  2   force =    -0.01133050   -0.00053021    0.00690117
     atom   30 type  2   force =     0.01228969   -0.00025359    0.00491926
     atom   31 type  1   force =    -0.00121292    0.00506974   -0.01496860
     atom   32 type  1   force =     0.00093257   -0.00603524    0.00588224
     atom   33 type  2   force =     0.00035480   -0.00013380    0.00010999
     atom   34 type  2   force =    -0.00261118   -0.00151574   -0.00581497
     atom   35 type  2   force =     0.00038075    0.00030229   -0.00034331
     atom   36 type  2   force =     0.00041641    0.00040709   -0.00010011
     atom   37 type  1   force =    -0.00015210   -0.00015917    0.00002831
     atom   38 type  1   force =     0.00006452    0.00032682    0.00047956
     atom   39 type  2   force =     0.00005943    0.00084843   -0.00139544
     atom   40 type  2   force =     0.00004122   -0.00008095   -0.00000908
     atom   41 type  2   force =     0.00063125    0.00049548    0.00036959
     atom   42 type  2   force =    -0.00051256    0.00033225   -0.00023841
     atom   43 type  1   force =     0.00040793   -0.00071812    0.00018250
     atom   44 type  1   force =     0.00021322    0.00000846   -0.00029487
     atom   45 type  2   force =     0.00001761   -0.00002544    0.10367698
     atom   46 type  2   force =    -0.07083770    0.00000014   -0.02722210
     atom   47 type  2   force =     0.07066761    0.00040649   -0.02722074
     atom   48 type  3   force =    -0.00180055   -0.00015927   -0.00651304
     atom   49 type  3   force =    -0.00213838    0.00168522    0.01434138
     atom   50 type  4   force =    -0.00151585    0.00037208   -0.00095994
     atom   51 type  5   force =    -0.00009647   -0.00018705    0.00012599
     atom   52 type  5   force =     0.00032566   -0.00053987   -0.00005127
     atom   53 type  5   force =    -0.00050602    0.00059961    0.00102560
     atom   54 type  5   force =     0.00602856   -0.00096964   -0.00601195
     atom   55 type  2   force =     0.00008893    0.00018940    0.00005443
     atom   56 type  5   force =     0.00072758   -0.00019289   -0.00052182
     atom   57 type  5   force =    -0.00021465    0.00000814    0.00067780

     Total force =     0.366183     Total SCF correction =     0.000609
  @ DRIVER MODE: Message from server: STATUS
  @ DRIVER MODE: Message from server: GETFORCE
  @ DRIVER MODE: Returning v,forces,stress,ensemble

     Writing output data file ./calc.save/
  @ DRIVER MODE: Message from server: EXIT
  @ DRIVE MODE: Exiting

     General routines

     Parallel routines

   This run was terminated on:  19:55:38  22Sep2021

   JOB DONE.