     Program PWSCF v.6.7GPU starts on 22Sep2021 at 19: 9:56

     R & G space division:  proc/nbgrp/npool/nimage =      10
     Reading input from /storage/home/hcoda1/3/ntian30/research/carbon/CxH_vib/H2O_calc/ads_slab/CH3OHO_a/out_0009/pw.inp
Warning: card &CELL ignored
Warning: card   CELL_DYNAMICS='IPI', ignored
Warning: card / ignored

     Current dimensions of program PWSCF are:
     Max number of different atomic species (ntypx) = 10
     Max number of k-points (npk) =  40000
     Max angular momentum in pseudopotentials (lmaxx) =  3
     Presently no symmetry can be used with electric field

     Message from routine cell_base_init:
     DEPRECATED: use true lattice parameter, not A to a.u. conversion factor

     IMPORTANT: XC functional enforced from input :
     Exchange-correlation= BEEF-VDW
                           (   1   4  43  14   2   0   0)
     Any further DFT definition will be discarded
     Please, verify this is what you really want

  @ DRIVER MODE: Connecting to
 qe_1139763_2937320.sched-torque.pace.gatech.edu2w8c7t2e_scratch
  using UNIX socket
  @ DRIVER MODE: Message from server: STATUS
  @ DRIVER MODE: Message from server: INIT
  @ DRIVER MODE: Receiving replica           0          -1
  @ DRIVER MODE: Receiving encoded integer          25
  @ DRIVER MODE:  SCF:  T  FORCE:  T  STRESS:  F  VC:  F  ENSEMBLE:  F
  @ DRIVER MODE:  SCF:  T  FORCE:  T  STRESS:  F  VC:  F  ENSEMBLE:  F

     Using Slab Decomposition

     bravais-lattice index     =            0
     lattice parameter (alat)  =       1.8897  a.u.
     unit-cell volume          =    6658.9804 (a.u.)^3
     number of atoms/cell      =           54
     number of atomic types    =            4
     number of electrons       =       398.00
     number of Kohn-Sham states=          209
     kinetic-energy cutoff     =      29.3995  Ry
     charge density cutoff     =     293.9946  Ry
     scf convergence threshold =      7.3E-08
     mixing beta               =       0.0500
     number of iterations used =            8  plain     mixing
     Exchange-correlation= BEEF-VDW
                           (   1   4  43  14   2   0   0)

     celldm(1)=   1.889726  celldm(2)=   0.000000  celldm(3)=   0.000000
     celldm(4)=   0.000000  celldm(5)=   0.000000  celldm(6)=   0.000000

     crystal axes: (cart. coord. in units of alat)
               a(1) = (   6.579727   0.000000   0.000000 )
               a(2) = (  -0.000775   5.961596   0.000000 )
               a(3) = (   0.000000   0.000000  25.155947 )

     reciprocal axes: (cart. coord. in units 2 pi/alat)
               b(1) = (  0.151982  0.000020  0.000000 )
               b(2) = (  0.000000  0.167740  0.000000 )
               b(3) = (  0.000000  0.000000  0.039752 )

     PseudoPot. # 1 for Ti read from file:
     /storage/coda1/p-amedford6/0/shared/rich_project_chbe-medford/medford-share/data/pseudos_module/espresso/nninc/pbe/van/Ti.UPF
     MD5 check sum: 8e4df49b7f0d34bbd5052bf3f5ea0213
     Pseudo is Ultrasoft, Zval = 12.0
     Generated by new atomic code, or converted to UPF format
     Using radial grid of  851 points,  6 beta functions with:
                l(1) =   0
                l(2) =   0
                l(3) =   1
                l(4) =   1
                l(5) =   2
                l(6) =   2
     Q(r) pseudized with  8 coefficients,  rinner =    1.000   1.000   1.000
                                                       1.000   1.000

     PseudoPot. # 2 for O  read from file:
     /storage/coda1/p-amedford6/0/shared/rich_project_chbe-medford/medford-share/data/pseudos_module/espresso/nninc/pbe/van/O.UPF
     MD5 check sum: 78c19812648e8988a0fe644b0f25305e
     Pseudo is Ultrasoft, Zval =  6.0
     Generated by new atomic code, or converted to UPF format
     Using radial grid of  737 points,  4 beta functions with:
                l(1) =   0
                l(2) =   0
                l(3) =   1
                l(4) =   1
     Q(r) pseudized with  8 coefficients,  rinner =    0.800   0.800   0.800

     PseudoPot. # 3 for C  read from file:
     /storage/coda1/p-amedford6/0/shared/rich_project_chbe-medford/medford-share/data/pseudos_module/espresso/nninc/pbe/van/C.UPF
     MD5 check sum: 1a69bf6b8db32088f5b2163dbdb77a27
     Pseudo is Ultrasoft, Zval =  4.0
     Generated by new atomic code, or converted to UPF format
     Using radial grid of  721 points,  4 beta functions with:
                l(1) =   0
                l(2) =   0
                l(3) =   1
                l(4) =   1
     Q(r) pseudized with  8 coefficients,  rinner =    0.800   0.800   0.800

     PseudoPot. # 4 for H  read from file:
     /storage/coda1/p-amedford6/0/shared/rich_project_chbe-medford/medford-share/data/pseudos_module/espresso/nninc/pbe/van/H.UPF
     MD5 check sum: b5ee9d7bfd3a09ee7748110bda690ff7
     Pseudo is Ultrasoft, Zval =  1.0
     Generated by new atomic code, or converted to UPF format
     Using radial grid of  615 points,  1 beta functions with:
                l(1) =   0
     Q(r) pseudized with  8 coefficients,  rinner =    0.800

     atomic species   valence    mass     pseudopotential
        Ti1           12.00    47.86700     Ti( 1.00)
        O1             6.00    15.99900     O ( 1.00)
        C1             4.00    12.01100     C ( 1.00)
        H1             1.00     1.00800     H ( 1.00)

     No symmetry found

   Cartesian axes

     site n.     atom                  positions (alat units)
         1           Ti1 tau(   1) = (   0.0004258   2.9801865   6.0000000  )
         2           Ti1 tau(   2) = (   3.2906075   1.4906267   6.0002472  )
         3           O1  tau(   3) = (   0.0006271   0.0005054   7.9858123  )
         4           O1  tau(   4) = (   3.2906025   0.0005020   7.3038282  )
         5           O1  tau(   5) = (   4.5942328   1.4918067   9.2879030  )
         6           O1  tau(   6) = (   1.9868534   1.4903216   9.2879459  )
         7           Ti1 tau(   7) = (   3.2957662   3.1068914   9.2181075  )
         8           Ti1 tau(   8) = (   0.0157633   1.6119101   9.3474628  )
         9           O1  tau(   9) = (   3.3075722   0.0245345  11.3221904  )
        10           O1  tau(  10) = (   0.0080709   0.0223756  10.5933645  )
        11           O1  tau(  11) = (   1.2996580   1.5014007  12.6293879  )
        12           O1  tau(  12) = (   5.3220639   1.4985920  12.6296061  )
        13           Ti1 tau(  13) = (   0.0338638   3.0995910  12.8036746  )
        14           Ti1 tau(  14) = (   3.3037623   1.5692239  12.4279754  )
        15           O1  tau(  15) = (   0.0261714   0.0103614  14.6808343  )
        16           O1  tau(  16) = (   3.3158872   5.9294016  13.9235834  )
        17           O1  tau(  17) = (   4.5845781   1.5190771  16.0542726  )
        18           O1  tau(  18) = (   2.0543804   1.5366111  16.0227792  )
        19           Ti1 tau(  19) = (   3.3281905   2.9581697  15.6655982  )
        20           Ti1 tau(  20) = (   0.0947853   1.4300879  15.9722461  )
        21           O1  tau(  21) = (   3.2904802   0.0005063   4.7018136  )
        22           O1  tau(  22) = (   0.0746355   0.0166105  17.2029963  )
        23           O1  tau(  23) = (   1.3043587   1.4918075   6.0039043  )
        24           O1  tau(  24) = (   5.2767064   1.4903225   6.0039473  )
        25           Ti1 tau(  25) = (   0.0000382   5.9609847   6.0000000  )
        26           Ti1 tau(  26) = (   3.2902200   4.4714249   6.0002472  )
        27           O1  tau(  27) = (   0.0002396   2.9813036   7.9858123  )
        28           O1  tau(  28) = (   3.2902150   2.9813002   7.3038282  )
        29           O1  tau(  29) = (   4.5938453   4.4726049   9.2879030  )
        30           O1  tau(  30) = (   1.9864658   4.4711199   9.2879459  )
        31           Ti1 tau(  31) = (   3.3049890   0.1224192   9.1815931  )
        32           Ti1 tau(  32) = (   0.0115838   4.5621182   9.3618056  )
        33           O1  tau(  33) = (   3.3056077   2.9569042  11.2892548  )
        34           O1  tau(  34) = (   0.0073068   3.0072357  10.5542745  )
        35           O1  tau(  35) = (   1.3032543   4.4799722  12.6367586  )
        36           O1  tau(  36) = (   5.3275811   4.4862388  12.6364370  )
        37           Ti1 tau(  37) = (   0.0060541   0.1153383  12.6179110  )
        38           Ti1 tau(  38) = (   3.3135592   4.6638430  12.6816895  )
        39           O1  tau(  39) = (   0.0323206   2.9919573  14.6814448  )
        40           O1  tau(  40) = (   3.3290587   2.9835885  13.8850256  )
        41           O1  tau(  41) = (   4.5809508   4.4372854  16.0867525  )
        42           O1  tau(  42) = (   2.0525355   4.4234120  16.0327814  )
        43           Ti1 tau(  43) = (   3.4083040   5.9395600  16.2643712  )
        44           Ti1 tau(  44) = (   0.1061243   4.5568233  16.0547075  )
        45           O1  tau(  45) = (   3.2900926   2.9813045   4.7018136  )
        46           O1  tau(  46) = (   1.3039711   4.4726057   6.0039043  )
        47           O1  tau(  47) = (   5.2763189   4.4711207   6.0039473  )
        48           C1  tau(  48) = (   6.0247352   2.9430639  18.6208924  )
        49           O1  tau(  49) = (   0.0129984   2.9730681  17.3098104  )
        50           H1  tau(  50) = (   4.9427965   2.8012130  18.5644550  )
        51           H1  tau(  51) = (   6.4567215   2.1053551  19.1708771  )
        52           H1  tau(  52) = (   6.2362830   3.8810018  19.1352789  )
        53           O1  tau(  53) = (   3.2195589   0.0134334  18.0862892  )
        54           H1  tau(  54) = (   2.3313237   0.1261415  18.4590370  )

     number of k points=    10  Fermi-Dirac smearing, width (Ry)=  0.0073
                       cart. coord. in units 2pi/alat
        k(    1) = (   0.0000000   0.0000000   0.0000000), wk =   0.1250000
        k(    2) = (   0.0000000   0.0419351   0.0000000), wk =   0.2500000
        k(    3) = (   0.0000000  -0.0838702   0.0000000), wk =   0.1250000
        k(    4) = (   0.0379955   0.0000049   0.0000000), wk =   0.2500000
        k(    5) = (   0.0379955   0.0419400   0.0000000), wk =   0.2500000
        k(    6) = (   0.0379955  -0.0838652   0.0000000), wk =   0.2500000
        k(    7) = (   0.0379955  -0.0419301   0.0000000), wk =   0.2500000
        k(    8) = (  -0.0759910  -0.0000099   0.0000000), wk =   0.1250000
        k(    9) = (  -0.0759910   0.0419252   0.0000000), wk =   0.2500000
        k(   10) = (  -0.0759910  -0.0838800   0.0000000), wk =   0.1250000

     Initial potential from superposition of free atoms

     starting charge  381.99917, renormalised to  398.00000

     negative rho (up, down):  1.723E-02 0.000E+00

     %%%%%%%%%%%%%%%%%%%%%%%%%%%%%%%%%%%%%%%%%%%%%%%%%%%%%%%%%%%%%%%%%%%%%%%%
     %                                                                      %
     % You are using vdW-DF, which was implemented by the Thonhauser group. %
     % Please cite the following two papers that made this development      %
     % possible and the two reviews that describe the various versions:     %
     %                                                                      %
     %   T. Thonhauser et al., PRL 115, 136402 (2015).                      %
     %   T. Thonhauser et al., PRB 76, 125112 (2007).                       %
     %   K. Berland et al., Rep. Prog. Phys. 78, 066501 (2015).             %
     %   D.C. Langreth et al., J. Phys.: Condens. Matter 21, 084203 (2009). %
     %                                                                      %
     %                                                                      %
     % If you are calculating the stress with vdW-DF, please also cite:     %
     %                                                                      %
     %   R. Sabatini et al., J. Phys.: Condens. Matter 24, 424209 (2012).   %
     %                                                                      %
     %%%%%%%%%%%%%%%%%%%%%%%%%%%%%%%%%%%%%%%%%%%%%%%%%%%%%%%%%%%%%%%%%%%%%%%%

     Adding external electric field

     Computed dipole along edir(3) :
        Dipole               -8.3452 Ry au,        -21.2113 Debye
        Dipole field         -0.0157 Ry au,

        Potential amp.        1.4599 Ry
        Total length         46.3494 bohr

     Starting wfcs are  300 atomic wfcs
  @ DRIVER MODE: Message from server: STATUS
  @ DRIVER MODE: Message from server: POSDATA
  @ DRIVER MODE: Reading and sharing cell
  @ DRIVER MODE: Reading and sharing positions
  @ DRIVER MODE: Received positions

     Self-consistent Calculation

     iteration #  1     ecut=    29.40 Ry     beta= 0.05
     Davidson diagonalization with overlap
     c_bands:  1 eigenvalues not converged
     c_bands:  1 eigenvalues not converged
     c_bands:  1 eigenvalues not converged
     c_bands:  1 eigenvalues not converged
     c_bands:  1 eigenvalues not converged
     ethr =  1.00E-05,  avg # of iterations = 18.4

[...]

     total energy              =   -2613.39511527 Ry
     estimated scf accuracy    <    3886.99726897 Ry

     iteration #  2     ecut=    29.40 Ry     beta= 0.05
     Davidson diagonalization with overlap
     ethr =  1.00E-02,  avg # of iterations = 22.7

[...]

     iteration # 43     ecut=    29.40 Ry     beta= 0.05
     Davidson diagonalization with overlap
     c_bands:  1 eigenvalues not converged
     c_bands:  1 eigenvalues not converged
     c_bands:  2 eigenvalues not converged
     c_bands:  1 eigenvalues not converged
     c_bands:  2 eigenvalues not converged
     c_bands:  2 eigenvalues not converged
     c_bands:  1 eigenvalues not converged
     ethr =  4.83E-07,  avg # of iterations = 17.0

[...]

     total energy              =   -2965.10860074 Ry
     estimated scf accuracy    <       0.00000023 Ry

     iteration # 65     ecut=    29.40 Ry     beta= 0.05
     Davidson diagonalization with overlap
     ethr =  3.91E-11,  avg # of iterations =  5.0

     negative rho (up, down):  1.732E-02 0.000E+00

     Adding external electric field

     Computed dipole along edir(3) :
        Dipole                0.5363 Ry au,          1.3632 Debye
        Dipole field          0.0010 Ry au,

        Potential amp.       -0.0938 Ry
        Total length         46.3494 bohr

     End of self-consistent calculation

          k = 0.0000 0.0000 0.0000 ( 18029 PWs)   bands (ev):

   -56.4420 -56.3952 -55.8704 -55.8349 -55.8286 -55.8169 -55.7788 -55.7361
   -55.7116 -55.6982 -55.6593 -55.6171 -55.6135 -55.4668 -55.0456 -55.0116
   -32.8544 -32.7070 -32.6575 -32.6214 -32.5270 -32.4809 -32.3619 -32.3155
   -32.3094 -32.1947 -32.1569 -32.1341 -32.1321 -32.1117 -32.1053 -32.0692
   -32.0659 -32.0519 -32.0345 -32.0291 -32.0127 -31.9845 -31.9713 -31.9515
   -31.9435 -31.9313 -31.9287 -31.9189 -31.9162 -31.9050 -31.9004 -31.8879
   -31.8630 -31.8617 -31.8562 -31.8226 -31.8113 -31.8103 -31.7812 -31.7226
   -31.6921 -31.6731 -31.4397 -31.3864 -31.3621 -31.2565 -31.1716 -31.0609
   -17.6027 -16.6293 -16.5867 -16.4417 -16.2039 -16.0575 -15.9760 -15.7564
   -15.7538 -15.6345 -15.6237 -15.5886 -15.4507 -15.4383 -15.4312 -15.3764
   -15.3602 -15.3492 -15.3432 -15.3363 -15.3231 -15.2748 -15.2619 -15.2099
   -15.1515 -15.0849 -15.0556 -15.0119 -14.9931 -14.9569 -14.7265 -13.5476
   -13.4393  -9.3492  -4.3304  -4.2473  -4.1218  -4.0345  -3.8816  -3.7797
    -3.7513  -3.6670  -3.5780  -3.4685  -3.2697  -3.1076  -3.0510  -3.0144
    -2.9812  -2.9276  -2.8730  -2.8143  -2.7691  -2.7401  -2.7114  -2.6439
    -2.6280  -2.6170  -2.5887  -2.5802  -2.5444  -2.5120  -2.5013  -2.3686
    -2.3395  -2.3022  -2.2963  -2.2374  -2.2176  -2.1922  -2.1876  -2.1363
    -2.0435  -1.9626  -1.9269  -1.8869  -1.6979  -1.6423  -1.5727  -1.5070
    -1.4283  -1.3814  -1.3616  -1.3391  -1.2687  -1.2403  -1.1292  -1.1065
    -1.0610  -0.9972  -0.9938  -0.9544  -0.8959  -0.8704  -0.8063  -0.7738
    -0.7477  -0.6049  -0.5791  -0.5510  -0.5088  -0.5006  -0.4007  -0.3386
    -0.2895  -0.2690  -0.2214  -0.1877  -0.1494  -0.1017  -0.0835  -0.0577
     0.0310   0.0573   0.0817   0.1266   0.1613   0.1839   0.2030   0.2967
     0.3446   0.3621   0.3784   0.5344   0.5726   0.5893   0.7182   0.7310
     0.9028   0.9712   1.0088   1.1881   1.2344   1.5211   1.5633   2.8595
     3.0178   3.2890   3.4359   3.5046   3.5433   3.5970   3.6143   3.7546
     3.7923

[...]

          k = 0.0380-0.0419 0.0000 ( 17876 PWs)   bands (ev):

[...]

          k =-0.0760-0.0000 0.0000 ( 17886 PWs)   bands (ev):

[...]

          k =-0.0760-0.0839 0.0000 ( 17948 PWs)   bands (ev):

   -56.4349 -56.4022 -55.8685 -55.8282 -55.8276 -55.8129 -55.7848 -55.7399
   -55.7134 -55.6996 -55.6508 -55.6256 -55.6116 -55.4686 -55.0287 -55.0283
   -32.7024 -32.6852 -32.6615 -32.6574 -32.5867 -32.5588 -32.2495 -32.1862
   -32.1592 -32.1278 -32.1047 -32.1015 -32.0907 -32.0747 -32.0685 -32.0541
   -32.0494 -32.0413 -32.0345 -32.0282 -32.0271 -32.0199 -32.0020 -31.9982
   -31.9948 -31.9821 -31.9683 -31.9553 -31.9450 -31.9390 -31.9185 -31.9048
   -31.9017 -31.8885 -31.8751 -31.8607 -31.8602 -31.8263 -31.8157 -31.7963
   -31.7248 -31.6766 -31.3752 -31.3750 -31.2552 -31.2536 -31.2138 -31.2129
   -17.5650 -16.6014 -15.9840 -15.9042 -15.9001 -15.8886 -15.8620 -15.8201
   -15.7427 -15.7359 -15.6649 -15.5981 -15.5648 -15.5204 -15.4967 -15.4853
   -15.4484 -15.4439 -15.3861 -15.3424 -15.3261 -15.3145 -15.2950 -15.2518
   -15.2459 -15.2430 -15.2194 -15.2048 -15.1536 -15.0536 -14.8670 -13.5437
   -13.5425  -9.3494  -4.2587  -4.1707  -3.9701  -3.7426  -3.2162  -3.1400
    -3.0655  -3.0576  -2.9828  -2.9231  -2.9081  -2.8641  -2.8568  -2.8246
    -2.7534  -2.7428  -2.7298  -2.7195  -2.7121  -2.7035  -2.6809  -2.6355
    -2.6223  -2.6154  -2.5998  -2.5905  -2.5794  -2.5753  -2.5482  -2.5098
    -2.4394  -2.3793  -2.2553  -2.2477  -2.2127  -2.1967  -2.1559  -2.1436
    -2.0897  -1.9976  -1.9853  -1.9826  -1.8938  -1.8375  -1.6246  -1.6096
    -1.5922  -1.5255  -1.4533  -1.3868  -1.3631  -1.3400  -1.3071  -1.2844
    -1.2362  -1.1862  -1.1516  -1.1150  -1.0989  -1.0608  -1.0078  -0.9593
    -0.9069  -0.9028  -0.8598  -0.8125  -0.7798  -0.7016  -0.6958  -0.6725
    -0.6491  -0.6093  -0.5243  -0.4726  -0.4300  -0.3353  -0.2954  -0.2591
    -0.1206  -0.0612  -0.0242   0.0513   0.0954   0.1959   0.2205   0.2964
     0.3096   0.3392   0.3631   0.4383   0.5054   0.5615   0.6036   0.6473
     0.6588   0.7083   0.7713   1.3652   1.3656   1.3729   1.3807   3.4049
     3.4297   3.4375   3.4673   3.6942   3.7113   3.7836   3.8128   3.8300
     3.8815

     the Fermi energy is     2.2693 ev

!    total energy              =   -2965.10863566 Ry
     estimated scf accuracy    <       0.00000003 Ry
     smearing contrib. (-TS)   =      -0.00015940 Ry
     internal energy E=F+TS    =   -2965.10847626 Ry

     The total energy is F=E-TS. E is the sum of the following terms:
     one-electron contribution =  -24222.98672338 Ry
     hartree contribution      =   12200.79777051 Ry
     xc contribution           =    -490.02866615 Ry
     ewald contribution        =    9547.10859991 Ry
     electric field correction =       0.00054285 Ry

     convergence has been achieved in  65 iterations

     Forces acting on atoms (cartesian axes, Ry/au):

     atom    1 type  1   force =    -0.00001925    0.00003787    0.13241406
     atom    2 type  1   force =    -0.00019532    0.00778784   -0.15738145
     atom    3 type  2   force =     0.00008468   -0.00480233   -0.05217947
     atom    4 type  2   force =     0.00035896    0.00109220    0.04044557
     atom    5 type  2   force =    -0.00611000   -0.00278759   -0.00018443
     atom    6 type  2   force =     0.00839863   -0.00338690    0.00079489
     atom    7 type  1   force =    -0.00003066   -0.00015372   -0.00003340
     atom    8 type  1   force =     0.00020935   -0.00056847    0.00037320
     atom    9 type  2   force =    -0.00004477    0.00021308   -0.00004767
     atom   10 type  2   force =    -0.00014468   -0.00038156   -0.00015722
     atom   11 type  2   force =     0.00044157    0.00026278   -0.00017238
     atom   12 type  2   force =    -0.00027091    0.00015549   -0.00002886
     atom   13 type  1   force =    -0.00068346    0.00050643   -0.00030921
     atom   14 type  1   force =     0.00006512   -0.00033333   -0.00023809
     atom   15 type  2   force =    -0.00021507   -0.00118259   -0.00071913
     atom   16 type  2   force =    -0.00033164    0.00007160    0.00007148
     atom   17 type  2   force =    -0.00038174   -0.00020056   -0.00017272
     atom   18 type  2   force =    -0.00015012    0.00005135   -0.00039126
     atom   19 type  1   force =     0.00004932   -0.00095481   -0.00015792
     atom   20 type  1   force =     0.00002203    0.00017867    0.00028860
     atom   21 type  2   force =    -0.00002595    0.00001951    0.09911420
     atom   22 type  2   force =     0.00001898   -0.00111043    0.00013776
     atom   23 type  2   force =    -0.08090068    0.00049058   -0.03406735
     atom   24 type  2   force =     0.08069971    0.00095632   -0.03412872
     atom   25 type  1   force =    -0.00001505   -0.00027311    0.14104448
     atom   26 type  1   force =    -0.00012788   -0.00647587   -0.15702470
     atom   27 type  2   force =     0.00016291    0.00109768   -0.05218059
     atom   28 type  2   force =     0.00018837    0.00033660    0.04177744
     atom   29 type  2   force =    -0.00752040    0.00512762    0.00202509
     atom   30 type  2   force =     0.00859335    0.00383545    0.00272912
     atom   31 type  1   force =    -0.00002796    0.00016536    0.00000365
     atom   32 type  1   force =     0.00030585   -0.00006112   -0.00053330
     atom   33 type  2   force =    -0.00005886    0.00038827    0.00022299
     atom   34 type  2   force =    -0.00011826    0.00019647    0.00038986
     atom   35 type  2   force =    -0.00049251   -0.00034671   -0.00006458
     atom   36 type  2   force =     0.00047554   -0.00044368    0.00016100
     atom   37 type  1   force =    -0.00055987   -0.00032965   -0.00013085
     atom   38 type  1   force =     0.00002006   -0.00001971   -0.00046159
     atom   39 type  2   force =    -0.00000835   -0.00001922   -0.00022026
     atom   40 type  2   force =    -0.00013923   -0.00012815   -0.00033718
     atom   41 type  2   force =     0.00040818   -0.00006802   -0.00019976
     atom   42 type  2   force =    -0.00057454    0.00021219    0.00004617
     atom   43 type  1   force =    -0.00020028    0.00091381   -0.00012517
     atom   44 type  1   force =    -0.00009106   -0.00045960    0.00032842
     atom   45 type  2   force =    -0.00002866    0.00012373    0.09866885
     atom   46 type  2   force =    -0.08086036   -0.00164563   -0.03406622
     atom   47 type  2   force =     0.08066784   -0.00117486   -0.03413485
     atom   48 type  3   force =    -0.00019904   -0.00208237   -0.00004491
     atom   49 type  2   force =     0.00020047    0.00485019   -0.00121294
     atom   50 type  4   force =    -0.00048091    0.00027158    0.00012393
     atom   51 type  4   force =    -0.00035059    0.00009770    0.00104594
     atom   52 type  4   force =     0.00041451    0.00065637   -0.00068312
     atom   53 type  2   force =     0.00034781   -0.00031723   -0.00129345
     atom   54 type  4   force =    -0.00077518   -0.00038951    0.00087606

     Total force =     0.382732     Total SCF correction =     0.000569
  @ DRIVER MODE: Message from server: STATUS
  @ DRIVER MODE: Message from server: GETFORCE
  @ DRIVER MODE: Returning v,forces,stress,ensemble

     Writing output data file ./calc.save/
  @ DRIVER MODE: Message from server: EXIT
  @ DRIVE MODE: Exiting

     General routines

     Parallel routines

   This run was terminated on:  19:27:48  22Sep2021

   JOB DONE.