     Program PWSCF v.6.7GPU starts on 15Sep2021 at 22:29:52

     R & G space division:  proc/nbgrp/npool/nimage =      10
     Reading input from /storage/home/hcoda1/3/ntian30/research/carbon/CxH_vib/H2O_calc/ads_slab/CHN2H2O_c/out_0022/pw.inp
Warning: card &CELL ignored
Warning: card   CELL_DYNAMICS='IPI', ignored
Warning: card / ignored

     Current dimensions of program PWSCF are:
     Max number of different atomic species (ntypx) = 10
     Max number of k-points (npk) =  40000
     Max angular momentum in pseudopotentials (lmaxx) =  3
     Presently no symmetry can be used with electric field

     Message from routine cell_base_init:
     DEPRECATED: use true lattice parameter, not A to a.u. conversion factor

     IMPORTANT: XC functional enforced from input :
     Exchange-correlation= BEEF-VDW
                           (   1   4  43  14   2   0   0)
     Any further DFT definition will be discarded
     Please, verify this is what you really want

  @ DRIVER MODE: Connecting to
 qe_1139763_2852625.sched-torque.pace.gatech.edu96u8v2i__scratch
  using UNIX socket
  @ DRIVER MODE: Message from server: STATUS
  @ DRIVER MODE: Message from server: INIT
  @ DRIVER MODE: Receiving replica           0          -1
  @ DRIVER MODE: Receiving encoded integer          25
  @ DRIVER MODE:  SCF:  T  FORCE:  T  STRESS:  F  VC:  F  ENSEMBLE:  F
  @ DRIVER MODE:  SCF:  T  FORCE:  T  STRESS:  F  VC:  F  ENSEMBLE:  F

     Using Slab Decomposition

     bravais-lattice index     =            0
     lattice parameter (alat)  =       1.8897  a.u.
     unit-cell volume          =    6658.9804 (a.u.)^3
     number of atoms/cell      =           54
     number of atomic types    =            5
     number of electrons       =       401.00
     number of Kohn-Sham states=          210
     kinetic-energy cutoff     =      29.3995  Ry
     charge density cutoff     =     293.9946  Ry
     scf convergence threshold =      7.3E-08
     mixing beta               =       0.0500
     number of iterations used =            8  plain     mixing
     Exchange-correlation= BEEF-VDW
                           (   1   4  43  14   2   0   0)

     celldm(1)=   1.889726  celldm(2)=   0.000000  celldm(3)=   0.000000
     celldm(4)=   0.000000  celldm(5)=   0.000000  celldm(6)=   0.000000

     crystal axes: (cart. coord. in units of alat)
               a(1) = (   6.579727   0.000000   0.000000 )
               a(2) = (  -0.000775   5.961596   0.000000 )
               a(3) = (   0.000000   0.000000  25.155947 )

     reciprocal axes: (cart. coord. in units 2 pi/alat)
               b(1) = (  0.151982  0.000020  0.000000 )
               b(2) = (  0.000000  0.167740  0.000000 )
               b(3) = (  0.000000  0.000000  0.039752 )

     PseudoPot. # 1 for Ti read from file:
     /storage/coda1/p-amedford6/0/shared/rich_project_chbe-medford/medford-share/data/pseudos_module/espresso/nninc/pbe/van/Ti.UPF
     MD5 check sum: 8e4df49b7f0d34bbd5052bf3f5ea0213
     Pseudo is Ultrasoft, Zval = 12.0
     Generated by new atomic code, or converted to UPF format
     Using radial grid of  851 points,  6 beta functions with:
                l(1) =   0
                l(2) =   0
                l(3) =   1
                l(4) =   1
                l(5) =   2
                l(6) =   2
     Q(r) pseudized with  8 coefficients,  rinner =    1.000   1.000   1.000
                                                       1.000   1.000

     PseudoPot. # 2 for O  read from file:
     /storage/coda1/p-amedford6/0/shared/rich_project_chbe-medford/medford-share/data/pseudos_module/espresso/nninc/pbe/van/O.UPF
     MD5 check sum: 78c19812648e8988a0fe644b0f25305e
     Pseudo is Ultrasoft, Zval =  6.0
     Generated by new atomic code, or converted to UPF format
     Using radial grid of  737 points,  4 beta functions with:
                l(1) =   0
                l(2) =   0
                l(3) =   1
                l(4) =   1
     Q(r) pseudized with  8 coefficients,  rinner =    0.800   0.800   0.800

     PseudoPot. # 3 for C  read from file:
     /storage/coda1/p-amedford6/0/shared/rich_project_chbe-medford/medford-share/data/pseudos_module/espresso/nninc/pbe/van/C.UPF
     MD5 check sum: 1a69bf6b8db32088f5b2163dbdb77a27
     Pseudo is Ultrasoft, Zval =  4.0
     Generated by new atomic code, or converted to UPF format
     Using radial grid of  721 points,  4 beta functions with:
                l(1) =   0
                l(2) =   0
                l(3) =   1
                l(4) =   1
     Q(r) pseudized with  8 coefficients,  rinner =    0.800   0.800   0.800

     PseudoPot. # 4 for H  read from file:
     /storage/coda1/p-amedford6/0/shared/rich_project_chbe-medford/medford-share/data/pseudos_module/espresso/nninc/pbe/van/H.UPF
     MD5 check sum: b5ee9d7bfd3a09ee7748110bda690ff7
     Pseudo is Ultrasoft, Zval =  1.0
     Generated by new atomic code, or converted to UPF format
     Using radial grid of  615 points,  1 beta functions with:
                l(1) =   0
     Q(r) pseudized with  8 coefficients,  rinner =    0.800

     PseudoPot. # 5 for N  read from file:
     /storage/coda1/p-amedford6/0/shared/rich_project_chbe-medford/medford-share/data/pseudos_module/espresso/nninc/pbe/van/N.UPF
     MD5 check sum: 90d10febe142ad51ac9d5be1deb811c4
     Pseudo is Ultrasoft, Zval =  5.0
     Generated by new atomic code, or converted to UPF format
     Using radial grid of  729 points,  4 beta functions with:
                l(1) =   0
                l(2) =   0
                l(3) =   1
                l(4) =   1
     Q(r) pseudized with  8 coefficients,  rinner =    0.800   0.800   0.800

     atomic species   valence    mass     pseudopotential
        Ti1           12.00    47.86700     Ti( 1.00)
        O1             6.00    15.99900     O ( 1.00)
        C1             4.00    12.01100     C ( 1.00)
        H1             1.00     1.00800     H ( 1.00)
        N1             5.00    14.00700     N ( 1.00)

     No symmetry found

   Cartesian axes

     site n.     atom                  positions (alat units)
         1           Ti1 tau(   1) = (   0.0004258   2.9801865   6.0000000  )
         2           Ti1 tau(   2) = (   3.2906075   1.4906267   6.0002472  )
         3           O1  tau(   3) = (   0.0006271   0.0005054   7.9858123  )
         4           O1  tau(   4) = (   3.2906025   0.0005020   7.3038282  )
         5           O1  tau(   5) = (   4.5942328   1.4918067   9.2879030  )
         6           O1  tau(   6) = (   1.9868534   1.4903216   9.2879459  )
         7           Ti1 tau(   7) = (   3.2907910   2.8959150   9.1758416  )
         8           Ti1 tau(   8) = (   0.0015273   1.4827037   9.2680791  )
         9           O1  tau(   9) = (   3.2982821   5.9591942  11.3418950  )
        10           O1  tau(  10) = (   0.0116148   5.9584955  10.6183126  )
        11           O1  tau(  11) = (   1.2990089   1.4837789  12.6285733  )
        12           O1  tau(  12) = (   5.2904647   1.4888503  12.6163117  )
        13           Ti1 tau(  13) = (   0.0603338   2.9457994  12.6026339  )
        14           Ti1 tau(  14) = (   3.3706290   1.4705258  12.5092779  )
        15           O1  tau(  15) = (   6.5788109   0.0160518  14.6499261  )
        16           O1  tau(  16) = (   3.3158691   0.0087694  13.9605792  )
        17           O1  tau(  17) = (   4.5613999   1.5213109  16.0555727  )
        18           O1  tau(  18) = (   2.0390476   1.5587733  16.0026688  )
        19           Ti1 tau(  19) = (   3.2958454   3.0042652  15.6812246  )
        20           Ti1 tau(  20) = (   0.0477533   1.5223793  15.8108347  )
        21           O1  tau(  21) = (   3.2904802   0.0005063   4.7018136  )
        22           O1  tau(  22) = (   0.0778492   0.0082781  17.2116806  )
        23           O1  tau(  23) = (   1.3043587   1.4918075   6.0039043  )
        24           O1  tau(  24) = (   5.2767064   1.4903225   6.0039473  )
        25           Ti1 tau(  25) = (   0.0000382   5.9609847   6.0000000  )
        26           Ti1 tau(  26) = (   3.2902200   4.4714249   6.0002472  )
        27           O1  tau(  27) = (   0.0002396   2.9813036   7.9858123  )
        28           O1  tau(  28) = (   3.2902150   2.9813002   7.3038282  )
        29           O1  tau(  29) = (   4.5938453   4.4726049   9.2879030  )
        30           O1  tau(  30) = (   1.9864658   4.4711199   9.2879459  )
        31           Ti1 tau(  31) = (   3.2891106   5.8743827   9.1763621  )
        32           Ti1 tau(  32) = (   0.0006254   4.4649316   9.2693709  )
        33           O1  tau(  33) = (   3.3003553   2.9806904  11.3444413  )
        34           O1  tau(  34) = (   0.0092240   2.9805883  10.6323155  )
        35           O1  tau(  35) = (   1.2971990   4.4717445  12.6361083  )
        36           O1  tau(  36) = (   5.2938362   4.4783115  12.6231241  )
        37           Ti1 tau(  37) = (   0.0537182   5.9220384  12.5388396  )
        38           Ti1 tau(  38) = (   3.3696634   4.4695314  12.5002334  )
        39           O1  tau(  39) = (   0.0023790   2.9538485  14.6690360  )
        40           O1  tau(  40) = (   3.3142834   2.9899978  13.8932647  )
        41           O1  tau(  41) = (   4.5682027   4.4688565  16.0600133  )
        42           O1  tau(  42) = (   2.0418658   4.4415600  16.0251682  )
        43           Ti1 tau(  43) = (   3.3511655   0.0130708  15.8150828  )
        44           Ti1 tau(  44) = (   0.0311020   4.6533438  16.0685068  )
        45           O1  tau(  45) = (   3.2900926   2.9813045   4.7018136  )
        46           O1  tau(  46) = (   1.3039711   4.4726057   6.0039043  )
        47           O1  tau(  47) = (   5.2763189   4.4711207   6.0039473  )
        48           C1  tau(  48) = (   0.0453995   2.9433715  17.6444507  )
        49           H1  tau(  49) = (   0.9770157   2.9292850  18.2072415  )
        50           N1  tau(  50) = (   5.5932985   2.7872967  18.4085793  )
        51           N1  tau(  51) = (   4.6087457   2.6399947  18.9712495  )
        52           O1  tau(  52) = (   3.0556172   5.9408547  18.1262901  )
        53           H1  tau(  53) = (   3.4776725   0.7204629  18.5958315  )
        54           H1  tau(  54) = (   2.0935776   0.0631959  18.2589326  )

     number of k points=    10  Fermi-Dirac smearing, width (Ry)=  0.0073
                       cart. coord. in units 2pi/alat
        k(    1) = (   0.0000000   0.0000000   0.0000000), wk =   0.1250000
        k(    2) = (   0.0000000   0.0419351   0.0000000), wk =   0.2500000
        k(    3) = (   0.0000000  -0.0838702   0.0000000), wk =   0.1250000
        k(    4) = (   0.0379955   0.0000049   0.0000000), wk =   0.2500000
        k(    5) = (   0.0379955   0.0419400   0.0000000), wk =   0.2500000
        k(    6) = (   0.0379955  -0.0838652   0.0000000), wk =   0.2500000
        k(    7) = (   0.0379955  -0.0419301   0.0000000), wk =   0.2500000
        k(    8) = (  -0.0759910  -0.0000099   0.0000000), wk =   0.1250000
        k(    9) = (  -0.0759910   0.0419252   0.0000000), wk =   0.2500000
        k(   10) = (  -0.0759910  -0.0838800   0.0000000), wk =   0.1250000

     Initial potential from superposition of free atoms

     starting charge  384.99916, renormalised to  401.00000

     negative rho (up, down):  1.776E-02 0.000E+00

     %%%%%%%%%%%%%%%%%%%%%%%%%%%%%%%%%%%%%%%%%%%%%%%%%%%%%%%%%%%%%%%%%%%%%%%%
     %                                                                      %
     % You are using vdW-DF, which was implemented by the Thonhauser group. %
     % Please cite the following two papers that made this development      %
     % possible and the two reviews that describe the various versions:     %
     %                                                                      %
     %   T. Thonhauser et al., PRL 115, 136402 (2015).                      %
     %   T. Thonhauser et al., PRB 76, 125112 (2007).                       %
     %   K. Berland et al., Rep. Prog. Phys. 78, 066501 (2015).             %
     %   D.C. Langreth et al., J. Phys.: Condens. Matter 21, 084203 (2009). %
     %                                                                      %
     %                                                                      %
     % If you are calculating the stress with vdW-DF, please also cite:     %
     %                                                                      %
     %   R. Sabatini et al., J. Phys.: Condens. Matter 24, 424209 (2012).   %
     %                                                                      %
     %%%%%%%%%%%%%%%%%%%%%%%%%%%%%%%%%%%%%%%%%%%%%%%%%%%%%%%%%%%%%%%%%%%%%%%%

     Adding external electric field

     Computed dipole along edir(3) :
        Dipole              -11.5984 Ry au,        -29.4801 Debye
        Dipole field         -0.0219 Ry au,

        Potential amp.        2.0290 Ry
        Total length         46.3494 bohr

     Starting wfcs are  303 atomic wfcs
  @ DRIVER MODE: Message from server: STATUS
  @ DRIVER MODE: Message from server: POSDATA
  @ DRIVER MODE: Reading and sharing cell
  @ DRIVER MODE: Reading and sharing positions
  @ DRIVER MODE: Received positions

     Self-consistent Calculation

     iteration #  1     ecut=    29.40 Ry     beta= 0.05
     Davidson diagonalization with overlap
     c_bands:  3 eigenvalues not converged
     c_bands:  1 eigenvalues not converged
     c_bands:  3 eigenvalues not converged
     c_bands:  3 eigenvalues not converged
     c_bands:  5 eigenvalues not converged
     c_bands:  2 eigenvalues not converged
     c_bands:  3 eigenvalues not converged
     c_bands:  1 eigenvalues not converged
     c_bands:  5 eigenvalues not converged
     ethr =  1.00E-05,  avg # of iterations = 23.5

[...]

     total energy              =   -2415.41404278 Ry
     estimated scf accuracy    <    6267.17177030 Ry

     iteration #  2     ecut=    29.40 Ry     beta= 0.05
     Davidson diagonalization with overlap
     ethr =  1.00E-02,  avg # of iterations = 30.9

[...]

     iteration # 54     ecut=    29.40 Ry     beta= 0.05
     Davidson diagonalization with overlap
     c_bands:  1 eigenvalues not converged
     ethr =  1.43E-07,  avg # of iterations = 15.8

[...]

     total energy              =   -2971.50213942 Ry
     estimated scf accuracy    <       0.00000008 Ry

     iteration # 72     ecut=    29.40 Ry     beta= 0.05
     Davidson diagonalization with overlap
     ethr =  1.98E-11,  avg # of iterations =  5.0

     negative rho (up, down):  1.756E-02 0.000E+00

     Adding external electric field

     Computed dipole along edir(3) :
        Dipole                0.5809 Ry au,          1.4766 Debye
        Dipole field          0.0011 Ry au,

        Potential amp.       -0.1016 Ry
        Total length         46.3494 bohr

     End of self-consistent calculation

          k = 0.0000 0.0000 0.0000 ( 18029 PWs)   bands (ev):

   -55.8800 -55.8460 -55.8456 -55.8403 -55.8090 -55.7230 -55.6940 -55.6856
   -55.6602 -55.6600 -55.6506 -55.6264 -55.4110 -55.2202 -54.8617 -54.8276
   -32.3882 -32.3636 -32.2459 -32.2182 -32.1928 -32.1724 -32.1501 -32.1436
   -32.1237 -32.0713 -32.0665 -32.0641 -32.0323 -32.0260 -32.0209 -31.9949
   -31.9854 -31.9776 -31.9706 -31.9427 -31.9372 -31.9195 -31.8978 -31.8876
   -31.8848 -31.8729 -31.8723 -31.8586 -31.8515 -31.8472 -31.8360 -31.8329
   -31.8285 -31.8239 -31.8134 -31.8015 -31.7722 -31.6597 -31.6256 -31.4803
   -31.4646 -31.4329 -31.2689 -31.1802 -31.1578 -31.0856 -30.9991 -30.8881
   -20.5247 -18.7877 -16.5827 -16.3525 -16.1285 -16.0376 -15.9925 -15.7824
   -15.6733 -15.6176 -15.4939 -15.4302 -15.4220 -15.4145 -15.3935 -15.3834
   -15.3268 -15.3168 -15.3042 -15.2985 -15.2707 -15.2337 -15.2180 -15.2167
   -15.1449 -15.0420 -15.0210 -14.9978 -14.9957 -14.9376 -14.4966 -13.6119
   -13.3639 -13.2474  -6.6262  -5.8270  -4.7131  -4.5020  -3.9564  -3.8224
    -3.7871  -3.7507  -3.7151  -3.5198  -3.4842  -3.3763  -3.2321  -3.1296
    -3.0603  -3.0258  -2.9712  -2.8947  -2.8257  -2.7635  -2.7281  -2.6858
    -2.6765  -2.6408  -2.6342  -2.6163  -2.5964  -2.4962  -2.4611  -2.4125
    -2.3477  -2.2457  -2.2255  -2.1939  -2.1885  -2.1532  -2.1456  -2.1240
    -2.1069  -2.0973  -2.0221  -1.9258  -1.8763  -1.7837  -1.6718  -1.5340
    -1.5311  -1.4870  -1.3591  -1.3457  -1.3156  -1.2891  -1.2737  -1.2321
    -1.1421  -1.0857  -1.0396  -0.9765  -0.9030  -0.8140  -0.7717  -0.7202
    -0.6560  -0.6393  -0.6314  -0.6126  -0.5749  -0.4682  -0.4455  -0.3687
    -0.3651  -0.2795  -0.2482  -0.1878  -0.1571  -0.1191  -0.0803  -0.0066
     0.0135   0.0382   0.0565   0.0839   0.0924   0.1341   0.1670   0.1715
     0.3670   0.3928   0.4519   0.4616   0.5218   0.6427   0.6610   0.7751
     0.8922   1.0876   1.1607   1.2541   1.3525   1.7321   1.7780   1.7861
     3.2433   3.3412   3.3796   3.3888   3.4761   3.4877   3.7044   3.7505
     3.7582   3.8127

[...]

          k = 0.0380-0.0419 0.0000 ( 17876 PWs)   bands (ev):

[...]

          k =-0.0760-0.0000 0.0000 ( 17886 PWs)   bands (ev):

[...]

          k =-0.0760-0.0839 0.0000 ( 17948 PWs)   bands (ev):

   -55.8634 -55.8625 -55.8391 -55.8301 -55.8237 -55.7117 -55.6969 -55.6774
   -55.6761 -55.6520 -55.6452 -55.6417 -55.4096 -55.2215 -54.8447 -54.8445
   -32.2052 -32.1829 -32.1791 -32.1785 -32.1582 -32.1574 -32.1300 -32.1030
   -32.0903 -32.0627 -32.0547 -32.0502 -32.0367 -32.0064 -31.9983 -31.9916
   -31.9840 -31.9836 -31.9829 -31.9816 -31.9799 -31.9775 -31.9587 -31.9253
   -31.9131 -31.9082 -31.9004 -31.8793 -31.8786 -31.8751 -31.8681 -31.8604
   -31.8567 -31.8530 -31.8501 -31.8476 -31.7835 -31.6630 -31.6188 -31.5371
   -31.4826 -31.4560 -31.1706 -31.1704 -31.0818 -31.0815 -31.0425 -31.0423
   -20.5241 -18.7869 -16.0433 -15.9270 -15.8454 -15.8046 -15.7368 -15.7005
   -15.6537 -15.5890 -15.5592 -15.5559 -15.5009 -15.4852 -15.4445 -15.4305
   -15.4058 -15.3995 -15.3836 -15.3353 -15.3233 -15.3149 -15.3061 -15.3025
   -15.2617 -15.2273 -15.2023 -15.1979 -15.0918 -14.9607 -14.6713 -13.6207
   -13.3492 -13.3491  -6.6239  -5.8226  -4.6713  -4.4763  -3.6252  -3.3295
    -3.3199  -3.1032  -3.0474  -2.9908  -2.9836  -2.9399  -2.8172  -2.7895
    -2.7410  -2.7328  -2.6940  -2.6886  -2.6837  -2.6640  -2.6305  -2.6112
    -2.6058  -2.5549  -2.5491  -2.5422  -2.5246  -2.5139  -2.5066  -2.4821
    -2.4552  -2.4397  -2.4228  -2.3932  -2.3110  -2.2798  -2.1121  -2.0708
    -2.0231  -2.0146  -1.9836  -1.9632  -1.9511  -1.9298  -1.8861  -1.7287
    -1.6511  -1.5839  -1.5729  -1.5634  -1.4889  -1.4722  -1.3607  -1.3236
    -1.2905  -1.2564  -1.1819  -1.1036  -1.0956  -1.0741  -0.9693  -0.9620
    -0.9283  -0.8848  -0.8461  -0.8351  -0.8265  -0.7489  -0.6930  -0.6211
    -0.6149  -0.5906  -0.5777  -0.5513  -0.5261  -0.4328  -0.3653  -0.3090
    -0.2755  -0.1880  -0.1583   0.0643   0.0856   0.1963   0.2095   0.2775
     0.3187   0.4273   0.4355   0.4831   0.5065   0.5320   0.5933   0.6596
     0.6693   0.6964   0.8144   1.5238   1.5251   1.5976   1.5980   1.7003
     3.5624   3.5943   3.6268   3.6367   3.7463   3.7669   3.7868   3.7894
     3.9049   3.9260

     the Fermi energy is     3.2512 ev

!    total energy              =   -2971.50216037 Ry
     estimated scf accuracy    <       0.00000006 Ry
     smearing contrib. (-TS)   =      -0.02121618 Ry
     internal energy E=F+TS    =   -2971.48094419 Ry

     The total energy is F=E-TS. E is the sum of the following terms:
     one-electron contribution =  -24213.95349611 Ry
     hartree contribution      =   12197.66047382 Ry
     xc contribution           =    -492.39798132 Ry
     ewald contribution        =    9537.20942255 Ry
     electric field correction =       0.00063686 Ry

     convergence has been achieved in  72 iterations

     Forces acting on atoms (cartesian axes, Ry/au):

     atom    1 type  1   force =     0.00019320   -0.00029216    0.09587338
     atom    2 type  1   force =    -0.00004307   -0.00049024   -0.17570080
     atom    3 type  2   force =     0.00007115   -0.00014540   -0.02405814
     atom    4 type  2   force =     0.00005722   -0.00155562    0.05356235
     atom    5 type  2   force =    -0.01129820   -0.00085085    0.00337186
     atom    6 type  2   force =     0.01316813   -0.00018572    0.00286232
     atom    7 type  1   force =    -0.00059618    0.00052297   -0.00601462
     atom    8 type  1   force =     0.00022418    0.00883191    0.02326223
     atom    9 type  2   force =    -0.00020879    0.00013848   -0.00009216
     atom   10 type  2   force =    -0.00059963    0.00120059   -0.01589734
     atom   11 type  2   force =    -0.00018278    0.00013921   -0.00004091
     atom   12 type  2   force =    -0.00019787   -0.00007892   -0.00017015
     atom   13 type  1   force =     0.00000610    0.00058005    0.00020780
     atom   14 type  1   force =    -0.00006293    0.00003452   -0.00002629
     atom   15 type  2   force =    -0.00026835   -0.00021209   -0.00010785
     atom   16 type  2   force =    -0.00021773    0.00023742   -0.00008866
     atom   17 type  2   force =    -0.00033335   -0.00000933    0.00021316
     atom   18 type  2   force =    -0.00037793    0.00018371   -0.00008523
     atom   19 type  1   force =    -0.00014664   -0.00037697   -0.00015082
     atom   20 type  1   force =    -0.00019015   -0.00025498    0.00020387
     atom   21 type  2   force =     0.00006303   -0.00004317    0.10323878
     atom   22 type  2   force =     0.00020707    0.00005953   -0.00013780
     atom   23 type  2   force =    -0.07143930   -0.00012435   -0.02766714
     atom   24 type  2   force =     0.07142177    0.00030403   -0.02770034
     atom   25 type  1   force =     0.00003104   -0.00023976    0.09565220
     atom   26 type  1   force =    -0.00015174   -0.00036473   -0.17584761
     atom   27 type  2   force =     0.00010242   -0.00020093   -0.02306485
     atom   28 type  2   force =     0.00012272   -0.00121975    0.05307288
     atom   29 type  2   force =    -0.01154684    0.00062359    0.00328722
     atom   30 type  2   force =     0.01328543    0.00093179    0.00278937
     atom   31 type  1   force =    -0.00047127    0.00377495   -0.01061747
     atom   32 type  1   force =     0.00008388   -0.01102596    0.02365453
     atom   33 type  2   force =     0.00011231   -0.00003677    0.00003271
     atom   34 type  2   force =     0.00007794    0.00062219   -0.02083062
     atom   35 type  2   force =    -0.00019328   -0.00023010    0.00000270
     atom   36 type  2   force =    -0.00038734    0.00001143   -0.00009493
     atom   37 type  1   force =     0.00032848   -0.00053388   -0.00003080
     atom   38 type  1   force =     0.00000601   -0.00000506   -0.00020036
     atom   39 type  2   force =    -0.00034882    0.00002415   -0.00000343
     atom   40 type  2   force =     0.00003521   -0.00015432   -0.00030480
     atom   41 type  2   force =    -0.00032538   -0.00020227    0.00000645
     atom   42 type  2   force =     0.00007432   -0.00003651   -0.00002594
     atom   43 type  1   force =     0.00025170   -0.00042934   -0.00019710
     atom   44 type  1   force =    -0.00021100   -0.00030879    0.00022169
     atom   45 type  2   force =     0.00006334   -0.00008367    0.10322738
     atom   46 type  2   force =    -0.07144747   -0.00010282   -0.02769381
     atom   47 type  2   force =     0.07144512    0.00033163   -0.02771790
     atom   48 type  3   force =     0.00037483   -0.00059998    0.00003859
     atom   49 type  4   force =     0.00022857    0.00002614    0.00015222
     atom   50 type  5   force =     0.00537282    0.00342561   -0.00278458
     atom   51 type  5   force =    -0.00589710   -0.00185336    0.00266243
     atom   52 type  2   force =    -0.00050271    0.00010426   -0.00008656
     atom   53 type  4   force =     0.00007771    0.00000125    0.00047431
     atom   54 type  4   force =     0.00016015    0.00013841   -0.00063142

     Total force =     0.366925     Total SCF correction =     0.000612
  @ DRIVER MODE: Message from server: STATUS
  @ DRIVER MODE: Message from server: GETFORCE
  @ DRIVER MODE: Returning v,forces,stress,ensemble

     Writing output data file ./calc.save/
  @ DRIVER MODE: Message from server: EXIT
  @ DRIVE MODE: Exiting

     General routines

     Parallel routines

   This run was terminated on:  22:48:43  15Sep2021

   JOB DONE.