     Program PWSCF v.6.7GPU starts on 24Aug2021 at  5:38:54

     R & G space division:  proc/nbgrp/npool/nimage =       6
     Reading input from /storage/home/hcoda1/3/ntian30/research/carbon/CH_vib/ads_slab/CHNHHH_a/out_0031/pw.inp
Warning: card &CELL ignored
Warning: card   CELL_DYNAMICS='IPI', ignored
Warning: card / ignored

     Current dimensions of program PWSCF are:
     Max number of different atomic species (ntypx) = 10
     Max number of k-points (npk) =  40000
     Max angular momentum in pseudopotentials (lmaxx) =  3
     Presently no symmetry can be used with electric field

     Message from routine cell_base_init:
     DEPRECATED: use true lattice parameter, not A to a.u. conversion factor

     IMPORTANT: XC functional enforced from input :
     Exchange-correlation= BEEF-VDW
                           (   1   4  43  14   2   0   0)
     Any further DFT definition will be discarded
     Please, verify this is what you really want

  @ DRIVER MODE: Connecting to
 qe_1139763_2632793.sched-torque.pace.gatech.edu6c4f27k7_scratch
  using UNIX socket
  @ DRIVER MODE: Message from server: STATUS
  @ DRIVER MODE: Message from server: INIT
  @ DRIVER MODE: Receiving replica           0          -1
  @ DRIVER MODE: Receiving encoded integer          25
  @ DRIVER MODE:  SCF:  T  FORCE:  T  STRESS:  F  VC:  F  ENSEMBLE:  F
  @ DRIVER MODE:  SCF:  T  FORCE:  T  STRESS:  F  VC:  F  ENSEMBLE:  F

     Using Slab Decomposition

     bravais-lattice index     =            0
     lattice parameter (alat)  =       1.8897  a.u.
     unit-cell volume          =    6658.9804 (a.u.)^3
     number of atoms/cell      =           53
     number of atomic types    =            5
     number of electrons       =       391.00
     number of Kohn-Sham states=          205
     kinetic-energy cutoff     =      29.3995  Ry
     charge density cutoff     =     293.9946  Ry
     scf convergence threshold =      7.3E-08
     mixing beta               =       0.0500
     number of iterations used =            8  plain     mixing
     Exchange-correlation= BEEF-VDW
                           (   1   4  43  14   2   0   0)

     celldm(1)=   1.889726  celldm(2)=   0.000000  celldm(3)=   0.000000
     celldm(4)=   0.000000  celldm(5)=   0.000000  celldm(6)=   0.000000

     crystal axes: (cart. coord. in units of alat)
               a(1) = (   6.579727   0.000000   0.000000 )
               a(2) = (  -0.000775   5.961596   0.000000 )
               a(3) = (   0.000000   0.000000  25.155947 )

     reciprocal axes: (cart. coord. in units 2 pi/alat)
               b(1) = (  0.151982  0.000020  0.000000 )
               b(2) = (  0.000000  0.167740  0.000000 )
               b(3) = (  0.000000  0.000000  0.039752 )

     PseudoPot. # 1 for Ti read from file:
     /storage/coda1/p-amedford6/0/shared/rich_project_chbe-medford/medford-share/data/pseudos_module/espresso/nninc/pbe/van/Ti.UPF
     MD5 check sum: 8e4df49b7f0d34bbd5052bf3f5ea0213
     Pseudo is Ultrasoft, Zval = 12.0
     Generated by new atomic code, or converted to UPF format
     Using radial grid of  851 points,  6 beta functions with:
                l(1) =   0
                l(2) =   0
                l(3) =   1
                l(4) =   1
                l(5) =   2
                l(6) =   2
     Q(r) pseudized with  8 coefficients,  rinner =    1.000   1.000   1.000
                                                       1.000   1.000

     PseudoPot. # 2 for O  read from file:
     /storage/coda1/p-amedford6/0/shared/rich_project_chbe-medford/medford-share/data/pseudos_module/espresso/nninc/pbe/van/O.UPF
     MD5 check sum: 78c19812648e8988a0fe644b0f25305e
     Pseudo is Ultrasoft, Zval =  6.0
     Generated by new atomic code, or converted to UPF format
     Using radial grid of  737 points,  4 beta functions with:
                l(1) =   0
                l(2) =   0
                l(3) =   1
                l(4) =   1
     Q(r) pseudized with  8 coefficients,  rinner =    0.800   0.800   0.800

     PseudoPot. # 3 for N  read from file:
     /storage/coda1/p-amedford6/0/shared/rich_project_chbe-medford/medford-share/data/pseudos_module/espresso/nninc/pbe/van/N.UPF
     MD5 check sum: 90d10febe142ad51ac9d5be1deb811c4
     Pseudo is Ultrasoft, Zval =  5.0
     Generated by new atomic code, or converted to UPF format
     Using radial grid of  729 points,  4 beta functions with:
                l(1) =   0
                l(2) =   0
                l(3) =   1
                l(4) =   1
     Q(r) pseudized with  8 coefficients,  rinner =    0.800   0.800   0.800

     PseudoPot. # 4 for C  read from file:
     /storage/coda1/p-amedford6/0/shared/rich_project_chbe-medford/medford-share/data/pseudos_module/espresso/nninc/pbe/van/C.UPF
     MD5 check sum: 1a69bf6b8db32088f5b2163dbdb77a27
     Pseudo is Ultrasoft, Zval =  4.0
     Generated by new atomic code, or converted to UPF format
     Using radial grid of  721 points,  4 beta functions with:
                l(1) =   0
                l(2) =   0
                l(3) =   1
                l(4) =   1
     Q(r) pseudized with  8 coefficients,  rinner =    0.800   0.800   0.800

     PseudoPot. # 5 for H  read from file:
     /storage/coda1/p-amedford6/0/shared/rich_project_chbe-medford/medford-share/data/pseudos_module/espresso/nninc/pbe/van/H.UPF
     MD5 check sum: b5ee9d7bfd3a09ee7748110bda690ff7
     Pseudo is Ultrasoft, Zval =  1.0
     Generated by new atomic code, or converted to UPF format
     Using radial grid of  615 points,  1 beta functions with:
                l(1) =   0
     Q(r) pseudized with  8 coefficients,  rinner =    0.800

     atomic species   valence    mass     pseudopotential
        Ti1           12.00    47.86700     Ti( 1.00)
        O1             6.00    15.99900     O ( 1.00)
        N1             5.00    14.00700     N ( 1.00)
        C1             4.00    12.01100     C ( 1.00)
        H1             1.00     1.00800     H ( 1.00)

     No symmetry found

   Cartesian axes

     site n.     atom                  positions (alat units)
         1           Ti1 tau(   1) = (   0.0004258   2.9801865   6.0000000  )
         2           Ti1 tau(   2) = (   3.2906075   1.4906267   6.0002472  )
         3           O1  tau(   3) = (   0.0006271   0.0005054   7.9858123  )
         4           O1  tau(   4) = (   3.2906025   0.0005020   7.3038282  )
         5           O1  tau(   5) = (   4.5942328   1.4918067   9.2879030  )
         6           O1  tau(   6) = (   1.9868534   1.4903216   9.2879459  )
         7           Ti1 tau(   7) = (   3.2907910   2.8959150   9.1758416  )
         8           Ti1 tau(   8) = (   0.0015273   1.4827037   9.2680791  )
         9           O1  tau(   9) = (   3.3113122   5.9567026  11.3833813  )
        10           O1  tau(  10) = (   0.0116148   5.9584955  10.6183126  )
        11           O1  tau(  11) = (   1.3074368   1.4838846  12.6958875  )
        12           O1  tau(  12) = (   5.3165545   1.4905306  12.6890028  )
        13           Ti1 tau(  13) = (   0.0319163   2.9634337  12.5060949  )
        14           Ti1 tau(  14) = (   3.3348194   1.4676286  12.5406051  )
        15           O1  tau(  15) = (   6.5718004   5.8756060  14.7032446  )
        16           O1  tau(  16) = (   3.3285255   5.9545307  14.0046557  )
        17           O1  tau(  17) = (   4.5620449   1.5282301  16.1894795  )
        18           O1  tau(  18) = (   2.0507131   1.5111456  16.1254446  )
        19           Ti1 tau(  19) = (   3.3090684   3.0029381  15.7706148  )
        20           Ti1 tau(  20) = (   0.0350077   1.2886257  15.8758580  )
        21           O1  tau(  21) = (   3.2904802   0.0005063   4.7018136  )
        22           O1  tau(  22) = (   0.0240991   0.1326893  17.2553962  )
        23           O1  tau(  23) = (   1.3043587   1.4918075   6.0039043  )
        24           O1  tau(  24) = (   5.2767064   1.4903225   6.0039473  )
        25           Ti1 tau(  25) = (   0.0000382   5.9609847   6.0000000  )
        26           Ti1 tau(  26) = (   3.2902200   4.4714249   6.0002472  )
        27           O1  tau(  27) = (   0.0002396   2.9813036   7.9858123  )
        28           O1  tau(  28) = (   3.2902150   2.9813002   7.3038282  )
        29           O1  tau(  29) = (   4.5938453   4.4726049   9.2879030  )
        30           O1  tau(  30) = (   1.9864658   4.4711199   9.2879459  )
        31           Ti1 tau(  31) = (   3.2891106   5.8743827   9.1763621  )
        32           Ti1 tau(  32) = (   0.0006254   4.4649316   9.2693709  )
        33           O1  tau(  33) = (   3.3073171   2.9646269  11.3784001  )
        34           O1  tau(  34) = (   0.0092240   2.9805883  10.6323155  )
        35           O1  tau(  35) = (   1.3112202   4.4579144  12.6624112  )
        36           O1  tau(  36) = (   5.3138049   4.4530836  12.6532163  )
        37           Ti1 tau(  37) = (   0.0383750   5.9352221  12.5084026  )
        38           Ti1 tau(  38) = (   3.3346062   4.4465110  12.5317211  )
        39           O1  tau(  39) = (   0.0124192   3.0170750  14.9941726  )
        40           O1  tau(  40) = (   3.3221393   2.9969786  13.9787254  )
        41           O1  tau(  41) = (   4.5445774   4.4782521  16.2319081  )
        42           O1  tau(  42) = (   2.0501905   4.4790704  16.2078326  )
        43           Ti1 tau(  43) = (   3.3285819   0.0194352  15.8051934  )
        44           Ti1 tau(  44) = (   0.0611752   4.5099810  16.0683830  )
        45           O1  tau(  45) = (   3.2900926   2.9813045   4.7018136  )
        46           O1  tau(  46) = (   1.3039711   4.4726057   6.0039043  )
        47           O1  tau(  47) = (   5.2763189   4.4711207   6.0039473  )
        48           N1  tau(  48) = (   6.2166669   3.4226028  18.2351681  )
        49           C1  tau(  49) = (   0.7325778   3.1430902  19.0455235  )
        50           H1  tau(  50) = (   1.1688338   2.1628109  18.9760543  )
        51           H1  tau(  51) = (   5.7007151   4.2593073  18.4945226  )
        52           H1  tau(  52) = (   5.5741914   2.6425579  18.1107425  )
        53           H1  tau(  53) = (   1.2493429   3.9788434  19.4721980  )

     number of k points=    10  Fermi-Dirac smearing, width (Ry)=  0.0073
                       cart. coord. in units 2pi/alat
        k(    1) = (   0.0000000   0.0000000   0.0000000), wk =   0.1250000
        k(    2) = (   0.0000000   0.0419351   0.0000000), wk =   0.2500000
        k(    3) = (   0.0000000  -0.0838702   0.0000000), wk =   0.1250000
        k(    4) = (   0.0379955   0.0000049   0.0000000), wk =   0.2500000
        k(    5) = (   0.0379955   0.0419400   0.0000000), wk =   0.2500000
        k(    6) = (   0.0379955  -0.0838652   0.0000000), wk =   0.2500000
        k(    7) = (   0.0379955  -0.0419301   0.0000000), wk =   0.2500000
        k(    8) = (  -0.0759910  -0.0000099   0.0000000), wk =   0.1250000
        k(    9) = (  -0.0759910   0.0419252   0.0000000), wk =   0.2500000
        k(   10) = (  -0.0759910  -0.0838800   0.0000000), wk =   0.1250000

     Initial potential from superposition of free atoms

     starting charge  374.99916, renormalised to  391.00000

     negative rho (up, down):  1.698E-02 0.000E+00

     %%%%%%%%%%%%%%%%%%%%%%%%%%%%%%%%%%%%%%%%%%%%%%%%%%%%%%%%%%%%%%%%%%%%%%%%
     %                                                                      %
     % You are using vdW-DF, which was implemented by the Thonhauser group. %
     % Please cite the following two papers that made this development      %
     % possible and the two reviews that describe the various versions:     %
     %                                                                      %
     %   T. Thonhauser et al., PRL 115, 136402 (2015).                      %
     %   T. Thonhauser et al., PRB 76, 125112 (2007).                       %
     %   K. Berland et al., Rep. Prog. Phys. 78, 066501 (2015).             %
     %   D.C. Langreth et al., J. Phys.: Condens. Matter 21, 084203 (2009). %
     %                                                                      %
     %                                                                      %
     % If you are calculating the stress with vdW-DF, please also cite:     %
     %                                                                      %
     %   R. Sabatini et al., J. Phys.: Condens. Matter 24, 424209 (2012).   %
     %                                                                      %
     %%%%%%%%%%%%%%%%%%%%%%%%%%%%%%%%%%%%%%%%%%%%%%%%%%%%%%%%%%%%%%%%%%%%%%%%

     Adding external electric field

     Computed dipole along edir(3) :
        Dipole               -6.8871 Ry au,        -17.5052 Debye
        Dipole field         -0.0130 Ry au,

        Potential amp.        1.2048 Ry
        Total length         46.3494 bohr

     Starting wfcs are  296 atomic wfcs
  @ DRIVER MODE: Message from server: STATUS
  @ DRIVER MODE: Message from server: POSDATA
  @ DRIVER MODE: Reading and sharing cell
  @ DRIVER MODE: Reading and sharing positions
  @ DRIVER MODE: Received positions

     Self-consistent Calculation

     iteration #  1     ecut=    29.40 Ry     beta= 0.05
     Davidson diagonalization with overlap
     c_bands:  1 eigenvalues not converged
     c_bands:  2 eigenvalues not converged
     ethr =  1.00E-05,  avg # of iterations = 15.9

[...]

     total energy              =   -2713.95627350 Ry
     estimated scf accuracy    <    2275.99349497 Ry

[...]

     iteration #  3     ecut=    29.40 Ry     beta= 0.05
     Davidson diagonalization with overlap
     ethr =  1.00E-02,  avg # of iterations = 15.4

[...]

     iteration # 85     ecut=    29.40 Ry     beta= 0.05
     Davidson diagonalization with overlap
     ethr =  1.12E-10,  avg # of iterations = 13.2

[...]

     total energy              =   -2920.25694678 Ry
     estimated scf accuracy    <       0.00000039 Ry

     iteration # 87     ecut=    29.40 Ry     beta= 0.05
     Davidson diagonalization with overlap
     c_bands:  1 eigenvalues not converged
     c_bands:  1 eigenvalues not converged
     ethr =  3.60E-11,  avg # of iterations = 14.9

     negative rho (up, down):  1.634E-02 0.000E+00

     Adding external electric field

     Computed dipole along edir(3) :
        Dipole                0.9017 Ry au,          2.2919 Debye
        Dipole field          0.0017 Ry au,

        Potential amp.       -0.1577 Ry
        Total length         46.3494 bohr

     End of self-consistent calculation

          k = 0.0000 0.0000 0.0000 ( 18029 PWs)   bands (ev):

   -55.7198 -55.6835 -55.6734 -55.6393 -55.6068 -55.6031 -55.5688 -55.5449
   -55.5369 -55.5105 -55.5054 -55.4717 -55.4505 -55.2884 -54.7046 -54.6705
   -32.2849 -32.1663 -32.0906 -32.0415 -32.0378 -32.0339 -32.0293 -32.0112
   -31.9624 -31.9526 -31.9322 -31.9272 -31.9184 -31.8887 -31.8737 -31.8732
   -31.8585 -31.8449 -31.8408 -31.8260 -31.8208 -31.7877 -31.7804 -31.7754
   -31.7472 -31.7348 -31.7346 -31.7306 -31.7246 -31.7175 -31.7051 -31.7033
   -31.6938 -31.6911 -31.6584 -31.6571 -31.6531 -31.6333 -31.6229 -31.6168
   -31.5081 -31.4611 -31.1141 -31.0196 -30.9975 -30.9304 -30.8436 -30.7328
   -16.6854 -16.5260 -16.2698 -16.1038 -16.0053 -15.9198 -15.7780 -15.7591
   -15.6430 -15.5662 -15.4238 -15.3869 -15.3740 -15.3574 -15.3347 -15.3223
   -15.2678 -15.2622 -15.2412 -15.2171 -15.2127 -15.1647 -15.1615 -15.1210
   -15.0978 -15.0358 -14.9658 -14.8822 -14.8100 -14.4797 -13.2075 -13.0900
    -9.5396  -6.8747  -4.9578  -3.8833  -3.7404  -3.6738  -3.6212  -3.6147
    -3.4705  -3.2994  -3.1611  -3.1316  -3.1096  -2.9891  -2.9250  -2.9106
    -2.8866  -2.7543  -2.7303  -2.6791  -2.6444  -2.5697  -2.5662  -2.5257
    -2.5120  -2.4674  -2.4612  -2.4353  -2.3016  -2.2881  -2.2502  -2.1871
    -2.1273  -2.1254  -2.0687  -2.0510  -2.0113  -2.0025  -1.9910  -1.9495
    -1.9439  -1.9090  -1.8066  -1.7444  -1.6121  -1.5779  -1.4323  -1.3618
    -1.3132  -1.2947  -1.2113  -1.1899  -1.1389  -1.1005  -1.0899  -1.0580
    -0.9446  -0.8585  -0.8077  -0.7531  -0.7204  -0.7045  -0.6154  -0.5226
    -0.5009  -0.4877  -0.4459  -0.3441  -0.3232  -0.2604  -0.2014  -0.1857
    -0.1765  -0.0807  -0.0494   0.0231   0.0737   0.0949   0.1663   0.1921
     0.2112   0.2165   0.2518   0.2631   0.3393   0.3559   0.3804   0.4673
     0.5931   0.8397   0.8885   0.9020   1.2186   1.2227   1.3179   1.5011
     1.8943   1.9426   3.3711   3.3889   3.4529   3.5219   3.5257   3.5899
     3.6128   3.8579   3.8792   3.8865   3.9032

[...]

          k = 0.0380-0.0419 0.0000 ( 17876 PWs)   bands (ev):

[...]

          k =-0.0760-0.0000 0.0000 ( 17886 PWs)   bands (ev):

[...]

          k =-0.0760-0.0839 0.0000 ( 17948 PWs)   bands (ev):

   -55.7046 -55.6985 -55.6565 -55.6561 -55.6023 -55.5866 -55.5853 -55.5413
   -55.5293 -55.5257 -55.4890 -55.4883 -55.4484 -55.2905 -54.6876 -54.6874
   -32.0915 -32.0870 -31.9957 -31.9816 -31.9813 -31.9775 -31.9502 -31.9478
   -31.9476 -31.9314 -31.9248 -31.9160 -31.9108 -31.8704 -31.8667 -31.8616
   -31.8575 -31.8528 -31.8475 -31.8440 -31.8282 -31.8082 -31.7999 -31.7993
   -31.7816 -31.7770 -31.7762 -31.7757 -31.7621 -31.7585 -31.7420 -31.7384
   -31.7381 -31.7233 -31.7215 -31.7187 -31.6714 -31.6691 -31.6681 -31.6289
   -31.5524 -31.5103 -31.0103 -31.0101 -30.9267 -30.9265 -30.8871 -30.8870
   -16.6539 -16.0094 -15.9443 -15.9062 -15.7580 -15.7170 -15.6822 -15.6705
   -15.5471 -15.5152 -15.4943 -15.4741 -15.4381 -15.4241 -15.4175 -15.3649
   -15.3389 -15.3189 -15.3146 -15.3006 -15.2383 -15.2319 -15.2270 -15.2197
   -15.1721 -15.1685 -15.0770 -15.0741 -15.0506 -14.7667 -13.1915 -13.1914
    -9.5416  -6.8564  -4.9371  -3.2195  -3.2038  -3.1613  -3.1386  -2.9780
    -2.9150  -2.9016  -2.8717  -2.7989  -2.7474  -2.7313  -2.6872  -2.6831
    -2.6298  -2.5968  -2.5716  -2.5580  -2.5518  -2.5381  -2.5164  -2.4804
    -2.4514  -2.4495  -2.4406  -2.3948  -2.3686  -2.3580  -2.3202  -2.3138
    -2.3059  -2.2782  -2.2149  -2.1139  -2.0848  -2.0564  -1.9602  -1.9294
    -1.9242  -1.8443  -1.8112  -1.7563  -1.7495  -1.7417  -1.5761  -1.5046
    -1.4682  -1.4650  -1.4426  -1.3153  -1.3006  -1.2222  -1.1985  -1.1860
    -1.0978  -1.0772  -1.0340  -1.0071  -0.9305  -0.9013  -0.8396  -0.7526
    -0.7140  -0.7070  -0.6778  -0.6740  -0.6249  -0.6139  -0.5287  -0.4901
    -0.4553  -0.4448  -0.3966  -0.2113  -0.1947  -0.1644  -0.0256   0.0251
     0.1504   0.1736   0.2346   0.3083   0.3488   0.3925   0.4292   0.5741
     0.5838   0.6160   0.6613   0.6725   0.7307   0.7395   1.6742   1.6747
     1.7625   1.7628   3.3851   3.6320   3.6344   3.6697   3.6925   3.8476
     3.8924   3.9362   3.9579   3.9612   3.9830

     the Fermi energy is     3.4393 ev

!    total energy              =   -2920.25695075 Ry
     estimated scf accuracy    <       0.00000007 Ry
     smearing contrib. (-TS)   =      -0.04245602 Ry
     internal energy E=F+TS    =   -2920.21449474 Ry

     The total energy is F=E-TS. E is the sum of the following terms:
     one-electron contribution =  -24059.37745205 Ry
     hartree contribution      =   12115.88881852 Ry
     xc contribution           =    -480.86153568 Ry
     ewald contribution        =    9504.13414005 Ry
     electric field correction =       0.00153443 Ry

     convergence has been achieved in  87 iterations

     Forces acting on atoms (cartesian axes, Ry/au):

     atom    1 type  1   force =    -0.00001688   -0.00019733    0.09315156
     atom    2 type  1   force =    -0.00011379   -0.00034305   -0.17841600
     atom    3 type  2   force =     0.00009087   -0.00039254   -0.02007417
     atom    4 type  2   force =     0.00004637   -0.00199872    0.05911127
     atom    5 type  2   force =    -0.01018801   -0.00082309    0.00742428
     atom    6 type  2   force =     0.01219628   -0.00043243    0.00773835
     atom    7 type  1   force =     0.00015464    0.00228324   -0.01371092
     atom    8 type  1   force =    -0.00035499   -0.00182732   -0.00452357
     atom    9 type  2   force =    -0.00034250    0.00037357   -0.00022702
     atom   10 type  2   force =    -0.00026766    0.00141629    0.00223164
     atom   11 type  2   force =    -0.00011580    0.00010724   -0.00010371
     atom   12 type  2   force =    -0.00028756   -0.00022474   -0.00061623
     atom   13 type  1   force =    -0.00048459    0.00090179   -0.00023819
     atom   14 type  1   force =    -0.00069691    0.00043248   -0.00048131
     atom   15 type  2   force =     0.00005158   -0.00018972    0.00016031
     atom   16 type  2   force =    -0.00041077   -0.00009182    0.00001416
     atom   17 type  2   force =    -0.00011019   -0.00031727   -0.00045893
     atom   18 type  2   force =    -0.00032298   -0.00015797    0.00048060
     atom   19 type  1   force =    -0.00059233   -0.00007741    0.00006675
     atom   20 type  1   force =    -0.00012716   -0.00022805   -0.00033803
     atom   21 type  2   force =     0.00002574   -0.00006154    0.10401442
     atom   22 type  2   force =    -0.00050915   -0.00001870    0.00021419
     atom   23 type  2   force =    -0.07035809   -0.00014766   -0.02687590
     atom   24 type  2   force =     0.07023738    0.00029141   -0.02696268
     atom   25 type  1   force =     0.00002402   -0.00014803    0.09255838
     atom   26 type  1   force =    -0.00014400   -0.00045877   -0.17848549
     atom   27 type  2   force =     0.00015931   -0.00028354   -0.01915524
     atom   28 type  2   force =     0.00005883   -0.00176928    0.05849277
     atom   29 type  2   force =    -0.01067112   -0.00130192    0.00789201
     atom   30 type  2   force =     0.01254687   -0.00083281    0.00815937
     atom   31 type  1   force =     0.00028772    0.00600028   -0.01444296
     atom   32 type  1   force =    -0.00036560    0.00121656   -0.00499430
     atom   33 type  2   force =    -0.00004632   -0.00046490   -0.00007972
     atom   34 type  2   force =     0.00078218   -0.00258603    0.00063182
     atom   35 type  2   force =    -0.00059321   -0.00028536   -0.00011840
     atom   36 type  2   force =     0.00058758    0.00005623    0.00005149
     atom   37 type  1   force =    -0.00046986   -0.00043594    0.00005676
     atom   38 type  1   force =    -0.00026615    0.00035168   -0.00084817
     atom   39 type  2   force =    -0.00062985    0.00036380   -0.00012069
     atom   40 type  2   force =    -0.00015159   -0.00036748   -0.00056713
     atom   41 type  2   force =    -0.00102271    0.00011199    0.00001551
     atom   42 type  2   force =     0.00004503   -0.00013015    0.00028441
     atom   43 type  1   force =     0.00050678   -0.00002325   -0.00043037
     atom   44 type  1   force =     0.00041729    0.00059077   -0.00009244
     atom   45 type  2   force =     0.00003802   -0.00007569    0.10395744
     atom   46 type  2   force =    -0.07033173   -0.00009215   -0.02685686
     atom   47 type  2   force =     0.07023290    0.00035141   -0.02691271
     atom   48 type  3   force =    -0.00118776    0.00091512   -0.00040441
     atom   49 type  4   force =    -0.00449523   -0.00240871   -0.00204664
     atom   50 type  5   force =     0.00085225   -0.00050457   -0.00005570
     atom   51 type  5   force =     0.00158280   -0.00105824   -0.00031323
     atom   52 type  5   force =    -0.00018373    0.00068071   -0.00024908
     atom   53 type  5   force =     0.00493377    0.00431160    0.00249270

     Total force =     0.366445     Total SCF correction =     0.000614
  @ DRIVER MODE: Message from server: STATUS
  @ DRIVER MODE: Message from server: GETFORCE
  @ DRIVER MODE: Returning v,forces,stress,ensemble

     Writing output data file ./calc.save/
  @ DRIVER MODE: Message from server: EXIT
  @ DRIVE MODE: Exiting

     General routines

     Parallel routines

   This run was terminated on:   6:12:14  24Aug2021

   JOB DONE.