     Program PWSCF v.6.7GPU starts on 17Jul2021 at 11:49:55

     R & G space division:  proc/nbgrp/npool/nimage =      16
     Reading input from /storage/home/hcoda1/3/ntian30/research/carbon/15Jul_vib/ads_slab/CH3NH2_a/out_0023/pw.inp
Warning: card &CELL ignored
Warning: card   CELL_DYNAMICS='IPI', ignored
Warning: card / ignored

     Current dimensions of program PWSCF are:
     Max number of different atomic species (ntypx) = 10
     Max number of k-points (npk) =  40000
     Max angular momentum in pseudopotentials (lmaxx) =  3
     Presently no symmetry can be used with electric field

     Message from routine cell_base_init:
     DEPRECATED: use true lattice parameter, not A to a.u. conversion factor

     IMPORTANT: XC functional enforced from input :
     Exchange-correlation= BEEF-VDW
                           (   1   4  43  14   2   0   0)
     Any further DFT definition will be discarded
     Please, verify this is what you really want

  @ DRIVER MODE: Connecting to
 qe_1139763_2351647.sched-torque.pace.gatech.edu1i4e2oaa_scratch
  using UNIX socket
  @ DRIVER MODE: Message from server: STATUS
  @ DRIVER MODE: Message from server: INIT
  @ DRIVER MODE: Receiving replica           0          -1
  @ DRIVER MODE: Receiving encoded integer          25
  @ DRIVER MODE:  SCF:  T  FORCE:  T  STRESS:  F  VC:  F  ENSEMBLE:  F
  @ DRIVER MODE:  SCF:  T  FORCE:  T  STRESS:  F  VC:  F  ENSEMBLE:  F

     Using Slab Decomposition

     bravais-lattice index     =            0
     lattice parameter (alat)  =       1.8897  a.u.
     unit-cell volume          =    6658.9804 (a.u.)^3
     number of atoms/cell      =           54
     number of atomic types    =            5
     number of electrons       =       392.00
     number of Kohn-Sham states=          206
     kinetic-energy cutoff     =      29.3995  Ry
     charge density cutoff     =     293.9946  Ry
     scf convergence threshold =      7.3E-08
     mixing beta               =       0.0500
     number of iterations used =            8  plain     mixing
     Exchange-correlation= BEEF-VDW
                           (   1   4  43  14   2   0   0)

     celldm(1)=   1.889726  celldm(2)=   0.000000  celldm(3)=   0.000000
     celldm(4)=   0.000000  celldm(5)=   0.000000  celldm(6)=   0.000000

     crystal axes: (cart. coord. in units of alat)
               a(1) = (   6.579727   0.000000   0.000000 )
               a(2) = (  -0.000775   5.961596   0.000000 )
               a(3) = (   0.000000   0.000000  25.155947 )

     reciprocal axes: (cart. coord. in units 2 pi/alat)
               b(1) = (  0.151982  0.000020  0.000000 )
               b(2) = (  0.000000  0.167740  0.000000 )
               b(3) = (  0.000000  0.000000  0.039752 )

     PseudoPot. # 1 for Ti read from file:
     /storage/coda1/p-amedford6/0/shared/rich_project_chbe-medford/medford-share/data/pseudos_module/espresso/nninc/pbe/van/Ti.UPF
     MD5 check sum: 8e4df49b7f0d34bbd5052bf3f5ea0213
     Pseudo is Ultrasoft, Zval = 12.0
     Generated by new atomic code, or converted to UPF format
     Using radial grid of  851 points,  6 beta functions with:
                l(1) =   0
                l(2) =   0
                l(3) =   1
                l(4) =   1
                l(5) =   2
                l(6) =   2
     Q(r) pseudized with  8 coefficients,  rinner =    1.000   1.000   1.000
                                                       1.000   1.000

     PseudoPot. # 2 for O  read from file:
     /storage/coda1/p-amedford6/0/shared/rich_project_chbe-medford/medford-share/data/pseudos_module/espresso/nninc/pbe/van/O.UPF
     MD5 check sum: 78c19812648e8988a0fe644b0f25305e
     Pseudo is Ultrasoft, Zval =  6.0
     Generated by new atomic code, or converted to UPF format
     Using radial grid of  737 points,  4 beta functions with:
                l(1) =   0
                l(2) =   0
                l(3) =   1
                l(4) =   1
     Q(r) pseudized with  8 coefficients,  rinner =    0.800   0.800   0.800

     PseudoPot. # 3 for H  read from file:
     /storage/coda1/p-amedford6/0/shared/rich_project_chbe-medford/medford-share/data/pseudos_module/espresso/nninc/pbe/van/H.UPF
     MD5 check sum: b5ee9d7bfd3a09ee7748110bda690ff7
     Pseudo is Ultrasoft, Zval =  1.0
     Generated by new atomic code, or converted to UPF format
     Using radial grid of  615 points,  1 beta functions with:
                l(1) =   0
     Q(r) pseudized with  8 coefficients,  rinner =    0.800

     PseudoPot. # 4 for N  read from file:
     /storage/coda1/p-amedford6/0/shared/rich_project_chbe-medford/medford-share/data/pseudos_module/espresso/nninc/pbe/van/N.UPF
     MD5 check sum: 90d10febe142ad51ac9d5be1deb811c4
     Pseudo is Ultrasoft, Zval =  5.0
     Generated by new atomic code, or converted to UPF format
     Using radial grid of  729 points,  4 beta functions with:
                l(1) =   0
                l(2) =   0
                l(3) =   1
                l(4) =   1
     Q(r) pseudized with  8 coefficients,  rinner =    0.800   0.800   0.800

     PseudoPot. # 5 for C  read from file:
     /storage/coda1/p-amedford6/0/shared/rich_project_chbe-medford/medford-share/data/pseudos_module/espresso/nninc/pbe/van/C.UPF
     MD5 check sum: 1a69bf6b8db32088f5b2163dbdb77a27
     Pseudo is Ultrasoft, Zval =  4.0
     Generated by new atomic code, or converted to UPF format
     Using radial grid of  721 points,  4 beta functions with:
                l(1) =   0
                l(2) =   0
                l(3) =   1
                l(4) =   1
     Q(r) pseudized with  8 coefficients,  rinner =    0.800   0.800   0.800

     atomic species   valence    mass     pseudopotential
        Ti1           12.00    47.86700     Ti( 1.00)
        O1             6.00    15.99900     O ( 1.00)
        H1             1.00     1.00800     H ( 1.00)
        N1             5.00    14.00700     N ( 1.00)
        C1             4.00    12.01100     C ( 1.00)

     Starting magnetic structure
     atomic species   magnetization
        Ti1          0.000
        O1           0.000
        H1           0.000
        N1           0.000
        C1           0.025

     No symmetry found

   Cartesian axes

     site n.     atom                  positions (alat units)
         1           Ti1 tau(   1) = (   0.0004258   2.9801865   6.0000000  )
         2           Ti1 tau(   2) = (   3.2906075   1.4906267   6.0002472  )
         3           O1  tau(   3) = (   0.0006271   0.0005054   7.9858123  )
         4           O1  tau(   4) = (   3.2906025   0.0005020   7.3038282  )
         5           O1  tau(   5) = (   4.5942328   1.4918067   9.2879030  )
         6           O1  tau(   6) = (   1.9868534   1.4903216   9.2879459  )
         7           Ti1 tau(   7) = (   3.2907910   2.8959150   9.1758416  )
         8           Ti1 tau(   8) = (   0.0015273   1.4827037   9.2680791  )
         9           O1  tau(   9) = (   3.2764298   0.0032354  11.3770789  )
        10           O1  tau(  10) = (   0.0116148   5.9584955  10.6183126  )
        11           O1  tau(  11) = (   1.2747638   1.4931710  12.6971893  )
        12           O1  tau(  12) = (   5.2817712   1.4903522  12.6806618  )
        13           Ti1 tau(  13) = (   6.5676529   2.9732189  12.5062122  )
        14           Ti1 tau(  14) = (   3.2766800   1.4809802  12.5336434  )
        15           O1  tau(  15) = (   6.5470194   5.8867849  14.7036171  )
        16           O1  tau(  16) = (   3.2776651   5.9556151  14.0032320  )
        17           O1  tau(  17) = (   4.5091997   1.5331545  16.1660716  )
        18           O1  tau(  18) = (   1.9944719   1.5276542  16.1393230  )
        19           Ti1 tau(  19) = (   3.2573122   3.0077756  15.7593658  )
        20           Ti1 tau(  20) = (   6.5589466   1.3143649  15.8680718  )
        21           O1  tau(  21) = (   3.2904802   0.0005063   4.7018136  )
        22           O1  tau(  22) = (   6.5386106   0.1512346  17.2501133  )
        23           O1  tau(  23) = (   1.3043587   1.4918075   6.0039043  )
        24           O1  tau(  24) = (   5.2767064   1.4903225   6.0039473  )
        25           Ti1 tau(  25) = (   0.0000382   5.9609847   6.0000000  )
        26           Ti1 tau(  26) = (   3.2902200   4.4714249   6.0002472  )
        27           O1  tau(  27) = (   0.0002396   2.9813036   7.9858123  )
        28           O1  tau(  28) = (   3.2902150   2.9813002   7.3038282  )
        29           O1  tau(  29) = (   4.5938453   4.4726049   9.2879030  )
        30           O1  tau(  30) = (   1.9864658   4.4711199   9.2879459  )
        31           Ti1 tau(  31) = (   3.2891106   5.8743827   9.1763621  )
        32           Ti1 tau(  32) = (   0.0006254   4.4649316   9.2693709  )
        33           O1  tau(  33) = (   3.2800745   2.9703478  11.3709363  )
        34           O1  tau(  34) = (   0.0092240   2.9805883  10.6323155  )
        35           O1  tau(  35) = (   1.2777299   4.4606407  12.6608526  )
        36           O1  tau(  36) = (   5.2778393   4.4632610  12.6460003  )
        37           Ti1 tau(  37) = (   6.5690533   5.9429793  12.5031582  )
        38           Ti1 tau(  38) = (   3.2786254   4.4589551  12.5214668  )
        39           O1  tau(  39) = (   6.5354733   3.0384833  14.9766919  )
        40           O1  tau(  40) = (   3.2791638   3.0036098  13.9700814  )
        41           O1  tau(  41) = (   4.4983502   4.4848413  16.2456934  )
        42           O1  tau(  42) = (   1.9866127   4.4820094  16.2221982  )
        43           Ti1 tau(  43) = (   3.2666378   0.0261420  15.7997788  )
        44           Ti1 tau(  44) = (   6.5668271   4.5279224  16.0664899  )
        45           O1  tau(  45) = (   3.2900926   2.9813045   4.7018136  )
        46           O1  tau(  46) = (   1.3039711   4.4726057   6.0039043  )
        47           O1  tau(  47) = (   5.2763189   4.4711207   6.0039473  )
        48           H1  tau(  48) = (   5.7254277   4.1132278  18.4743583  )
        49           H1  tau(  49) = (   5.8544422   2.5125186  18.2095680  )
        50           N1  tau(  50) = (   6.3703568   3.3906518  18.1617682  )
        51           C1  tau(  51) = (   0.9530889   3.3347298  19.0641625  )
        52           H1  tau(  52) = (   1.4659278   4.2935310  19.0402106  )
        53           H1  tau(  53) = (   0.6569204   3.1189037  20.1036144  )
        54           H1  tau(  54) = (   1.6325849   2.5561260  18.7331930  )

     number of k points=    10  Fermi-Dirac smearing, width (Ry)=  0.0073
                       cart. coord. in units 2pi/alat
        k(    1) = (   0.0000000   0.0000000   0.0000000), wk =   0.0625000
        k(    2) = (   0.0000000   0.0419351   0.0000000), wk =   0.1250000
        k(    3) = (   0.0000000  -0.0838702   0.0000000), wk =   0.0625000
        k(    4) = (   0.0379955   0.0000049   0.0000000), wk =   0.1250000
        k(    5) = (   0.0379955   0.0419400   0.0000000), wk =   0.1250000
        k(    6) = (   0.0379955  -0.0838652   0.0000000), wk =   0.1250000
        k(    7) = (   0.0379955  -0.0419301   0.0000000), wk =   0.1250000
[...]
        k(    9) = (  -0.0759910   0.0419252   0.0000000), wk =   0.1250000
        k(   10) = (  -0.0759910  -0.0838800   0.0000000), wk =   0.0625000

     Initial potential from superposition of free atoms

     starting charge  375.99915, renormalised to  392.00000

     negative rho (up, down):  8.116E-03 8.122E-03

     %%%%%%%%%%%%%%%%%%%%%%%%%%%%%%%%%%%%%%%%%%%%%%%%%%%%%%%%%%%%%%%%%%%%%%%%
     %                                                                      %
     % You are using vdW-DF, which was implemented by the Thonhauser group. %
     % Please cite the following two papers that made this development      %
     % possible and the two reviews that describe the various versions:     %
     %                                                                      %
     %   T. Thonhauser et al., PRL 115, 136402 (2015).                      %
     %   T. Thonhauser et al., PRB 76, 125112 (2007).                       %
     %   K. Berland et al., Rep. Prog. Phys. 78, 066501 (2015).             %
     %   D.C. Langreth et al., J. Phys.: Condens. Matter 21, 084203 (2009). %
     %                                                                      %
     %                                                                      %
     % If you are calculating the stress with vdW-DF, please also cite:     %
     %                                                                      %
     %   R. Sabatini et al., J. Phys.: Condens. Matter 24, 424209 (2012).   %
     %                                                                      %
     %%%%%%%%%%%%%%%%%%%%%%%%%%%%%%%%%%%%%%%%%%%%%%%%%%%%%%%%%%%%%%%%%%%%%%%%

     Adding external electric field

     Computed dipole along edir(3) :
        Dipole               -7.5648 Ry au,        -19.2278 Debye
        Dipole field         -0.0143 Ry au,

        Potential amp.        1.3233 Ry
        Total length         46.3494 bohr

[...]

     Starting wfcs are  297 atomic wfcs
  @ DRIVER MODE: Message from server: STATUS
  @ DRIVER MODE: Message from server: POSDATA
  @ DRIVER MODE: Reading and sharing cell
  @ DRIVER MODE: Reading and sharing positions
  @ DRIVER MODE: Received positions

     Self-consistent Calculation

     iteration #  1     ecut=    29.40 Ry     beta= 0.05
     Davidson diagonalization with overlap
     c_bands:  1 eigenvalues not converged
     c_bands:  2 eigenvalues not converged
     c_bands:  1 eigenvalues not converged
     c_bands:  1 eigenvalues not converged
     c_bands:  1 eigenvalues not converged
     c_bands:  1 eigenvalues not converged
     c_bands:  1 eigenvalues not converged
     c_bands:  2 eigenvalues not converged
     c_bands:  1 eigenvalues not converged
     c_bands:  1 eigenvalues not converged
     c_bands:  1 eigenvalues not converged
     c_bands:  1 eigenvalues not converged
     ethr =  1.00E-05,  avg # of iterations = 19.6

[...]

     total energy              =   -2678.27339384 Ry
     estimated scf accuracy    <    2693.34556621 Ry

     total magnetization       =     0.00 Bohr mag/cell
     absolute magnetization    =     0.01 Bohr mag/cell

[...]

     iteration #  3     ecut=    29.40 Ry     beta= 0.05
     Davidson diagonalization with overlap
     ethr =  1.00E-02,  avg # of iterations = 15.1

[...]

     iteration # 68     ecut=    29.40 Ry     beta= 0.05
     Davidson diagonalization with overlap
     c_bands:  1 eigenvalues not converged
     ethr =  2.87E-11,  avg # of iterations = 14.1

[...]

     total energy              =   -2921.63332217 Ry
     estimated scf accuracy    <       0.00000011 Ry

[...]

     iteration # 69     ecut=    29.40 Ry     beta= 0.05
     Davidson diagonalization with overlap
     ethr =  2.77E-11,  avg # of iterations =  2.6

     negative rho (up, down):  8.557E-03 8.553E-03

[...]

     Adding external electric field

     Computed dipole along edir(3) :
        Dipole                1.3021 Ry au,          3.3095 Debye
        Dipole field          0.0025 Ry au,

        Potential amp.       -0.2278 Ry
        Total length         46.3494 bohr

     Magnetic moment per site  (integrated on atomic sphere of radius R)
     atom   1 (R=0.738)  charge=  8.0465  magn= -0.0112
     atom   2 (R=0.738)  charge=  8.0283  magn= -0.0005
     atom   3 (R=0.738)  charge=  5.0153  magn=  0.0014
     atom   4 (R=0.738)  charge=  5.0522  magn=  0.0001
     atom   5 (R=0.738)  charge=  5.0214  magn=  0.0004
     atom   6 (R=0.738)  charge=  5.0219  magn=  0.0004
     atom   7 (R=0.738)  charge=  8.0284  magn= -0.0009
     atom   8 (R=0.738)  charge=  8.0296  magn= -0.0119
     atom   9 (R=0.738)  charge=  5.0288  magn=  0.0002
     atom  10 (R=0.738)  charge=  5.0292  magn=  0.0007
     atom  11 (R=0.738)  charge=  5.0169  magn=  0.0003
     atom  12 (R=0.738)  charge=  5.0160  magn=  0.0003
     atom  13 (R=0.738)  charge=  8.0365  magn= -0.0033
     atom  14 (R=0.738)  charge=  8.0338  magn= -0.0015
     atom  15 (R=0.738)  charge=  5.0278  magn=  0.0001
     atom  16 (R=0.738)  charge=  5.0249  magn=  0.0000
     atom  17 (R=0.738)  charge=  5.0031  magn= -0.0001
     atom  18 (R=0.738)  charge=  5.0056  magn= -0.0001
     atom  19 (R=0.738)  charge=  8.0664  magn=  0.0010
     atom  20 (R=0.738)  charge=  8.0804  magn=  0.0000
     atom  21 (R=0.738)  charge=  4.9003  magn=  0.0002
     atom  22 (R=0.738)  charge=  4.9791  magn= -0.0001
     atom  23 (R=0.738)  charge=  5.0125  magn=  0.0010
     atom  24 (R=0.738)  charge=  5.0127  magn=  0.0010
     atom  25 (R=0.738)  charge=  8.0466  magn= -0.0112
     atom  26 (R=0.738)  charge=  8.0283  magn= -0.0005
     atom  27 (R=0.738)  charge=  5.0151  magn=  0.0015
     atom  28 (R=0.738)  charge=  5.0525  magn=  0.0001
     atom  29 (R=0.738)  charge=  5.0223  magn=  0.0003
     atom  30 (R=0.738)  charge=  5.0226  magn=  0.0003
     atom  31 (R=0.738)  charge=  8.0286  magn= -0.0009
     atom  32 (R=0.738)  charge=  8.0298  magn= -0.0117
     atom  33 (R=0.738)  charge=  5.0280  magn=  0.0002
     atom  34 (R=0.738)  charge=  5.0267  magn=  0.0007
     atom  35 (R=0.738)  charge=  5.0201  magn=  0.0003
     atom  36 (R=0.738)  charge=  5.0197  magn=  0.0003
     atom  37 (R=0.738)  charge=  8.0323  magn= -0.0033
     atom  38 (R=0.738)  charge=  8.0346  magn= -0.0016
     atom  39 (R=0.738)  charge=  5.0089  magn=  0.0001
     atom  40 (R=0.738)  charge=  5.0372  magn= -0.0000
     atom  41 (R=0.738)  charge=  5.0005  magn= -0.0001
     atom  42 (R=0.738)  charge=  5.0042  magn= -0.0001
     atom  43 (R=0.738)  charge=  8.0648  magn=  0.0010
     atom  44 (R=0.738)  charge=  8.0445  magn= -0.0001
     atom  45 (R=0.738)  charge=  4.9002  magn=  0.0005
     atom  46 (R=0.738)  charge=  5.0125  magn=  0.0010
     atom  47 (R=0.738)  charge=  5.0127  magn=  0.0010
     atom  48 (R=0.420)  charge=  0.4509  magn=  0.0000
     atom  49 (R=0.420)  charge=  0.4507  magn=  0.0000
     atom  50 (R=0.420)  charge=  1.3406  magn= -0.0000
     atom  51 (R=0.448)  charge=  0.8399  magn=  0.0000
     atom  52 (R=0.420)  charge=  0.4447  magn= -0.0000
     atom  53 (R=0.420)  charge=  0.4414  magn= -0.0000
     atom  54 (R=0.420)  charge=  0.4463  magn= -0.0000

     End of self-consistent calculation

 ------ SPIN UP ------------

          k = 0.0000 0.0000 0.0000 ( 18029 PWs)   bands (ev):

   -55.4300 -55.3927 -55.3718 -55.3547 -55.3377 -55.3120 -55.3067 -55.2724
   -55.2503 -55.2352 -55.2159 -55.2024 -55.1686 -55.1027 -54.4111 -54.3771
   -31.9986 -31.8833 -31.8700 -31.7951 -31.7439 -31.7400 -31.7368 -31.7080
   -31.6690 -31.6585 -31.6389 -31.6384 -31.6151 -31.6145 -31.5983 -31.5935
   -31.5857 -31.5722 -31.5665 -31.5451 -31.5276 -31.5231 -31.5016 -31.4912
   -31.4837 -31.4810 -31.4751 -31.4528 -31.4366 -31.4274 -31.4272 -31.4097
   -31.4083 -31.4004 -31.3982 -31.3947 -31.3639 -31.3548 -31.3286 -31.3131
   -31.3090 -31.2915 -30.8205 -30.7259 -30.7039 -30.6366 -30.5498 -30.4392
   -16.2892 -16.1808 -15.9780 -15.8279 -15.7392 -15.6303 -15.5110 -15.4924
   -15.3607 -15.2830 -15.1572 -15.1312 -15.1027 -15.0861 -15.0755 -15.0622
   -14.9761 -14.9707 -14.9549 -14.9257 -14.9250 -14.8793 -14.8700 -14.8287
   -14.8061 -14.7958 -14.6802 -14.5910 -14.5181 -14.2754 -12.9143 -12.7969
   -10.2118  -6.3031  -4.8337  -3.9576  -3.6021  -3.4504  -3.3569  -3.3280
    -3.3219  -3.1852  -3.0346  -2.8913  -2.8406  -2.8344  -2.7150  -2.6412
    -2.6307  -2.6111  -2.4584  -2.4270  -2.3787  -2.3324  -2.2906  -2.2392
    -2.2215  -2.2113  -2.1961  -2.1721  -2.1619  -2.0535  -1.9975  -1.9117
    -1.8554  -1.8316  -1.7821  -1.7652  -1.7392  -1.7202  -1.7101  -1.6640
    -1.6392  -1.6244  -1.5704  -1.4577  -1.3534  -1.3031  -1.1847  -1.0684
    -1.0301  -1.0159  -0.9611  -0.9267  -0.9153  -0.8452  -0.8076  -0.7770
    -0.6997  -0.6604  -0.5924  -0.5446  -0.4778  -0.4613  -0.4184  -0.3559
    -0.2483  -0.2126  -0.1976  -0.1692  -0.0738  -0.0416   0.0082   0.0892
     0.0948   0.1080   0.2117   0.2260   0.2974   0.3466   0.3643   0.4504
     0.4847   0.4997   0.5035   0.5298   0.5538   0.6093   0.6427   0.6703
     0.7455   0.8690   1.0911   1.1613   1.1812   1.5064   1.5165   1.6113
     1.7946   2.1870   2.2357   3.6774   3.7396   3.8226   3.8241   3.8324
     3.9092   4.1429   4.1644   4.1772   4.1799   4.1997

[...]

          k =-0.0760-0.0000 0.0000 ( 17886 PWs)   bands (ev):

[...]

 ------ SPIN DOWN ----------

[...]

          k = 0.0380-0.0419 0.0000 ( 17876 PWs)   bands (ev):

[...]

          k =-0.0760-0.0839 0.0000 ( 17948 PWs)   bands (ev):

   -55.4190 -55.4090 -55.3741 -55.3733 -55.3533 -55.3061 -55.2962 -55.2946
   -55.2371 -55.2365 -55.2326 -55.2062 -55.2057 -55.1039 -54.3950 -54.3947
   -31.8075 -31.8018 -31.8003 -31.7130 -31.6931 -31.6926 -31.6903 -31.6668
   -31.6663 -31.6416 -31.6345 -31.6302 -31.6229 -31.5980 -31.5850 -31.5765
   -31.5695 -31.5667 -31.5652 -31.5576 -31.5556 -31.5551 -31.5179 -31.5154
   -31.5056 -31.5025 -31.5009 -31.4952 -31.4944 -31.4892 -31.4855 -31.4695
   -31.4657 -31.4499 -31.4460 -31.4340 -31.4312 -31.4247 -31.3882 -31.3879
   -31.3697 -31.3134 -30.7177 -30.7175 -30.6335 -30.6334 -30.5941 -30.5941
   -16.1642 -15.7664 -15.6789 -15.6312 -15.4671 -15.4342 -15.4138 -15.3966
   -15.2660 -15.2401 -15.2155 -15.1974 -15.1757 -15.1388 -15.1331 -15.1280
   -15.0517 -15.0357 -15.0309 -15.0128 -14.9499 -14.9403 -14.9372 -14.9300
   -14.8789 -14.8753 -14.8109 -14.7836 -14.7804 -14.5651 -12.8980 -12.8975
   -10.2156  -6.2755  -4.8278  -3.9222  -2.9510  -2.9271  -2.8854  -2.8823
    -2.6845  -2.6330  -2.5993  -2.5723  -2.4840  -2.4485  -2.4249  -2.4210
    -2.3498  -2.3327  -2.3148  -2.2733  -2.2665  -2.2520  -2.2294  -2.1934
    -2.1665  -2.1577  -2.1510  -2.1282  -2.0842  -2.0706  -2.0528  -2.0297
    -2.0252  -2.0142  -1.9867  -1.9390  -1.8129  -1.8038  -1.7291  -1.6388
    -1.6339  -1.5581  -1.5414  -1.4930  -1.4777  -1.4637  -1.4202  -1.2381
    -1.2005  -1.1781  -1.1680  -1.0980  -1.0410  -1.0243  -0.9511  -0.9351
    -0.9187  -0.8102  -0.7631  -0.7519  -0.6589  -0.6496  -0.5715  -0.5062
    -0.4578  -0.4366  -0.3891  -0.3859  -0.3815  -0.3377  -0.3308  -0.2453
    -0.2013  -0.1651  -0.1513  -0.1183   0.0832   0.0891   0.1112   0.2549
     0.2868   0.4109   0.4432   0.4959   0.5718   0.6054   0.6809   0.7156
     0.8480   0.8759   0.8769   0.9490   0.9583   1.0219   1.0316   1.9678
     1.9686   2.0557   2.0558   3.8232   3.9070   3.9273   3.9668   4.0825
     4.1571   4.1773   4.1997   4.2482   4.2513   4.3092

     the Fermi energy is     3.7306 ev

!    total energy              =   -2921.63333994 Ry
     estimated scf accuracy    <       0.00000007 Ry
     smearing contrib. (-TS)   =      -0.03703086 Ry
     internal energy E=F+TS    =   -2921.59630909 Ry

     The total energy is F=E-TS. E is the sum of the following terms:
     one-electron contribution =  -24001.70445266 Ry
     hartree contribution      =   12089.97255274 Ry
     xc contribution           =    -481.73734666 Ry
     ewald contribution        =    9471.86973814 Ry
     electric field correction =       0.00319936 Ry

     total magnetization       =    -0.08 Bohr mag/cell
     absolute magnetization    =     0.11 Bohr mag/cell

     convergence has been achieved in  69 iterations

     Forces acting on atoms (cartesian axes, Ry/au):

     atom    1 type  1   force =     0.00019524   -0.00022030    0.09326062
     atom    2 type  1   force =    -0.00004241   -0.00042088   -0.17832903
     atom    3 type  2   force =     0.00007985   -0.00039613   -0.02016809
     atom    4 type  2   force =     0.00001479   -0.00194824    0.05889566
     atom    5 type  2   force =    -0.01034534   -0.00094507    0.00824514
     atom    6 type  2   force =     0.01152941   -0.00018295    0.00657804
     atom    7 type  1   force =    -0.00063159    0.00208208   -0.01451429
     atom    8 type  1   force =     0.00067775   -0.00094635   -0.00516691
     atom    9 type  2   force =     0.00014317    0.00031383    0.00008325
     atom   10 type  2   force =    -0.00249376    0.00189620    0.00101887
     atom   11 type  2   force =    -0.00016365    0.00004172    0.00029042
     atom   12 type  2   force =     0.00002238    0.00030340    0.00017982
     atom   13 type  1   force =    -0.00001899    0.00007363    0.00004563
     atom   14 type  1   force =     0.00006190   -0.00003290    0.00011198
     atom   15 type  2   force =     0.00006958   -0.00015037   -0.00002501
     atom   16 type  2   force =     0.00034642    0.00000327   -0.00002541
     atom   17 type  2   force =     0.00009300   -0.00036227    0.00008387
     atom   18 type  2   force =     0.00005183   -0.00000894   -0.00003311
     atom   19 type  1   force =     0.00045091   -0.00002690    0.00047879
     atom   20 type  1   force =     0.00031079    0.00040625    0.00021775
     atom   21 type  2   force =     0.00014181   -0.00008912    0.10394888
     atom   22 type  2   force =     0.00012221    0.00059412    0.00059114
     atom   23 type  2   force =    -0.07032739   -0.00018650   -0.02691897
     atom   24 type  2   force =     0.07034284    0.00027003   -0.02695036
     atom   25 type  1   force =     0.00014136   -0.00019302    0.09283789
     atom   26 type  1   force =    -0.00005381   -0.00052920   -0.17835006
     atom   27 type  2   force =     0.00011560   -0.00026251   -0.01923930
     atom   28 type  2   force =     0.00008647   -0.00171182    0.05821083
     atom   29 type  2   force =    -0.01084476   -0.00099233    0.00882107
     atom   30 type  2   force =     0.01195161   -0.00068428    0.00713863
     atom   31 type  1   force =    -0.00065747    0.00612376   -0.01533144
     atom   32 type  1   force =     0.00081555    0.00035752   -0.00556325
     atom   33 type  2   force =    -0.00037686   -0.00032451    0.00017325
     atom   34 type  2   force =    -0.00224111   -0.00204285   -0.00001096
     atom   35 type  2   force =    -0.00073531    0.00026155    0.00034991
     atom   36 type  2   force =     0.00076421   -0.00010424   -0.00017222
     atom   37 type  1   force =     0.00003967    0.00022121    0.00001293
     atom   38 type  1   force =    -0.00029224    0.00023163    0.00048680
     atom   39 type  2   force =    -0.00036981   -0.00007756   -0.00001303
     atom   40 type  2   force =    -0.00006064   -0.00008857    0.00035497
     atom   41 type  2   force =    -0.00028682    0.00006732   -0.00010206
     atom   42 type  2   force =     0.00039272   -0.00018697   -0.00018268
     atom   43 type  1   force =    -0.00029816   -0.00000443    0.00006514
     atom   44 type  1   force =     0.00032963   -0.00007914   -0.00015866
     atom   45 type  2   force =     0.00012583   -0.00010931    0.10392708
     atom   46 type  2   force =    -0.07031107   -0.00012226   -0.02687363
     atom   47 type  2   force =     0.07030517    0.00029332   -0.02690945
     atom   48 type  3   force =     0.00049388   -0.00027017    0.00022192
     atom   49 type  3   force =     0.00067486    0.00080067   -0.00108631
     atom   50 type  4   force =    -0.00355476   -0.00054309   -0.00464168
     atom   51 type  5   force =    -0.00098326    0.00073561    0.01821659
     atom   52 type  3   force =     0.00013475   -0.00019044   -0.00185585
     atom   53 type  3   force =     0.00266997    0.00163989   -0.00948996
     atom   54 type  3   force =     0.00139406   -0.00228341   -0.00273519

     Total force =     0.366956     Total SCF correction =     0.000270
  @ DRIVER MODE: Message from server: STATUS
  @ DRIVER MODE: Message from server: GETFORCE
  @ DRIVER MODE: Returning v,forces,stress,ensemble

     Writing output data file ./calc.save/
  @ DRIVER MODE: Message from server: EXIT
  @ DRIVE MODE: Exiting

     General routines

     Parallel routines

   This run was terminated on:  12:20:19  17Jul2021

   JOB DONE.