     Program PWSCF v.6.7GPU starts on 16Sep2021 at 10:21:19

     R & G space division:  proc/nbgrp/npool/nimage =      10
     Reading input from /storage/home/hcoda1/3/ntian30/research/carbon/CxH_vib/H2O_calc/ads_slab/CH3NNH3H2O_a/out_0053/pw.inp
Warning: card &CELL ignored
Warning: card   CELL_DYNAMICS='IPI', ignored
Warning: card / ignored

     Current dimensions of program PWSCF are:
     Max number of different atomic species (ntypx) = 10
     Max number of k-points (npk) =  40000
     Max angular momentum in pseudopotentials (lmaxx) =  3
     Presently no symmetry can be used with electric field

     Message from routine cell_base_init:
     DEPRECATED: use true lattice parameter, not A to a.u. conversion factor

     IMPORTANT: XC functional enforced from input :
     Exchange-correlation= BEEF-VDW
                           (   1   4  43  14   2   0   0)
     Any further DFT definition will be discarded
     Please, verify this is what you really want

  @ DRIVER MODE: Connecting to
 qe_1139763_2852621.sched-torque.pace.gatech.edud7yhzjsh_scratch
  using UNIX socket
  @ DRIVER MODE: Message from server: STATUS
  @ DRIVER MODE: Message from server: INIT
  @ DRIVER MODE: Receiving replica           0          -1
  @ DRIVER MODE: Receiving encoded integer          25
  @ DRIVER MODE:  SCF:  T  FORCE:  T  STRESS:  F  VC:  F  ENSEMBLE:  F
  @ DRIVER MODE:  SCF:  T  FORCE:  T  STRESS:  F  VC:  F  ENSEMBLE:  F

     Using Slab Decomposition

     bravais-lattice index     =            0
     lattice parameter (alat)  =       1.8897  a.u.
     unit-cell volume          =    6658.9804 (a.u.)^3
     number of atoms/cell      =           59
     number of atomic types    =            5
     number of electrons       =       406.00
     number of Kohn-Sham states=          213
     kinetic-energy cutoff     =      29.3995  Ry
     charge density cutoff     =     293.9946  Ry
     scf convergence threshold =      7.3E-08
     mixing beta               =       0.0500
     number of iterations used =            8  plain     mixing
     Exchange-correlation= BEEF-VDW
                           (   1   4  43  14   2   0   0)

     celldm(1)=   1.889726  celldm(2)=   0.000000  celldm(3)=   0.000000
     celldm(4)=   0.000000  celldm(5)=   0.000000  celldm(6)=   0.000000

     crystal axes: (cart. coord. in units of alat)
               a(1) = (   6.579727   0.000000   0.000000 )
               a(2) = (  -0.000775   5.961596   0.000000 )
               a(3) = (   0.000000   0.000000  25.155947 )

     reciprocal axes: (cart. coord. in units 2 pi/alat)
               b(1) = (  0.151982  0.000020  0.000000 )
               b(2) = (  0.000000  0.167740  0.000000 )
               b(3) = (  0.000000  0.000000  0.039752 )

     PseudoPot. # 1 for Ti read from file:
     /storage/coda1/p-amedford6/0/shared/rich_project_chbe-medford/medford-share/data/pseudos_module/espresso/nninc/pbe/van/Ti.UPF
     MD5 check sum: 8e4df49b7f0d34bbd5052bf3f5ea0213
     Pseudo is Ultrasoft, Zval = 12.0
     Generated by new atomic code, or converted to UPF format
     Using radial grid of  851 points,  6 beta functions with:
                l(1) =   0
                l(2) =   0
                l(3) =   1
                l(4) =   1
                l(5) =   2
                l(6) =   2
     Q(r) pseudized with  8 coefficients,  rinner =    1.000   1.000   1.000
                                                       1.000   1.000

     PseudoPot. # 2 for O  read from file:
     /storage/coda1/p-amedford6/0/shared/rich_project_chbe-medford/medford-share/data/pseudos_module/espresso/nninc/pbe/van/O.UPF
     MD5 check sum: 78c19812648e8988a0fe644b0f25305e
     Pseudo is Ultrasoft, Zval =  6.0
     Generated by new atomic code, or converted to UPF format
     Using radial grid of  737 points,  4 beta functions with:
                l(1) =   0
                l(2) =   0
                l(3) =   1
                l(4) =   1
     Q(r) pseudized with  8 coefficients,  rinner =    0.800   0.800   0.800

     PseudoPot. # 3 for N  read from file:
     /storage/coda1/p-amedford6/0/shared/rich_project_chbe-medford/medford-share/data/pseudos_module/espresso/nninc/pbe/van/N.UPF
     MD5 check sum: 90d10febe142ad51ac9d5be1deb811c4
     Pseudo is Ultrasoft, Zval =  5.0
     Generated by new atomic code, or converted to UPF format
     Using radial grid of  729 points,  4 beta functions with:
                l(1) =   0
                l(2) =   0
                l(3) =   1
                l(4) =   1
     Q(r) pseudized with  8 coefficients,  rinner =    0.800   0.800   0.800

     PseudoPot. # 4 for C  read from file:
     /storage/coda1/p-amedford6/0/shared/rich_project_chbe-medford/medford-share/data/pseudos_module/espresso/nninc/pbe/van/C.UPF
     MD5 check sum: 1a69bf6b8db32088f5b2163dbdb77a27
     Pseudo is Ultrasoft, Zval =  4.0
     Generated by new atomic code, or converted to UPF format
     Using radial grid of  721 points,  4 beta functions with:
                l(1) =   0
                l(2) =   0
                l(3) =   1
                l(4) =   1
     Q(r) pseudized with  8 coefficients,  rinner =    0.800   0.800   0.800

     PseudoPot. # 5 for H  read from file:
     /storage/coda1/p-amedford6/0/shared/rich_project_chbe-medford/medford-share/data/pseudos_module/espresso/nninc/pbe/van/H.UPF
     MD5 check sum: b5ee9d7bfd3a09ee7748110bda690ff7
     Pseudo is Ultrasoft, Zval =  1.0
     Generated by new atomic code, or converted to UPF format
     Using radial grid of  615 points,  1 beta functions with:
                l(1) =   0
     Q(r) pseudized with  8 coefficients,  rinner =    0.800

     atomic species   valence    mass     pseudopotential
        Ti1           12.00    47.86700     Ti( 1.00)
        O1             6.00    15.99900     O ( 1.00)
        N1             5.00    14.00700     N ( 1.00)
        C1             4.00    12.01100     C ( 1.00)
        H1             1.00     1.00800     H ( 1.00)

     No symmetry found

   Cartesian axes

     site n.     atom                  positions (alat units)
         1           Ti1 tau(   1) = (   0.0004258   2.9801865   6.0000000  )
         2           Ti1 tau(   2) = (   3.2906075   1.4906267   6.0002472  )
         3           O1  tau(   3) = (   0.0006271   0.0005054   7.9858123  )
         4           O1  tau(   4) = (   3.2906025   0.0005020   7.3038282  )
         5           O1  tau(   5) = (   4.5942328   1.4918067   9.2879030  )
         6           O1  tau(   6) = (   1.9868534   1.4903216   9.2879459  )
         7           Ti1 tau(   7) = (   3.2907910   2.8959150   9.1758416  )
         8           Ti1 tau(   8) = (   0.0015273   1.4827037   9.2680791  )
         9           O1  tau(   9) = (   3.2954490   0.0159868  11.2922163  )
        10           O1  tau(  10) = (   0.0116148   5.9584955  10.6183126  )
        11           O1  tau(  11) = (   1.3242731   1.5050266  12.6143764  )
        12           O1  tau(  12) = (   5.3073597   1.5103589  12.6267567  )
        13           Ti1 tau(  13) = (   6.4831477   3.0011104  12.7364612  )
        14           Ti1 tau(  14) = (   3.1751638   1.4975352  12.4748964  )
        15           O1  tau(  15) = (   0.0212859   5.9607631  14.5987152  )
        16           O1  tau(  16) = (   3.3058086   0.0238703  13.8910224  )
        17           O1  tau(  17) = (   4.5539421   1.5574750  15.9960573  )
        18           O1  tau(  18) = (   2.0731809   1.5597727  15.9888445  )
        19           Ti1 tau(  19) = (   3.3176354   3.0289328  15.6523405  )
        20           Ti1 tau(  20) = (   0.0198791   1.6227889  16.0606591  )
        21           O1  tau(  21) = (   3.2904802   0.0005063   4.7018136  )
        22           O1  tau(  22) = (   0.0290054   0.0533443  17.2129705  )
        23           O1  tau(  23) = (   1.3043587   1.4918075   6.0039043  )
        24           O1  tau(  24) = (   5.2767064   1.4903225   6.0039473  )
        25           Ti1 tau(  25) = (   0.0000382   5.9609847   6.0000000  )
        26           Ti1 tau(  26) = (   3.2902200   4.4714249   6.0002472  )
        27           O1  tau(  27) = (   0.0002396   2.9813036   7.9858123  )
        28           O1  tau(  28) = (   3.2902150   2.9813002   7.3038282  )
        29           O1  tau(  29) = (   4.5938453   4.4726049   9.2879030  )
        30           O1  tau(  30) = (   1.9864658   4.4711199   9.2879459  )
        31           Ti1 tau(  31) = (   3.2891106   5.8743827   9.1763621  )
        32           Ti1 tau(  32) = (   0.0006254   4.4649316   9.2693709  )
        33           O1  tau(  33) = (   3.2918316   2.9938763  11.2915017  )
        34           O1  tau(  34) = (   0.0092240   2.9805883  10.6323155  )
        35           O1  tau(  35) = (   1.3226278   4.4784642  12.6110361  )
        36           O1  tau(  36) = (   5.3078083   4.4770455  12.6250823  )
        37           Ti1 tau(  37) = (   6.5141033   0.0190828  12.7620745  )
        38           Ti1 tau(  38) = (   3.1722404   4.4939287  12.4712879  )
        39           O1  tau(  39) = (   0.0035410   2.9850241  14.6487316  )
        40           O1  tau(  40) = (   3.3118331   3.0109266  13.8519036  )
        41           O1  tau(  41) = (   4.5522870   4.5059159  16.0259181  )
        42           O1  tau(  42) = (   2.0778134   4.5048723  16.0185459  )
        43           Ti1 tau(  43) = (   3.3116469   0.0596163  15.7453941  )
        44           Ti1 tau(  44) = (   0.0183239   4.5967015  16.1059876  )
        45           O1  tau(  45) = (   3.2900926   2.9813045   4.7018136  )
        46           O1  tau(  46) = (   1.3039711   4.4726057   6.0039043  )
        47           O1  tau(  47) = (   5.2763189   4.4711207   6.0039473  )
        48           N1  tau(  48) = (   0.0600715   3.0265251  17.3188267  )
        49           N1  tau(  49) = (   6.2826239   2.5295367  22.6224490  )
        50           C1  tau(  50) = (   0.2859397   3.0149959  18.7399364  )
        51           H1  tau(  51) = (   0.1411154   4.0060466  19.1894648  )
        52           H1  tau(  52) = (   6.1913215   2.3105648  19.2421896  )
        53           H1  tau(  53) = (   1.3125146   2.6868920  18.9691123  )
        54           H1  tau(  54) = (   6.1000088   3.2491606  23.3142794  )
        55           H1  tau(  55) = (   0.1456284   1.7586669  23.1118534  )
        56           H1  tau(  56) = (   0.3974265   2.9048463  21.9756970  )
        57           O1  tau(  57) = (   3.2908421   0.1144680  18.1630233  )
        58           H1  tau(  58) = (   4.0679411   5.5688996  18.4486002  )
        59           H1  tau(  59) = (   2.5060966   5.5711546  18.4327789  )

     number of k points=    10  Fermi-Dirac smearing, width (Ry)=  0.0073
                       cart. coord. in units 2pi/alat
        k(    1) = (   0.0000000   0.0000000   0.0000000), wk =   0.1250000
        k(    2) = (   0.0000000   0.0419351   0.0000000), wk =   0.2500000
        k(    3) = (   0.0000000  -0.0838702   0.0000000), wk =   0.1250000
        k(    4) = (   0.0379955   0.0000049   0.0000000), wk =   0.2500000
        k(    5) = (   0.0379955   0.0419400   0.0000000), wk =   0.2500000
        k(    6) = (   0.0379955  -0.0838652   0.0000000), wk =   0.2500000
        k(    7) = (   0.0379955  -0.0419301   0.0000000), wk =   0.2500000
        k(    8) = (  -0.0759910  -0.0000099   0.0000000), wk =   0.1250000
        k(    9) = (  -0.0759910   0.0419252   0.0000000), wk =   0.2500000
        k(   10) = (  -0.0759910  -0.0838800   0.0000000), wk =   0.1250000

     Initial potential from superposition of free atoms

     starting charge  389.99912, renormalised to  406.00000

     negative rho (up, down):  6.918E-03 0.000E+00

     %%%%%%%%%%%%%%%%%%%%%%%%%%%%%%%%%%%%%%%%%%%%%%%%%%%%%%%%%%%%%%%%%%%%%%%%
     %                                                                      %
     % You are using vdW-DF, which was implemented by the Thonhauser group. %
     % Please cite the following two papers that made this development      %
     % possible and the two reviews that describe the various versions:     %
     %                                                                      %
     %   T. Thonhauser et al., PRL 115, 136402 (2015).                      %
     %   T. Thonhauser et al., PRB 76, 125112 (2007).                       %
     %   K. Berland et al., Rep. Prog. Phys. 78, 066501 (2015).             %
     %   D.C. Langreth et al., J. Phys.: Condens. Matter 21, 084203 (2009). %
     %                                                                      %
     %                                                                      %
     % If you are calculating the stress with vdW-DF, please also cite:     %
     %                                                                      %
     %   R. Sabatini et al., J. Phys.: Condens. Matter 24, 424209 (2012).   %
     %                                                                      %
     %%%%%%%%%%%%%%%%%%%%%%%%%%%%%%%%%%%%%%%%%%%%%%%%%%%%%%%%%%%%%%%%%%%%%%%%

     Adding external electric field

     Computed dipole along edir(3) :
        Dipole              -16.2328 Ry au,        -41.2597 Debye
        Dipole field         -0.0306 Ry au,

        Potential amp.        2.8397 Ry
        Total length         46.3494 bohr

     Starting wfcs are  308 atomic wfcs
  @ DRIVER MODE: Message from server: STATUS
  @ DRIVER MODE: Message from server: POSDATA
  @ DRIVER MODE: Reading and sharing cell
  @ DRIVER MODE: Reading and sharing positions
  @ DRIVER MODE: Received positions

     Self-consistent Calculation

     iteration #  1     ecut=    29.40 Ry     beta= 0.05
     Davidson diagonalization with overlap
     c_bands:  2 eigenvalues not converged
     c_bands:  3 eigenvalues not converged
     c_bands:  5 eigenvalues not converged
     c_bands:  3 eigenvalues not converged
     c_bands:  3 eigenvalues not converged
     c_bands:  3 eigenvalues not converged
     c_bands:  1 eigenvalues not converged
     c_bands:  5 eigenvalues not converged
     c_bands:  3 eigenvalues not converged
     ethr =  1.00E-05,  avg # of iterations = 20.6

[...]

     total energy              =   -2253.49073331 Ry
     estimated scf accuracy    <    8262.93394407 Ry

     iteration #  2     ecut=    29.40 Ry     beta= 0.05
     Davidson diagonalization with overlap
     ethr =  1.00E-02,  avg # of iterations = 26.8

[...]

     iteration # 38     ecut=    29.40 Ry     beta= 0.05
     Davidson diagonalization with overlap
     c_bands:  1 eigenvalues not converged
     c_bands:  1 eigenvalues not converged
     c_bands:  1 eigenvalues not converged
     c_bands:  1 eigenvalues not converged
     ethr =  1.99E-06,  avg # of iterations = 15.8

[...]

     total energy              =   -2977.74436551 Ry
     estimated scf accuracy    <       0.00000009 Ry

     iteration # 73     ecut=    29.40 Ry     beta= 0.05
     Davidson diagonalization with overlap
     ethr =  2.28E-11,  avg # of iterations =  7.8

     negative rho (up, down):  8.772E-03 0.000E+00

     Adding external electric field

     Computed dipole along edir(3) :
        Dipole                0.7606 Ry au,          1.9331 Debye
        Dipole field          0.0014 Ry au,

        Potential amp.       -0.1330 Ry
        Total length         46.3494 bohr

     End of self-consistent calculation

          k = 0.0000 0.0000 0.0000 ( 18029 PWs)   bands (ev):

   -56.2641 -56.2305 -55.3814 -55.3474 -55.3389 -55.3040 -55.1559 -55.1207
   -55.0345 -54.9142 -54.8954 -54.8943 -54.8803 -54.8089 -54.3934 -54.3438
   -32.6908 -32.5385 -32.5104 -32.4404 -32.3495 -32.3169 -31.8491 -31.8211
   -31.6914 -31.6470 -31.5983 -31.5803 -31.5502 -31.5410 -31.5121 -31.5070
   -31.4883 -31.4822 -31.4601 -31.4453 -31.4320 -31.3828 -31.3724 -31.3337
   -31.3212 -31.3051 -31.2962 -31.2822 -31.2587 -31.2578 -31.2538 -31.2296
   -31.1343 -31.1242 -31.0841 -31.0733 -31.0462 -31.0411 -31.0317 -31.0132
   -30.9825 -30.9302 -30.9081 -30.6370 -30.6148 -30.5837 -30.5628 -30.4540
   -18.4478 -16.4200 -15.9538 -15.7104 -15.6209 -15.5377 -15.4989 -15.4549
   -15.3027 -15.2353 -15.2127 -15.2123 -15.1415 -14.9933 -14.9461 -14.8482
   -14.7545 -14.6196 -14.6026 -14.5693 -14.5517 -14.5186 -14.5116 -14.4599
   -14.2966 -14.2608 -14.2127 -14.1498 -14.0644 -14.0057 -13.8393 -13.4123
   -13.3026 -12.6462  -7.4527  -6.2382  -4.0981  -4.0641  -3.9874  -3.4533
    -3.1841  -3.1565  -3.0280  -3.0232  -2.9780  -2.8380  -2.8301  -2.7566
    -2.7328  -2.6955  -2.6194  -2.5867  -2.5371  -2.4478  -2.4352  -2.4152
    -2.4019  -2.3861  -2.2644  -2.2229  -2.1707  -2.0671  -1.9590  -1.9159
    -1.8889  -1.8450  -1.8069  -1.7598  -1.7477  -1.7327  -1.7261  -1.6150
    -1.5008  -1.4680  -1.4530  -1.4069  -1.3887  -1.3798  -1.3578  -1.2727
    -1.1631  -1.0696  -1.0023  -0.9901  -0.9227  -0.9146  -0.8555  -0.7396
    -0.6788  -0.6744  -0.6584  -0.5549  -0.5281  -0.4568  -0.3940  -0.3359
    -0.2813  -0.2186  -0.1684  -0.1458  -0.1329  -0.0339   0.0377   0.0611
     0.1122   0.1217   0.1307   0.1513   0.2478   0.2837   0.3574   0.4020
     0.4382   0.4825   0.5654   0.6157   0.6834   0.7332   0.7562   0.8177
     0.8712   0.9266   1.0219   1.0757   1.0823   1.0925   1.1077   1.1680
     1.1818   1.2579   1.3411   1.3562   1.4288   1.4971   1.6578   1.6969
     1.9468   2.0183   2.6447   3.0130   3.1743   3.4696   3.6593   3.7969
     3.9922   4.0027   4.0097   4.2594   4.2704

[...]

          k = 0.0380-0.0419 0.0000 ( 17876 PWs)   bands (ev):

[...]

          k =-0.0760-0.0000 0.0000 ( 17886 PWs)   bands (ev):

[...]

          k =-0.0760-0.0839 0.0000 ( 17948 PWs)   bands (ev):

   -56.2474 -56.2470 -55.3663 -55.3620 -55.3264 -55.3167 -55.1394 -55.1371
   -55.0323 -54.8973 -54.8971 -54.8964 -54.8917 -54.8125 -54.3863 -54.3508
   -32.5244 -32.5240 -32.5077 -32.5076 -32.3936 -32.3932 -31.6728 -31.6669
   -31.6570 -31.6495 -31.5732 -31.5582 -31.5564 -31.5521 -31.5457 -31.5441
   -31.5383 -31.5296 -31.4975 -31.4810 -31.3850 -31.3829 -31.3492 -31.3435
   -31.3247 -31.2884 -31.2502 -31.2426 -31.2425 -31.2417 -31.2169 -31.1951
   -31.1520 -31.1220 -31.1218 -31.1179 -31.0953 -31.0829 -31.0828 -31.0676
   -31.0507 -31.0153 -30.7688 -30.7061 -30.6126 -30.5883 -30.5707 -30.5245
   -18.4469 -15.7706 -15.7686 -15.7335 -15.7328 -15.4658 -15.4625 -15.3690
   -15.3637 -15.2292 -15.1123 -15.0106 -14.9978 -14.9624 -14.9352 -14.8233
   -14.8025 -14.7933 -14.7832 -14.6717 -14.6515 -14.6062 -14.5950 -14.5787
   -14.5685 -14.2747 -14.2615 -14.1585 -14.1347 -14.0049 -13.9925 -13.4062
   -13.4062 -12.6648  -7.4464  -6.2307  -4.1082  -4.0658  -2.8670  -2.8600
    -2.8235  -2.8055  -2.8046  -2.7463  -2.6402  -2.6007  -2.5987  -2.5975
    -2.5163  -2.4489  -2.4409  -2.3696  -2.3367  -2.3173  -2.2592  -2.2486
    -2.1831  -2.1569  -2.1486  -2.1321  -2.1086  -2.1074  -2.0112  -1.9485
    -1.8967  -1.8932  -1.8260  -1.8078  -1.7438  -1.7230  -1.7115  -1.6798
    -1.6381  -1.6153  -1.5835  -1.5497  -1.5089  -1.4492  -1.2824  -1.2734
    -1.2640  -1.2425  -1.1173  -1.1106  -1.0794  -1.0493  -1.0435  -0.9697
    -0.9198  -0.8848  -0.8272  -0.7437  -0.7212  -0.6194  -0.5684  -0.5222
    -0.4660  -0.3599  -0.3424  -0.3317  -0.3223  -0.2922  -0.2259  -0.1967
    -0.1810  -0.0605  -0.0409   0.0122   0.0333   0.0896   0.1158   0.1803
     0.2073   0.2789   0.2907   0.3298   0.4038   0.4850   0.5193   0.5674
     0.5720   0.8483   0.9221   1.0532   1.0789   1.1200   1.1786   1.2501
     1.3097   1.3421   1.3689   1.4920   1.4963   1.5055   1.5061   1.5776
     1.5826   1.9245   2.5220   3.5889   3.5892   3.6557   3.6564   3.9771
     3.9833   4.0903   4.1006   4.2615   4.2765

     the Fermi energy is     2.8409 ev

!    total energy              =   -2977.74437985 Ry
     estimated scf accuracy    <       0.00000006 Ry
     smearing contrib. (-TS)   =      -0.00445396 Ry
     internal energy E=F+TS    =   -2977.73992589 Ry

     The total energy is F=E-TS. E is the sum of the following terms:
     one-electron contribution =  -22876.06377942 Ry
     hartree contribution      =   11535.73334562 Ry
     xc contribution           =    -496.32137989 Ry
     ewald contribution        =    8858.91079619 Ry
     electric field correction =       0.00109159 Ry

     convergence has been achieved in  73 iterations

     Forces acting on atoms (cartesian axes, Ry/au):

     atom    1 type  1   force =    -0.00003332   -0.00046410    0.12450831
     atom    2 type  1   force =    -0.00009018   -0.00048342   -0.15979888
     atom    3 type  2   force =     0.00019103   -0.00024358   -0.06791450
     atom    4 type  2   force =    -0.00000685   -0.00011576    0.02622823
     atom    5 type  2   force =    -0.01448834    0.00181924   -0.00989316
     atom    6 type  2   force =     0.01626647    0.00224325   -0.01023791
     atom    7 type  1   force =     0.00071372   -0.00387447    0.02890504
     atom    8 type  1   force =    -0.00034664   -0.00439988    0.10955764
     atom    9 type  2   force =     0.00023653   -0.00029313   -0.00050667
     atom   10 type  2   force =    -0.00231557    0.00256587   -0.07334477
     atom   11 type  2   force =    -0.00002127   -0.00033641   -0.00000564
     atom   12 type  2   force =    -0.00015565   -0.00082617    0.00001713
     atom   13 type  1   force =     0.00106614   -0.00040747    0.00010898
     atom   14 type  1   force =    -0.00064854    0.00064513   -0.00010037
     atom   15 type  2   force =    -0.00028974   -0.00039093   -0.00076456
     atom   16 type  2   force =    -0.00001618   -0.00011168    0.00065439
     atom   17 type  2   force =     0.00015976   -0.00090964   -0.00020559
     atom   18 type  2   force =     0.00049546   -0.00052195    0.00012322
     atom   19 type  1   force =    -0.00113551   -0.00009839   -0.00097364
     atom   20 type  1   force =     0.00080911   -0.00014660   -0.00044411
     atom   21 type  2   force =     0.00004605   -0.00003673    0.09942873
     atom   22 type  2   force =     0.00002719   -0.00023438   -0.00038790
     atom   23 type  2   force =    -0.07968804   -0.00005623   -0.03249922
     atom   24 type  2   force =     0.07953183    0.00038224   -0.03255038
     atom   25 type  1   force =    -0.00000550   -0.00057374    0.12416178
     atom   26 type  1   force =    -0.00008831   -0.00062458   -0.15994942
     atom   27 type  2   force =     0.00030053   -0.00036208   -0.06697082
     atom   28 type  2   force =    -0.00002037    0.00015098    0.02514600
     atom   29 type  2   force =    -0.01511034    0.00192912   -0.00983003
     atom   30 type  2   force =     0.01678663    0.00242898   -0.01014356
     atom   31 type  1   force =     0.00074269   -0.00075422    0.02408248
     atom   32 type  1   force =    -0.00027651    0.00204858    0.11018006
     atom   33 type  2   force =     0.00007541    0.00029316    0.00058948
     atom   34 type  2   force =    -0.00193816    0.00200044   -0.07165888
     atom   35 type  2   force =    -0.00001537    0.00034379   -0.00001948
     atom   36 type  2   force =    -0.00053413    0.00061062   -0.00005935
     atom   37 type  1   force =     0.00120371    0.00042884    0.00028806
     atom   38 type  1   force =    -0.00054224   -0.00088305   -0.00021578
     atom   39 type  2   force =    -0.00027556   -0.00014788    0.00087349
     atom   40 type  2   force =     0.00017778   -0.00012905    0.00022233
     atom   41 type  2   force =     0.00103186    0.00015478    0.00016347
     atom   42 type  2   force =    -0.00049557   -0.00023459    0.00053731
     atom   43 type  1   force =    -0.00159052    0.00000920   -0.00029443
     atom   44 type  1   force =     0.00091371   -0.00013328   -0.00038443
     atom   45 type  2   force =     0.00002155   -0.00004760    0.09939278
     atom   46 type  2   force =    -0.07970380    0.00000263   -0.03251124
     atom   47 type  2   force =     0.07955592    0.00043673   -0.03253954
     atom   48 type  3   force =    -0.00087113   -0.00076506   -0.00042281
     atom   49 type  3   force =     0.00520966    0.00238531   -0.00510874
     atom   50 type  4   force =    -0.00023851   -0.00010244    0.00004366
     atom   51 type  5   force =    -0.00020984    0.00039300    0.00027401
     atom   52 type  5   force =    -0.00007477   -0.00054806    0.00072033
     atom   53 type  5   force =     0.00051692   -0.00014633    0.00020106
     atom   54 type  5   force =     0.00077981    0.00021457   -0.00127632
     atom   55 type  5   force =     0.00056639    0.00055584   -0.00078251
     atom   56 type  5   force =    -0.00651466   -0.00319774    0.00574560
     atom   57 type  2   force =     0.00159043   -0.00047992   -0.00037861
     atom   58 type  5   force =    -0.00047443    0.00090513    0.00003963
     atom   59 type  5   force =    -0.00080072    0.00013312   -0.00001998

     Total force =     0.423703     Total SCF correction =     0.000725
  @ DRIVER MODE: Message from server: STATUS
  @ DRIVER MODE: Message from server: GETFORCE
  @ DRIVER MODE: Returning v,forces,stress,ensemble

     Writing output data file ./calc.save/
  @ DRIVER MODE: Message from server: EXIT
  @ DRIVE MODE: Exiting

     General routines

     Parallel routines

   This run was terminated on:  10:40:33  16Sep2021

   JOB DONE.