     Program PWSCF v.6.7GPU starts on 23Sep2021 at  3:18:14

     R & G space division:  proc/nbgrp/npool/nimage =       8
     Reading input from /storage/home/hcoda1/3/ntian30/research/carbon/CxH_vib/H2O_calc/ads_slab/CH2NHHO_a/out_0013/pw.inp
Warning: card &CELL ignored
Warning: card   CELL_DYNAMICS='IPI', ignored
Warning: card / ignored

     Current dimensions of program PWSCF are:
     Max number of different atomic species (ntypx) = 10
     Max number of k-points (npk) =  40000
     Max angular momentum in pseudopotentials (lmaxx) =  3
     Presently no symmetry can be used with electric field

     Message from routine cell_base_init:
     DEPRECATED: use true lattice parameter, not A to a.u. conversion factor

     IMPORTANT: XC functional enforced from input :
     Exchange-correlation= BEEF-VDW
                           (   1   4  43  14   2   0   0)
     Any further DFT definition will be discarded
     Please, verify this is what you really want

  @ DRIVER MODE: Connecting to
 qe_1139763_2941012.sched-torque.pace.gatech.edui5ie5b7z_scratch
  using UNIX socket
  @ DRIVER MODE: Message from server: STATUS
  @ DRIVER MODE: Message from server: INIT
  @ DRIVER MODE: Receiving replica           0          -1
  @ DRIVER MODE: Receiving encoded integer          25
  @ DRIVER MODE:  SCF:  T  FORCE:  T  STRESS:  F  VC:  F  ENSEMBLE:  F
  @ DRIVER MODE:  SCF:  T  FORCE:  T  STRESS:  F  VC:  F  ENSEMBLE:  F

     Using Slab Decomposition

     bravais-lattice index     =            0
     lattice parameter (alat)  =       1.8897  a.u.
     unit-cell volume          =    6658.9804 (a.u.)^3
     number of atoms/cell      =           54
     number of atomic types    =            5
     number of electrons       =       397.00
     number of Kohn-Sham states=          208
     kinetic-energy cutoff     =      29.3995  Ry
     charge density cutoff     =     293.9946  Ry
     scf convergence threshold =      7.3E-08
     mixing beta               =       0.0500
     number of iterations used =            8  plain     mixing
     Exchange-correlation= BEEF-VDW
                           (   1   4  43  14   2   0   0)

     celldm(1)=   1.889726  celldm(2)=   0.000000  celldm(3)=   0.000000
     celldm(4)=   0.000000  celldm(5)=   0.000000  celldm(6)=   0.000000

     crystal axes: (cart. coord. in units of alat)
               a(1) = (   6.579727   0.000000   0.000000 )
               a(2) = (  -0.000775   5.961596   0.000000 )
               a(3) = (   0.000000   0.000000  25.155947 )

     reciprocal axes: (cart. coord. in units 2 pi/alat)
               b(1) = (  0.151982  0.000020  0.000000 )
               b(2) = (  0.000000  0.167740  0.000000 )
               b(3) = (  0.000000  0.000000  0.039752 )

     PseudoPot. # 1 for Ti read from file:
     /storage/coda1/p-amedford6/0/shared/rich_project_chbe-medford/medford-share/data/pseudos_module/espresso/nninc/pbe/van/Ti.UPF
     MD5 check sum: 8e4df49b7f0d34bbd5052bf3f5ea0213
     Pseudo is Ultrasoft, Zval = 12.0
     Generated by new atomic code, or converted to UPF format
     Using radial grid of  851 points,  6 beta functions with:
                l(1) =   0
                l(2) =   0
                l(3) =   1
                l(4) =   1
                l(5) =   2
                l(6) =   2
     Q(r) pseudized with  8 coefficients,  rinner =    1.000   1.000   1.000
                                                       1.000   1.000

     PseudoPot. # 2 for O  read from file:
     /storage/coda1/p-amedford6/0/shared/rich_project_chbe-medford/medford-share/data/pseudos_module/espresso/nninc/pbe/van/O.UPF
     MD5 check sum: 78c19812648e8988a0fe644b0f25305e
     Pseudo is Ultrasoft, Zval =  6.0
     Generated by new atomic code, or converted to UPF format
     Using radial grid of  737 points,  4 beta functions with:
                l(1) =   0
                l(2) =   0
                l(3) =   1
                l(4) =   1
     Q(r) pseudized with  8 coefficients,  rinner =    0.800   0.800   0.800

     PseudoPot. # 3 for N  read from file:
     /storage/coda1/p-amedford6/0/shared/rich_project_chbe-medford/medford-share/data/pseudos_module/espresso/nninc/pbe/van/N.UPF
     MD5 check sum: 90d10febe142ad51ac9d5be1deb811c4
     Pseudo is Ultrasoft, Zval =  5.0
     Generated by new atomic code, or converted to UPF format
     Using radial grid of  729 points,  4 beta functions with:
                l(1) =   0
                l(2) =   0
                l(3) =   1
                l(4) =   1
     Q(r) pseudized with  8 coefficients,  rinner =    0.800   0.800   0.800

     PseudoPot. # 4 for C  read from file:
     /storage/coda1/p-amedford6/0/shared/rich_project_chbe-medford/medford-share/data/pseudos_module/espresso/nninc/pbe/van/C.UPF
     MD5 check sum: 1a69bf6b8db32088f5b2163dbdb77a27
     Pseudo is Ultrasoft, Zval =  4.0
     Generated by new atomic code, or converted to UPF format
     Using radial grid of  721 points,  4 beta functions with:
                l(1) =   0
                l(2) =   0
                l(3) =   1
                l(4) =   1
     Q(r) pseudized with  8 coefficients,  rinner =    0.800   0.800   0.800

     PseudoPot. # 5 for H  read from file:
     /storage/coda1/p-amedford6/0/shared/rich_project_chbe-medford/medford-share/data/pseudos_module/espresso/nninc/pbe/van/H.UPF
     MD5 check sum: b5ee9d7bfd3a09ee7748110bda690ff7
     Pseudo is Ultrasoft, Zval =  1.0
     Generated by new atomic code, or converted to UPF format
     Using radial grid of  615 points,  1 beta functions with:
                l(1) =   0
     Q(r) pseudized with  8 coefficients,  rinner =    0.800

     atomic species   valence    mass     pseudopotential
        Ti1           12.00    47.86700     Ti( 1.00)
        O1             6.00    15.99900     O ( 1.00)
        N1             5.00    14.00700     N ( 1.00)
        C1             4.00    12.01100     C ( 1.00)
        H1             1.00     1.00800     H ( 1.00)

     No symmetry found

   Cartesian axes

     site n.     atom                  positions (alat units)
         1           Ti1 tau(   1) = (   0.0004258   2.9801865   6.0000000  )
         2           Ti1 tau(   2) = (   3.2906075   1.4906267   6.0002472  )
         3           O1  tau(   3) = (   0.0006271   0.0005054   7.9858123  )
         4           O1  tau(   4) = (   3.2906025   0.0005020   7.3038282  )
         5           O1  tau(   5) = (   4.5942328   1.4918067   9.2879030  )
         6           O1  tau(   6) = (   1.9868534   1.4903216   9.2879459  )
         7           Ti1 tau(   7) = (   3.2907910   2.8959150   9.1758416  )
         8           Ti1 tau(   8) = (   0.0015273   1.4827037   9.2680791  )
         9           O1  tau(   9) = (   3.2872377   5.9372537  11.3619719  )
        10           O1  tau(  10) = (   0.0116148   5.9584955  10.6183126  )
        11           O1  tau(  11) = (   1.2678424   1.4880610  12.6451974  )
        12           O1  tau(  12) = (   5.2928823   1.5036634  12.6399001  )
        13           Ti1 tau(  13) = (   6.5521701   2.9315368  12.5404127  )
        14           Ti1 tau(  14) = (   3.2895327   1.2997526  12.7137971  )
        15           O1  tau(  15) = (   6.5477037   0.0845492  14.6505624  )
        16           O1  tau(  16) = (   3.2827468   0.0880329  14.0175491  )
        17           O1  tau(  17) = (   4.5427558   1.5765460  16.1196870  )
        18           O1  tau(  18) = (   1.9971221   1.5491956  16.2097298  )
        19           Ti1 tau(  19) = (   3.2670693   3.0250103  15.6873951  )
        20           Ti1 tau(  20) = (   6.4806419   1.4532933  16.0069425  )
        21           O1  tau(  21) = (   3.2904802   0.0005063   4.7018136  )
        22           O1  tau(  22) = (   6.5100566   5.8635464  17.1664964  )
        23           O1  tau(  23) = (   1.3043587   1.4918075   6.0039043  )
        24           O1  tau(  24) = (   5.2767064   1.4903225   6.0039473  )
        25           Ti1 tau(  25) = (   0.0000382   5.9609847   6.0000000  )
        26           Ti1 tau(  26) = (   3.2902200   4.4714249   6.0002472  )
        27           O1  tau(  27) = (   0.0002396   2.9813036   7.9858123  )
        28           O1  tau(  28) = (   3.2902150   2.9813002   7.3038282  )
        29           O1  tau(  29) = (   4.5938453   4.4726049   9.2879030  )
        30           O1  tau(  30) = (   1.9864658   4.4711199   9.2879459  )
        31           Ti1 tau(  31) = (   3.2891106   5.8743827   9.1763621  )
        32           Ti1 tau(  32) = (   0.0006254   4.4649316   9.2693709  )
        33           O1  tau(  33) = (   3.2826969   3.0075535  11.3127327  )
        34           O1  tau(  34) = (   0.0092240   2.9805883  10.6323155  )
        35           O1  tau(  35) = (   1.2713698   4.4757098  12.6731835  )
        36           O1  tau(  36) = (   5.2977781   4.4601507  12.6712348  )
        37           Ti1 tau(  37) = (   0.0330522   5.9225719  12.5042524  )
        38           Ti1 tau(  38) = (   3.2990360   4.3766664  12.4405836  )
        39           O1  tau(  39) = (   0.0150134   2.9421642  14.8567636  )
        40           O1  tau(  40) = (   3.2596324   2.9836344  13.9148061  )
        41           O1  tau(  41) = (   4.5490916   4.3969069  16.0525170  )
        42           O1  tau(  42) = (   1.9960638   4.4622821  16.0939853  )
        43           Ti1 tau(  43) = (   3.1777156   0.0378257  16.2738330  )
        44           Ti1 tau(  44) = (   6.5243348   4.6462111  15.7996153  )
        45           O1  tau(  45) = (   3.2900926   2.9813045   4.7018136  )
        46           O1  tau(  46) = (   1.3039711   4.4726057   6.0039043  )
        47           O1  tau(  47) = (   5.2763189   4.4711207   6.0039473  )
        48           N1  tau(  48) = (   6.4646383   2.7559932  17.9272311  )
        49           C1  tau(  49) = (   0.7552072   2.7164238  18.8602713  )
        50           H1  tau(  50) = (   0.5816026   3.1878006  19.8266510  )
        51           H1  tau(  51) = (   1.6887153   2.1901376  18.6919226  )
        52           H1  tau(  52) = (   5.6107037   3.2511282  18.1874541  )
        53           O1  tau(  53) = (   3.4589997   5.9358250  18.1144358  )
        54           H1  tau(  54) = (   4.3999295   5.9567086  18.3589960  )

     number of k points=    10  Fermi-Dirac smearing, width (Ry)=  0.0073
                       cart. coord. in units 2pi/alat
        k(    1) = (   0.0000000   0.0000000   0.0000000), wk =   0.1250000
        k(    2) = (   0.0000000   0.0419351   0.0000000), wk =   0.2500000
        k(    3) = (   0.0000000  -0.0838702   0.0000000), wk =   0.1250000
        k(    4) = (   0.0379955   0.0000049   0.0000000), wk =   0.2500000
        k(    5) = (   0.0379955   0.0419400   0.0000000), wk =   0.2500000
        k(    6) = (   0.0379955  -0.0838652   0.0000000), wk =   0.2500000
        k(    7) = (   0.0379955  -0.0419301   0.0000000), wk =   0.2500000
        k(    8) = (  -0.0759910  -0.0000099   0.0000000), wk =   0.1250000
        k(    9) = (  -0.0759910   0.0419252   0.0000000), wk =   0.2500000
        k(   10) = (  -0.0759910  -0.0838800   0.0000000), wk =   0.1250000

     Initial potential from superposition of free atoms

     starting charge  380.99916, renormalised to  397.00000

     negative rho (up, down):  1.654E-02 0.000E+00

     %%%%%%%%%%%%%%%%%%%%%%%%%%%%%%%%%%%%%%%%%%%%%%%%%%%%%%%%%%%%%%%%%%%%%%%%
     %                                                                      %
     % You are using vdW-DF, which was implemented by the Thonhauser group. %
     % Please cite the following two papers that made this development      %
     % possible and the two reviews that describe the various versions:     %
     %                                                                      %
     %   T. Thonhauser et al., PRL 115, 136402 (2015).                      %
     %   T. Thonhauser et al., PRB 76, 125112 (2007).                       %
     %   K. Berland et al., Rep. Prog. Phys. 78, 066501 (2015).             %
     %   D.C. Langreth et al., J. Phys.: Condens. Matter 21, 084203 (2009). %
     %                                                                      %
     %                                                                      %
     % If you are calculating the stress with vdW-DF, please also cite:     %
     %                                                                      %
     %   R. Sabatini et al., J. Phys.: Condens. Matter 24, 424209 (2012).   %
     %                                                                      %
     %%%%%%%%%%%%%%%%%%%%%%%%%%%%%%%%%%%%%%%%%%%%%%%%%%%%%%%%%%%%%%%%%%%%%%%%

     Adding external electric field

     Computed dipole along edir(3) :
        Dipole               -9.2998 Ry au,        -23.6378 Debye
        Dipole field         -0.0175 Ry au,

        Potential amp.        1.6269 Ry
        Total length         46.3494 bohr

     Starting wfcs are  300 atomic wfcs
  @ DRIVER MODE: Message from server: STATUS
  @ DRIVER MODE: Message from server: POSDATA
  @ DRIVER MODE: Reading and sharing cell
  @ DRIVER MODE: Reading and sharing positions
  @ DRIVER MODE: Received positions

     Self-consistent Calculation

     iteration #  1     ecut=    29.40 Ry     beta= 0.05
     Davidson diagonalization with overlap
     c_bands:  1 eigenvalues not converged
     c_bands:  1 eigenvalues not converged
     c_bands:  2 eigenvalues not converged
     c_bands:  1 eigenvalues not converged
     c_bands:  1 eigenvalues not converged
     c_bands:  2 eigenvalues not converged
     c_bands:  1 eigenvalues not converged
     c_bands:  1 eigenvalues not converged
     c_bands:  3 eigenvalues not converged
     ethr =  1.00E-05,  avg # of iterations = 19.6

[...]

     total energy              =   -2534.83457768 Ry
     estimated scf accuracy    <    4639.01620567 Ry

     iteration #  2     ecut=    29.40 Ry     beta= 0.05
     Davidson diagonalization with overlap
     ethr =  1.00E-02,  avg # of iterations = 24.3

[...]

     iteration # 41     ecut=    29.40 Ry     beta= 0.05
     Davidson diagonalization with overlap
     c_bands:  1 eigenvalues not converged
     c_bands:  1 eigenvalues not converged
     c_bands:  1 eigenvalues not converged
     ethr =  8.82E-07,  avg # of iterations = 14.9

[...]

     total energy              =   -2952.74695801 Ry
     estimated scf accuracy    <       0.00000013 Ry

     iteration # 65     ecut=    29.40 Ry     beta= 0.05
     Davidson diagonalization with overlap
     ethr =  3.32E-11,  avg # of iterations =  6.0

     negative rho (up, down):  1.671E-02 0.000E+00

     Adding external electric field

     Computed dipole along edir(3) :
        Dipole                1.0848 Ry au,          2.7573 Debye
        Dipole field          0.0020 Ry au,

        Potential amp.       -0.1898 Ry
        Total length         46.3494 bohr

     End of self-consistent calculation

          k = 0.0000 0.0000 0.0000 ( 18029 PWs)   bands (ev):

   -55.6628 -55.6402 -55.6062 -55.4688 -55.4619 -55.4349 -55.4335 -55.4285
   -55.4115 -55.4002 -55.3509 -55.2425 -55.2261 -55.1744 -54.6058 -54.5718
   -32.1238 -31.9910 -31.9651 -31.9573 -31.9531 -31.9319 -31.9315 -31.8855
   -31.8838 -31.8683 -31.8352 -31.7927 -31.7548 -31.7458 -31.7367 -31.7340
   -31.7155 -31.6977 -31.6783 -31.6670 -31.6637 -31.6573 -31.6361 -31.6254
   -31.6180 -31.6101 -31.6012 -31.5917 -31.5906 -31.5785 -31.5763 -31.5713
   -31.5663 -31.5470 -31.5215 -31.5065 -31.4393 -31.4305 -31.4171 -31.3873
   -31.3805 -31.3800 -31.0114 -30.9261 -30.9036 -30.8290 -30.7427 -30.6308
   -16.7188 -16.4378 -16.2564 -16.0828 -15.8691 -15.7946 -15.7576 -15.5605
   -15.4742 -15.4098 -15.1781 -15.1725 -15.1615 -15.1392 -15.1124 -15.1025
   -15.0922 -15.0572 -15.0554 -15.0331 -15.0072 -14.9738 -14.9652 -14.9176
   -14.8686 -14.8520 -14.7709 -14.6977 -14.6510 -14.4495 -14.3242 -13.1041
   -12.9879  -9.3213  -6.3368  -4.7435  -3.9558  -3.6254  -3.5395  -3.5051
    -3.4304  -3.3797  -3.1438  -3.0077  -2.9599  -2.8760  -2.7628  -2.7379
    -2.6763  -2.6206  -2.5528  -2.5298  -2.4872  -2.4313  -2.4086  -2.3787
    -2.3693  -2.3377  -2.2861  -2.2231  -2.1621  -2.1368  -2.0786  -2.0024
    -1.9537  -1.9495  -1.9424  -1.9216  -1.8973  -1.8752  -1.8522  -1.8411
    -1.7378  -1.6842  -1.6655  -1.6122  -1.5646  -1.3096  -1.2344  -1.2226
    -1.1534  -1.1036  -1.0713  -1.0531  -1.0243  -0.9794  -0.9268  -0.8930
    -0.8126  -0.7584  -0.6993  -0.6865  -0.6403  -0.5638  -0.4808  -0.4235
    -0.4065  -0.3486  -0.3402  -0.3148  -0.1924  -0.1544  -0.1449  -0.0898
    -0.0630   0.0400   0.0840   0.1230   0.1540   0.2431   0.2649   0.3062
     0.3113   0.3418   0.3485   0.4385   0.4479   0.4740   0.5361   0.5629
     0.6404   0.7117   0.7191   0.8743   0.9220   1.0126   1.0453   1.1346
     1.3715   1.4208   1.4787   1.6146   1.9871   2.0321   3.4531   3.5983
     3.6157   3.7071   3.7127   3.8188   3.9278   3.9827   4.0203   4.1302

[...]

          k = 0.0380-0.0419 0.0000 ( 17876 PWs)   bands (ev):

[...]

          k =-0.0760-0.0000 0.0000 ( 17886 PWs)   bands (ev):

[...]

          k =-0.0760-0.0839 0.0000 ( 17948 PWs)   bands (ev):

   -55.6619 -55.6235 -55.6228 -55.4528 -55.4495 -55.4452 -55.4446 -55.4333
   -55.4123 -55.3936 -55.3575 -55.2383 -55.2275 -55.1785 -54.5893 -54.5882
   -31.9393 -31.9389 -31.9266 -31.9181 -31.9172 -31.9167 -31.8763 -31.8687
   -31.8057 -31.7766 -31.7760 -31.7668 -31.7614 -31.7433 -31.7426 -31.7367
   -31.7189 -31.7157 -31.7022 -31.6816 -31.6693 -31.6579 -31.6541 -31.6472
   -31.6439 -31.6404 -31.6368 -31.6208 -31.6167 -31.6131 -31.6111 -31.6106
   -31.5978 -31.5803 -31.5776 -31.5214 -31.5055 -31.4608 -31.4427 -31.4341
   -31.4257 -31.3843 -30.9168 -30.9159 -30.8249 -30.8236 -30.7863 -30.7854
   -16.6983 -16.4186 -15.8230 -15.7144 -15.5935 -15.5849 -15.4722 -15.3996
   -15.3649 -15.3357 -15.3182 -15.3079 -15.2843 -15.2453 -15.1970 -15.1766
   -15.1442 -15.1261 -15.1138 -15.0727 -15.0574 -15.0478 -15.0288 -14.9845
   -14.9707 -14.9412 -14.9283 -14.7966 -14.7431 -14.6370 -14.5658 -13.0900
   -13.0895  -9.3263  -6.3330  -4.7285  -3.9377  -3.0271  -2.9313  -2.8010
    -2.7067  -2.6698  -2.6317  -2.6062  -2.5825  -2.5417  -2.5244  -2.4757
    -2.4317  -2.4142  -2.4029  -2.3733  -2.3688  -2.3601  -2.3282  -2.3077
    -2.3006  -2.2879  -2.2642  -2.2533  -2.2361  -2.2119  -2.1989  -2.1727
    -2.1521  -2.1063  -1.9957  -1.9442  -1.9144  -1.7851  -1.7718  -1.7509
    -1.7358  -1.7204  -1.7004  -1.6819  -1.6151  -1.5957  -1.5694  -1.3931
    -1.3746  -1.2843  -1.2523  -1.2069  -1.1422  -1.1287  -1.0787  -1.0511
    -0.9968  -0.9715  -0.8788  -0.8251  -0.7943  -0.7582  -0.6344  -0.5829
    -0.5771  -0.5667  -0.5375  -0.5172  -0.4730  -0.4522  -0.4222  -0.3567
    -0.3272  -0.3101  -0.2646  -0.2527  -0.1285  -0.0108   0.0737   0.1171
     0.1785   0.1991   0.2383   0.3428   0.4186   0.4995   0.5419   0.5601
     0.5915   0.6824   0.6980   0.8406   0.8704   0.8753   0.9118   0.9434
     0.9723   1.0172   1.7840   1.7921   1.8522   1.8526   3.7000   3.8308
     3.9605   3.9805   3.9931   4.0252   4.0290   4.0530   4.1050   4.1372

     the Fermi energy is     3.4846 ev

!    total energy              =   -2952.74698524 Ry
     estimated scf accuracy    <       0.00000005 Ry
     smearing contrib. (-TS)   =      -0.02003619 Ry
     internal energy E=F+TS    =   -2952.72694905 Ry

     The total energy is F=E-TS. E is the sum of the following terms:
     one-electron contribution =  -23991.53408075 Ry
     hartree contribution      =   12087.25897986 Ry
     xc contribution           =    -488.02856108 Ry
     ewald contribution        =    9439.57449221 Ry
     electric field correction =       0.00222071 Ry

     convergence has been achieved in  65 iterations

     Forces acting on atoms (cartesian axes, Ry/au):

     atom    1 type  1   force =     0.00015968   -0.00026972    0.09477199
     atom    2 type  1   force =    -0.00000556    0.00040277   -0.17490238
     atom    3 type  2   force =    -0.00001319   -0.00013570   -0.02197370
     atom    4 type  2   force =     0.00006457   -0.00192242    0.05343012
     atom    5 type  2   force =    -0.00734194   -0.00239963    0.00311313
     atom    6 type  2   force =     0.00860769   -0.00197691    0.00182923
     atom    7 type  1   force =    -0.00058852   -0.00347769    0.00959676
     atom    8 type  1   force =     0.00060937    0.00469565    0.00863011
     atom    9 type  2   force =     0.00009236    0.00017201   -0.00015537
     atom   10 type  2   force =    -0.00268875   -0.00030818   -0.01303133
     atom   11 type  2   force =    -0.00039225   -0.00035641   -0.00011939
     atom   12 type  2   force =     0.00016956   -0.00017235    0.00029758
     atom   13 type  1   force =     0.00040367    0.00019458   -0.00068065
     atom   14 type  1   force =    -0.00014465    0.00010973   -0.00005580
     atom   15 type  2   force =     0.00025578   -0.00028243   -0.00042575
     atom   16 type  2   force =     0.00039779    0.00012071   -0.00005919
     atom   17 type  2   force =    -0.00018781   -0.00000447    0.00031725
     atom   18 type  2   force =     0.00008282   -0.00089644   -0.00020564
     atom   19 type  1   force =     0.00030321    0.00047797    0.00012268
     atom   20 type  1   force =     0.00001837    0.00003872    0.00003462
     atom   21 type  2   force =     0.00009926    0.00007488    0.10311341
     atom   22 type  2   force =     0.00008035   -0.00043521    0.00005650
     atom   23 type  2   force =    -0.07216273   -0.00014192   -0.02737537
     atom   24 type  2   force =     0.07211387    0.00026723   -0.02739972
     atom   25 type  1   force =     0.00003011   -0.00009882    0.09454421
     atom   26 type  1   force =    -0.00007577   -0.00132424   -0.17507776
     atom   27 type  2   force =     0.00014900   -0.00019961   -0.02073560
     atom   28 type  2   force =     0.00002374   -0.00018234    0.04901606
     atom   29 type  2   force =    -0.00616606    0.00259224    0.00155174
     atom   30 type  2   force =     0.00738968    0.00321589    0.00011323
     atom   31 type  1   force =    -0.00055101    0.00715811   -0.00090618
     atom   32 type  1   force =     0.00055790   -0.00650923    0.00788070
     atom   33 type  2   force =     0.00025562   -0.00025493   -0.00032787
     atom   34 type  2   force =    -0.00212643    0.00146783   -0.01184252
     atom   35 type  2   force =    -0.00009792    0.00000508    0.00017158
     atom   36 type  2   force =    -0.00022337    0.00010819    0.00029403
     atom   37 type  1   force =     0.00054322   -0.00011922   -0.00026184
     atom   38 type  1   force =    -0.00019121   -0.00016011    0.00030382
     atom   39 type  2   force =     0.00012393    0.00037417   -0.00041633
     atom   40 type  2   force =    -0.00015183    0.00027708   -0.00047367
     atom   41 type  2   force =     0.00015040    0.00037689   -0.00022139
     atom   42 type  2   force =    -0.00011676    0.00039848    0.00025094
     atom   43 type  1   force =    -0.00006664   -0.00095682   -0.00036739
     atom   44 type  1   force =     0.00016230    0.00064263    0.00027886
     atom   45 type  2   force =     0.00009942   -0.00008909    0.10292326
     atom   46 type  2   force =    -0.07217575   -0.00005267   -0.02739704
     atom   47 type  2   force =     0.07218082    0.00040037   -0.02742862
     atom   48 type  3   force =     0.00041562   -0.00049227   -0.00146963
     atom   49 type  4   force =    -0.00216433    0.00079039    0.00132629
     atom   50 type  5   force =     0.00201639   -0.00123422   -0.00124419
     atom   51 type  5   force =     0.00042403    0.00041584    0.00033713
     atom   52 type  5   force =     0.00003169   -0.00036567   -0.00006869
     atom   53 type  2   force =    -0.00003093    0.00008805    0.00160403
     atom   54 type  5   force =    -0.00034883   -0.00004674   -0.00128624

     Total force =     0.362450     Total SCF correction =     0.000567
  @ DRIVER MODE: Message from server: STATUS
  @ DRIVER MODE: Message from server: GETFORCE
  @ DRIVER MODE: Returning v,forces,stress,ensemble

     Writing output data file ./calc.save/
  @ DRIVER MODE: Message from server: EXIT
  @ DRIVE MODE: Exiting

     General routines

     Parallel routines

   This run was terminated on:   3:40: 6  23Sep2021

   JOB DONE.