     Program PWSCF v.6.7GPU starts on 19Oct2021 at  6:12:36

     R & G space division:  proc/nbgrp/npool/nimage =       8
     Reading input from /storage/home/hcoda1/3/ntian30/research/carbon/CxH_vib/Thiel_calc/ads_slab/NH3NH2H_perslab/out_0037/pw.inp
Warning: card &CELL ignored
Warning: card   CELL_DYNAMICS='IPI', ignored
Warning: card / ignored

     Current dimensions of program PWSCF are:
     Max number of different atomic species (ntypx) = 10
     Max number of k-points (npk) =  40000
     Max angular momentum in pseudopotentials (lmaxx) =  3
     Presently no symmetry can be used with electric field

     Message from routine cell_base_init:
     DEPRECATED: use true lattice parameter, not A to a.u. conversion factor

     IMPORTANT: XC functional enforced from input :
     Exchange-correlation= BEEF-VDW
                           (   1   4  43  14   2   0   0)
     Any further DFT definition will be discarded
     Please, verify this is what you really want

  @ DRIVER MODE: Connecting to
 qe_1139763_3255139.sched-torque.pace.gatech.edue98dwky8_scratch
  using UNIX socket
  @ DRIVER MODE: Message from server: STATUS
  @ DRIVER MODE: Message from server: INIT
  @ DRIVER MODE: Receiving replica           0          -1
  @ DRIVER MODE: Receiving encoded integer          25
  @ DRIVER MODE:  SCF:  T  FORCE:  T  STRESS:  F  VC:  F  ENSEMBLE:  F
  @ DRIVER MODE:  SCF:  T  FORCE:  T  STRESS:  F  VC:  F  ENSEMBLE:  F

     Using Slab Decomposition

     bravais-lattice index     =            0
     lattice parameter (alat)  =       1.8897  a.u.
     unit-cell volume          =    9988.4706 (a.u.)^3
     number of atoms/cell      =           61
     number of atomic types    =            4
     number of electrons       =       442.00
     number of Kohn-Sham states=          231
     kinetic-energy cutoff     =      29.3995  Ry
     charge density cutoff     =     293.9946  Ry
     scf convergence threshold =      7.3E-08
     mixing beta               =       0.0500
     number of iterations used =            8  plain     mixing
     Exchange-correlation= BEEF-VDW
                           (   1   4  43  14   2   0   0)

     celldm(1)=   1.889726  celldm(2)=   0.000000  celldm(3)=   0.000000
     celldm(4)=   0.000000  celldm(5)=   0.000000  celldm(6)=   0.000000

     crystal axes: (cart. coord. in units of alat)
               a(1) = (   6.579727   0.000000   0.000000 )
               a(2) = (  -0.001163   8.942395   0.000000 )
               a(3) = (   0.000000   0.000000  25.155947 )

     reciprocal axes: (cart. coord. in units 2 pi/alat)
               b(1) = (  0.151982  0.000020  0.000000 )
               b(2) = (  0.000000  0.111827  0.000000 )
               b(3) = (  0.000000  0.000000  0.039752 )

     PseudoPot. # 1 for O  read from file:
     /storage/coda1/p-amedford6/0/shared/rich_project_chbe-medford/medford-share/data/pseudos_module/espresso/nninc/pbe/van/O.UPF
     MD5 check sum: 78c19812648e8988a0fe644b0f25305e
     Pseudo is Ultrasoft, Zval =  6.0
     Generated by new atomic code, or converted to UPF format
     Using radial grid of  737 points,  4 beta functions with:
                l(1) =   0
                l(2) =   0
                l(3) =   1
                l(4) =   1
     Q(r) pseudized with  8 coefficients,  rinner =    0.800   0.800   0.800

     PseudoPot. # 2 for Ti read from file:
     /storage/coda1/p-amedford6/0/shared/rich_project_chbe-medford/medford-share/data/pseudos_module/espresso/nninc/pbe/van/Ti.UPF
     MD5 check sum: 8e4df49b7f0d34bbd5052bf3f5ea0213
     Pseudo is Ultrasoft, Zval = 12.0
     Generated by new atomic code, or converted to UPF format
     Using radial grid of  851 points,  6 beta functions with:
                l(1) =   0
                l(2) =   0
                l(3) =   1
                l(4) =   1
                l(5) =   2
                l(6) =   2
     Q(r) pseudized with  8 coefficients,  rinner =    1.000   1.000   1.000
                                                       1.000   1.000

     PseudoPot. # 3 for H  read from file:
     /storage/coda1/p-amedford6/0/shared/rich_project_chbe-medford/medford-share/data/pseudos_module/espresso/nninc/pbe/van/H.UPF
     MD5 check sum: b5ee9d7bfd3a09ee7748110bda690ff7
     Pseudo is Ultrasoft, Zval =  1.0
     Generated by new atomic code, or converted to UPF format
     Using radial grid of  615 points,  1 beta functions with:
                l(1) =   0
     Q(r) pseudized with  8 coefficients,  rinner =    0.800

     PseudoPot. # 4 for N  read from file:
     /storage/coda1/p-amedford6/0/shared/rich_project_chbe-medford/medford-share/data/pseudos_module/espresso/nninc/pbe/van/N.UPF
     MD5 check sum: 90d10febe142ad51ac9d5be1deb811c4
     Pseudo is Ultrasoft, Zval =  5.0
     Generated by new atomic code, or converted to UPF format
     Using radial grid of  729 points,  4 beta functions with:
                l(1) =   0
                l(2) =   0
                l(3) =   1
                l(4) =   1
     Q(r) pseudized with  8 coefficients,  rinner =    0.800   0.800   0.800

     atomic species   valence    mass     pseudopotential
        O1             6.00    15.99900     O ( 1.00)
        Ti1           12.00    47.86700     Ti( 1.00)
        H1             1.00     1.00800     H ( 1.00)
        N1             5.00    14.00700     N ( 1.00)

     No symmetry found

   Cartesian axes

     site n.     atom                  positions (alat units)
         1           O1  tau(   1) = (   0.0007354   0.0005023  10.5931620  )
         2           O1  tau(   2) = (   3.2892937   8.9423630  13.8814308  )
         3           O1  tau(   3) = (   6.5785080   0.0907754  17.2996570  )
         4           O1  tau(   4) = (   0.0006271   0.0005054   7.9858123  )
         5           O1  tau(   5) = (   3.2892617   8.9274694  11.1867540  )
         6           O1  tau(   6) = (   0.0001068   0.0384811  14.5856928  )
         7           O1  tau(   7) = (   1.9868534   1.4903216   9.2879459  )
         8           O1  tau(   8) = (   5.2392332   1.6199063  12.5840971  )
         9           O1  tau(   9) = (   2.0046145   1.5651943  16.0652335  )
        10           Ti1 tau(  10) = (   0.0007404   1.4906270   9.2895810  )
        11           Ti1 tau(  11) = (   3.2903033   1.3475644  12.4784176  )
        12           Ti1 tau(  12) = (   0.0002083   1.2954417  15.7753146  )
        13           O1  tau(  13) = (   4.5942328   1.4918067   9.2879030  )
        14           O1  tau(  14) = (   1.3408909   1.6195689  12.5841697  )
        15           O1  tau(  15) = (   4.5747373   1.5650701  16.0650860  )
        16           Ti1 tau(  16) = (   3.2902859   2.9801868   9.2893338  )
        17           Ti1 tau(  17) = (   0.0003213   2.8429885  12.4272127  )
        18           Ti1 tau(  18) = (   3.2894782   2.8703589  15.6911549  )
        19           O1  tau(  19) = (   0.0003479   2.9813005  10.5931620  )
        20           O1  tau(  20) = (   3.2897922   2.9583395  13.9032781  )
        21           O1  tau(  21) = (   0.0002396   2.9813036   7.9858123  )
        22           O1  tau(  22) = (   3.2900450   2.9730570  11.1907869  )
        23           O1  tau(  23) = (   0.0001206   2.9807552  14.9070210  )
        24           O1  tau(  24) = (   1.9864658   4.4711199   9.2879459  )
        25           O1  tau(  25) = (   5.2482068   4.5640541  12.6028892  )
        26           O1  tau(  26) = (   2.0118887   4.5193519  16.0312246  )
        27           Ti1 tau(  27) = (   0.0003529   4.4714252   9.2895810  )
        28           Ti1 tau(  28) = (   3.2901403   4.3402809  12.5217819  )
        29           Ti1 tau(  29) = (   0.0009811   4.3515161  16.1888847  )
        30           O1  tau(  30) = (   4.5938453   4.4726049   9.2879030  )
        31           O1  tau(  31) = (   1.3314901   4.5639303  12.6028828  )
        32           O1  tau(  32) = (   4.5682806   4.5188618  16.0312494  )
        33           Ti1 tau(  33) = (   3.2898983   5.9609850   9.2893338  )
        34           Ti1 tau(  34) = (   0.0001002   5.8006911  12.4939615  )
        35           Ti1 tau(  35) = (   3.2910898   5.8128663  15.8108673  )
        36           O1  tau(  36) = (  -0.0000397   5.9620987  10.5931620  )
        37           O1  tau(  37) = (   3.2898758   5.9691391  13.9384534  )
        38           O1  tau(  38) = (   0.0001572   5.9906873  17.2924393  )
        39           O1  tau(  39) = (  -0.0001480   5.9621018   7.9858123  )
        40           O1  tau(  40) = (   3.2897271   5.9334558  11.2049738  )
        41           O1  tau(  41) = (   0.0000685   5.9641935  14.6703060  )
        42           O1  tau(  42) = (   1.9860782   7.4519181   9.2879459  )
        43           O1  tau(  43) = (   5.2398882   7.5535610  12.5750285  )
        44           O1  tau(  44) = (   1.9879998   7.5809304  16.0172394  )
        45           Ti1 tau(  45) = (  -0.0000347   7.4522234   9.2895810  )
        46           Ti1 tau(  46) = (   3.2896426   7.2731609  12.5447809  )
        47           Ti1 tau(  47) = (   0.0002275   7.1890881  15.9781391  )
        48           O1  tau(  48) = (   4.5934577   7.4534031   9.2879030  )
        49           O1  tau(  49) = (   1.3388943   7.5534522  12.5751898  )
        50           O1  tau(  50) = (   4.5903976   7.5792304  16.0166626  )
        51           Ti1 tau(  51) = (   3.2895107   8.9417832   9.2893338  )
        52           Ti1 tau(  52) = (  -0.0003648   8.7758640  12.4444508  )
        53           Ti1 tau(  53) = (   3.2897763   8.8353469  15.6829021  )
        54           H1  tau(  54) = (   0.0028024   0.0378429  18.2586218  )
        55           N1  tau(  55) = (   0.0000016   3.3024973  17.8430138  )
        56           H1  tau(  56) = (   6.5772996   2.3364033  18.1430564  )
        57           H1  tau(  57) = (   6.5785254   3.8921159  18.6668881  )
        58           N1  tau(  58) = (   3.2892544   5.9906839  18.1401779  )
        59           H1  tau(  59) = (   3.2890604   5.0659402  18.5578254  )
        60           H1  tau(  60) = (   2.4449486   6.4784715  18.4500629  )
        61           H1  tau(  61) = (   4.1227990   6.4789769  18.4516084  )

     number of k points=    10  Fermi-Dirac smearing, width (Ry)=  0.0073
                       cart. coord. in units 2pi/alat
        k(    1) = (   0.0000000   0.0000000   0.0000000), wk =   0.1250000
        k(    2) = (   0.0000000   0.0279567   0.0000000), wk =   0.2500000
        k(    3) = (   0.0000000  -0.0559134   0.0000000), wk =   0.1250000
        k(    4) = (   0.0379955   0.0000049   0.0000000), wk =   0.2500000
        k(    5) = (   0.0379955   0.0279617   0.0000000), wk =   0.2500000
        k(    6) = (   0.0379955  -0.0559085   0.0000000), wk =   0.2500000
        k(    7) = (   0.0379955  -0.0279518   0.0000000), wk =   0.2500000
        k(    8) = (  -0.0759910  -0.0000099   0.0000000), wk =   0.1250000
        k(    9) = (  -0.0759910   0.0279468   0.0000000), wk =   0.2500000
        k(   10) = (  -0.0759910  -0.0559233   0.0000000), wk =   0.1250000

     Initial potential from superposition of free atoms

     starting charge  423.99908, renormalised to  442.00000

     negative rho (up, down):  3.654E-02 0.000E+00

     %%%%%%%%%%%%%%%%%%%%%%%%%%%%%%%%%%%%%%%%%%%%%%%%%%%%%%%%%%%%%%%%%%%%%%%%
     %                                                                      %
     % You are using vdW-DF, which was implemented by the Thonhauser group. %
     % Please cite the following two papers that made this development      %
     % possible and the two reviews that describe the various versions:     %
     %                                                                      %
     %   T. Thonhauser et al., PRL 115, 136402 (2015).                      %
     %   T. Thonhauser et al., PRB 76, 125112 (2007).                       %
     %   K. Berland et al., Rep. Prog. Phys. 78, 066501 (2015).             %
     %   D.C. Langreth et al., J. Phys.: Condens. Matter 21, 084203 (2009). %
     %                                                                      %
     %                                                                      %
     % If you are calculating the stress with vdW-DF, please also cite:     %
     %                                                                      %
     %   R. Sabatini et al., J. Phys.: Condens. Matter 24, 424209 (2012).   %
     %                                                                      %
     %%%%%%%%%%%%%%%%%%%%%%%%%%%%%%%%%%%%%%%%%%%%%%%%%%%%%%%%%%%%%%%%%%%%%%%%

     Adding external electric field

     Computed dipole along edir(3) :
        Dipole               -6.3674 Ry au,        -16.1843 Debye
        Dipole field         -0.0080 Ry au,

        Potential amp.        0.7426 Ry
        Total length         46.3494 bohr

     Starting wfcs are  334 atomic wfcs
  @ DRIVER MODE: Message from server: STATUS
  @ DRIVER MODE: Message from server: POSDATA
  @ DRIVER MODE: Reading and sharing cell
  @ DRIVER MODE: Reading and sharing positions
  @ DRIVER MODE: Received positions

     Self-consistent Calculation

     iteration #  1     ecut=    29.40 Ry     beta= 0.05
     Davidson diagonalization with overlap
     c_bands:  2 eigenvalues not converged
     c_bands:  3 eigenvalues not converged
     c_bands:  3 eigenvalues not converged
     c_bands:  2 eigenvalues not converged
     c_bands:  1 eigenvalues not converged
     c_bands:  4 eigenvalues not converged
     c_bands:  1 eigenvalues not converged
     c_bands:  1 eigenvalues not converged
     c_bands:  5 eigenvalues not converged
     ethr =  1.00E-05,  avg # of iterations = 20.0

[...]

     total energy              =   -3277.30783724 Ry
     estimated scf accuracy    <     250.08559886 Ry

     iteration #  2     ecut=    29.40 Ry     beta= 0.05
     Davidson diagonalization with overlap
     ethr =  1.00E-02,  avg # of iterations = 15.6

[...]

     iteration # 49     ecut=    29.40 Ry     beta= 0.05
     Davidson diagonalization with overlap
     c_bands:  1 eigenvalues not converged
     ethr =  3.46E-09,  avg # of iterations = 14.0

[...]

     total energy              =   -3295.81873223 Ry
     estimated scf accuracy    <       0.00000019 Ry

     iteration # 60     ecut=    29.40 Ry     beta= 0.05
     Davidson diagonalization with overlap
     ethr =  4.41E-11,  avg # of iterations = 11.1

     negative rho (up, down):  3.513E-02 0.000E+00

     Adding external electric field

     Computed dipole along edir(3) :
        Dipole                2.0094 Ry au,          5.1073 Debye
        Dipole field          0.0025 Ry au,

        Potential amp.       -0.2343 Ry
        Total length         46.3494 bohr

     End of self-consistent calculation

          k = 0.0000 0.0000 0.0000 ( 26871 PWs)   bands (ev):

   -57.4460 -57.4229 -57.4145 -57.4070 -57.3635 -57.3532 -57.3123 -57.3075
   -57.2928 -57.2637 -57.2430 -57.2348 -57.2257 -57.1910 -57.0118 -56.5113
   -56.4846 -56.4680 -33.8435 -33.8322 -33.8255 -33.8209 -33.8120 -33.7793
   -33.7681 -33.7617 -33.7530 -33.7392 -33.7352 -33.7145 -33.6934 -33.6807
   -33.6530 -33.6498 -33.6378 -33.6346 -33.6141 -33.6127 -33.5917 -33.5807
   -33.5575 -33.5546 -33.5533 -33.5439 -33.5403 -33.5378 -33.5357 -33.5269
   -33.5178 -33.5054 -33.4904 -33.4748 -33.4673 -33.4562 -33.4413 -33.4394
   -33.4348 -33.4324 -33.4037 -33.3803 -33.3415 -33.3059 -33.2332 -32.8308
   -32.8234 -32.8099 -32.8027 -32.7885 -32.7357 -32.6769 -32.6568 -32.5319
   -19.1405 -18.3009 -17.9724 -17.7569 -17.7101 -17.6874 -17.6033 -17.5416
   -17.5278 -17.4484 -17.3850 -17.3041 -17.2771 -17.2703 -17.2376 -17.2093
   -17.1906 -17.1664 -17.1653 -17.1249 -17.1142 -17.0947 -17.0680 -17.0204
   -16.9473 -16.9346 -16.9002 -16.8930 -16.8874 -16.8874 -16.7439 -16.6665
   -16.5849 -15.2671 -14.9715 -14.9152 -14.9078  -7.6934  -7.6140  -7.2342
    -6.7470  -5.6247  -5.4645  -5.3791  -5.2769  -4.9383  -4.8721  -4.8506
    -4.8373  -4.7919  -4.7533  -4.7521  -4.6946  -4.6853  -4.6668  -4.5859
    -4.5722  -4.5497  -4.4981  -4.4756  -4.4256  -4.4249  -4.3751  -4.3206
    -4.2698  -4.2617  -4.2607  -4.2350  -4.2343  -4.2115  -4.2072  -4.0934
    -4.0892  -4.0141  -3.9062  -3.8965  -3.8489  -3.7769  -3.7672  -3.7405
    -3.7136  -3.6502  -3.6050  -3.5513  -3.5436  -3.5303  -3.4662  -3.4420
    -3.3626  -3.2568  -3.2447  -3.2119  -3.1673  -3.1525  -3.1068  -3.0761
    -3.0031  -2.9282  -2.8490  -2.8226  -2.7175  -2.6722  -2.6529  -2.6199
    -2.6124  -2.5391  -2.5348  -2.5099  -2.3579  -2.2539  -2.2445  -2.2250
    -2.2135  -2.1866  -2.1831  -2.1554  -2.0904  -2.0443  -2.0368  -2.0207
    -2.0008  -1.9888  -1.8994  -1.8406  -1.8131  -1.7843  -1.7684  -1.6745
    -1.6356  -1.5999  -1.5894  -1.4843  -1.4296  -1.3231  -1.3183  -1.3042
    -1.2332  -1.1869  -1.1148  -0.7976  -0.6281  -0.5564  -0.2694  -0.2114
    -0.2033   0.0566   0.0689   0.1971   1.5428   1.7739   1.9745   1.9769
     1.9924   2.0632   2.1311   2.1442   2.2096   2.2616   2.2772

[...]

          k = 0.0380-0.0280 0.0000 ( 26873 PWs)   bands (ev):

[...]

          k =-0.0760-0.0000 0.0000 ( 26902 PWs)   bands (ev):

[...]

          k =-0.0760-0.0559 0.0000 ( 26868 PWs)   bands (ev):

   -57.4404 -57.4335 -57.4095 -57.4063 -57.3643 -57.3533 -57.3112 -57.3082
   -57.2919 -57.2622 -57.2457 -57.2367 -57.2240 -57.1904 -57.0117 -56.5087
   -56.4899 -56.4653 -33.9226 -33.9046 -33.8547 -33.8232 -33.8074 -33.7831
   -33.7743 -33.7657 -33.7240 -33.7086 -33.6942 -33.6642 -33.6415 -33.6373
   -33.6335 -33.6127 -33.5995 -33.5985 -33.5973 -33.5896 -33.5875 -33.5817
   -33.5700 -33.5616 -33.5572 -33.5533 -33.5362 -33.5300 -33.5236 -33.5180
   -33.5171 -33.5140 -33.5050 -33.5020 -33.4952 -33.4874 -33.4569 -33.4562
   -33.4476 -33.4356 -33.4342 -33.3951 -33.3625 -33.3055 -33.2366 -32.9122
   -32.8263 -32.8088 -32.7858 -32.7238 -32.7025 -32.6469 -32.6372 -32.6182
   -19.1340 -17.9945 -17.9224 -17.6740 -17.6276 -17.6144 -17.5998 -17.5615
   -17.5084 -17.4777 -17.4274 -17.4091 -17.3730 -17.3215 -17.3140 -17.2396
   -17.2349 -17.2309 -17.1649 -17.1629 -17.1453 -17.1004 -17.0871 -17.0645
   -17.0154 -16.9746 -16.9604 -16.8816 -16.8565 -16.8162 -16.7215 -16.6535
   -16.6182 -15.2646 -14.9729 -14.9625 -14.8497  -7.6767  -7.6107  -7.2248
    -6.7496  -5.2466  -5.2153  -5.1802  -5.1519  -5.0468  -4.8617  -4.7852
    -4.7522  -4.7482  -4.6831  -4.6628  -4.6565  -4.6121  -4.5998  -4.5750
    -4.5519  -4.5224  -4.4878  -4.4800  -4.4432  -4.4120  -4.3967  -4.3752
    -4.3573  -4.3522  -4.3382  -4.2499  -4.1877  -4.1747  -4.1139  -4.0902
    -4.0645  -4.0217  -4.0084  -3.9677  -3.9402  -3.7129  -3.6254  -3.6098
    -3.6089  -3.5825  -3.5466  -3.4904  -3.4324  -3.4005  -3.3706  -3.2446
    -3.2042  -3.1917  -3.1870  -3.1520  -3.0684  -3.0418  -3.0128  -2.9806
    -2.9649  -2.9152  -2.9026  -2.8624  -2.8220  -2.7485  -2.7067  -2.6694
    -2.6373  -2.6038  -2.5928  -2.5663  -2.5370  -2.5328  -2.5059  -2.4861
    -2.4141  -2.4122  -2.3733  -2.3166  -2.2435  -2.2100  -2.1919  -2.1132
    -2.0348  -1.9837  -1.9602  -1.9398  -1.8623  -1.7452  -1.7193  -1.7106
    -1.6769  -1.6287  -1.5777  -1.5438  -1.4935  -1.4031  -1.2711  -1.2508
    -1.1825  -1.0864  -1.0654  -1.0452  -0.8242  -0.7330  -0.4203  -0.1614
    -0.1166  -0.0974   0.0616   0.0692   1.7034   1.7704   1.8331   1.8661
     1.8825   1.9137   1.9165   1.9856   2.0412   2.1102   2.1284

     the Fermi energy is     1.6424 ev

!    total energy              =   -3295.81877174 Ry
     estimated scf accuracy    <       0.00000006 Ry
     smearing contrib. (-TS)   =      -0.03295317 Ry
     internal energy E=F+TS    =   -3295.78581857 Ry

     The total energy is F=E-TS. E is the sum of the following terms:
     one-electron contribution =  -34382.72351396 Ry
     hartree contribution      =   17260.64668634 Ry
     xc contribution           =    -543.88967590 Ry
     ewald contribution        =   14370.17560540 Ry
     electric field correction =       0.00507956 Ry

     convergence has been achieved in  60 iterations

     Forces acting on atoms (cartesian axes, Ry/au):

     atom    1 type  1   force =     0.00000590    0.00790866    0.05042727
     atom    2 type  1   force =    -0.00000907    0.00035542   -0.00971260
     atom    3 type  1   force =    -0.00001798   -0.00472869   -0.00051549
     atom    4 type  1   force =     0.00005835    0.00282257    0.10760397
     atom    5 type  1   force =     0.00000395    0.00070536    0.00923542
     atom    6 type  1   force =    -0.00000679   -0.00163188    0.00013768
     atom    7 type  1   force =     0.06463495    0.00007223   -0.02898651
     atom    8 type  1   force =     0.00389714   -0.02786602    0.00323858
     atom    9 type  1   force =     0.00826875   -0.01831409    0.00241310
     atom   10 type  2   force =    -0.00005046   -0.00798222   -0.19370550
     atom   11 type  2   force =    -0.00002406    0.02061730   -0.00635469
     atom   12 type  2   force =    -0.00005360    0.02206602   -0.00303208
     atom   13 type  1   force =    -0.06472847   -0.00038219   -0.02893542
     atom   14 type  1   force =    -0.00389519   -0.02784691    0.00323370
     atom   15 type  1   force =    -0.00825842   -0.01829875    0.00239960
     atom   16 type  2   force =     0.00010089    0.00059251    0.06676556
     atom   17 type  2   force =     0.00002339    0.03324896    0.00614236
     atom   18 type  2   force =     0.00001039    0.02089373    0.00188229
     atom   19 type  1   force =     0.00000513    0.00225411    0.05627477
     atom   20 type  1   force =    -0.00000528   -0.00132600   -0.00686859
     atom   21 type  1   force =     0.00005995   -0.00139386    0.10884268
     atom   22 type  1   force =     0.00000806   -0.00024585    0.00987498
     atom   23 type  1   force =     0.00001034   -0.00479300    0.00116816
     atom   24 type  1   force =     0.06619872   -0.00049983   -0.02949348
     atom   25 type  1   force =     0.00418698   -0.03008958    0.00219724
     atom   26 type  1   force =     0.00994690   -0.02416267    0.00224443
     atom   27 type  2   force =    -0.00006746    0.01376714   -0.18653365
     atom   28 type  2   force =    -0.00001973    0.02335522   -0.00580885
     atom   29 type  2   force =    -0.00005325    0.01726264   -0.00917566
     atom   30 type  1   force =    -0.06630539   -0.00095171   -0.02944857
     atom   31 type  1   force =    -0.00418065   -0.03006012    0.00219700
     atom   32 type  1   force =    -0.00987698   -0.02414240    0.00222411
     atom   33 type  2   force =     0.00009582   -0.00141033    0.06834224
     atom   34 type  2   force =     0.00002254    0.03782894    0.00401372
     atom   35 type  2   force =    -0.00001088    0.03582863    0.00783221
     atom   36 type  1   force =     0.00001584    0.00057166    0.06523968
     atom   37 type  1   force =    -0.00000946    0.00228568   -0.01103947
     atom   38 type  1   force =     0.00002713   -0.00085597    0.00184284
     atom   39 type  1   force =     0.00005893   -0.00143419    0.10679154
     atom   40 type  1   force =     0.00000136   -0.00039199    0.00776458
     atom   41 type  1   force =    -0.00000145   -0.00030434    0.00577673
     atom   42 type  1   force =     0.06732915   -0.00097622   -0.02905864
     atom   43 type  1   force =     0.00312102   -0.02829852    0.00237234
     atom   44 type  1   force =     0.00707973   -0.02150842    0.00452371
     atom   45 type  2   force =    -0.00006730   -0.00850142   -0.18086300
     atom   46 type  2   force =    -0.00000261    0.01745062   -0.00234265
     atom   47 type  2   force =    -0.00006370    0.02048354   -0.00647431
     atom   48 type  1   force =    -0.06742517   -0.00142215   -0.02901290
     atom   49 type  1   force =    -0.00308855   -0.02829791    0.00236974
     atom   50 type  1   force =    -0.00707926   -0.02147796    0.00451477
     atom   51 type  2   force =     0.00012348   -0.00305209    0.06676840
     atom   52 type  2   force =     0.00000725    0.03509513    0.00727816
     atom   53 type  2   force =    -0.00001504    0.02414457    0.00301752
     atom   54 type  3   force =     0.00010120   -0.00016486    0.00057779
     atom   55 type  4   force =    -0.00001040   -0.00012448    0.00093295
     atom   56 type  3   force =    -0.00003463    0.00070762    0.00034712
     atom   57 type  3   force =    -0.00000328    0.00051984    0.00079265
     atom   58 type  4   force =    -0.01082261    0.00580778    0.00157101
     atom   59 type  3   force =     0.00006749   -0.00017824    0.00009113
     atom   60 type  3   force =     0.01106356   -0.00486445   -0.00395367
     atom   61 type  3   force =    -0.00034718    0.00133337    0.00005199

     Total force =     0.461921     Total SCF correction =     0.000841
  @ DRIVER MODE: Message from server: STATUS
  @ DRIVER MODE: Message from server: GETFORCE
  @ DRIVER MODE: Returning v,forces,stress,ensemble

     Writing output data file ./calc.save/
  @ DRIVER MODE: Message from server: EXIT
  @ DRIVE MODE: Exiting

     General routines

     Parallel routines

   This run was terminated on:   6:42: 7  19Oct2021

   JOB DONE.