     Program PWSCF v.6.7GPU starts on  9Sep2021 at  8:51:28

     R & G space division:  proc/nbgrp/npool/nimage =      10
     Reading input from /storage/home/hcoda1/3/ntian30/research/carbon/CxH_vib/CH3_calc/ads_slab/CH3NHNH_a/out_0035/pw.inp
Warning: card &CELL ignored
Warning: card   CELL_DYNAMICS='IPI', ignored
Warning: card / ignored

     Current dimensions of program PWSCF are:
     Max number of different atomic species (ntypx) = 10
     Max number of k-points (npk) =  40000
     Max angular momentum in pseudopotentials (lmaxx) =  3
     Presently no symmetry can be used with electric field

     Message from routine cell_base_init:
     DEPRECATED: use true lattice parameter, not A to a.u. conversion factor

     IMPORTANT: XC functional enforced from input :
     Exchange-correlation= BEEF-VDW
                           (   1   4  43  14   2   0   0)
     Any further DFT definition will be discarded
     Please, verify this is what you really want

  @ DRIVER MODE: Connecting to
 qe_1139763_2767401.sched-torque.pace.gatech.edu5mp_dtlm_scratch
  using UNIX socket
  @ DRIVER MODE: Message from server: STATUS
  @ DRIVER MODE: Message from server: INIT
  @ DRIVER MODE: Receiving replica           0          -1
  @ DRIVER MODE: Receiving encoded integer          25
  @ DRIVER MODE:  SCF:  T  FORCE:  T  STRESS:  F  VC:  F  ENSEMBLE:  F
  @ DRIVER MODE:  SCF:  T  FORCE:  T  STRESS:  F  VC:  F  ENSEMBLE:  F

     Using Slab Decomposition

     bravais-lattice index     =            0
     lattice parameter (alat)  =       1.8897  a.u.
     unit-cell volume          =    6658.9804 (a.u.)^3
     number of atoms/cell      =           55
     number of atomic types    =            5
     number of electrons       =       397.00
     number of Kohn-Sham states=          208
     kinetic-energy cutoff     =      29.3995  Ry
     charge density cutoff     =     293.9946  Ry
     scf convergence threshold =      7.3E-08
     mixing beta               =       0.0500
     number of iterations used =            8  plain     mixing
     Exchange-correlation= BEEF-VDW
                           (   1   4  43  14   2   0   0)

     celldm(1)=   1.889726  celldm(2)=   0.000000  celldm(3)=   0.000000
     celldm(4)=   0.000000  celldm(5)=   0.000000  celldm(6)=   0.000000

     crystal axes: (cart. coord. in units of alat)
               a(1) = (   6.579727   0.000000   0.000000 )
               a(2) = (  -0.000775   5.961596   0.000000 )
               a(3) = (   0.000000   0.000000  25.155947 )

     reciprocal axes: (cart. coord. in units 2 pi/alat)
               b(1) = (  0.151982  0.000020  0.000000 )
               b(2) = (  0.000000  0.167740  0.000000 )
               b(3) = (  0.000000  0.000000  0.039752 )

     PseudoPot. # 1 for Ti read from file:
     /storage/coda1/p-amedford6/0/shared/rich_project_chbe-medford/medford-share/data/pseudos_module/espresso/nninc/pbe/van/Ti.UPF
     MD5 check sum: 8e4df49b7f0d34bbd5052bf3f5ea0213
     Pseudo is Ultrasoft, Zval = 12.0
     Generated by new atomic code, or converted to UPF format
     Using radial grid of  851 points,  6 beta functions with:
                l(1) =   0
                l(2) =   0
                l(3) =   1
                l(4) =   1
                l(5) =   2
                l(6) =   2
     Q(r) pseudized with  8 coefficients,  rinner =    1.000   1.000   1.000
                                                       1.000   1.000

     PseudoPot. # 2 for O  read from file:
     /storage/coda1/p-amedford6/0/shared/rich_project_chbe-medford/medford-share/data/pseudos_module/espresso/nninc/pbe/van/O.UPF
     MD5 check sum: 78c19812648e8988a0fe644b0f25305e
     Pseudo is Ultrasoft, Zval =  6.0
     Generated by new atomic code, or converted to UPF format
     Using radial grid of  737 points,  4 beta functions with:
                l(1) =   0
                l(2) =   0
                l(3) =   1
                l(4) =   1
     Q(r) pseudized with  8 coefficients,  rinner =    0.800   0.800   0.800

     PseudoPot. # 3 for N  read from file:
     /storage/coda1/p-amedford6/0/shared/rich_project_chbe-medford/medford-share/data/pseudos_module/espresso/nninc/pbe/van/N.UPF
     MD5 check sum: 90d10febe142ad51ac9d5be1deb811c4
     Pseudo is Ultrasoft, Zval =  5.0
     Generated by new atomic code, or converted to UPF format
     Using radial grid of  729 points,  4 beta functions with:
                l(1) =   0
                l(2) =   0
                l(3) =   1
                l(4) =   1
     Q(r) pseudized with  8 coefficients,  rinner =    0.800   0.800   0.800

     PseudoPot. # 4 for C  read from file:
     /storage/coda1/p-amedford6/0/shared/rich_project_chbe-medford/medford-share/data/pseudos_module/espresso/nninc/pbe/van/C.UPF
     MD5 check sum: 1a69bf6b8db32088f5b2163dbdb77a27
     Pseudo is Ultrasoft, Zval =  4.0
     Generated by new atomic code, or converted to UPF format
     Using radial grid of  721 points,  4 beta functions with:
                l(1) =   0
                l(2) =   0
                l(3) =   1
                l(4) =   1
     Q(r) pseudized with  8 coefficients,  rinner =    0.800   0.800   0.800

     PseudoPot. # 5 for H  read from file:
     /storage/coda1/p-amedford6/0/shared/rich_project_chbe-medford/medford-share/data/pseudos_module/espresso/nninc/pbe/van/H.UPF
     MD5 check sum: b5ee9d7bfd3a09ee7748110bda690ff7
     Pseudo is Ultrasoft, Zval =  1.0
     Generated by new atomic code, or converted to UPF format
     Using radial grid of  615 points,  1 beta functions with:
                l(1) =   0
     Q(r) pseudized with  8 coefficients,  rinner =    0.800

     atomic species   valence    mass     pseudopotential
        Ti1           12.00    47.86700     Ti( 1.00)
        O1             6.00    15.99900     O ( 1.00)
        N1             5.00    14.00700     N ( 1.00)
        C1             4.00    12.01100     C ( 1.00)
        H1             1.00     1.00800     H ( 1.00)

     No symmetry found

   Cartesian axes

     site n.     atom                  positions (alat units)
         1           Ti1 tau(   1) = (   0.0004258   2.9801865   6.0000000  )
         2           Ti1 tau(   2) = (   3.2906075   1.4906267   6.0002472  )
         3           O1  tau(   3) = (   0.0006271   0.0005054   7.9858123  )
         4           O1  tau(   4) = (   3.2906025   0.0005020   7.3038282  )
         5           O1  tau(   5) = (   4.5942328   1.4918067   9.2879030  )
         6           O1  tau(   6) = (   1.9868534   1.4903216   9.2879459  )
         7           Ti1 tau(   7) = (   3.2907910   2.8959150   9.1758416  )
         8           Ti1 tau(   8) = (   0.0015273   1.4827037   9.2680791  )
         9           O1  tau(   9) = (   3.2830128   5.9597860  11.3344455  )
        10           O1  tau(  10) = (   0.0116148   5.9584955  10.6183126  )
        11           O1  tau(  11) = (   1.2885291   1.4855062  12.6376555  )
        12           O1  tau(  12) = (   5.2724004   1.4911608  12.5936499  )
        13           Ti1 tau(  13) = (   0.0410009   3.0319447  12.6084003  )
        14           Ti1 tau(  14) = (   3.3739341   1.4916561  12.4823474  )
        15           O1  tau(  15) = (   6.4862162   0.0153916  14.6455093  )
        16           O1  tau(  16) = (   3.3439542   5.9611638  13.9051029  )
        17           O1  tau(  17) = (   4.4933269   1.5483200  16.1231154  )
        18           O1  tau(  18) = (   1.9964937   1.4536654  15.9127221  )
        19           Ti1 tau(  19) = (   3.1412959   3.0017366  15.7441667  )
        20           Ti1 tau(  20) = (   6.4823597   1.5369342  15.8006069  )
        21           O1  tau(  21) = (   3.2904802   0.0005063   4.7018136  )
        22           O1  tau(  22) = (   6.5709111   0.0522475  17.2082838  )
        23           O1  tau(  23) = (   1.3043587   1.4918075   6.0039043  )
        24           O1  tau(  24) = (   5.2767064   1.4903225   6.0039473  )
        25           Ti1 tau(  25) = (   0.0000382   5.9609847   6.0000000  )
        26           Ti1 tau(  26) = (   3.2902200   4.4714249   6.0002472  )
        27           O1  tau(  27) = (   0.0002396   2.9813036   7.9858123  )
        28           O1  tau(  28) = (   3.2902150   2.9813002   7.3038282  )
        29           O1  tau(  29) = (   4.5938453   4.4726049   9.2879030  )
        30           O1  tau(  30) = (   1.9864658   4.4711199   9.2879459  )
        31           Ti1 tau(  31) = (   3.2891106   5.8743827   9.1763621  )
        32           Ti1 tau(  32) = (   0.0006254   4.4649316   9.2693709  )
        33           O1  tau(  33) = (   3.2833609   2.9822938  11.3349093  )
        34           O1  tau(  34) = (   0.0092240   2.9805883  10.6323155  )
        35           O1  tau(  35) = (   1.2838611   4.4860338  12.6468719  )
        36           O1  tau(  36) = (   5.2760156   4.4607002  12.6015494  )
        37           Ti1 tau(  37) = (   0.0673138   0.0440259  12.5461749  )
        38           Ti1 tau(  38) = (   3.3712377   4.4654930  12.4933830  )
        39           O1  tau(  39) = (   6.5217465   2.9589972  14.6412948  )
        40           O1  tau(  40) = (   3.2809526   2.9956502  13.9333893  )
        41           O1  tau(  41) = (   4.4911989   4.4583117  16.1637052  )
        42           O1  tau(  42) = (   1.9937212   4.5427850  15.9740970  )
        43           Ti1 tau(  43) = (   3.2955853   0.0167752  15.6963065  )
        44           Ti1 tau(  44) = (   6.5082246   4.6715011  16.1069148  )
        45           O1  tau(  45) = (   3.2900926   2.9813045   4.7018136  )
        46           O1  tau(  46) = (   1.3039711   4.4726057   6.0039043  )
        47           O1  tau(  47) = (   5.2763189   4.4711207   6.0039473  )
        48           N1  tau(  48) = (   1.3945086   2.8365607  18.1849301  )
        49           N1  tau(  49) = (   0.1777896   2.9650562  17.4211889  )
        50           C1  tau(  50) = (   1.4118813   3.7128676  19.3556819  )
        51           H1  tau(  51) = (   0.5171711   3.5996102  19.9880000  )
        52           H1  tau(  52) = (   2.2935099   3.4681107  19.9517681  )
        53           H1  tau(  53) = (   1.4703795   4.7520035  19.0219817  )
        54           H1  tau(  54) = (   1.4579882   1.8621926  18.4823179  )
        55           H1  tau(  55) = (   5.9558665   2.8747675  18.0551794  )

     number of k points=    10  Fermi-Dirac smearing, width (Ry)=  0.0073
                       cart. coord. in units 2pi/alat
        k(    1) = (   0.0000000   0.0000000   0.0000000), wk =   0.1250000
        k(    2) = (   0.0000000   0.0419351   0.0000000), wk =   0.2500000
        k(    3) = (   0.0000000  -0.0838702   0.0000000), wk =   0.1250000
        k(    4) = (   0.0379955   0.0000049   0.0000000), wk =   0.2500000
        k(    5) = (   0.0379955   0.0419400   0.0000000), wk =   0.2500000
        k(    6) = (   0.0379955  -0.0838652   0.0000000), wk =   0.2500000
        k(    7) = (   0.0379955  -0.0419301   0.0000000), wk =   0.2500000
        k(    8) = (  -0.0759910  -0.0000099   0.0000000), wk =   0.1250000
        k(    9) = (  -0.0759910   0.0419252   0.0000000), wk =   0.2500000
        k(   10) = (  -0.0759910  -0.0838800   0.0000000), wk =   0.1250000

     Initial potential from superposition of free atoms

     starting charge  380.99914, renormalised to  397.00000

     negative rho (up, down):  1.540E-02 0.000E+00

     %%%%%%%%%%%%%%%%%%%%%%%%%%%%%%%%%%%%%%%%%%%%%%%%%%%%%%%%%%%%%%%%%%%%%%%%
     %                                                                      %
     % You are using vdW-DF, which was implemented by the Thonhauser group. %
     % Please cite the following two papers that made this development      %
     % possible and the two reviews that describe the various versions:     %
     %                                                                      %
     %   T. Thonhauser et al., PRL 115, 136402 (2015).                      %
     %   T. Thonhauser et al., PRB 76, 125112 (2007).                       %
     %   K. Berland et al., Rep. Prog. Phys. 78, 066501 (2015).             %
     %   D.C. Langreth et al., J. Phys.: Condens. Matter 21, 084203 (2009). %
     %                                                                      %
     %                                                                      %
     % If you are calculating the stress with vdW-DF, please also cite:     %
     %                                                                      %
     %   R. Sabatini et al., J. Phys.: Condens. Matter 24, 424209 (2012).   %
     %                                                                      %
     %%%%%%%%%%%%%%%%%%%%%%%%%%%%%%%%%%%%%%%%%%%%%%%%%%%%%%%%%%%%%%%%%%%%%%%%

     Adding external electric field

     Computed dipole along edir(3) :
        Dipole               -9.6172 Ry au,        -24.4445 Debye
        Dipole field         -0.0181 Ry au,

        Potential amp.        1.6824 Ry
        Total length         46.3494 bohr

     Starting wfcs are  301 atomic wfcs
  @ DRIVER MODE: Message from server: STATUS
  @ DRIVER MODE: Message from server: POSDATA
  @ DRIVER MODE: Reading and sharing cell
  @ DRIVER MODE: Reading and sharing positions
  @ DRIVER MODE: Received positions

     Self-consistent Calculation

     iteration #  1     ecut=    29.40 Ry     beta= 0.05
     Davidson diagonalization with overlap
     c_bands:  1 eigenvalues not converged
     c_bands:  1 eigenvalues not converged
     c_bands:  1 eigenvalues not converged
     c_bands:  1 eigenvalues not converged
     c_bands:  1 eigenvalues not converged
     c_bands:  1 eigenvalues not converged
     c_bands:  2 eigenvalues not converged
     ethr =  1.00E-05,  avg # of iterations = 18.8

[...]

     total energy              =   -2533.48092754 Ry
     estimated scf accuracy    <    4540.40835334 Ry

     iteration #  2     ecut=    29.40 Ry     beta= 0.05
     Davidson diagonalization with overlap
     ethr =  1.00E-02,  avg # of iterations = 24.5

[...]

     iteration # 58     ecut=    29.40 Ry     beta= 0.05
     Davidson diagonalization with overlap
     c_bands:  1 eigenvalues not converged
     ethr =  7.16E-11,  avg # of iterations = 16.8

[...]

     total energy              =   -2941.66151468 Ry
     estimated scf accuracy    <       0.00000011 Ry

     iteration # 61     ecut=    29.40 Ry     beta= 0.05
     Davidson diagonalization with overlap
     ethr =  2.71E-11,  avg # of iterations = 11.4

     negative rho (up, down):  1.607E-02 0.000E+00

     Adding external electric field

     Computed dipole along edir(3) :
        Dipole                0.9419 Ry au,          2.3941 Debye
        Dipole field          0.0018 Ry au,

        Potential amp.       -0.1648 Ry
        Total length         46.3494 bohr

     End of self-consistent calculation

          k = 0.0000 0.0000 0.0000 ( 18029 PWs)   bands (ev):

   -55.6872 -55.6702 -55.6532 -55.6336 -55.5928 -55.5385 -55.5316 -55.5015
   -55.4955 -55.4675 -55.4656 -55.4315 -55.2590 -55.0352 -54.6675 -54.6335
   -32.2211 -32.1703 -32.0431 -32.0331 -31.9999 -31.9852 -31.9800 -31.9559
   -31.9312 -31.8992 -31.8969 -31.8907 -31.8477 -31.8394 -31.8254 -31.8239
   -31.8072 -31.7922 -31.7832 -31.7480 -31.7443 -31.7373 -31.7216 -31.7182
   -31.6953 -31.6907 -31.6880 -31.6803 -31.6663 -31.6640 -31.6563 -31.6471
   -31.6416 -31.6320 -31.6186 -31.6090 -31.5777 -31.5092 -31.4654 -31.3014
   -31.2920 -31.2377 -31.0747 -30.9862 -30.9638 -30.8915 -30.8050 -30.6939
   -16.7727 -16.4178 -16.1630 -15.9336 -15.8426 -15.8121 -15.6598 -15.5281
   -15.4187 -15.3370 -15.2521 -15.2331 -15.2259 -15.2151 -15.1890 -15.1831
   -15.1359 -15.1314 -15.1120 -15.0991 -15.0489 -15.0324 -15.0288 -14.9341
   -14.8703 -14.8350 -14.8203 -14.7855 -14.7481 -14.3344 -13.1702 -13.0537
   -11.8067  -8.9712  -5.4333  -4.3595  -3.8421  -3.7892  -3.6451  -3.5947
    -3.5343  -3.4957  -3.3178  -3.2154  -2.9426  -2.8855  -2.8560  -2.8469
    -2.7888  -2.7572  -2.6016  -2.5758  -2.5047  -2.4954  -2.4806  -2.4517
    -2.4431  -2.4363  -2.3956  -2.3760  -2.3478  -2.2436  -2.1039  -2.0946
    -2.0719  -2.0385  -2.0011  -1.9524  -1.9360  -1.9158  -1.8973  -1.8846
    -1.8722  -1.7372  -1.7022  -1.5860  -1.4964  -1.4492  -1.3692  -1.2992
    -1.2685  -1.1585  -1.1187  -1.1058  -1.0920  -1.0813  -0.9817  -0.8759
    -0.8586  -0.8208  -0.7655  -0.7099  -0.6393  -0.5944  -0.5434  -0.4912
    -0.4670  -0.4517  -0.4489  -0.4138  -0.3220  -0.1810  -0.1290  -0.0946
    -0.0724   0.0043   0.0394   0.0955   0.1200   0.1434   0.1792   0.2322
     0.2758   0.2822   0.2957   0.3102   0.3149   0.4893   0.5388   0.5806
     0.6137   0.6599   0.8211   0.8431   0.9648   1.0391   1.2013   1.2800
     1.3545   1.4328   1.5463   1.6219   1.9257   1.9715   3.4435   3.5311
     3.5758   3.5896   3.6849   3.7268   3.8962   3.9269   3.9414   4.0014

[...]

          k = 0.0380-0.0419 0.0000 ( 17876 PWs)   bands (ev):

[...]

          k =-0.0760-0.0000 0.0000 ( 17886 PWs)   bands (ev):

[...]

          k =-0.0760-0.0839 0.0000 ( 17948 PWs)   bands (ev):

   -55.6705 -55.6697 -55.6555 -55.6480 -55.5867 -55.5444 -55.5190 -55.5081
   -55.4850 -55.4835 -55.4515 -55.4458 -55.2578 -55.0362 -54.6505 -54.6504
   -32.0303 -32.0205 -31.9859 -31.9853 -31.9658 -31.9649 -31.9448 -31.9383
   -31.8854 -31.8848 -31.8746 -31.8694 -31.8524 -31.8344 -31.8099 -31.8051
   -31.8008 -31.7971 -31.7906 -31.7904 -31.7893 -31.7889 -31.7851 -31.7453
   -31.7370 -31.7255 -31.7173 -31.7061 -31.6855 -31.6845 -31.6825 -31.6758
   -31.6658 -31.6618 -31.6585 -31.6560 -31.6150 -31.5117 -31.4621 -31.3635
   -31.2941 -31.2637 -30.9765 -30.9764 -30.8875 -30.8874 -30.8483 -30.8483
   -16.7464 -15.8650 -15.8039 -15.6460 -15.6107 -15.5912 -15.5563 -15.4955
   -15.4124 -15.3852 -15.3807 -15.3336 -15.3078 -15.2750 -15.2369 -15.2225
   -15.2153 -15.1965 -15.1841 -15.1503 -15.1408 -15.1292 -15.1219 -15.0464
   -15.0088 -15.0044 -14.9989 -14.8953 -14.7688 -14.5023 -13.1555 -13.1555
   -11.8131  -8.9855  -5.4474  -4.3470  -3.7666  -3.1577  -3.0707  -2.8959
    -2.8404  -2.8116  -2.7956  -2.6295  -2.6174  -2.6039  -2.5541  -2.5364
    -2.5240  -2.5173  -2.5090  -2.4879  -2.4750  -2.4404  -2.4305  -2.3949
    -2.3806  -2.3632  -2.3463  -2.3295  -2.3097  -2.2953  -2.2790  -2.2381
    -2.2185  -2.2075  -2.1865  -2.1433  -1.9328  -1.8827  -1.8367  -1.8330
    -1.8223  -1.8027  -1.7481  -1.7431  -1.7091  -1.6580  -1.5792  -1.4344
    -1.3890  -1.3726  -1.2795  -1.2579  -1.2052  -1.1331  -1.0874  -1.0704
    -1.0354  -0.9713  -0.9348  -0.8978  -0.8313  -0.8067  -0.8007  -0.7071
    -0.6863  -0.6502  -0.6436  -0.5649  -0.5139  -0.4514  -0.4360  -0.4196
    -0.3880  -0.3545  -0.3364  -0.2685  -0.1765  -0.1754  -0.1526  -0.0433
     0.0474   0.2757   0.3384   0.3754   0.4203   0.5140   0.5824   0.6070
     0.6229   0.6445   0.6641   0.7121   0.8393   0.8493   0.8835   0.9965
     1.1001   1.6381   1.7180   1.7188   1.7913   1.7914   3.7452   3.7635
     3.7840   3.8304   3.9496   3.9566   3.9786   3.9807   4.1037   4.1167

     the Fermi energy is     3.4452 ev

!    total energy              =   -2941.66156234 Ry
     estimated scf accuracy    <       0.00000007 Ry
     smearing contrib. (-TS)   =      -0.02151935 Ry
     internal energy E=F+TS    =   -2941.64004300 Ry

     The total energy is F=E-TS. E is the sum of the following terms:
     one-electron contribution =  -24276.46770441 Ry
     hartree contribution      =   12228.67896323 Ry
     xc contribution           =    -486.87137431 Ry
     ewald contribution        =    9593.01839828 Ry
     electric field correction =       0.00167422 Ry

     convergence has been achieved in  61 iterations

     Forces acting on atoms (cartesian axes, Ry/au):

     atom    1 type  1   force =     0.00017959   -0.00011471    0.09639428
     atom    2 type  1   force =    -0.00021395   -0.00063098   -0.17548259
     atom    3 type  2   force =    -0.00004299   -0.00003377   -0.02417914
     atom    4 type  2   force =     0.00004990   -0.00143832    0.05290331
     atom    5 type  2   force =    -0.01181109   -0.00048865    0.00395522
     atom    6 type  2   force =     0.01312228    0.00023893    0.00229233
     atom    7 type  1   force =    -0.00140466    0.00080536   -0.01149408
     atom    8 type  1   force =     0.00053640    0.00920648    0.02522098
     atom    9 type  2   force =    -0.00010742    0.00017439    0.00040074
     atom   10 type  2   force =    -0.00086481    0.00148652   -0.01581790
     atom   11 type  2   force =    -0.00020243   -0.00049700    0.00038712
     atom   12 type  2   force =    -0.00013003   -0.00026089    0.00002305
     atom   13 type  1   force =     0.00054789   -0.00091514    0.00006660
     atom   14 type  1   force =    -0.00007796   -0.00040620    0.00025103
     atom   15 type  2   force =     0.00018152    0.00004737   -0.00029109
     atom   16 type  2   force =     0.00006732    0.00024712    0.00005903
     atom   17 type  2   force =    -0.00053371    0.00034138    0.00046975
     atom   18 type  2   force =     0.00013768    0.00010459    0.00026511
     atom   19 type  1   force =     0.00010113   -0.00058534    0.00024080
     atom   20 type  1   force =     0.00015615    0.00035664    0.00057534
     atom   21 type  2   force =     0.00007386   -0.00008098    0.10319066
     atom   22 type  2   force =    -0.00044767   -0.00026314    0.00017907
     atom   23 type  2   force =    -0.07148874   -0.00017817   -0.02769585
     atom   24 type  2   force =     0.07141188    0.00025595   -0.02769609
     atom   25 type  1   force =     0.00003014   -0.00027338    0.09585689
     atom   26 type  1   force =    -0.00014737   -0.00023163   -0.17565309
     atom   27 type  2   force =     0.00009156   -0.00012375   -0.02328812
     atom   28 type  2   force =     0.00007791   -0.00129595    0.05332825
     atom   29 type  2   force =    -0.01194112   -0.00005394    0.00375291
     atom   30 type  2   force =     0.01319062    0.00043407    0.00213093
     atom   31 type  1   force =    -0.00141821    0.00344691   -0.01082500
     atom   32 type  1   force =     0.00064379   -0.01010148    0.02562964
     atom   33 type  2   force =    -0.00038825    0.00005170    0.00006256
     atom   34 type  2   force =     0.00074812    0.00090099   -0.02309032
     atom   35 type  2   force =    -0.00011789    0.00029482   -0.00002999
     atom   36 type  2   force =    -0.00022084    0.00059516   -0.00029660
     atom   37 type  1   force =    -0.00082702   -0.00101896   -0.00014249
     atom   38 type  1   force =    -0.00002080   -0.00010162   -0.00002061
     atom   39 type  2   force =    -0.00035167    0.00002498    0.00057386
     atom   40 type  2   force =     0.00048643    0.00025119    0.00027068
     atom   41 type  2   force =     0.00003215    0.00051257    0.00025863
     atom   42 type  2   force =     0.00008746    0.00028947   -0.00017755
     atom   43 type  1   force =     0.00021971    0.00011119   -0.00020521
     atom   44 type  1   force =    -0.00030106   -0.00060745   -0.00003361
     atom   45 type  2   force =     0.00006979   -0.00008770    0.10321774
     atom   46 type  2   force =    -0.07149155   -0.00017264   -0.02769422
     atom   47 type  2   force =     0.07141661    0.00030049   -0.02770795
     atom   48 type  3   force =    -0.00059089   -0.00146956    0.00008725
     atom   49 type  3   force =     0.00048696   -0.00017095    0.00042615
     atom   50 type  4   force =     0.00081555    0.00321958   -0.00187502
     atom   51 type  5   force =     0.00115313    0.00098287   -0.00080545
     atom   52 type  5   force =    -0.00018842    0.00126900   -0.00084779
     atom   53 type  5   force =    -0.00048272   -0.00461418    0.00365428
     atom   54 type  5   force =    -0.00002443    0.00052122   -0.00059811
     atom   55 type  5   force =    -0.00027783   -0.00025446   -0.00017635

     Total force =     0.367376     Total SCF correction =     0.001077
  @ DRIVER MODE: Message from server: STATUS
  @ DRIVER MODE: Message from server: GETFORCE
  @ DRIVER MODE: Returning v,forces,stress,ensemble

     Writing output data file ./calc.save/
  @ DRIVER MODE: Message from server: EXIT
  @ DRIVE MODE: Exiting

     General routines

     Parallel routines

   This run was terminated on:   9: 9: 9   9Sep2021

   JOB DONE.