     Program PWSCF v.6.7GPU starts on 15Sep2021 at 16:12:58

     R & G space division:  proc/nbgrp/npool/nimage =      10
     Reading input from /storage/home/hcoda1/3/ntian30/research/carbon/CxH_vib/H2O_calc/ads_slab/CH3N2H2O_c/out_0002/pw.inp
Warning: card &CELL ignored
Warning: card   CELL_DYNAMICS='IPI', ignored
Warning: card / ignored

     Current dimensions of program PWSCF are:
     Max number of different atomic species (ntypx) = 10
     Max number of k-points (npk) =  40000
     Max angular momentum in pseudopotentials (lmaxx) =  3
     Presently no symmetry can be used with electric field

     Message from routine cell_base_init:
     DEPRECATED: use true lattice parameter, not A to a.u. conversion factor

     IMPORTANT: XC functional enforced from input :
     Exchange-correlation= BEEF-VDW
                           (   1   4  43  14   2   0   0)
     Any further DFT definition will be discarded
     Please, verify this is what you really want

  @ DRIVER MODE: Connecting to
 qe_1139763_2852616.sched-torque.pace.gatech.edu3sbaxaml_scratch
  using UNIX socket
  @ DRIVER MODE: Message from server: STATUS
  @ DRIVER MODE: Message from server: INIT
  @ DRIVER MODE: Receiving replica           0          -1
  @ DRIVER MODE: Receiving encoded integer          25
  @ DRIVER MODE:  SCF:  T  FORCE:  T  STRESS:  F  VC:  F  ENSEMBLE:  F
  @ DRIVER MODE:  SCF:  T  FORCE:  T  STRESS:  F  VC:  F  ENSEMBLE:  F

     Using Slab Decomposition

     bravais-lattice index     =            0
     lattice parameter (alat)  =       1.8897  a.u.
     unit-cell volume          =    6658.9804 (a.u.)^3
     number of atoms/cell      =           56
     number of atomic types    =            5
     number of electrons       =       403.00
     number of Kohn-Sham states=          211
     kinetic-energy cutoff     =      29.3995  Ry
     charge density cutoff     =     293.9946  Ry
     scf convergence threshold =      7.3E-08
     mixing beta               =       0.0500
     number of iterations used =            8  plain     mixing
     Exchange-correlation= BEEF-VDW
                           (   1   4  43  14   2   0   0)

     celldm(1)=   1.889726  celldm(2)=   0.000000  celldm(3)=   0.000000
     celldm(4)=   0.000000  celldm(5)=   0.000000  celldm(6)=   0.000000

     crystal axes: (cart. coord. in units of alat)
               a(1) = (   6.579727   0.000000   0.000000 )
               a(2) = (  -0.000775   5.961596   0.000000 )
               a(3) = (   0.000000   0.000000  25.155947 )

     reciprocal axes: (cart. coord. in units 2 pi/alat)
               b(1) = (  0.151982  0.000020  0.000000 )
               b(2) = (  0.000000  0.167740  0.000000 )
               b(3) = (  0.000000  0.000000  0.039752 )

     PseudoPot. # 1 for Ti read from file:
     /storage/coda1/p-amedford6/0/shared/rich_project_chbe-medford/medford-share/data/pseudos_module/espresso/nninc/pbe/van/Ti.UPF
     MD5 check sum: 8e4df49b7f0d34bbd5052bf3f5ea0213
     Pseudo is Ultrasoft, Zval = 12.0
     Generated by new atomic code, or converted to UPF format
     Using radial grid of  851 points,  6 beta functions with:
                l(1) =   0
                l(2) =   0
                l(3) =   1
                l(4) =   1
                l(5) =   2
                l(6) =   2
     Q(r) pseudized with  8 coefficients,  rinner =    1.000   1.000   1.000
                                                       1.000   1.000

     PseudoPot. # 2 for O  read from file:
     /storage/coda1/p-amedford6/0/shared/rich_project_chbe-medford/medford-share/data/pseudos_module/espresso/nninc/pbe/van/O.UPF
     MD5 check sum: 78c19812648e8988a0fe644b0f25305e
     Pseudo is Ultrasoft, Zval =  6.0
     Generated by new atomic code, or converted to UPF format
     Using radial grid of  737 points,  4 beta functions with:
                l(1) =   0
                l(2) =   0
                l(3) =   1
                l(4) =   1
     Q(r) pseudized with  8 coefficients,  rinner =    0.800   0.800   0.800

     PseudoPot. # 3 for N  read from file:
     /storage/coda1/p-amedford6/0/shared/rich_project_chbe-medford/medford-share/data/pseudos_module/espresso/nninc/pbe/van/N.UPF
     MD5 check sum: 90d10febe142ad51ac9d5be1deb811c4
     Pseudo is Ultrasoft, Zval =  5.0
     Generated by new atomic code, or converted to UPF format
     Using radial grid of  729 points,  4 beta functions with:
                l(1) =   0
                l(2) =   0
                l(3) =   1
                l(4) =   1
     Q(r) pseudized with  8 coefficients,  rinner =    0.800   0.800   0.800

     PseudoPot. # 4 for C  read from file:
     /storage/coda1/p-amedford6/0/shared/rich_project_chbe-medford/medford-share/data/pseudos_module/espresso/nninc/pbe/van/C.UPF
     MD5 check sum: 1a69bf6b8db32088f5b2163dbdb77a27
     Pseudo is Ultrasoft, Zval =  4.0
     Generated by new atomic code, or converted to UPF format
     Using radial grid of  721 points,  4 beta functions with:
                l(1) =   0
                l(2) =   0
                l(3) =   1
                l(4) =   1
     Q(r) pseudized with  8 coefficients,  rinner =    0.800   0.800   0.800

     PseudoPot. # 5 for H  read from file:
     /storage/coda1/p-amedford6/0/shared/rich_project_chbe-medford/medford-share/data/pseudos_module/espresso/nninc/pbe/van/H.UPF
     MD5 check sum: b5ee9d7bfd3a09ee7748110bda690ff7
     Pseudo is Ultrasoft, Zval =  1.0
     Generated by new atomic code, or converted to UPF format
     Using radial grid of  615 points,  1 beta functions with:
                l(1) =   0
     Q(r) pseudized with  8 coefficients,  rinner =    0.800

     atomic species   valence    mass     pseudopotential
        Ti1           12.00    47.86700     Ti( 1.00)
        O1             6.00    15.99900     O ( 1.00)
        N1             5.00    14.00700     N ( 1.00)
        C1             4.00    12.01100     C ( 1.00)
        H1             1.00     1.00800     H ( 1.00)

     No symmetry found

   Cartesian axes

     site n.     atom                  positions (alat units)
         1           Ti1 tau(   1) = (   0.0004258   2.9801865   6.0000000  )
         2           Ti1 tau(   2) = (   3.2906075   1.4906267   6.0002472  )
         3           O1  tau(   3) = (   0.0006271   0.0005054   7.9858123  )
         4           O1  tau(   4) = (   3.2906025   0.0005020   7.3038282  )
         5           O1  tau(   5) = (   4.5942328   1.4918067   9.2879030  )
         6           O1  tau(   6) = (   1.9868534   1.4903216   9.2879459  )
         7           Ti1 tau(   7) = (   3.2907910   2.8959150   9.1758416  )
         8           Ti1 tau(   8) = (   0.0015273   1.4827037   9.2680791  )
         9           O1  tau(   9) = (   3.2828550   5.9398922  11.3444325  )
        10           O1  tau(  10) = (   0.0116148   5.9584955  10.6183126  )
        11           O1  tau(  11) = (   1.2785533   1.4626539  12.6279770  )
        12           O1  tau(  12) = (   5.2704455   1.4657548  12.6160130  )
        13           Ti1 tau(  13) = (   0.0600808   2.9393476  12.6134163  )
        14           Ti1 tau(  14) = (   3.3737088   1.4602624  12.5010433  )
        15           O1  tau(  15) = (   6.5684750   5.9323085  14.6353932  )
        16           O1  tau(  16) = (   3.2849856   5.9366180  13.9618146  )
        17           O1  tau(  17) = (   4.5362432   1.5114280  16.0576559  )
        18           O1  tau(  18) = (   2.0240554   1.5008084  16.0383298  )
        19           Ti1 tau(  19) = (   3.2703657   2.9522362  15.6888820  )
        20           Ti1 tau(  20) = (   6.5391562   1.4934284  15.8005638  )
        21           O1  tau(  21) = (   3.2904802   0.0005063   4.7018136  )
        22           O1  tau(  22) = (   6.5583345   5.9570231  17.1947061  )
        23           O1  tau(  23) = (   1.3043587   1.4918075   6.0039043  )
        24           O1  tau(  24) = (   5.2767064   1.4903225   6.0039473  )
        25           Ti1 tau(  25) = (   0.0000382   5.9609847   6.0000000  )
        26           Ti1 tau(  26) = (   3.2902200   4.4714249   6.0002472  )
        27           O1  tau(  27) = (   0.0002396   2.9813036   7.9858123  )
        28           O1  tau(  28) = (   3.2902150   2.9813002   7.3038282  )
        29           O1  tau(  29) = (   4.5938453   4.4726049   9.2879030  )
        30           O1  tau(  30) = (   1.9864658   4.4711199   9.2879459  )
        31           Ti1 tau(  31) = (   3.2891106   5.8743827   9.1763621  )
        32           Ti1 tau(  32) = (   0.0006254   4.4649316   9.2693709  )
        33           O1  tau(  33) = (   3.2888364   2.9620848  11.3424199  )
        34           O1  tau(  34) = (   0.0092240   2.9805883  10.6323155  )
        35           O1  tau(  35) = (   1.2785924   4.4508711  12.6313046  )
        36           O1  tau(  36) = (   5.2742027   4.4576360  12.6186982  )
        37           Ti1 tau(  37) = (   0.0560446   5.9134488  12.5469576  )
        38           Ti1 tau(  38) = (   3.3742563   4.4530221  12.5021653  )
        39           O1  tau(  39) = (   6.5655761   2.9369947  14.6516633  )
        40           O1  tau(  40) = (   3.2805149   2.9594171  13.8967751  )
        41           O1  tau(  41) = (   4.5308665   4.4203993  16.0704334  )
        42           O1  tau(  42) = (   2.0169005   4.4237906  16.0574931  )
        43           Ti1 tau(  43) = (   3.2493829   5.9208236  15.8028744  )
        44           Ti1 tau(  44) = (   6.5423592   4.6318136  16.0678394  )
        45           O1  tau(  45) = (   3.2900926   2.9813045   4.7018136  )
        46           O1  tau(  46) = (   1.3039711   4.4726057   6.0039043  )
        47           O1  tau(  47) = (   5.2763189   4.4711207   6.0039473  )
        48           N1  tau(  48) = (   0.1616996   2.6368831  18.6397825  )
        49           N1  tau(  49) = (   0.0343947   2.8734663  17.4441277  )
        50           C1  tau(  50) = (   0.1908864   3.7705318  19.5986308  )
        51           H1  tau(  51) = (   6.5333492   4.7333814  19.1494580  )
        52           H1  tau(  52) = (   6.0816938   3.5230213  20.4074400  )
        53           H1  tau(  53) = (   1.1988782   3.7880179  20.0220438  )
        54           O1  tau(  54) = (   3.2442500   5.9498283  18.2024067  )
        55           H1  tau(  55) = (   4.0366425   0.4867780  18.4672138  )
        56           H1  tau(  56) = (   2.4709518   0.5160301  18.4623371  )

     number of k points=    10  Fermi-Dirac smearing, width (Ry)=  0.0073
                       cart. coord. in units 2pi/alat
        k(    1) = (   0.0000000   0.0000000   0.0000000), wk =   0.1250000
        k(    2) = (   0.0000000   0.0419351   0.0000000), wk =   0.2500000
        k(    3) = (   0.0000000  -0.0838702   0.0000000), wk =   0.1250000
        k(    4) = (   0.0379955   0.0000049   0.0000000), wk =   0.2500000
        k(    5) = (   0.0379955   0.0419400   0.0000000), wk =   0.2500000
        k(    6) = (   0.0379955  -0.0838652   0.0000000), wk =   0.2500000
        k(    7) = (   0.0379955  -0.0419301   0.0000000), wk =   0.2500000
        k(    8) = (  -0.0759910  -0.0000099   0.0000000), wk =   0.1250000
        k(    9) = (  -0.0759910   0.0419252   0.0000000), wk =   0.2500000
        k(   10) = (  -0.0759910  -0.0838800   0.0000000), wk =   0.1250000

     Initial potential from superposition of free atoms

     starting charge  386.99914, renormalised to  403.00000

     negative rho (up, down):  1.445E-02 0.000E+00

     %%%%%%%%%%%%%%%%%%%%%%%%%%%%%%%%%%%%%%%%%%%%%%%%%%%%%%%%%%%%%%%%%%%%%%%%
     %                                                                      %
     % You are using vdW-DF, which was implemented by the Thonhauser group. %
     % Please cite the following two papers that made this development      %
     % possible and the two reviews that describe the various versions:     %
     %                                                                      %
     %   T. Thonhauser et al., PRL 115, 136402 (2015).                      %
     %   T. Thonhauser et al., PRB 76, 125112 (2007).                       %
     %   K. Berland et al., Rep. Prog. Phys. 78, 066501 (2015).             %
     %   D.C. Langreth et al., J. Phys.: Condens. Matter 21, 084203 (2009). %
     %                                                                      %
     %                                                                      %
     % If you are calculating the stress with vdW-DF, please also cite:     %
     %                                                                      %
     %   R. Sabatini et al., J. Phys.: Condens. Matter 24, 424209 (2012).   %
     %                                                                      %
     %%%%%%%%%%%%%%%%%%%%%%%%%%%%%%%%%%%%%%%%%%%%%%%%%%%%%%%%%%%%%%%%%%%%%%%%

     Adding external electric field

     Computed dipole along edir(3) :
        Dipole              -13.2286 Ry au,        -33.6236 Debye
        Dipole field         -0.0250 Ry au,

        Potential amp.        2.3141 Ry
        Total length         46.3494 bohr

     Starting wfcs are  305 atomic wfcs
  @ DRIVER MODE: Message from server: STATUS
  @ DRIVER MODE: Message from server: POSDATA
  @ DRIVER MODE: Reading and sharing cell
  @ DRIVER MODE: Reading and sharing positions
  @ DRIVER MODE: Received positions

     Self-consistent Calculation

     iteration #  1     ecut=    29.40 Ry     beta= 0.05
     Davidson diagonalization with overlap
     c_bands:  4 eigenvalues not converged
     c_bands:  2 eigenvalues not converged
     c_bands:  4 eigenvalues not converged
     c_bands:  1 eigenvalues not converged
     c_bands:  1 eigenvalues not converged
     c_bands:  1 eigenvalues not converged
     c_bands:  4 eigenvalues not converged
     c_bands:  1 eigenvalues not converged
     c_bands:  1 eigenvalues not converged
     ethr =  1.00E-05,  avg # of iterations = 29.8

[...]

     total energy              =   -2367.49405393 Ry
     estimated scf accuracy    <    6916.88420361 Ry

     iteration #  2     ecut=    29.40 Ry     beta= 0.05
     Davidson diagonalization with overlap
     ethr =  1.00E-02,  avg # of iterations = 23.4

[...]

     iteration # 60     ecut=    29.40 Ry     beta= 0.05
     Davidson diagonalization with overlap
     c_bands:  1 eigenvalues not converged
     ethr =  8.62E-11,  avg # of iterations = 13.4

[...]

     total energy              =   -2974.00307847 Ry
     estimated scf accuracy    <       0.00000009 Ry

     iteration # 63     ecut=    29.40 Ry     beta= 0.05
     Davidson diagonalization with overlap
     ethr =  2.33E-11,  avg # of iterations =  2.4

     negative rho (up, down):  1.457E-02 0.000E+00

     Adding external electric field

     Computed dipole along edir(3) :
        Dipole                0.9240 Ry au,          2.3485 Debye
        Dipole field          0.0017 Ry au,

        Potential amp.       -0.1616 Ry
        Total length         46.3494 bohr

     End of self-consistent calculation

          k = 0.0000 0.0000 0.0000 ( 18029 PWs)   bands (ev):

   -55.6022 -55.5681 -55.5615 -55.5542 -55.5254 -55.4357 -55.4124 -55.3954
   -55.3784 -55.3776 -55.3496 -55.3438 -55.0018 -54.8735 -54.5811 -54.5471
   -32.1036 -32.0847 -31.9533 -31.9357 -31.9112 -31.8950 -31.8673 -31.8647
   -31.8451 -31.7980 -31.7909 -31.7767 -31.7545 -31.7400 -31.7241 -31.7183
   -31.7066 -31.6941 -31.6886 -31.6594 -31.6527 -31.6400 -31.6050 -31.6009
   -31.5903 -31.5881 -31.5845 -31.5765 -31.5526 -31.5490 -31.5473 -31.5423
   -31.5303 -31.5289 -31.5193 -31.5112 -31.4894 -31.2712 -31.2008 -31.1308
   -31.1101 -31.0799 -30.9882 -30.8998 -30.8774 -30.8050 -30.7185 -30.6074
   -18.9000 -18.2873 -16.3014 -16.0684 -15.8427 -15.7513 -15.7101 -15.5036
   -15.4031 -15.3274 -15.2093 -15.1454 -15.1372 -15.1182 -15.1068 -15.1018
   -15.0431 -15.0391 -15.0371 -15.0235 -14.9979 -14.9504 -14.9357 -14.9316
   -14.8366 -14.7637 -14.7396 -14.7223 -14.6800 -14.6548 -14.2033 -13.0834
   -12.9669 -11.3158  -6.8650  -6.6907  -4.2021  -3.8540  -3.8227  -3.6758
    -3.5468  -3.5069  -3.4357  -3.3637  -3.2324  -3.2081  -3.0353  -2.8361
    -2.7759  -2.7472  -2.7013  -2.6301  -2.5152  -2.4593  -2.4085  -2.4060
    -2.3858  -2.3805  -2.3562  -2.3379  -2.2401  -2.2203  -2.1487  -2.1351
    -2.0870  -1.9857  -1.9558  -1.9146  -1.9053  -1.8777  -1.8636  -1.8502
    -1.8274  -1.8031  -1.7623  -1.6932  -1.6169  -1.5811  -1.5011  -1.4477
    -1.4075  -1.3479  -1.2125  -1.1372  -1.0890  -1.0565  -1.0469  -1.0288
    -0.9948  -0.9775  -0.8665  -0.7543  -0.7385  -0.6733  -0.6110  -0.5279
    -0.4945  -0.4334  -0.3693  -0.3515  -0.3464  -0.3099  -0.2671  -0.2218
    -0.0843  -0.0294   0.0046   0.0127   0.0742   0.1153   0.1467   0.2292
     0.2441   0.2836   0.3269   0.3581   0.3692   0.3791   0.4002   0.4308
     0.4356   0.6253   0.6684   0.7131   0.7475   0.7855   0.9316   0.9506
     1.0572   1.1628   1.3679   1.4412   1.5406   1.6332   2.0125   2.0583
     2.7568   3.5318   3.6195   3.6642   3.7020   3.7778   3.7889   3.9870
     4.0020   4.0414   4.1168

[...]

          k = 0.0380-0.0419 0.0000 ( 17876 PWs)   bands (ev):

[...]

          k =-0.0760-0.0000 0.0000 ( 17886 PWs)   bands (ev):

[...]

          k =-0.0760-0.0839 0.0000 ( 17948 PWs)   bands (ev):

   -55.5856 -55.5846 -55.5531 -55.5445 -55.5418 -55.4259 -55.4053 -55.3959
   -55.3943 -55.3626 -55.3589 -55.3509 -54.9997 -54.8755 -54.5642 -54.5639
   -31.9174 -31.9009 -31.9003 -31.8996 -31.8808 -31.8799 -31.8402 -31.8316
   -31.8045 -31.7836 -31.7720 -31.7637 -31.7588 -31.7151 -31.7115 -31.7088
   -31.7066 -31.7052 -31.7042 -31.6999 -31.6975 -31.6967 -31.6565 -31.6445
   -31.6237 -31.6175 -31.6104 -31.5958 -31.5951 -31.5924 -31.5862 -31.5774
   -31.5735 -31.5641 -31.5636 -31.5544 -31.4220 -31.2731 -31.2195 -31.1638
   -31.1326 -31.1069 -30.8902 -30.8900 -30.8011 -30.8009 -30.7618 -30.7617
   -18.8990 -18.2836 -15.7555 -15.6512 -15.5545 -15.5190 -15.4624 -15.4030
   -15.3881 -15.3068 -15.2831 -15.2796 -15.2187 -15.1964 -15.1619 -15.1490
   -15.1279 -15.1144 -15.1110 -15.0548 -15.0484 -15.0392 -15.0324 -15.0290
   -14.9622 -14.9198 -14.9162 -14.9117 -14.7871 -14.6617 -14.3828 -13.0688
   -13.0686 -11.3132  -6.8912  -6.6713  -4.1276  -3.8785  -3.7921  -3.2599
    -3.0383  -2.8359  -2.8077  -2.7129  -2.6980  -2.6679  -2.5355  -2.4957
    -2.4559  -2.4416  -2.4185  -2.4175  -2.4045  -2.3979  -2.3803  -2.3567
    -2.3293  -2.3036  -2.2738  -2.2659  -2.2537  -2.2352  -2.2221  -2.2050
    -2.2019  -2.1580  -2.1367  -2.1273  -2.0443  -1.9906  -1.8273  -1.7850
    -1.7406  -1.7310  -1.7059  -1.7004  -1.6684  -1.6544  -1.6005  -1.5904
    -1.4747  -1.3604  -1.3219  -1.2977  -1.2888  -1.2706  -1.1994  -1.0983
    -1.0738  -0.9991  -0.9948  -0.8912  -0.8771  -0.7971  -0.7863  -0.7605
    -0.7062  -0.6699  -0.6502  -0.5667  -0.5610  -0.5385  -0.4959  -0.4660
    -0.4083  -0.3527  -0.3232  -0.3138  -0.2764  -0.2518  -0.2111  -0.1594
    -0.0979  -0.0599   0.0354   0.1382   0.2218   0.3582   0.4684   0.4960
     0.5710   0.6074   0.6817   0.7112   0.7182   0.7795   0.7926   0.8817
     0.9388   0.9516   0.9875   1.1063   1.8045   1.8059   1.8778   1.8781
     2.7810   3.7569   3.8665   3.9094   3.9303   4.0051   4.0464   4.0662
     4.0687   4.1045   4.2256

     the Fermi energy is     3.5313 ev

!    total energy              =   -2974.00311801 Ry
     estimated scf accuracy    <       0.00000004 Ry
     smearing contrib. (-TS)   =      -0.02180678 Ry
     internal energy E=F+TS    =   -2973.98131123 Ry

     The total energy is F=E-TS. E is the sum of the following terms:
     one-electron contribution =  -23851.68599177 Ry
     hartree contribution      =   12020.42555746 Ry
     xc contribution           =    -494.03642253 Ry
     ewald contribution        =    9351.31393453 Ry
     electric field correction =       0.00161108 Ry

     convergence has been achieved in  63 iterations

     Forces acting on atoms (cartesian axes, Ry/au):

     atom    1 type  1   force =     0.00017337   -0.00021032    0.09636259
     atom    2 type  1   force =    -0.00018197   -0.00044104   -0.17538265
     atom    3 type  2   force =     0.00001669   -0.00015019   -0.02470985
     atom    4 type  2   force =     0.00005487   -0.00162182    0.05341813
     atom    5 type  2   force =    -0.01199301   -0.00148110    0.00369608
     atom    6 type  2   force =     0.01344603   -0.00064040    0.00223365
     atom    7 type  1   force =    -0.00108549    0.00055434   -0.00699262
     atom    8 type  1   force =     0.00064213    0.00917429    0.02675034
     atom    9 type  2   force =     0.00017712    0.00020224   -0.00044922
     atom   10 type  2   force =    -0.00158230   -0.00031133   -0.01788900
     atom   11 type  2   force =     0.00089755    0.00089172    0.00000544
     atom   12 type  2   force =    -0.00061128    0.00060498   -0.00003758
     atom   13 type  1   force =    -0.00028128    0.00024898   -0.00037680
     atom   14 type  1   force =     0.00026956    0.00027225    0.00005607
     atom   15 type  2   force =     0.00006741    0.00018273   -0.00026959
     atom   16 type  2   force =     0.00001302    0.00020700    0.00079962
     atom   17 type  2   force =     0.00110008    0.00002463    0.00017385
     atom   18 type  2   force =    -0.00122178   -0.00010733   -0.00018936
     atom   19 type  1   force =    -0.00007638    0.00128657   -0.00002511
     atom   20 type  1   force =    -0.00023908   -0.00001592   -0.00002161
     atom   21 type  2   force =     0.00009729    0.00001367    0.10322394
     atom   22 type  2   force =    -0.00010347    0.00029243    0.00047811
     atom   23 type  2   force =    -0.07145085   -0.00009140   -0.02777439
     atom   24 type  2   force =     0.07143868    0.00035705   -0.02777021
     atom   25 type  1   force =     0.00000858   -0.00032731    0.09608889
     atom   26 type  1   force =    -0.00030167   -0.00044592   -0.17575318
     atom   27 type  2   force =     0.00008981   -0.00025081   -0.02370122
     atom   28 type  2   force =     0.00011969   -0.00130132    0.05282265
     atom   29 type  2   force =    -0.01226341    0.00021541    0.00357509
     atom   30 type  2   force =     0.01360196    0.00042869    0.00207382
     atom   31 type  1   force =    -0.00117267    0.00349961   -0.01017658
     atom   32 type  1   force =     0.00082543   -0.01100139    0.02705133
     atom   33 type  2   force =     0.00010188   -0.00000182    0.00059773
     atom   34 type  2   force =    -0.00115712   -0.00122890   -0.02344973
     atom   35 type  2   force =     0.00082250   -0.00052134   -0.00011605
     atom   36 type  2   force =    -0.00058605   -0.00018182   -0.00013590
     atom   37 type  1   force =    -0.00056087    0.00019455   -0.00044804
     atom   38 type  1   force =     0.00027920   -0.00025361    0.00010686
     atom   39 type  2   force =     0.00015564    0.00042393    0.00013691
     atom   40 type  2   force =     0.00019704    0.00015174   -0.00056104
     atom   41 type  2   force =     0.00070219    0.00075048    0.00023613
     atom   42 type  2   force =    -0.00099803    0.00065952    0.00025061
     atom   43 type  1   force =    -0.00001353   -0.00089482   -0.00079974
     atom   44 type  1   force =    -0.00043943    0.00103613    0.00041325
     atom   45 type  2   force =     0.00008599   -0.00002693    0.10321778
     atom   46 type  2   force =    -0.07145879   -0.00002103   -0.02778324
     atom   47 type  2   force =     0.07143934    0.00039590   -0.02777701
     atom   48 type  3   force =    -0.00209033   -0.00087780   -0.00280133
     atom   49 type  3   force =     0.00102368   -0.00076848    0.00244717
     atom   50 type  4   force =     0.00223349    0.00120069    0.00057535
     atom   51 type  5   force =    -0.00010013   -0.00079934   -0.00112970
     atom   52 type  5   force =     0.00010691   -0.00067841   -0.00068546
     atom   53 type  5   force =    -0.00006256    0.00054401    0.00025070
     atom   54 type  2   force =     0.00165656    0.00010489   -0.00024086
     atom   55 type  5   force =    -0.00066788   -0.00011009   -0.00015062
     atom   56 type  5   force =    -0.00114433    0.00084356    0.00055557

     Total force =     0.367765     Total SCF correction =     0.000657
  @ DRIVER MODE: Message from server: STATUS
  @ DRIVER MODE: Message from server: GETFORCE
  @ DRIVER MODE: Returning v,forces,stress,ensemble

     Writing output data file ./calc.save/
  @ DRIVER MODE: Message from server: EXIT
  @ DRIVE MODE: Exiting

     General routines

     Parallel routines

   This run was terminated on:  16:31:32  15Sep2021

   JOB DONE.