     Program PWSCF v.6.7GPU starts on 15Sep2021 at 13:13:23

     R & G space division:  proc/nbgrp/npool/nimage =      10
     Reading input from /storage/home/hcoda1/3/ntian30/research/carbon/CxH_vib/CH_calc/ads_slab/CHOH_d/out_0014/pw.inp
Warning: card &CELL ignored
Warning: card   CELL_DYNAMICS='IPI', ignored
Warning: card / ignored

     Current dimensions of program PWSCF are:
     Max number of different atomic species (ntypx) = 10
     Max number of k-points (npk) =  40000
     Max angular momentum in pseudopotentials (lmaxx) =  3
     Presently no symmetry can be used with electric field

     Message from routine cell_base_init:
     DEPRECATED: use true lattice parameter, not A to a.u. conversion factor

     IMPORTANT: XC functional enforced from input :
     Exchange-correlation= BEEF-VDW
                           (   1   4  43  14   2   0   0)
     Any further DFT definition will be discarded
     Please, verify this is what you really want

  @ DRIVER MODE: Connecting to
 qe_1139763_2850204.sched-torque.pace.gatech.edujm6u7o3o_scratch
  using UNIX socket
  @ DRIVER MODE: Message from server: STATUS
  @ DRIVER MODE: Message from server: INIT
  @ DRIVER MODE: Receiving replica           0          -1
  @ DRIVER MODE: Receiving encoded integer          25
  @ DRIVER MODE:  SCF:  T  FORCE:  T  STRESS:  F  VC:  F  ENSEMBLE:  F
  @ DRIVER MODE:  SCF:  T  FORCE:  T  STRESS:  F  VC:  F  ENSEMBLE:  F

     Using Slab Decomposition

     bravais-lattice index     =            0
     lattice parameter (alat)  =       1.8897  a.u.
     unit-cell volume          =    6658.9804 (a.u.)^3
     number of atoms/cell      =           51
     number of atomic types    =            4
     number of electrons       =       390.00
     number of Kohn-Sham states=          205
     kinetic-energy cutoff     =      29.3995  Ry
     charge density cutoff     =     293.9946  Ry
     scf convergence threshold =      7.3E-08
     mixing beta               =       0.0500
     number of iterations used =            8  plain     mixing
     Exchange-correlation= BEEF-VDW
                           (   1   4  43  14   2   0   0)

     celldm(1)=   1.889726  celldm(2)=   0.000000  celldm(3)=   0.000000
     celldm(4)=   0.000000  celldm(5)=   0.000000  celldm(6)=   0.000000

     crystal axes: (cart. coord. in units of alat)
               a(1) = (   6.579727   0.000000   0.000000 )
               a(2) = (  -0.000775   5.961596   0.000000 )
               a(3) = (   0.000000   0.000000  25.155947 )

     reciprocal axes: (cart. coord. in units 2 pi/alat)
               b(1) = (  0.151982  0.000020  0.000000 )
               b(2) = (  0.000000  0.167740  0.000000 )
               b(3) = (  0.000000  0.000000  0.039752 )

     PseudoPot. # 1 for Ti read from file:
     /storage/coda1/p-amedford6/0/shared/rich_project_chbe-medford/medford-share/data/pseudos_module/espresso/nninc/pbe/van/Ti.UPF
     MD5 check sum: 8e4df49b7f0d34bbd5052bf3f5ea0213
     Pseudo is Ultrasoft, Zval = 12.0
     Generated by new atomic code, or converted to UPF format
     Using radial grid of  851 points,  6 beta functions with:
                l(1) =   0
                l(2) =   0
                l(3) =   1
                l(4) =   1
                l(5) =   2
                l(6) =   2
     Q(r) pseudized with  8 coefficients,  rinner =    1.000   1.000   1.000
                                                       1.000   1.000

     PseudoPot. # 2 for O  read from file:
     /storage/coda1/p-amedford6/0/shared/rich_project_chbe-medford/medford-share/data/pseudos_module/espresso/nninc/pbe/van/O.UPF
     MD5 check sum: 78c19812648e8988a0fe644b0f25305e
     Pseudo is Ultrasoft, Zval =  6.0
     Generated by new atomic code, or converted to UPF format
     Using radial grid of  737 points,  4 beta functions with:
                l(1) =   0
                l(2) =   0
                l(3) =   1
                l(4) =   1
     Q(r) pseudized with  8 coefficients,  rinner =    0.800   0.800   0.800

     PseudoPot. # 3 for C  read from file:
     /storage/coda1/p-amedford6/0/shared/rich_project_chbe-medford/medford-share/data/pseudos_module/espresso/nninc/pbe/van/C.UPF
     MD5 check sum: 1a69bf6b8db32088f5b2163dbdb77a27
     Pseudo is Ultrasoft, Zval =  4.0
     Generated by new atomic code, or converted to UPF format
     Using radial grid of  721 points,  4 beta functions with:
                l(1) =   0
                l(2) =   0
                l(3) =   1
                l(4) =   1
     Q(r) pseudized with  8 coefficients,  rinner =    0.800   0.800   0.800

     PseudoPot. # 4 for H  read from file:
     /storage/coda1/p-amedford6/0/shared/rich_project_chbe-medford/medford-share/data/pseudos_module/espresso/nninc/pbe/van/H.UPF
     MD5 check sum: b5ee9d7bfd3a09ee7748110bda690ff7
     Pseudo is Ultrasoft, Zval =  1.0
     Generated by new atomic code, or converted to UPF format
     Using radial grid of  615 points,  1 beta functions with:
                l(1) =   0
     Q(r) pseudized with  8 coefficients,  rinner =    0.800

     atomic species   valence    mass     pseudopotential
        Ti1           12.00    47.86700     Ti( 1.00)
        O1             6.00    15.99900     O ( 1.00)
        C1             4.00    12.01100     C ( 1.00)
        H1             1.00     1.00800     H ( 1.00)

     No symmetry found

   Cartesian axes

     site n.     atom                  positions (alat units)
         1           Ti1 tau(   1) = (   0.0004258   2.9801865   6.0000000  )
         2           Ti1 tau(   2) = (   3.2906075   1.4906267   6.0002472  )
         3           O1  tau(   3) = (   0.0006271   0.0005054   7.9858123  )
         4           O1  tau(   4) = (   3.2906025   0.0005020   7.3038282  )
         5           O1  tau(   5) = (   4.5942328   1.4918067   9.2879030  )
         6           O1  tau(   6) = (   1.9868534   1.4903216   9.2879459  )
         7           Ti1 tau(   7) = (   3.2907309   2.9776765   9.1658812  )
         8           Ti1 tau(   8) = (   0.0000975   1.4630848   9.2758602  )
         9           O1  tau(   9) = (   3.2992614   5.9483050  11.3479409  )
        10           O1  tau(  10) = (   0.0007063   5.9515697  10.5933799  )
        11           O1  tau(  11) = (   1.2886368   1.4758772  12.6169360  )
        12           O1  tau(  12) = (   5.2821765   1.4725572  12.6321404  )
        13           Ti1 tau(  13) = (   0.0439011   2.9969894  12.8193871  )
        14           Ti1 tau(  14) = (   3.3815342   1.4778063  12.4828959  )
        15           O1  tau(  15) = (   0.0352585   5.9375929  14.6168471  )
        16           O1  tau(  16) = (   3.2809659   0.0029960  13.9351646  )
        17           O1  tau(  17) = (   4.5639172   1.5021510  16.0678584  )
        18           O1  tau(  18) = (   2.0588050   1.5241738  16.1323679  )
        19           Ti1 tau(  19) = (   3.3289217   2.9983165  15.7225387  )
        20           Ti1 tau(  20) = (   0.0567091   1.5532474  16.1006893  )
        21           O1  tau(  21) = (   3.2904802   0.0005063   4.7018136  )
        22           O1  tau(  22) = (   0.0083150   5.8936170  17.2391820  )
        23           O1  tau(  23) = (   1.3043587   1.4918075   6.0039043  )
        24           O1  tau(  24) = (   5.2767064   1.4903225   6.0039473  )
        25           Ti1 tau(  25) = (   0.0000382   5.9609847   6.0000000  )
        26           Ti1 tau(  26) = (   3.2902200   4.4714249   6.0002472  )
        27           O1  tau(  27) = (   0.0002396   2.9813036   7.9858123  )
        28           O1  tau(  28) = (   3.2902150   2.9813002   7.3038282  )
        29           O1  tau(  29) = (   4.5938453   4.4726049   9.2879030  )
        30           O1  tau(  30) = (   1.9864658   4.4711199   9.2879459  )
        31           Ti1 tau(  31) = (   3.2906741   5.9584693   9.1623309  )
        32           Ti1 tau(  32) = (   0.0020182   4.4105903   9.4029630  )
        33           O1  tau(  33) = (   3.2963946   2.9714859  11.3431964  )
        34           O1  tau(  34) = (  -0.0003580   2.9688738  10.5596877  )
        35           O1  tau(  35) = (   1.2880207   4.4560207  12.6239755  )
        36           O1  tau(  36) = (   5.2744328   4.4398676  12.6388197  )
        37           Ti1 tau(  37) = (   0.0843456   0.0234473  12.6131129  )
        38           Ti1 tau(  38) = (   3.3736736   4.4543396  12.4891683  )
        39           O1  tau(  39) = (   0.0394168   2.9432389  14.6713939  )
        40           O1  tau(  40) = (   3.2833495   2.9670780  13.9230463  )
        41           O1  tau(  41) = (   4.5592427   4.4833083  16.0293399  )
        42           O1  tau(  42) = (   2.0780377   4.4655606  16.1075158  )
        43           Ti1 tau(  43) = (   3.3267552   0.0098278  15.7307941  )
        44           Ti1 tau(  44) = (   0.0353388   4.6693566  15.9825682  )
        45           O1  tau(  45) = (   3.2900926   2.9813045   4.7018136  )
        46           C1  tau(  46) = (   6.5364748   2.8130622  17.7364117  )
        47           O1  tau(  47) = (   1.3039711   4.4726057   6.0039043  )
        48           O1  tau(  48) = (   5.2763189   4.4711207   6.0039473  )
        49           H1  tau(  49) = (   0.8622447   3.0922372  18.2894884  )
        50           O1  tau(  50) = (   5.4177661   2.9637287  18.5068037  )
        51           H1  tau(  51) = (   5.6109787   3.4346953  19.3318178  )

     number of k points=    10  Fermi-Dirac smearing, width (Ry)=  0.0073
                       cart. coord. in units 2pi/alat
        k(    1) = (   0.0000000   0.0000000   0.0000000), wk =   0.1250000
        k(    2) = (   0.0000000   0.0419351   0.0000000), wk =   0.2500000
        k(    3) = (   0.0000000  -0.0838702   0.0000000), wk =   0.1250000
        k(    4) = (   0.0379955   0.0000049   0.0000000), wk =   0.2500000
        k(    5) = (   0.0379955   0.0419400   0.0000000), wk =   0.2500000
        k(    6) = (   0.0379955  -0.0838652   0.0000000), wk =   0.2500000
        k(    7) = (   0.0379955  -0.0419301   0.0000000), wk =   0.2500000
        k(    8) = (  -0.0759910  -0.0000099   0.0000000), wk =   0.1250000
        k(    9) = (  -0.0759910   0.0419252   0.0000000), wk =   0.2500000
        k(   10) = (  -0.0759910  -0.0838800   0.0000000), wk =   0.1250000

     Initial potential from superposition of free atoms

     starting charge  373.99919, renormalised to  390.00000

     negative rho (up, down):  1.918E-02 0.000E+00

     %%%%%%%%%%%%%%%%%%%%%%%%%%%%%%%%%%%%%%%%%%%%%%%%%%%%%%%%%%%%%%%%%%%%%%%%
     %                                                                      %
     % You are using vdW-DF, which was implemented by the Thonhauser group. %
     % Please cite the following two papers that made this development      %
     % possible and the two reviews that describe the various versions:     %
     %                                                                      %
     %   T. Thonhauser et al., PRL 115, 136402 (2015).                      %
     %   T. Thonhauser et al., PRB 76, 125112 (2007).                       %
     %   K. Berland et al., Rep. Prog. Phys. 78, 066501 (2015).             %
     %   D.C. Langreth et al., J. Phys.: Condens. Matter 21, 084203 (2009). %
     %                                                                      %
     %                                                                      %
     % If you are calculating the stress with vdW-DF, please also cite:     %
     %                                                                      %
     %   R. Sabatini et al., J. Phys.: Condens. Matter 24, 424209 (2012).   %
     %                                                                      %
     %%%%%%%%%%%%%%%%%%%%%%%%%%%%%%%%%%%%%%%%%%%%%%%%%%%%%%%%%%%%%%%%%%%%%%%%

     Adding external electric field

     Computed dipole along edir(3) :
        Dipole               -4.8494 Ry au,        -12.3260 Debye
        Dipole field         -0.0092 Ry au,

        Potential amp.        0.8483 Ry
        Total length         46.3494 bohr

     Starting wfcs are  294 atomic wfcs
  @ DRIVER MODE: Message from server: STATUS
  @ DRIVER MODE: Message from server: POSDATA
  @ DRIVER MODE: Reading and sharing cell
  @ DRIVER MODE: Reading and sharing positions
  @ DRIVER MODE: Received positions

     Self-consistent Calculation

     iteration #  1     ecut=    29.40 Ry     beta= 0.05
     Davidson diagonalization with overlap
     c_bands:  4 eigenvalues not converged
     c_bands:  3 eigenvalues not converged
     c_bands:  3 eigenvalues not converged
     c_bands:  2 eigenvalues not converged
     c_bands:  2 eigenvalues not converged
     c_bands:  2 eigenvalues not converged
     c_bands:  1 eigenvalues not converged
     ethr =  1.00E-05,  avg # of iterations = 19.3

[...]

     total energy              =   -2871.56474531 Ry
     estimated scf accuracy    <     670.33255953 Ry

     iteration #  2     ecut=    29.40 Ry     beta= 0.05
     Davidson diagonalization with overlap
     ethr =  1.00E-02,  avg # of iterations = 15.6

[...]

     iteration # 44     ecut=    29.40 Ry     beta= 0.05
     Davidson diagonalization with overlap
     c_bands:  1 eigenvalues not converged
     ethr =  2.45E-07,  avg # of iterations = 12.3

[...]

     total energy              =   -2930.03900503 Ry
     estimated scf accuracy    <       0.00000022 Ry

     iteration # 78     ecut=    29.40 Ry     beta= 0.05
     Davidson diagonalization with overlap
     ethr =  2.54E-11,  avg # of iterations =  9.7

     negative rho (up, down):  1.868E-02 0.000E+00

     Adding external electric field

     Computed dipole along edir(3) :
        Dipole                0.8446 Ry au,          2.1468 Debye
        Dipole field          0.0016 Ry au,

        Potential amp.       -0.1478 Ry
        Total length         46.3494 bohr

     End of self-consistent calculation

          k = 0.0000 0.0000 0.0000 ( 18029 PWs)   bands (ev):

   -56.0333 -55.9976 -55.9755 -55.9393 -55.8982 -55.8286 -55.8277 -55.7378
   -55.7213 -55.6949 -55.6871 -55.5578 -55.1212 -55.0416 -54.9705 -54.9365
   -32.5285 -32.4840 -32.3399 -32.3119 -32.2977 -32.2945 -32.2807 -32.2226
   -32.2028 -32.1925 -32.1916 -32.1774 -32.1576 -32.1475 -32.1254 -32.1218
   -32.1111 -32.1090 -32.1078 -32.0398 -32.0149 -32.0062 -31.9852 -31.9677
   -31.9546 -31.9490 -31.9459 -31.9391 -31.9088 -31.9055 -31.8637 -31.8585
   -31.8164 -31.7714 -31.7546 -31.7456 -31.6085 -31.4913 -31.4079 -31.3852
   -31.3779 -31.2872 -31.2643 -31.1946 -31.1753 -31.1085 -31.0743 -30.9975
   -19.5269 -16.6847 -16.3743 -16.2205 -16.0689 -16.0640 -15.9606 -15.6905
   -15.6299 -15.5163 -15.5087 -15.5001 -15.4714 -15.4672 -15.4468 -15.4290
   -15.4017 -15.3884 -15.3799 -15.3401 -15.2918 -15.2159 -15.1923 -15.1399
   -15.0984 -15.0946 -15.0575 -14.9101 -14.8958 -14.5911 -13.4709 -13.3542
    -8.8758  -5.9269  -4.0523  -3.8945  -3.8647  -3.8527  -3.7276  -3.4962
    -3.4323  -3.1476  -3.1011  -3.0947  -3.0886  -3.0073  -2.9546  -2.8621
    -2.7907  -2.7459  -2.7186  -2.7122  -2.7057  -2.7024  -2.6629  -2.6351
    -2.5643  -2.5263  -2.4381  -2.3913  -2.3636  -2.3425  -2.3327  -2.2922
    -2.2098  -2.2054  -2.1646  -2.1476  -2.0786  -2.0619  -2.0337  -1.9716
    -1.7980  -1.7607  -1.7248  -1.6865  -1.6194  -1.4071  -1.3819  -1.3755
    -1.3462  -1.3168  -1.2622  -1.2478  -1.1217  -1.0866  -1.0367  -1.0116
    -0.9406  -0.9151  -0.8238  -0.8025  -0.7494  -0.7376  -0.6895  -0.6747
    -0.6274  -0.4399  -0.3909  -0.3490  -0.3170  -0.2746  -0.2224  -0.2199
    -0.1587  -0.1141  -0.1061  -0.0947  -0.0029   0.0261   0.0407   0.0594
     0.0658   0.1658   0.1777   0.2462   0.3057   0.4807   0.4850   0.6168
     0.6516   0.6792   0.7162   0.8417   0.9714   1.0530   1.1858   1.2353
     1.6423   1.7093   2.9059   3.1909   3.2725   3.3307   3.3512   3.4263
     3.5804   3.6377   3.6746   3.6979   3.7347

[...]

          k = 0.0380-0.0419 0.0000 ( 17876 PWs)   bands (ev):

[...]

          k =-0.0760-0.0000 0.0000 ( 17886 PWs)   bands (ev):

[...]

          k =-0.0760-0.0839 0.0000 ( 17948 PWs)   bands (ev):

   -56.0211 -56.0097 -55.9592 -55.9554 -55.8936 -55.8330 -55.8245 -55.7410
   -55.7053 -55.7027 -55.6929 -55.5599 -55.1177 -55.0449 -54.9539 -54.9530
   -32.3328 -32.3301 -32.3067 -32.3018 -32.2950 -32.2865 -32.2683 -32.2354
   -32.1876 -32.1834 -32.1809 -32.1579 -32.1544 -32.1502 -32.1496 -32.1201
   -32.1086 -32.0930 -32.0597 -32.0418 -32.0376 -32.0180 -32.0175 -32.0109
   -31.9975 -31.9663 -31.9568 -31.9527 -31.9517 -31.9131 -31.9026 -31.8996
   -31.8788 -31.8696 -31.7845 -31.7609 -31.5285 -31.4899 -31.4042 -31.3875
   -31.2775 -31.2765 -31.2621 -31.1912 -31.1906 -31.1520 -31.1512 -31.0779
   -19.5264 -16.1288 -16.1140 -15.8645 -15.8569 -15.7785 -15.7422 -15.6701
   -15.6688 -15.6527 -15.6344 -15.6066 -15.5695 -15.5281 -15.5083 -15.4919
   -15.4663 -15.4606 -15.4410 -15.3964 -15.3862 -15.2536 -15.2448 -15.2395
   -15.2339 -15.2002 -15.1526 -15.1178 -15.0688 -14.6911 -13.4565 -13.4551
    -8.8820  -5.9354  -3.4224  -3.4074  -3.0897  -3.0846  -3.0346  -2.9819
    -2.9053  -2.8847  -2.8245  -2.8087  -2.7851  -2.7847  -2.7759  -2.7520
    -2.7014  -2.6813  -2.6797  -2.6438  -2.6249  -2.5873  -2.5591  -2.5484
    -2.5297  -2.5258  -2.4894  -2.4741  -2.4639  -2.4541  -2.4411  -2.4367
    -2.3359  -2.1925  -2.1640  -2.1331  -2.0411  -2.0359  -2.0221  -1.9984
    -1.9655  -1.9504  -1.9168  -1.8395  -1.6834  -1.6655  -1.6427  -1.6063
    -1.5023  -1.4606  -1.3659  -1.2933  -1.2438  -1.2109  -1.1654  -1.1507
    -1.1383  -1.1045  -1.0610  -0.9856  -0.9482  -0.9307  -0.9213  -0.8971
    -0.8092  -0.7801  -0.7602  -0.7279  -0.6989  -0.5971  -0.5670  -0.5316
    -0.5022  -0.4672  -0.4119  -0.3854  -0.2858  -0.2828   0.0567   0.0756
     0.0904   0.1453   0.2158   0.3137   0.3443   0.3918   0.4851   0.5231
     0.5768   0.6106   0.6303   0.6834   0.6970   0.7165   1.4208   1.4214
     1.5024   1.5095   3.1023   3.4410   3.4692   3.4972   3.5406   3.6671
     3.6817   3.6884   3.7067   3.8994   3.9264

     the Fermi energy is     3.1263 ev

!    total energy              =   -2930.03901148 Ry
     estimated scf accuracy    <       0.00000002 Ry
     smearing contrib. (-TS)   =      -0.02073416 Ry
     internal energy E=F+TS    =   -2930.01827732 Ry

     The total energy is F=E-TS. E is the sum of the following terms:
     one-electron contribution =  -24524.05677107 Ry
     hartree contribution      =   12347.13301239 Ry
     xc contribution           =    -481.13220780 Ry
     ewald contribution        =    9728.03634299 Ry
     electric field correction =       0.00134618 Ry

     convergence has been achieved in  78 iterations

     Forces acting on atoms (cartesian axes, Ry/au):

     atom    1 type  1   force =    -0.00006581    0.00195062    0.12136259
     atom    2 type  1   force =    -0.00015992    0.00020241   -0.17637044
     atom    3 type  2   force =    -0.00008671    0.00550873   -0.04187449
     atom    4 type  2   force =     0.00009504    0.00023521    0.04679548
     atom    5 type  2   force =    -0.02225123   -0.00182961    0.00394161
     atom    6 type  2   force =     0.02249876   -0.00138956    0.00399495
     atom    7 type  1   force =    -0.00063877    0.00238236   -0.00663339
     atom    8 type  1   force =     0.00068457   -0.00171349    0.00446235
     atom    9 type  2   force =     0.00005906    0.00034668   -0.00021459
     atom   10 type  2   force =     0.00006320    0.00101663    0.00008866
     atom   11 type  2   force =     0.00028848    0.00130527   -0.00031249
     atom   12 type  2   force =     0.00024720    0.00129583   -0.00062185
     atom   13 type  1   force =     0.00011419   -0.00011867   -0.00050919
     atom   14 type  1   force =     0.00000566    0.00011043    0.00058221
     atom   15 type  2   force =     0.00002747   -0.00067339    0.00006619
     atom   16 type  2   force =     0.00022786   -0.00012901    0.00206793
     atom   17 type  2   force =    -0.00081607    0.00046404   -0.00001793
     atom   18 type  2   force =     0.00053496    0.00018031   -0.00012409
     atom   19 type  1   force =    -0.00031762   -0.00110339   -0.00100467
     atom   20 type  1   force =    -0.00029970   -0.00055059   -0.00114708
     atom   21 type  2   force =     0.00002588    0.00004512    0.10353222
     atom   22 type  2   force =    -0.00032833    0.00070614    0.00026844
     atom   23 type  2   force =    -0.06994056    0.00048325   -0.03149340
     atom   24 type  2   force =     0.06985486    0.00093153   -0.03149887
     atom   25 type  1   force =     0.00026979   -0.00189364    0.12782822
     atom   26 type  1   force =    -0.00017782   -0.00059799   -0.17577488
     atom   27 type  2   force =    -0.00004319   -0.00352371   -0.03802694
     atom   28 type  2   force =     0.00004880   -0.00033462    0.04766395
     atom   29 type  2   force =    -0.02394360   -0.00046229    0.00449772
     atom   30 type  2   force =     0.02413124    0.00011769    0.00467769
     atom   31 type  1   force =    -0.00084150   -0.00334481   -0.00585901
     atom   32 type  1   force =    -0.00001184   -0.00002743   -0.00085307
     atom   33 type  2   force =     0.00006652   -0.00015940    0.00031819
     atom   34 type  2   force =     0.00005882   -0.00063080   -0.00009427
     atom   35 type  2   force =    -0.00015986   -0.00020522   -0.00015561
     atom   36 type  2   force =     0.00071218    0.00019616   -0.00062602
     atom   37 type  1   force =     0.00069736   -0.00039739    0.00104577
     atom   38 type  1   force =    -0.00007671   -0.00031535    0.00029702
     atom   39 type  2   force =     0.00007334   -0.00030182   -0.00037953
     atom   40 type  2   force =     0.00018868    0.00051063    0.00166758
     atom   41 type  2   force =    -0.00001585   -0.00036417    0.00011168
     atom   42 type  2   force =    -0.00022526   -0.00024993    0.00004401
     atom   43 type  1   force =    -0.00073421    0.00028532   -0.00123631
     atom   44 type  1   force =    -0.00039924    0.00100588   -0.00136149
     atom   45 type  2   force =     0.00004800    0.00011590    0.10356400
     atom   46 type  3   force =     0.00825309    0.00062209   -0.00032428
     atom   47 type  2   force =    -0.07044596   -0.00082821   -0.03145914
     atom   48 type  2   force =     0.07038067   -0.00036280   -0.03151744
     atom   49 type  4   force =     0.00096146    0.00002354   -0.00201441
     atom   50 type  2   force =    -0.01130208   -0.00086358    0.00083194
     atom   51 type  4   force =     0.00266470    0.00232908    0.00179451

     Total force =     0.385343     Total SCF correction =     0.000369
  @ DRIVER MODE: Message from server: STATUS
  @ DRIVER MODE: Message from server: GETFORCE
  @ DRIVER MODE: Returning v,forces,stress,ensemble

     Writing output data file ./calc.save/
  @ DRIVER MODE: Message from server: EXIT
  @ DRIVE MODE: Exiting

     General routines

     Parallel routines

   This run was terminated on:  13:34:48  15Sep2021

   JOB DONE.