     Program PWSCF v.6.7GPU starts on 22Sep2021 at 22:27:28

     R & G space division:  proc/nbgrp/npool/nimage =      10
     Reading input from /storage/home/hcoda1/3/ntian30/research/carbon/CxH_vib/H2O_calc/ads_slab/CH2NHNHO_a/out_0019/pw.inp
Warning: card &CELL ignored
Warning: card   CELL_DYNAMICS='IPI', ignored
Warning: card / ignored

     Current dimensions of program PWSCF are:
     Max number of different atomic species (ntypx) = 10
     Max number of k-points (npk) =  40000
     Max angular momentum in pseudopotentials (lmaxx) =  3
     Presently no symmetry can be used with electric field

     Message from routine cell_base_init:
     DEPRECATED: use true lattice parameter, not A to a.u. conversion factor

     IMPORTANT: XC functional enforced from input :
     Exchange-correlation= BEEF-VDW
                           (   1   4  43  14   2   0   0)
     Any further DFT definition will be discarded
     Please, verify this is what you really want

  @ DRIVER MODE: Connecting to
 qe_1139763_2937322.sched-torque.pace.gatech.edu5v713ia9_scratch
  using UNIX socket
  @ DRIVER MODE: Message from server: STATUS
  @ DRIVER MODE: Message from server: INIT
  @ DRIVER MODE: Receiving replica           0          -1
  @ DRIVER MODE: Receiving encoded integer          25
  @ DRIVER MODE:  SCF:  T  FORCE:  T  STRESS:  F  VC:  F  ENSEMBLE:  F
  @ DRIVER MODE:  SCF:  T  FORCE:  T  STRESS:  F  VC:  F  ENSEMBLE:  F

     Using Slab Decomposition

     bravais-lattice index     =            0
     lattice parameter (alat)  =       1.8897  a.u.
     unit-cell volume          =    6658.9804 (a.u.)^3
     number of atoms/cell      =           55
     number of atomic types    =            5
     number of electrons       =       402.00
     number of Kohn-Sham states=          211
     kinetic-energy cutoff     =      29.3995  Ry
     charge density cutoff     =     293.9946  Ry
     scf convergence threshold =      7.3E-08
     mixing beta               =       0.0500
     number of iterations used =            8  plain     mixing
     Exchange-correlation= BEEF-VDW
                           (   1   4  43  14   2   0   0)

     celldm(1)=   1.889726  celldm(2)=   0.000000  celldm(3)=   0.000000
     celldm(4)=   0.000000  celldm(5)=   0.000000  celldm(6)=   0.000000

     crystal axes: (cart. coord. in units of alat)
               a(1) = (   6.579727   0.000000   0.000000 )
               a(2) = (  -0.000775   5.961596   0.000000 )
               a(3) = (   0.000000   0.000000  25.155947 )

     reciprocal axes: (cart. coord. in units 2 pi/alat)
               b(1) = (  0.151982  0.000020  0.000000 )
               b(2) = (  0.000000  0.167740  0.000000 )
               b(3) = (  0.000000  0.000000  0.039752 )

     PseudoPot. # 1 for Ti read from file:
     /storage/coda1/p-amedford6/0/shared/rich_project_chbe-medford/medford-share/data/pseudos_module/espresso/nninc/pbe/van/Ti.UPF
     MD5 check sum: 8e4df49b7f0d34bbd5052bf3f5ea0213
     Pseudo is Ultrasoft, Zval = 12.0
     Generated by new atomic code, or converted to UPF format
     Using radial grid of  851 points,  6 beta functions with:
                l(1) =   0
                l(2) =   0
                l(3) =   1
                l(4) =   1
                l(5) =   2
                l(6) =   2
     Q(r) pseudized with  8 coefficients,  rinner =    1.000   1.000   1.000
                                                       1.000   1.000

     PseudoPot. # 2 for O  read from file:
     /storage/coda1/p-amedford6/0/shared/rich_project_chbe-medford/medford-share/data/pseudos_module/espresso/nninc/pbe/van/O.UPF
     MD5 check sum: 78c19812648e8988a0fe644b0f25305e
     Pseudo is Ultrasoft, Zval =  6.0
     Generated by new atomic code, or converted to UPF format
     Using radial grid of  737 points,  4 beta functions with:
                l(1) =   0
                l(2) =   0
                l(3) =   1
                l(4) =   1
     Q(r) pseudized with  8 coefficients,  rinner =    0.800   0.800   0.800

     PseudoPot. # 3 for N  read from file:
     /storage/coda1/p-amedford6/0/shared/rich_project_chbe-medford/medford-share/data/pseudos_module/espresso/nninc/pbe/van/N.UPF
     MD5 check sum: 90d10febe142ad51ac9d5be1deb811c4
     Pseudo is Ultrasoft, Zval =  5.0
     Generated by new atomic code, or converted to UPF format
     Using radial grid of  729 points,  4 beta functions with:
                l(1) =   0
                l(2) =   0
                l(3) =   1
                l(4) =   1
     Q(r) pseudized with  8 coefficients,  rinner =    0.800   0.800   0.800

     PseudoPot. # 4 for C  read from file:
     /storage/coda1/p-amedford6/0/shared/rich_project_chbe-medford/medford-share/data/pseudos_module/espresso/nninc/pbe/van/C.UPF
     MD5 check sum: 1a69bf6b8db32088f5b2163dbdb77a27
     Pseudo is Ultrasoft, Zval =  4.0
     Generated by new atomic code, or converted to UPF format
     Using radial grid of  721 points,  4 beta functions with:
                l(1) =   0
                l(2) =   0
                l(3) =   1
                l(4) =   1
     Q(r) pseudized with  8 coefficients,  rinner =    0.800   0.800   0.800

     PseudoPot. # 5 for H  read from file:
     /storage/coda1/p-amedford6/0/shared/rich_project_chbe-medford/medford-share/data/pseudos_module/espresso/nninc/pbe/van/H.UPF
     MD5 check sum: b5ee9d7bfd3a09ee7748110bda690ff7
     Pseudo is Ultrasoft, Zval =  1.0
     Generated by new atomic code, or converted to UPF format
     Using radial grid of  615 points,  1 beta functions with:
                l(1) =   0
     Q(r) pseudized with  8 coefficients,  rinner =    0.800

     atomic species   valence    mass     pseudopotential
        Ti1           12.00    47.86700     Ti( 1.00)
        O1             6.00    15.99900     O ( 1.00)
        N1             5.00    14.00700     N ( 1.00)
        C1             4.00    12.01100     C ( 1.00)
        H1             1.00     1.00800     H ( 1.00)

     No symmetry found

   Cartesian axes

     site n.     atom                  positions (alat units)
         1           Ti1 tau(   1) = (   0.0004258   2.9801865   6.0000000  )
         2           Ti1 tau(   2) = (   3.2906075   1.4906267   6.0002472  )
         3           O1  tau(   3) = (   0.0006271   0.0005054   7.9858123  )
         4           O1  tau(   4) = (   3.2906025   0.0005020   7.3038282  )
         5           O1  tau(   5) = (   4.5942328   1.4918067   9.2879030  )
         6           O1  tau(   6) = (   1.9868534   1.4903216   9.2879459  )
         7           Ti1 tau(   7) = (   3.2907910   2.8959150   9.1758416  )
         8           Ti1 tau(   8) = (   0.0015273   1.4827037   9.2680791  )
         9           O1  tau(   9) = (   3.2865774   0.0244666  11.2672233  )
        10           O1  tau(  10) = (   0.0116148   5.9584955  10.6183126  )
        11           O1  tau(  11) = (   1.2851059   1.4881214  12.6284388  )
        12           O1  tau(  12) = (   5.2821296   1.4859116  12.6239949  )
        13           Ti1 tau(  13) = (   6.5757640   3.1226837  12.6583379  )
        14           Ti1 tau(  14) = (   3.2808560   1.5553189  12.4169499  )
        15           O1  tau(  15) = (   6.5631415   0.0020138  14.6662933  )
        16           O1  tau(  16) = (   3.2768600   5.9282172  13.8639556  )
        17           O1  tau(  17) = (   4.5247100   1.5609280  15.9911388  )
        18           O1  tau(  18) = (   2.0319249   1.5505618  16.0334288  )
        19           Ti1 tau(  19) = (   3.2655126   3.0139642  15.6417618  )
        20           Ti1 tau(  20) = (   6.4701730   1.5779936  15.7979382  )
        21           O1  tau(  21) = (   3.2904802   0.0005063   4.7018136  )
        22           O1  tau(  22) = (   6.5470303   0.0764028  17.2486596  )
        23           O1  tau(  23) = (   1.3043587   1.4918075   6.0039043  )
        24           O1  tau(  24) = (   5.2767064   1.4903225   6.0039473  )
        25           Ti1 tau(  25) = (   0.0000382   5.9609847   6.0000000  )
        26           Ti1 tau(  26) = (   3.2902200   4.4714249   6.0002472  )
        27           O1  tau(  27) = (   0.0002396   2.9813036   7.9858123  )
        28           O1  tau(  28) = (   3.2902150   2.9813002   7.3038282  )
        29           O1  tau(  29) = (   4.5938453   4.4726049   9.2879030  )
        30           O1  tau(  30) = (   1.9864658   4.4711199   9.2879459  )
        31           Ti1 tau(  31) = (   3.2891106   5.8743827   9.1763621  )
        32           Ti1 tau(  32) = (   0.0006254   4.4649316   9.2693709  )
        33           O1  tau(  33) = (   3.2856154   2.9374191  11.2445503  )
        34           O1  tau(  34) = (   0.0092240   2.9805883  10.6323155  )
        35           O1  tau(  35) = (   1.2776263   4.4762221  12.6158080  )
        36           O1  tau(  36) = (   5.2889682   4.4773653  12.6103441  )
        37           Ti1 tau(  37) = (   6.5721904   0.1276321  12.6579576  )
        38           Ti1 tau(  38) = (   3.2825792   4.6513186  12.6446142  )
        39           O1  tau(  39) = (   6.5601178   2.9984380  14.6401328  )
        40           O1  tau(  40) = (   3.2784952   3.0022753  13.8540846  )
        41           O1  tau(  41) = (   4.5130724   4.4679886  16.1105769  )
        42           O1  tau(  42) = (   2.0068779   4.4712703  16.0772645  )
        43           Ti1 tau(  43) = (   3.1879138   0.0422448  16.2953621  )
        44           Ti1 tau(  44) = (   6.5239028   4.6756254  16.1574449  )
        45           O1  tau(  45) = (   3.2900926   2.9813045   4.7018136  )
        46           O1  tau(  46) = (   1.3039711   4.4726057   6.0039043  )
        47           O1  tau(  47) = (   5.2763189   4.4711207   6.0039473  )
        48           N1  tau(  48) = (   0.1470516   2.5879757  18.5611170  )
        49           N1  tau(  49) = (   6.5778558   2.9357776  17.3215245  )
        50           C1  tau(  50) = (   0.2601206   3.3452726  19.6311682  )
        51           H1  tau(  51) = (   0.3527438   2.8498571  20.5812141  )
        52           H1  tau(  52) = (   0.2464683   4.4174571  19.5160682  )
        53           H1  tau(  53) = (   0.1772712   1.5612145  18.6921905  )
        54           O1  tau(  54) = (   3.2326362   0.0923429  18.1472848  )
        55           H1  tau(  55) = (   3.6209404   5.2806276  18.5811828  )

     number of k points=    10  Fermi-Dirac smearing, width (Ry)=  0.0073
                       cart. coord. in units 2pi/alat
        k(    1) = (   0.0000000   0.0000000   0.0000000), wk =   0.1250000
        k(    2) = (   0.0000000   0.0419351   0.0000000), wk =   0.2500000
        k(    3) = (   0.0000000  -0.0838702   0.0000000), wk =   0.1250000
        k(    4) = (   0.0379955   0.0000049   0.0000000), wk =   0.2500000
        k(    5) = (   0.0379955   0.0419400   0.0000000), wk =   0.2500000
        k(    6) = (   0.0379955  -0.0838652   0.0000000), wk =   0.2500000
        k(    7) = (   0.0379955  -0.0419301   0.0000000), wk =   0.2500000
        k(    8) = (  -0.0759910  -0.0000099   0.0000000), wk =   0.1250000
        k(    9) = (  -0.0759910   0.0419252   0.0000000), wk =   0.2500000
        k(   10) = (  -0.0759910  -0.0838800   0.0000000), wk =   0.1250000

     Initial potential from superposition of free atoms

     starting charge  385.99915, renormalised to  402.00000

     negative rho (up, down):  1.462E-02 0.000E+00

     %%%%%%%%%%%%%%%%%%%%%%%%%%%%%%%%%%%%%%%%%%%%%%%%%%%%%%%%%%%%%%%%%%%%%%%%
     %                                                                      %
     % You are using vdW-DF, which was implemented by the Thonhauser group. %
     % Please cite the following two papers that made this development      %
     % possible and the two reviews that describe the various versions:     %
     %                                                                      %
     %   T. Thonhauser et al., PRL 115, 136402 (2015).                      %
     %   T. Thonhauser et al., PRB 76, 125112 (2007).                       %
     %   K. Berland et al., Rep. Prog. Phys. 78, 066501 (2015).             %
     %   D.C. Langreth et al., J. Phys.: Condens. Matter 21, 084203 (2009). %
     %                                                                      %
     %                                                                      %
     % If you are calculating the stress with vdW-DF, please also cite:     %
     %                                                                      %
     %   R. Sabatini et al., J. Phys.: Condens. Matter 24, 424209 (2012).   %
     %                                                                      %
     %%%%%%%%%%%%%%%%%%%%%%%%%%%%%%%%%%%%%%%%%%%%%%%%%%%%%%%%%%%%%%%%%%%%%%%%

     Adding external electric field

     Computed dipole along edir(3) :
        Dipole              -11.6290 Ry au,        -29.5581 Debye
        Dipole field         -0.0219 Ry au,

        Potential amp.        2.0343 Ry
        Total length         46.3494 bohr

     Starting wfcs are  304 atomic wfcs
  @ DRIVER MODE: Message from server: STATUS
  @ DRIVER MODE: Message from server: POSDATA
  @ DRIVER MODE: Reading and sharing cell
  @ DRIVER MODE: Reading and sharing positions
  @ DRIVER MODE: Received positions

     Self-consistent Calculation

     iteration #  1     ecut=    29.40 Ry     beta= 0.05
     Davidson diagonalization with overlap
     c_bands:  3 eigenvalues not converged
     c_bands:  2 eigenvalues not converged
     c_bands:  3 eigenvalues not converged
     c_bands:  4 eigenvalues not converged
     c_bands:  1 eigenvalues not converged
     c_bands:  4 eigenvalues not converged
     c_bands:  5 eigenvalues not converged
     c_bands:  5 eigenvalues not converged
     c_bands:  5 eigenvalues not converged
     ethr =  1.00E-05,  avg # of iterations = 23.9

[...]

     total energy              =   -2412.16097020 Ry
     estimated scf accuracy    <    6293.17656492 Ry

     iteration #  2     ecut=    29.40 Ry     beta= 0.05
     Davidson diagonalization with overlap
     ethr =  1.00E-02,  avg # of iterations = 23.0

[...]

     iteration # 34     ecut=    29.40 Ry     beta= 0.05
     Davidson diagonalization with overlap
     c_bands:  1 eigenvalues not converged
     ethr =  1.53E-06,  avg # of iterations =  3.2

[...]

     total energy              =   -2972.74110078 Ry
     estimated scf accuracy    <       0.00000012 Ry

     iteration # 67     ecut=    29.40 Ry     beta= 0.05
     Davidson diagonalization with overlap
     ethr =  2.99E-11,  avg # of iterations =  5.9

     negative rho (up, down):  1.521E-02 0.000E+00

     Adding external electric field

     Computed dipole along edir(3) :
        Dipole                0.6676 Ry au,          1.6969 Debye
        Dipole field          0.0013 Ry au,

        Potential amp.       -0.1168 Ry
        Total length         46.3494 bohr

     End of self-consistent calculation

          k = 0.0000 0.0000 0.0000 ( 18029 PWs)   bands (ev):

   -56.4999 -56.4663 -55.7004 -55.6664 -55.4414 -55.3850 -55.1389 -55.1073
   -55.0884 -55.0545 -55.0340 -54.9832 -54.9792 -54.7868 -54.7539 -54.6419
   -32.9236 -32.7775 -32.7495 -32.6736 -32.5830 -32.5501 -32.1838 -31.9225
   -31.9216 -31.8917 -31.8405 -31.8359 -31.8162 -31.6706 -31.6625 -31.6154
   -31.5916 -31.5876 -31.5457 -31.5132 -31.4749 -31.4608 -31.4333 -31.4089
   -31.3728 -31.3714 -31.3678 -31.3570 -31.3052 -31.2951 -31.2724 -31.2493
   -31.2311 -31.2152 -31.2135 -31.2021 -31.1832 -31.1722 -31.1569 -31.1017
   -31.0468 -31.0262 -30.9971 -30.9850 -30.9696 -30.9186 -30.8569 -30.8323
   -18.6486 -16.6346 -16.1280 -16.0786 -15.8370 -15.7750 -15.7191 -15.7148
   -15.6697 -15.4282 -15.3907 -15.3577 -15.3139 -15.2173 -15.0869 -14.9902
   -14.7987 -14.7444 -14.7424 -14.7124 -14.6877 -14.6551 -14.6299 -14.5984
   -14.5941 -14.5611 -14.5058 -14.3340 -14.2687 -14.0590 -14.0442 -13.5861
   -13.4781 -12.4104  -8.5611  -6.0066  -4.5879  -4.2007  -3.6416  -3.6076
    -3.4300  -3.3446  -3.2492  -3.1674  -3.0687  -3.0413  -2.9622  -2.9222
    -2.9057  -2.8397  -2.8172  -2.6545  -2.6283  -2.6095  -2.5211  -2.4929
    -2.3303  -2.3062  -2.2240  -2.1510  -2.1310  -2.0738  -2.0608  -2.0007
    -1.9489  -1.9316  -1.8654  -1.8594  -1.8448  -1.7318  -1.7163  -1.6802
    -1.6325  -1.5716  -1.5613  -1.5074  -1.4226  -1.4090  -1.2760  -1.1922
    -1.1481  -1.1431  -1.1068  -1.0643  -1.0171  -0.8834  -0.8728  -0.7626
    -0.7430  -0.7411  -0.6735  -0.5772  -0.5557  -0.5231  -0.4475  -0.4111
    -0.3674  -0.3166  -0.2628  -0.1411  -0.1337  -0.1170  -0.0722  -0.0302
    -0.0149   0.0601   0.1509   0.1674   0.2727   0.2891   0.3371   0.4300
     0.5114   0.5216   0.5407   0.6022   0.6446   0.6792   0.7538   0.7727
     0.8135   0.8255   0.8745   0.9334   0.9605   1.0613   1.1087   1.1276
     1.1613   1.2094   1.2883   1.3716   1.4682   1.5099   1.5410   1.8116
     2.3280   2.7830   2.9456   3.2232   3.3345   3.6453   3.7701   3.7710
     3.7816   3.9850   4.1338

[...]

          k = 0.0380-0.0419 0.0000 ( 17876 PWs)   bands (ev):

[...]

          k =-0.0760-0.0000 0.0000 ( 17886 PWs)   bands (ev):

[...]

          k =-0.0760-0.0839 0.0000 ( 17948 PWs)   bands (ev):

   -56.4832 -56.4828 -55.6863 -55.6803 -55.4357 -55.3906 -55.1377 -55.1030
   -55.0716 -55.0712 -55.0382 -54.9823 -54.9798 -54.7882 -54.7516 -54.6440
   -32.7635 -32.7630 -32.7408 -32.7404 -32.6271 -32.6266 -32.0062 -32.0014
   -31.8812 -31.8757 -31.8706 -31.8607 -31.7430 -31.7081 -31.6640 -31.6571
   -31.6170 -31.6132 -31.4443 -31.4352 -31.4220 -31.4219 -31.3823 -31.3773
   -31.3618 -31.3537 -31.3408 -31.3217 -31.3001 -31.2932 -31.2925 -31.2746
   -31.2548 -31.2548 -31.2537 -31.2396 -31.2215 -31.1868 -31.1790 -31.1489
   -31.1343 -31.0506 -31.0063 -31.0012 -30.9861 -30.9481 -30.8714 -30.8590
   -18.6449 -16.0692 -16.0037 -16.0010 -15.9406 -15.9389 -15.7062 -15.7023
   -15.4666 -15.4383 -15.2804 -15.1870 -15.1691 -15.1073 -15.0691 -15.0171
   -14.9627 -14.9336 -14.8229 -14.7856 -14.7542 -14.7165 -14.6898 -14.6697
   -14.6094 -14.5729 -14.5491 -14.4502 -14.4264 -14.1914 -14.1827 -13.5823
   -13.5821 -12.4153  -8.5637  -6.0016  -4.5446  -3.6637  -3.3354  -3.0711
    -3.0668  -3.0612  -3.0562  -3.0131  -2.8169  -2.8133  -2.6604  -2.6268
    -2.6150  -2.5896  -2.5587  -2.4551  -2.3789  -2.3620  -2.3604  -2.3562
    -2.3070  -2.2989  -2.2478  -2.1696  -2.1066  -2.0981  -2.0639  -2.0022
    -1.9432  -1.8948  -1.8902  -1.8524  -1.8293  -1.7981  -1.7788  -1.7573
    -1.7125  -1.6292  -1.5049  -1.4292  -1.3977  -1.3805  -1.3424  -1.2956
    -1.2824  -1.2706  -1.2188  -1.2040  -1.1395  -1.1098  -1.0694  -0.9732
    -0.9133  -0.8822  -0.8576  -0.7530  -0.7140  -0.6391  -0.5940  -0.5596
    -0.5238  -0.5006  -0.4391  -0.4277  -0.3459  -0.2780  -0.2508  -0.1951
    -0.1814  -0.1693  -0.1515  -0.1068  -0.0012   0.0143   0.0478   0.1466
     0.2100   0.2823   0.3004   0.3921   0.4208   0.4917   0.6070   0.6451
     0.7144   0.7784   0.8522   0.9373   0.9852   1.0304   1.1363   1.2213
     1.2366   1.2838   1.3109   1.3160   1.3173   1.3701   1.3902   1.5181
     2.1641   3.3664   3.3681   3.4249   3.4296   3.7293   3.7346   3.8407
     3.8442   4.0940   4.1152

     the Fermi energy is     2.5942 ev

!    total energy              =   -2972.74112622 Ry
     estimated scf accuracy    <       0.00000005 Ry
     smearing contrib. (-TS)   =      -0.00419681 Ry
     internal energy E=F+TS    =   -2972.73692941 Ry

     The total energy is F=E-TS. E is the sum of the following terms:
     one-electron contribution =  -23700.03781771 Ry
     hartree contribution      =   11945.33129924 Ry
     xc contribution           =    -493.12322978 Ry
     ewald contribution        =    9275.09197772 Ry
     electric field correction =       0.00084112 Ry

     convergence has been achieved in  67 iterations

     Forces acting on atoms (cartesian axes, Ry/au):

     atom    1 type  1   force =     0.00016589   -0.00043163    0.12199213
     atom    2 type  1   force =    -0.00004159    0.00028089   -0.15639149
     atom    3 type  2   force =     0.00004727   -0.00048131   -0.06053759
     atom    4 type  2   force =     0.00005159    0.00071662    0.01972443
     atom    5 type  2   force =    -0.00084476   -0.00259776   -0.01519469
     atom    6 type  2   force =     0.00219771   -0.00198218   -0.01655336
     atom    7 type  1   force =    -0.00030206   -0.00090625    0.05415009
     atom    8 type  1   force =     0.00081922    0.00108239    0.09006895
     atom    9 type  2   force =    -0.00035898   -0.00027873    0.00005787
     atom   10 type  2   force =    -0.00296129    0.00316533   -0.05930583
     atom   11 type  2   force =    -0.00026326    0.00018788    0.00005671
     atom   12 type  2   force =    -0.00022144    0.00013886   -0.00037438
     atom   13 type  1   force =    -0.00052439    0.00039685    0.00034955
     atom   14 type  1   force =     0.00006745    0.00141402   -0.00109970
     atom   15 type  2   force =    -0.00000890   -0.00064512   -0.00145605
     atom   16 type  2   force =     0.00011795    0.00068075    0.00051754
     atom   17 type  2   force =    -0.00083092   -0.00042616   -0.00009055
     atom   18 type  2   force =     0.00046257    0.00010125   -0.00029973
     atom   19 type  1   force =     0.00003776    0.00123269   -0.00009620
     atom   20 type  1   force =     0.00009016    0.00044861    0.00034640
     atom   21 type  2   force =     0.00009207   -0.00002672    0.09825543
     atom   22 type  2   force =     0.00035375   -0.00049477    0.00023085
     atom   23 type  2   force =    -0.08163551   -0.00004860   -0.03248698
     atom   24 type  2   force =     0.08162029    0.00036928   -0.03251771
     atom   25 type  1   force =     0.00002704   -0.00029400    0.12167972
     atom   26 type  1   force =     0.00003168   -0.00154689   -0.15642583
     atom   27 type  2   force =     0.00012889    0.00021044   -0.05950128
     atom   28 type  2   force =     0.00005480    0.00039153    0.01459080
     atom   29 type  2   force =    -0.00455506    0.00218026   -0.01162555
     atom   30 type  2   force =     0.00588676    0.00262669   -0.01293352
     atom   31 type  1   force =    -0.00044138   -0.00214094    0.04015275
     atom   32 type  1   force =     0.00078931   -0.00225484    0.09109038
     atom   33 type  2   force =    -0.00012516    0.00038012    0.00007661
     atom   34 type  2   force =    -0.00234994    0.00049259   -0.06882015
     atom   35 type  2   force =    -0.00022686    0.00006199    0.00026806
     atom   36 type  2   force =     0.00060393   -0.00026404    0.00003267
     atom   37 type  1   force =    -0.00002912    0.00020814   -0.00070361
     atom   38 type  1   force =     0.00013402    0.00105761   -0.00046125
     atom   39 type  2   force =    -0.00049895   -0.00120690    0.00040228
     atom   40 type  2   force =    -0.00001475    0.00044535   -0.00010837
     atom   41 type  2   force =     0.00076542   -0.00042000    0.00000615
     atom   42 type  2   force =    -0.00056221   -0.00068877   -0.00069927
     atom   43 type  1   force =    -0.00017256   -0.00127370    0.00007529
     atom   44 type  1   force =    -0.00010863   -0.00063802    0.00055126
     atom   45 type  2   force =     0.00009511    0.00008442    0.09805814
     atom   46 type  2   force =    -0.08158870   -0.00002843   -0.03248087
     atom   47 type  2   force =     0.08157474    0.00041228   -0.03249834
     atom   48 type  3   force =     0.00002625    0.00016188    0.00023931
     atom   49 type  3   force =     0.00008406   -0.00145665    0.00031287
     atom   50 type  4   force =    -0.00031988    0.00049008   -0.00109214
     atom   51 type  5   force =     0.00134630   -0.00015401    0.00049764
     atom   52 type  5   force =     0.00056020   -0.00102566   -0.00009954
     atom   53 type  5   force =    -0.00012852    0.00130129    0.00007645
     atom   54 type  2   force =    -0.00048967    0.00101501   -0.00098389
     atom   55 type  5   force =     0.00137228   -0.00002300    0.00097753

     Total force =     0.408323     Total SCF correction =     0.000938
  @ DRIVER MODE: Message from server: STATUS
  @ DRIVER MODE: Message from server: GETFORCE
  @ DRIVER MODE: Returning v,forces,stress,ensemble

     Writing output data file ./calc.save/
  @ DRIVER MODE: Message from server: EXIT
  @ DRIVE MODE: Exiting

     General routines

     Parallel routines

   This run was terminated on:  22:45:51  22Sep2021

   JOB DONE.