     Program PWSCF v.6.7GPU starts on 10Sep2021 at 17:42:57

     R & G space division:  proc/nbgrp/npool/nimage =      10
     Reading input from /storage/home/hcoda1/3/ntian30/research/carbon/CxH_vib/CH2_calc/ads_slab/CH2N2H_e/out_0000/pw.inp
Warning: card &CELL ignored
Warning: card   CELL_DYNAMICS='IPI', ignored
Warning: card / ignored

     Current dimensions of program PWSCF are:
     Max number of different atomic species (ntypx) = 10
     Max number of k-points (npk) =  40000
     Max angular momentum in pseudopotentials (lmaxx) =  3
     Presently no symmetry can be used with electric field

     Message from routine cell_base_init:
     DEPRECATED: use true lattice parameter, not A to a.u. conversion factor

     IMPORTANT: XC functional enforced from input :
     Exchange-correlation= BEEF-VDW
                           (   1   4  43  14   2   0   0)
     Any further DFT definition will be discarded
     Please, verify this is what you really want

  @ DRIVER MODE: Connecting to
 qe_1139763_2792041.sched-torque.pace.gatech.edu58rcktj2_scratch
  using UNIX socket
  @ DRIVER MODE: Message from server: STATUS
  @ DRIVER MODE: Message from server: INIT
  @ DRIVER MODE: Receiving replica           0          -1
  @ DRIVER MODE: Receiving encoded integer          25
  @ DRIVER MODE:  SCF:  T  FORCE:  T  STRESS:  F  VC:  F  ENSEMBLE:  F
  @ DRIVER MODE:  SCF:  T  FORCE:  T  STRESS:  F  VC:  F  ENSEMBLE:  F

     Using Slab Decomposition

     bravais-lattice index     =            0
     lattice parameter (alat)  =       1.8897  a.u.
     unit-cell volume          =    6658.9804 (a.u.)^3
     number of atoms/cell      =           53
     number of atomic types    =            5
     number of electrons       =       395.00
     number of Kohn-Sham states=          207
     kinetic-energy cutoff     =      29.3995  Ry
     charge density cutoff     =     293.9946  Ry
     scf convergence threshold =      7.3E-08
     mixing beta               =       0.0500
     number of iterations used =            8  plain     mixing
     Exchange-correlation= BEEF-VDW
                           (   1   4  43  14   2   0   0)

     celldm(1)=   1.889726  celldm(2)=   0.000000  celldm(3)=   0.000000
     celldm(4)=   0.000000  celldm(5)=   0.000000  celldm(6)=   0.000000

     crystal axes: (cart. coord. in units of alat)
               a(1) = (   6.579727   0.000000   0.000000 )
               a(2) = (  -0.000775   5.961596   0.000000 )
               a(3) = (   0.000000   0.000000  25.155947 )

     reciprocal axes: (cart. coord. in units 2 pi/alat)
               b(1) = (  0.151982  0.000020  0.000000 )
               b(2) = (  0.000000  0.167740  0.000000 )
               b(3) = (  0.000000  0.000000  0.039752 )

     PseudoPot. # 1 for Ti read from file:
     /storage/coda1/p-amedford6/0/shared/rich_project_chbe-medford/medford-share/data/pseudos_module/espresso/nninc/pbe/van/Ti.UPF
     MD5 check sum: 8e4df49b7f0d34bbd5052bf3f5ea0213
     Pseudo is Ultrasoft, Zval = 12.0
     Generated by new atomic code, or converted to UPF format
     Using radial grid of  851 points,  6 beta functions with:
                l(1) =   0
                l(2) =   0
                l(3) =   1
                l(4) =   1
                l(5) =   2
                l(6) =   2
     Q(r) pseudized with  8 coefficients,  rinner =    1.000   1.000   1.000
                                                       1.000   1.000

     PseudoPot. # 2 for O  read from file:
     /storage/coda1/p-amedford6/0/shared/rich_project_chbe-medford/medford-share/data/pseudos_module/espresso/nninc/pbe/van/O.UPF
     MD5 check sum: 78c19812648e8988a0fe644b0f25305e
     Pseudo is Ultrasoft, Zval =  6.0
     Generated by new atomic code, or converted to UPF format
     Using radial grid of  737 points,  4 beta functions with:
                l(1) =   0
                l(2) =   0
                l(3) =   1
                l(4) =   1
     Q(r) pseudized with  8 coefficients,  rinner =    0.800   0.800   0.800

     PseudoPot. # 3 for N  read from file:
     /storage/coda1/p-amedford6/0/shared/rich_project_chbe-medford/medford-share/data/pseudos_module/espresso/nninc/pbe/van/N.UPF
     MD5 check sum: 90d10febe142ad51ac9d5be1deb811c4
     Pseudo is Ultrasoft, Zval =  5.0
     Generated by new atomic code, or converted to UPF format
     Using radial grid of  729 points,  4 beta functions with:
                l(1) =   0
                l(2) =   0
                l(3) =   1
                l(4) =   1
     Q(r) pseudized with  8 coefficients,  rinner =    0.800   0.800   0.800

     PseudoPot. # 4 for C  read from file:
     /storage/coda1/p-amedford6/0/shared/rich_project_chbe-medford/medford-share/data/pseudos_module/espresso/nninc/pbe/van/C.UPF
     MD5 check sum: 1a69bf6b8db32088f5b2163dbdb77a27
     Pseudo is Ultrasoft, Zval =  4.0
     Generated by new atomic code, or converted to UPF format
     Using radial grid of  721 points,  4 beta functions with:
                l(1) =   0
                l(2) =   0
                l(3) =   1
                l(4) =   1
     Q(r) pseudized with  8 coefficients,  rinner =    0.800   0.800   0.800

     PseudoPot. # 5 for H  read from file:
     /storage/coda1/p-amedford6/0/shared/rich_project_chbe-medford/medford-share/data/pseudos_module/espresso/nninc/pbe/van/H.UPF
     MD5 check sum: b5ee9d7bfd3a09ee7748110bda690ff7
     Pseudo is Ultrasoft, Zval =  1.0
     Generated by new atomic code, or converted to UPF format
     Using radial grid of  615 points,  1 beta functions with:
                l(1) =   0
     Q(r) pseudized with  8 coefficients,  rinner =    0.800

     atomic species   valence    mass     pseudopotential
        Ti1           12.00    47.86700     Ti( 1.00)
        O1             6.00    15.99900     O ( 1.00)
        N1             5.00    14.00700     N ( 1.00)
        C1             4.00    12.01100     C ( 1.00)
        H1             1.00     1.00800     H ( 1.00)

     No symmetry found

   Cartesian axes

     site n.     atom                  positions (alat units)
         1           Ti1 tau(   1) = (   0.0004258   2.9801865   6.0000000  )
         2           Ti1 tau(   2) = (   3.2906075   1.4906267   6.0002472  )
         3           O1  tau(   3) = (   0.0006271   0.0005054   7.9858123  )
         4           O1  tau(   4) = (   3.2906025   0.0005020   7.3038282  )
         5           O1  tau(   5) = (   4.5942328   1.4918067   9.2879030  )
         6           O1  tau(   6) = (   1.9868534   1.4903216   9.2879459  )
         7           Ti1 tau(   7) = (   3.2907910   2.8959150   9.1758416  )
         8           Ti1 tau(   8) = (   0.0015273   1.4827037   9.2680791  )
         9           O1  tau(   9) = (   3.2922140   0.0036562  11.3253104  )
        10           O1  tau(  10) = (   0.0116148   5.9584955  10.6183126  )
        11           O1  tau(  11) = (   1.2860832   1.4889729  12.6258215  )
        12           O1  tau(  12) = (   5.2729595   1.4828594  12.6177116  )
        13           Ti1 tau(  13) = (   0.0641184   3.0073180  12.5883652  )
        14           Ti1 tau(  14) = (   3.3767723   1.4911129  12.4765728  )
        15           O1  tau(  15) = (   6.5781935   5.9569561  14.6821271  )
        16           O1  tau(  16) = (   3.2819581   0.0025077  13.9050320  )
        17           O1  tau(  17) = (   4.5172158   1.5234625  16.0337941  )
        18           O1  tau(  18) = (   2.0475084   1.5263597  16.0453316  )
        19           Ti1 tau(  19) = (   3.2743797   3.0127756  15.6984511  )
        20           Ti1 tau(  20) = (   6.5512008   1.5842238  15.7855373  )
        21           O1  tau(  21) = (   3.2904802   0.0005063   4.7018136  )
        22           O1  tau(  22) = (   6.5742344   0.0609322  17.2932839  )
        23           O1  tau(  23) = (   1.3043587   1.4918075   6.0039043  )
        24           O1  tau(  24) = (   5.2767064   1.4903225   6.0039473  )
        25           Ti1 tau(  25) = (   0.0000382   5.9609847   6.0000000  )
        26           Ti1 tau(  26) = (   3.2902200   4.4714249   6.0002472  )
        27           O1  tau(  27) = (   0.0002396   2.9813036   7.9858123  )
        28           O1  tau(  28) = (   3.2902150   2.9813002   7.3038282  )
        29           O1  tau(  29) = (   4.5938453   4.4726049   9.2879030  )
        30           O1  tau(  30) = (   1.9864658   4.4711199   9.2879459  )
        31           Ti1 tau(  31) = (   3.2891106   5.8743827   9.1763621  )
        32           Ti1 tau(  32) = (   0.0006254   4.4649316   9.2693709  )
        33           O1  tau(  33) = (   3.2917412   2.9831059  11.3263362  )
        34           O1  tau(  34) = (   0.0092240   2.9805883  10.6323155  )
        35           O1  tau(  35) = (   1.2859270   4.4784489  12.6216084  )
        36           O1  tau(  36) = (   5.2779610   4.4756213  12.6128944  )
        37           Ti1 tau(  37) = (   0.0616295   0.0157230  12.5710002  )
        38           Ti1 tau(  38) = (   3.3796684   4.4726909  12.4790056  )
        39           O1  tau(  39) = (   6.5693437   2.9756239  14.6354252  )
        40           O1  tau(  40) = (   3.2842310   3.0020566  13.9003041  )
        41           O1  tau(  41) = (   4.5171552   4.5052370  16.0986928  )
        42           O1  tau(  42) = (   2.0408908   4.5012300  16.0971631  )
        43           Ti1 tau(  43) = (   3.2680294   0.0293594  15.7040856  )
        44           Ti1 tau(  44) = (   6.5592110   4.6908586  16.1766550  )
        45           O1  tau(  45) = (   3.2900926   2.9813045   4.7018136  )
        46           O1  tau(  46) = (   1.3039711   4.4726057   6.0039043  )
        47           O1  tau(  47) = (   5.2763189   4.4711207   6.0039473  )
        48           N1  tau(  48) = (   0.0931655   2.5901963  18.5587852  )
        49           N1  tau(  49) = (   6.5755498   2.9338716  17.3126873  )
        50           C1  tau(  50) = (   0.1889803   3.3462807  19.6294495  )
        51           H1  tau(  51) = (   0.2540540   2.8541835  20.5836859  )
        52           H1  tau(  52) = (   0.1890997   4.4171571  19.5098884  )
        53           H1  tau(  53) = (   0.0969130   1.5623892  18.6894177  )

     number of k points=    10  Fermi-Dirac smearing, width (Ry)=  0.0073
                       cart. coord. in units 2pi/alat
        k(    1) = (   0.0000000   0.0000000   0.0000000), wk =   0.1250000
        k(    2) = (   0.0000000   0.0419351   0.0000000), wk =   0.2500000
        k(    3) = (   0.0000000  -0.0838702   0.0000000), wk =   0.1250000
        k(    4) = (   0.0379955   0.0000049   0.0000000), wk =   0.2500000
        k(    5) = (   0.0379955   0.0419400   0.0000000), wk =   0.2500000
        k(    6) = (   0.0379955  -0.0838652   0.0000000), wk =   0.2500000
        k(    7) = (   0.0379955  -0.0419301   0.0000000), wk =   0.2500000
        k(    8) = (  -0.0759910  -0.0000099   0.0000000), wk =   0.1250000
        k(    9) = (  -0.0759910   0.0419252   0.0000000), wk =   0.2500000
        k(   10) = (  -0.0759910  -0.0838800   0.0000000), wk =   0.1250000

     Initial potential from superposition of free atoms

     starting charge  378.99916, renormalised to  395.00000

     negative rho (up, down):  1.523E-02 0.000E+00

     %%%%%%%%%%%%%%%%%%%%%%%%%%%%%%%%%%%%%%%%%%%%%%%%%%%%%%%%%%%%%%%%%%%%%%%%
     %                                                                      %
     % You are using vdW-DF, which was implemented by the Thonhauser group. %
     % Please cite the following two papers that made this development      %
     % possible and the two reviews that describe the various versions:     %
     %                                                                      %
     %   T. Thonhauser et al., PRL 115, 136402 (2015).                      %
     %   T. Thonhauser et al., PRB 76, 125112 (2007).                       %
     %   K. Berland et al., Rep. Prog. Phys. 78, 066501 (2015).             %
     %   D.C. Langreth et al., J. Phys.: Condens. Matter 21, 084203 (2009). %
     %                                                                      %
     %                                                                      %
     % If you are calculating the stress with vdW-DF, please also cite:     %
     %                                                                      %
     %   R. Sabatini et al., J. Phys.: Condens. Matter 24, 424209 (2012).   %
     %                                                                      %
     %%%%%%%%%%%%%%%%%%%%%%%%%%%%%%%%%%%%%%%%%%%%%%%%%%%%%%%%%%%%%%%%%%%%%%%%

     Adding external electric field

     Computed dipole along edir(3) :
        Dipole               -8.7485 Ry au,        -22.2364 Debye
        Dipole field         -0.0165 Ry au,

        Potential amp.        1.5304 Ry
        Total length         46.3494 bohr

     Starting wfcs are  299 atomic wfcs
  @ DRIVER MODE: Message from server: STATUS
  @ DRIVER MODE: Message from server: POSDATA
  @ DRIVER MODE: Reading and sharing cell
  @ DRIVER MODE: Reading and sharing positions
  @ DRIVER MODE: Received positions

     Self-consistent Calculation

     iteration #  1     ecut=    29.40 Ry     beta= 0.05
     Davidson diagonalization with overlap
     ethr =  1.00E-02,  avg # of iterations =  2.6

[...]

     total energy              =   -2620.90267437 Ry
     estimated scf accuracy    <    3532.56319865 Ry

     iteration #  2     ecut=    29.40 Ry     beta= 0.05
     Davidson diagonalization with overlap
     c_bands:  5 eigenvalues not converged
     ethr =  1.00E-02,  avg # of iterations = 21.5

[...]

     iteration # 63     ecut=    29.40 Ry     beta= 0.05
     Davidson diagonalization with overlap
     c_bands:  1 eigenvalues not converged
     ethr =  1.43E-10,  avg # of iterations = 12.1

[...]

     total energy              =   -2939.15588477 Ry
     estimated scf accuracy    <       0.00000010 Ry

     iteration # 68     ecut=    29.40 Ry     beta= 0.05
     Davidson diagonalization with overlap
     ethr =  2.63E-11,  avg # of iterations =  1.8

     negative rho (up, down):  1.569E-02 0.000E+00

     Adding external electric field

     Computed dipole along edir(3) :
        Dipole                1.1196 Ry au,          2.8457 Debye
        Dipole field          0.0021 Ry au,

        Potential amp.       -0.1959 Ry
        Total length         46.3494 bohr

     End of self-consistent calculation

          k = 0.0000 0.0000 0.0000 ( 18029 PWs)   bands (ev):

   -55.5869 -55.5839 -55.5529 -55.5479 -55.4549 -55.4359 -55.4186 -55.4008
   -55.4007 -55.3668 -55.3620 -55.3283 -54.9565 -54.8687 -54.5647 -54.5307
   -32.1386 -32.0698 -31.9558 -31.8992 -31.8966 -31.8883 -31.8797 -31.8532
   -31.8308 -31.8111 -31.7793 -31.7697 -31.7631 -31.7390 -31.7367 -31.7237
   -31.6917 -31.6814 -31.6720 -31.6584 -31.6553 -31.6440 -31.6095 -31.6031
   -31.5934 -31.5897 -31.5854 -31.5773 -31.5663 -31.5640 -31.5395 -31.5296
   -31.5158 -31.5105 -31.5028 -31.4749 -31.4634 -31.1956 -31.1878 -31.1492
   -31.1015 -31.0476 -30.9718 -30.8837 -30.8613 -30.7887 -30.7022 -30.5909
   -18.9378 -16.3421 -16.0653 -15.8178 -15.7375 -15.7209 -15.6051 -15.4326
   -15.3161 -15.2650 -15.1619 -15.1610 -15.1242 -15.0901 -15.0423 -15.0389
   -15.0341 -15.0069 -14.9981 -14.9778 -14.9475 -14.9293 -14.8899 -14.7908
   -14.7724 -14.7226 -14.6939 -14.6680 -14.6477 -14.2638 -13.0672 -12.9507
   -12.7034  -8.8757  -6.3282  -4.8593  -3.7175  -3.6508  -3.5597  -3.4945
    -3.4593  -3.4275  -3.2322  -3.1916  -3.1426  -2.8360  -2.7754  -2.7570
    -2.7469  -2.7173  -2.4926  -2.4538  -2.4024  -2.3718  -2.3602  -2.3577
    -2.3561  -2.3265  -2.3080  -2.1671  -2.1323  -2.0421  -2.0026  -1.9961
    -1.9874  -1.9000  -1.8681  -1.8416  -1.8316  -1.8216  -1.7938  -1.7849
    -1.7761  -1.6421  -1.5631  -1.4114  -1.3909  -1.3506  -1.2193  -1.1951
    -1.0634  -1.0464  -1.0173  -0.9803  -0.9609  -0.8917  -0.7720  -0.7501
    -0.7144  -0.6993  -0.6088  -0.5707  -0.5029  -0.4685  -0.4445  -0.3968
    -0.3580  -0.3488  -0.3269  -0.2007  -0.0708  -0.0132  -0.0040   0.0231
     0.0916   0.1294   0.1898   0.2399   0.2497   0.2863   0.3378   0.3824
     0.3943   0.3966   0.4119   0.4499   0.5912   0.6076   0.6730   0.7183
     0.7617   0.8767   0.9286   1.0648   1.1565   1.3149   1.3846   1.4575
     1.5297   1.6496   2.0279   2.0462   2.0738   3.5433   3.6319   3.6760
     3.6813   3.7872   3.8821   3.9946   4.0141   4.0346   4.0897

[...]

          k = 0.0380-0.0419 0.0000 ( 17876 PWs)   bands (ev):

[...]

          k =-0.0760-0.0000 0.0000 ( 17886 PWs)   bands (ev):

[...]

          k =-0.0760-0.0839 0.0000 ( 17948 PWs)   bands (ev):

   -55.5700 -55.5696 -55.5661 -55.5655 -55.4423 -55.4311 -55.4215 -55.4149
   -55.3837 -55.3834 -55.3458 -55.3446 -54.9537 -54.8714 -54.5477 -54.5476
   -31.9419 -31.9403 -31.8853 -31.8848 -31.8654 -31.8648 -31.8383 -31.8379
   -31.8033 -31.7909 -31.7670 -31.7607 -31.7260 -31.7180 -31.7030 -31.7010
   -31.6985 -31.6960 -31.6894 -31.6892 -31.6860 -31.6834 -31.6556 -31.6479
   -31.6296 -31.6273 -31.6204 -31.6151 -31.5842 -31.5828 -31.5776 -31.5760
   -31.5613 -31.5608 -31.5605 -31.5585 -31.3661 -31.2323 -31.1965 -31.1633
   -31.1036 -31.0917 -30.8740 -30.8740 -30.7846 -30.7845 -30.7455 -30.7455
   -18.9340 -15.7723 -15.7576 -15.5311 -15.5157 -15.5049 -15.4959 -15.3484
   -15.3215 -15.2832 -15.2802 -15.2088 -15.1633 -15.1466 -15.1309 -15.1286
   -15.1099 -15.1019 -15.0532 -15.0466 -15.0451 -15.0271 -15.0206 -14.9062
   -14.9022 -14.8943 -14.8418 -14.7929 -14.6759 -14.3915 -13.0525 -13.0525
   -12.7091  -8.8758  -6.3225  -4.8206  -3.6651  -3.3317  -3.0599  -3.0487
    -2.7586  -2.7476  -2.7454  -2.7021  -2.5098  -2.5049  -2.4910  -2.4589
    -2.4253  -2.4140  -2.4044  -2.3899  -2.3843  -2.3360  -2.3140  -2.2688
    -2.2559  -2.2525  -2.2511  -2.2156  -2.2052  -2.1633  -2.1527  -2.1293
    -2.1173  -2.0855  -2.0544  -1.9078  -1.8212  -1.8022  -1.7283  -1.7215
    -1.6891  -1.6519  -1.6383  -1.5941  -1.5589  -1.4427  -1.3303  -1.2882
    -1.2737  -1.1738  -1.1374  -1.0992  -1.0465  -0.9724  -0.9643  -0.9352
    -0.8692  -0.7971  -0.7807  -0.7580  -0.6939  -0.6697  -0.5961  -0.5751
    -0.5496  -0.5448  -0.4885  -0.4230  -0.4071  -0.3552  -0.3471  -0.3060
    -0.2716  -0.2424  -0.2230  -0.0837  -0.0823  -0.0422   0.0926   0.1485
     0.3809   0.4305   0.4506   0.5218   0.6218   0.6702   0.6838   0.7255
     0.7346   0.7500   0.8098   0.9399   0.9455   1.0141   1.0550   1.1563
     1.8214   1.8218   1.8937   1.8938   1.9060   3.8390   3.8655   3.8783
     3.9021   4.0500   4.0600   4.0798   4.0806   4.2001   4.2211

     the Fermi energy is     3.5447 ev

!    total energy              =   -2939.15590833 Ry
     estimated scf accuracy    <       0.00000007 Ry
     smearing contrib. (-TS)   =      -0.02147665 Ry
     internal energy E=F+TS    =   -2939.13443169 Ry

     The total energy is F=E-TS. E is the sum of the following terms:
     one-electron contribution =  -24212.83677057 Ry
     hartree contribution      =   12196.26307107 Ry
     xc contribution           =    -485.25469441 Ry
     ewald contribution        =    9562.69159668 Ry
     electric field correction =       0.00236554 Ry

     convergence has been achieved in  68 iterations

     Forces acting on atoms (cartesian axes, Ry/au):

     atom    1 type  1   force =     0.00008728   -0.00017893    0.09643646
     atom    2 type  1   force =    -0.00018761   -0.00073096   -0.17540932
     atom    3 type  2   force =     0.00004551   -0.00013737   -0.02408529
     atom    4 type  2   force =     0.00007648   -0.00141019    0.05269184
     atom    5 type  2   force =    -0.01131046   -0.00007338    0.00339253
     atom    6 type  2   force =     0.01296311    0.00064066    0.00223743
     atom    7 type  1   force =    -0.00119990    0.00047206   -0.01226391
     atom    8 type  1   force =     0.00043044    0.00233230    0.02518841
     atom    9 type  2   force =    -0.00024933    0.00019821    0.00004677
     atom   10 type  2   force =    -0.00120415    0.00198417   -0.01305262
     atom   11 type  2   force =     0.00057712    0.00016054    0.00024346
     atom   12 type  2   force =    -0.00050358    0.00006508    0.00012025
     atom   13 type  1   force =    -0.00050013    0.00027385    0.00017854
     atom   14 type  1   force =     0.00060683   -0.00036705   -0.00031165
     atom   15 type  2   force =    -0.00006607    0.00029034    0.00006185
     atom   16 type  2   force =    -0.00002252    0.00017970    0.00059649
     atom   17 type  2   force =    -0.00054501   -0.00003263   -0.00004893
     atom   18 type  2   force =     0.00019017   -0.00011695   -0.00028823
     atom   19 type  1   force =     0.00012910    0.00075241    0.00046312
     atom   20 type  1   force =    -0.00000304    0.00032352   -0.00013241
     atom   21 type  2   force =     0.00009944   -0.00012392    0.10316760
     atom   22 type  2   force =    -0.00024731    0.00014507    0.00009997
     atom   23 type  2   force =    -0.07150617   -0.00021486   -0.02774314
     atom   24 type  2   force =     0.07150756    0.00025077   -0.02775217
     atom   25 type  1   force =     0.00012265   -0.00025326    0.09595728
     atom   26 type  1   force =    -0.00011120   -0.00044247   -0.17556131
     atom   27 type  2   force =     0.00009810   -0.00012869   -0.02332886
     atom   28 type  2   force =     0.00010944   -0.00121850    0.05265818
     atom   29 type  2   force =    -0.01155712   -0.00030080    0.00347017
     atom   30 type  2   force =     0.01314465    0.00016424    0.00227656
     atom   31 type  1   force =    -0.00120404    0.00346124   -0.01237484
     atom   32 type  1   force =     0.00054239   -0.00378584    0.02547963
     atom   33 type  2   force =     0.00002454   -0.00018242   -0.00001002
     atom   34 type  2   force =    -0.00098445    0.00046443   -0.02168885
     atom   35 type  2   force =     0.00014025    0.00001259    0.00018447
     atom   36 type  2   force =    -0.00014646    0.00002400    0.00007065
     atom   37 type  1   force =    -0.00044525   -0.00032796    0.00015255
     atom   38 type  1   force =     0.00043733    0.00027422   -0.00030471
     atom   39 type  2   force =    -0.00001669   -0.00045910    0.00033697
     atom   40 type  2   force =    -0.00013030   -0.00008284    0.00014597
     atom   41 type  2   force =    -0.00082235   -0.00017097   -0.00024520
     atom   42 type  2   force =     0.00089038    0.00001669   -0.00001267
     atom   43 type  1   force =    -0.00000797   -0.00076221    0.00009129
     atom   44 type  1   force =    -0.00004264    0.00005383    0.00014736
     atom   45 type  2   force =     0.00010384   -0.00010989    0.10318632
     atom   46 type  2   force =    -0.07150926   -0.00015084   -0.02772901
     atom   47 type  2   force =     0.07151618    0.00029386   -0.02773375
     atom   48 type  3   force =     0.00033439   -0.00150375   -0.00067645
     atom   49 type  3   force =     0.00020612   -0.00010345   -0.00022041
     atom   50 type  4   force =    -0.00020859    0.00076750    0.00099781
     atom   51 type  5   force =     0.00024111   -0.00046248    0.00025914
     atom   52 type  5   force =     0.00018696   -0.00057979    0.00037073
     atom   53 type  5   force =    -0.00007976    0.00081024    0.00026396

     Total force =     0.366769     Total SCF correction =     0.000455
  @ DRIVER MODE: Message from server: STATUS
  @ DRIVER MODE: Message from server: GETFORCE
  @ DRIVER MODE: Returning v,forces,stress,ensemble

     Writing output data file ./calc.save/
  @ DRIVER MODE: Message from server: EXIT
  @ DRIVE MODE: Exiting

     General routines

     Parallel routines

   This run was terminated on:  18: 1:19  10Sep2021

   JOB DONE.