     Program PWSCF v.6.7GPU starts on 23Sep2021 at  3: 9:57

     R & G space division:  proc/nbgrp/npool/nimage =      10
     Reading input from /storage/home/hcoda1/3/ntian30/research/carbon/CxH_vib/H2O_calc/ads_slab/CHNHHO_a/out_0035/pw.inp
Warning: card &CELL ignored
Warning: card   CELL_DYNAMICS='IPI', ignored
Warning: card / ignored

     Current dimensions of program PWSCF are:
     Max number of different atomic species (ntypx) = 10
     Max number of k-points (npk) =  40000
     Max angular momentum in pseudopotentials (lmaxx) =  3
     Presently no symmetry can be used with electric field

     Message from routine cell_base_init:
     DEPRECATED: use true lattice parameter, not A to a.u. conversion factor

     IMPORTANT: XC functional enforced from input :
     Exchange-correlation= BEEF-VDW
                           (   1   4  43  14   2   0   0)
     Any further DFT definition will be discarded
     Please, verify this is what you really want

  @ DRIVER MODE: Connecting to
 qe_1139763_2937314.sched-torque.pace.gatech.eduxt91ty2k_scratch
  using UNIX socket
  @ DRIVER MODE: Message from server: STATUS
  @ DRIVER MODE: Message from server: INIT
  @ DRIVER MODE: Receiving replica           0          -1
  @ DRIVER MODE: Receiving encoded integer          25
  @ DRIVER MODE:  SCF:  T  FORCE:  T  STRESS:  F  VC:  F  ENSEMBLE:  F
  @ DRIVER MODE:  SCF:  T  FORCE:  T  STRESS:  F  VC:  F  ENSEMBLE:  F

     Using Slab Decomposition

     bravais-lattice index     =            0
     lattice parameter (alat)  =       1.8897  a.u.
     unit-cell volume          =    6658.9804 (a.u.)^3
     number of atoms/cell      =           53
     number of atomic types    =            5
     number of electrons       =       396.00
     number of Kohn-Sham states=          208
     kinetic-energy cutoff     =      29.3995  Ry
     charge density cutoff     =     293.9946  Ry
     scf convergence threshold =      7.3E-08
     mixing beta               =       0.0500
     number of iterations used =            8  plain     mixing
     Exchange-correlation= BEEF-VDW
                           (   1   4  43  14   2   0   0)

     celldm(1)=   1.889726  celldm(2)=   0.000000  celldm(3)=   0.000000
     celldm(4)=   0.000000  celldm(5)=   0.000000  celldm(6)=   0.000000

     crystal axes: (cart. coord. in units of alat)
               a(1) = (   6.579727   0.000000   0.000000 )
               a(2) = (  -0.000775   5.961596   0.000000 )
               a(3) = (   0.000000   0.000000  25.155947 )

     reciprocal axes: (cart. coord. in units 2 pi/alat)
               b(1) = (  0.151982  0.000020  0.000000 )
               b(2) = (  0.000000  0.167740  0.000000 )
               b(3) = (  0.000000  0.000000  0.039752 )

     PseudoPot. # 1 for Ti read from file:
     /storage/coda1/p-amedford6/0/shared/rich_project_chbe-medford/medford-share/data/pseudos_module/espresso/nninc/pbe/van/Ti.UPF
     MD5 check sum: 8e4df49b7f0d34bbd5052bf3f5ea0213
     Pseudo is Ultrasoft, Zval = 12.0
     Generated by new atomic code, or converted to UPF format
     Using radial grid of  851 points,  6 beta functions with:
                l(1) =   0
                l(2) =   0
                l(3) =   1
                l(4) =   1
                l(5) =   2
                l(6) =   2
     Q(r) pseudized with  8 coefficients,  rinner =    1.000   1.000   1.000
                                                       1.000   1.000

     PseudoPot. # 2 for O  read from file:
     /storage/coda1/p-amedford6/0/shared/rich_project_chbe-medford/medford-share/data/pseudos_module/espresso/nninc/pbe/van/O.UPF
     MD5 check sum: 78c19812648e8988a0fe644b0f25305e
     Pseudo is Ultrasoft, Zval =  6.0
     Generated by new atomic code, or converted to UPF format
     Using radial grid of  737 points,  4 beta functions with:
                l(1) =   0
                l(2) =   0
                l(3) =   1
                l(4) =   1
     Q(r) pseudized with  8 coefficients,  rinner =    0.800   0.800   0.800

     PseudoPot. # 3 for N  read from file:
     /storage/coda1/p-amedford6/0/shared/rich_project_chbe-medford/medford-share/data/pseudos_module/espresso/nninc/pbe/van/N.UPF
     MD5 check sum: 90d10febe142ad51ac9d5be1deb811c4
     Pseudo is Ultrasoft, Zval =  5.0
     Generated by new atomic code, or converted to UPF format
     Using radial grid of  729 points,  4 beta functions with:
                l(1) =   0
                l(2) =   0
                l(3) =   1
                l(4) =   1
     Q(r) pseudized with  8 coefficients,  rinner =    0.800   0.800   0.800

     PseudoPot. # 4 for C  read from file:
     /storage/coda1/p-amedford6/0/shared/rich_project_chbe-medford/medford-share/data/pseudos_module/espresso/nninc/pbe/van/C.UPF
     MD5 check sum: 1a69bf6b8db32088f5b2163dbdb77a27
     Pseudo is Ultrasoft, Zval =  4.0
     Generated by new atomic code, or converted to UPF format
     Using radial grid of  721 points,  4 beta functions with:
                l(1) =   0
                l(2) =   0
                l(3) =   1
                l(4) =   1
     Q(r) pseudized with  8 coefficients,  rinner =    0.800   0.800   0.800

     PseudoPot. # 5 for H  read from file:
     /storage/coda1/p-amedford6/0/shared/rich_project_chbe-medford/medford-share/data/pseudos_module/espresso/nninc/pbe/van/H.UPF
     MD5 check sum: b5ee9d7bfd3a09ee7748110bda690ff7
     Pseudo is Ultrasoft, Zval =  1.0
     Generated by new atomic code, or converted to UPF format
     Using radial grid of  615 points,  1 beta functions with:
                l(1) =   0
     Q(r) pseudized with  8 coefficients,  rinner =    0.800

     atomic species   valence    mass     pseudopotential
        Ti1           12.00    47.86700     Ti( 1.00)
        O1             6.00    15.99900     O ( 1.00)
        N1             5.00    14.00700     N ( 1.00)
        C1             4.00    12.01100     C ( 1.00)
        H1             1.00     1.00800     H ( 1.00)

     No symmetry found

   Cartesian axes

     site n.     atom                  positions (alat units)
         1           Ti1 tau(   1) = (   0.0004258   2.9801865   6.0000000  )
         2           Ti1 tau(   2) = (   3.2906075   1.4906267   6.0002472  )
         3           O1  tau(   3) = (   0.0006271   0.0005054   7.9858123  )
         4           O1  tau(   4) = (   3.2906025   0.0005020   7.3038282  )
         5           O1  tau(   5) = (   4.5942328   1.4918067   9.2879030  )
         6           O1  tau(   6) = (   1.9868534   1.4903216   9.2879459  )
         7           Ti1 tau(   7) = (   3.2907910   2.8959150   9.1758416  )
         8           Ti1 tau(   8) = (   0.0015273   1.4827037   9.2680791  )
         9           O1  tau(   9) = (   3.2817170   5.9459930  11.3074998  )
        10           O1  tau(  10) = (   0.0116148   5.9584955  10.6183126  )
        11           O1  tau(  11) = (   1.2737360   1.4926482  12.6406718  )
        12           O1  tau(  12) = (   5.2902952   1.4950437  12.6299455  )
        13           Ti1 tau(  13) = (   6.5743562   2.8588748  12.6391164  )
        14           Ti1 tau(  14) = (   3.2840152   1.3010445  12.6757008  )
        15           O1  tau(  15) = (   6.5722207   0.0022838  14.6395268  )
        16           O1  tau(  16) = (   3.2882888   0.0547267  13.9272720  )
        17           O1  tau(  17) = (   4.5277618   1.5549090  16.0796657  )
        18           O1  tau(  18) = (   1.9889223   1.5445724  16.0964948  )
        19           Ti1 tau(  19) = (   3.2710169   3.0098750  15.6493427  )
        20           Ti1 tau(  20) = (   0.0212523   1.3583160  16.0154628  )
        21           O1  tau(  21) = (   3.2904802   0.0005063   4.7018136  )
        22           O1  tau(  22) = (   6.5278121   5.9442159  17.1408904  )
        23           O1  tau(  23) = (   1.3043587   1.4918075   6.0039043  )
        24           O1  tau(  24) = (   5.2767064   1.4903225   6.0039473  )
        25           Ti1 tau(  25) = (   0.0000382   5.9609847   6.0000000  )
        26           Ti1 tau(  26) = (   3.2902200   4.4714249   6.0002472  )
        27           O1  tau(  27) = (   0.0002396   2.9813036   7.9858123  )
        28           O1  tau(  28) = (   3.2902150   2.9813002   7.3038282  )
        29           O1  tau(  29) = (   4.5938453   4.4726049   9.2879030  )
        30           O1  tau(  30) = (   1.9864658   4.4711199   9.2879459  )
        31           Ti1 tau(  31) = (   3.2891106   5.8743827   9.1763621  )
        32           Ti1 tau(  32) = (   0.0006254   4.4649316   9.2693709  )
        33           O1  tau(  33) = (   3.2809651   3.0158959  11.2742024  )
        34           O1  tau(  34) = (   0.0092240   2.9805883  10.6323155  )
        35           O1  tau(  35) = (   1.2801966   4.4796301  12.6363892  )
        36           O1  tau(  36) = (   5.2833020   4.4787161  12.6245292  )
        37           Ti1 tau(  37) = (   6.5725262   5.8449372  12.5269696  )
        38           Ti1 tau(  38) = (   3.2830651   4.3950422  12.4122791  )
        39           O1  tau(  39) = (   6.5612936   2.9998473  14.7091997  )
        40           O1  tau(  40) = (   3.2734765   2.9867355  13.8776313  )
        41           O1  tau(  41) = (   4.5260587   4.4294304  16.0527172  )
        42           O1  tau(  42) = (   1.9919704   4.4458081  16.0639873  )
        43           Ti1 tau(  43) = (   3.3135318   0.0270965  16.3071496  )
        44           Ti1 tau(  44) = (   0.0294795   4.5257316  15.8201724  )
        45           O1  tau(  45) = (   3.2900926   2.9813045   4.7018136  )
        46           O1  tau(  46) = (   1.3039711   4.4726057   6.0039043  )
        47           O1  tau(  47) = (   5.2763189   4.4711207   6.0039473  )
        48           N1  tau(  48) = (   6.4282372   2.9740631  17.7102171  )
        49           C1  tau(  49) = (   0.6535733   3.0176064  18.7020832  )
        50           H1  tau(  50) = (   1.7291544   2.9413089  18.4820742  )
        51           H1  tau(  51) = (   5.4410488   3.0579230  17.9716058  )
        52           O1  tau(  52) = (   3.3635319   0.0010587  18.1193045  )
        53           H1  tau(  53) = (   4.1580425   0.0400832  18.6633683  )

     number of k points=    10  Fermi-Dirac smearing, width (Ry)=  0.0073
                       cart. coord. in units 2pi/alat
        k(    1) = (   0.0000000   0.0000000   0.0000000), wk =   0.1250000
        k(    2) = (   0.0000000   0.0419351   0.0000000), wk =   0.2500000
        k(    3) = (   0.0000000  -0.0838702   0.0000000), wk =   0.1250000
        k(    4) = (   0.0379955   0.0000049   0.0000000), wk =   0.2500000
        k(    5) = (   0.0379955   0.0419400   0.0000000), wk =   0.2500000
        k(    6) = (   0.0379955  -0.0838652   0.0000000), wk =   0.2500000
        k(    7) = (   0.0379955  -0.0419301   0.0000000), wk =   0.2500000
        k(    8) = (  -0.0759910  -0.0000099   0.0000000), wk =   0.1250000
        k(    9) = (  -0.0759910   0.0419252   0.0000000), wk =   0.2500000
        k(   10) = (  -0.0759910  -0.0838800   0.0000000), wk =   0.1250000

     Initial potential from superposition of free atoms

     starting charge  379.99917, renormalised to  396.00000

     negative rho (up, down):  1.779E-02 0.000E+00

     %%%%%%%%%%%%%%%%%%%%%%%%%%%%%%%%%%%%%%%%%%%%%%%%%%%%%%%%%%%%%%%%%%%%%%%%
     %                                                                      %
     % You are using vdW-DF, which was implemented by the Thonhauser group. %
     % Please cite the following two papers that made this development      %
     % possible and the two reviews that describe the various versions:     %
     %                                                                      %
     %   T. Thonhauser et al., PRL 115, 136402 (2015).                      %
     %   T. Thonhauser et al., PRB 76, 125112 (2007).                       %
     %   K. Berland et al., Rep. Prog. Phys. 78, 066501 (2015).             %
     %   D.C. Langreth et al., J. Phys.: Condens. Matter 21, 084203 (2009). %
     %                                                                      %
     %                                                                      %
     % If you are calculating the stress with vdW-DF, please also cite:     %
     %                                                                      %
     %   R. Sabatini et al., J. Phys.: Condens. Matter 24, 424209 (2012).   %
     %                                                                      %
     %%%%%%%%%%%%%%%%%%%%%%%%%%%%%%%%%%%%%%%%%%%%%%%%%%%%%%%%%%%%%%%%%%%%%%%%

     Adding external electric field

     Computed dipole along edir(3) :
        Dipole               -8.0645 Ry au,        -20.4979 Debye
        Dipole field         -0.0152 Ry au,

        Potential amp.        1.4108 Ry
        Total length         46.3494 bohr

     Starting wfcs are  299 atomic wfcs
  @ DRIVER MODE: Message from server: STATUS
  @ DRIVER MODE: Message from server: POSDATA
  @ DRIVER MODE: Reading and sharing cell
  @ DRIVER MODE: Reading and sharing positions
  @ DRIVER MODE: Received positions

     Self-consistent Calculation

     iteration #  1     ecut=    29.40 Ry     beta= 0.05
     Davidson diagonalization with overlap
     c_bands:  1 eigenvalues not converged
     c_bands:  1 eigenvalues not converged
     c_bands:  3 eigenvalues not converged
     c_bands:  1 eigenvalues not converged
     c_bands:  1 eigenvalues not converged
     c_bands:  1 eigenvalues not converged
     ethr =  1.00E-05,  avg # of iterations = 18.6

[...]

     total energy              =   -2618.21890386 Ry
     estimated scf accuracy    <    3681.37365449 Ry

[...]

     iteration #  3     ecut=    29.40 Ry     beta= 0.05
     Davidson diagonalization with overlap
     ethr =  1.00E-02,  avg # of iterations = 14.9

[...]

     iteration # 38     ecut=    29.40 Ry     beta= 0.05
     Davidson diagonalization with overlap
     c_bands:  2 eigenvalues not converged
     ethr =  1.87E-06,  avg # of iterations = 10.2

[...]

     total energy              =   -2951.37642678 Ry
     estimated scf accuracy    <       0.00000012 Ry

     iteration # 80     ecut=    29.40 Ry     beta= 0.05
     Davidson diagonalization with overlap
     ethr =  3.07E-11,  avg # of iterations =  5.7

     negative rho (up, down):  1.667E-02 0.000E+00

     Adding external electric field

     Computed dipole along edir(3) :
        Dipole                0.1777 Ry au,          0.4516 Debye
        Dipole field          0.0003 Ry au,

        Potential amp.       -0.0311 Ry
        Total length         46.3494 bohr

     End of self-consistent calculation

          k = 0.0000 0.0000 0.0000 ( 18029 PWs)   bands (ev):

   -56.4294 -56.3955 -56.1557 -56.1516 -56.1178 -55.9522 -55.8991 -55.8664
   -55.8612 -55.8537 -55.8186 -55.7277 -55.6753 -55.5346 -55.2805 -55.2465
   -32.8938 -32.7236 -32.7033 -32.6246 -32.5837 -32.5170 -32.4901 -32.4494
   -32.4360 -32.4256 -32.3759 -32.3695 -32.3674 -32.3656 -32.3550 -32.3121
   -32.2904 -32.2682 -32.2568 -32.1814 -32.1686 -32.1602 -32.1481 -32.1243
   -32.1087 -32.1045 -32.1003 -32.0698 -32.0667 -32.0592 -32.0398 -32.0186
   -32.0018 -31.9805 -31.9701 -31.9611 -31.9449 -31.8732 -31.8706 -31.7940
   -31.7650 -31.7465 -31.6807 -31.6087 -31.5855 -31.4992 -31.4137 -31.3016
   -16.9551 -16.8266 -16.5964 -16.4431 -16.2761 -16.1845 -16.0557 -16.0310
   -15.9239 -15.9025 -15.8168 -15.7822 -15.7435 -15.6688 -15.6118 -15.5901
   -15.5575 -15.5272 -15.5188 -15.5130 -15.5040 -15.4953 -15.4576 -15.3397
   -15.2987 -15.2496 -15.2355 -15.2213 -15.0900 -14.8332 -14.7877 -13.7779
   -13.6640  -8.2089  -4.6988  -4.2812  -4.2210  -4.1231  -3.9462  -3.8902
    -3.8306  -3.6033  -3.5561  -3.5544  -3.3599  -3.2996  -3.2060  -3.1629
    -3.1477  -3.1031  -3.0311  -3.0201  -2.9891  -2.9010  -2.8604  -2.8530
    -2.8265  -2.7811  -2.7718  -2.6900  -2.6472  -2.6253  -2.5563  -2.5067
    -2.4752  -2.4607  -2.4372  -2.4267  -2.3848  -2.3718  -2.3503  -2.2027
    -2.1868  -2.1643  -2.0867  -2.0122  -1.8565  -1.7748  -1.7648  -1.6660
    -1.5878  -1.5750  -1.5254  -1.4770  -1.3897  -1.3760  -1.3696  -1.3306
    -1.2454  -1.2254  -1.1822  -1.1304  -1.0548  -0.9662  -0.9601  -0.9106
    -0.8785  -0.8121  -0.7256  -0.6897  -0.6304  -0.5894  -0.5578  -0.4858
    -0.4356  -0.4095  -0.3856  -0.3751  -0.3142  -0.2533  -0.2066  -0.1804
    -0.1108  -0.0984  -0.0551   0.0091   0.0310   0.0390   0.1580   0.2005
     0.2135   0.2635   0.3751   0.4324   0.5190   0.5793   0.6501   0.7454
     0.7519   0.9596   1.0672   1.2997   1.3401   2.5782   2.7595   2.8813
     2.9501   3.1513   3.1983   3.2324   3.5069   3.5235   3.5315   3.6137

[...]

          k = 0.0380-0.0419 0.0000 ( 17876 PWs)   bands (ev):

[...]

          k =-0.0760-0.0000 0.0000 ( 17886 PWs)   bands (ev):

[...]

          k =-0.0760-0.0839 0.0000 ( 17948 PWs)   bands (ev):

   -56.4129 -56.4119 -56.1550 -56.1364 -56.1328 -55.9461 -55.9051 -55.8637
   -55.8623 -55.8406 -55.8316 -55.7297 -55.6733 -55.5365 -55.2641 -55.2628
   -32.7103 -32.7101 -32.7084 -32.7080 -32.5356 -32.5343 -32.4564 -32.4517
   -32.4270 -32.3842 -32.3734 -32.3444 -32.3396 -32.3285 -32.3220 -32.2884
   -32.2488 -32.2453 -32.2192 -32.1732 -32.1711 -32.1699 -32.1667 -32.1566
   -32.1310 -32.1249 -32.1222 -32.0750 -32.0724 -32.0661 -32.0636 -32.0623
   -32.0468 -32.0123 -31.9903 -31.9653 -31.9523 -31.9368 -31.8834 -31.8761
   -31.7965 -31.7501 -31.5988 -31.5978 -31.4953 -31.4938 -31.4570 -31.4560
   -16.9418 -16.2462 -16.2211 -16.1280 -16.0980 -16.0754 -16.0534 -16.0318
   -15.8952 -15.8858 -15.8721 -15.8040 -15.7534 -15.7343 -15.7004 -15.6952
   -15.6394 -15.6253 -15.6131 -15.5603 -15.5519 -15.5313 -15.5170 -15.4819
   -15.4512 -15.4232 -15.2581 -15.2040 -15.1481 -15.1228 -14.9205 -13.7669
   -13.7663  -8.2204  -4.6906  -4.1112  -3.5240  -3.4913  -3.3711  -3.3592
    -3.2329  -3.2276  -3.1494  -3.0762  -3.0757  -3.0008  -2.9866  -2.9784
    -2.9392  -2.9217  -2.9141  -2.9132  -2.8725  -2.8627  -2.8417  -2.8247
    -2.8217  -2.8061  -2.7674  -2.7276  -2.7056  -2.6929  -2.6385  -2.6252
    -2.5036  -2.4392  -2.4126  -2.4121  -2.3903  -2.3532  -2.3220  -2.3054
    -2.2764  -2.2377  -2.1600  -2.0393  -2.0188  -1.8229  -1.8047  -1.7737
    -1.7532  -1.7078  -1.7023  -1.6365  -1.5859  -1.5712  -1.5544  -1.5299
    -1.4290  -1.3776  -1.3275  -1.3244  -1.2724  -1.2538  -1.2054  -1.1030
    -1.0541  -1.0241  -0.9977  -0.9847  -0.9470  -0.9212  -0.8679  -0.8276
    -0.8232  -0.7958  -0.7543  -0.5837  -0.4134  -0.3711  -0.3490  -0.2777
    -0.2628  -0.2130  -0.0791  -0.0335  -0.0257   0.0132   0.0534   0.0826
     0.0966   0.1589   0.3413   0.3567   0.4245   0.4727   0.4789   0.5662
     0.6624   1.1242   1.1319   1.1589   1.1597   2.6068   3.3044   3.3063
     3.3081   3.3246   3.4029   3.4652   3.4743   3.5112   3.5902   3.6290

     the Fermi energy is     2.7231 ev

!    total energy              =   -2951.37643250 Ry
     estimated scf accuracy    <       0.00000003 Ry
     smearing contrib. (-TS)   =      -0.01732207 Ry
     internal energy E=F+TS    =   -2951.35911044 Ry

     The total energy is F=E-TS. E is the sum of the following terms:
     one-electron contribution =  -24273.82037869 Ry
     hartree contribution      =   12222.91702766 Ry
     xc contribution           =    -487.05148789 Ry
     ewald contribution        =    9586.59566891 Ry
     electric field correction =       0.00005957 Ry

     convergence has been achieved in  80 iterations

     Forces acting on atoms (cartesian axes, Ry/au):

     atom    1 type  1   force =     0.00006655   -0.00028272    0.10080565
     atom    2 type  1   force =    -0.00005694    0.00024452   -0.16925763
     atom    3 type  2   force =     0.00000530   -0.00004480   -0.02992655
     atom    4 type  2   force =     0.00000150   -0.00099707    0.04189089
     atom    5 type  2   force =    -0.00519752   -0.00241970   -0.00302760
     atom    6 type  2   force =     0.00634852   -0.00183737   -0.00463720
     atom    7 type  1   force =    -0.00065984   -0.00537462    0.02532843
     atom    8 type  1   force =     0.00077920    0.01604883    0.04132910
     atom    9 type  2   force =    -0.00021475    0.00022223    0.00017672
     atom   10 type  2   force =    -0.00258110    0.00083068   -0.03436102
     atom   11 type  2   force =     0.00009370    0.00003526    0.00008233
     atom   12 type  2   force =     0.00024050   -0.00035125    0.00006164
     atom   13 type  1   force =    -0.00070487   -0.00011192   -0.00019580
     atom   14 type  1   force =     0.00018294    0.00006455    0.00025678
     atom   15 type  2   force =     0.00021974    0.00008836    0.00014499
     atom   16 type  2   force =     0.00004261   -0.00013304   -0.00021633
     atom   17 type  2   force =    -0.00008870    0.00003081    0.00021511
     atom   18 type  2   force =     0.00019068   -0.00011658    0.00009832
     atom   19 type  1   force =    -0.00000773    0.00021668    0.00017250
     atom   20 type  1   force =     0.00002046    0.00029227    0.00049618
     atom   21 type  2   force =     0.00007248    0.00015192    0.10148976
     atom   22 type  2   force =    -0.00007335    0.00020430    0.00025751
     atom   23 type  2   force =    -0.07486966   -0.00008909   -0.02882273
     atom   24 type  2   force =     0.07480115    0.00036245   -0.02885356
     atom   25 type  1   force =     0.00018664   -0.00035718    0.10066584
     atom   26 type  1   force =     0.00001148   -0.00114695   -0.16946112
     atom   27 type  2   force =     0.00004536   -0.00040054   -0.02841368
     atom   28 type  2   force =     0.00000948    0.00075034    0.03787365
     atom   29 type  2   force =    -0.00389001    0.00436494   -0.00525509
     atom   30 type  2   force =     0.00496832    0.00488857   -0.00692598
     atom   31 type  1   force =    -0.00064237    0.00466216    0.01116350
     atom   32 type  1   force =     0.00089017   -0.01904960    0.04069346
     atom   33 type  2   force =     0.00044187   -0.00000139    0.00025493
     atom   34 type  2   force =    -0.00214256    0.00070869   -0.03960953
     atom   35 type  2   force =     0.00011778   -0.00048612   -0.00013086
     atom   36 type  2   force =     0.00015417   -0.00021978    0.00011251
     atom   37 type  1   force =    -0.00004503   -0.00011173    0.00002922
     atom   38 type  1   force =     0.00001664    0.00008782    0.00011783
     atom   39 type  2   force =    -0.00003988    0.00036428   -0.00017265
     atom   40 type  2   force =     0.00032648   -0.00005417    0.00027145
     atom   41 type  2   force =     0.00005082    0.00015935    0.00034157
     atom   42 type  2   force =    -0.00007757    0.00015010    0.00027608
     atom   43 type  1   force =    -0.00014748   -0.00004814    0.00000473
     atom   44 type  1   force =    -0.00017537    0.00005361   -0.00060414
     atom   45 type  2   force =     0.00006732   -0.00000085    0.10127492
     atom   46 type  2   force =    -0.07491604   -0.00001257   -0.02885263
     atom   47 type  2   force =     0.07483111    0.00041577   -0.02887922
     atom   48 type  3   force =    -0.00044159   -0.00004941    0.00127638
     atom   49 type  4   force =    -0.00017302    0.00005014   -0.00078885
     atom   50 type  5   force =    -0.00051799   -0.00047296    0.00014740
     atom   51 type  5   force =     0.00175195   -0.00073435   -0.00007845
     atom   52 type  2   force =    -0.00924418   -0.00062189   -0.00495209
     atom   53 type  5   force =     0.00997262    0.00007714    0.00611330

     Total force =     0.370060     Total SCF correction =     0.000584
  @ DRIVER MODE: Message from server: STATUS
  @ DRIVER MODE: Message from server: GETFORCE
  @ DRIVER MODE: Returning v,forces,stress,ensemble

     Writing output data file ./calc.save/
  @ DRIVER MODE: Message from server: EXIT
  @ DRIVE MODE: Exiting

     General routines

     Parallel routines

   This run was terminated on:   3:29:58  23Sep2021

   JOB DONE.