     Program PWSCF v.6.7GPU starts on 22Sep2021 at 21:34:23

     R & G space division:  proc/nbgrp/npool/nimage =      10
     Reading input from /storage/home/hcoda1/3/ntian30/research/carbon/CxH_vib/H2O_calc/ads_slab/CHNHNH2H2O_b/out_0016/pw.inp
Warning: card &CELL ignored
Warning: card   CELL_DYNAMICS='IPI', ignored
Warning: card / ignored

     Current dimensions of program PWSCF are:
     Max number of different atomic species (ntypx) = 10
     Max number of k-points (npk) =  40000
     Max angular momentum in pseudopotentials (lmaxx) =  3
     Presently no symmetry can be used with electric field

     Message from routine cell_base_init:
     DEPRECATED: use true lattice parameter, not A to a.u. conversion factor

     IMPORTANT: XC functional enforced from input :
     Exchange-correlation= BEEF-VDW
                           (   1   4  43  14   2   0   0)
     Any further DFT definition will be discarded
     Please, verify this is what you really want

  @ DRIVER MODE: Connecting to
 qe_1139763_2937312.sched-torque.pace.gatech.eduz6uyo53o_scratch
  using UNIX socket
  @ DRIVER MODE: Message from server: STATUS
  @ DRIVER MODE: Message from server: INIT
  @ DRIVER MODE: Receiving replica           0          -1
  @ DRIVER MODE: Receiving encoded integer          25
  @ DRIVER MODE:  SCF:  T  FORCE:  T  STRESS:  F  VC:  F  ENSEMBLE:  F
  @ DRIVER MODE:  SCF:  T  FORCE:  T  STRESS:  F  VC:  F  ENSEMBLE:  F

     Using Slab Decomposition

     bravais-lattice index     =            0
     lattice parameter (alat)  =       1.8897  a.u.
     unit-cell volume          =    6658.9804 (a.u.)^3
     number of atoms/cell      =           57
     number of atomic types    =            5
     number of electrons       =       404.00
     number of Kohn-Sham states=          212
     kinetic-energy cutoff     =      29.3995  Ry
     charge density cutoff     =     293.9946  Ry
     scf convergence threshold =      7.3E-08
     mixing beta               =       0.0500
     number of iterations used =            8  plain     mixing
     Exchange-correlation= BEEF-VDW
                           (   1   4  43  14   2   0   0)

     celldm(1)=   1.889726  celldm(2)=   0.000000  celldm(3)=   0.000000
     celldm(4)=   0.000000  celldm(5)=   0.000000  celldm(6)=   0.000000

     crystal axes: (cart. coord. in units of alat)
               a(1) = (   6.579727   0.000000   0.000000 )
               a(2) = (  -0.000775   5.961596   0.000000 )
               a(3) = (   0.000000   0.000000  25.155947 )

     reciprocal axes: (cart. coord. in units 2 pi/alat)
               b(1) = (  0.151982  0.000020  0.000000 )
               b(2) = (  0.000000  0.167740  0.000000 )
               b(3) = (  0.000000  0.000000  0.039752 )

     PseudoPot. # 1 for Ti read from file:
     /storage/coda1/p-amedford6/0/shared/rich_project_chbe-medford/medford-share/data/pseudos_module/espresso/nninc/pbe/van/Ti.UPF
     MD5 check sum: 8e4df49b7f0d34bbd5052bf3f5ea0213
     Pseudo is Ultrasoft, Zval = 12.0
     Generated by new atomic code, or converted to UPF format
     Using radial grid of  851 points,  6 beta functions with:
                l(1) =   0
                l(2) =   0
                l(3) =   1
                l(4) =   1
                l(5) =   2
                l(6) =   2
     Q(r) pseudized with  8 coefficients,  rinner =    1.000   1.000   1.000
                                                       1.000   1.000

     PseudoPot. # 2 for O  read from file:
     /storage/coda1/p-amedford6/0/shared/rich_project_chbe-medford/medford-share/data/pseudos_module/espresso/nninc/pbe/van/O.UPF
     MD5 check sum: 78c19812648e8988a0fe644b0f25305e
     Pseudo is Ultrasoft, Zval =  6.0
     Generated by new atomic code, or converted to UPF format
     Using radial grid of  737 points,  4 beta functions with:
                l(1) =   0
                l(2) =   0
                l(3) =   1
                l(4) =   1
     Q(r) pseudized with  8 coefficients,  rinner =    0.800   0.800   0.800

     PseudoPot. # 3 for N  read from file:
     /storage/coda1/p-amedford6/0/shared/rich_project_chbe-medford/medford-share/data/pseudos_module/espresso/nninc/pbe/van/N.UPF
     MD5 check sum: 90d10febe142ad51ac9d5be1deb811c4
     Pseudo is Ultrasoft, Zval =  5.0
     Generated by new atomic code, or converted to UPF format
     Using radial grid of  729 points,  4 beta functions with:
                l(1) =   0
                l(2) =   0
                l(3) =   1
                l(4) =   1
     Q(r) pseudized with  8 coefficients,  rinner =    0.800   0.800   0.800

     PseudoPot. # 4 for C  read from file:
     /storage/coda1/p-amedford6/0/shared/rich_project_chbe-medford/medford-share/data/pseudos_module/espresso/nninc/pbe/van/C.UPF
     MD5 check sum: 1a69bf6b8db32088f5b2163dbdb77a27
     Pseudo is Ultrasoft, Zval =  4.0
     Generated by new atomic code, or converted to UPF format
     Using radial grid of  721 points,  4 beta functions with:
                l(1) =   0
                l(2) =   0
                l(3) =   1
                l(4) =   1
     Q(r) pseudized with  8 coefficients,  rinner =    0.800   0.800   0.800

     PseudoPot. # 5 for H  read from file:
     /storage/coda1/p-amedford6/0/shared/rich_project_chbe-medford/medford-share/data/pseudos_module/espresso/nninc/pbe/van/H.UPF
     MD5 check sum: b5ee9d7bfd3a09ee7748110bda690ff7
     Pseudo is Ultrasoft, Zval =  1.0
     Generated by new atomic code, or converted to UPF format
     Using radial grid of  615 points,  1 beta functions with:
                l(1) =   0
     Q(r) pseudized with  8 coefficients,  rinner =    0.800

     atomic species   valence    mass     pseudopotential
        Ti1           12.00    47.86700     Ti( 1.00)
        O1             6.00    15.99900     O ( 1.00)
        N1             5.00    14.00700     N ( 1.00)
        C1             4.00    12.01100     C ( 1.00)
        H1             1.00     1.00800     H ( 1.00)

     No symmetry found

   Cartesian axes

     site n.     atom                  positions (alat units)
         1           Ti1 tau(   1) = (   0.0004258   2.9801865   6.0000000  )
         2           Ti1 tau(   2) = (   3.2906075   1.4906267   6.0002472  )
         3           O1  tau(   3) = (   0.0006271   0.0005054   7.9858123  )
         4           O1  tau(   4) = (   3.2906025   0.0005020   7.3038282  )
         5           O1  tau(   5) = (   4.5942328   1.4918067   9.2879030  )
         6           O1  tau(   6) = (   1.9868534   1.4903216   9.2879459  )
         7           Ti1 tau(   7) = (   3.2907910   2.8959150   9.1758416  )
         8           Ti1 tau(   8) = (   0.0015273   1.4827037   9.2680791  )
         9           O1  tau(   9) = (   3.3066417   5.9496923  11.3845403  )
        10           O1  tau(  10) = (   0.0116148   5.9584955  10.6183126  )
        11           O1  tau(  11) = (   1.3010148   1.4986442  12.6442229  )
        12           O1  tau(  12) = (   5.3085967   1.5001388  12.6592367  )
        13           Ti1 tau(  13) = (   0.0282779   2.9853959  12.5065338  )
        14           Ti1 tau(  14) = (   3.3279724   1.4707331  12.5413945  )
        15           O1  tau(  15) = (   0.0378505   0.0859181  14.6860672  )
        16           O1  tau(  16) = (   3.3018867   0.0259462  14.0338077  )
        17           O1  tau(  17) = (   4.5998927   1.5484098  16.1661054  )
        18           O1  tau(  18) = (   2.0454451   1.5021798  16.2221046  )
        19           Ti1 tau(  19) = (   3.3206312   2.9825829  15.7321521  )
        20           Ti1 tau(  20) = (   0.0140791   1.4435866  15.9983415  )
        21           O1  tau(  21) = (   3.2904802   0.0005063   4.7018136  )
        22           O1  tau(  22) = (   6.5273045   5.8164216  17.2577718  )
        23           O1  tau(  23) = (   1.3043587   1.4918075   6.0039043  )
        24           O1  tau(  24) = (   5.2767064   1.4903225   6.0039473  )
        25           Ti1 tau(  25) = (   0.0000382   5.9609847   6.0000000  )
        26           Ti1 tau(  26) = (   3.2902200   4.4714249   6.0002472  )
        27           O1  tau(  27) = (   0.0002396   2.9813036   7.9858123  )
        28           O1  tau(  28) = (   3.2902150   2.9813002   7.3038282  )
        29           O1  tau(  29) = (   4.5938453   4.4726049   9.2879030  )
        30           O1  tau(  30) = (   1.9864658   4.4711199   9.2879459  )
        31           Ti1 tau(  31) = (   3.2891106   5.8743827   9.1763621  )
        32           Ti1 tau(  32) = (   0.0006254   4.4649316   9.2693709  )
        33           O1  tau(  33) = (   3.3068470   2.9864458  11.3814114  )
        34           O1  tau(  34) = (   0.0092240   2.9805883  10.6323155  )
        35           O1  tau(  35) = (   1.2982948   4.4740332  12.6840172  )
        36           O1  tau(  36) = (   5.3097620   4.4704985  12.6972095  )
        37           Ti1 tau(  37) = (   0.0348817   0.0130325  12.4954113  )
        38           Ti1 tau(  38) = (   3.3270268   4.4633798  12.5435021  )
        39           O1  tau(  39) = (   0.0563025   2.9439880  14.9425960  )
        40           O1  tau(  40) = (   3.2900316   2.9661073  13.9503945  )
        41           O1  tau(  41) = (   4.5967999   4.4093095  16.0633277  )
        42           O1  tau(  42) = (   2.0412097   4.4536800  16.1303113  )
        43           Ti1 tau(  43) = (   3.2964201   5.9600488  15.8742613  )
        44           Ti1 tau(  44) = (   0.0241369   4.6516137  15.8518307  )
        45           O1  tau(  45) = (   3.2900926   2.9813045   4.7018136  )
        46           O1  tau(  46) = (   1.3039711   4.4726057   6.0039043  )
        47           O1  tau(  47) = (   5.2763189   4.4711207   6.0039473  )
        48           N1  tau(  48) = (   1.4509408   2.7109095  18.7602185  )
        49           N1  tau(  49) = (   0.0917387   2.5303350  18.2207845  )
        50           C1  tau(  50) = (   1.9503960   3.7823240  19.2784661  )
        51           H1  tau(  51) = (   1.1612915   4.5273475  19.4152495  )
        52           H1  tau(  52) = (   2.0208952   1.9183395  18.4664618  )
        53           H1  tau(  53) = (   6.1377449   3.3539424  18.4987646  )
        54           H1  tau(  54) = (   6.2616785   1.7135167  18.6767212  )
        55           O1  tau(  55) = (   3.7012217   5.9496235  18.2853534  )
        56           H1  tau(  56) = (   4.6684668   5.8470116  18.1670174  )
        57           H1  tau(  57) = (   3.3852657   5.1278045  18.7338684  )

     number of k points=    10  Fermi-Dirac smearing, width (Ry)=  0.0073
                       cart. coord. in units 2pi/alat
        k(    1) = (   0.0000000   0.0000000   0.0000000), wk =   0.1250000
        k(    2) = (   0.0000000   0.0419351   0.0000000), wk =   0.2500000
        k(    3) = (   0.0000000  -0.0838702   0.0000000), wk =   0.1250000
        k(    4) = (   0.0379955   0.0000049   0.0000000), wk =   0.2500000
        k(    5) = (   0.0379955   0.0419400   0.0000000), wk =   0.2500000
        k(    6) = (   0.0379955  -0.0838652   0.0000000), wk =   0.2500000
        k(    7) = (   0.0379955  -0.0419301   0.0000000), wk =   0.2500000
        k(    8) = (  -0.0759910  -0.0000099   0.0000000), wk =   0.1250000
        k(    9) = (  -0.0759910   0.0419252   0.0000000), wk =   0.2500000
        k(   10) = (  -0.0759910  -0.0838800   0.0000000), wk =   0.1250000

     Initial potential from superposition of free atoms

     starting charge  387.99913, renormalised to  404.00000

     negative rho (up, down):  1.598E-02 0.000E+00

     %%%%%%%%%%%%%%%%%%%%%%%%%%%%%%%%%%%%%%%%%%%%%%%%%%%%%%%%%%%%%%%%%%%%%%%%
     %                                                                      %
     % You are using vdW-DF, which was implemented by the Thonhauser group. %
     % Please cite the following two papers that made this development      %
     % possible and the two reviews that describe the various versions:     %
     %                                                                      %
     %   T. Thonhauser et al., PRL 115, 136402 (2015).                      %
     %   T. Thonhauser et al., PRB 76, 125112 (2007).                       %
     %   K. Berland et al., Rep. Prog. Phys. 78, 066501 (2015).             %
     %   D.C. Langreth et al., J. Phys.: Condens. Matter 21, 084203 (2009). %
     %                                                                      %
     %                                                                      %
     % If you are calculating the stress with vdW-DF, please also cite:     %
     %                                                                      %
     %   R. Sabatini et al., J. Phys.: Condens. Matter 24, 424209 (2012).   %
     %                                                                      %
     %%%%%%%%%%%%%%%%%%%%%%%%%%%%%%%%%%%%%%%%%%%%%%%%%%%%%%%%%%%%%%%%%%%%%%%%

     Adding external electric field

     Computed dipole along edir(3) :
        Dipole              -14.3585 Ry au,        -36.4957 Debye
        Dipole field         -0.0271 Ry au,

        Potential amp.        2.5118 Ry
        Total length         46.3494 bohr

     Starting wfcs are  306 atomic wfcs
  @ DRIVER MODE: Message from server: STATUS
  @ DRIVER MODE: Message from server: POSDATA
  @ DRIVER MODE: Reading and sharing cell
  @ DRIVER MODE: Reading and sharing positions
  @ DRIVER MODE: Received positions

     Self-consistent Calculation

     iteration #  1     ecut=    29.40 Ry     beta= 0.05
     Davidson diagonalization with overlap
     c_bands:  3 eigenvalues not converged
     c_bands:  4 eigenvalues not converged
     c_bands:  4 eigenvalues not converged
     c_bands:  4 eigenvalues not converged
     c_bands:  5 eigenvalues not converged
     c_bands:  3 eigenvalues not converged
     c_bands:  2 eigenvalues not converged
     c_bands:  4 eigenvalues not converged
     ethr =  1.00E-05,  avg # of iterations = 21.9

[...]

     total energy              =   -2220.96640766 Ry
     estimated scf accuracy    <    8587.33092089 Ry

     iteration #  2     ecut=    29.40 Ry     beta= 0.05
     Davidson diagonalization with overlap
     ethr =  1.00E-02,  avg # of iterations = 27.9

[...]

     iteration # 84     ecut=    29.40 Ry     beta= 0.05
     Davidson diagonalization with overlap
     ethr =  3.83E-11,  avg # of iterations =  9.0

[...]

     total energy              =   -2975.10512692 Ry
     estimated scf accuracy    <       0.00000009 Ry

     iteration # 85     ecut=    29.40 Ry     beta= 0.05
     Davidson diagonalization with overlap
     c_bands:  1 eigenvalues not converged
     c_bands:  1 eigenvalues not converged
     ethr =  2.12E-11,  avg # of iterations = 13.2

     negative rho (up, down):  1.578E-02 0.000E+00

     Adding external electric field

     Computed dipole along edir(3) :
        Dipole                1.0238 Ry au,          2.6022 Debye
        Dipole field          0.0019 Ry au,

        Potential amp.       -0.1791 Ry
        Total length         46.3494 bohr

     End of self-consistent calculation

          k = 0.0000 0.0000 0.0000 ( 18029 PWs)   bands (ev):

   -55.3849 -55.3491 -55.3451 -55.3110 -55.3077 -55.3021 -55.2668 -55.2315
   -55.2166 -55.1817 -55.1746 -55.1594 -55.1409 -55.1120 -54.3764 -54.3423
   -31.9439 -31.8799 -31.8379 -31.7565 -31.7076 -31.7051 -31.6806 -31.6778
   -31.6338 -31.5980 -31.5908 -31.5896 -31.5827 -31.5789 -31.5610 -31.5589
   -31.5342 -31.5263 -31.5233 -31.5120 -31.4977 -31.4910 -31.4723 -31.4675
   -31.4593 -31.4463 -31.4454 -31.4168 -31.4023 -31.3985 -31.3953 -31.3731
   -31.3693 -31.3653 -31.3618 -31.3405 -31.3296 -31.3174 -31.3026 -31.3024
   -31.2924 -31.2857 -30.7858 -30.6913 -30.6693 -30.6022 -30.5154 -30.4045
   -18.8500 -18.4494 -16.2196 -15.9722 -15.8362 -15.7317 -15.5945 -15.4963
   -15.3871 -15.2738 -15.2507 -15.1567 -15.0827 -15.0786 -15.0414 -15.0159
   -14.9533 -14.9319 -14.9081 -14.9022 -14.8876 -14.8774 -14.8408 -14.8299
   -14.7932 -14.7861 -14.7688 -14.6294 -14.6110 -14.5514 -14.4809 -14.3415
   -12.8787 -12.7612  -9.8377  -6.9837  -6.3758  -6.0865  -4.4465  -3.7230
    -3.5428  -3.4099  -3.3308  -3.2999  -3.2852  -3.1536  -3.0585  -2.9010
    -2.8624  -2.8056  -2.6732  -2.5974  -2.5910  -2.5031  -2.4306  -2.4071
    -2.3743  -2.2650  -2.2588  -2.2082  -2.1917  -2.1686  -2.1593  -2.1124
    -2.0666  -2.0396  -1.9544  -1.8529  -1.8090  -1.7894  -1.7529  -1.7302
    -1.7252  -1.6819  -1.6758  -1.6519  -1.6133  -1.5889  -1.5432  -1.4314
    -1.3892  -1.2304  -1.1935  -1.0395  -1.0190  -0.9796  -0.9593  -0.9133
    -0.8917  -0.8762  -0.8544  -0.7718  -0.7135  -0.6460  -0.5830  -0.4919
    -0.4813  -0.4075  -0.3821  -0.3166  -0.2280  -0.1849  -0.1753  -0.1505
    -0.1470  -0.0331   0.0115   0.0717   0.0903   0.1478   0.1636   0.1858
     0.2558   0.3093   0.3789   0.4095   0.4886   0.5068   0.5419   0.5511
     0.5834   0.5939   0.6701   0.6849   0.7131   0.8158   0.9133   1.0053
     1.2150   1.2188   1.2401   1.5513   1.5535   1.6467   1.8301   2.2230
     2.2714   3.7050   3.7835   3.8330   3.8505   3.8550   3.9398   4.1945
     4.2087   4.2215   4.2277   4.2686

[...]

          k = 0.0380-0.0419 0.0000 ( 17876 PWs)   bands (ev):

[...]

          k =-0.0760-0.0000 0.0000 ( 17886 PWs)   bands (ev):

[...]

          k =-0.0760-0.0839 0.0000 ( 17948 PWs)   bands (ev):

   -55.3680 -55.3657 -55.3281 -55.3279 -55.3047 -55.3012 -55.2530 -55.2452
   -55.2023 -55.1956 -55.1612 -55.1585 -55.1571 -55.1137 -54.3593 -54.3592
   -31.7946 -31.7564 -31.7423 -31.6532 -31.6529 -31.6382 -31.6262 -31.6191
   -31.6189 -31.5981 -31.5931 -31.5899 -31.5669 -31.5593 -31.5473 -31.5336
   -31.5302 -31.5278 -31.5237 -31.5157 -31.5110 -31.5089 -31.5079 -31.5002
   -31.4680 -31.4668 -31.4478 -31.4477 -31.4471 -31.4422 -31.4395 -31.4353
   -31.4258 -31.4144 -31.4086 -31.3915 -31.3900 -31.3802 -31.3386 -31.3377
   -31.3371 -31.3184 -30.6820 -30.6819 -30.5984 -30.5982 -30.5589 -30.5588
   -18.8439 -18.4521 -15.8392 -15.6525 -15.5011 -15.4293 -15.4090 -15.3258
   -15.2704 -15.2671 -15.1939 -15.1759 -15.1636 -15.1420 -15.1323 -15.0851
   -15.0479 -15.0113 -14.9926 -14.9699 -14.9267 -14.9041 -14.9024 -14.8956
   -14.8879 -14.8476 -14.8424 -14.8391 -14.7474 -14.7455 -14.6849 -14.5416
   -12.8627 -12.8626  -9.8472  -6.9718  -6.3507  -6.0630  -4.4591  -3.6478
    -3.0206  -2.9107  -2.8998  -2.6709  -2.6527  -2.5917  -2.5789  -2.4912
    -2.4755  -2.4150  -2.3913  -2.3412  -2.3182  -2.2804  -2.2666  -2.2449
    -2.2239  -2.2102  -2.1835  -2.1675  -2.1503  -2.1309  -2.1198  -2.1085
    -2.0525  -2.0477  -2.0387  -2.0133  -1.9903  -1.9542  -1.9442  -1.9263
    -1.7725  -1.7567  -1.7352  -1.6000  -1.5956  -1.5593  -1.5213  -1.4937
    -1.4357  -1.4274  -1.3986  -1.3400  -1.1449  -1.1353  -1.1239  -1.1048
    -1.0345  -0.9787  -0.9654  -0.9469  -0.8939  -0.8156  -0.7788  -0.7291
    -0.6338  -0.5885  -0.5784  -0.5530  -0.4318  -0.4088  -0.3664  -0.3485
    -0.3321  -0.2979  -0.2963  -0.2367  -0.1855  -0.1508  -0.1279  -0.1135
    -0.0766   0.0786   0.1302   0.1466   0.2607   0.2902   0.4683   0.5112
     0.5327   0.6379   0.7211   0.7491   0.7636   0.8887   0.9110   0.9136
     0.9819   1.0041   1.0642   1.0699   1.1958   2.0028   2.0041   2.0912
     2.0915   3.8302   3.9529   3.9973   4.0330   4.1089   4.1617   4.2188
     4.2779   4.2924   4.3577   4.3697

     the Fermi energy is     3.7671 ev

!    total energy              =   -2975.10513326 Ry
     estimated scf accuracy    <       0.00000005 Ry
     smearing contrib. (-TS)   =      -0.03671229 Ry
     internal energy E=F+TS    =   -2975.06842098 Ry

     The total energy is F=E-TS. E is the sum of the following terms:
     one-electron contribution =  -23505.31388057 Ry
     hartree contribution      =   11848.68548926 Ry
     xc contribution           =    -494.91256506 Ry
     ewald contribution        =    9176.47055741 Ry
     electric field correction =       0.00197798 Ry

     convergence has been achieved in  85 iterations

     Forces acting on atoms (cartesian axes, Ry/au):

     atom    1 type  1   force =     0.00003200   -0.00024094    0.09309830
     atom    2 type  1   force =    -0.00019038   -0.00032199   -0.17839052
     atom    3 type  2   force =     0.00006232   -0.00016760   -0.02022790
     atom    4 type  2   force =     0.00001659   -0.00203313    0.05922883
     atom    5 type  2   force =    -0.01032942   -0.00110350    0.00808758
     atom    6 type  2   force =     0.01217122   -0.00054711    0.00816653
     atom    7 type  1   force =     0.00015299    0.00328450   -0.01111390
     atom    8 type  1   force =    -0.00029732    0.00054330   -0.00560257
     atom    9 type  2   force =     0.00004188    0.00017565   -0.00014403
     atom   10 type  2   force =    -0.00146319   -0.00003209   -0.00173237
     atom   11 type  2   force =     0.00038393   -0.00003610   -0.00006376
     atom   12 type  2   force =    -0.00010112    0.00010574   -0.00009318
     atom   13 type  1   force =    -0.00009373   -0.00017076   -0.00024990
     atom   14 type  1   force =    -0.00021675   -0.00036433    0.00034526
     atom   15 type  2   force =     0.00006722   -0.00046824    0.00008635
     atom   16 type  2   force =     0.00022409    0.00009345    0.00023217
     atom   17 type  2   force =     0.00038497   -0.00013757    0.00017670
     atom   18 type  2   force =    -0.00005936   -0.00017067   -0.00016983
     atom   19 type  1   force =    -0.00031886   -0.00044752    0.00005851
     atom   20 type  1   force =     0.00013774    0.00024389    0.00046162
     atom   21 type  2   force =    -0.00000485   -0.00006948    0.10405238
     atom   22 type  2   force =    -0.00007148   -0.00003169   -0.00005117
     atom   23 type  2   force =    -0.07032990   -0.00015333   -0.02683728
     atom   24 type  2   force =     0.07020014    0.00029256   -0.02691741
     atom   25 type  1   force =     0.00002508   -0.00016865    0.09275518
     atom   26 type  1   force =    -0.00016036   -0.00039214   -0.17833573
     atom   27 type  2   force =     0.00011120   -0.00031088   -0.01918590
     atom   28 type  2   force =     0.00004600   -0.00163659    0.05838143
     atom   29 type  2   force =    -0.01028572   -0.00063836    0.00729360
     atom   30 type  2   force =     0.01202090   -0.00030545    0.00742729
     atom   31 type  1   force =     0.00007831    0.00514227   -0.01465587
     atom   32 type  1   force =    -0.00014025   -0.00053602   -0.00594195
     atom   33 type  2   force =     0.00012819   -0.00039346   -0.00023387
     atom   34 type  2   force =    -0.00078629    0.00260266   -0.00104383
     atom   35 type  2   force =    -0.00006487   -0.00011446   -0.00012641
     atom   36 type  2   force =     0.00023151    0.00000379   -0.00015410
     atom   37 type  1   force =    -0.00043704    0.00008311    0.00002078
     atom   38 type  1   force =    -0.00003200   -0.00024067   -0.00024201
     atom   39 type  2   force =    -0.00030307   -0.00020620   -0.00015917
     atom   40 type  2   force =    -0.00013235   -0.00005833   -0.00004262
     atom   41 type  2   force =    -0.00013622   -0.00016921    0.00035965
     atom   42 type  2   force =    -0.00006394   -0.00021473    0.00008009
     atom   43 type  1   force =     0.00000225   -0.00030809    0.00021969
     atom   44 type  1   force =     0.00000665   -0.00003312    0.00013198
     atom   45 type  2   force =     0.00001094   -0.00011511    0.10402453
     atom   46 type  2   force =    -0.07033918   -0.00012450   -0.02685654
     atom   47 type  2   force =     0.07018515    0.00031192   -0.02691383
     atom   48 type  3   force =     0.00386890    0.01519399    0.00640680
     atom   49 type  3   force =     0.00057831   -0.00063025    0.00103554
     atom   50 type  4   force =     0.00036369   -0.01971840   -0.00684441
     atom   51 type  5   force =    -0.00585113    0.00477412    0.00010073
     atom   52 type  5   force =     0.00066948   -0.00006968   -0.00001168
     atom   53 type  5   force =    -0.00008484   -0.00004681   -0.00006641
     atom   54 type  5   force =     0.00015414    0.00053209   -0.00002798
     atom   55 type  2   force =     0.00050276    0.00037520    0.00022582
     atom   56 type  5   force =     0.00020992   -0.00031547   -0.00044795
     atom   57 type  5   force =    -0.00077485   -0.00051561    0.00042673

     Total force =     0.367256     Total SCF correction =     0.000670
  @ DRIVER MODE: Message from server: STATUS
  @ DRIVER MODE: Message from server: GETFORCE
  @ DRIVER MODE: Returning v,forces,stress,ensemble

     Writing output data file ./calc.save/
  @ DRIVER MODE: Message from server: EXIT
  @ DRIVE MODE: Exiting

     General routines

     Parallel routines

   This run was terminated on:  21:58:30  22Sep2021

   JOB DONE.