     Program PWSCF v.6.7GPU starts on 11Oct2021 at 21:29: 5

     R & G space division:  proc/nbgrp/npool/nimage =       8
     Reading input from /storage/home/hcoda1/3/ntian30/research/carbon/CxH_vib/CH2_calc/ads_slab/CH2NHH_b/out_0013/pw.inp
Warning: card &CELL ignored
Warning: card   CELL_DYNAMICS='IPI', ignored
Warning: card / ignored

     Current dimensions of program PWSCF are:
     Max number of different atomic species (ntypx) = 10
     Max number of k-points (npk) =  40000
     Max angular momentum in pseudopotentials (lmaxx) =  3
     Presently no symmetry can be used with electric field

     Message from routine cell_base_init:
     DEPRECATED: use true lattice parameter, not A to a.u. conversion factor

     IMPORTANT: XC functional enforced from input :
     Exchange-correlation= BEEF-VDW
                           (   1   4  43  14   2   0   0)
     Any further DFT definition will be discarded
     Please, verify this is what you really want

  @ DRIVER MODE: Connecting to
 qe_1139763_3171005.sched-torque.pace.gatech.eduwz7vrcgc_scratch
  using UNIX socket
  @ DRIVER MODE: Message from server: STATUS
  @ DRIVER MODE: Message from server: INIT
  @ DRIVER MODE: Receiving replica           0          -1
  @ DRIVER MODE: Receiving encoded integer          25
  @ DRIVER MODE:  SCF:  T  FORCE:  T  STRESS:  F  VC:  F  ENSEMBLE:  F
  @ DRIVER MODE:  SCF:  T  FORCE:  T  STRESS:  F  VC:  F  ENSEMBLE:  F

     Using Slab Decomposition

     bravais-lattice index     =            0
     lattice parameter (alat)  =       1.8897  a.u.
     unit-cell volume          =    6658.9804 (a.u.)^3
     number of atoms/cell      =           53
     number of atomic types    =            5
     number of electrons       =       391.00
     number of Kohn-Sham states=          205
     kinetic-energy cutoff     =      29.3995  Ry
     charge density cutoff     =     293.9946  Ry
     scf convergence threshold =      7.3E-08
     mixing beta               =       0.0500
     number of iterations used =            8  plain     mixing
     Exchange-correlation= BEEF-VDW
                           (   1   4  43  14   2   0   0)

     celldm(1)=   1.889726  celldm(2)=   0.000000  celldm(3)=   0.000000
     celldm(4)=   0.000000  celldm(5)=   0.000000  celldm(6)=   0.000000

     crystal axes: (cart. coord. in units of alat)
               a(1) = (   6.579727   0.000000   0.000000 )
               a(2) = (  -0.000775   5.961596   0.000000 )
               a(3) = (   0.000000   0.000000  25.155947 )

     reciprocal axes: (cart. coord. in units 2 pi/alat)
               b(1) = (  0.151982  0.000020  0.000000 )
               b(2) = (  0.000000  0.167740  0.000000 )
               b(3) = (  0.000000  0.000000  0.039752 )

     PseudoPot. # 1 for Ti read from file:
     /storage/coda1/p-amedford6/0/shared/rich_project_chbe-medford/medford-share/data/pseudos_module/espresso/nninc/pbe/van/Ti.UPF
     MD5 check sum: 8e4df49b7f0d34bbd5052bf3f5ea0213
     Pseudo is Ultrasoft, Zval = 12.0
     Generated by new atomic code, or converted to UPF format
     Using radial grid of  851 points,  6 beta functions with:
                l(1) =   0
                l(2) =   0
                l(3) =   1
                l(4) =   1
                l(5) =   2
                l(6) =   2
     Q(r) pseudized with  8 coefficients,  rinner =    1.000   1.000   1.000
                                                       1.000   1.000

     PseudoPot. # 2 for O  read from file:
     /storage/coda1/p-amedford6/0/shared/rich_project_chbe-medford/medford-share/data/pseudos_module/espresso/nninc/pbe/van/O.UPF
     MD5 check sum: 78c19812648e8988a0fe644b0f25305e
     Pseudo is Ultrasoft, Zval =  6.0
     Generated by new atomic code, or converted to UPF format
     Using radial grid of  737 points,  4 beta functions with:
                l(1) =   0
                l(2) =   0
                l(3) =   1
                l(4) =   1
     Q(r) pseudized with  8 coefficients,  rinner =    0.800   0.800   0.800

     PseudoPot. # 3 for H  read from file:
     /storage/coda1/p-amedford6/0/shared/rich_project_chbe-medford/medford-share/data/pseudos_module/espresso/nninc/pbe/van/H.UPF
     MD5 check sum: b5ee9d7bfd3a09ee7748110bda690ff7
     Pseudo is Ultrasoft, Zval =  1.0
     Generated by new atomic code, or converted to UPF format
     Using radial grid of  615 points,  1 beta functions with:
                l(1) =   0
     Q(r) pseudized with  8 coefficients,  rinner =    0.800

     PseudoPot. # 4 for N  read from file:
     /storage/coda1/p-amedford6/0/shared/rich_project_chbe-medford/medford-share/data/pseudos_module/espresso/nninc/pbe/van/N.UPF
     MD5 check sum: 90d10febe142ad51ac9d5be1deb811c4
     Pseudo is Ultrasoft, Zval =  5.0
     Generated by new atomic code, or converted to UPF format
     Using radial grid of  729 points,  4 beta functions with:
                l(1) =   0
                l(2) =   0
                l(3) =   1
                l(4) =   1
     Q(r) pseudized with  8 coefficients,  rinner =    0.800   0.800   0.800

     PseudoPot. # 5 for C  read from file:
     /storage/coda1/p-amedford6/0/shared/rich_project_chbe-medford/medford-share/data/pseudos_module/espresso/nninc/pbe/van/C.UPF
     MD5 check sum: 1a69bf6b8db32088f5b2163dbdb77a27
     Pseudo is Ultrasoft, Zval =  4.0
     Generated by new atomic code, or converted to UPF format
     Using radial grid of  721 points,  4 beta functions with:
                l(1) =   0
                l(2) =   0
                l(3) =   1
                l(4) =   1
     Q(r) pseudized with  8 coefficients,  rinner =    0.800   0.800   0.800

     atomic species   valence    mass     pseudopotential
        Ti1           12.00    47.86700     Ti( 1.00)
        O1             6.00    15.99900     O ( 1.00)
        H1             1.00     1.00800     H ( 1.00)
        N1             5.00    14.00700     N ( 1.00)
        C1             4.00    12.01100     C ( 1.00)

     No symmetry found

   Cartesian axes

     site n.     atom                  positions (alat units)
         1           Ti1 tau(   1) = (   0.0004258   2.9801865   6.0000000  )
         2           Ti1 tau(   2) = (   3.2906075   1.4906267   6.0002472  )
         3           O1  tau(   3) = (   0.0006271   0.0005054   7.9858123  )
         4           O1  tau(   4) = (   3.2906025   0.0005020   7.3038282  )
         5           O1  tau(   5) = (   4.5942328   1.4918067   9.2879030  )
         6           O1  tau(   6) = (   1.9868534   1.4903216   9.2879459  )
         7           Ti1 tau(   7) = (   3.2907910   2.8959150   9.1758416  )
         8           Ti1 tau(   8) = (   0.0015273   1.4827037   9.2680791  )
         9           O1  tau(   9) = (   3.3750462   0.0034689  11.3324641  )
        10           O1  tau(  10) = (   0.0116148   5.9584955  10.6183126  )
        11           O1  tau(  11) = (   1.3977860   1.4758343  12.6375763  )
        12           O1  tau(  12) = (   5.4232152   1.4913549  12.6657899  )
        13           Ti1 tau(  13) = (   0.0691229   2.9530050  12.5389017  )
        14           Ti1 tau(  14) = (   3.3643908   1.4039863  12.4577757  )
        15           O1  tau(  15) = (   0.1477665   0.0132832  14.6652528  )
        16           O1  tau(  16) = (   3.5189244   0.0045933  13.9158019  )
        17           O1  tau(  17) = (   4.7861523   1.5333885  16.1913275  )
        18           O1  tau(  18) = (   2.2541876   1.4026900  15.9427082  )
        19           Ti1 tau(  19) = (   3.5811307   2.9972434  16.0687679  )
        20           Ti1 tau(  20) = (   0.2998503   1.4255696  15.8726171  )
        21           O1  tau(  21) = (   3.2904802   0.0005063   4.7018136  )
        22           O1  tau(  22) = (   0.2643450   0.0038197  17.1846268  )
        23           O1  tau(  23) = (   1.3043587   1.4918075   6.0039043  )
        24           O1  tau(  24) = (   5.2767064   1.4903225   6.0039473  )
        25           Ti1 tau(  25) = (   0.0000382   5.9609847   6.0000000  )
        26           Ti1 tau(  26) = (   3.2902200   4.4714249   6.0002472  )
        27           O1  tau(  27) = (   0.0002396   2.9813036   7.9858123  )
        28           O1  tau(  28) = (   3.2902150   2.9813002   7.3038282  )
        29           O1  tau(  29) = (   4.5938453   4.4726049   9.2879030  )
        30           O1  tau(  30) = (   1.9864658   4.4711199   9.2879459  )
        31           Ti1 tau(  31) = (   3.2891106   5.8743827   9.1763621  )
        32           Ti1 tau(  32) = (   0.0006254   4.4649316   9.2693709  )
        33           O1  tau(  33) = (   3.3836021   2.9593565  11.3526375  )
        34           O1  tau(  34) = (   0.0092240   2.9805883  10.6323155  )
        35           O1  tau(  35) = (   1.3957467   4.4736095  12.6396340  )
        36           O1  tau(  36) = (   5.4261019   4.4541359  12.6685409  )
        37           Ti1 tau(  37) = (   0.0939275   5.9312067  12.4916740  )
        38           Ti1 tau(  38) = (   3.3665170   4.3046527  12.6650499  )
        39           O1  tau(  39) = (   0.1734719   2.9828917  14.8532074  )
        40           O1  tau(  40) = (   3.4150578   3.0309863  13.9715028  )
        41           O1  tau(  41) = (   4.7877001   4.4493464  16.1994792  )
        42           O1  tau(  42) = (   2.2536850   4.5881152  15.9586447  )
        43           Ti1 tau(  43) = (   3.5332629   0.0183730  15.6991940  )
        44           Ti1 tau(  44) = (   0.2986595   4.6220906  15.9451660  )
        45           O1  tau(  45) = (   3.2900926   2.9813045   4.7018136  )
        46           O1  tau(  46) = (   1.3039711   4.4726057   6.0039043  )
        47           O1  tau(  47) = (   5.2763189   4.4711207   6.0039473  )
        48           H1  tau(  48) = (   0.6716682   3.7174429  18.3617054  )
        49           H1  tau(  49) = (   0.7299512   2.1188458  18.2939656  )
        50           N1  tau(  50) = (   1.0783034   2.9530349  17.8291855  )
        51           C1  tau(  51) = (   2.6610371   2.9951180  18.0825860  )
        52           H1  tau(  52) = (   2.6895649   3.8224559  18.7561578  )
        53           H1  tau(  53) = (   2.7295784   2.2142559  18.8115579  )

     number of k points=    10  Fermi-Dirac smearing, width (Ry)=  0.0073
                       cart. coord. in units 2pi/alat
        k(    1) = (   0.0000000   0.0000000   0.0000000), wk =   0.1250000
        k(    2) = (   0.0000000   0.0419351   0.0000000), wk =   0.2500000
        k(    3) = (   0.0000000  -0.0838702   0.0000000), wk =   0.1250000
        k(    4) = (   0.0379955   0.0000049   0.0000000), wk =   0.2500000
        k(    5) = (   0.0379955   0.0419400   0.0000000), wk =   0.2500000
        k(    6) = (   0.0379955  -0.0838652   0.0000000), wk =   0.2500000
        k(    7) = (   0.0379955  -0.0419301   0.0000000), wk =   0.2500000
        k(    8) = (  -0.0759910  -0.0000099   0.0000000), wk =   0.1250000
        k(    9) = (  -0.0759910   0.0419252   0.0000000), wk =   0.2500000
        k(   10) = (  -0.0759910  -0.0838800   0.0000000), wk =   0.1250000

     Initial potential from superposition of free atoms

     starting charge  374.99916, renormalised to  391.00000

     negative rho (up, down):  1.820E-02 0.000E+00

     %%%%%%%%%%%%%%%%%%%%%%%%%%%%%%%%%%%%%%%%%%%%%%%%%%%%%%%%%%%%%%%%%%%%%%%%
     %                                                                      %
     % You are using vdW-DF, which was implemented by the Thonhauser group. %
     % Please cite the following two papers that made this development      %
     % possible and the two reviews that describe the various versions:     %
     %                                                                      %
     %   T. Thonhauser et al., PRL 115, 136402 (2015).                      %
     %   T. Thonhauser et al., PRB 76, 125112 (2007).                       %
     %   K. Berland et al., Rep. Prog. Phys. 78, 066501 (2015).             %
     %   D.C. Langreth et al., J. Phys.: Condens. Matter 21, 084203 (2009). %
     %                                                                      %
     %                                                                      %
     % If you are calculating the stress with vdW-DF, please also cite:     %
     %                                                                      %
     %   R. Sabatini et al., J. Phys.: Condens. Matter 24, 424209 (2012).   %
     %                                                                      %
     %%%%%%%%%%%%%%%%%%%%%%%%%%%%%%%%%%%%%%%%%%%%%%%%%%%%%%%%%%%%%%%%%%%%%%%%

     Adding external electric field

     Computed dipole along edir(3) :
        Dipole               -5.7422 Ry au,        -14.5952 Debye
        Dipole field         -0.0108 Ry au,

        Potential amp.        1.0045 Ry
        Total length         46.3494 bohr

     Starting wfcs are  296 atomic wfcs
  @ DRIVER MODE: Message from server: STATUS
  @ DRIVER MODE: Message from server: POSDATA
  @ DRIVER MODE: Reading and sharing cell
  @ DRIVER MODE: Reading and sharing positions
  @ DRIVER MODE: Received positions

     Self-consistent Calculation

     iteration #  1     ecut=    29.40 Ry     beta= 0.05
     Davidson diagonalization with overlap
     c_bands:  1 eigenvalues not converged
     c_bands:  5 eigenvalues not converged
     c_bands:  1 eigenvalues not converged
     c_bands:  1 eigenvalues not converged
     c_bands:  2 eigenvalues not converged
     c_bands:  2 eigenvalues not converged
     ethr =  1.00E-05,  avg # of iterations = 20.8

[...]

     total energy              =   -2767.51503011 Ry
     estimated scf accuracy    <    1677.55590918 Ry

[...]

     iteration #  3     ecut=    29.40 Ry     beta= 0.05
     Davidson diagonalization with overlap
     ethr =  1.00E-02,  avg # of iterations = 14.8

[...]

     iteration # 60     ecut=    29.40 Ry     beta= 0.05
     Davidson diagonalization with overlap
     c_bands:  1 eigenvalues not converged
     ethr =  1.09E-10,  avg # of iterations = 14.9

[...]

     total energy              =   -2920.27062576 Ry
     estimated scf accuracy    <       0.00000011 Ry

     iteration # 64     ecut=    29.40 Ry     beta= 0.05
     Davidson diagonalization with overlap
     ethr =  2.88E-11,  avg # of iterations =  6.1

     negative rho (up, down):  1.845E-02 0.000E+00

     Adding external electric field

     Computed dipole along edir(3) :
        Dipole                0.8686 Ry au,          2.2077 Debye
        Dipole field          0.0016 Ry au,

        Potential amp.       -0.1519 Ry
        Total length         46.3494 bohr

     End of self-consistent calculation

          k = 0.0000 0.0000 0.0000 ( 18029 PWs)   bands (ev):

   -55.8844 -55.8503 -55.7545 -55.7162 -55.7110 -55.7089 -55.6970 -55.6771
   -55.6702 -55.6330 -55.6305 -55.6277 -55.5943 -55.5654 -54.8652 -54.8311
   -32.3701 -32.2807 -32.2445 -32.2135 -32.1779 -32.1751 -32.1571 -32.1568
   -32.1300 -32.0781 -32.0371 -32.0188 -32.0097 -31.9964 -31.9950 -31.9920
   -31.9792 -31.9486 -31.9419 -31.9309 -31.9227 -31.9107 -31.8999 -31.8912
   -31.8795 -31.8762 -31.8548 -31.8541 -31.8478 -31.8461 -31.8391 -31.8306
   -31.8236 -31.8229 -31.8209 -31.8060 -31.7929 -31.7821 -31.7801 -31.7686
   -31.7123 -31.6293 -31.2716 -31.1843 -31.1619 -31.0891 -31.0026 -30.8908
   -16.5739 -16.4028 -16.1959 -16.0692 -16.0513 -15.8579 -15.7653 -15.6879
   -15.4934 -15.4538 -15.4258 -15.4104 -15.3989 -15.3970 -15.3803 -15.3611
   -15.3408 -15.3311 -15.3096 -15.2570 -15.2504 -15.2352 -15.2173 -15.2143
   -15.0300 -15.0190 -14.9813 -14.9451 -14.8670 -14.5651 -13.3643 -13.2478
    -8.9201  -5.6577  -3.9465  -3.8808  -3.8168  -3.7918  -3.7660  -3.6549
    -3.4844  -3.2968  -3.2073  -3.1745  -3.0578  -3.0130  -2.9165  -2.8389
    -2.8249  -2.7628  -2.7215  -2.6969  -2.6729  -2.6611  -2.6051  -2.5829
    -2.5770  -2.4441  -2.3838  -2.3652  -2.3038  -2.2795  -2.2507  -2.2083
    -2.2014  -2.1876  -2.1709  -2.1340  -2.1052  -2.0884  -2.0065  -1.9346
    -1.8964  -1.8568  -1.6397  -1.5257  -1.5009  -1.4668  -1.4119  -1.3799
    -1.3354  -1.2966  -1.2806  -1.2621  -1.1919  -1.1030  -1.0229  -1.0149
    -0.9131  -0.8875  -0.8016  -0.7264  -0.7100  -0.6463  -0.6234  -0.6189
    -0.6145  -0.5251  -0.4720  -0.3887  -0.3401  -0.3021  -0.2361  -0.1699
    -0.1143  -0.1022  -0.0632  -0.0207   0.0218   0.0326   0.0574   0.0874
     0.1256   0.1636   0.2030   0.2844   0.3270   0.3599   0.4073   0.4199
     0.5223   0.7330   0.7727   0.9112   1.0905   1.1608   1.1846   1.1964
     1.3523   1.7291   1.7749   3.1975   3.3422   3.3599   3.4315   3.4614
     3.5141   3.6853   3.7716   3.8143   3.8725

[...]

          k = 0.0380-0.0419 0.0000 ( 17876 PWs)   bands (ev):

[...]

          k =-0.0760-0.0000 0.0000 ( 17886 PWs)   bands (ev):

[...]

          k =-0.0760-0.0839 0.0000 ( 17948 PWs)   bands (ev):

   -55.8675 -55.8671 -55.7433 -55.7271 -55.7064 -55.6940 -55.6937 -55.6924
   -55.6619 -55.6361 -55.6355 -55.6234 -55.6038 -55.5671 -54.8483 -54.8479
   -32.2049 -32.1855 -32.1853 -32.1608 -32.1603 -32.1007 -32.0677 -32.0497
   -32.0343 -32.0274 -32.0245 -32.0175 -32.0019 -31.9877 -31.9869 -31.9852
   -31.9771 -31.9691 -31.9618 -31.9486 -31.9466 -31.9375 -31.9340 -31.9258
   -31.9127 -31.9037 -31.8996 -31.8951 -31.8828 -31.8786 -31.8705 -31.8696
   -31.8692 -31.8622 -31.8578 -31.8485 -31.8448 -31.8327 -31.8140 -31.8132
   -31.7985 -31.6296 -31.1748 -31.1745 -31.0847 -31.0841 -31.0461 -31.0457
   -16.1458 -15.9778 -15.8687 -15.8539 -15.7908 -15.6794 -15.6673 -15.6408
   -15.6216 -15.5849 -15.5655 -15.5520 -15.5038 -15.4648 -15.4279 -15.4033
   -15.3996 -15.3529 -15.3485 -15.3388 -15.3167 -15.2823 -15.2737 -15.2094
   -15.2007 -15.1001 -15.0852 -15.0675 -15.0172 -14.8976 -13.3497 -13.3495
    -8.9260  -5.6276  -3.7709  -3.3046  -3.2073  -3.0705  -3.0029  -2.9624
    -2.9141  -2.8813  -2.8600  -2.8413  -2.7910  -2.7775  -2.7463  -2.7025
    -2.6844  -2.6671  -2.6464  -2.6204  -2.5994  -2.5877  -2.5691  -2.5511
    -2.5182  -2.5022  -2.4756  -2.4628  -2.4518  -2.4400  -2.4292  -2.4200
    -2.2350  -2.1440  -2.0518  -2.0434  -2.0335  -2.0077  -1.9828  -1.9650
    -1.9488  -1.9262  -1.8981  -1.8720  -1.8418  -1.5970  -1.5590  -1.5240
    -1.4660  -1.4286  -1.3806  -1.3681  -1.3349  -1.3048  -1.2232  -1.1856
    -1.1604  -1.0828  -1.0055  -0.9474  -0.9010  -0.8635  -0.8331  -0.8211
    -0.7807  -0.7425  -0.7336  -0.7097  -0.6937  -0.5871  -0.5849  -0.5820
    -0.4374  -0.4020  -0.3801  -0.2873  -0.2679  -0.0882  -0.0311   0.0011
     0.1352   0.1462   0.1820   0.2925   0.3195   0.3650   0.4216   0.4426
     0.5293   0.5813   0.6231   0.6626   0.6864   0.7030   1.1508   1.5231
     1.5289   1.5951   1.5952   3.5982   3.6392   3.7055   3.7313   3.7515
     3.7869   3.8096   3.8207   3.8664   3.8762

     the Fermi energy is     3.2362 ev

!    total energy              =   -2920.27065551 Ry
     estimated scf accuracy    <       0.00000003 Ry
     smearing contrib. (-TS)   =      -0.01953358 Ry
     internal energy E=F+TS    =   -2920.25112194 Ry

     The total energy is F=E-TS. E is the sum of the following terms:
     one-electron contribution =  -24543.57458035 Ry
     hartree contribution      =   12357.57735560 Ry
     xc contribution           =    -480.81244664 Ry
     ewald contribution        =    9746.55712573 Ry
     electric field correction =       0.00142372 Ry

     convergence has been achieved in  64 iterations

     Forces acting on atoms (cartesian axes, Ry/au):

     atom    1 type  1   force =     0.00007607   -0.00038246    0.09442505
     atom    2 type  1   force =    -0.00007204   -0.00123313   -0.17582898
     atom    3 type  2   force =     0.00046285   -0.00020709   -0.02135269
     atom    4 type  2   force =     0.00017366   -0.00092987    0.05145925
     atom    5 type  2   force =    -0.00541325    0.00099980   -0.00035614
     atom    6 type  2   force =     0.00989724    0.00143307    0.00527516
     atom    7 type  1   force =     0.00312173    0.00406407   -0.00384128
     atom    8 type  1   force =    -0.00264475    0.00537474    0.00462872
     atom    9 type  2   force =     0.00031665    0.00017996    0.00043264
     atom   10 type  2   force =     0.00289785    0.00077273   -0.01336705
     atom   11 type  2   force =     0.00011227    0.00027675   -0.00002338
     atom   12 type  2   force =    -0.00018378   -0.00005255   -0.00009391
     atom   13 type  1   force =    -0.00029350   -0.00030339    0.00141501
     atom   14 type  1   force =    -0.00060993    0.00039351   -0.00124826
     atom   15 type  2   force =     0.00022920   -0.00005115   -0.00008374
     atom   16 type  2   force =     0.00004713   -0.00015976    0.00021113
     atom   17 type  2   force =     0.00015297   -0.00085236    0.00065956
     atom   18 type  2   force =     0.00006815    0.00020938   -0.00016195
     atom   19 type  1   force =    -0.00052061    0.00032063   -0.00095476
     atom   20 type  1   force =    -0.00024247    0.00212479   -0.00022585
     atom   21 type  2   force =     0.00004883   -0.00009572    0.10313232
     atom   22 type  2   force =    -0.00058651    0.00068026    0.00083204
     atom   23 type  2   force =    -0.07171032   -0.00014414   -0.02719335
     atom   24 type  2   force =     0.07176590    0.00034929   -0.02733731
     atom   25 type  1   force =    -0.00008942   -0.00021870    0.09390861
     atom   26 type  1   force =     0.00004108    0.00040245   -0.17579474
     atom   27 type  2   force =     0.00046234   -0.00026444   -0.02044569
     atom   28 type  2   force =     0.00023449   -0.00170667    0.05408460
     atom   29 type  2   force =    -0.00646547   -0.00169713    0.00028474
     atom   30 type  2   force =     0.01069963   -0.00155635    0.00559770
     atom   31 type  1   force =     0.00345090    0.00043958    0.00536006
     atom   32 type  1   force =    -0.00266620   -0.00668682    0.00504319
     atom   33 type  2   force =     0.00024388    0.00032073    0.00056430
     atom   34 type  2   force =     0.00503700   -0.00078993   -0.00879601
     atom   35 type  2   force =     0.00014020   -0.00001217   -0.00000590
     atom   36 type  2   force =    -0.00014917   -0.00002620   -0.00002729
     atom   37 type  1   force =     0.00075306   -0.00041833    0.00093252
     atom   38 type  1   force =    -0.00028572   -0.00116269   -0.00002799
     atom   39 type  2   force =    -0.00072683   -0.00018345    0.00027483
     atom   40 type  2   force =     0.00040096    0.00039371    0.00003403
     atom   41 type  2   force =     0.00007859    0.00152744    0.00069036
     atom   42 type  2   force =     0.00046082    0.00026349    0.00006014
     atom   43 type  1   force =     0.00077513    0.00009025    0.00007480
     atom   44 type  1   force =    -0.00014544   -0.00194610   -0.00061891
     atom   45 type  2   force =     0.00005173   -0.00001989    0.10330741
     atom   46 type  2   force =    -0.07169317   -0.00015230   -0.02721910
     atom   47 type  2   force =     0.07172894    0.00030394   -0.02732694
     atom   48 type  3   force =    -0.00321890    0.00346346    0.00302005
     atom   49 type  3   force =    -0.00282933   -0.00429453    0.00263713
     atom   50 type  4   force =     0.01197483    0.00076539   -0.00446724
     atom   51 type  5   force =    -0.08772370   -0.00377434   -0.00170601
     atom   52 type  3   force =     0.03015185    0.05170286    0.00004831
     atom   53 type  3   force =     0.03221459   -0.04753057    0.00011080

     Total force =     0.382850     Total SCF correction =     0.000635
  @ DRIVER MODE: Message from server: STATUS
  @ DRIVER MODE: Message from server: GETFORCE
  @ DRIVER MODE: Returning v,forces,stress,ensemble

     Writing output data file ./calc.save/
  @ DRIVER MODE: Message from server: EXIT
  @ DRIVE MODE: Exiting

     General routines

     Parallel routines

   This run was terminated on:  21:49:44  11Oct2021

   JOB DONE.