     Program PWSCF v.6.7GPU starts on  2Aug2021 at 19:17:47

     R & G space division:  proc/nbgrp/npool/nimage =      16
     Reading input from /storage/home/hcoda1/3/ntian30/research/carbon/02Aug_vib_paired/ads_slab/CH3NH_a/out_0030/pw.inp
Warning: card &CELL ignored
Warning: card   CELL_DYNAMICS='IPI', ignored
Warning: card / ignored

     Current dimensions of program PWSCF are:
     Max number of different atomic species (ntypx) = 10
     Max number of k-points (npk) =  40000
     Max angular momentum in pseudopotentials (lmaxx) =  3
     Presently no symmetry can be used with electric field

     Message from routine cell_base_init:
     DEPRECATED: use true lattice parameter, not A to a.u. conversion factor

     IMPORTANT: XC functional enforced from input :
     Exchange-correlation= BEEF-VDW
                           (   1   4  43  14   2   0   0)
     Any further DFT definition will be discarded
     Please, verify this is what you really want

  @ DRIVER MODE: Connecting to
 qe_1139763_2482540.sched-torque.pace.gatech.edudzdt0sh4_scratch
  using UNIX socket
  @ DRIVER MODE: Message from server: STATUS
  @ DRIVER MODE: Message from server: INIT
  @ DRIVER MODE: Receiving replica           0          -1
  @ DRIVER MODE: Receiving encoded integer          25
  @ DRIVER MODE:  SCF:  T  FORCE:  T  STRESS:  F  VC:  F  ENSEMBLE:  F
  @ DRIVER MODE:  SCF:  T  FORCE:  T  STRESS:  F  VC:  F  ENSEMBLE:  F

     Using Slab Decomposition

     bravais-lattice index     =            0
     lattice parameter (alat)  =       1.8897  a.u.
     unit-cell volume          =    6658.9804 (a.u.)^3
     number of atoms/cell      =           53
     number of atomic types    =            5
     number of electrons       =       391.00
     number of Kohn-Sham states=          205
     kinetic-energy cutoff     =      29.3995  Ry
     charge density cutoff     =     293.9946  Ry
     scf convergence threshold =      7.3E-08
     mixing beta               =       0.0500
     number of iterations used =            8  plain     mixing
     Exchange-correlation= BEEF-VDW
                           (   1   4  43  14   2   0   0)

     celldm(1)=   1.889726  celldm(2)=   0.000000  celldm(3)=   0.000000
     celldm(4)=   0.000000  celldm(5)=   0.000000  celldm(6)=   0.000000

     crystal axes: (cart. coord. in units of alat)
               a(1) = (   6.579727   0.000000   0.000000 )
               a(2) = (  -0.000775   5.961596   0.000000 )
               a(3) = (   0.000000   0.000000  25.155947 )

     reciprocal axes: (cart. coord. in units 2 pi/alat)
               b(1) = (  0.151982  0.000020  0.000000 )
               b(2) = (  0.000000  0.167740  0.000000 )
               b(3) = (  0.000000  0.000000  0.039752 )

     PseudoPot. # 1 for Ti read from file:
     /storage/coda1/p-amedford6/0/shared/rich_project_chbe-medford/medford-share/data/pseudos_module/espresso/nninc/pbe/van/Ti.UPF
     MD5 check sum: 8e4df49b7f0d34bbd5052bf3f5ea0213
     Pseudo is Ultrasoft, Zval = 12.0
     Generated by new atomic code, or converted to UPF format
     Using radial grid of  851 points,  6 beta functions with:
                l(1) =   0
                l(2) =   0
                l(3) =   1
                l(4) =   1
                l(5) =   2
                l(6) =   2
     Q(r) pseudized with  8 coefficients,  rinner =    1.000   1.000   1.000
                                                       1.000   1.000

     PseudoPot. # 2 for O  read from file:
     /storage/coda1/p-amedford6/0/shared/rich_project_chbe-medford/medford-share/data/pseudos_module/espresso/nninc/pbe/van/O.UPF
     MD5 check sum: 78c19812648e8988a0fe644b0f25305e
     Pseudo is Ultrasoft, Zval =  6.0
     Generated by new atomic code, or converted to UPF format
     Using radial grid of  737 points,  4 beta functions with:
                l(1) =   0
                l(2) =   0
                l(3) =   1
                l(4) =   1
     Q(r) pseudized with  8 coefficients,  rinner =    0.800   0.800   0.800

     PseudoPot. # 3 for H  read from file:
     /storage/coda1/p-amedford6/0/shared/rich_project_chbe-medford/medford-share/data/pseudos_module/espresso/nninc/pbe/van/H.UPF
     MD5 check sum: b5ee9d7bfd3a09ee7748110bda690ff7
     Pseudo is Ultrasoft, Zval =  1.0
     Generated by new atomic code, or converted to UPF format
     Using radial grid of  615 points,  1 beta functions with:
                l(1) =   0
     Q(r) pseudized with  8 coefficients,  rinner =    0.800

     PseudoPot. # 4 for N  read from file:
     /storage/coda1/p-amedford6/0/shared/rich_project_chbe-medford/medford-share/data/pseudos_module/espresso/nninc/pbe/van/N.UPF
     MD5 check sum: 90d10febe142ad51ac9d5be1deb811c4
     Pseudo is Ultrasoft, Zval =  5.0
     Generated by new atomic code, or converted to UPF format
     Using radial grid of  729 points,  4 beta functions with:
                l(1) =   0
                l(2) =   0
                l(3) =   1
                l(4) =   1
     Q(r) pseudized with  8 coefficients,  rinner =    0.800   0.800   0.800

     PseudoPot. # 5 for C  read from file:
     /storage/coda1/p-amedford6/0/shared/rich_project_chbe-medford/medford-share/data/pseudos_module/espresso/nninc/pbe/van/C.UPF
     MD5 check sum: 1a69bf6b8db32088f5b2163dbdb77a27
     Pseudo is Ultrasoft, Zval =  4.0
     Generated by new atomic code, or converted to UPF format
     Using radial grid of  721 points,  4 beta functions with:
                l(1) =   0
                l(2) =   0
                l(3) =   1
                l(4) =   1
     Q(r) pseudized with  8 coefficients,  rinner =    0.800   0.800   0.800

     atomic species   valence    mass     pseudopotential
        Ti1           12.00    47.86700     Ti( 1.00)
        O1             6.00    15.99900     O ( 1.00)
        H1             1.00     1.00800     H ( 1.00)
        N1             5.00    14.00700     N ( 1.00)
        C1             4.00    12.01100     C ( 1.00)

     No symmetry found

   Cartesian axes

     site n.     atom                  positions (alat units)
         1           Ti1 tau(   1) = (   0.0004258   2.9801865   6.0000000  )
         2           Ti1 tau(   2) = (   3.2906075   1.4906267   6.0002472  )
         3           O1  tau(   3) = (   0.0006271   0.0005054   7.9858123  )
         4           O1  tau(   4) = (   3.2906025   0.0005020   7.3038282  )
         5           O1  tau(   5) = (   4.5942328   1.4918067   9.2879030  )
         6           O1  tau(   6) = (   1.9868534   1.4903216   9.2879459  )
         7           Ti1 tau(   7) = (   3.2907910   2.8959150   9.1758416  )
         8           Ti1 tau(   8) = (   0.0015273   1.4827037   9.2680791  )
         9           O1  tau(   9) = (   3.2884659   0.0075485  11.3235732  )
        10           O1  tau(  10) = (   0.0116148   5.9584955  10.6183126  )
        11           O1  tau(  11) = (   1.3171120   1.5008813  12.6157184  )
        12           O1  tau(  12) = (   5.2946386   1.4924346  12.6071097  )
        13           Ti1 tau(  13) = (   6.5241923   2.9548932  12.6217359  )
        14           Ti1 tau(  14) = (   3.2094326   1.4975571  12.4685497  )
        15           O1  tau(  15) = (   6.5712017   0.0435206  14.6415704  )
        16           O1  tau(  16) = (   3.3105969   0.0188825  13.9167609  )
        17           O1  tau(  17) = (   4.5276945   1.5520673  16.0775932  )
        18           O1  tau(  18) = (   2.0451199   1.5488911  16.0433559  )
        19           Ti1 tau(  19) = (   3.3056363   3.0248959  15.6834923  )
        20           Ti1 tau(  20) = (   0.0598299   1.5678558  15.8702049  )
        21           O1  tau(  21) = (   3.2904802   0.0005063   4.7018136  )
        22           O1  tau(  22) = (   0.0261329   0.0581799  17.1997403  )
        23           O1  tau(  23) = (   1.3043587   1.4918075   6.0039043  )
        24           O1  tau(  24) = (   5.2767064   1.4903225   6.0039473  )
        25           Ti1 tau(  25) = (   0.0000382   5.9609847   6.0000000  )
        26           Ti1 tau(  26) = (   3.2902200   4.4714249   6.0002472  )
        27           O1  tau(  27) = (   0.0002396   2.9813036   7.9858123  )
        28           O1  tau(  28) = (   3.2902150   2.9813002   7.3038282  )
        29           O1  tau(  29) = (   4.5938453   4.4726049   9.2879030  )
        30           O1  tau(  30) = (   1.9864658   4.4711199   9.2879459  )
        31           Ti1 tau(  31) = (   3.2891106   5.8743827   9.1763621  )
        32           Ti1 tau(  32) = (   0.0006254   4.4649316   9.2693709  )
        33           O1  tau(  33) = (   3.2900467   2.9919642  11.3219399  )
        34           O1  tau(  34) = (   0.0092240   2.9805883  10.6323155  )
        35           O1  tau(  35) = (   1.3109590   4.4888342  12.6262493  )
        36           O1  tau(  36) = (   5.2962169   4.4808628  12.6191006  )
        37           Ti1 tau(  37) = (   6.5213093   5.9327278  12.5667326  )
        38           Ti1 tau(  38) = (   3.2063601   4.4772876  12.4706241  )
        39           O1  tau(  39) = (   6.5765807   2.9606619  14.6437028  )
        40           O1  tau(  40) = (   3.3047873   3.0036736  13.8926904  )
        41           O1  tau(  41) = (   4.5386289   4.5058657  16.0833063  )
        42           O1  tau(  42) = (   2.0584685   4.5123608  16.0729366  )
        43           Ti1 tau(  43) = (   3.3398093   0.0384087  15.7085799  )
        44           Ti1 tau(  44) = (   0.0478225   4.6849499  16.0879628  )
        45           O1  tau(  45) = (   3.2900926   2.9813045   4.7018136  )
        46           O1  tau(  46) = (   1.3039711   4.4726057   6.0039043  )
        47           O1  tau(  47) = (   5.2763189   4.4711207   6.0039473  )
        48           H1  tau(  48) = (   5.6109407   2.9912845  17.7881963  )
        49           N1  tau(  49) = (   6.5652763   3.0051276  17.4431066  )
        50           C1  tau(  50) = (   0.8863280   2.9891452  18.6126320  )
        51           H1  tau(  51) = (   1.3596840   3.9617220  18.7724638  )
        52           H1  tau(  52) = (   0.3315535   2.7344040  19.5271108  )
        53           H1  tau(  53) = (   1.6705027   2.2407838  18.4910999  )

     number of k points=    10  Fermi-Dirac smearing, width (Ry)=  0.0073
                       cart. coord. in units 2pi/alat
        k(    1) = (   0.0000000   0.0000000   0.0000000), wk =   0.1250000
        k(    2) = (   0.0000000   0.0419351   0.0000000), wk =   0.2500000
        k(    3) = (   0.0000000  -0.0838702   0.0000000), wk =   0.1250000
        k(    4) = (   0.0379955   0.0000049   0.0000000), wk =   0.2500000
        k(    5) = (   0.0379955   0.0419400   0.0000000), wk =   0.2500000
        k(    6) = (   0.0379955  -0.0838652   0.0000000), wk =   0.2500000
        k(    7) = (   0.0379955  -0.0419301   0.0000000), wk =   0.2500000
        k(    8) = (  -0.0759910  -0.0000099   0.0000000), wk =   0.1250000
        k(    9) = (  -0.0759910   0.0419252   0.0000000), wk =   0.2500000
        k(   10) = (  -0.0759910  -0.0838800   0.0000000), wk =   0.1250000

     Initial potential from superposition of free atoms

     starting charge  374.99916, renormalised to  391.00000

     negative rho (up, down):  1.777E-02 0.000E+00

     %%%%%%%%%%%%%%%%%%%%%%%%%%%%%%%%%%%%%%%%%%%%%%%%%%%%%%%%%%%%%%%%%%%%%%%%
     %                                                                      %
     % You are using vdW-DF, which was implemented by the Thonhauser group. %
     % Please cite the following two papers that made this development      %
     % possible and the two reviews that describe the various versions:     %
     %                                                                      %
     %   T. Thonhauser et al., PRL 115, 136402 (2015).                      %
     %   T. Thonhauser et al., PRB 76, 125112 (2007).                       %
     %   K. Berland et al., Rep. Prog. Phys. 78, 066501 (2015).             %
     %   D.C. Langreth et al., J. Phys.: Condens. Matter 21, 084203 (2009). %
     %                                                                      %
     %                                                                      %
     % If you are calculating the stress with vdW-DF, please also cite:     %
     %                                                                      %
     %   R. Sabatini et al., J. Phys.: Condens. Matter 24, 424209 (2012).   %
     %                                                                      %
     %%%%%%%%%%%%%%%%%%%%%%%%%%%%%%%%%%%%%%%%%%%%%%%%%%%%%%%%%%%%%%%%%%%%%%%%

     Adding external electric field

     Computed dipole along edir(3) :
        Dipole               -5.8092 Ry au,        -14.7655 Debye
        Dipole field         -0.0110 Ry au,

        Potential amp.        1.0162 Ry
        Total length         46.3494 bohr

     Starting wfcs are  296 atomic wfcs
  @ DRIVER MODE: Message from server: STATUS
  @ DRIVER MODE: Message from server: POSDATA
  @ DRIVER MODE: Reading and sharing cell
  @ DRIVER MODE: Reading and sharing positions
  @ DRIVER MODE: Received positions

     Self-consistent Calculation

     iteration #  1     ecut=    29.40 Ry     beta= 0.05
     Davidson diagonalization with overlap
     c_bands:  3 eigenvalues not converged
     c_bands:  1 eigenvalues not converged
     c_bands:  1 eigenvalues not converged
     c_bands:  2 eigenvalues not converged
     c_bands:  4 eigenvalues not converged
     c_bands:  2 eigenvalues not converged
     c_bands:  1 eigenvalues not converged
     c_bands:  1 eigenvalues not converged
     c_bands:  2 eigenvalues not converged
     ethr =  1.00E-05,  avg # of iterations = 19.5

[...]

     total energy              =   -2770.83747446 Ry
     estimated scf accuracy    <    1639.56524053 Ry

[...]

     iteration #  3     ecut=    29.40 Ry     beta= 0.05
     Davidson diagonalization with overlap
     ethr =  1.00E-02,  avg # of iterations = 15.1

[...]

     iteration # 57     ecut=    29.40 Ry     beta= 0.05
     Davidson diagonalization with overlap
     c_bands:  1 eigenvalues not converged
     ethr =  4.54E-10,  avg # of iterations = 11.7

[...]

     total energy              =   -2920.41979294 Ry
     estimated scf accuracy    <       0.00000021 Ry

     iteration # 62     ecut=    29.40 Ry     beta= 0.05
     Davidson diagonalization with overlap
     ethr =  4.58E-11,  avg # of iterations = 12.7

     negative rho (up, down):  1.823E-02 0.000E+00

     Adding external electric field

     Computed dipole along edir(3) :
        Dipole                0.6920 Ry au,          1.7588 Debye
        Dipole field          0.0013 Ry au,

        Potential amp.       -0.1210 Ry
        Total length         46.3494 bohr

     End of self-consistent calculation

          k = 0.0000 0.0000 0.0000 ( 18029 PWs)   bands (ev):

   -55.9827 -55.9741 -55.9486 -55.9380 -55.8860 -55.8251 -55.8210 -55.7879
   -55.7863 -55.7540 -55.7476 -55.7139 -55.5564 -55.2761 -54.9550 -54.9210
   -32.5341 -32.4642 -32.3351 -32.3222 -32.3013 -32.2871 -32.2759 -32.2388
   -32.2243 -32.2214 -32.1971 -32.1901 -32.1573 -32.1348 -32.1259 -32.1189
   -32.1171 -32.0862 -32.0662 -32.0398 -32.0321 -32.0279 -32.0118 -31.9907
   -31.9810 -31.9792 -31.9743 -31.9642 -31.9510 -31.9437 -31.9416 -31.9363
   -31.9244 -31.9181 -31.9010 -31.8948 -31.8603 -31.8211 -31.7254 -31.5505
   -31.5439 -31.4731 -31.3619 -31.2742 -31.2517 -31.1787 -31.0922 -30.9811
   -16.7436 -16.4603 -16.2809 -16.1380 -16.1048 -16.0196 -15.8192 -15.6940
   -15.6810 -15.5779 -15.5402 -15.5171 -15.5094 -15.4825 -15.4795 -15.4206
   -15.4179 -15.4051 -15.3927 -15.3367 -15.3129 -15.2729 -15.1786 -15.1547
   -15.1391 -15.1126 -15.0319 -15.0244 -14.5843 -14.0992 -13.4575 -13.3412
    -8.9215  -4.3566  -4.1143  -3.9375  -3.8986  -3.8852  -3.8368  -3.5851
    -3.5687  -3.3108  -3.1939  -3.1772  -3.1686  -3.1525  -3.1384  -3.1189
    -2.8819  -2.8114  -2.7976  -2.7750  -2.7682  -2.7648  -2.7527  -2.7488
    -2.7065  -2.6458  -2.5253  -2.5143  -2.4097  -2.3626  -2.3382  -2.2923
    -2.2480  -2.2419  -2.2292  -2.2124  -2.1975  -2.1787  -2.1610  -2.0265
    -1.9627  -1.8348  -1.7872  -1.7808  -1.5834  -1.5386  -1.4489  -1.4253
    -1.4093  -1.4019  -1.3697  -1.2894  -1.1976  -1.1409  -1.1269  -1.0746
    -0.9979  -0.9862  -0.8756  -0.8711  -0.8065  -0.7516  -0.7423  -0.7328
    -0.6876  -0.6121  -0.5409  -0.4671  -0.4175  -0.3962  -0.3689  -0.2904
    -0.2603  -0.1637  -0.1453  -0.0985  -0.0954  -0.0463  -0.0045   0.0054
     0.0120   0.0267   0.0444   0.1931   0.3000   0.3567   0.3901   0.4011
     0.5564   0.5926   0.6807   0.7681   0.9937   1.0670   1.1603   1.2598
     1.3228   1.6377   1.6830   3.1603   3.2393   3.2923   3.3007   3.4022
     3.4047   3.6101   3.6225   3.6330   3.7015

[...]

          k = 0.0380-0.0419 0.0000 ( 17876 PWs)   bands (ev):

[...]

          k =-0.0760-0.0000 0.0000 ( 17886 PWs)   bands (ev):

[...]

          k =-0.0760-0.0839 0.0000 ( 17948 PWs)   bands (ev):

   -55.9660 -55.9652 -55.9570 -55.9549 -55.8806 -55.8304 -55.8058 -55.8015
   -55.7717 -55.7698 -55.7315 -55.7302 -55.5554 -55.2770 -54.9380 -54.9378
   -32.3384 -32.3356 -32.2798 -32.2792 -32.2668 -32.2616 -32.2608 -32.2463
   -32.1841 -32.1831 -32.1768 -32.1729 -32.1495 -32.1212 -32.1030 -32.0989
   -32.0884 -32.0854 -32.0846 -32.0846 -32.0828 -32.0713 -32.0689 -32.0366
   -32.0262 -32.0203 -31.9959 -31.9867 -31.9685 -31.9681 -31.9642 -31.9631
   -31.9464 -31.9458 -31.9432 -31.9415 -31.8894 -31.8238 -31.7206 -31.6137
   -31.5460 -31.4985 -31.2645 -31.2644 -31.1748 -31.1746 -31.1355 -31.1354
   -16.1955 -16.1620 -15.9266 -15.9171 -15.9081 -15.8920 -15.7474 -15.6954
   -15.6871 -15.6804 -15.6559 -15.6322 -15.5810 -15.5505 -15.5168 -15.5102
   -15.5036 -15.4983 -15.4421 -15.4357 -15.4132 -15.4059 -15.2924 -15.2882
   -15.2866 -15.2105 -15.1461 -15.0129 -14.7543 -14.1202 -13.4431 -13.4430
    -8.9253  -4.3675  -3.4899  -3.4518  -3.2759  -3.1904  -3.1663  -3.1533
    -3.1322  -3.0522  -2.8930  -2.8785  -2.8600  -2.8468  -2.8069  -2.8017
    -2.7900  -2.7760  -2.7690  -2.7513  -2.7175  -2.6767  -2.6482  -2.6411
    -2.6323  -2.6078  -2.5954  -2.5687  -2.5632  -2.5306  -2.5223  -2.5038
    -2.4799  -2.2177  -2.1990  -2.1820  -2.1133  -2.1064  -2.0713  -2.0631
    -2.0441  -2.0307  -1.9784  -1.8772  -1.7143  -1.6816  -1.6668  -1.6500
    -1.5853  -1.5653  -1.4170  -1.3887  -1.3722  -1.3316  -1.2830  -1.2536
    -1.2167  -1.1769  -1.1399  -1.0795  -1.0714  -0.9923  -0.9422  -0.9417
    -0.9142  -0.8448  -0.7658  -0.7486  -0.7369  -0.6958  -0.6821  -0.6006
    -0.5779  -0.4796  -0.4668  -0.3962  -0.3648  -0.2985  -0.0940   0.0026
     0.0614   0.0852   0.1382   0.2356   0.2898   0.3035   0.3370   0.3419
     0.4017   0.4426   0.5567   0.5643   0.6328   0.7364   1.2709   1.4313
     1.4319   1.5028   1.5029   3.4222   3.4280   3.4773   3.5082   3.6598
     3.6644   3.6874   3.6894   3.8109   3.8282

     the Fermi energy is     3.1534 ev

!    total energy              =   -2920.41984202 Ry
     estimated scf accuracy    <       0.00000007 Ry
     smearing contrib. (-TS)   =      -0.02202972 Ry
     internal energy E=F+TS    =   -2920.39781230 Ry

     The total energy is F=E-TS. E is the sum of the following terms:
     one-electron contribution =  -24727.18971125 Ry
     hartree contribution      =   12448.24208208 Ry
     xc contribution           =    -480.86961990 Ry
     ewald contribution        =    9839.41853320 Ry
     electric field correction =       0.00090358 Ry

     convergence has been achieved in  62 iterations

     Forces acting on atoms (cartesian axes, Ry/au):

     atom    1 type  1   force =     0.00011503   -0.00018165    0.09685308
     atom    2 type  1   force =     0.00004955   -0.00047315   -0.17506332
     atom    3 type  2   force =     0.00012896    0.00000665   -0.02532377
     atom    4 type  2   force =    -0.00003607   -0.00128110    0.05235466
     atom    5 type  2   force =    -0.01223578   -0.00001206    0.00299122
     atom    6 type  2   force =     0.01367417    0.00058513    0.00232460
     atom    7 type  1   force =     0.00056587    0.00033971   -0.01301398
     atom    8 type  1   force =     0.00045686    0.00731913    0.03072682
     atom    9 type  2   force =     0.00056126    0.00003722   -0.00021090
     atom   10 type  2   force =    -0.00267775    0.00211236   -0.01739183
     atom   11 type  2   force =    -0.00013641    0.00007302   -0.00002606
     atom   12 type  2   force =     0.00045157    0.00033976    0.00018300
     atom   13 type  1   force =    -0.00010798   -0.00054176   -0.00016518
     atom   14 type  1   force =    -0.00040938    0.00002611    0.00080855
     atom   15 type  2   force =     0.00000106   -0.00077714    0.00082868
     atom   16 type  2   force =     0.00025693    0.00063152   -0.00049969
     atom   17 type  2   force =     0.00066018    0.00009045    0.00060451
     atom   18 type  2   force =    -0.00013124   -0.00006870    0.00001866
     atom   19 type  1   force =    -0.00000485    0.00046286   -0.00024229
     atom   20 type  1   force =    -0.00022880   -0.00065152    0.00003860
     atom   21 type  2   force =     0.00006068   -0.00002882    0.10313835
     atom   22 type  2   force =     0.00014140   -0.00088168    0.00101469
     atom   23 type  2   force =    -0.07160872   -0.00015322   -0.02782709
     atom   24 type  2   force =     0.07150307    0.00034991   -0.02788203
     atom   25 type  1   force =     0.00007674   -0.00013397    0.09657644
     atom   26 type  1   force =     0.00009149   -0.00019466   -0.17519437
     atom   27 type  2   force =     0.00011669   -0.00011136   -0.02438776
     atom   28 type  2   force =     0.00004295   -0.00103795    0.05227092
     atom   29 type  2   force =    -0.01243344    0.00063317    0.00278192
     atom   30 type  2   force =     0.01374375    0.00097960    0.00212656
     atom   31 type  1   force =     0.00045306    0.00315840   -0.01357391
     atom   32 type  1   force =     0.00032105   -0.00951510    0.03110472
     atom   33 type  2   force =    -0.00006881    0.00031035   -0.00060482
     atom   34 type  2   force =    -0.00206439    0.00182213   -0.02538716
     atom   35 type  2   force =    -0.00017657   -0.00029187    0.00037445
     atom   36 type  2   force =     0.00024387   -0.00078287    0.00040573
     atom   37 type  1   force =     0.00004158    0.00026636    0.00103478
     atom   38 type  1   force =    -0.00020229    0.00038550    0.00078017
     atom   39 type  2   force =    -0.00006555   -0.00016057   -0.00057801
     atom   40 type  2   force =     0.00042196    0.00006776    0.00057723
     atom   41 type  2   force =     0.00031097   -0.00025876   -0.00007031
     atom   42 type  2   force =    -0.00052779   -0.00041164   -0.00037641
     atom   43 type  1   force =    -0.00077688   -0.00020342    0.00040697
     atom   44 type  1   force =    -0.00032550   -0.00059861    0.00050735
     atom   45 type  2   force =     0.00004034   -0.00004987    0.10314898
     atom   46 type  2   force =    -0.07160071   -0.00007515   -0.02781848
     atom   47 type  2   force =     0.07151937    0.00034733   -0.02788905
     atom   48 type  3   force =    -0.00004640   -0.00041873   -0.00007738
     atom   49 type  4   force =    -0.00034462   -0.00036066    0.00060120
     atom   50 type  5   force =    -0.00348674   -0.00226227    0.00823947
     atom   51 type  3   force =    -0.00081179    0.00029807    0.00014270
     atom   52 type  3   force =     0.00437726    0.00134306   -0.00911568
     atom   53 type  3   force =     0.00008080   -0.00006731   -0.00024555

     Total force =     0.368678     Total SCF correction =     0.001082
  @ DRIVER MODE: Message from server: STATUS
  @ DRIVER MODE: Message from server: GETFORCE
  @ DRIVER MODE: Returning v,forces,stress,ensemble

     Writing output data file ./calc.save/
  @ DRIVER MODE: Message from server: EXIT
  @ DRIVE MODE: Exiting

     General routines

     Parallel routines

   This run was terminated on:  19:31:26   2Aug2021

   JOB DONE.