     Program PWSCF v.6.7GPU starts on  9Sep2021 at  2:58:14

     R & G space division:  proc/nbgrp/npool/nimage =      10
     Reading input from /storage/home/hcoda1/3/ntian30/research/carbon/CxH_vib/CH_calc/ads_slab/CHN2H_a/out_0015/pw.inp
Warning: card &CELL ignored
Warning: card   CELL_DYNAMICS='IPI', ignored
Warning: card / ignored

     Current dimensions of program PWSCF are:
     Max number of different atomic species (ntypx) = 10
     Max number of k-points (npk) =  40000
     Max angular momentum in pseudopotentials (lmaxx) =  3
     Presently no symmetry can be used with electric field

     Message from routine cell_base_init:
     DEPRECATED: use true lattice parameter, not A to a.u. conversion factor

     IMPORTANT: XC functional enforced from input :
     Exchange-correlation= BEEF-VDW
                           (   1   4  43  14   2   0   0)
     Any further DFT definition will be discarded
     Please, verify this is what you really want

  @ DRIVER MODE: Connecting to
 qe_1139763_2767376.sched-torque.pace.gatech.eduanc3y3cn_scratch
  using UNIX socket
  @ DRIVER MODE: Message from server: STATUS
  @ DRIVER MODE: Message from server: INIT
  @ DRIVER MODE: Receiving replica           0          -1
  @ DRIVER MODE: Receiving encoded integer          25
  @ DRIVER MODE:  SCF:  T  FORCE:  T  STRESS:  F  VC:  F  ENSEMBLE:  F
  @ DRIVER MODE:  SCF:  T  FORCE:  T  STRESS:  F  VC:  F  ENSEMBLE:  F

     Using Slab Decomposition

     bravais-lattice index     =            0
     lattice parameter (alat)  =       1.8897  a.u.
     unit-cell volume          =    6658.9804 (a.u.)^3
     number of atoms/cell      =           52
     number of atomic types    =            5
     number of electrons       =       394.00
     number of Kohn-Sham states=          207
     kinetic-energy cutoff     =      29.3995  Ry
     charge density cutoff     =     293.9946  Ry
     scf convergence threshold =      7.3E-08
     mixing beta               =       0.0500
     number of iterations used =            8  plain     mixing
     Exchange-correlation= BEEF-VDW
                           (   1   4  43  14   2   0   0)

     celldm(1)=   1.889726  celldm(2)=   0.000000  celldm(3)=   0.000000
     celldm(4)=   0.000000  celldm(5)=   0.000000  celldm(6)=   0.000000

     crystal axes: (cart. coord. in units of alat)
               a(1) = (   6.579727   0.000000   0.000000 )
               a(2) = (  -0.000775   5.961596   0.000000 )
               a(3) = (   0.000000   0.000000  25.155947 )

     reciprocal axes: (cart. coord. in units 2 pi/alat)
               b(1) = (  0.151982  0.000020  0.000000 )
               b(2) = (  0.000000  0.167740  0.000000 )
               b(3) = (  0.000000  0.000000  0.039752 )

     PseudoPot. # 1 for Ti read from file:
     /storage/coda1/p-amedford6/0/shared/rich_project_chbe-medford/medford-share/data/pseudos_module/espresso/nninc/pbe/van/Ti.UPF
     MD5 check sum: 8e4df49b7f0d34bbd5052bf3f5ea0213
     Pseudo is Ultrasoft, Zval = 12.0
     Generated by new atomic code, or converted to UPF format
     Using radial grid of  851 points,  6 beta functions with:
                l(1) =   0
                l(2) =   0
                l(3) =   1
                l(4) =   1
                l(5) =   2
                l(6) =   2
     Q(r) pseudized with  8 coefficients,  rinner =    1.000   1.000   1.000
                                                       1.000   1.000

     PseudoPot. # 2 for O  read from file:
     /storage/coda1/p-amedford6/0/shared/rich_project_chbe-medford/medford-share/data/pseudos_module/espresso/nninc/pbe/van/O.UPF
     MD5 check sum: 78c19812648e8988a0fe644b0f25305e
     Pseudo is Ultrasoft, Zval =  6.0
     Generated by new atomic code, or converted to UPF format
     Using radial grid of  737 points,  4 beta functions with:
                l(1) =   0
                l(2) =   0
                l(3) =   1
                l(4) =   1
     Q(r) pseudized with  8 coefficients,  rinner =    0.800   0.800   0.800

     PseudoPot. # 3 for N  read from file:
     /storage/coda1/p-amedford6/0/shared/rich_project_chbe-medford/medford-share/data/pseudos_module/espresso/nninc/pbe/van/N.UPF
     MD5 check sum: 90d10febe142ad51ac9d5be1deb811c4
     Pseudo is Ultrasoft, Zval =  5.0
     Generated by new atomic code, or converted to UPF format
     Using radial grid of  729 points,  4 beta functions with:
                l(1) =   0
                l(2) =   0
                l(3) =   1
                l(4) =   1
     Q(r) pseudized with  8 coefficients,  rinner =    0.800   0.800   0.800

     PseudoPot. # 4 for C  read from file:
     /storage/coda1/p-amedford6/0/shared/rich_project_chbe-medford/medford-share/data/pseudos_module/espresso/nninc/pbe/van/C.UPF
     MD5 check sum: 1a69bf6b8db32088f5b2163dbdb77a27
     Pseudo is Ultrasoft, Zval =  4.0
     Generated by new atomic code, or converted to UPF format
     Using radial grid of  721 points,  4 beta functions with:
                l(1) =   0
                l(2) =   0
                l(3) =   1
                l(4) =   1
     Q(r) pseudized with  8 coefficients,  rinner =    0.800   0.800   0.800

     PseudoPot. # 5 for H  read from file:
     /storage/coda1/p-amedford6/0/shared/rich_project_chbe-medford/medford-share/data/pseudos_module/espresso/nninc/pbe/van/H.UPF
     MD5 check sum: b5ee9d7bfd3a09ee7748110bda690ff7
     Pseudo is Ultrasoft, Zval =  1.0
     Generated by new atomic code, or converted to UPF format
     Using radial grid of  615 points,  1 beta functions with:
                l(1) =   0
     Q(r) pseudized with  8 coefficients,  rinner =    0.800

     atomic species   valence    mass     pseudopotential
        Ti1           12.00    47.86700     Ti( 1.00)
        O1             6.00    15.99900     O ( 1.00)
        N1             5.00    14.00700     N ( 1.00)
        C1             4.00    12.01100     C ( 1.00)
        H1             1.00     1.00800     H ( 1.00)

     No symmetry found

   Cartesian axes

     site n.     atom                  positions (alat units)
         1           Ti1 tau(   1) = (   0.0004258   2.9801865   6.0000000  )
         2           Ti1 tau(   2) = (   3.2906075   1.4906267   6.0002472  )
         3           O1  tau(   3) = (   0.0006271   0.0005054   7.9858123  )
         4           O1  tau(   4) = (   3.2906025   0.0005020   7.3038282  )
         5           O1  tau(   5) = (   4.5942328   1.4918067   9.2879030  )
         6           O1  tau(   6) = (   1.9868534   1.4903216   9.2879459  )
         7           Ti1 tau(   7) = (   3.2907910   2.8959150   9.1758416  )
         8           Ti1 tau(   8) = (   0.0015273   1.4827037   9.2680791  )
         9           O1  tau(   9) = (   3.3079035   5.9465650  11.3667630  )
        10           O1  tau(  10) = (   0.0116148   5.9584955  10.6183126  )
        11           O1  tau(  11) = (   1.3159687   1.4802111  12.6598234  )
        12           O1  tau(  12) = (   5.3141237   1.4785834  12.6569702  )
        13           Ti1 tau(  13) = (   0.0356438   2.9569522  12.5500042  )
        14           Ti1 tau(  14) = (   3.3321116   1.4682926  12.5176941  )
        15           O1  tau(  15) = (   0.0287262   5.9365737  14.6848071  )
        16           O1  tau(  16) = (   3.3260766   5.9477468  13.9918032  )
        17           O1  tau(  17) = (   4.5788076   1.5006004  16.1778977  )
        18           O1  tau(  18) = (   2.0653823   1.4932191  16.1519216  )
        19           Ti1 tau(  19) = (   3.3252840   2.9629899  15.7366588  )
        20           Ti1 tau(  20) = (   0.0567170   1.3280226  15.9864722  )
        21           O1  tau(  21) = (   3.2904802   0.0005063   4.7018136  )
        22           O1  tau(  22) = (   0.0395201   5.9563027  17.2132275  )
        23           O1  tau(  23) = (   1.3043587   1.4918075   6.0039043  )
        24           O1  tau(  24) = (   5.2767064   1.4903225   6.0039473  )
        25           Ti1 tau(  25) = (   0.0000382   5.9609847   6.0000000  )
        26           Ti1 tau(  26) = (   3.2902200   4.4714249   6.0002472  )
        27           O1  tau(  27) = (   0.0002396   2.9813036   7.9858123  )
        28           O1  tau(  28) = (   3.2902150   2.9813002   7.3038282  )
        29           O1  tau(  29) = (   4.5938453   4.4726049   9.2879030  )
        30           O1  tau(  30) = (   1.9864658   4.4711199   9.2879459  )
        31           Ti1 tau(  31) = (   3.2891106   5.8743827   9.1763621  )
        32           Ti1 tau(  32) = (   0.0006254   4.4649316   9.2693709  )
        33           O1  tau(  33) = (   3.3109971   2.9638951  11.3609806  )
        34           O1  tau(  34) = (   0.0092240   2.9805883  10.6323155  )
        35           O1  tau(  35) = (   1.3172493   4.4579999  12.6547637  )
        36           O1  tau(  36) = (   5.3123203   4.4599931  12.6537913  )
        37           Ti1 tau(  37) = (   0.0349292   5.9384232  12.5038109  )
        38           Ti1 tau(  38) = (   3.3308216   4.4462378  12.5132791  )
        39           O1  tau(  39) = (   0.0262156   2.9786664  14.8481040  )
        40           O1  tau(  40) = (   3.3240488   2.9673873  13.9486158  )
        41           O1  tau(  41) = (   4.5778164   4.4375445  16.1741249  )
        42           O1  tau(  42) = (   2.0647505   4.4412733  16.1578575  )
        43           Ti1 tau(  43) = (   3.3314326   5.9455663  15.7867969  )
        44           Ti1 tau(  44) = (   0.0345939   4.5236910  15.9072353  )
        45           O1  tau(  45) = (   3.2900926   2.9813045   4.7018136  )
        46           O1  tau(  46) = (   1.3039711   4.4726057   6.0039043  )
        47           O1  tau(  47) = (   5.2763189   4.4711207   6.0039473  )
        48           N1  tau(  48) = (   0.8843530   3.1395628  18.6524426  )
        49           C1  tau(  49) = (   1.8908588   3.1194352  19.2834450  )
        50           H1  tau(  50) = (   2.4245030   3.8871110  19.8100181  )
        51           N1  tau(  51) = (   6.5588057   2.9807634  17.7841789  )
        52           H1  tau(  52) = (   5.6432114   2.8891999  18.2270943  )

     number of k points=    10  Fermi-Dirac smearing, width (Ry)=  0.0073
                       cart. coord. in units 2pi/alat
        k(    1) = (   0.0000000   0.0000000   0.0000000), wk =   0.1250000
        k(    2) = (   0.0000000   0.0419351   0.0000000), wk =   0.2500000
        k(    3) = (   0.0000000  -0.0838702   0.0000000), wk =   0.1250000
        k(    4) = (   0.0379955   0.0000049   0.0000000), wk =   0.2500000
        k(    5) = (   0.0379955   0.0419400   0.0000000), wk =   0.2500000
        k(    6) = (   0.0379955  -0.0838652   0.0000000), wk =   0.2500000
        k(    7) = (   0.0379955  -0.0419301   0.0000000), wk =   0.2500000
        k(    8) = (  -0.0759910  -0.0000099   0.0000000), wk =   0.1250000
        k(    9) = (  -0.0759910   0.0419252   0.0000000), wk =   0.2500000
        k(   10) = (  -0.0759910  -0.0838800   0.0000000), wk =   0.1250000

     Initial potential from superposition of free atoms

     starting charge  377.99917, renormalised to  394.00000

     negative rho (up, down):  1.653E-02 0.000E+00

     %%%%%%%%%%%%%%%%%%%%%%%%%%%%%%%%%%%%%%%%%%%%%%%%%%%%%%%%%%%%%%%%%%%%%%%%
     %                                                                      %
     % You are using vdW-DF, which was implemented by the Thonhauser group. %
     % Please cite the following two papers that made this development      %
     % possible and the two reviews that describe the various versions:     %
     %                                                                      %
     %   T. Thonhauser et al., PRL 115, 136402 (2015).                      %
     %   T. Thonhauser et al., PRB 76, 125112 (2007).                       %
     %   K. Berland et al., Rep. Prog. Phys. 78, 066501 (2015).             %
     %   D.C. Langreth et al., J. Phys.: Condens. Matter 21, 084203 (2009). %
     %                                                                      %
     %                                                                      %
     % If you are calculating the stress with vdW-DF, please also cite:     %
     %                                                                      %
     %   R. Sabatini et al., J. Phys.: Condens. Matter 24, 424209 (2012).   %
     %                                                                      %
     %%%%%%%%%%%%%%%%%%%%%%%%%%%%%%%%%%%%%%%%%%%%%%%%%%%%%%%%%%%%%%%%%%%%%%%%

     Adding external electric field

     Computed dipole along edir(3) :
        Dipole               -8.4995 Ry au,        -21.6035 Debye
        Dipole field         -0.0160 Ry au,

        Potential amp.        1.4869 Ry
        Total length         46.3494 bohr

     Starting wfcs are  298 atomic wfcs
  @ DRIVER MODE: Message from server: STATUS
  @ DRIVER MODE: Message from server: POSDATA
  @ DRIVER MODE: Reading and sharing cell
  @ DRIVER MODE: Reading and sharing positions
  @ DRIVER MODE: Received positions

     Self-consistent Calculation

     iteration #  1     ecut=    29.40 Ry     beta= 0.05
     Davidson diagonalization with overlap
     c_bands:  1 eigenvalues not converged
     c_bands:  1 eigenvalues not converged
     c_bands:  2 eigenvalues not converged
     c_bands:  2 eigenvalues not converged
     c_bands:  2 eigenvalues not converged
     c_bands:  1 eigenvalues not converged
     ethr =  1.00E-05,  avg # of iterations = 19.0

[...]

     total energy              =   -2624.25399128 Ry
     estimated scf accuracy    <    3488.44099870 Ry

[...]

     iteration #  3     ecut=    29.40 Ry     beta= 0.05
     Davidson diagonalization with overlap
     ethr =  1.00E-02,  avg # of iterations = 15.6

[...]

     iteration # 62     ecut=    29.40 Ry     beta= 0.05
     Davidson diagonalization with overlap
     c_bands:  1 eigenvalues not converged
     c_bands:  2 eigenvalues not converged
     c_bands:  2 eigenvalues not converged
     c_bands:  1 eigenvalues not converged
     c_bands:  1 eigenvalues not converged
     ethr =  4.30E-11,  avg # of iterations = 18.8

[...]

     total energy              =   -2937.80850725 Ry
     estimated scf accuracy    <       0.00000009 Ry

     iteration # 64     ecut=    29.40 Ry     beta= 0.05
     Davidson diagonalization with overlap
     ethr =  2.29E-11,  avg # of iterations =  8.3

     negative rho (up, down):  1.630E-02 0.000E+00

     Adding external electric field

     Computed dipole along edir(3) :
        Dipole                1.2989 Ry au,          3.3015 Debye
        Dipole field          0.0025 Ry au,

        Potential amp.       -0.2272 Ry
        Total length         46.3494 bohr

     End of self-consistent calculation

          k = 0.0000 0.0000 0.0000 ( 18029 PWs)   bands (ev):

   -55.4305 -55.3945 -55.3943 -55.3602 -55.3240 -55.3081 -55.2651 -55.2435
   -55.2403 -55.2284 -55.2209 -55.2090 -55.1875 -55.1621 -54.4126 -54.3786
   -31.9995 -31.8848 -31.8256 -31.7939 -31.7500 -31.7422 -31.7327 -31.7237
   -31.6839 -31.6773 -31.6397 -31.6388 -31.6316 -31.6042 -31.5849 -31.5667
   -31.5626 -31.5564 -31.5477 -31.5421 -31.5086 -31.5063 -31.4969 -31.4883
   -31.4738 -31.4514 -31.4458 -31.4453 -31.4396 -31.4349 -31.4319 -31.4175
   -31.4096 -31.4035 -31.3977 -31.3927 -31.3720 -31.3580 -31.3561 -31.3501
   -31.3295 -31.2694 -30.8215 -30.7286 -30.7065 -30.6380 -30.5512 -30.4403
   -20.2395 -16.2455 -15.9732 -15.8300 -15.7061 -15.6210 -15.4944 -15.4570
   -15.3506 -15.3363 -15.2228 -15.1474 -15.0807 -15.0787 -15.0618 -15.0335
   -14.9839 -14.9658 -14.9633 -14.9210 -14.9189 -14.8769 -14.8573 -14.8233
   -14.8055 -14.7865 -14.7705 -14.6468 -14.5772 -14.5184 -14.1595 -12.9151
   -12.7979  -8.8317  -7.2071  -5.4376  -4.7340  -3.5904  -3.4305  -3.3438
    -3.3270  -3.3260  -3.1586  -3.0310  -2.8034  -2.7678  -2.6919  -2.6375
    -2.6196  -2.5979  -2.4203  -2.3958  -2.3363  -2.3095  -2.2714  -2.2409
    -2.2160  -2.1984  -2.1888  -2.1701  -2.1571  -1.9956  -1.8970  -1.8673
    -1.8310  -1.8164  -1.7569  -1.7239  -1.7181  -1.7159  -1.7069  -1.6638
    -1.6453  -1.5964  -1.4955  -1.4693  -1.4438  -1.3156  -1.2966  -1.1497
    -1.0632  -0.9787  -0.9713  -0.9046  -0.9005  -0.8663  -0.8144  -0.7910
    -0.7660  -0.6327  -0.5632  -0.5080  -0.4906  -0.4455  -0.3999  -0.3643
    -0.2718  -0.2063  -0.1986  -0.1867  -0.0222  -0.0085   0.0391   0.0886
     0.1122   0.1622   0.1860   0.2565   0.2899   0.3360   0.3661   0.4631
     0.5021   0.5231   0.5367   0.5563   0.5688   0.6282   0.6960   0.7146
     0.7627   0.8176   0.9306   1.1268   1.1905   1.2028   1.5198   1.5537
     1.6101   1.7953   2.1851   2.2328   3.6694   3.7409   3.8049   3.8197
     3.8282   3.9050   4.0825   4.1527   4.1683   4.1749   4.1862

[...]

          k = 0.0380-0.0419 0.0000 ( 17876 PWs)   bands (ev):

[...]

          k =-0.0760-0.0000 0.0000 ( 17886 PWs)   bands (ev):

[...]

          k =-0.0760-0.0839 0.0000 ( 17948 PWs)   bands (ev):

   -55.4136 -55.4112 -55.3772 -55.3772 -55.3207 -55.2996 -55.2735 -55.2360
   -55.2316 -55.2270 -55.2248 -55.2046 -55.2041 -55.1663 -54.3956 -54.3954
   -31.8045 -31.8016 -31.7441 -31.7232 -31.7000 -31.6999 -31.6882 -31.6693
   -31.6693 -31.6411 -31.6317 -31.6263 -31.6232 -31.5828 -31.5610 -31.5578
   -31.5577 -31.5498 -31.5492 -31.5387 -31.5260 -31.5166 -31.5065 -31.5024
   -31.4982 -31.4969 -31.4967 -31.4927 -31.4679 -31.4609 -31.4601 -31.4576
   -31.4407 -31.4389 -31.4380 -31.4288 -31.4276 -31.4225 -31.3847 -31.3841
   -31.3799 -31.3608 -30.7192 -30.7190 -30.6341 -30.6339 -30.5946 -30.5946
   -20.2382 -15.7015 -15.6807 -15.6218 -15.4165 -15.4145 -15.4012 -15.3873
   -15.3771 -15.2289 -15.2106 -15.1937 -15.1755 -15.1330 -15.1298 -15.1153
   -15.1053 -15.0042 -15.0020 -14.9999 -14.9985 -14.9360 -14.9281 -14.9143
   -14.8797 -14.8765 -14.8476 -14.7776 -14.7747 -14.6434 -14.4806 -12.8995
   -12.8993  -8.8166  -7.2270  -5.4363  -4.7176  -2.9560  -2.8857  -2.8428
    -2.6329  -2.6101  -2.5955  -2.5129  -2.4636  -2.4013  -2.3939  -2.3882
    -2.3282  -2.2934  -2.2797  -2.2613  -2.2531  -2.2364  -2.2142  -2.2038
    -2.1580  -2.1458  -2.1362  -2.1023  -2.0882  -2.0696  -2.0472  -2.0306
    -2.0114  -2.0057  -1.9865  -1.8259  -1.7748  -1.7286  -1.6799  -1.6686
    -1.6225  -1.6150  -1.5210  -1.4863  -1.4576  -1.4308  -1.4219  -1.2315
    -1.2156  -1.1621  -1.1577  -1.1345  -0.9793  -0.9584  -0.9439  -0.9253
    -0.8797  -0.7983  -0.7915  -0.7533  -0.6471  -0.6161  -0.6106  -0.5594
    -0.4392  -0.4162  -0.3936  -0.3876  -0.3818  -0.2896  -0.2720  -0.2652
    -0.2309  -0.1968  -0.1464  -0.1397  -0.0873   0.0953   0.1390   0.2051
     0.2845   0.4519   0.4915   0.5189   0.5607   0.6218   0.6951   0.7104
     0.7758   0.8699   0.8848   0.9129   0.9868   1.0399   1.0478   1.0720
     1.9681   1.9689   2.0527   2.0528   3.8388   3.8519   3.9132   3.9501
     3.9994   4.0895   4.1885   4.2043   4.2481   4.2491   4.3316

     the Fermi energy is     3.7234 ev

!    total energy              =   -2937.80853907 Ry
     estimated scf accuracy    <       0.00000005 Ry
     smearing contrib. (-TS)   =      -0.03814105 Ry
     internal energy E=F+TS    =   -2937.77039802 Ry

     The total energy is F=E-TS. E is the sum of the following terms:
     one-electron contribution =  -24092.42702356 Ry
     hartree contribution      =   12136.32397766 Ry
     xc contribution           =    -484.39047106 Ry
     ewald contribution        =    9502.71993508 Ry
     electric field correction =       0.00318385 Ry

     convergence has been achieved in  64 iterations

     Forces acting on atoms (cartesian axes, Ry/au):

     atom    1 type  1   force =     0.00006630   -0.00011759    0.09406573
     atom    2 type  1   force =    -0.00016223   -0.00022558   -0.17764690
     atom    3 type  2   force =     0.00011268   -0.00020350   -0.02137521
     atom    4 type  2   force =     0.00002540   -0.00184008    0.05753847
     atom    5 type  2   force =    -0.01067878   -0.00139379    0.00633111
     atom    6 type  2   force =     0.01274573   -0.00074605    0.00661330
     atom    7 type  1   force =     0.00011972    0.00197714   -0.01405557
     atom    8 type  1   force =    -0.00046992    0.00582019    0.00395343
     atom    9 type  2   force =     0.00036290    0.00023014   -0.00007610
     atom   10 type  2   force =    -0.00024054    0.00022195   -0.00511244
     atom   11 type  2   force =     0.00005093   -0.00014913   -0.00043463
     atom   12 type  2   force =    -0.00028985    0.00001054    0.00010165
     atom   13 type  1   force =    -0.00026558    0.00002117   -0.00033760
     atom   14 type  1   force =    -0.00008425    0.00015769   -0.00017361
     atom   15 type  2   force =    -0.00049543   -0.00042909   -0.00011940
     atom   16 type  2   force =    -0.00018595    0.00019176    0.00007337
     atom   17 type  2   force =     0.00006089   -0.00016198   -0.00006573
     atom   18 type  2   force =    -0.00049866   -0.00010501   -0.00040694
     atom   19 type  1   force =    -0.00019114    0.00012976   -0.00036640
     atom   20 type  1   force =    -0.00030852   -0.00011438    0.00044744
     atom   21 type  2   force =     0.00001897    0.00001944    0.10381950
     atom   22 type  2   force =     0.00003058    0.00009187    0.00002644
     atom   23 type  2   force =    -0.07064554   -0.00007692   -0.02705648
     atom   24 type  2   force =     0.07054021    0.00036518   -0.02710595
     atom   25 type  1   force =     0.00000980   -0.00008218    0.09369524
     atom   26 type  1   force =    -0.00013608   -0.00015947   -0.17769996
     atom   27 type  2   force =     0.00013730   -0.00024234   -0.02037315
     atom   28 type  2   force =     0.00006779   -0.00155219    0.05701386
     atom   29 type  2   force =    -0.01102525   -0.00053846    0.00635496
     atom   30 type  2   force =     0.01294644   -0.00027750    0.00664741
     atom   31 type  1   force =     0.00029723    0.00520795   -0.01482846
     atom   32 type  1   force =    -0.00040314   -0.00657432    0.00412734
     atom   33 type  2   force =     0.00015654    0.00008090   -0.00031273
     atom   34 type  2   force =     0.00036346   -0.00102853   -0.00202371
     atom   35 type  2   force =    -0.00031508    0.00015082   -0.00019842
     atom   36 type  2   force =    -0.00003644   -0.00000109    0.00013024
     atom   37 type  1   force =    -0.00008292    0.00024090   -0.00017830
     atom   38 type  1   force =     0.00006491    0.00024501    0.00020122
     atom   39 type  2   force =    -0.00005936    0.00019829    0.00016822
     atom   40 type  2   force =    -0.00030097    0.00009401   -0.00018844
     atom   41 type  2   force =    -0.00013381   -0.00008037    0.00015058
     atom   42 type  2   force =    -0.00031033    0.00012632   -0.00011295
     atom   43 type  1   force =    -0.00013692    0.00013350   -0.00023033
     atom   44 type  1   force =    -0.00007845   -0.00033107   -0.00024221
     atom   45 type  2   force =     0.00001190   -0.00000412    0.10383583
     atom   46 type  2   force =    -0.07066565   -0.00004274   -0.02707048
     atom   47 type  2   force =     0.07054197    0.00039772   -0.02710477
     atom   48 type  3   force =     0.00142903   -0.00020806    0.00127183
     atom   49 type  4   force =    -0.00669455   -0.00607040   -0.00553827
     atom   50 type  5   force =     0.00454688    0.00648526    0.00424839
     atom   51 type  3   force =     0.00043554   -0.00024156   -0.00050592
     atom   52 type  5   force =    -0.00024777    0.00040002    0.00012545

     Total force =     0.366281     Total SCF correction =     0.000704
  @ DRIVER MODE: Message from server: STATUS
  @ DRIVER MODE: Message from server: GETFORCE
  @ DRIVER MODE: Returning v,forces,stress,ensemble

     Writing output data file ./calc.save/
  @ DRIVER MODE: Message from server: EXIT
  @ DRIVE MODE: Exiting

     General routines

     Parallel routines

   This run was terminated on:   3:16:41   9Sep2021

   JOB DONE.