     Program PWSCF v.6.7GPU starts on 23Aug2021 at 14:53:19

     R & G space division:  proc/nbgrp/npool/nimage =       6
     Reading input from /storage/home/hcoda1/3/ntian30/research/carbon/CH_vib/ads_slab/CH_a/out_0005/pw.inp
Warning: card &CELL ignored
Warning: card   CELL_DYNAMICS='IPI', ignored
Warning: card / ignored

     Current dimensions of program PWSCF are:
     Max number of different atomic species (ntypx) = 10
     Max number of k-points (npk) =  40000
     Max angular momentum in pseudopotentials (lmaxx) =  3
     Presently no symmetry can be used with electric field

     Message from routine cell_base_init:
     DEPRECATED: use true lattice parameter, not A to a.u. conversion factor

     IMPORTANT: XC functional enforced from input :
     Exchange-correlation= BEEF-VDW
                           (   1   4  43  14   2   0   0)
     Any further DFT definition will be discarded
     Please, verify this is what you really want

  @ DRIVER MODE: Connecting to
 qe_1139763_2632798.sched-torque.pace.gatech.edusl8iif_f_scratch
  using UNIX socket
  @ DRIVER MODE: Message from server: STATUS
  @ DRIVER MODE: Message from server: INIT
  @ DRIVER MODE: Receiving replica           0          -1
  @ DRIVER MODE: Receiving encoded integer          25
  @ DRIVER MODE:  SCF:  T  FORCE:  T  STRESS:  F  VC:  F  ENSEMBLE:  F
  @ DRIVER MODE:  SCF:  T  FORCE:  T  STRESS:  F  VC:  F  ENSEMBLE:  F

     Using Slab Decomposition

     bravais-lattice index     =            0
     lattice parameter (alat)  =       1.8897  a.u.
     unit-cell volume          =    6658.9804 (a.u.)^3
     number of atoms/cell      =           49
     number of atomic types    =            4
     number of electrons       =       383.00
     number of Kohn-Sham states=          201
     kinetic-energy cutoff     =      29.3995  Ry
     charge density cutoff     =     293.9946  Ry
     scf convergence threshold =      7.3E-08
     mixing beta               =       0.0500
     number of iterations used =            8  plain     mixing
     Exchange-correlation= BEEF-VDW
                           (   1   4  43  14   2   0   0)

     celldm(1)=   1.889726  celldm(2)=   0.000000  celldm(3)=   0.000000
     celldm(4)=   0.000000  celldm(5)=   0.000000  celldm(6)=   0.000000

     crystal axes: (cart. coord. in units of alat)
               a(1) = (   6.579727   0.000000   0.000000 )
               a(2) = (  -0.000775   5.961596   0.000000 )
               a(3) = (   0.000000   0.000000  25.155947 )

     reciprocal axes: (cart. coord. in units 2 pi/alat)
               b(1) = (  0.151982  0.000020  0.000000 )
               b(2) = (  0.000000  0.167740  0.000000 )
               b(3) = (  0.000000  0.000000  0.039752 )

     PseudoPot. # 1 for Ti read from file:
     /storage/coda1/p-amedford6/0/shared/rich_project_chbe-medford/medford-share/data/pseudos_module/espresso/nninc/pbe/van/Ti.UPF
     MD5 check sum: 8e4df49b7f0d34bbd5052bf3f5ea0213
     Pseudo is Ultrasoft, Zval = 12.0
     Generated by new atomic code, or converted to UPF format
     Using radial grid of  851 points,  6 beta functions with:
                l(1) =   0
                l(2) =   0
                l(3) =   1
                l(4) =   1
                l(5) =   2
                l(6) =   2
     Q(r) pseudized with  8 coefficients,  rinner =    1.000   1.000   1.000
                                                       1.000   1.000

     PseudoPot. # 2 for O  read from file:
     /storage/coda1/p-amedford6/0/shared/rich_project_chbe-medford/medford-share/data/pseudos_module/espresso/nninc/pbe/van/O.UPF
     MD5 check sum: 78c19812648e8988a0fe644b0f25305e
     Pseudo is Ultrasoft, Zval =  6.0
     Generated by new atomic code, or converted to UPF format
     Using radial grid of  737 points,  4 beta functions with:
                l(1) =   0
                l(2) =   0
                l(3) =   1
                l(4) =   1
     Q(r) pseudized with  8 coefficients,  rinner =    0.800   0.800   0.800

     PseudoPot. # 3 for C  read from file:
     /storage/coda1/p-amedford6/0/shared/rich_project_chbe-medford/medford-share/data/pseudos_module/espresso/nninc/pbe/van/C.UPF
     MD5 check sum: 1a69bf6b8db32088f5b2163dbdb77a27
     Pseudo is Ultrasoft, Zval =  4.0
     Generated by new atomic code, or converted to UPF format
     Using radial grid of  721 points,  4 beta functions with:
                l(1) =   0
                l(2) =   0
                l(3) =   1
                l(4) =   1
     Q(r) pseudized with  8 coefficients,  rinner =    0.800   0.800   0.800

     PseudoPot. # 4 for H  read from file:
     /storage/coda1/p-amedford6/0/shared/rich_project_chbe-medford/medford-share/data/pseudos_module/espresso/nninc/pbe/van/H.UPF
     MD5 check sum: b5ee9d7bfd3a09ee7748110bda690ff7
     Pseudo is Ultrasoft, Zval =  1.0
     Generated by new atomic code, or converted to UPF format
     Using radial grid of  615 points,  1 beta functions with:
                l(1) =   0
     Q(r) pseudized with  8 coefficients,  rinner =    0.800

     atomic species   valence    mass     pseudopotential
        Ti1           12.00    47.86700     Ti( 1.00)
        O1             6.00    15.99900     O ( 1.00)
        C1             4.00    12.01100     C ( 1.00)
        H1             1.00     1.00800     H ( 1.00)

     No symmetry found

   Cartesian axes

     site n.     atom                  positions (alat units)
         1           Ti1 tau(   1) = (   0.0004258   2.9801865   6.0000000  )
         2           Ti1 tau(   2) = (   3.2906075   1.4906267   6.0002472  )
         3           O1  tau(   3) = (   0.0006271   0.0005054   7.9858123  )
         4           O1  tau(   4) = (   3.2906025   0.0005020   7.3038282  )
         5           O1  tau(   5) = (   4.5942328   1.4918067   9.2879030  )
         6           O1  tau(   6) = (   1.9868534   1.4903216   9.2879459  )
         7           Ti1 tau(   7) = (   3.2921849   2.8658251   9.1648892  )
         8           Ti1 tau(   8) = (   0.0073351   1.4983988   9.3831490  )
         9           O1  tau(   9) = (   3.2842540   0.0070318  11.3521760  )
        10           O1  tau(  10) = (   0.0010487   0.0043113  10.5580200  )
        11           O1  tau(  11) = (   1.2736759   1.5124129  12.6486185  )
        12           O1  tau(  12) = (   5.2630300   1.5084811  12.6300625  )
        13           Ti1 tau(  13) = (   0.0799159   2.9885021  12.8537609  )
        14           Ti1 tau(  14) = (   3.3962166   1.4899997  12.4930974  )
        15           O1  tau(  15) = (   6.5670857   5.9608082  14.6055349  )
        16           O1  tau(  16) = (   3.2779887   0.0262294  13.9455360  )
        17           O1  tau(  17) = (   4.5047259   1.5524619  16.1062024  )
        18           O1  tau(  18) = (   2.0328015   1.5482461  16.0993997  )
        19           Ti1 tau(  19) = (   3.2588990   3.0258902  15.7259251  )
        20           Ti1 tau(  20) = (   6.5443225   1.5921241  16.1654916  )
        21           O1  tau(  21) = (   3.2904802   0.0005063   4.7018136  )
        22           O1  tau(  22) = (   6.5577444   0.0567680  17.2452940  )
        23           O1  tau(  23) = (   1.3043587   1.4918075   6.0039043  )
        24           O1  tau(  24) = (   5.2767064   1.4903225   6.0039473  )
        25           Ti1 tau(  25) = (   0.0000382   5.9609847   6.0000000  )
        26           Ti1 tau(  26) = (   3.2902200   4.4714249   6.0002472  )
        27           O1  tau(  27) = (   0.0002396   2.9813036   7.9858123  )
        28           O1  tau(  28) = (   3.2902150   2.9813002   7.3038282  )
        29           O1  tau(  29) = (   4.5938453   4.4726049   9.2879030  )
        30           O1  tau(  30) = (   1.9864658   4.4711199   9.2879459  )
        31           Ti1 tau(  31) = (   3.2960881   5.8478476   9.1648656  )
        32           Ti1 tau(  32) = (   0.0086818   4.4758218   9.3788328  )
        33           O1  tau(  33) = (   3.2854246   2.9850844  11.3450670  )
        34           O1  tau(  34) = (   0.0004502   2.9836692  10.5560002  )
        35           O1  tau(  35) = (   1.2751814   4.4662498  12.6462591  )
        36           O1  tau(  36) = (   5.2612828   4.4711168  12.6263095  )
        37           Ti1 tau(  37) = (   0.0650160   0.0072273  12.8037121  )
        38           Ti1 tau(  38) = (   3.3952379   4.4681493  12.4860303  )
        39           O1  tau(  39) = (   6.5700874   2.9943110  14.6990684  )
        40           O1  tau(  40) = (   3.2774739   3.0059374  13.9302241  )
        41           O1  tau(  41) = (   4.5038310   4.5165569  16.1051355  )
        42           O1  tau(  42) = (   2.0336826   4.5180826  16.0999700  )
        43           Ti1 tau(  43) = (   3.2582433   0.0441072  15.7465997  )
        44           Ti1 tau(  44) = (   6.5393581   4.6163053  16.1595090  )
        45           O1  tau(  45) = (   3.2900926   2.9813045   4.7018136  )
        46           O1  tau(  46) = (   1.3039711   4.4726057   6.0039043  )
        47           O1  tau(  47) = (   5.2763189   4.4711207   6.0039473  )
        48           C1  tau(  48) = (   6.5669965   3.0274956  17.5043990  )
        49           H1  tau(  49) = (   0.0036594   3.1884539  18.5931066  )

     number of k points=    10  Fermi-Dirac smearing, width (Ry)=  0.0073
                       cart. coord. in units 2pi/alat
        k(    1) = (   0.0000000   0.0000000   0.0000000), wk =   0.1250000
        k(    2) = (   0.0000000   0.0419351   0.0000000), wk =   0.2500000
        k(    3) = (   0.0000000  -0.0838702   0.0000000), wk =   0.1250000
        k(    4) = (   0.0379955   0.0000049   0.0000000), wk =   0.2500000
        k(    5) = (   0.0379955   0.0419400   0.0000000), wk =   0.2500000
        k(    6) = (   0.0379955  -0.0838652   0.0000000), wk =   0.2500000
        k(    7) = (   0.0379955  -0.0419301   0.0000000), wk =   0.2500000
        k(    8) = (  -0.0759910  -0.0000099   0.0000000), wk =   0.1250000
        k(    9) = (  -0.0759910   0.0419252   0.0000000), wk =   0.2500000
        k(   10) = (  -0.0759910  -0.0838800   0.0000000), wk =   0.1250000

     Initial potential from superposition of free atoms

     starting charge  366.99920, renormalised to  383.00000

     negative rho (up, down):  2.157E-02 0.000E+00

     %%%%%%%%%%%%%%%%%%%%%%%%%%%%%%%%%%%%%%%%%%%%%%%%%%%%%%%%%%%%%%%%%%%%%%%%
     %                                                                      %
     % You are using vdW-DF, which was implemented by the Thonhauser group. %
     % Please cite the following two papers that made this development      %
     % possible and the two reviews that describe the various versions:     %
     %                                                                      %
     %   T. Thonhauser et al., PRL 115, 136402 (2015).                      %
     %   T. Thonhauser et al., PRB 76, 125112 (2007).                       %
     %   K. Berland et al., Rep. Prog. Phys. 78, 066501 (2015).             %
     %   D.C. Langreth et al., J. Phys.: Condens. Matter 21, 084203 (2009). %
     %                                                                      %
     %                                                                      %
     % If you are calculating the stress with vdW-DF, please also cite:     %
     %                                                                      %
     %   R. Sabatini et al., J. Phys.: Condens. Matter 24, 424209 (2012).   %
     %                                                                      %
     %%%%%%%%%%%%%%%%%%%%%%%%%%%%%%%%%%%%%%%%%%%%%%%%%%%%%%%%%%%%%%%%%%%%%%%%

     Adding external electric field

     Computed dipole along edir(3) :
        Dipole                0.0534 Ry au,          0.1357 Debye
        Dipole field          0.0001 Ry au,

        Potential amp.       -0.0093 Ry
        Total length         46.3494 bohr

     Starting wfcs are  289 atomic wfcs
  @ DRIVER MODE: Message from server: STATUS
  @ DRIVER MODE: Message from server: POSDATA
  @ DRIVER MODE: Reading and sharing cell
  @ DRIVER MODE: Reading and sharing positions
  @ DRIVER MODE: Received positions

     Self-consistent Calculation

     iteration #  1     ecut=    29.40 Ry     beta= 0.05
     Davidson diagonalization with overlap
     c_bands:  1 eigenvalues not converged
     c_bands:  1 eigenvalues not converged
     c_bands:  1 eigenvalues not converged
     c_bands:  1 eigenvalues not converged
     c_bands:  1 eigenvalues not converged
     c_bands:  1 eigenvalues not converged
     c_bands:  1 eigenvalues not converged
     ethr =  1.00E-05,  avg # of iterations = 19.4

[...]

     total energy              =   -2897.80900086 Ry
     estimated scf accuracy    <      11.74595339 Ry

     iteration #  2     ecut=    29.40 Ry     beta= 0.05
     Davidson diagonalization with overlap
     ethr =  3.07E-03,  avg # of iterations =  1.0

[...]

     iteration # 35     ecut=    29.40 Ry     beta= 0.05
     Davidson diagonalization with overlap
     c_bands:  2 eigenvalues not converged
     c_bands:  1 eigenvalues not converged
     c_bands:  1 eigenvalues not converged
     ethr =  2.33E-07,  avg # of iterations = 11.8

[...]

     total energy              =   -2896.37491870 Ry
     estimated scf accuracy    <       0.00000041 Ry

     iteration # 57     ecut=    29.40 Ry     beta= 0.05
     Davidson diagonalization with overlap
     ethr =  3.05E-11,  avg # of iterations =  5.3

     negative rho (up, down):  2.069E-02 0.000E+00

     Adding external electric field

     Computed dipole along edir(3) :
        Dipole                0.3703 Ry au,          0.9412 Debye
        Dipole field          0.0007 Ry au,

        Potential amp.       -0.0648 Ry
        Total length         46.3494 bohr

     End of self-consistent calculation

          k = 0.0000 0.0000 0.0000 ( 18029 PWs)   bands (ev):

   -56.6401 -56.6063 -56.3410 -56.3042 -56.2263 -56.1656 -56.0394 -56.0388
   -56.0045 -55.9439 -55.9326 -55.9076 -55.4371 -55.4032 -55.3459 -55.2579
   -33.0684 -32.8864 -32.8843 -32.8580 -32.8322 -32.7409 -32.6952 -32.6793
   -32.6481 -32.5562 -32.5429 -32.5361 -32.5221 -32.5186 -32.5100 -32.4937
   -32.4711 -32.4542 -32.4434 -32.3487 -32.3106 -32.2875 -32.2858 -32.2730
   -32.2590 -32.2580 -32.1960 -32.1919 -32.1649 -32.1587 -32.1532 -32.1290
   -32.1210 -32.1094 -32.0977 -32.0400 -31.8878 -31.8375 -31.7624 -31.7386
   -31.6560 -31.6187 -31.5798 -31.5710 -31.5506 -31.4776 -31.4589 -31.3344
   -16.9957 -16.8085 -16.5758 -16.4406 -16.3497 -16.2774 -16.0116 -16.0088
   -15.9624 -15.8910 -15.8623 -15.7993 -15.7964 -15.7695 -15.7593 -15.7497
   -15.7284 -15.6819 -15.6667 -15.6386 -15.6065 -15.5646 -15.4418 -15.4198
   -15.4064 -15.2926 -15.2424 -15.2047 -15.0176 -13.9300 -13.8160  -7.7442
    -4.3991  -4.3398  -4.1848  -4.1596  -4.0694  -3.8251  -3.6978  -3.4753
    -3.4339  -3.4033  -3.3884  -3.3227  -3.2641  -3.1560  -3.1403  -3.1184
    -3.0774  -3.0695  -3.0482  -3.0338  -3.0089  -2.9686  -2.8857  -2.8466
    -2.8287  -2.7489  -2.7213  -2.6434  -2.6178  -2.5731  -2.5472  -2.4882
    -2.4822  -2.4184  -2.3442  -2.2896  -2.1375  -2.0972  -2.0893  -2.0812
    -2.0120  -1.9033  -1.7603  -1.7261  -1.6605  -1.6587  -1.6409  -1.6031
    -1.5116  -1.4920  -1.4093  -1.3026  -1.2926  -1.2399  -1.1895  -1.1492
    -1.1320  -1.1313  -1.0743  -1.0416  -1.0056  -0.8724  -0.8489  -0.7321
    -0.7147  -0.6796  -0.6427  -0.6379  -0.5876  -0.5290  -0.4754  -0.4453
    -0.4240  -0.3770  -0.3666  -0.3310  -0.3083  -0.2523  -0.1382  -0.1147
    -0.1050  -0.0384   0.1451   0.1707   0.2141   0.3023   0.3513   0.5134
     0.5330   0.5915   0.7997   0.8375   1.1820   1.2621   1.5248   2.2685
     2.6277   2.8227   3.0848   3.1206   3.1376   3.1687   3.3447   3.3792
     3.3975

[...]

          k = 0.0380-0.0419 0.0000 ( 17876 PWs)   bands (ev):

[...]

          k =-0.0760-0.0000 0.0000 ( 17886 PWs)   bands (ev):

[...]

          k =-0.0760-0.0839 0.0000 ( 17948 PWs)   bands (ev):

   -56.6253 -56.6209 -56.3270 -56.3181 -56.2209 -56.1709 -56.0365 -56.0241
   -56.0190 -55.9355 -55.9302 -55.9212 -55.4201 -55.4201 -55.3423 -55.2613
   -32.8876 -32.8840 -32.8746 -32.8692 -32.7866 -32.7829 -32.6921 -32.6853
   -32.6037 -32.5927 -32.5357 -32.5258 -32.5231 -32.5148 -32.4904 -32.4635
   -32.4267 -32.3728 -32.3571 -32.3516 -32.3478 -32.2813 -32.2745 -32.2686
   -32.2652 -32.2573 -32.2492 -32.2402 -32.2301 -32.2246 -32.1804 -32.1718
   -32.1414 -32.1403 -32.1330 -32.1321 -31.7856 -31.7515 -31.7515 -31.6516
   -31.6516 -31.6256 -31.6171 -31.6136 -31.6135 -31.5537 -31.4998 -31.3749
   -16.4516 -16.4328 -16.2195 -16.2103 -16.1119 -16.1115 -16.1105 -16.1081
   -16.0066 -16.0038 -15.9329 -15.9185 -15.8622 -15.8545 -15.8195 -15.8176
   -15.7960 -15.7927 -15.7502 -15.7435 -15.6160 -15.6138 -15.5071 -15.5023
   -15.4643 -15.4233 -15.3846 -15.3728 -15.1540 -13.9184 -13.9180  -7.7462
    -3.7496  -3.7187  -3.4344  -3.4306  -3.2480  -3.2464  -3.2439  -3.2247
    -3.1805  -3.1503  -3.1408  -3.1152  -3.0832  -3.0416  -3.0312  -3.0118
    -3.0070  -3.0014  -2.9878  -2.9870  -2.9641  -2.9544  -2.9026  -2.8817
    -2.8710  -2.8613  -2.8121  -2.8107  -2.7044  -2.5831  -2.5373  -2.5332
    -2.4823  -2.4482  -2.3657  -2.3630  -2.3342  -2.3180  -2.2710  -2.1684
    -2.0364  -2.0338  -1.9877  -1.9572  -1.8911  -1.8157  -1.7150  -1.6469
    -1.6172  -1.5883  -1.5214  -1.4626  -1.4554  -1.4368  -1.4258  -1.4187
    -1.4042  -1.3079  -1.2958  -1.2237  -1.1870  -1.1768  -1.1664  -1.1339
    -1.1084  -1.0436  -0.9493  -0.9464  -0.9341  -0.9067  -0.7986  -0.7569
    -0.7004  -0.6502  -0.6018  -0.3569  -0.3545  -0.2003  -0.0901  -0.0273
     0.0371   0.0608   0.1034   0.1685   0.2307   0.2353   0.2626   0.2657
     0.3608   0.3632   0.9778   0.9782   1.0367   1.0377   1.7533   2.2101
     3.1089   3.1513   3.1688   3.1740   3.2002   3.2275   3.2456   3.2564
     3.5815

     the Fermi energy is     2.1317 ev

!    total energy              =   -2896.37496952 Ry
     estimated scf accuracy    <       0.00000005 Ry
     smearing contrib. (-TS)   =      -0.01048140 Ry
     internal energy E=F+TS    =   -2896.36448813 Ry

     The total energy is F=E-TS. E is the sum of the following terms:
     one-electron contribution =  -24785.88918748 Ry
     hartree contribution      =   12470.99683220 Ry
     xc contribution           =    -472.98126496 Ry
     ewald contribution        =    9891.50887338 Ry
     electric field correction =       0.00025874 Ry

     convergence has been achieved in  57 iterations

     Forces acting on atoms (cartesian axes, Ry/au):

     atom    1 type  1   force =     0.00019223   -0.00055346    0.14922078
     atom    2 type  1   force =    -0.00002462   -0.00029711   -0.17020890
     atom    3 type  2   force =     0.00005921    0.00011721   -0.06128417
     atom    4 type  2   force =     0.00010735   -0.00167338    0.04071343
     atom    5 type  2   force =    -0.02328376    0.00031469    0.00409348
     atom    6 type  2   force =     0.02300048    0.00152369    0.00329913
     atom    7 type  1   force =    -0.00054376    0.00074244    0.00022559
     atom    8 type  1   force =     0.00020615    0.00084429   -0.00013566
     atom    9 type  2   force =    -0.00005653    0.00009685   -0.00049456
     atom   10 type  2   force =    -0.00003604   -0.00051376    0.00022749
     atom   11 type  2   force =    -0.00019712    0.00046025    0.00026863
     atom   12 type  2   force =     0.00026698    0.00011648    0.00021537
     atom   13 type  1   force =     0.00032235    0.00066209   -0.00073557
     atom   14 type  1   force =    -0.00043641    0.00096373   -0.00030345
     atom   15 type  2   force =     0.00014278   -0.00020944   -0.00083306
     atom   16 type  2   force =     0.00014015   -0.00026301    0.00001765
     atom   17 type  2   force =     0.00058034    0.00017425    0.00018222
     atom   18 type  2   force =    -0.00052391    0.00026740    0.00015638
     atom   19 type  1   force =     0.00001401   -0.00108080    0.00048247
     atom   20 type  1   force =     0.00003234   -0.00314648   -0.00235298
     atom   21 type  2   force =     0.00008476   -0.00018367    0.10247918
     atom   22 type  2   force =    -0.00005200    0.00066481   -0.00002062
     atom   23 type  2   force =    -0.07446647    0.00019426   -0.03479571
     atom   24 type  2   force =     0.07442170    0.00062207   -0.03484626
     atom   25 type  1   force =    -0.00003704   -0.00050907    0.15027405
     atom   26 type  1   force =    -0.00002208   -0.00070512   -0.17015324
     atom   27 type  2   force =     0.00007302    0.00063724   -0.06049391
     atom   28 type  2   force =     0.00002734   -0.00161876    0.04016207
     atom   29 type  2   force =    -0.02285975    0.00145009    0.00426837
     atom   30 type  2   force =     0.02312749    0.00224435    0.00346805
     atom   31 type  1   force =    -0.00054493    0.00012692   -0.00074381
     atom   32 type  1   force =     0.00023640   -0.00110968    0.00058676
     atom   33 type  2   force =     0.00026230   -0.00008284    0.00119842
     atom   34 type  2   force =    -0.00004662    0.00059081   -0.00032852
     atom   35 type  2   force =    -0.00093039   -0.00041586    0.00000937
     atom   36 type  2   force =     0.00092643   -0.00023143    0.00008412
     atom   37 type  1   force =    -0.00003158   -0.00007074    0.00002080
     atom   38 type  1   force =    -0.00068631   -0.00076222    0.00032046
     atom   39 type  2   force =    -0.00003092   -0.00017909   -0.00090339
     atom   40 type  2   force =     0.00009880   -0.00016632   -0.00068803
     atom   41 type  2   force =     0.00059441   -0.00034954    0.00053935
     atom   42 type  2   force =    -0.00061511   -0.00043742    0.00056639
     atom   43 type  1   force =    -0.00000113    0.00082976   -0.00096269
     atom   44 type  1   force =     0.00014095    0.00089510   -0.00111198
     atom   45 type  2   force =     0.00007425   -0.00018426    0.10245108
     atom   46 type  2   force =    -0.07445567   -0.00013482   -0.03480150
     atom   47 type  2   force =     0.07440861    0.00031056   -0.03485223
     atom   48 type  3   force =     0.00025320    0.00202744    0.01813310
     atom   49 type  4   force =     0.00008811   -0.00199852   -0.01261398

     Total force =     0.405228     Total SCF correction =     0.000512
  @ DRIVER MODE: Message from server: STATUS
  @ DRIVER MODE: Message from server: GETFORCE
  @ DRIVER MODE: Returning v,forces,stress,ensemble

     Writing output data file ./calc.save/
  @ DRIVER MODE: Message from server: EXIT
  @ DRIVE MODE: Exiting

     General routines

     Parallel routines

   This run was terminated on:  15:16:16  23Aug2021

   JOB DONE.