     Program PWSCF v.6.7GPU starts on  2Aug2021 at 16:32:45

     R & G space division:  proc/nbgrp/npool/nimage =      16
     Reading input from /storage/home/hcoda1/3/ntian30/research/carbon/02Aug_vib_paired/ads_slab/CH3NH_a/out_0019/pw.inp
Warning: card &CELL ignored
Warning: card   CELL_DYNAMICS='IPI', ignored
Warning: card / ignored

     Current dimensions of program PWSCF are:
     Max number of different atomic species (ntypx) = 10
     Max number of k-points (npk) =  40000
     Max angular momentum in pseudopotentials (lmaxx) =  3
     Presently no symmetry can be used with electric field

     Message from routine cell_base_init:
     DEPRECATED: use true lattice parameter, not A to a.u. conversion factor

     IMPORTANT: XC functional enforced from input :
     Exchange-correlation= BEEF-VDW
                           (   1   4  43  14   2   0   0)
     Any further DFT definition will be discarded
     Please, verify this is what you really want

  @ DRIVER MODE: Connecting to
 qe_1139763_2482540.sched-torque.pace.gatech.edun8m7q0sn_scratch
  using UNIX socket
  @ DRIVER MODE: Message from server: STATUS
  @ DRIVER MODE: Message from server: INIT
  @ DRIVER MODE: Receiving replica           0          -1
  @ DRIVER MODE: Receiving encoded integer          25
  @ DRIVER MODE:  SCF:  T  FORCE:  T  STRESS:  F  VC:  F  ENSEMBLE:  F
  @ DRIVER MODE:  SCF:  T  FORCE:  T  STRESS:  F  VC:  F  ENSEMBLE:  F

     Using Slab Decomposition

     bravais-lattice index     =            0
     lattice parameter (alat)  =       1.8897  a.u.
     unit-cell volume          =    6658.9804 (a.u.)^3
     number of atoms/cell      =           53
     number of atomic types    =            5
     number of electrons       =       391.00
     number of Kohn-Sham states=          205
     kinetic-energy cutoff     =      29.3995  Ry
     charge density cutoff     =     293.9946  Ry
     scf convergence threshold =      7.3E-08
     mixing beta               =       0.0500
     number of iterations used =            8  plain     mixing
     Exchange-correlation= BEEF-VDW
                           (   1   4  43  14   2   0   0)

     celldm(1)=   1.889726  celldm(2)=   0.000000  celldm(3)=   0.000000
     celldm(4)=   0.000000  celldm(5)=   0.000000  celldm(6)=   0.000000

     crystal axes: (cart. coord. in units of alat)
               a(1) = (   6.579727   0.000000   0.000000 )
               a(2) = (  -0.000775   5.961596   0.000000 )
               a(3) = (   0.000000   0.000000  25.155947 )

     reciprocal axes: (cart. coord. in units 2 pi/alat)
               b(1) = (  0.151982  0.000020  0.000000 )
               b(2) = (  0.000000  0.167740  0.000000 )
               b(3) = (  0.000000  0.000000  0.039752 )

     PseudoPot. # 1 for Ti read from file:
     /storage/coda1/p-amedford6/0/shared/rich_project_chbe-medford/medford-share/data/pseudos_module/espresso/nninc/pbe/van/Ti.UPF
     MD5 check sum: 8e4df49b7f0d34bbd5052bf3f5ea0213
     Pseudo is Ultrasoft, Zval = 12.0
     Generated by new atomic code, or converted to UPF format
     Using radial grid of  851 points,  6 beta functions with:
                l(1) =   0
                l(2) =   0
                l(3) =   1
                l(4) =   1
                l(5) =   2
                l(6) =   2
     Q(r) pseudized with  8 coefficients,  rinner =    1.000   1.000   1.000
                                                       1.000   1.000

     PseudoPot. # 2 for O  read from file:
     /storage/coda1/p-amedford6/0/shared/rich_project_chbe-medford/medford-share/data/pseudos_module/espresso/nninc/pbe/van/O.UPF
     MD5 check sum: 78c19812648e8988a0fe644b0f25305e
     Pseudo is Ultrasoft, Zval =  6.0
     Generated by new atomic code, or converted to UPF format
     Using radial grid of  737 points,  4 beta functions with:
                l(1) =   0
                l(2) =   0
                l(3) =   1
                l(4) =   1
     Q(r) pseudized with  8 coefficients,  rinner =    0.800   0.800   0.800

     PseudoPot. # 3 for H  read from file:
     /storage/coda1/p-amedford6/0/shared/rich_project_chbe-medford/medford-share/data/pseudos_module/espresso/nninc/pbe/van/H.UPF
     MD5 check sum: b5ee9d7bfd3a09ee7748110bda690ff7
     Pseudo is Ultrasoft, Zval =  1.0
     Generated by new atomic code, or converted to UPF format
     Using radial grid of  615 points,  1 beta functions with:
                l(1) =   0
     Q(r) pseudized with  8 coefficients,  rinner =    0.800

     PseudoPot. # 4 for N  read from file:
     /storage/coda1/p-amedford6/0/shared/rich_project_chbe-medford/medford-share/data/pseudos_module/espresso/nninc/pbe/van/N.UPF
     MD5 check sum: 90d10febe142ad51ac9d5be1deb811c4
     Pseudo is Ultrasoft, Zval =  5.0
     Generated by new atomic code, or converted to UPF format
     Using radial grid of  729 points,  4 beta functions with:
                l(1) =   0
                l(2) =   0
                l(3) =   1
                l(4) =   1
     Q(r) pseudized with  8 coefficients,  rinner =    0.800   0.800   0.800

     PseudoPot. # 5 for C  read from file:
     /storage/coda1/p-amedford6/0/shared/rich_project_chbe-medford/medford-share/data/pseudos_module/espresso/nninc/pbe/van/C.UPF
     MD5 check sum: 1a69bf6b8db32088f5b2163dbdb77a27
     Pseudo is Ultrasoft, Zval =  4.0
     Generated by new atomic code, or converted to UPF format
     Using radial grid of  721 points,  4 beta functions with:
                l(1) =   0
                l(2) =   0
                l(3) =   1
                l(4) =   1
     Q(r) pseudized with  8 coefficients,  rinner =    0.800   0.800   0.800

     atomic species   valence    mass     pseudopotential
        Ti1           12.00    47.86700     Ti( 1.00)
        O1             6.00    15.99900     O ( 1.00)
        H1             1.00     1.00800     H ( 1.00)
        N1             5.00    14.00700     N ( 1.00)
        C1             4.00    12.01100     C ( 1.00)

     No symmetry found

   Cartesian axes

     site n.     atom                  positions (alat units)
         1           Ti1 tau(   1) = (   0.0004258   2.9801865   6.0000000  )
         2           Ti1 tau(   2) = (   3.2906075   1.4906267   6.0002472  )
         3           O1  tau(   3) = (   0.0006271   0.0005054   7.9858123  )
         4           O1  tau(   4) = (   3.2906025   0.0005020   7.3038282  )
         5           O1  tau(   5) = (   4.5942328   1.4918067   9.2879030  )
         6           O1  tau(   6) = (   1.9868534   1.4903216   9.2879459  )
         7           Ti1 tau(   7) = (   3.2907910   2.8959150   9.1758416  )
         8           Ti1 tau(   8) = (   0.0015273   1.4827037   9.2680791  )
         9           O1  tau(   9) = (   3.2884659   0.0075485  11.3235732  )
        10           O1  tau(  10) = (   0.0116148   5.9584955  10.6183126  )
        11           O1  tau(  11) = (   1.3171120   1.5008813  12.6157184  )
        12           O1  tau(  12) = (   5.2946386   1.4924346  12.6071097  )
        13           Ti1 tau(  13) = (   6.5241923   2.9548932  12.6217359  )
        14           Ti1 tau(  14) = (   3.2094326   1.4975571  12.4685497  )
        15           O1  tau(  15) = (   6.5712017   0.0435206  14.6415704  )
        16           O1  tau(  16) = (   3.3105969   0.0188825  13.9167609  )
        17           O1  tau(  17) = (   4.5276945   1.5520673  16.0775932  )
        18           O1  tau(  18) = (   2.0451199   1.5488911  16.0433559  )
        19           Ti1 tau(  19) = (   3.3056363   3.0248959  15.6834923  )
        20           Ti1 tau(  20) = (   0.0598299   1.5678558  15.8702049  )
        21           O1  tau(  21) = (   3.2904802   0.0005063   4.7018136  )
        22           O1  tau(  22) = (   0.0261329   0.0581799  17.1997403  )
        23           O1  tau(  23) = (   1.3043587   1.4918075   6.0039043  )
        24           O1  tau(  24) = (   5.2767064   1.4903225   6.0039473  )
        25           Ti1 tau(  25) = (   0.0000382   5.9609847   6.0000000  )
        26           Ti1 tau(  26) = (   3.2902200   4.4714249   6.0002472  )
        27           O1  tau(  27) = (   0.0002396   2.9813036   7.9858123  )
        28           O1  tau(  28) = (   3.2902150   2.9813002   7.3038282  )
        29           O1  tau(  29) = (   4.5938453   4.4726049   9.2879030  )
        30           O1  tau(  30) = (   1.9864658   4.4711199   9.2879459  )
        31           Ti1 tau(  31) = (   3.2891106   5.8743827   9.1763621  )
        32           Ti1 tau(  32) = (   0.0006254   4.4649316   9.2693709  )
        33           O1  tau(  33) = (   3.2900467   2.9919642  11.3219399  )
        34           O1  tau(  34) = (   0.0092240   2.9805883  10.6323155  )
        35           O1  tau(  35) = (   1.3109590   4.4888342  12.6262493  )
        36           O1  tau(  36) = (   5.2962169   4.4808628  12.6191006  )
        37           Ti1 tau(  37) = (   6.5213093   5.9327278  12.5667326  )
        38           Ti1 tau(  38) = (   3.2063601   4.4772876  12.4706241  )
        39           O1  tau(  39) = (   6.5765807   2.9606619  14.6437028  )
        40           O1  tau(  40) = (   3.3047873   3.0036736  13.8926904  )
        41           O1  tau(  41) = (   4.5386289   4.5058657  16.0833063  )
        42           O1  tau(  42) = (   2.0584685   4.5123608  16.0729366  )
        43           Ti1 tau(  43) = (   3.3398093   0.0384087  15.7085799  )
        44           Ti1 tau(  44) = (   0.0478225   4.6849499  16.0879628  )
        45           O1  tau(  45) = (   3.2900926   2.9813045   4.7018136  )
        46           O1  tau(  46) = (   1.3039711   4.4726057   6.0039043  )
        47           O1  tau(  47) = (   5.2763189   4.4711207   6.0039473  )
        48           H1  tau(  48) = (   5.6109407   2.9912845  17.7881963  )
        49           N1  tau(  49) = (   6.5652763   3.0051276  17.4431066  )
        50           C1  tau(  50) = (   0.8863280   2.9891452  18.6126320  )
        51           H1  tau(  51) = (   1.3496840   3.9617220  18.7724638  )
        52           H1  tau(  52) = (   0.3315535   2.7344040  19.5171108  )
        53           H1  tau(  53) = (   1.6705027   2.2407838  18.4910999  )

     number of k points=    10  Fermi-Dirac smearing, width (Ry)=  0.0073
                       cart. coord. in units 2pi/alat
        k(    1) = (   0.0000000   0.0000000   0.0000000), wk =   0.1250000
        k(    2) = (   0.0000000   0.0419351   0.0000000), wk =   0.2500000
        k(    3) = (   0.0000000  -0.0838702   0.0000000), wk =   0.1250000
        k(    4) = (   0.0379955   0.0000049   0.0000000), wk =   0.2500000
        k(    5) = (   0.0379955   0.0419400   0.0000000), wk =   0.2500000
        k(    6) = (   0.0379955  -0.0838652   0.0000000), wk =   0.2500000
        k(    7) = (   0.0379955  -0.0419301   0.0000000), wk =   0.2500000
        k(    8) = (  -0.0759910  -0.0000099   0.0000000), wk =   0.1250000
        k(    9) = (  -0.0759910   0.0419252   0.0000000), wk =   0.2500000
        k(   10) = (  -0.0759910  -0.0838800   0.0000000), wk =   0.1250000

     Initial potential from superposition of free atoms

     starting charge  374.99916, renormalised to  391.00000

     negative rho (up, down):  1.779E-02 0.000E+00

     %%%%%%%%%%%%%%%%%%%%%%%%%%%%%%%%%%%%%%%%%%%%%%%%%%%%%%%%%%%%%%%%%%%%%%%%
     %                                                                      %
     % You are using vdW-DF, which was implemented by the Thonhauser group. %
     % Please cite the following two papers that made this development      %
     % possible and the two reviews that describe the various versions:     %
     %                                                                      %
     %   T. Thonhauser et al., PRL 115, 136402 (2015).                      %
     %   T. Thonhauser et al., PRB 76, 125112 (2007).                       %
     %   K. Berland et al., Rep. Prog. Phys. 78, 066501 (2015).             %
     %   D.C. Langreth et al., J. Phys.: Condens. Matter 21, 084203 (2009). %
     %                                                                      %
     %                                                                      %
     % If you are calculating the stress with vdW-DF, please also cite:     %
     %                                                                      %
     %   R. Sabatini et al., J. Phys.: Condens. Matter 24, 424209 (2012).   %
     %                                                                      %
     %%%%%%%%%%%%%%%%%%%%%%%%%%%%%%%%%%%%%%%%%%%%%%%%%%%%%%%%%%%%%%%%%%%%%%%%

     Adding external electric field

     Computed dipole along edir(3) :
        Dipole               -5.8084 Ry au,        -14.7635 Debye
        Dipole field         -0.0110 Ry au,

        Potential amp.        1.0161 Ry
        Total length         46.3494 bohr

     Starting wfcs are  296 atomic wfcs
  @ DRIVER MODE: Message from server: STATUS
  @ DRIVER MODE: Message from server: POSDATA
  @ DRIVER MODE: Reading and sharing cell
  @ DRIVER MODE: Reading and sharing positions
  @ DRIVER MODE: Received positions

     Self-consistent Calculation

     iteration #  1     ecut=    29.40 Ry     beta= 0.05
     Davidson diagonalization with overlap
     c_bands:  3 eigenvalues not converged
     c_bands:  1 eigenvalues not converged
     c_bands:  1 eigenvalues not converged
     c_bands:  2 eigenvalues not converged
     c_bands:  4 eigenvalues not converged
     c_bands:  2 eigenvalues not converged
     c_bands:  1 eigenvalues not converged
     c_bands:  1 eigenvalues not converged
     c_bands:  2 eigenvalues not converged
     ethr =  1.00E-05,  avg # of iterations = 19.5

[...]

     total energy              =   -2770.91800598 Ry
     estimated scf accuracy    <    1638.54276972 Ry

     iteration #  2     ecut=    29.40 Ry     beta= 0.05
     Davidson diagonalization with overlap
     ethr =  1.00E-02,  avg # of iterations = 18.6

[...]

     iteration # 59     ecut=    29.40 Ry     beta= 0.05
     Davidson diagonalization with overlap
     c_bands:  3 eigenvalues not converged
     ethr =  2.78E-11,  avg # of iterations = 11.3

[...]

     total energy              =   -2920.41987321 Ry
     estimated scf accuracy    <       0.00000030 Ry

     iteration # 60     ecut=    29.40 Ry     beta= 0.05
     Davidson diagonalization with overlap
     ethr =  2.78E-11,  avg # of iterations =  9.1

     negative rho (up, down):  1.826E-02 0.000E+00

     Adding external electric field

     Computed dipole along edir(3) :
        Dipole                0.6956 Ry au,          1.7679 Debye
        Dipole field          0.0013 Ry au,

        Potential amp.       -0.1217 Ry
        Total length         46.3494 bohr

     End of self-consistent calculation

          k = 0.0000 0.0000 0.0000 ( 18029 PWs)   bands (ev):

   -55.9812 -55.9729 -55.9472 -55.9368 -55.8848 -55.8240 -55.8193 -55.7864
   -55.7846 -55.7524 -55.7456 -55.7119 -55.5546 -55.2750 -54.9536 -54.9195
   -32.5329 -32.4627 -32.3339 -32.3206 -32.3001 -32.2856 -32.2744 -32.2367
   -32.2228 -32.2203 -32.1959 -32.1889 -32.1561 -32.1334 -32.1246 -32.1177
   -32.1159 -32.0847 -32.0644 -32.0384 -32.0305 -32.0263 -32.0106 -31.9890
   -31.9793 -31.9773 -31.9728 -31.9625 -31.9491 -31.9424 -31.9400 -31.9347
   -31.9226 -31.9166 -31.8989 -31.8933 -31.8582 -31.8194 -31.7236 -31.5494
   -31.5428 -31.4717 -31.3605 -31.2728 -31.2503 -31.1773 -31.0908 -30.9797
   -16.7422 -16.4588 -16.2796 -16.1364 -16.1034 -16.0183 -15.8178 -15.6926
   -15.6797 -15.5766 -15.5388 -15.5156 -15.5081 -15.4812 -15.4779 -15.4191
   -15.4160 -15.4036 -15.3912 -15.3351 -15.3111 -15.2714 -15.1773 -15.1532
   -15.1377 -15.1110 -15.0301 -15.0230 -14.5837 -14.1034 -13.4560 -13.3397
    -8.9403  -4.3703  -4.1130  -3.9361  -3.8969  -3.8837  -3.8352  -3.5836
    -3.5677  -3.3308  -3.1942  -3.1761  -3.1671  -3.1506  -3.1371  -3.1174
    -2.8804  -2.8113  -2.7962  -2.7740  -2.7668  -2.7636  -2.7517  -2.7474
    -2.7050  -2.6451  -2.5265  -2.5142  -2.4085  -2.3612  -2.3372  -2.2907
    -2.2471  -2.2407  -2.2280  -2.2109  -2.1962  -2.1774  -2.1596  -2.0251
    -1.9614  -1.8338  -1.7860  -1.7798  -1.5818  -1.5375  -1.4480  -1.4240
    -1.4078  -1.4002  -1.3680  -1.2879  -1.1964  -1.1394  -1.1258  -1.0731
    -0.9964  -0.9848  -0.8745  -0.8698  -0.8066  -0.7503  -0.7408  -0.7314
    -0.6872  -0.6122  -0.5412  -0.4657  -0.4162  -0.3949  -0.3675  -0.2890
    -0.2589  -0.1623  -0.1439  -0.0974  -0.0939  -0.0448  -0.0028   0.0069
     0.0135   0.0281   0.0459   0.1945   0.3016   0.3581   0.3915   0.4025
     0.5580   0.5937   0.6823   0.7695   0.9953   1.0685   1.1619   1.2613
     1.3234   1.6392   1.6845   3.1617   3.2408   3.2939   3.3023   3.4037
     3.4063   3.6116   3.6240   3.6345   3.7026

[...]

          k = 0.0380-0.0419 0.0000 ( 17876 PWs)   bands (ev):

[...]

          k =-0.0760-0.0000 0.0000 ( 17886 PWs)   bands (ev):

[...]

          k =-0.0760-0.0839 0.0000 ( 17948 PWs)   bands (ev):

   -55.9645 -55.9638 -55.9557 -55.9538 -55.8794 -55.8293 -55.8041 -55.7998
   -55.7701 -55.7682 -55.7294 -55.7282 -55.5536 -55.2758 -54.9365 -54.9364
   -32.3372 -32.3344 -32.2783 -32.2778 -32.2656 -32.2601 -32.2594 -32.2452
   -32.1829 -32.1819 -32.1753 -32.1715 -32.1484 -32.1201 -32.1015 -32.0974
   -32.0868 -32.0840 -32.0834 -32.0833 -32.0813 -32.0694 -32.0670 -32.0354
   -32.0245 -32.0187 -31.9943 -31.9850 -31.9669 -31.9664 -31.9624 -31.9612
   -31.9444 -31.9437 -31.9416 -31.9399 -31.8877 -31.8221 -31.7188 -31.6126
   -31.5449 -31.4972 -31.2631 -31.2630 -31.1733 -31.1732 -31.1341 -31.1340
   -16.1941 -16.1608 -15.9252 -15.9156 -15.9068 -15.8905 -15.7460 -15.6940
   -15.6856 -15.6789 -15.6545 -15.6309 -15.5796 -15.5492 -15.5153 -15.5087
   -15.5020 -15.4968 -15.4404 -15.4340 -15.4116 -15.4042 -15.2907 -15.2865
   -15.2851 -15.2090 -15.1446 -15.0113 -14.7539 -14.1245 -13.4416 -13.4415
    -8.9441  -4.3815  -3.4887  -3.4505  -3.2991  -3.1895  -3.1653  -3.1520
    -3.1310  -3.0507  -2.8918  -2.8770  -2.8587  -2.8455  -2.8054  -2.8003
    -2.7886  -2.7748  -2.7677  -2.7499  -2.7161  -2.6758  -2.6468  -2.6397
    -2.6307  -2.6062  -2.5939  -2.5677  -2.5619  -2.5293  -2.5208  -2.5022
    -2.4785  -2.2158  -2.1975  -2.1806  -2.1115  -2.1047  -2.0700  -2.0618
    -2.0426  -2.0293  -1.9772  -1.8763  -1.7132  -1.6800  -1.6669  -1.6500
    -1.5850  -1.5646  -1.4160  -1.3877  -1.3708  -1.3306  -1.2820  -1.2523
    -1.2154  -1.1762  -1.1386  -1.0781  -1.0705  -0.9912  -0.9407  -0.9401
    -0.9129  -0.8434  -0.7644  -0.7471  -0.7355  -0.6944  -0.6806  -0.5991
    -0.5764  -0.4781  -0.4652  -0.3953  -0.3646  -0.2979  -0.0932   0.0039
     0.0627   0.0866   0.1395   0.2369   0.2910   0.3050   0.3384   0.3434
     0.4031   0.4436   0.5583   0.5659   0.6343   0.7379   1.2718   1.4328
     1.4334   1.5043   1.5044   3.4236   3.4294   3.4787   3.5096   3.6615
     3.6658   3.6887   3.6898   3.8111   3.8285

     the Fermi energy is     3.1549 ev

!    total energy              =   -2920.41991394 Ry
     estimated scf accuracy    <       0.00000007 Ry
     smearing contrib. (-TS)   =      -0.02203309 Ry
     internal energy E=F+TS    =   -2920.39788085 Ry

     The total energy is F=E-TS. E is the sum of the following terms:
     one-electron contribution =  -24727.76233201 Ry
     hartree contribution      =   12448.54978175 Ry
     xc contribution           =    -480.87834418 Ry
     ewald contribution        =    9839.69210060 Ry
     electric field correction =       0.00091299 Ry

     convergence has been achieved in  60 iterations

     Forces acting on atoms (cartesian axes, Ry/au):

     atom    1 type  1   force =     0.00011922   -0.00017786    0.09685879
     atom    2 type  1   force =     0.00004879   -0.00047322   -0.17504809
     atom    3 type  2   force =     0.00012803    0.00000815   -0.02533292
     atom    4 type  2   force =    -0.00003616   -0.00128013    0.05236389
     atom    5 type  2   force =    -0.01222319   -0.00000843    0.00299523
     atom    6 type  2   force =     0.01365960    0.00058515    0.00232922
     atom    7 type  1   force =     0.00056948    0.00034411   -0.01303633
     atom    8 type  1   force =     0.00045875    0.00731122    0.03072410
     atom    9 type  2   force =     0.00056080    0.00003360   -0.00022506
     atom   10 type  2   force =    -0.00267721    0.00211331   -0.01738429
     atom   11 type  2   force =    -0.00014999    0.00007137   -0.00002078
     atom   12 type  2   force =     0.00046779    0.00033749    0.00018822
     atom   13 type  1   force =    -0.00009709   -0.00054197   -0.00017877
     atom   14 type  1   force =    -0.00042883    0.00003066    0.00080516
     atom   15 type  2   force =    -0.00000661   -0.00078997    0.00079771
     atom   16 type  2   force =     0.00025626    0.00062849   -0.00046651
     atom   17 type  2   force =     0.00063865    0.00007070    0.00061149
     atom   18 type  2   force =    -0.00012652   -0.00008280    0.00004931
     atom   19 type  1   force =     0.00002029    0.00045398   -0.00027622
     atom   20 type  1   force =    -0.00026300   -0.00045881    0.00006033
     atom   21 type  2   force =     0.00006201   -0.00002682    0.10311502
     atom   22 type  2   force =     0.00016103   -0.00087015    0.00115812
     atom   23 type  2   force =    -0.07163294   -0.00015519   -0.02781757
     atom   24 type  2   force =     0.07152750    0.00034229   -0.02787418
     atom   25 type  1   force =     0.00007909   -0.00013674    0.09658238
     atom   26 type  1   force =     0.00009264   -0.00019443   -0.17517671
     atom   27 type  2   force =     0.00011578   -0.00011512   -0.02439201
     atom   28 type  2   force =     0.00004370   -0.00103937    0.05228145
     atom   29 type  2   force =    -0.01242224    0.00063616    0.00278881
     atom   30 type  2   force =     0.01372913    0.00098042    0.00213393
     atom   31 type  1   force =     0.00045410    0.00315858   -0.01359276
     atom   32 type  1   force =     0.00031886   -0.00952409    0.03109757
     atom   33 type  2   force =    -0.00007063    0.00031088   -0.00061680
     atom   34 type  2   force =    -0.00206429    0.00182323   -0.02538304
     atom   35 type  2   force =    -0.00019019   -0.00029198    0.00037912
     atom   36 type  2   force =     0.00025932   -0.00078372    0.00040886
     atom   37 type  1   force =     0.00005040    0.00026721    0.00102397
     atom   38 type  1   force =    -0.00021332    0.00038755    0.00077275
     atom   39 type  2   force =    -0.00006128   -0.00017006   -0.00061373
     atom   40 type  2   force =     0.00042036    0.00007118    0.00059515
     atom   41 type  2   force =     0.00030522   -0.00024602   -0.00005161
     atom   42 type  2   force =    -0.00053687   -0.00040792   -0.00032687
     atom   43 type  1   force =    -0.00076159   -0.00019362    0.00038114
     atom   44 type  1   force =    -0.00035168   -0.00078856    0.00042580
     atom   45 type  2   force =     0.00004143   -0.00004940    0.10312732
     atom   46 type  2   force =    -0.07162674   -0.00006934   -0.02781308
     atom   47 type  2   force =     0.07154487    0.00035052   -0.02788500
     atom   48 type  3   force =    -0.00007446   -0.00047833   -0.00011625
     atom   49 type  4   force =    -0.00068794   -0.00068516   -0.00091390
     atom   50 type  5   force =    -0.00279573   -0.00394861    0.00019877
     atom   51 type  3   force =     0.00280898    0.00414159    0.00101733
     atom   52 type  3   force =    -0.00004544   -0.00122788   -0.00045377
     atom   53 type  3   force =     0.00060182    0.00075789   -0.00027468

     Total force =     0.368487     Total SCF correction =     0.000817
  @ DRIVER MODE: Message from server: STATUS
  @ DRIVER MODE: Message from server: GETFORCE
  @ DRIVER MODE: Returning v,forces,stress,ensemble

     Writing output data file ./calc.save/
  @ DRIVER MODE: Message from server: EXIT
  @ DRIVE MODE: Exiting

     General routines

     Parallel routines

   This run was terminated on:  16:49:14   2Aug2021

   JOB DONE.