     Program PWSCF v.6.7GPU starts on 23Aug2021 at 21:22:40

     R & G space division:  proc/nbgrp/npool/nimage =       6
     Reading input from /storage/home/hcoda1/3/ntian30/research/carbon/CH_vib/ads_slab/CHNNH3_a/out_0017/pw.inp
Warning: card &CELL ignored
Warning: card   CELL_DYNAMICS='IPI', ignored
Warning: card / ignored

     Current dimensions of program PWSCF are:
     Max number of different atomic species (ntypx) = 10
     Max number of k-points (npk) =  40000
     Max angular momentum in pseudopotentials (lmaxx) =  3
     Presently no symmetry can be used with electric field

     Message from routine cell_base_init:
     DEPRECATED: use true lattice parameter, not A to a.u. conversion factor

     IMPORTANT: XC functional enforced from input :
     Exchange-correlation= BEEF-VDW
                           (   1   4  43  14   2   0   0)
     Any further DFT definition will be discarded
     Please, verify this is what you really want

  @ DRIVER MODE: Connecting to
 qe_1139763_2632800.sched-torque.pace.gatech.edu30yxagz7_scratch
  using UNIX socket
  @ DRIVER MODE: Message from server: STATUS
  @ DRIVER MODE: Message from server: INIT
  @ DRIVER MODE: Receiving replica           0          -1
  @ DRIVER MODE: Receiving encoded integer          25
  @ DRIVER MODE:  SCF:  T  FORCE:  T  STRESS:  F  VC:  F  ENSEMBLE:  F
  @ DRIVER MODE:  SCF:  T  FORCE:  T  STRESS:  F  VC:  F  ENSEMBLE:  F

     Using Slab Decomposition

     bravais-lattice index     =            0
     lattice parameter (alat)  =       1.8897  a.u.
     unit-cell volume          =    6658.9804 (a.u.)^3
     number of atoms/cell      =           54
     number of atomic types    =            5
     number of electrons       =       396.00
     number of Kohn-Sham states=          208
     kinetic-energy cutoff     =      29.3995  Ry
     charge density cutoff     =     293.9946  Ry
     scf convergence threshold =      7.3E-08
     mixing beta               =       0.0500
     number of iterations used =            8  plain     mixing
     Exchange-correlation= BEEF-VDW
                           (   1   4  43  14   2   0   0)

     celldm(1)=   1.889726  celldm(2)=   0.000000  celldm(3)=   0.000000
     celldm(4)=   0.000000  celldm(5)=   0.000000  celldm(6)=   0.000000

     crystal axes: (cart. coord. in units of alat)
               a(1) = (   6.579727   0.000000   0.000000 )
               a(2) = (  -0.000775   5.961596   0.000000 )
               a(3) = (   0.000000   0.000000  25.155947 )

     reciprocal axes: (cart. coord. in units 2 pi/alat)
               b(1) = (  0.151982  0.000020  0.000000 )
               b(2) = (  0.000000  0.167740  0.000000 )
               b(3) = (  0.000000  0.000000  0.039752 )

     PseudoPot. # 1 for Ti read from file:
     /storage/coda1/p-amedford6/0/shared/rich_project_chbe-medford/medford-share/data/pseudos_module/espresso/nninc/pbe/van/Ti.UPF
     MD5 check sum: 8e4df49b7f0d34bbd5052bf3f5ea0213
     Pseudo is Ultrasoft, Zval = 12.0
     Generated by new atomic code, or converted to UPF format
     Using radial grid of  851 points,  6 beta functions with:
                l(1) =   0
                l(2) =   0
                l(3) =   1
                l(4) =   1
                l(5) =   2
                l(6) =   2
     Q(r) pseudized with  8 coefficients,  rinner =    1.000   1.000   1.000
                                                       1.000   1.000

     PseudoPot. # 2 for O  read from file:
     /storage/coda1/p-amedford6/0/shared/rich_project_chbe-medford/medford-share/data/pseudos_module/espresso/nninc/pbe/van/O.UPF
     MD5 check sum: 78c19812648e8988a0fe644b0f25305e
     Pseudo is Ultrasoft, Zval =  6.0
     Generated by new atomic code, or converted to UPF format
     Using radial grid of  737 points,  4 beta functions with:
                l(1) =   0
                l(2) =   0
                l(3) =   1
                l(4) =   1
     Q(r) pseudized with  8 coefficients,  rinner =    0.800   0.800   0.800

     PseudoPot. # 3 for N  read from file:
     /storage/coda1/p-amedford6/0/shared/rich_project_chbe-medford/medford-share/data/pseudos_module/espresso/nninc/pbe/van/N.UPF
     MD5 check sum: 90d10febe142ad51ac9d5be1deb811c4
     Pseudo is Ultrasoft, Zval =  5.0
     Generated by new atomic code, or converted to UPF format
     Using radial grid of  729 points,  4 beta functions with:
                l(1) =   0
                l(2) =   0
                l(3) =   1
                l(4) =   1
     Q(r) pseudized with  8 coefficients,  rinner =    0.800   0.800   0.800

     PseudoPot. # 4 for C  read from file:
     /storage/coda1/p-amedford6/0/shared/rich_project_chbe-medford/medford-share/data/pseudos_module/espresso/nninc/pbe/van/C.UPF
     MD5 check sum: 1a69bf6b8db32088f5b2163dbdb77a27
     Pseudo is Ultrasoft, Zval =  4.0
     Generated by new atomic code, or converted to UPF format
     Using radial grid of  721 points,  4 beta functions with:
                l(1) =   0
                l(2) =   0
                l(3) =   1
                l(4) =   1
     Q(r) pseudized with  8 coefficients,  rinner =    0.800   0.800   0.800

     PseudoPot. # 5 for H  read from file:
     /storage/coda1/p-amedford6/0/shared/rich_project_chbe-medford/medford-share/data/pseudos_module/espresso/nninc/pbe/van/H.UPF
     MD5 check sum: b5ee9d7bfd3a09ee7748110bda690ff7
     Pseudo is Ultrasoft, Zval =  1.0
     Generated by new atomic code, or converted to UPF format
     Using radial grid of  615 points,  1 beta functions with:
                l(1) =   0
     Q(r) pseudized with  8 coefficients,  rinner =    0.800

     atomic species   valence    mass     pseudopotential
        Ti1           12.00    47.86700     Ti( 1.00)
        O1             6.00    15.99900     O ( 1.00)
        N1             5.00    14.00700     N ( 1.00)
        C1             4.00    12.01100     C ( 1.00)
        H1             1.00     1.00800     H ( 1.00)

     No symmetry found

   Cartesian axes

     site n.     atom                  positions (alat units)
         1           Ti1 tau(   1) = (   0.0004258   2.9801865   6.0000000  )
         2           Ti1 tau(   2) = (   3.2906075   1.4906267   6.0002472  )
         3           O1  tau(   3) = (   0.0006271   0.0005054   7.9858123  )
         4           O1  tau(   4) = (   3.2906025   0.0005020   7.3038282  )
         5           O1  tau(   5) = (   4.5942328   1.4918067   9.2879030  )
         6           O1  tau(   6) = (   1.9868534   1.4903216   9.2879459  )
         7           Ti1 tau(   7) = (   3.2907910   2.8959150   9.1758416  )
         8           Ti1 tau(   8) = (   0.0015273   1.4827037   9.2680791  )
         9           O1  tau(   9) = (   3.2881108   5.9505233  11.3735460  )
        10           O1  tau(  10) = (   0.0116148   5.9584955  10.6183126  )
        11           O1  tau(  11) = (   1.2866665   1.4805866  12.6825740  )
        12           O1  tau(  12) = (   5.2924821   1.4818622  12.6792165  )
        13           Ti1 tau(  13) = (   0.0021322   2.9639872  12.5157261  )
        14           Ti1 tau(  14) = (   3.2862601   1.4710115  12.5283183  )
        15           O1  tau(  15) = (   6.5551702   5.8950557  14.7042857  )
        16           O1  tau(  16) = (   3.2890300   5.9388001  13.9877656  )
        17           O1  tau(  17) = (   4.5349758   1.4880922  16.1718967  )
        18           O1  tau(  18) = (   2.0258431   1.4790072  16.1496753  )
        19           Ti1 tau(  19) = (   3.2732025   2.9690136  15.7622034  )
        20           Ti1 tau(  20) = (   6.5610264   1.3286824  15.8731419  )
        21           O1  tau(  21) = (   3.2904802   0.0005063   4.7018136  )
        22           O1  tau(  22) = (   6.5785393   0.0648448  17.2431192  )
        23           O1  tau(  23) = (   1.3043587   1.4918075   6.0039043  )
        24           O1  tau(  24) = (   5.2767064   1.4903225   6.0039473  )
        25           Ti1 tau(  25) = (   0.0000382   5.9609847   6.0000000  )
        26           Ti1 tau(  26) = (   3.2902200   4.4714249   6.0002472  )
        27           O1  tau(  27) = (   0.0002396   2.9813036   7.9858123  )
        28           O1  tau(  28) = (   3.2902150   2.9813002   7.3038282  )
        29           O1  tau(  29) = (   4.5938453   4.4726049   9.2879030  )
        30           O1  tau(  30) = (   1.9864658   4.4711199   9.2879459  )
        31           Ti1 tau(  31) = (   3.2891106   5.8743827   9.1763621  )
        32           Ti1 tau(  32) = (   0.0006254   4.4649316   9.2693709  )
        33           O1  tau(  33) = (   3.2883663   2.9615298  11.3703760  )
        34           O1  tau(  34) = (   0.0092240   2.9805883  10.6323155  )
        35           O1  tau(  35) = (   1.2870507   4.4533538  12.6624524  )
        36           O1  tau(  36) = (   5.2892318   4.4513974  12.6520950  )
        37           Ti1 tau(  37) = (   6.5724215   5.9362995  12.5032772  )
        38           Ti1 tau(  38) = (   3.2850067   4.4496593  12.5237361  )
        39           O1  tau(  39) = (   6.5755915   2.9911963  14.9688396  )
        40           O1  tau(  40) = (   3.2879019   2.9755095  13.9706832  )
        41           O1  tau(  41) = (   4.5370027   4.4458050  16.2043726  )
        42           O1  tau(  42) = (   2.0318725   4.4540161  16.1993262  )
        43           Ti1 tau(  43) = (   3.2771836   5.9440081  15.7837661  )
        44           Ti1 tau(  44) = (   6.5399960   4.5546841  16.0715688  )
        45           O1  tau(  45) = (   3.2900926   2.9813045   4.7018136  )
        46           O1  tau(  46) = (   1.3039711   4.4726057   6.0039043  )
        47           O1  tau(  47) = (   5.2763189   4.4711207   6.0039473  )
        48           N1  tau(  48) = (   0.1065663   3.2111123  17.9981644  )
        49           C1  tau(  49) = (   0.5134299   2.5375629  18.8400175  )
        50           H1  tau(  50) = (   1.0173682   1.8396193  19.4920221  )
        51           N1  tau(  51) = (   2.4304062   0.3108210  19.4519584  )
        52           H1  tau(  52) = (   3.2527645   0.6626300  18.9680575  )
        53           H1  tau(  53) = (   1.8610457   5.7841108  18.7610151  )
        54           H1  tau(  54) = (   2.7602249   5.5844085  20.1185638  )

     number of k points=    10  Fermi-Dirac smearing, width (Ry)=  0.0073
                       cart. coord. in units 2pi/alat
        k(    1) = (   0.0000000   0.0000000   0.0000000), wk =   0.1250000
        k(    2) = (   0.0000000   0.0419351   0.0000000), wk =   0.2500000
        k(    3) = (   0.0000000  -0.0838702   0.0000000), wk =   0.1250000
        k(    4) = (   0.0379955   0.0000049   0.0000000), wk =   0.2500000
        k(    5) = (   0.0379955   0.0419400   0.0000000), wk =   0.2500000
        k(    6) = (   0.0379955  -0.0838652   0.0000000), wk =   0.2500000
        k(    7) = (   0.0379955  -0.0419301   0.0000000), wk =   0.2500000
        k(    8) = (  -0.0759910  -0.0000099   0.0000000), wk =   0.1250000
        k(    9) = (  -0.0759910   0.0419252   0.0000000), wk =   0.2500000
        k(   10) = (  -0.0759910  -0.0838800   0.0000000), wk =   0.1250000

     Initial potential from superposition of free atoms

     starting charge  379.99915, renormalised to  396.00000

     negative rho (up, down):  1.530E-02 0.000E+00

     %%%%%%%%%%%%%%%%%%%%%%%%%%%%%%%%%%%%%%%%%%%%%%%%%%%%%%%%%%%%%%%%%%%%%%%%
     %                                                                      %
     % You are using vdW-DF, which was implemented by the Thonhauser group. %
     % Please cite the following two papers that made this development      %
     % possible and the two reviews that describe the various versions:     %
     %                                                                      %
     %   T. Thonhauser et al., PRL 115, 136402 (2015).                      %
     %   T. Thonhauser et al., PRB 76, 125112 (2007).                       %
     %   K. Berland et al., Rep. Prog. Phys. 78, 066501 (2015).             %
     %   D.C. Langreth et al., J. Phys.: Condens. Matter 21, 084203 (2009). %
     %                                                                      %
     %                                                                      %
     % If you are calculating the stress with vdW-DF, please also cite:     %
     %                                                                      %
     %   R. Sabatini et al., J. Phys.: Condens. Matter 24, 424209 (2012).   %
     %                                                                      %
     %%%%%%%%%%%%%%%%%%%%%%%%%%%%%%%%%%%%%%%%%%%%%%%%%%%%%%%%%%%%%%%%%%%%%%%%

     Adding external electric field

     Computed dipole along edir(3) :
        Dipole              -10.2009 Ry au,        -25.9280 Debye
        Dipole field         -0.0193 Ry au,

        Potential amp.        1.7845 Ry
        Total length         46.3494 bohr

     Starting wfcs are  300 atomic wfcs
  @ DRIVER MODE: Message from server: STATUS
  @ DRIVER MODE: Message from server: POSDATA
  @ DRIVER MODE: Reading and sharing cell
  @ DRIVER MODE: Reading and sharing positions
  @ DRIVER MODE: Received positions

     Self-consistent Calculation

     iteration #  1     ecut=    29.40 Ry     beta= 0.05
     Davidson diagonalization with overlap
     c_bands:  1 eigenvalues not converged
     c_bands:  2 eigenvalues not converged
     c_bands:  2 eigenvalues not converged
     c_bands:  1 eigenvalues not converged
     c_bands:  2 eigenvalues not converged
     c_bands:  2 eigenvalues not converged
     c_bands:  2 eigenvalues not converged
     c_bands:  3 eigenvalues not converged
     c_bands:  2 eigenvalues not converged
     c_bands:  1 eigenvalues not converged
     ethr =  1.00E-05,  avg # of iterations = 20.0

[...]

     total energy              =   -2543.07275620 Ry
     estimated scf accuracy    <    4459.89218269 Ry

[...]

     iteration #  3     ecut=    29.40 Ry     beta= 0.05
     Davidson diagonalization with overlap
     ethr =  1.00E-02,  avg # of iterations = 14.9

[...]

     iteration # 71     ecut=    29.40 Ry     beta= 0.05
     Davidson diagonalization with overlap
     c_bands:  1 eigenvalues not converged
     ethr =  5.98E-10,  avg # of iterations = 10.5

[...]

     total energy              =   -2940.42013896 Ry
     estimated scf accuracy    <       0.00000008 Ry

     iteration # 80     ecut=    29.40 Ry     beta= 0.05
     Davidson diagonalization with overlap
     ethr =  2.00E-11,  avg # of iterations =  9.0

     negative rho (up, down):  1.581E-02 0.000E+00

     Adding external electric field

     Computed dipole along edir(3) :
        Dipole                1.3030 Ry au,          3.3120 Debye
        Dipole field          0.0025 Ry au,

        Potential amp.       -0.2279 Ry
        Total length         46.3494 bohr

     End of self-consistent calculation

          k = 0.0000 0.0000 0.0000 ( 18029 PWs)   bands (ev):

   -55.3747 -55.3387 -55.3265 -55.2924 -55.2509 -55.2453 -55.2201 -55.2162
   -55.1921 -55.1754 -55.1577 -55.1558 -55.1222 -55.0910 -54.3539 -54.3198
   -31.9423 -31.8187 -31.8083 -31.7390 -31.6848 -31.6816 -31.6742 -31.6610
   -31.6155 -31.6055 -31.5831 -31.5753 -31.5711 -31.5444 -31.5296 -31.5236
   -31.5110 -31.4998 -31.4892 -31.4867 -31.4790 -31.4645 -31.4401 -31.4290
   -31.4287 -31.4225 -31.3946 -31.3945 -31.3838 -31.3817 -31.3739 -31.3548
   -31.3532 -31.3477 -31.3419 -31.3398 -31.3059 -31.2923 -31.2899 -31.2838
   -31.2668 -31.2149 -30.7630 -30.6694 -30.6474 -30.5796 -30.4929 -30.3817
   -16.9998 -16.1960 -15.9282 -15.7807 -15.6690 -15.5695 -15.4463 -15.4272
   -15.2962 -15.2082 -15.0883 -15.0440 -15.0214 -15.0078 -14.9925 -14.9865
   -14.9150 -14.9101 -14.8851 -14.8692 -14.8666 -14.8517 -14.8107 -14.8087
   -14.7684 -14.7479 -14.6979 -14.6105 -14.5292 -14.4603 -14.1666 -12.8564
   -12.7390  -8.2214  -4.9870  -4.8929  -4.3278  -3.5367  -3.3871  -3.2902
    -3.2709  -3.2659  -3.1223  -3.0733  -2.9661  -2.8813  -2.7650  -2.7016
    -2.6270  -2.5750  -2.5612  -2.5430  -2.3671  -2.3342  -2.2913  -2.2449
    -2.2135  -2.1793  -2.1580  -2.1307  -2.1181  -2.1116  -2.0787  -1.9349
    -1.8940  -1.8443  -1.7936  -1.7702  -1.7140  -1.6961  -1.6594  -1.6530
    -1.6476  -1.6021  -1.5831  -1.5536  -1.4621  -1.3946  -1.2798  -1.2217
    -1.0805  -1.0094  -0.9551  -0.9413  -0.8596  -0.8564  -0.8292  -0.7518
    -0.7443  -0.7118  -0.5908  -0.4920  -0.4550  -0.4042  -0.3557  -0.3269
    -0.2852  -0.1997  -0.1497  -0.1366  -0.1266  -0.0218   0.0220   0.0336
     0.1084   0.1539   0.1705   0.1757   0.2898   0.3037   0.3699   0.4189
     0.4486   0.5172   0.5653   0.5698   0.5798   0.6148   0.6164   0.7076
     0.7290   0.7375   0.8119   0.9574   1.1775   1.2337   1.2416   1.5754
     1.5775   1.6689   1.8527   2.2448   2.2929   3.7240   3.7962   3.8696
     3.8762   3.9013   3.9619   4.2006   4.2044   4.2280   4.2297   4.2584

[...]

          k = 0.0380-0.0419 0.0000 ( 17876 PWs)   bands (ev):

[...]

          k =-0.0760-0.0000 0.0000 ( 17886 PWs)   bands (ev):

[...]

          k =-0.0760-0.0839 0.0000 ( 17948 PWs)   bands (ev):

   -55.3581 -55.3550 -55.3096 -55.3092 -55.2406 -55.2361 -55.2310 -55.2177
   -55.1798 -55.1757 -55.1736 -55.1394 -55.1387 -55.0935 -54.3369 -54.3367
   -31.7471 -31.7446 -31.7287 -31.6502 -31.6340 -31.6336 -31.6284 -31.6009
   -31.6007 -31.5812 -31.5747 -31.5702 -31.5617 -31.5138 -31.5088 -31.5069
   -31.5056 -31.5052 -31.4994 -31.4946 -31.4724 -31.4689 -31.4483 -31.4468
   -31.4454 -31.4409 -31.4296 -31.4293 -31.4290 -31.4234 -31.4085 -31.4066
   -31.4030 -31.3890 -31.3865 -31.3708 -31.3684 -31.3680 -31.3200 -31.3194
   -31.3065 -31.2975 -30.6601 -30.6599 -30.5756 -30.5754 -30.5363 -30.5362
   -16.9922 -15.7016 -15.5998 -15.5811 -15.3893 -15.3729 -15.3414 -15.3373
   -15.1855 -15.1560 -15.1485 -15.1311 -15.0826 -15.0747 -15.0690 -15.0573
   -14.9784 -14.9675 -14.9653 -14.9482 -14.8872 -14.8772 -14.8743 -14.8666
   -14.8643 -14.8220 -14.8184 -14.7246 -14.7216 -14.6364 -14.5293 -12.8405
   -12.8405  -8.2231  -4.9831  -4.8948  -4.3285  -2.9996  -2.8984  -2.8573
    -2.8453  -2.8061  -2.6012  -2.5689  -2.5406  -2.4836  -2.4162  -2.3746
    -2.3640  -2.3442  -2.2846  -2.2360  -2.2314  -2.2135  -2.1933  -2.1915
    -2.1680  -2.1406  -2.1005  -2.0904  -2.0711  -2.0530  -2.0243  -2.0050
    -1.9764  -1.9580  -1.9358  -1.9292  -1.8203  -1.8063  -1.7299  -1.6957
    -1.6395  -1.5764  -1.5713  -1.4741  -1.4668  -1.4100  -1.4006  -1.3835
    -1.2647  -1.1791  -1.1249  -1.1140  -1.1064  -0.9948  -0.9448  -0.9144
    -0.8799  -0.8568  -0.7786  -0.7154  -0.6953  -0.6549  -0.5792  -0.5692
    -0.5095  -0.3965  -0.3667  -0.3460  -0.3289  -0.3233  -0.2695  -0.2577
    -0.1847  -0.1388  -0.1049  -0.0944  -0.0583  -0.0161   0.1521   0.1641
     0.2047   0.3196   0.3792   0.4932   0.5678   0.5824   0.6620   0.6969
     0.7404   0.8009   0.8922   0.9335   0.9380   1.0166   1.0422   1.0847
     1.0928   2.0259   2.0262   2.1129   2.1131   3.8622   3.9757   3.9853
     4.0319   4.1319   4.1560   4.2436   4.2626   4.3096   4.3114   4.3789

     the Fermi energy is     3.7867 ev

!    total energy              =   -2940.42014599 Ry
     estimated scf accuracy    <       0.00000004 Ry
     smearing contrib. (-TS)   =      -0.03734262 Ry
     internal energy E=F+TS    =   -2940.38280337 Ry

     The total energy is F=E-TS. E is the sum of the following terms:
     one-electron contribution =  -23617.72401203 Ry
     hartree contribution      =   11900.67167790 Ry
     xc contribution           =    -485.97798989 Ry
     ewald contribution        =    9262.64431647 Ry
     electric field correction =       0.00320419 Ry

     convergence has been achieved in  80 iterations

     Forces acting on atoms (cartesian axes, Ry/au):

     atom    1 type  1   force =     0.00014226   -0.00014949    0.09347479
     atom    2 type  1   force =    -0.00005459   -0.00032246   -0.17811369
     atom    3 type  2   force =     0.00009543   -0.00033204   -0.02052746
     atom    4 type  2   force =     0.00002509   -0.00189842    0.05841996
     atom    5 type  2   force =    -0.01038291   -0.00109417    0.00773116
     atom    6 type  2   force =     0.01183507   -0.00048315    0.00668373
     atom    7 type  1   force =    -0.00029283    0.00214471   -0.01417762
     atom    8 type  1   force =     0.00033214    0.00051086   -0.00324632
     atom    9 type  2   force =    -0.00006728    0.00009324   -0.00001481
     atom   10 type  2   force =    -0.00246801    0.00082088    0.00007144
     atom   11 type  2   force =    -0.00017328   -0.00028693    0.00030950
     atom   12 type  2   force =    -0.00012253   -0.00014025   -0.00055311
     atom   13 type  1   force =    -0.00001791   -0.00006934   -0.00000140
     atom   14 type  1   force =     0.00009067    0.00018447    0.00008522
     atom   15 type  2   force =     0.00030219    0.00005433   -0.00026316
     atom   16 type  2   force =     0.00027886   -0.00000502   -0.00005724
     atom   17 type  2   force =     0.00017603   -0.00015618   -0.00052168
     atom   18 type  2   force =     0.00020368    0.00034694   -0.00006725
     atom   19 type  1   force =    -0.00001986    0.00005788   -0.00006754
     atom   20 type  1   force =    -0.00064793    0.00028411   -0.00027743
     atom   21 type  2   force =     0.00010075    0.00000057    0.10389041
     atom   22 type  2   force =     0.00045111    0.00050891    0.00004200
     atom   23 type  2   force =    -0.07039197   -0.00011532   -0.02693828
     atom   24 type  2   force =     0.07036918    0.00034970   -0.02698616
     atom   25 type  1   force =     0.00020470   -0.00015632    0.09276648
     atom   26 type  1   force =    -0.00009742   -0.00030069   -0.17832108
     atom   27 type  2   force =     0.00012875   -0.00023871   -0.01952807
     atom   28 type  2   force =     0.00007265   -0.00167541    0.05800097
     atom   29 type  2   force =    -0.01079797   -0.00122413    0.00800333
     atom   30 type  2   force =     0.01213799   -0.00084040    0.00704110
     atom   31 type  1   force =    -0.00035072    0.00574786   -0.01493488
     atom   32 type  1   force =     0.00039121   -0.00107680   -0.00336710
     atom   33 type  2   force =    -0.00030951    0.00005464   -0.00019949
     atom   34 type  2   force =    -0.00155375   -0.00229795    0.00040848
     atom   35 type  2   force =    -0.00007752    0.00013881   -0.00002593
     atom   36 type  2   force =     0.00009599    0.00010307    0.00013100
     atom   37 type  1   force =     0.00024608   -0.00002690   -0.00004032
     atom   38 type  1   force =     0.00004631    0.00013347   -0.00014157
     atom   39 type  2   force =     0.00010603    0.00017764    0.00009674
     atom   40 type  2   force =     0.00014232    0.00001345   -0.00004125
     atom   41 type  2   force =    -0.00002731    0.00018771   -0.00000676
     atom   42 type  2   force =     0.00038749   -0.00000082    0.00016605
     atom   43 type  1   force =    -0.00026913    0.00020653    0.00034865
     atom   44 type  1   force =    -0.00023888   -0.00022636   -0.00010818
     atom   45 type  2   force =     0.00009610   -0.00002163    0.10381671
     atom   46 type  2   force =    -0.07039172   -0.00004413   -0.02691822
     atom   47 type  2   force =     0.07034692    0.00036991   -0.02694755
     atom   48 type  3   force =    -0.00109307    0.00070106    0.00045255
     atom   49 type  4   force =    -0.00268433    0.00505161   -0.00588852
     atom   50 type  5   force =     0.00346430   -0.00494571    0.00566545
     atom   51 type  3   force =    -0.00108677    0.00038821   -0.00060677
     atom   52 type  5   force =     0.00022139   -0.00041827   -0.00023006
     atom   53 type  5   force =     0.00098404    0.00117972    0.00019802
     atom   54 type  5   force =     0.00014246   -0.00126328    0.00131515

     Total force =     0.366227     Total SCF correction =     0.000312
  @ DRIVER MODE: Message from server: STATUS
  @ DRIVER MODE: Message from server: GETFORCE
  @ DRIVER MODE: Returning v,forces,stress,ensemble

     Writing output data file ./calc.save/
  @ DRIVER MODE: Message from server: EXIT
  @ DRIVE MODE: Exiting

     General routines

     Parallel routines

   This run was terminated on:  21:55:41  23Aug2021

   JOB DONE.