     Program PWSCF v.6.7GPU starts on 24Aug2021 at 18:18: 2

     R & G space division:  proc/nbgrp/npool/nimage =      72
     Reading input from /storage/home/hcoda1/3/ntian30/research/carbon/CH2_vib/ads_slab/CH2NHHH_a/out_0022/pw.inp
Warning: card &CELL ignored
Warning: card   CELL_DYNAMICS='IPI', ignored
Warning: card / ignored

     Current dimensions of program PWSCF are:
     Max number of different atomic species (ntypx) = 10
     Max number of k-points (npk) =  40000
     Max angular momentum in pseudopotentials (lmaxx) =  3
     Presently no symmetry can be used with electric field

     Message from routine cell_base_init:
     DEPRECATED: use true lattice parameter, not A to a.u. conversion factor

     IMPORTANT: XC functional enforced from input :
     Exchange-correlation= BEEF-VDW
                           (   1   4  43  14   2   0   0)
     Any further DFT definition will be discarded
     Please, verify this is what you really want

  @ DRIVER MODE: Connecting to
 qe_1139763_2641440.sched-torque.pace.gatech.edusu_c5q9t_scratch
  using UNIX socket
  @ DRIVER MODE: Message from server: STATUS
  @ DRIVER MODE: Message from server: INIT
  @ DRIVER MODE: Receiving replica           0          -1
  @ DRIVER MODE: Receiving encoded integer          25
  @ DRIVER MODE:  SCF:  T  FORCE:  T  STRESS:  F  VC:  F  ENSEMBLE:  F
  @ DRIVER MODE:  SCF:  T  FORCE:  T  STRESS:  F  VC:  F  ENSEMBLE:  F

     Using Slab Decomposition

     bravais-lattice index     =            0
     lattice parameter (alat)  =       1.8897  a.u.
     unit-cell volume          =    6658.9804 (a.u.)^3
     number of atoms/cell      =           54
     number of atomic types    =            5
     number of electrons       =       392.00
     number of Kohn-Sham states=          206
     kinetic-energy cutoff     =      29.3995  Ry
     charge density cutoff     =     293.9946  Ry
     scf convergence threshold =      7.3E-08
     mixing beta               =       0.0500
     number of iterations used =            8  plain     mixing
     Exchange-correlation= BEEF-VDW
                           (   1   4  43  14   2   0   0)

     celldm(1)=   1.889726  celldm(2)=   0.000000  celldm(3)=   0.000000
     celldm(4)=   0.000000  celldm(5)=   0.000000  celldm(6)=   0.000000

     crystal axes: (cart. coord. in units of alat)
               a(1) = (   6.579727   0.000000   0.000000 )
               a(2) = (  -0.000775   5.961596   0.000000 )
               a(3) = (   0.000000   0.000000  25.155947 )

     reciprocal axes: (cart. coord. in units 2 pi/alat)
               b(1) = (  0.151982  0.000020  0.000000 )
               b(2) = (  0.000000  0.167740  0.000000 )
               b(3) = (  0.000000  0.000000  0.039752 )

     PseudoPot. # 1 for Ti read from file:
     /storage/coda1/p-amedford6/0/shared/rich_project_chbe-medford/medford-share/data/pseudos_module/espresso/nninc/pbe/van/Ti.UPF
     MD5 check sum: 8e4df49b7f0d34bbd5052bf3f5ea0213
     Pseudo is Ultrasoft, Zval = 12.0
     Generated by new atomic code, or converted to UPF format
     Using radial grid of  851 points,  6 beta functions with:
                l(1) =   0
                l(2) =   0
                l(3) =   1
                l(4) =   1
                l(5) =   2
                l(6) =   2
     Q(r) pseudized with  8 coefficients,  rinner =    1.000   1.000   1.000
                                                       1.000   1.000

     PseudoPot. # 2 for O  read from file:
     /storage/coda1/p-amedford6/0/shared/rich_project_chbe-medford/medford-share/data/pseudos_module/espresso/nninc/pbe/van/O.UPF
     MD5 check sum: 78c19812648e8988a0fe644b0f25305e
     Pseudo is Ultrasoft, Zval =  6.0
     Generated by new atomic code, or converted to UPF format
     Using radial grid of  737 points,  4 beta functions with:
                l(1) =   0
                l(2) =   0
                l(3) =   1
                l(4) =   1
     Q(r) pseudized with  8 coefficients,  rinner =    0.800   0.800   0.800

     PseudoPot. # 3 for N  read from file:
     /storage/coda1/p-amedford6/0/shared/rich_project_chbe-medford/medford-share/data/pseudos_module/espresso/nninc/pbe/van/N.UPF
     MD5 check sum: 90d10febe142ad51ac9d5be1deb811c4
     Pseudo is Ultrasoft, Zval =  5.0
     Generated by new atomic code, or converted to UPF format
     Using radial grid of  729 points,  4 beta functions with:
                l(1) =   0
                l(2) =   0
                l(3) =   1
                l(4) =   1
     Q(r) pseudized with  8 coefficients,  rinner =    0.800   0.800   0.800

     PseudoPot. # 4 for C  read from file:
     /storage/coda1/p-amedford6/0/shared/rich_project_chbe-medford/medford-share/data/pseudos_module/espresso/nninc/pbe/van/C.UPF
     MD5 check sum: 1a69bf6b8db32088f5b2163dbdb77a27
     Pseudo is Ultrasoft, Zval =  4.0
     Generated by new atomic code, or converted to UPF format
     Using radial grid of  721 points,  4 beta functions with:
                l(1) =   0
                l(2) =   0
                l(3) =   1
                l(4) =   1
     Q(r) pseudized with  8 coefficients,  rinner =    0.800   0.800   0.800

     PseudoPot. # 5 for H  read from file:
     /storage/coda1/p-amedford6/0/shared/rich_project_chbe-medford/medford-share/data/pseudos_module/espresso/nninc/pbe/van/H.UPF
     MD5 check sum: b5ee9d7bfd3a09ee7748110bda690ff7
     Pseudo is Ultrasoft, Zval =  1.0
     Generated by new atomic code, or converted to UPF format
     Using radial grid of  615 points,  1 beta functions with:
                l(1) =   0
     Q(r) pseudized with  8 coefficients,  rinner =    0.800

     atomic species   valence    mass     pseudopotential
        Ti1           12.00    47.86700     Ti( 1.00)
        O1             6.00    15.99900     O ( 1.00)
        N1             5.00    14.00700     N ( 1.00)
        C1             4.00    12.01100     C ( 1.00)
        H1             1.00     1.00800     H ( 1.00)

     No symmetry found

   Cartesian axes

     site n.     atom                  positions (alat units)
         1           Ti1 tau(   1) = (   0.0004258   2.9801865   6.0000000  )
         2           Ti1 tau(   2) = (   3.2906075   1.4906267   6.0002472  )
         3           O1  tau(   3) = (   0.0006271   0.0005054   7.9858123  )
         4           O1  tau(   4) = (   3.2906025   0.0005020   7.3038282  )
         5           O1  tau(   5) = (   4.5942328   1.4918067   9.2879030  )
         6           O1  tau(   6) = (   1.9868534   1.4903216   9.2879459  )
         7           Ti1 tau(   7) = (   3.2907910   2.8959150   9.1758416  )
         8           Ti1 tau(   8) = (   0.0015273   1.4827037   9.2680791  )
         9           O1  tau(   9) = (   3.2947057   0.0061428  11.3716447  )
        10           O1  tau(  10) = (   0.0116148   5.9584955  10.6183126  )
        11           O1  tau(  11) = (   1.2915649   1.4936813  12.6925814  )
        12           O1  tau(  12) = (   5.2970661   1.4944705  12.6810846  )
        13           Ti1 tau(  13) = (   0.0178387   2.9746902  12.5081746  )
        14           Ti1 tau(  14) = (   3.3154821   1.4870708  12.5273966  )
        15           O1  tau(  15) = (   6.5751158   5.8850184  14.6937530  )
        16           O1  tau(  16) = (   3.3021755   5.9482827  13.9948957  )
        17           O1  tau(  17) = (   4.5403780   1.5298489  16.1548813  )
        18           O1  tau(  18) = (   2.0255877   1.5226301  16.1187562  )
        19           Ti1 tau(  19) = (   3.2919084   3.0021400  15.7465462  )
        20           Ti1 tau(  20) = (   0.0121818   1.3098915  15.8601907  )
        21           O1  tau(  21) = (   3.2904802   0.0005063   4.7018136  )
        22           O1  tau(  22) = (   6.5726150   0.1553292  17.2405045  )
        23           O1  tau(  23) = (   1.3043587   1.4918075   6.0039043  )
        24           O1  tau(  24) = (   5.2767064   1.4903225   6.0039473  )
        25           Ti1 tau(  25) = (   0.0000382   5.9609847   6.0000000  )
        26           Ti1 tau(  26) = (   3.2902200   4.4714249   6.0002472  )
        27           O1  tau(  27) = (   0.0002396   2.9813036   7.9858123  )
        28           O1  tau(  28) = (   3.2902150   2.9813002   7.3038282  )
        29           O1  tau(  29) = (   4.5938453   4.4726049   9.2879030  )
        30           O1  tau(  30) = (   1.9864658   4.4711199   9.2879459  )
        31           Ti1 tau(  31) = (   3.2891106   5.8743827   9.1763621  )
        32           Ti1 tau(  32) = (   0.0006254   4.4649316   9.2693709  )
        33           O1  tau(  33) = (   3.2927311   2.9710310  11.3658552  )
        34           O1  tau(  34) = (   0.0092240   2.9805883  10.6323155  )
        35           O1  tau(  35) = (   1.2954064   4.4636889  12.6531092  )
        36           O1  tau(  36) = (   5.2951753   4.4642890  12.6444158  )
        37           Ti1 tau(  37) = (   0.0208150   5.9452171  12.5004641  )
        38           Ti1 tau(  38) = (   3.3163264   4.4646888  12.5160798  )
        39           O1  tau(  39) = (   6.5606049   3.0383603  14.9590055  )
        40           O1  tau(  40) = (   3.3003749   3.0012653  13.9593002  )
        41           O1  tau(  41) = (   4.5325621   4.4784225  16.2386555  )
        42           O1  tau(  42) = (   2.0180351   4.4745910  16.2101397  )
        43           Ti1 tau(  43) = (   3.2993765   0.0184524  15.7908042  )
        44           Ti1 tau(  44) = (   0.0223033   4.5207704  16.0490861  )
        45           O1  tau(  45) = (   3.2900926   2.9813045   4.7018136  )
        46           O1  tau(  46) = (   1.3039711   4.4726057   6.0039043  )
        47           O1  tau(  47) = (   5.2763189   4.4711207   6.0039473  )
        48           N1  tau(  48) = (   6.4337409   3.4053151  18.1409392  )
        49           C1  tau(  49) = (   1.0285230   3.1422446  19.0018829  )
        50           H1  tau(  50) = (   0.7475518   3.0234394  20.0507379  )
        51           H1  tau(  51) = (   1.7227964   3.9844885  18.9089305  )
        52           H1  tau(  52) = (   5.9280473   4.2150708  18.4935385  )
        53           H1  tau(  53) = (   5.7900178   2.6175148  18.1880975  )
        54           H1  tau(  54) = (   1.5159085   2.2300880  18.6641165  )

     number of k points=    10  Fermi-Dirac smearing, width (Ry)=  0.0073
                       cart. coord. in units 2pi/alat
        k(    1) = (   0.0000000   0.0000000   0.0000000), wk =   0.1250000
        k(    2) = (   0.0000000   0.0419351   0.0000000), wk =   0.2500000
        k(    3) = (   0.0000000  -0.0838702   0.0000000), wk =   0.1250000
        k(    4) = (   0.0379955   0.0000049   0.0000000), wk =   0.2500000
        k(    5) = (   0.0379955   0.0419400   0.0000000), wk =   0.2500000
        k(    6) = (   0.0379955  -0.0838652   0.0000000), wk =   0.2500000
        k(    7) = (   0.0379955  -0.0419301   0.0000000), wk =   0.2500000
        k(    8) = (  -0.0759910  -0.0000099   0.0000000), wk =   0.1250000
        k(    9) = (  -0.0759910   0.0419252   0.0000000), wk =   0.2500000
        k(   10) = (  -0.0759910  -0.0838800   0.0000000), wk =   0.1250000

     Initial potential from superposition of free atoms

     starting charge  375.99915, renormalised to  392.00000

     negative rho (up, down):  1.645E-02 0.000E+00

     %%%%%%%%%%%%%%%%%%%%%%%%%%%%%%%%%%%%%%%%%%%%%%%%%%%%%%%%%%%%%%%%%%%%%%%%
     %                                                                      %
     % You are using vdW-DF, which was implemented by the Thonhauser group. %
     % Please cite the following two papers that made this development      %
     % possible and the two reviews that describe the various versions:     %
     %                                                                      %
     %   T. Thonhauser et al., PRL 115, 136402 (2015).                      %
     %   T. Thonhauser et al., PRB 76, 125112 (2007).                       %
     %   K. Berland et al., Rep. Prog. Phys. 78, 066501 (2015).             %
     %   D.C. Langreth et al., J. Phys.: Condens. Matter 21, 084203 (2009). %
     %                                                                      %
     %                                                                      %
     % If you are calculating the stress with vdW-DF, please also cite:     %
     %                                                                      %
     %   R. Sabatini et al., J. Phys.: Condens. Matter 24, 424209 (2012).   %
     %                                                                      %
     %%%%%%%%%%%%%%%%%%%%%%%%%%%%%%%%%%%%%%%%%%%%%%%%%%%%%%%%%%%%%%%%%%%%%%%%

     Adding external electric field

     Computed dipole along edir(3) :
        Dipole               -7.5123 Ry au,        -19.0944 Debye
        Dipole field         -0.0142 Ry au,

        Potential amp.        1.3142 Ry
        Total length         46.3494 bohr

     Starting wfcs are  297 atomic wfcs
  @ DRIVER MODE: Message from server: STATUS
  @ DRIVER MODE: Message from server: POSDATA
  @ DRIVER MODE: Reading and sharing cell
  @ DRIVER MODE: Reading and sharing positions
  @ DRIVER MODE: Received positions

     Self-consistent Calculation

     iteration #  1     ecut=    29.40 Ry     beta= 0.05
     Davidson diagonalization with overlap
     c_bands:  1 eigenvalues not converged
     c_bands:  1 eigenvalues not converged
     c_bands:  2 eigenvalues not converged
     c_bands:  1 eigenvalues not converged
     c_bands:  1 eigenvalues not converged
     c_bands:  1 eigenvalues not converged
     ethr =  1.00E-05,  avg # of iterations = 19.3

[...]

     total energy              =   -2681.20431351 Ry
     estimated scf accuracy    <    2661.15079670 Ry

[...]

     iteration #  3     ecut=    29.40 Ry     beta= 0.05
     Davidson diagonalization with overlap
     ethr =  1.00E-02,  avg # of iterations = 13.8

[...]

     iteration # 81     ecut=    29.40 Ry     beta= 0.05
     Davidson diagonalization with overlap
     c_bands:  1 eigenvalues not converged
     ethr =  4.06E-11,  avg # of iterations = 13.2

[...]

     total energy              =   -2921.63248624 Ry
     estimated scf accuracy    <       0.00000012 Ry

     iteration # 82     ecut=    29.40 Ry     beta= 0.05
     Davidson diagonalization with overlap
     ethr =  2.97E-11,  avg # of iterations = 11.8

     negative rho (up, down):  1.722E-02 0.000E+00

     Adding external electric field

     Computed dipole along edir(3) :
        Dipole                1.3035 Ry au,          3.3132 Debye
        Dipole field          0.0025 Ry au,

        Potential amp.       -0.2280 Ry
        Total length         46.3494 bohr

     End of self-consistent calculation

          k = 0.0000 0.0000 0.0000 ( 18029 PWs)   bands (ev):

   -55.4310 -55.3940 -55.3814 -55.3565 -55.3472 -55.3138 -55.3088 -55.2744
   -55.2480 -55.2313 -55.2135 -55.2123 -55.1787 -55.0995 -54.4092 -54.3751
   -32.0005 -31.8862 -31.8738 -31.7976 -31.7482 -31.7380 -31.7356 -31.7184
   -31.6735 -31.6702 -31.6415 -31.6393 -31.6262 -31.6192 -31.6012 -31.5942
   -31.5865 -31.5744 -31.5691 -31.5459 -31.5341 -31.5303 -31.5023 -31.4952
   -31.4865 -31.4787 -31.4745 -31.4505 -31.4394 -31.4387 -31.4309 -31.4121
   -31.4114 -31.4052 -31.3991 -31.3959 -31.3622 -31.3529 -31.3407 -31.3237
   -31.3053 -31.2954 -30.8186 -30.7245 -30.7024 -30.6349 -30.5481 -30.4373
   -16.2940 -16.1620 -15.9758 -15.8312 -15.7487 -15.6292 -15.5179 -15.5039
   -15.3634 -15.2818 -15.1660 -15.1412 -15.1120 -15.0897 -15.0815 -15.0643
   -14.9732 -14.9684 -14.9562 -14.9236 -14.9225 -14.8782 -14.8677 -14.8256
   -14.8044 -14.8022 -14.6824 -14.5887 -14.5165 -14.2879 -12.9119 -12.7944
   -10.1999  -6.3102  -4.8149  -3.9360  -3.6098  -3.4516  -3.3685  -3.3333
    -3.3217  -3.1904  -3.0533  -2.9047  -2.8536  -2.8178  -2.7231  -2.6464
    -2.6389  -2.6196  -2.4656  -2.4306  -2.3862  -2.3374  -2.2993  -2.2411
    -2.2205  -2.2119  -2.1996  -2.1820  -2.1735  -2.0563  -1.9999  -1.9162
    -1.8572  -1.8343  -1.7840  -1.7638  -1.7438  -1.7200  -1.7107  -1.6698
    -1.6449  -1.6247  -1.5713  -1.4600  -1.3561  -1.3056  -1.1869  -1.0656
    -1.0287  -1.0167  -0.9646  -0.9378  -0.9160  -0.8590  -0.8072  -0.7778
    -0.7224  -0.6628  -0.6015  -0.5518  -0.4786  -0.4754  -0.4163  -0.3673
    -0.2465  -0.2138  -0.1969  -0.1693  -0.0785  -0.0403   0.0034   0.0835
     0.0947   0.1141   0.2076   0.2183   0.2923   0.3407   0.3574   0.4509
     0.4856   0.4981   0.5027   0.5249   0.5549   0.6047   0.6466   0.6731
     0.7399   0.8663   1.0789   1.1596   1.1838   1.5097   1.5197   1.6135
     1.7972   2.1892   2.2373   3.6667   3.7374   3.8130   3.8195   3.8321
     3.9051   4.1395   4.1632   4.1709   4.1776   4.1984

[...]

          k = 0.0380-0.0419 0.0000 ( 17876 PWs)   bands (ev):

[...]

          k =-0.0760-0.0000 0.0000 ( 17886 PWs)   bands (ev):

[...]

          k =-0.0760-0.0839 0.0000 ( 17948 PWs)   bands (ev):

   -55.4169 -55.4080 -55.3645 -55.3639 -55.3551 -55.3102 -55.2929 -55.2903
   -55.2348 -55.2324 -55.2287 -55.1960 -55.1952 -55.1008 -54.3923 -54.3919
   -31.8076 -31.8037 -31.8005 -31.7180 -31.6921 -31.6892 -31.6886 -31.6557
   -31.6553 -31.6400 -31.6334 -31.6306 -31.6240 -31.6022 -31.5867 -31.5700
   -31.5658 -31.5636 -31.5617 -31.5567 -31.5566 -31.5536 -31.5107 -31.5087
   -31.5056 -31.5018 -31.4993 -31.4861 -31.4844 -31.4839 -31.4819 -31.4654
   -31.4619 -31.4460 -31.4422 -31.4283 -31.4253 -31.4230 -31.3770 -31.3769
   -31.3711 -31.3100 -30.7152 -30.7149 -30.6312 -30.6309 -30.5916 -30.5915
   -16.1324 -15.7820 -15.6955 -15.6397 -15.4642 -15.4363 -15.4222 -15.4026
   -15.2736 -15.2479 -15.2222 -15.1998 -15.1788 -15.1411 -15.1334 -15.1288
   -15.0509 -15.0378 -15.0322 -15.0175 -14.9482 -14.9392 -14.9353 -14.9291
   -14.8788 -14.8750 -14.8323 -14.7813 -14.7781 -14.5641 -12.8959 -12.8959
   -10.2031  -6.2807  -4.8116  -3.8990  -2.9652  -2.9354  -2.8962  -2.8954
    -2.6804  -2.6427  -2.6072  -2.5834  -2.4918  -2.4494  -2.4306  -2.4298
    -2.3555  -2.3353  -2.3234  -2.2720  -2.2670  -2.2552  -2.2317  -2.1996
    -2.1739  -2.1594  -2.1496  -2.1313  -2.0877  -2.0738  -2.0539  -2.0335
    -2.0277  -2.0146  -1.9859  -1.9462  -1.8155  -1.8043  -1.7437  -1.6362
    -1.6313  -1.5562  -1.5457  -1.5008  -1.4874  -1.4627  -1.4280  -1.2487
    -1.2066  -1.1757  -1.1662  -1.1118  -1.0358  -1.0191  -0.9564  -0.9350
    -0.9169  -0.8121  -0.7690  -0.7541  -0.6640  -0.6554  -0.5726  -0.5222
    -0.4623  -0.4365  -0.4013  -0.3858  -0.3838  -0.3360  -0.3303  -0.2465
    -0.2007  -0.1645  -0.1510  -0.1188   0.0800   0.0870   0.1094   0.2552
     0.2744   0.4102   0.4373   0.4886   0.5684   0.6015   0.6823   0.7151
     0.8441   0.8752   0.8778   0.9474   0.9617   1.0238   1.0342   1.9702
     1.9709   2.0573   2.0576   3.8175   3.9092   3.9292   3.9718   4.0849
     4.1591   4.1840   4.2057   4.2549   4.2560   4.3173

     the Fermi energy is     3.7306 ev

!    total energy              =   -2921.63249288 Ry
     estimated scf accuracy    <       0.00000007 Ry
     smearing contrib. (-TS)   =      -0.03702515 Ry
     internal energy E=F+TS    =   -2921.59546773 Ry

     The total energy is F=E-TS. E is the sum of the following terms:
     one-electron contribution =  -24082.12932743 Ry
     hartree contribution      =   12130.20440596 Ry
     xc contribution           =    -481.75547132 Ry
     ewald contribution        =    9512.08171859 Ry
     electric field correction =       0.00320646 Ry

     convergence has been achieved in  82 iterations

     Forces acting on atoms (cartesian axes, Ry/au):

     atom    1 type  1   force =     0.00005169   -0.00024521    0.09320467
     atom    2 type  1   force =    -0.00012736   -0.00044294   -0.17823655
     atom    3 type  2   force =     0.00001987   -0.00039857   -0.02023228
     atom    4 type  2   force =    -0.00001287   -0.00187961    0.05853819
     atom    5 type  2   force =    -0.00994597   -0.00082904    0.00749475
     atom    6 type  2   force =     0.01146310   -0.00027661    0.00679105
     atom    7 type  1   force =    -0.00038954    0.00194580   -0.01463325
     atom    8 type  1   force =     0.00011246   -0.00011029   -0.00501489
     atom    9 type  2   force =    -0.00011757   -0.00005306    0.00001234
     atom   10 type  2   force =    -0.00118011    0.00219177   -0.00032752
     atom   11 type  2   force =    -0.00000492   -0.00019315    0.00007607
     atom   12 type  2   force =     0.00058105   -0.00051083    0.00013404
     atom   13 type  1   force =    -0.00071944    0.00034315   -0.00033870
     atom   14 type  1   force =    -0.00000646   -0.00059693    0.00005651
     atom   15 type  2   force =     0.00003533   -0.00056242   -0.00039548
     atom   16 type  2   force =     0.00023693    0.00060227    0.00049012
     atom   17 type  2   force =     0.00007976   -0.00054710    0.00032792
     atom   18 type  2   force =     0.00013070   -0.00010511    0.00033863
     atom   19 type  1   force =     0.00006636   -0.00031949    0.00178561
     atom   20 type  1   force =    -0.00022823    0.00048387    0.00020639
     atom   21 type  2   force =     0.00001062   -0.00009661    0.10393161
     atom   22 type  2   force =     0.00019587   -0.00017284    0.00060731
     atom   23 type  2   force =    -0.07048860   -0.00017723   -0.02693646
     atom   24 type  2   force =     0.07030845    0.00026366   -0.02697803
     atom   25 type  1   force =    -0.00001153   -0.00016095    0.09271300
     atom   26 type  1   force =    -0.00020524   -0.00049106   -0.17825388
     atom   27 type  2   force =     0.00007318   -0.00025117   -0.01929002
     atom   28 type  2   force =     0.00001632   -0.00165712    0.05788922
     atom   29 type  2   force =    -0.01051913   -0.00097897    0.00819093
     atom   30 type  2   force =     0.01192090   -0.00053552    0.00741864
     atom   31 type  1   force =    -0.00033945    0.00604640   -0.01542241
     atom   32 type  1   force =     0.00011627   -0.00039219   -0.00543513
     atom   33 type  2   force =     0.00030892   -0.00010033   -0.00031514
     atom   34 type  2   force =    -0.00063666   -0.00204832   -0.00050929
     atom   35 type  2   force =    -0.00038668   -0.00002518    0.00024660
     atom   36 type  2   force =     0.00065703   -0.00007252   -0.00003129
     atom   37 type  1   force =    -0.00035545   -0.00023651    0.00026577
     atom   38 type  1   force =     0.00001939    0.00041897   -0.00003048
     atom   39 type  2   force =     0.00022697   -0.00009952    0.00018059
     atom   40 type  2   force =     0.00017245    0.00025967    0.00009033
     atom   41 type  2   force =    -0.00041368    0.00027600   -0.00009939
     atom   42 type  2   force =     0.00043636    0.00087198   -0.00017401
     atom   43 type  1   force =     0.00045910    0.00060035    0.00021548
     atom   44 type  1   force =     0.00051292    0.00048761    0.00020991
     atom   45 type  2   force =     0.00001919   -0.00009510    0.10390212
     atom   46 type  2   force =    -0.07045834   -0.00013103   -0.02688852
     atom   47 type  2   force =     0.07029632    0.00029065   -0.02693955
     atom   48 type  3   force =    -0.00020803   -0.00170653    0.00052442
     atom   49 type  4   force =     0.00535546    0.00687278   -0.00079849
     atom   50 type  5   force =    -0.00051732    0.00023643    0.00047989
     atom   51 type  5   force =    -0.00526127   -0.00785986    0.00086788
     atom   52 type  5   force =    -0.00090615   -0.00040439    0.00019635
     atom   53 type  5   force =    -0.00093331    0.00048103   -0.00018646
     atom   54 type  5   force =     0.00049036    0.00209093    0.00008089

     Total force =     0.366287     Total SCF correction =     0.001236
  @ DRIVER MODE: Message from server: STATUS
  @ DRIVER MODE: Message from server: GETFORCE
  @ DRIVER MODE: Returning v,forces,stress,ensemble

     Writing output data file ./calc.save/
  @ DRIVER MODE: Message from server: EXIT
  @ DRIVE MODE: Exiting

     General routines

     Parallel routines

   This run was terminated on:  18:40:30  24Aug2021

   JOB DONE.