     Program PWSCF v.6.7GPU starts on 23Aug2021 at 15: 4:54

     R & G space division:  proc/nbgrp/npool/nimage =       6
     Reading input from /storage/home/hcoda1/3/ntian30/research/carbon/CH_vib/ads_slab/CHNHH_a/out_0005/pw.inp
Warning: card &CELL ignored
Warning: card   CELL_DYNAMICS='IPI', ignored
Warning: card / ignored

     Current dimensions of program PWSCF are:
     Max number of different atomic species (ntypx) = 10
     Max number of k-points (npk) =  40000
     Max angular momentum in pseudopotentials (lmaxx) =  3
     Presently no symmetry can be used with electric field

     Message from routine cell_base_init:
     DEPRECATED: use true lattice parameter, not A to a.u. conversion factor

     IMPORTANT: XC functional enforced from input :
     Exchange-correlation= BEEF-VDW
                           (   1   4  43  14   2   0   0)
     Any further DFT definition will be discarded
     Please, verify this is what you really want

  @ DRIVER MODE: Connecting to
 qe_1139763_2632797.sched-torque.pace.gatech.educ0dpztue_scratch
  using UNIX socket
  @ DRIVER MODE: Message from server: STATUS
  @ DRIVER MODE: Message from server: INIT
  @ DRIVER MODE: Receiving replica           0          -1
  @ DRIVER MODE: Receiving encoded integer          25
  @ DRIVER MODE:  SCF:  T  FORCE:  T  STRESS:  F  VC:  F  ENSEMBLE:  F
  @ DRIVER MODE:  SCF:  T  FORCE:  T  STRESS:  F  VC:  F  ENSEMBLE:  F

     Using Slab Decomposition

     bravais-lattice index     =            0
     lattice parameter (alat)  =       1.8897  a.u.
     unit-cell volume          =    6658.9804 (a.u.)^3
     number of atoms/cell      =           52
     number of atomic types    =            5
     number of electrons       =       390.00
     number of Kohn-Sham states=          205
     kinetic-energy cutoff     =      29.3995  Ry
     charge density cutoff     =     293.9946  Ry
     scf convergence threshold =      7.3E-08
     mixing beta               =       0.0500
     number of iterations used =            8  plain     mixing
     Exchange-correlation= BEEF-VDW
                           (   1   4  43  14   2   0   0)

     celldm(1)=   1.889726  celldm(2)=   0.000000  celldm(3)=   0.000000
     celldm(4)=   0.000000  celldm(5)=   0.000000  celldm(6)=   0.000000

     crystal axes: (cart. coord. in units of alat)
               a(1) = (   6.579727   0.000000   0.000000 )
               a(2) = (  -0.000775   5.961596   0.000000 )
               a(3) = (   0.000000   0.000000  25.155947 )

     reciprocal axes: (cart. coord. in units 2 pi/alat)
               b(1) = (  0.151982  0.000020  0.000000 )
               b(2) = (  0.000000  0.167740  0.000000 )
               b(3) = (  0.000000  0.000000  0.039752 )

     PseudoPot. # 1 for Ti read from file:
     /storage/coda1/p-amedford6/0/shared/rich_project_chbe-medford/medford-share/data/pseudos_module/espresso/nninc/pbe/van/Ti.UPF
     MD5 check sum: 8e4df49b7f0d34bbd5052bf3f5ea0213
     Pseudo is Ultrasoft, Zval = 12.0
     Generated by new atomic code, or converted to UPF format
     Using radial grid of  851 points,  6 beta functions with:
                l(1) =   0
                l(2) =   0
                l(3) =   1
                l(4) =   1
                l(5) =   2
                l(6) =   2
     Q(r) pseudized with  8 coefficients,  rinner =    1.000   1.000   1.000
                                                       1.000   1.000

     PseudoPot. # 2 for O  read from file:
     /storage/coda1/p-amedford6/0/shared/rich_project_chbe-medford/medford-share/data/pseudos_module/espresso/nninc/pbe/van/O.UPF
     MD5 check sum: 78c19812648e8988a0fe644b0f25305e
     Pseudo is Ultrasoft, Zval =  6.0
     Generated by new atomic code, or converted to UPF format
     Using radial grid of  737 points,  4 beta functions with:
                l(1) =   0
                l(2) =   0
                l(3) =   1
                l(4) =   1
     Q(r) pseudized with  8 coefficients,  rinner =    0.800   0.800   0.800

     PseudoPot. # 3 for N  read from file:
     /storage/coda1/p-amedford6/0/shared/rich_project_chbe-medford/medford-share/data/pseudos_module/espresso/nninc/pbe/van/N.UPF
     MD5 check sum: 90d10febe142ad51ac9d5be1deb811c4
     Pseudo is Ultrasoft, Zval =  5.0
     Generated by new atomic code, or converted to UPF format
     Using radial grid of  729 points,  4 beta functions with:
                l(1) =   0
                l(2) =   0
                l(3) =   1
                l(4) =   1
     Q(r) pseudized with  8 coefficients,  rinner =    0.800   0.800   0.800

     PseudoPot. # 4 for C  read from file:
     /storage/coda1/p-amedford6/0/shared/rich_project_chbe-medford/medford-share/data/pseudos_module/espresso/nninc/pbe/van/C.UPF
     MD5 check sum: 1a69bf6b8db32088f5b2163dbdb77a27
     Pseudo is Ultrasoft, Zval =  4.0
     Generated by new atomic code, or converted to UPF format
     Using radial grid of  721 points,  4 beta functions with:
                l(1) =   0
                l(2) =   0
                l(3) =   1
                l(4) =   1
     Q(r) pseudized with  8 coefficients,  rinner =    0.800   0.800   0.800

     PseudoPot. # 5 for H  read from file:
     /storage/coda1/p-amedford6/0/shared/rich_project_chbe-medford/medford-share/data/pseudos_module/espresso/nninc/pbe/van/H.UPF
     MD5 check sum: b5ee9d7bfd3a09ee7748110bda690ff7
     Pseudo is Ultrasoft, Zval =  1.0
     Generated by new atomic code, or converted to UPF format
     Using radial grid of  615 points,  1 beta functions with:
                l(1) =   0
     Q(r) pseudized with  8 coefficients,  rinner =    0.800

     atomic species   valence    mass     pseudopotential
        Ti1           12.00    47.86700     Ti( 1.00)
        O1             6.00    15.99900     O ( 1.00)
        N1             5.00    14.00700     N ( 1.00)
        C1             4.00    12.01100     C ( 1.00)
        H1             1.00     1.00800     H ( 1.00)

     No symmetry found

   Cartesian axes

     site n.     atom                  positions (alat units)
         1           Ti1 tau(   1) = (   0.0004258   2.9801865   6.0000000  )
         2           Ti1 tau(   2) = (   3.2906075   1.4906267   6.0002472  )
         3           O1  tau(   3) = (   0.0006271   0.0005054   7.9858123  )
         4           O1  tau(   4) = (   3.2906025   0.0005020   7.3038282  )
         5           O1  tau(   5) = (   4.5942328   1.4918067   9.2879030  )
         6           O1  tau(   6) = (   1.9868534   1.4903216   9.2879459  )
         7           Ti1 tau(   7) = (   3.2907910   2.8959150   9.1758416  )
         8           Ti1 tau(   8) = (   0.0015273   1.4827037   9.2680791  )
         9           O1  tau(   9) = (   3.2768318   5.9518058  11.3501096  )
        10           O1  tau(  10) = (   0.0116148   5.9584955  10.6183126  )
        11           O1  tau(  11) = (   1.2820894   1.4890407  12.6429483  )
        12           O1  tau(  12) = (   5.2701592   1.4861355  12.6244956  )
        13           Ti1 tau(  13) = (   0.0263608   2.9732685  12.5725065  )
        14           Ti1 tau(  14) = (   3.3311081   1.4825583  12.4934812  )
        15           O1  tau(  15) = (   6.5448050   0.0382128  14.6485099  )
        16           O1  tau(  16) = (   3.2835306   5.9556129  13.9684075  )
        17           O1  tau(  17) = (   4.5065730   1.5084740  16.1486978  )
        18           O1  tau(  18) = (   2.0110176   1.4968469  16.1316129  )
        19           Ti1 tau(  19) = (   3.2365874   2.9692752  15.7101938  )
        20           Ti1 tau(  20) = (   6.5183500   1.5288441  15.9766389  )
        21           O1  tau(  21) = (   3.2904802   0.0005063   4.7018136  )
        22           O1  tau(  22) = (   6.5552815   5.8936090  17.2115513  )
        23           O1  tau(  23) = (   1.3043587   1.4918075   6.0039043  )
        24           O1  tau(  24) = (   5.2767064   1.4903225   6.0039473  )
        25           Ti1 tau(  25) = (   0.0000382   5.9609847   6.0000000  )
        26           Ti1 tau(  26) = (   3.2902200   4.4714249   6.0002472  )
        27           O1  tau(  27) = (   0.0002396   2.9813036   7.9858123  )
        28           O1  tau(  28) = (   3.2902150   2.9813002   7.3038282  )
        29           O1  tau(  29) = (   4.5938453   4.4726049   9.2879030  )
        30           O1  tau(  30) = (   1.9864658   4.4711199   9.2879459  )
        31           Ti1 tau(  31) = (   3.2891106   5.8743827   9.1763621  )
        32           Ti1 tau(  32) = (   0.0006254   4.4649316   9.2693709  )
        33           O1  tau(  33) = (   3.2825058   2.9767457  11.3441782  )
        34           O1  tau(  34) = (   0.0092240   2.9805883  10.6323155  )
        35           O1  tau(  35) = (   1.2778777   4.4660374  12.6604661  )
        36           O1  tau(  36) = (   5.2710664   4.4675109  12.6369154  )
        37           Ti1 tau(  37) = (   0.0243246   5.9574881  12.5203091  )
        38           Ti1 tau(  38) = (   3.3318591   4.4611298  12.5006215  )
        39           O1  tau(  39) = (   6.5359656   2.9584677  14.7835642  )
        40           O1  tau(  40) = (   3.2771955   2.9708399  13.9242642  )
        41           O1  tau(  41) = (   4.4981441   4.4410618  16.1740548  )
        42           O1  tau(  42) = (   2.0042129   4.4512231  16.1075086  )
        43           Ti1 tau(  43) = (   3.2538698   5.9555144  15.7617387  )
        44           Ti1 tau(  44) = (   6.5531130   4.6830099  15.9084494  )
        45           O1  tau(  45) = (   3.2900926   2.9813045   4.7018136  )
        46           O1  tau(  46) = (   1.3039711   4.4726057   6.0039043  )
        47           O1  tau(  47) = (   5.2763189   4.4711207   6.0039473  )
        48           N1  tau(  48) = (   5.6690603   3.2568973  18.6485782  )
        49           C1  tau(  49) = (   0.0091554   2.6844975  17.9068455  )
        50           H1  tau(  50) = (   0.8805123   2.3964943  18.5001670  )
        51           H1  tau(  51) = (   4.8619660   3.6873350  18.2178346  )
        52           H1  tau(  52) = (   5.8095507   3.4768026  19.6356901  )

     number of k points=    10  Fermi-Dirac smearing, width (Ry)=  0.0073
                       cart. coord. in units 2pi/alat
        k(    1) = (   0.0000000   0.0000000   0.0000000), wk =   0.1250000
        k(    2) = (   0.0000000   0.0419351   0.0000000), wk =   0.2500000
        k(    3) = (   0.0000000  -0.0838702   0.0000000), wk =   0.1250000
        k(    4) = (   0.0379955   0.0000049   0.0000000), wk =   0.2500000
        k(    5) = (   0.0379955   0.0419400   0.0000000), wk =   0.2500000
        k(    6) = (   0.0379955  -0.0838652   0.0000000), wk =   0.2500000
        k(    7) = (   0.0379955  -0.0419301   0.0000000), wk =   0.2500000
        k(    8) = (  -0.0759910  -0.0000099   0.0000000), wk =   0.1250000
        k(    9) = (  -0.0759910   0.0419252   0.0000000), wk =   0.2500000
        k(   10) = (  -0.0759910  -0.0838800   0.0000000), wk =   0.1250000

     Initial potential from superposition of free atoms

     starting charge  373.99917, renormalised to  390.00000

     negative rho (up, down):  1.783E-02 0.000E+00

     %%%%%%%%%%%%%%%%%%%%%%%%%%%%%%%%%%%%%%%%%%%%%%%%%%%%%%%%%%%%%%%%%%%%%%%%
     %                                                                      %
     % You are using vdW-DF, which was implemented by the Thonhauser group. %
     % Please cite the following two papers that made this development      %
     % possible and the two reviews that describe the various versions:     %
     %                                                                      %
     %   T. Thonhauser et al., PRL 115, 136402 (2015).                      %
     %   T. Thonhauser et al., PRB 76, 125112 (2007).                       %
     %   K. Berland et al., Rep. Prog. Phys. 78, 066501 (2015).             %
     %   D.C. Langreth et al., J. Phys.: Condens. Matter 21, 084203 (2009). %
     %                                                                      %
     %                                                                      %
     % If you are calculating the stress with vdW-DF, please also cite:     %
     %                                                                      %
     %   R. Sabatini et al., J. Phys.: Condens. Matter 24, 424209 (2012).   %
     %                                                                      %
     %%%%%%%%%%%%%%%%%%%%%%%%%%%%%%%%%%%%%%%%%%%%%%%%%%%%%%%%%%%%%%%%%%%%%%%%

     Adding external electric field

     Computed dipole along edir(3) :
        Dipole               -5.8514 Ry au,        -14.8729 Debye
        Dipole field         -0.0110 Ry au,

        Potential amp.        1.0236 Ry
        Total length         46.3494 bohr

     Starting wfcs are  295 atomic wfcs
  @ DRIVER MODE: Message from server: STATUS
  @ DRIVER MODE: Message from server: POSDATA
  @ DRIVER MODE: Reading and sharing cell
  @ DRIVER MODE: Reading and sharing positions
  @ DRIVER MODE: Received positions

     Self-consistent Calculation

     iteration #  1     ecut=    29.40 Ry     beta= 0.05
     Davidson diagonalization with overlap
     c_bands:  4 eigenvalues not converged
     c_bands:  1 eigenvalues not converged
     c_bands:  2 eigenvalues not converged
     c_bands:  2 eigenvalues not converged
     c_bands:  3 eigenvalues not converged
     c_bands:  3 eigenvalues not converged
     c_bands:  3 eigenvalues not converged
     c_bands:  3 eigenvalues not converged
     c_bands:  3 eigenvalues not converged
     c_bands:  5 eigenvalues not converged
     ethr =  1.00E-05,  avg # of iterations = 20.0

[...]

     total energy              =   -2777.15838080 Ry
     estimated scf accuracy    <    1562.24327653 Ry

     iteration #  2     ecut=    29.40 Ry     beta= 0.05
     Davidson diagonalization with overlap
     ethr =  1.00E-02,  avg # of iterations = 17.8

[...]

     iteration # 53     ecut=    29.40 Ry     beta= 0.05
     Davidson diagonalization with overlap
     c_bands:  1 eigenvalues not converged
     ethr =  2.52E-10,  avg # of iterations = 12.9

[...]

     total energy              =   -2919.04259293 Ry
     estimated scf accuracy    <       0.00000015 Ry

     iteration # 56     ecut=    29.40 Ry     beta= 0.05
     Davidson diagonalization with overlap
     ethr =  3.74E-11,  avg # of iterations =  8.1

     negative rho (up, down):  1.800E-02 0.000E+00

     Adding external electric field

     Computed dipole along edir(3) :
        Dipole                1.3910 Ry au,          3.5355 Debye
        Dipole field          0.0026 Ry au,

        Potential amp.       -0.2433 Ry
        Total length         46.3494 bohr

     End of self-consistent calculation

          k = 0.0000 0.0000 0.0000 ( 18029 PWs)   bands (ev):

   -55.5008 -55.4759 -55.4644 -55.4418 -55.4151 -55.3699 -55.3281 -55.3199
   -55.3008 -55.2938 -55.2643 -55.2624 -55.0474 -54.9418 -54.4793 -54.4453
   -32.0677 -31.9636 -31.8615 -31.8397 -31.8295 -31.7963 -31.7885 -31.7663
   -31.7562 -31.7197 -31.7155 -31.7109 -31.6773 -31.6522 -31.6424 -31.6404
   -31.6288 -31.6039 -31.5939 -31.5852 -31.5742 -31.5586 -31.5333 -31.5291
   -31.5288 -31.5084 -31.5054 -31.5009 -31.4997 -31.4906 -31.4765 -31.4611
   -31.4502 -31.4497 -31.4267 -31.4156 -31.4000 -31.3503 -31.2856 -31.1855
   -31.1759 -31.0875 -30.8876 -30.7964 -30.7742 -30.7042 -30.6176 -30.5066
   -17.0735 -16.3009 -16.0170 -15.8543 -15.7095 -15.6784 -15.5680 -15.3928
   -15.3156 -15.2402 -15.2206 -15.1408 -15.1265 -15.1121 -15.0897 -15.0305
   -15.0227 -14.9776 -14.9727 -14.9397 -14.9185 -14.8872 -14.8696 -14.8621
   -14.8095 -14.7675 -14.7037 -14.6373 -14.5822 -14.1163 -12.9820 -12.8651
    -9.4896  -7.2088  -4.6628  -3.6579  -3.4882  -3.4085  -3.3982  -3.3794
    -3.1880  -3.1121  -2.8381  -2.7429  -2.7083  -2.7017  -2.6749  -2.6184
    -2.5638  -2.4439  -2.3787  -2.3433  -2.3229  -2.3195  -2.3082  -2.2900
    -2.2788  -2.2473  -2.1775  -2.1213  -2.0459  -1.9625  -1.8870  -1.8724
    -1.8109  -1.7831  -1.7683  -1.7620  -1.7552  -1.7315  -1.7245  -1.6332
    -1.5476  -1.5051  -1.4048  -1.3818  -1.2883  -1.1545  -1.1230  -1.0193
    -1.0122  -0.9560  -0.9336  -0.8876  -0.8404  -0.8298  -0.8134  -0.6690
    -0.6024  -0.5414  -0.4828  -0.4564  -0.4377  -0.3540  -0.2845  -0.2763
    -0.2587  -0.2384  -0.0627  -0.0311  -0.0113   0.0118   0.0270   0.1165
     0.1485   0.2226   0.3019   0.3171   0.3225   0.4002   0.4234   0.4669
     0.4689   0.4961   0.5017   0.6727   0.6835   0.7098   0.7383   0.8193
     0.9043   1.1074   1.1327   1.1719   1.4585   1.5249   1.5430   1.7306
     2.1165   2.1635   3.5892   3.6941   3.7264   3.7423   3.7704   3.8395
     3.9060   4.0850   4.0920   4.1230   4.1281

[...]

          k = 0.0380-0.0419 0.0000 ( 17876 PWs)   bands (ev):

[...]

          k =-0.0760-0.0000 0.0000 ( 17886 PWs)   bands (ev):

[...]

          k =-0.0760-0.0839 0.0000 ( 17948 PWs)   bands (ev):

   -55.4850 -55.4800 -55.4592 -55.4584 -55.4118 -55.3610 -55.3369 -55.3229
   -55.2821 -55.2805 -55.2800 -55.2785 -55.0445 -54.9446 -54.4623 -54.4622
   -31.8732 -31.8692 -31.8044 -31.7792 -31.7784 -31.7671 -31.7521 -31.7512
   -31.7115 -31.7062 -31.7047 -31.6973 -31.6683 -31.6310 -31.6222 -31.6182
   -31.6178 -31.6151 -31.6111 -31.6096 -31.5995 -31.5789 -31.5782 -31.5652
   -31.5622 -31.5514 -31.5389 -31.5229 -31.5153 -31.5128 -31.4968 -31.4960
   -31.4956 -31.4942 -31.4720 -31.4590 -31.4557 -31.3548 -31.2805 -31.2047
   -31.1789 -31.1713 -30.7869 -30.7868 -30.7003 -30.7002 -30.6609 -30.6609
   -17.0686 -15.7587 -15.6968 -15.5618 -15.4800 -15.4582 -15.4458 -15.4227
   -15.2859 -15.2691 -15.2512 -15.2008 -15.1966 -15.1939 -15.1560 -15.0992
   -15.0643 -15.0617 -15.0531 -15.0275 -14.9920 -14.9868 -14.9525 -14.9439
   -14.9305 -14.8409 -14.8356 -14.8332 -14.6637 -14.3413 -12.9668 -12.9667
    -9.4943  -7.2101  -4.6452  -3.0413  -2.9678  -2.8078  -2.7051  -2.6750
    -2.6433  -2.5037  -2.4659  -2.4611  -2.4508  -2.4206  -2.3982  -2.3757
    -2.3463  -2.3326  -2.3278  -2.3106  -2.2988  -2.2861  -2.2437  -2.2002
    -2.1995  -2.1888  -2.1589  -2.1379  -2.1262  -2.0971  -2.0778  -2.0624
    -2.0486  -2.0033  -1.8264  -1.7943  -1.6962  -1.6735  -1.6645  -1.6463
    -1.5763  -1.5492  -1.5171  -1.4795  -1.4284  -1.3052  -1.2376  -1.2160
    -1.1882  -1.1784  -1.1266  -1.0033  -0.9679  -0.9452  -0.8986  -0.8620
    -0.8203  -0.8068  -0.6874  -0.6839  -0.6370  -0.5945  -0.4808  -0.4628
    -0.4534  -0.4424  -0.4280  -0.2978  -0.2881  -0.2816  -0.2639  -0.2201
    -0.2030  -0.0980  -0.0003   0.0166   0.1189   0.1696   0.2958   0.3585
     0.4536   0.5007   0.5249   0.6151   0.6518   0.7331   0.7552   0.8107
     0.8223   0.9135   0.9721   0.9911   0.9991   1.0667   1.9030   1.9039
     1.9834   1.9835   3.7499   3.8445   3.8838   3.9059   3.9517   4.1097
     4.1259   4.1734   4.1765   4.1909   4.2776

     the Fermi energy is     3.6471 ev

!    total energy              =   -2919.04265527 Ry
     estimated scf accuracy    <       0.00000006 Ry
     smearing contrib. (-TS)   =      -0.03613518 Ry
     internal energy E=F+TS    =   -2919.00652009 Ry

     The total energy is F=E-TS. E is the sum of the following terms:
     one-electron contribution =  -24481.87385965 Ry
     hartree contribution      =   12329.17740468 Ry
     xc contribution           =    -480.00253999 Ry
     ewald contribution        =    9713.68882361 Ry
     electric field correction =       0.00365126 Ry

     convergence has been achieved in  56 iterations

     Forces acting on atoms (cartesian axes, Ry/au):

     atom    1 type  1   force =     0.00010607   -0.00021172    0.09496948
     atom    2 type  1   force =    -0.00022639   -0.00036393   -0.17674240
     atom    3 type  2   force =    -0.00004622   -0.00007129   -0.02292314
     atom    4 type  2   force =    -0.00004367   -0.00167945    0.05576415
     atom    5 type  2   force =    -0.01136074   -0.00123204    0.00625423
     atom    6 type  2   force =     0.01253757   -0.00034968    0.00441766
     atom    7 type  1   force =    -0.00113849    0.00152809   -0.01374128
     atom    8 type  1   force =     0.00063397    0.00694511    0.01263437
     atom    9 type  2   force =     0.00020292   -0.00005260    0.00013838
     atom   10 type  2   force =    -0.00164115    0.00009721   -0.00995143
     atom   11 type  2   force =    -0.00020759    0.00002782    0.00016662
     atom   12 type  2   force =     0.00024340    0.00011463   -0.00005406
     atom   13 type  1   force =     0.00006107   -0.00000907    0.00018344
     atom   14 type  1   force =     0.00001507   -0.00015329    0.00017839
     atom   15 type  2   force =     0.00005936   -0.00014642    0.00013983
     atom   16 type  2   force =     0.00025239    0.00028355    0.00004462
     atom   17 type  2   force =     0.00007638   -0.00015581    0.00042260
     atom   18 type  2   force =     0.00025898    0.00011798    0.00030401
     atom   19 type  1   force =     0.00033312   -0.00002375   -0.00047172
     atom   20 type  1   force =     0.00036209   -0.00013932   -0.00045458
     atom   21 type  2   force =     0.00004426   -0.00004553    0.10360870
     atom   22 type  2   force =     0.00002804    0.00018894    0.00056134
     atom   23 type  2   force =    -0.07099753   -0.00017092   -0.02732810
     atom   24 type  2   force =     0.07084607    0.00031010   -0.02734264
     atom   25 type  1   force =    -0.00012818   -0.00020545    0.09468841
     atom   26 type  1   force =    -0.00019368   -0.00047035   -0.17690823
     atom   27 type  2   force =     0.00006795   -0.00035118   -0.02194208
     atom   28 type  2   force =     0.00003731   -0.00138953    0.05531074
     atom   29 type  2   force =    -0.01158387   -0.00009106    0.00586283
     atom   30 type  2   force =     0.01265328    0.00012682    0.00407682
     atom   31 type  1   force =    -0.00125832    0.00418560   -0.01461527
     atom   32 type  1   force =     0.00055303   -0.00777684    0.01249584
     atom   33 type  2   force =    -0.00001243    0.00009305    0.00004857
     atom   34 type  2   force =    -0.00127490    0.00083934   -0.00834342
     atom   35 type  2   force =     0.00011888    0.00020077   -0.00000275
     atom   36 type  2   force =     0.00012202    0.00004290    0.00019237
     atom   37 type  1   force =     0.00002827    0.00000003   -0.00009910
     atom   38 type  1   force =    -0.00004269   -0.00016636   -0.00021447
     atom   39 type  2   force =    -0.00019062   -0.00016995    0.00013920
     atom   40 type  2   force =     0.00023327   -0.00002556   -0.00010216
     atom   41 type  2   force =     0.00034170   -0.00005451    0.00016538
     atom   42 type  2   force =    -0.00026735    0.00006905   -0.00021750
     atom   43 type  1   force =    -0.00021786    0.00002958   -0.00007028
     atom   44 type  1   force =     0.00049639    0.00006822   -0.00054941
     atom   45 type  2   force =     0.00003232   -0.00004926    0.10357549
     atom   46 type  2   force =    -0.07100900   -0.00006579   -0.02731894
     atom   47 type  2   force =     0.07086524    0.00032971   -0.02735251
     atom   48 type  3   force =     0.00241474    0.00530383    0.02619344
     atom   49 type  4   force =     0.00487331   -0.00408136   -0.00738824
     atom   50 type  5   force =    -0.00030841    0.00016582   -0.00010113
     atom   51 type  5   force =    -0.00422151    0.00180449   -0.00540452
     atom   52 type  5   force =    -0.00252785   -0.00317061   -0.01289755

     Total force =     0.367483     Total SCF correction =     0.000638
  @ DRIVER MODE: Message from server: STATUS
  @ DRIVER MODE: Message from server: GETFORCE
  @ DRIVER MODE: Returning v,forces,stress,ensemble

     Writing output data file ./calc.save/
  @ DRIVER MODE: Message from server: EXIT
  @ DRIVE MODE: Exiting

     General routines

     Parallel routines

   This run was terminated on:  15:30: 6  23Aug2021

   JOB DONE.