     Program PWSCF v.6.7GPU starts on 23Sep2021 at 17: 5: 5

     R & G space division:  proc/nbgrp/npool/nimage =       8
     Reading input from /storage/home/hcoda1/3/ntian30/research/carbon/CxH_vib/H2O_calc/ads_slab/CH3NHNHHO_a/out_0048/pw.inp
Warning: card &CELL ignored
Warning: card   CELL_DYNAMICS='IPI', ignored
Warning: card / ignored

     Current dimensions of program PWSCF are:
     Max number of different atomic species (ntypx) = 10
     Max number of k-points (npk) =  40000
     Max angular momentum in pseudopotentials (lmaxx) =  3
     Presently no symmetry can be used with electric field

     Message from routine cell_base_init:
     DEPRECATED: use true lattice parameter, not A to a.u. conversion factor

     IMPORTANT: XC functional enforced from input :
     Exchange-correlation= BEEF-VDW
                           (   1   4  43  14   2   0   0)
     Any further DFT definition will be discarded
     Please, verify this is what you really want

  @ DRIVER MODE: Connecting to
 qe_1139763_2941006.sched-torque.pace.gatech.eduq2z2hdnp_scratch
  using UNIX socket
  @ DRIVER MODE: Message from server: STATUS
  @ DRIVER MODE: Message from server: INIT
  @ DRIVER MODE: Receiving replica           0          -1
  @ DRIVER MODE: Receiving encoded integer          25
  @ DRIVER MODE:  SCF:  T  FORCE:  T  STRESS:  F  VC:  F  ENSEMBLE:  F
  @ DRIVER MODE:  SCF:  T  FORCE:  T  STRESS:  F  VC:  F  ENSEMBLE:  F

     Using Slab Decomposition

     bravais-lattice index     =            0
     lattice parameter (alat)  =       1.8897  a.u.
     unit-cell volume          =    6658.9804 (a.u.)^3
     number of atoms/cell      =           57
     number of atomic types    =            5
     number of electrons       =       404.00
     number of Kohn-Sham states=          212
     kinetic-energy cutoff     =      29.3995  Ry
     charge density cutoff     =     293.9946  Ry
     scf convergence threshold =      7.3E-08
     mixing beta               =       0.0500
     number of iterations used =            8  plain     mixing
     Exchange-correlation= BEEF-VDW
                           (   1   4  43  14   2   0   0)

     celldm(1)=   1.889726  celldm(2)=   0.000000  celldm(3)=   0.000000
     celldm(4)=   0.000000  celldm(5)=   0.000000  celldm(6)=   0.000000

     crystal axes: (cart. coord. in units of alat)
               a(1) = (   6.579727   0.000000   0.000000 )
               a(2) = (  -0.000775   5.961596   0.000000 )
               a(3) = (   0.000000   0.000000  25.155947 )

     reciprocal axes: (cart. coord. in units 2 pi/alat)
               b(1) = (  0.151982  0.000020  0.000000 )
               b(2) = (  0.000000  0.167740  0.000000 )
               b(3) = (  0.000000  0.000000  0.039752 )

     PseudoPot. # 1 for Ti read from file:
     /storage/coda1/p-amedford6/0/shared/rich_project_chbe-medford/medford-share/data/pseudos_module/espresso/nninc/pbe/van/Ti.UPF
     MD5 check sum: 8e4df49b7f0d34bbd5052bf3f5ea0213
     Pseudo is Ultrasoft, Zval = 12.0
     Generated by new atomic code, or converted to UPF format
     Using radial grid of  851 points,  6 beta functions with:
                l(1) =   0
                l(2) =   0
                l(3) =   1
                l(4) =   1
                l(5) =   2
                l(6) =   2
     Q(r) pseudized with  8 coefficients,  rinner =    1.000   1.000   1.000
                                                       1.000   1.000

     PseudoPot. # 2 for O  read from file:
     /storage/coda1/p-amedford6/0/shared/rich_project_chbe-medford/medford-share/data/pseudos_module/espresso/nninc/pbe/van/O.UPF
     MD5 check sum: 78c19812648e8988a0fe644b0f25305e
     Pseudo is Ultrasoft, Zval =  6.0
     Generated by new atomic code, or converted to UPF format
     Using radial grid of  737 points,  4 beta functions with:
                l(1) =   0
                l(2) =   0
                l(3) =   1
                l(4) =   1
     Q(r) pseudized with  8 coefficients,  rinner =    0.800   0.800   0.800

     PseudoPot. # 3 for N  read from file:
     /storage/coda1/p-amedford6/0/shared/rich_project_chbe-medford/medford-share/data/pseudos_module/espresso/nninc/pbe/van/N.UPF
     MD5 check sum: 90d10febe142ad51ac9d5be1deb811c4
     Pseudo is Ultrasoft, Zval =  5.0
     Generated by new atomic code, or converted to UPF format
     Using radial grid of  729 points,  4 beta functions with:
                l(1) =   0
                l(2) =   0
                l(3) =   1
                l(4) =   1
     Q(r) pseudized with  8 coefficients,  rinner =    0.800   0.800   0.800

     PseudoPot. # 4 for C  read from file:
     /storage/coda1/p-amedford6/0/shared/rich_project_chbe-medford/medford-share/data/pseudos_module/espresso/nninc/pbe/van/C.UPF
     MD5 check sum: 1a69bf6b8db32088f5b2163dbdb77a27
     Pseudo is Ultrasoft, Zval =  4.0
     Generated by new atomic code, or converted to UPF format
     Using radial grid of  721 points,  4 beta functions with:
                l(1) =   0
                l(2) =   0
                l(3) =   1
                l(4) =   1
     Q(r) pseudized with  8 coefficients,  rinner =    0.800   0.800   0.800

     PseudoPot. # 5 for H  read from file:
     /storage/coda1/p-amedford6/0/shared/rich_project_chbe-medford/medford-share/data/pseudos_module/espresso/nninc/pbe/van/H.UPF
     MD5 check sum: b5ee9d7bfd3a09ee7748110bda690ff7
     Pseudo is Ultrasoft, Zval =  1.0
     Generated by new atomic code, or converted to UPF format
     Using radial grid of  615 points,  1 beta functions with:
                l(1) =   0
     Q(r) pseudized with  8 coefficients,  rinner =    0.800

     atomic species   valence    mass     pseudopotential
        Ti1           12.00    47.86700     Ti( 1.00)
        O1             6.00    15.99900     O ( 1.00)
        N1             5.00    14.00700     N ( 1.00)
        C1             4.00    12.01100     C ( 1.00)
        H1             1.00     1.00800     H ( 1.00)

     No symmetry found

   Cartesian axes

     site n.     atom                  positions (alat units)
         1           Ti1 tau(   1) = (   0.0004258   2.9801865   6.0000000  )
         2           Ti1 tau(   2) = (   3.2906075   1.4906267   6.0002472  )
         3           O1  tau(   3) = (   0.0006271   0.0005054   7.9858123  )
         4           O1  tau(   4) = (   3.2906025   0.0005020   7.3038282  )
         5           O1  tau(   5) = (   4.5942328   1.4918067   9.2879030  )
         6           O1  tau(   6) = (   1.9868534   1.4903216   9.2879459  )
         7           Ti1 tau(   7) = (   3.2907910   2.8959150   9.1758416  )
         8           Ti1 tau(   8) = (   0.0015273   1.4827037   9.2680791  )
         9           O1  tau(   9) = (   3.2953096   5.9421394  11.2884464  )
        10           O1  tau(  10) = (   0.0116148   5.9584955  10.6183126  )
        11           O1  tau(  11) = (   1.3041449   1.4755329  12.6321863  )
        12           O1  tau(  12) = (   5.3089623   1.4871430  12.6059879  )
        13           Ti1 tau(  13) = (   6.5683417   3.1096339  12.6902584  )
        14           Ti1 tau(  14) = (   3.3171551   1.3050273  12.6602886  )
        15           O1  tau(  15) = (   6.5441980   0.0188234  14.6400653  )
        16           O1  tau(  16) = (   3.3305379   0.0354930  13.9003223  )
        17           O1  tau(  17) = (   4.5569828   1.5958521  16.0354584  )
        18           O1  tau(  18) = (   2.0254723   1.5302355  15.9749146  )
        19           Ti1 tau(  19) = (   3.2479256   3.0467527  15.6517507  )
        20           Ti1 tau(  20) = (   6.4631478   1.5268535  15.8454044  )
        21           O1  tau(  21) = (   3.2904802   0.0005063   4.7018136  )
        22           O1  tau(  22) = (   6.5640117   0.0389496  17.1838934  )
        23           O1  tau(  23) = (   1.3043587   1.4918075   6.0039043  )
        24           O1  tau(  24) = (   5.2767064   1.4903225   6.0039473  )
        25           Ti1 tau(  25) = (   0.0000382   5.9609847   6.0000000  )
        26           Ti1 tau(  26) = (   3.2902200   4.4714249   6.0002472  )
        27           O1  tau(  27) = (   0.0002396   2.9813036   7.9858123  )
        28           O1  tau(  28) = (   3.2902150   2.9813002   7.3038282  )
        29           O1  tau(  29) = (   4.5938453   4.4726049   9.2879030  )
        30           O1  tau(  30) = (   1.9864658   4.4711199   9.2879459  )
        31           Ti1 tau(  31) = (   3.2891106   5.8743827   9.1763621  )
        32           Ti1 tau(  32) = (   0.0006254   4.4649316   9.2693709  )
        33           O1  tau(  33) = (   3.2909858   3.0116154  11.2527998  )
        34           O1  tau(  34) = (   0.0092240   2.9805883  10.6323155  )
        35           O1  tau(  35) = (   1.2990260   4.4726261  12.6330189  )
        36           O1  tau(  36) = (   5.2946483   4.4606482  12.6134978  )
        37           Ti1 tau(  37) = (   0.0333947   0.1262769  12.6104238  )
        38           Ti1 tau(  38) = (   3.2900473   4.3917186  12.4086616  )
        39           O1  tau(  39) = (   6.5591047   2.9728048  14.6463482  )
        40           O1  tau(  40) = (   3.3071982   2.9909887  13.8663713  )
        41           O1  tau(  41) = (   4.5374868   4.4330245  16.1128471  )
        42           O1  tau(  42) = (   2.0037144   4.4952966  15.9584979  )
        43           Ti1 tau(  43) = (   3.1911318   0.0573200  16.2061952  )
        44           Ti1 tau(  44) = (   6.5299348   4.6473693  16.0672121  )
        45           O1  tau(  45) = (   3.2900926   2.9813045   4.7018136  )
        46           O1  tau(  46) = (   1.3039711   4.4726057   6.0039043  )
        47           O1  tau(  47) = (   5.2763189   4.4711207   6.0039473  )
        48           N1  tau(  48) = (   1.2509970   2.8552009  18.3001485  )
        49           N1  tau(  49) = (   0.1090600   2.9410495  17.4585617  )
        50           C1  tau(  50) = (   1.1117997   3.5424446  19.5707766  )
        51           H1  tau(  51) = (   0.2696121   3.1616043  20.1716506  )
        52           H1  tau(  52) = (   2.0314425   3.4001925  20.1392599  )
        53           H1  tau(  53) = (   0.9679189   4.6079482  19.3970517  )
        54           H1  tau(  54) = (   1.5306055   1.8840965  18.4148701  )
        55           H1  tau(  55) = (   5.8389999   2.9001924  18.0425661  )
        56           O1  tau(  56) = (   3.2424369   0.1001929  18.0579484  )
        57           H1  tau(  57) = (   3.9792659   5.6040190  18.4897823  )

     number of k points=    10  Fermi-Dirac smearing, width (Ry)=  0.0073
                       cart. coord. in units 2pi/alat
        k(    1) = (   0.0000000   0.0000000   0.0000000), wk =   0.1250000
        k(    2) = (   0.0000000   0.0419351   0.0000000), wk =   0.2500000
        k(    3) = (   0.0000000  -0.0838702   0.0000000), wk =   0.1250000
        k(    4) = (   0.0379955   0.0000049   0.0000000), wk =   0.2500000
        k(    5) = (   0.0379955   0.0419400   0.0000000), wk =   0.2500000
        k(    6) = (   0.0379955  -0.0838652   0.0000000), wk =   0.2500000
        k(    7) = (   0.0379955  -0.0419301   0.0000000), wk =   0.2500000
        k(    8) = (  -0.0759910  -0.0000099   0.0000000), wk =   0.1250000
        k(    9) = (  -0.0759910   0.0419252   0.0000000), wk =   0.2500000
        k(   10) = (  -0.0759910  -0.0838800   0.0000000), wk =   0.1250000

     Initial potential from superposition of free atoms

     starting charge  387.99913, renormalised to  404.00000

     negative rho (up, down):  1.467E-02 0.000E+00

     %%%%%%%%%%%%%%%%%%%%%%%%%%%%%%%%%%%%%%%%%%%%%%%%%%%%%%%%%%%%%%%%%%%%%%%%
     %                                                                      %
     % You are using vdW-DF, which was implemented by the Thonhauser group. %
     % Please cite the following two papers that made this development      %
     % possible and the two reviews that describe the various versions:     %
     %                                                                      %
     %   T. Thonhauser et al., PRL 115, 136402 (2015).                      %
     %   T. Thonhauser et al., PRB 76, 125112 (2007).                       %
     %   K. Berland et al., Rep. Prog. Phys. 78, 066501 (2015).             %
     %   D.C. Langreth et al., J. Phys.: Condens. Matter 21, 084203 (2009). %
     %                                                                      %
     %                                                                      %
     % If you are calculating the stress with vdW-DF, please also cite:     %
     %                                                                      %
     %   R. Sabatini et al., J. Phys.: Condens. Matter 24, 424209 (2012).   %
     %                                                                      %
     %%%%%%%%%%%%%%%%%%%%%%%%%%%%%%%%%%%%%%%%%%%%%%%%%%%%%%%%%%%%%%%%%%%%%%%%

     Adding external electric field

     Computed dipole along edir(3) :
        Dipole              -12.7323 Ry au,        -32.3622 Debye
        Dipole field         -0.0240 Ry au,

        Potential amp.        2.2273 Ry
        Total length         46.3494 bohr

     Starting wfcs are  306 atomic wfcs
  @ DRIVER MODE: Message from server: STATUS
  @ DRIVER MODE: Message from server: POSDATA
  @ DRIVER MODE: Reading and sharing cell
  @ DRIVER MODE: Reading and sharing positions
  @ DRIVER MODE: Received positions

     Self-consistent Calculation

     iteration #  1     ecut=    29.40 Ry     beta= 0.05
     Davidson diagonalization with overlap
     c_bands:  4 eigenvalues not converged
     c_bands:  5 eigenvalues not converged
     c_bands:  5 eigenvalues not converged
     c_bands:  5 eigenvalues not converged
     c_bands:  1 eigenvalues not converged
     c_bands:  3 eigenvalues not converged
     c_bands:  4 eigenvalues not converged
     c_bands:  4 eigenvalues not converged
     ethr =  1.00E-05,  avg # of iterations = 24.4

[...]

     total energy              =   -2345.48153982 Ry
     estimated scf accuracy    <    7121.33462364 Ry

     iteration #  2     ecut=    29.40 Ry     beta= 0.05
     Davidson diagonalization with overlap
     ethr =  1.00E-02,  avg # of iterations = 24.3

[...]

     iteration # 35     ecut=    29.40 Ry     beta= 0.05
     Davidson diagonalization with overlap
     c_bands:  1 eigenvalues not converged
     c_bands:  1 eigenvalues not converged
     c_bands:  1 eigenvalues not converged
     ethr =  1.70E-06,  avg # of iterations = 11.1

[...]

     total energy              =   -2975.25026613 Ry
     estimated scf accuracy    <       0.00000014 Ry

     iteration # 57     ecut=    29.40 Ry     beta= 0.05
     Davidson diagonalization with overlap
     ethr =  3.38E-11,  avg # of iterations =  5.1

     negative rho (up, down):  1.542E-02 0.000E+00

     Adding external electric field

     Computed dipole along edir(3) :
        Dipole                0.5375 Ry au,          1.3663 Debye
        Dipole field          0.0010 Ry au,

        Potential amp.       -0.0940 Ry
        Total length         46.3494 bohr

     End of self-consistent calculation

          k = 0.0000 0.0000 0.0000 ( 18029 PWs)   bands (ev):

   -56.4260 -56.3923 -55.7705 -55.7357 -55.5388 -55.4777 -55.3663 -55.2107
   -55.2070 -55.1388 -55.1029 -55.0888 -55.0549 -55.0505 -54.9841 -54.8659
   -32.8591 -32.7103 -32.6822 -32.5936 -32.5022 -32.4847 -32.2507 -32.0169
   -31.9899 -31.9671 -31.9142 -31.9087 -31.8792 -31.7668 -31.7549 -31.7459
   -31.7038 -31.6957 -31.6800 -31.6397 -31.6341 -31.6237 -31.5752 -31.5542
   -31.5144 -31.4823 -31.4791 -31.4287 -31.4170 -31.4102 -31.4046 -31.3859
   -31.3662 -31.3658 -31.3293 -31.3110 -31.3055 -31.2991 -31.2815 -31.2374
   -31.2339 -31.2162 -31.2042 -31.1839 -31.1139 -31.1097 -31.1044 -31.0591
   -16.6160 -16.5679 -16.1894 -16.1719 -15.8651 -15.8000 -15.7753 -15.7402
   -15.6782 -15.5558 -15.4372 -15.3915 -15.3841 -15.3357 -15.1762 -15.0790
   -14.9847 -14.9129 -14.9054 -14.8582 -14.8500 -14.8200 -14.8093 -14.8006
   -14.7351 -14.7004 -14.5921 -14.5471 -14.4512 -14.2564 -14.1784 -13.5867
   -13.4768 -11.5205  -8.6520  -5.0165  -4.2550  -4.1666  -3.7813  -3.6922
    -3.5234  -3.4473  -3.2927  -3.2612  -3.1759  -3.0725  -3.0102  -2.9532
    -2.9422  -2.8371  -2.6887  -2.6369  -2.6322  -2.6087  -2.6028  -2.5129
    -2.4437  -2.4101  -2.3429  -2.2728  -2.2411  -2.1558  -2.1501  -2.1242
    -2.1032  -2.0744  -2.0268  -1.9779  -1.9538  -1.9348  -1.8233  -1.7810
    -1.7548  -1.7099  -1.6769  -1.6028  -1.5675  -1.5211  -1.4437  -1.3830
    -1.2594  -1.2335  -1.1681  -1.1530  -1.1233  -1.0030  -0.9608  -0.9266
    -0.8656  -0.8321  -0.7664  -0.7425  -0.7112  -0.6732  -0.6647  -0.6245
    -0.5178  -0.4893  -0.3616  -0.3438  -0.2920  -0.2219  -0.2114  -0.1571
    -0.1354  -0.0995  -0.0536  -0.0191   0.0248   0.0937   0.1316   0.2187
     0.2621   0.3251   0.4210   0.4500   0.4719   0.5345   0.5524   0.5854
     0.6311   0.7246   0.7339   0.7945   0.8705   0.9154   0.9341   0.9942
     1.0543   1.0733   1.1719   1.1995   1.2105   1.2657   1.4740   1.5143
     1.6911   2.4484   2.8383   2.9850   3.2708   3.3021   3.5623   3.7975
     3.8276   3.8297   3.9118   4.0128

[...]

          k = 0.0380-0.0419 0.0000 ( 17876 PWs)   bands (ev):

[...]

          k =-0.0760-0.0000 0.0000 ( 17886 PWs)   bands (ev):

[...]

          k =-0.0760-0.0839 0.0000 ( 17948 PWs)   bands (ev):

   -56.4093 -56.4088 -55.7578 -55.7482 -55.5336 -55.4828 -55.3649 -55.2119
   -55.2023 -55.1432 -55.1007 -55.0723 -55.0712 -55.0490 -54.9863 -54.8673
   -32.6961 -32.6957 -32.6760 -32.6754 -32.5464 -32.5462 -32.0757 -32.0673
   -31.9518 -31.9444 -31.9407 -31.9383 -31.8368 -31.7980 -31.7609 -31.7527
   -31.7083 -31.7030 -31.6643 -31.6151 -31.5827 -31.5637 -31.5395 -31.4992
   -31.4871 -31.4839 -31.4339 -31.4321 -31.4180 -31.4172 -31.4163 -31.3960
   -31.3824 -31.3560 -31.3350 -31.3222 -31.3096 -31.2968 -31.2961 -31.2955
   -31.2584 -31.2574 -31.2409 -31.2347 -31.1909 -31.1761 -31.1151 -31.0906
   -16.5430 -16.1759 -15.9968 -15.9929 -15.9132 -15.9106 -15.7026 -15.6970
   -15.5264 -15.4973 -15.4229 -15.3047 -15.2529 -15.1965 -15.1888 -15.1460
   -15.0921 -15.0729 -15.0297 -15.0133 -14.9503 -14.9064 -14.8581 -14.8123
   -14.7932 -14.7546 -14.6337 -14.5845 -14.5778 -14.3907 -14.3592 -13.5808
   -13.5801 -11.5271  -8.6587  -5.0248  -4.2527  -3.7531  -3.4070  -3.0989
    -3.0808  -3.0351  -3.0260  -2.8105  -2.7897  -2.7647  -2.6913  -2.6786
    -2.6287  -2.6213  -2.5296  -2.4890  -2.4467  -2.4323  -2.4178  -2.3628
    -2.3361  -2.2908  -2.2874  -2.2525  -2.2177  -2.1843  -2.1595  -2.1181
    -2.0931  -2.0791  -2.0405  -2.0092  -1.9819  -1.9316  -1.9115  -1.8800
    -1.8698  -1.8483  -1.6915  -1.6371  -1.5815  -1.5403  -1.5092  -1.4425
    -1.4318  -1.3767  -1.3173  -1.2841  -1.2553  -1.2375  -1.1508  -1.1192
    -1.1027  -1.0677  -1.0255  -0.9649  -0.9067  -0.8582  -0.7810  -0.6871
    -0.6579  -0.6408  -0.6133  -0.6059  -0.5656  -0.5131  -0.4247  -0.3726
    -0.3203  -0.3033  -0.2601  -0.2546  -0.2241  -0.1876  -0.1169   0.0059
     0.0707   0.1074   0.1625   0.2180   0.2743   0.3394   0.3815   0.4632
     0.5423   0.5635   0.6494   0.6827   0.8058   0.8497   0.9653   1.0064
     1.0439   1.0883   1.1579   1.2552   1.2802   1.3251   1.3269   1.3437
     1.3580   2.4744   3.4052   3.4081   3.4585   3.4660   3.7403   3.7485
     3.8821   3.8839   4.0080   4.0207

     the Fermi energy is     2.7197 ev

!    total energy              =   -2975.25035156 Ry
     estimated scf accuracy    <       0.00000007 Ry
     smearing contrib. (-TS)   =      -0.00755717 Ry
     internal energy E=F+TS    =   -2975.24279439 Ry

     The total energy is F=E-TS. E is the sum of the following terms:
     one-electron contribution =  -23773.04640380 Ry
     hartree contribution      =   11982.16130646 Ry
     xc contribution           =    -494.80484463 Ry
     ewald contribution        =    9310.44660229 Ry
     electric field correction =       0.00054530 Ry

     convergence has been achieved in  57 iterations

     Forces acting on atoms (cartesian axes, Ry/au):

     atom    1 type  1   force =     0.00001147   -0.00035577    0.11623240
     atom    2 type  1   force =    -0.00013979    0.00031220   -0.16021533
     atom    3 type  2   force =     0.00004593    0.00032501   -0.05314375
     atom    4 type  2   force =     0.00007168   -0.00042059    0.02651329
     atom    5 type  2   force =    -0.00502447   -0.00226234   -0.01001823
     atom    6 type  2   force =     0.00670902   -0.00183648   -0.01074754
     atom    7 type  1   force =    -0.00038991   -0.00638803    0.04564930
     atom    8 type  1   force =     0.00057589    0.01078381    0.08178779
     atom    9 type  2   force =    -0.00001582    0.00035256   -0.00011415
     atom   10 type  2   force =    -0.00140130    0.00154981   -0.05451883
     atom   11 type  2   force =     0.00074046    0.00028704   -0.00022164
     atom   12 type  2   force =    -0.00116117    0.00021130    0.00019766
     atom   13 type  1   force =    -0.00021551   -0.00092455    0.00034355
     atom   14 type  1   force =     0.00047458    0.00124853   -0.00027398
     atom   15 type  2   force =    -0.00000593   -0.00050657    0.00048561
     atom   16 type  2   force =    -0.00030998    0.00061715    0.00092138
     atom   17 type  2   force =    -0.00072971   -0.00050672    0.00012762
     atom   18 type  2   force =     0.00065146   -0.00017208    0.00021856
     atom   19 type  1   force =    -0.00045378   -0.00056017   -0.00041228
     atom   20 type  1   force =     0.00013453   -0.00049400   -0.00024410
     atom   21 type  2   force =     0.00007601    0.00014839    0.09918537
     atom   22 type  2   force =     0.00031046   -0.00045699    0.00078995
     atom   23 type  2   force =    -0.07952160   -0.00002360   -0.03163717
     atom   24 type  2   force =     0.07944235    0.00040580   -0.03167312
     atom   25 type  1   force =     0.00017425   -0.00036785    0.11644590
     atom   26 type  1   force =    -0.00010138   -0.00142424   -0.16035921
     atom   27 type  2   force =     0.00013507   -0.00011930   -0.05153329
     atom   28 type  2   force =     0.00003144    0.00129549    0.02170260
     atom   29 type  2   force =    -0.00384343    0.00422858   -0.01241362
     atom   30 type  2   force =     0.00542601    0.00484025   -0.01300482
     atom   31 type  1   force =    -0.00015089    0.00314221    0.03062556
     atom   32 type  1   force =     0.00051452   -0.01302064    0.08266459
     atom   33 type  2   force =     0.00017951   -0.00049280    0.00027272
     atom   34 type  2   force =    -0.00049739    0.00168545   -0.06788566
     atom   35 type  2   force =    -0.00044560   -0.00064635   -0.00008577
     atom   36 type  2   force =     0.00006948   -0.00003013   -0.00000743
     atom   37 type  1   force =    -0.00012425   -0.00121657   -0.00019819
     atom   38 type  1   force =     0.00047648   -0.00033669    0.00014389
     atom   39 type  2   force =     0.00018669    0.00032588    0.00008550
     atom   40 type  2   force =    -0.00013034   -0.00023949    0.00021029
     atom   41 type  2   force =     0.00110066    0.00001612    0.00013433
     atom   42 type  2   force =    -0.00111621   -0.00040551    0.00023672
     atom   43 type  1   force =     0.00021082   -0.00078168    0.00002062
     atom   44 type  1   force =     0.00022140    0.00076506   -0.00040317
     atom   45 type  2   force =     0.00007387   -0.00002632    0.09900876
     atom   46 type  2   force =    -0.07953562   -0.00001442   -0.03165615
     atom   47 type  2   force =     0.07947449    0.00043178   -0.03167609
     atom   48 type  3   force =     0.00031762    0.00037952   -0.00088240
     atom   49 type  3   force =    -0.00746238   -0.00012094    0.00630092
     atom   50 type  4   force =    -0.00030833    0.00079591   -0.00028203
     atom   51 type  5   force =    -0.00120840    0.00014197   -0.00020421
     atom   52 type  5   force =    -0.00002900   -0.00043735    0.00020336
     atom   53 type  5   force =     0.00051044    0.00021261   -0.00056684
     atom   54 type  5   force =    -0.00004369   -0.00161785    0.00011691
     atom   55 type  5   force =     0.00504374    0.00050574   -0.00583969
     atom   56 type  2   force =     0.00111626   -0.00021641    0.00004094
     atom   57 type  5   force =    -0.00014069    0.00141428   -0.00044742

     Total force =     0.399244     Total SCF correction =     0.000664
  @ DRIVER MODE: Message from server: STATUS
  @ DRIVER MODE: Message from server: GETFORCE
  @ DRIVER MODE: Returning v,forces,stress,ensemble

     Writing output data file ./calc.save/
  @ DRIVER MODE: Message from server: EXIT
  @ DRIVE MODE: Exiting

     General routines

     Parallel routines

   This run was terminated on:  17:24:59  23Sep2021

   JOB DONE.