     Program PWSCF v.6.7GPU starts on 28Sep2021 at  8: 5:36

     R & G space division:  proc/nbgrp/npool/nimage =       8
     Reading input from /storage/home/hcoda1/3/ntian30/research/carbon/CxH_vib/H2O_calc/ads_slab/CHN2HO_c/out_0027/pw.inp
Warning: card &CELL ignored
Warning: card   CELL_DYNAMICS='IPI', ignored
Warning: card / ignored

     Current dimensions of program PWSCF are:
     Max number of different atomic species (ntypx) = 10
     Max number of k-points (npk) =  40000
     Max angular momentum in pseudopotentials (lmaxx) =  3
     Presently no symmetry can be used with electric field

     Message from routine cell_base_init:
     DEPRECATED: use true lattice parameter, not A to a.u. conversion factor

     IMPORTANT: XC functional enforced from input :
     Exchange-correlation= BEEF-VDW
                           (   1   4  43  14   2   0   0)
     Any further DFT definition will be discarded
     Please, verify this is what you really want

  @ DRIVER MODE: Connecting to
 qe_1139763_3003540.sched-torque.pace.gatech.edu6c5qeh93_scratch
  using UNIX socket
  @ DRIVER MODE: Message from server: STATUS
  @ DRIVER MODE: Message from server: INIT
  @ DRIVER MODE: Receiving replica           0          -1
  @ DRIVER MODE: Receiving encoded integer          25
  @ DRIVER MODE:  SCF:  T  FORCE:  T  STRESS:  F  VC:  F  ENSEMBLE:  F
  @ DRIVER MODE:  SCF:  T  FORCE:  T  STRESS:  F  VC:  F  ENSEMBLE:  F

     Using Slab Decomposition

     bravais-lattice index     =            0
     lattice parameter (alat)  =       1.8897  a.u.
     unit-cell volume          =    6658.9804 (a.u.)^3
     number of atoms/cell      =           53
     number of atomic types    =            5
     number of electrons       =       400.00
     number of Kohn-Sham states=          210
     kinetic-energy cutoff     =      29.3995  Ry
     charge density cutoff     =     293.9946  Ry
     scf convergence threshold =      7.3E-08
     mixing beta               =       0.0500
     number of iterations used =            8  plain     mixing
     Exchange-correlation= BEEF-VDW
                           (   1   4  43  14   2   0   0)

     celldm(1)=   1.889726  celldm(2)=   0.000000  celldm(3)=   0.000000
     celldm(4)=   0.000000  celldm(5)=   0.000000  celldm(6)=   0.000000

     crystal axes: (cart. coord. in units of alat)
               a(1) = (   6.579727   0.000000   0.000000 )
               a(2) = (  -0.000775   5.961596   0.000000 )
               a(3) = (   0.000000   0.000000  25.155947 )

     reciprocal axes: (cart. coord. in units 2 pi/alat)
               b(1) = (  0.151982  0.000020  0.000000 )
               b(2) = (  0.000000  0.167740  0.000000 )
               b(3) = (  0.000000  0.000000  0.039752 )

     PseudoPot. # 1 for Ti read from file:
     /storage/coda1/p-amedford6/0/shared/rich_project_chbe-medford/medford-share/data/pseudos_module/espresso/nninc/pbe/van/Ti.UPF
     MD5 check sum: 8e4df49b7f0d34bbd5052bf3f5ea0213
     Pseudo is Ultrasoft, Zval = 12.0
     Generated by new atomic code, or converted to UPF format
     Using radial grid of  851 points,  6 beta functions with:
                l(1) =   0
                l(2) =   0
                l(3) =   1
                l(4) =   1
                l(5) =   2
                l(6) =   2
     Q(r) pseudized with  8 coefficients,  rinner =    1.000   1.000   1.000
                                                       1.000   1.000

     PseudoPot. # 2 for O  read from file:
     /storage/coda1/p-amedford6/0/shared/rich_project_chbe-medford/medford-share/data/pseudos_module/espresso/nninc/pbe/van/O.UPF
     MD5 check sum: 78c19812648e8988a0fe644b0f25305e
     Pseudo is Ultrasoft, Zval =  6.0
     Generated by new atomic code, or converted to UPF format
     Using radial grid of  737 points,  4 beta functions with:
                l(1) =   0
                l(2) =   0
                l(3) =   1
                l(4) =   1
     Q(r) pseudized with  8 coefficients,  rinner =    0.800   0.800   0.800

     PseudoPot. # 3 for C  read from file:
     /storage/coda1/p-amedford6/0/shared/rich_project_chbe-medford/medford-share/data/pseudos_module/espresso/nninc/pbe/van/C.UPF
     MD5 check sum: 1a69bf6b8db32088f5b2163dbdb77a27
     Pseudo is Ultrasoft, Zval =  4.0
     Generated by new atomic code, or converted to UPF format
     Using radial grid of  721 points,  4 beta functions with:
                l(1) =   0
                l(2) =   0
                l(3) =   1
                l(4) =   1
     Q(r) pseudized with  8 coefficients,  rinner =    0.800   0.800   0.800

     PseudoPot. # 4 for H  read from file:
     /storage/coda1/p-amedford6/0/shared/rich_project_chbe-medford/medford-share/data/pseudos_module/espresso/nninc/pbe/van/H.UPF
     MD5 check sum: b5ee9d7bfd3a09ee7748110bda690ff7
     Pseudo is Ultrasoft, Zval =  1.0
     Generated by new atomic code, or converted to UPF format
     Using radial grid of  615 points,  1 beta functions with:
                l(1) =   0
     Q(r) pseudized with  8 coefficients,  rinner =    0.800

     PseudoPot. # 5 for N  read from file:
     /storage/coda1/p-amedford6/0/shared/rich_project_chbe-medford/medford-share/data/pseudos_module/espresso/nninc/pbe/van/N.UPF
     MD5 check sum: 90d10febe142ad51ac9d5be1deb811c4
     Pseudo is Ultrasoft, Zval =  5.0
     Generated by new atomic code, or converted to UPF format
     Using radial grid of  729 points,  4 beta functions with:
                l(1) =   0
                l(2) =   0
                l(3) =   1
                l(4) =   1
     Q(r) pseudized with  8 coefficients,  rinner =    0.800   0.800   0.800

     atomic species   valence    mass     pseudopotential
        Ti1           12.00    47.86700     Ti( 1.00)
        O1             6.00    15.99900     O ( 1.00)
        C1             4.00    12.01100     C ( 1.00)
        H1             1.00     1.00800     H ( 1.00)
        N1             5.00    14.00700     N ( 1.00)

     No symmetry found

   Cartesian axes

     site n.     atom                  positions (alat units)
         1           Ti1 tau(   1) = (   0.0004258   2.9801865   6.0000000  )
         2           Ti1 tau(   2) = (   3.2906075   1.4906267   6.0002472  )
         3           O1  tau(   3) = (   0.0006271   0.0005054   7.9858123  )
         4           O1  tau(   4) = (   3.2906025   0.0005020   7.3038282  )
         5           O1  tau(   5) = (   4.5942328   1.4918067   9.2879030  )
         6           O1  tau(   6) = (   1.9868534   1.4903216   9.2879459  )
         7           Ti1 tau(   7) = (   3.2907910   2.8959150   9.1758416  )
         8           Ti1 tau(   8) = (   0.0015273   1.4827037   9.2680791  )
         9           O1  tau(   9) = (   3.2766663   5.9464886  11.2681881  )
        10           O1  tau(  10) = (   0.0116148   5.9584955  10.6183126  )
        11           O1  tau(  11) = (   1.2752176   1.4923442  12.6271229  )
        12           O1  tau(  12) = (   5.2852060   1.4859299  12.6156521  )
        13           Ti1 tau(  13) = (   6.5717068   2.8472942  12.7124165  )
        14           Ti1 tau(  14) = (   3.2754330   1.3122793  12.6492615  )
        15           O1  tau(  15) = (   6.5604847   5.9612185  14.6398873  )
        16           O1  tau(  16) = (   3.2770837   0.0341078  13.8632434  )
        17           O1  tau(  17) = (   4.5026011   1.5263741  16.0779633  )
        18           O1  tau(  18) = (   1.9856211   1.5373541  16.0544900  )
        19           Ti1 tau(  19) = (   3.2645371   3.0024783  15.6402076  )
        20           Ti1 tau(  20) = (   0.0306923   1.4636683  15.8866077  )
        21           O1  tau(  21) = (   3.2904802   0.0005063   4.7018136  )
        22           O1  tau(  22) = (   6.5250562   0.0096470  17.1651689  )
        23           O1  tau(  23) = (   1.3043587   1.4918075   6.0039043  )
        24           O1  tau(  24) = (   5.2767064   1.4903225   6.0039473  )
        25           Ti1 tau(  25) = (   0.0000382   5.9609847   6.0000000  )
        26           Ti1 tau(  26) = (   3.2902200   4.4714249   6.0002472  )
        27           O1  tau(  27) = (   0.0002396   2.9813036   7.9858123  )
        28           O1  tau(  28) = (   3.2902150   2.9813002   7.3038282  )
        29           O1  tau(  29) = (   4.5938453   4.4726049   9.2879030  )
        30           O1  tau(  30) = (   1.9864658   4.4711199   9.2879459  )
        31           Ti1 tau(  31) = (   3.2891106   5.8743827   9.1763621  )
        32           Ti1 tau(  32) = (   0.0006254   4.4649316   9.2693709  )
        33           O1  tau(  33) = (   3.2790072   3.0290766  11.2406627  )
        34           O1  tau(  34) = (   0.0092240   2.9805883  10.6323155  )
        35           O1  tau(  35) = (   1.2722205   4.4691906  12.6310473  )
        36           O1  tau(  36) = (   5.2766839   4.4717175  12.6187613  )
        37           Ti1 tau(  37) = (   6.5522158   5.8291752  12.6058762  )
        38           Ti1 tau(  38) = (   3.2615408   4.4097241  12.4102932  )
        39           O1  tau(  39) = (   6.5509886   2.9451087  14.6802276  )
        40           O1  tau(  40) = (   3.2772003   2.9821494  13.8576607  )
        41           O1  tau(  41) = (   4.5331312   4.4179464  16.0511208  )
        42           O1  tau(  42) = (   2.0062445   4.4387243  16.0647957  )
        43           Ti1 tau(  43) = (   3.2965114   0.0079596  16.3395523  )
        44           Ti1 tau(  44) = (   6.5556523   4.6042306  16.0453395  )
        45           O1  tau(  45) = (   3.2900926   2.9813045   4.7018136  )
        46           O1  tau(  46) = (   1.3039711   4.4726057   6.0039043  )
        47           O1  tau(  47) = (   5.2763189   4.4711207   6.0039473  )
        48           C1  tau(  48) = (   0.0539703   2.9674629  17.6512085  )
        49           H1  tau(  49) = (   1.0088706   2.9548903  18.1741722  )
        50           N1  tau(  50) = (   5.6350074   2.8816608  18.4775489  )
        51           N1  tau(  51) = (   4.6939826   2.7887373  19.1166784  )
        52           O1  tau(  52) = (   3.2898008   5.9056070  18.1392511  )
        53           H1  tau(  53) = (   3.8410492   0.4763436  18.7420070  )

     number of k points=    10  Fermi-Dirac smearing, width (Ry)=  0.0073
                       cart. coord. in units 2pi/alat
        k(    1) = (   0.0000000   0.0000000   0.0000000), wk =   0.1250000
        k(    2) = (   0.0000000   0.0419351   0.0000000), wk =   0.2500000
        k(    3) = (   0.0000000  -0.0838702   0.0000000), wk =   0.1250000
        k(    4) = (   0.0379955   0.0000049   0.0000000), wk =   0.2500000
        k(    5) = (   0.0379955   0.0419400   0.0000000), wk =   0.2500000
        k(    6) = (   0.0379955  -0.0838652   0.0000000), wk =   0.2500000
        k(    7) = (   0.0379955  -0.0419301   0.0000000), wk =   0.2500000
        k(    8) = (  -0.0759910  -0.0000099   0.0000000), wk =   0.1250000
        k(    9) = (  -0.0759910   0.0419252   0.0000000), wk =   0.2500000
        k(   10) = (  -0.0759910  -0.0838800   0.0000000), wk =   0.1250000

     Initial potential from superposition of free atoms

     starting charge  383.99917, renormalised to  400.00000

     negative rho (up, down):  1.800E-02 0.000E+00

     %%%%%%%%%%%%%%%%%%%%%%%%%%%%%%%%%%%%%%%%%%%%%%%%%%%%%%%%%%%%%%%%%%%%%%%%
     %                                                                      %
     % You are using vdW-DF, which was implemented by the Thonhauser group. %
     % Please cite the following two papers that made this development      %
     % possible and the two reviews that describe the various versions:     %
     %                                                                      %
     %   T. Thonhauser et al., PRL 115, 136402 (2015).                      %
     %   T. Thonhauser et al., PRB 76, 125112 (2007).                       %
     %   K. Berland et al., Rep. Prog. Phys. 78, 066501 (2015).             %
     %   D.C. Langreth et al., J. Phys.: Condens. Matter 21, 084203 (2009). %
     %                                                                      %
     %                                                                      %
     % If you are calculating the stress with vdW-DF, please also cite:     %
     %                                                                      %
     %   R. Sabatini et al., J. Phys.: Condens. Matter 24, 424209 (2012).   %
     %                                                                      %
     %%%%%%%%%%%%%%%%%%%%%%%%%%%%%%%%%%%%%%%%%%%%%%%%%%%%%%%%%%%%%%%%%%%%%%%%

     Adding external electric field

     Computed dipole along edir(3) :
        Dipole              -10.2460 Ry au,        -26.0427 Debye
        Dipole field         -0.0193 Ry au,

        Potential amp.        1.7924 Ry
        Total length         46.3494 bohr

     Starting wfcs are  302 atomic wfcs
  @ DRIVER MODE: Message from server: STATUS
  @ DRIVER MODE: Message from server: POSDATA
  @ DRIVER MODE: Reading and sharing cell
  @ DRIVER MODE: Reading and sharing positions
  @ DRIVER MODE: Received positions

     Self-consistent Calculation

     iteration #  1     ecut=    29.40 Ry     beta= 0.05
     Davidson diagonalization with overlap
     c_bands:  2 eigenvalues not converged
     c_bands:  1 eigenvalues not converged
     c_bands:  2 eigenvalues not converged
     c_bands:  2 eigenvalues not converged
     c_bands:  3 eigenvalues not converged
     c_bands:  2 eigenvalues not converged
     c_bands:  1 eigenvalues not converged
     c_bands:  1 eigenvalues not converged
     ethr =  1.00E-05,  avg # of iterations = 19.5

[...]

     total energy              =   -2479.82363038 Ry
     estimated scf accuracy    <    5463.98500305 Ry

     iteration #  2     ecut=    29.40 Ry     beta= 0.05
     Davidson diagonalization with overlap
     ethr =  1.00E-02,  avg # of iterations = 24.4

[...]

     iteration # 42     ecut=    29.40 Ry     beta= 0.05
     Davidson diagonalization with overlap
     c_bands:  1 eigenvalues not converged
     c_bands:  1 eigenvalues not converged
     c_bands:  2 eigenvalues not converged
     c_bands:  2 eigenvalues not converged
     ethr =  1.27E-06,  avg # of iterations =  9.0

[...]

     total energy              =   -2970.23692942 Ry
     estimated scf accuracy    <       0.00000015 Ry

     iteration # 62     ecut=    29.40 Ry     beta= 0.05
     Davidson diagonalization with overlap
     ethr =  3.79E-11,  avg # of iterations =  5.1

     negative rho (up, down):  1.778E-02 0.000E+00

     Adding external electric field

     Computed dipole along edir(3) :
        Dipole                0.0349 Ry au,          0.0888 Debye
        Dipole field          0.0001 Ry au,

        Potential amp.       -0.0061 Ry
        Total length         46.3494 bohr

     End of self-consistent calculation

          k = 0.0000 0.0000 0.0000 ( 18029 PWs)   bands (ev):

   -56.8994 -56.8658 -56.1328 -56.0970 -55.8749 -55.8135 -55.7039 -55.5585
   -55.5023 -55.4933 -55.4815 -55.4684 -55.4414 -55.4290 -55.2431 -55.2281
   -33.3250 -33.1787 -33.1506 -33.0719 -32.9811 -32.9514 -32.6159 -32.3541
   -32.3528 -32.3236 -32.2742 -32.2720 -32.2409 -32.1060 -32.0947 -32.0417
   -32.0394 -32.0373 -32.0175 -31.9766 -31.9668 -31.9279 -31.9251 -31.8997
   -31.8870 -31.8543 -31.8462 -31.8262 -31.8218 -31.7668 -31.7114 -31.7104
   -31.6977 -31.6922 -31.6818 -31.6760 -31.6532 -31.6472 -31.6330 -31.6277
   -31.6202 -31.5159 -31.4936 -31.4802 -31.4720 -31.4675 -31.4373 -31.4334
   -20.3925 -17.0453 -16.5573 -16.4835 -16.2440 -16.2164 -16.1413 -16.1267
   -16.1218 -15.8604 -15.8353 -15.8112 -15.7440 -15.6941 -15.5205 -15.4239
   -15.3581 -15.2659 -15.1987 -15.1789 -15.1747 -15.1457 -15.1244 -15.1200
   -15.0328 -15.0252 -14.9148 -14.8179 -14.7725 -14.5223 -14.4780 -13.9998
   -13.8915 -13.4211  -5.5837  -4.6082  -4.5463  -4.4023  -4.1647  -4.0434
    -3.8637  -3.6691  -3.6161  -3.4616  -3.4499  -3.3891  -3.3449  -3.3281
    -3.2360  -3.1417  -3.0596  -3.0593  -3.0351  -2.9663  -2.9397  -2.7809
    -2.7792  -2.7686  -2.6450  -2.5940  -2.5397  -2.4929  -2.4807  -2.4350
    -2.4115  -2.4000  -2.3519  -2.3031  -2.2962  -2.1644  -2.1227  -2.0978
    -2.0453  -1.9875  -1.9708  -1.8958  -1.8781  -1.8547  -1.6870  -1.6205
    -1.5787  -1.5278  -1.4976  -1.4715  -1.3328  -1.3013  -1.2030  -1.2001
    -1.1623  -1.1123  -1.0546  -1.0347  -0.9668  -0.8751  -0.8612  -0.8459
    -0.7771  -0.6977  -0.6194  -0.5762  -0.5094  -0.4995  -0.4814  -0.4489
    -0.4395  -0.3462  -0.3003  -0.2525  -0.1670  -0.1382  -0.0112  -0.0026
     0.0628   0.1122   0.1308   0.1624   0.1754   0.2054   0.2765   0.3429
     0.3685   0.3963   0.5197   0.5284   0.5791   0.5940   0.7102   0.7334
     0.7417   0.7912   0.8575   0.9318   1.0555   1.0966   1.3638   1.9247
     2.3794   2.5391   2.8190   2.9054   3.2141   3.3618   3.3671   3.3766
     3.5526   3.6756

[...]

          k = 0.0380-0.0419 0.0000 ( 17876 PWs)   bands (ev):

[...]

          k =-0.0760-0.0000 0.0000 ( 17886 PWs)   bands (ev):

[...]

          k =-0.0760-0.0839 0.0000 ( 17948 PWs)   bands (ev):

   -56.8831 -56.8821 -56.1211 -56.1085 -55.8698 -55.8185 -55.7031 -55.5544
   -55.4939 -55.4859 -55.4853 -55.4846 -55.4402 -55.4275 -55.2445 -55.2294
   -33.1649 -33.1638 -33.1425 -33.1414 -33.0253 -33.0247 -32.4418 -32.4313
   -32.3152 -32.3023 -32.3017 -32.2935 -32.1769 -32.1364 -32.0998 -32.0904
   -32.0457 -32.0395 -31.9938 -31.9535 -31.9132 -31.8850 -31.8612 -31.8354
   -31.8344 -31.8255 -31.8150 -31.8125 -31.7803 -31.7736 -31.7579 -31.7206
   -31.7081 -31.7064 -31.7010 -31.6825 -31.6795 -31.6694 -31.6679 -31.6575
   -31.6408 -31.6178 -31.5798 -31.5325 -31.4935 -31.4823 -31.4624 -31.4410
   -20.3920 -16.4726 -16.4172 -16.4141 -16.3493 -16.3474 -16.1226 -16.1165
   -15.8971 -15.8647 -15.7563 -15.6653 -15.5976 -15.5447 -15.5399 -15.4988
   -15.4034 -15.3884 -15.3238 -15.2845 -15.2677 -15.2037 -15.1797 -15.1376
   -15.1302 -15.0952 -14.9548 -14.8979 -14.8718 -14.7297 -14.6183 -13.9959
   -13.9951 -13.4273  -5.5857  -4.5499  -4.3557  -4.1505  -3.5003  -3.4813
    -3.4703  -3.4638  -3.2361  -3.2214  -3.2070  -3.1060  -3.0843  -3.0535
    -2.9916  -2.9888  -2.8865  -2.8311  -2.8009  -2.7926  -2.7767  -2.7209
    -2.7185  -2.6978  -2.6509  -2.5579  -2.5487  -2.5168  -2.4949  -2.4429
    -2.3630  -2.3305  -2.3102  -2.2869  -2.2768  -2.2687  -2.2453  -2.2106
    -2.1454  -1.9598  -1.9229  -1.8831  -1.8433  -1.8004  -1.7892  -1.7215
    -1.7126  -1.6935  -1.6506  -1.5665  -1.5418  -1.5037  -1.4982  -1.4175
    -1.3668  -1.3436  -1.2891  -1.2282  -1.1181  -1.0585  -1.0244  -1.0140
    -1.0000  -0.9730  -0.9004  -0.8255  -0.7787  -0.7019  -0.6726  -0.6535
    -0.6192  -0.5948  -0.5312  -0.5178  -0.4267  -0.3725  -0.2730  -0.2045
    -0.1730  -0.1237  -0.0955  -0.0189   0.0513   0.1400   0.1700   0.2368
     0.2477   0.3002   0.3374   0.5172   0.6243   0.6499   0.6843   0.8037
     0.8169   0.8494   0.9004   0.9040   0.9048   0.9431   0.9878   1.8846
     2.9593   2.9620   3.0167   3.0234   3.3158   3.3239   3.4320   3.4362
     3.6543   3.6776

     the Fermi energy is     2.2099 ev

!    total energy              =   -2970.23700784 Ry
     estimated scf accuracy    <       0.00000007 Ry
     smearing contrib. (-TS)   =      -0.00495470 Ry
     internal energy E=F+TS    =   -2970.23205313 Ry

     The total energy is F=E-TS. E is the sum of the following terms:
     one-electron contribution =  -23890.87817530 Ry
     hartree contribution      =   12034.91110065 Ry
     xc contribution           =    -491.37093194 Ry
     ewald contribution        =    9377.10595116 Ry
     electric field correction =       0.00000230 Ry

     convergence has been achieved in  62 iterations

     Forces acting on atoms (cartesian axes, Ry/au):

     atom    1 type  1   force =     0.00016152   -0.00042201    0.12038571
     atom    2 type  1   force =    -0.00005066    0.00015632   -0.15698343
     atom    3 type  2   force =     0.00001886   -0.00007391   -0.05924681
     atom    4 type  2   force =     0.00000063    0.00008283    0.02054972
     atom    5 type  2   force =    -0.00370025   -0.00201891   -0.01104421
     atom    6 type  2   force =     0.00482436   -0.00123153   -0.01303449
     atom    7 type  1   force =    -0.00068522   -0.00619127    0.05344856
     atom    8 type  1   force =     0.00115875    0.01366766    0.08839279
     atom    9 type  2   force =    -0.00013071   -0.00125713    0.00075196
     atom   10 type  2   force =    -0.00301574    0.00052556   -0.05511423
     atom   11 type  2   force =     0.00000166    0.00031718    0.00021292
     atom   12 type  2   force =    -0.00049268   -0.00022760   -0.00030709
     atom   13 type  1   force =    -0.00070243    0.00116433   -0.00084303
     atom   14 type  1   force =    -0.00005337   -0.00124321   -0.00007711
     atom   15 type  2   force =     0.00016552    0.00055048   -0.00029123
     atom   16 type  2   force =     0.00058379   -0.00075656   -0.00073175
     atom   17 type  2   force =     0.00038311    0.00032587    0.00007311
     atom   18 type  2   force =     0.00016230    0.00038540   -0.00054126
     atom   19 type  1   force =     0.00023095    0.00034587    0.00057595
     atom   20 type  1   force =     0.00058059   -0.00071172    0.00020474
     atom   21 type  2   force =     0.00009612    0.00021399    0.09832204
     atom   22 type  2   force =     0.00022534    0.00007551    0.00077412
     atom   23 type  2   force =    -0.08118683    0.00005509   -0.03239160
     atom   24 type  2   force =     0.08117217    0.00049589   -0.03238465
     atom   25 type  1   force =     0.00015722   -0.00060737    0.12076530
     atom   26 type  1   force =     0.00006134   -0.00144493   -0.15745633
     atom   27 type  2   force =     0.00009815   -0.00078214   -0.05737908
     atom   28 type  2   force =     0.00003778    0.00183595    0.01623242
     atom   29 type  2   force =    -0.00203567    0.00508799   -0.01432180
     atom   30 type  2   force =     0.00291691    0.00551704   -0.01633617
     atom   31 type  1   force =    -0.00059332    0.00199566    0.03658592
     atom   32 type  1   force =     0.00117344   -0.01696825    0.08810384
     atom   33 type  2   force =    -0.00003324    0.00049648    0.00105393
     atom   34 type  2   force =    -0.00260469    0.00100824   -0.07064650
     atom   35 type  2   force =     0.00135094   -0.00052101    0.00038817
     atom   36 type  2   force =    -0.00023853   -0.00019167    0.00024994
     atom   37 type  1   force =    -0.00060969   -0.00038570    0.00015881
     atom   38 type  1   force =     0.00106367   -0.00061515   -0.00019652
     atom   39 type  2   force =    -0.00062703   -0.00080388    0.00039628
     atom   40 type  2   force =    -0.00015071   -0.00010160   -0.00060124
     atom   41 type  2   force =     0.00107623    0.00004589   -0.00040582
     atom   42 type  2   force =     0.00003163   -0.00006032   -0.00045748
     atom   43 type  1   force =     0.00001508   -0.00005414    0.00018660
     atom   44 type  1   force =     0.00013447    0.00067130   -0.00061481
     atom   45 type  2   force =     0.00010379    0.00002744    0.09814219
     atom   46 type  2   force =    -0.08122843    0.00000695   -0.03237547
     atom   47 type  2   force =     0.08121729    0.00042294   -0.03238911
     atom   48 type  3   force =     0.00064219   -0.00135127    0.00015885
     atom   49 type  4   force =    -0.00042568    0.00023903    0.00073229
     atom   50 type  5   force =     0.00043137   -0.00032903   -0.00065019
     atom   51 type  5   force =    -0.00052310   -0.00071318   -0.00025458
     atom   52 type  2   force =     0.00481058    0.00731259    0.00574530
     atom   53 type  4   force =    -0.00599975   -0.00396596   -0.00551544

     Total force =     0.406581     Total SCF correction =     0.000569
  @ DRIVER MODE: Message from server: STATUS
  @ DRIVER MODE: Message from server: GETFORCE
  @ DRIVER MODE: Returning v,forces,stress,ensemble

     Writing output data file ./calc.save/
  @ DRIVER MODE: Message from server: EXIT
  @ DRIVE MODE: Exiting

     General routines

     Parallel routines

   This run was terminated on:   8:27: 4  28Sep2021

   JOB DONE.