     Program PWSCF v.6.7GPU starts on  9Sep2021 at  4:48:16

     R & G space division:  proc/nbgrp/npool/nimage =      10
     Reading input from /storage/home/hcoda1/3/ntian30/research/carbon/CxH_vib/CH2_calc/ads_slab/CH2N2_b/out_0020/pw.inp
Warning: card &CELL ignored
Warning: card   CELL_DYNAMICS='IPI', ignored
Warning: card / ignored

     Current dimensions of program PWSCF are:
     Max number of different atomic species (ntypx) = 10
     Max number of k-points (npk) =  40000
     Max angular momentum in pseudopotentials (lmaxx) =  3
     Presently no symmetry can be used with electric field

     Message from routine cell_base_init:
     DEPRECATED: use true lattice parameter, not A to a.u. conversion factor

     IMPORTANT: XC functional enforced from input :
     Exchange-correlation= BEEF-VDW
                           (   1   4  43  14   2   0   0)
     Any further DFT definition will be discarded
     Please, verify this is what you really want

  @ DRIVER MODE: Connecting to
 qe_1139763_2767386.sched-torque.pace.gatech.eduyvp01u_6_scratch
  using UNIX socket
  @ DRIVER MODE: Message from server: STATUS
  @ DRIVER MODE: Message from server: INIT
  @ DRIVER MODE: Receiving replica           0          -1
  @ DRIVER MODE: Receiving encoded integer          25
  @ DRIVER MODE:  SCF:  T  FORCE:  T  STRESS:  F  VC:  F  ENSEMBLE:  F
  @ DRIVER MODE:  SCF:  T  FORCE:  T  STRESS:  F  VC:  F  ENSEMBLE:  F

     Using Slab Decomposition

     bravais-lattice index     =            0
     lattice parameter (alat)  =       1.8897  a.u.
     unit-cell volume          =    6658.9804 (a.u.)^3
     number of atoms/cell      =           52
     number of atomic types    =            5
     number of electrons       =       394.00
     number of Kohn-Sham states=          207
     kinetic-energy cutoff     =      29.3995  Ry
     charge density cutoff     =     293.9946  Ry
     scf convergence threshold =      7.3E-08
     mixing beta               =       0.0500
     number of iterations used =            8  plain     mixing
     Exchange-correlation= BEEF-VDW
                           (   1   4  43  14   2   0   0)

     celldm(1)=   1.889726  celldm(2)=   0.000000  celldm(3)=   0.000000
     celldm(4)=   0.000000  celldm(5)=   0.000000  celldm(6)=   0.000000

     crystal axes: (cart. coord. in units of alat)
               a(1) = (   6.579727   0.000000   0.000000 )
               a(2) = (  -0.000775   5.961596   0.000000 )
               a(3) = (   0.000000   0.000000  25.155947 )

     reciprocal axes: (cart. coord. in units 2 pi/alat)
               b(1) = (  0.151982  0.000020  0.000000 )
               b(2) = (  0.000000  0.167740  0.000000 )
               b(3) = (  0.000000  0.000000  0.039752 )

     PseudoPot. # 1 for Ti read from file:
     /storage/coda1/p-amedford6/0/shared/rich_project_chbe-medford/medford-share/data/pseudos_module/espresso/nninc/pbe/van/Ti.UPF
     MD5 check sum: 8e4df49b7f0d34bbd5052bf3f5ea0213
     Pseudo is Ultrasoft, Zval = 12.0
     Generated by new atomic code, or converted to UPF format
     Using radial grid of  851 points,  6 beta functions with:
                l(1) =   0
                l(2) =   0
                l(3) =   1
                l(4) =   1
                l(5) =   2
                l(6) =   2
     Q(r) pseudized with  8 coefficients,  rinner =    1.000   1.000   1.000
                                                       1.000   1.000

     PseudoPot. # 2 for O  read from file:
     /storage/coda1/p-amedford6/0/shared/rich_project_chbe-medford/medford-share/data/pseudos_module/espresso/nninc/pbe/van/O.UPF
     MD5 check sum: 78c19812648e8988a0fe644b0f25305e
     Pseudo is Ultrasoft, Zval =  6.0
     Generated by new atomic code, or converted to UPF format
     Using radial grid of  737 points,  4 beta functions with:
                l(1) =   0
                l(2) =   0
                l(3) =   1
                l(4) =   1
     Q(r) pseudized with  8 coefficients,  rinner =    0.800   0.800   0.800

     PseudoPot. # 3 for N  read from file:
     /storage/coda1/p-amedford6/0/shared/rich_project_chbe-medford/medford-share/data/pseudos_module/espresso/nninc/pbe/van/N.UPF
     MD5 check sum: 90d10febe142ad51ac9d5be1deb811c4
     Pseudo is Ultrasoft, Zval =  5.0
     Generated by new atomic code, or converted to UPF format
     Using radial grid of  729 points,  4 beta functions with:
                l(1) =   0
                l(2) =   0
                l(3) =   1
                l(4) =   1
     Q(r) pseudized with  8 coefficients,  rinner =    0.800   0.800   0.800

     PseudoPot. # 4 for C  read from file:
     /storage/coda1/p-amedford6/0/shared/rich_project_chbe-medford/medford-share/data/pseudos_module/espresso/nninc/pbe/van/C.UPF
     MD5 check sum: 1a69bf6b8db32088f5b2163dbdb77a27
     Pseudo is Ultrasoft, Zval =  4.0
     Generated by new atomic code, or converted to UPF format
     Using radial grid of  721 points,  4 beta functions with:
                l(1) =   0
                l(2) =   0
                l(3) =   1
                l(4) =   1
     Q(r) pseudized with  8 coefficients,  rinner =    0.800   0.800   0.800

     PseudoPot. # 5 for H  read from file:
     /storage/coda1/p-amedford6/0/shared/rich_project_chbe-medford/medford-share/data/pseudos_module/espresso/nninc/pbe/van/H.UPF
     MD5 check sum: b5ee9d7bfd3a09ee7748110bda690ff7
     Pseudo is Ultrasoft, Zval =  1.0
     Generated by new atomic code, or converted to UPF format
     Using radial grid of  615 points,  1 beta functions with:
                l(1) =   0
     Q(r) pseudized with  8 coefficients,  rinner =    0.800

     atomic species   valence    mass     pseudopotential
        Ti1           12.00    47.86700     Ti( 1.00)
        O1             6.00    15.99900     O ( 1.00)
        N1             5.00    14.00700     N ( 1.00)
        C1             4.00    12.01100     C ( 1.00)
        H1             1.00     1.00800     H ( 1.00)

     No symmetry found

   Cartesian axes

     site n.     atom                  positions (alat units)
         1           Ti1 tau(   1) = (   0.0004258   2.9801865   6.0000000  )
         2           Ti1 tau(   2) = (   3.2906075   1.4906267   6.0002472  )
         3           O1  tau(   3) = (   0.0006271   0.0005054   7.9858123  )
         4           O1  tau(   4) = (   3.2906025   0.0005020   7.3038282  )
         5           O1  tau(   5) = (   4.5942328   1.4918067   9.2879030  )
         6           O1  tau(   6) = (   1.9868534   1.4903216   9.2879459  )
         7           Ti1 tau(   7) = (   3.2907910   2.8959150   9.1758416  )
         8           Ti1 tau(   8) = (   0.0015273   1.4827037   9.2680791  )
         9           O1  tau(   9) = (   3.2944872   5.9444814  11.3088555  )
        10           O1  tau(  10) = (   0.0116148   5.9584955  10.6183126  )
        11           O1  tau(  11) = (   1.2913257   1.4757505  12.6225222  )
        12           O1  tau(  12) = (   5.2743172   1.4729811  12.6021195  )
        13           Ti1 tau(  13) = (   0.0890023   2.9564894  12.7220187  )
        14           Ti1 tau(  14) = (   3.4221593   1.4702301  12.4648352  )
        15           O1  tau(  15) = (   0.0068176   5.9411714  14.5947238  )
        16           O1  tau(  16) = (   3.2944910   5.9492763  13.8828731  )
        17           O1  tau(  17) = (   4.5250581   1.4982466  16.0456249  )
        18           O1  tau(  18) = (   2.0665045   1.4881935  16.0281199  )
        19           Ti1 tau(  19) = (   3.2778778   2.9684174  15.6871799  )
        20           Ti1 tau(  20) = (   6.5490154   1.5309925  16.0314916  )
        21           O1  tau(  21) = (   3.2904802   0.0005063   4.7018136  )
        22           O1  tau(  22) = (   0.0123181   0.0076990  17.1679072  )
        23           O1  tau(  23) = (   1.3043587   1.4918075   6.0039043  )
        24           O1  tau(  24) = (   5.2767064   1.4903225   6.0039473  )
        25           Ti1 tau(  25) = (   0.0000382   5.9609847   6.0000000  )
        26           Ti1 tau(  26) = (   3.2902200   4.4714249   6.0002472  )
        27           O1  tau(  27) = (   0.0002396   2.9813036   7.9858123  )
        28           O1  tau(  28) = (   3.2902150   2.9813002   7.3038282  )
        29           O1  tau(  29) = (   4.5938453   4.4726049   9.2879030  )
        30           O1  tau(  30) = (   1.9864658   4.4711199   9.2879459  )
        31           Ti1 tau(  31) = (   3.2891106   5.8743827   9.1763621  )
        32           Ti1 tau(  32) = (   0.0006254   4.4649316   9.2693709  )
        33           O1  tau(  33) = (   3.2980042   2.9668427  11.3079272  )
        34           O1  tau(  34) = (   0.0092240   2.9805883  10.6323155  )
        35           O1  tau(  35) = (   1.2899229   4.4488879  12.6271902  )
        36           O1  tau(  36) = (   5.2743549   4.4545148  12.6090941  )
        37           Ti1 tau(  37) = (   0.1039690   5.9375691  12.6739196  )
        38           Ti1 tau(  38) = (   3.4213609   4.4493060  12.4702176  )
        39           O1  tau(  39) = (   6.5648181   2.9459624  14.6378081  )
        40           O1  tau(  40) = (   3.2943236   2.9658899  13.8785053  )
        41           O1  tau(  41) = (   4.5287159   4.4634493  16.0515226  )
        42           O1  tau(  42) = (   2.0597896   4.4749507  16.0164256  )
        43           Ti1 tau(  43) = (   3.2714021   5.9517381  15.6902239  )
        44           Ti1 tau(  44) = (   6.5616293   4.5902425  16.0297769  )
        45           O1  tau(  45) = (   3.2900926   2.9813045   4.7018136  )
        46           O1  tau(  46) = (   1.3039711   4.4726057   6.0039043  )
        47           O1  tau(  47) = (   5.2763189   4.4711207   6.0039473  )
        48           N1  tau(  48) = (   0.6459789   3.0609845  18.5091170  )
        49           N1  tau(  49) = (   0.0956274   2.9759187  17.3381616  )
        50           C1  tau(  50) = (   0.0579326   3.2697647  19.6266723  )
        51           H1  tau(  51) = (   5.5668954   3.3836083  19.7010695  )
        52           H1  tau(  52) = (   0.6727643   3.3288843  20.5134281  )

     number of k points=    10  Fermi-Dirac smearing, width (Ry)=  0.0073
                       cart. coord. in units 2pi/alat
        k(    1) = (   0.0000000   0.0000000   0.0000000), wk =   0.1250000
        k(    2) = (   0.0000000   0.0419351   0.0000000), wk =   0.2500000
        k(    3) = (   0.0000000  -0.0838702   0.0000000), wk =   0.1250000
        k(    4) = (   0.0379955   0.0000049   0.0000000), wk =   0.2500000
        k(    5) = (   0.0379955   0.0419400   0.0000000), wk =   0.2500000
        k(    6) = (   0.0379955  -0.0838652   0.0000000), wk =   0.2500000
        k(    7) = (   0.0379955  -0.0419301   0.0000000), wk =   0.2500000
        k(    8) = (  -0.0759910  -0.0000099   0.0000000), wk =   0.1250000
        k(    9) = (  -0.0759910   0.0419252   0.0000000), wk =   0.2500000
        k(   10) = (  -0.0759910  -0.0838800   0.0000000), wk =   0.1250000

     Initial potential from superposition of free atoms

     starting charge  377.99917, renormalised to  394.00000

     negative rho (up, down):  1.509E-02 0.000E+00

     %%%%%%%%%%%%%%%%%%%%%%%%%%%%%%%%%%%%%%%%%%%%%%%%%%%%%%%%%%%%%%%%%%%%%%%%
     %                                                                      %
     % You are using vdW-DF, which was implemented by the Thonhauser group. %
     % Please cite the following two papers that made this development      %
     % possible and the two reviews that describe the various versions:     %
     %                                                                      %
     %   T. Thonhauser et al., PRL 115, 136402 (2015).                      %
     %   T. Thonhauser et al., PRB 76, 125112 (2007).                       %
     %   K. Berland et al., Rep. Prog. Phys. 78, 066501 (2015).             %
     %   D.C. Langreth et al., J. Phys.: Condens. Matter 21, 084203 (2009). %
     %                                                                      %
     %                                                                      %
     % If you are calculating the stress with vdW-DF, please also cite:     %
     %                                                                      %
     %   R. Sabatini et al., J. Phys.: Condens. Matter 24, 424209 (2012).   %
     %                                                                      %
     %%%%%%%%%%%%%%%%%%%%%%%%%%%%%%%%%%%%%%%%%%%%%%%%%%%%%%%%%%%%%%%%%%%%%%%%

     Adding external electric field

     Computed dipole along edir(3) :
        Dipole               -7.6437 Ry au,        -19.4284 Debye
        Dipole field         -0.0144 Ry au,

        Potential amp.        1.3372 Ry
        Total length         46.3494 bohr

     Starting wfcs are  298 atomic wfcs
  @ DRIVER MODE: Message from server: STATUS
  @ DRIVER MODE: Message from server: POSDATA
  @ DRIVER MODE: Reading and sharing cell
  @ DRIVER MODE: Reading and sharing positions
  @ DRIVER MODE: Received positions

     Self-consistent Calculation

     iteration #  1     ecut=    29.40 Ry     beta= 0.05
     Davidson diagonalization with overlap
     c_bands:  1 eigenvalues not converged
     c_bands:  1 eigenvalues not converged
     c_bands:  1 eigenvalues not converged
     c_bands:  1 eigenvalues not converged
     c_bands:  1 eigenvalues not converged
     c_bands:  1 eigenvalues not converged
     ethr =  1.00E-05,  avg # of iterations = 18.6

[...]

     total energy              =   -2699.57050890 Ry
     estimated scf accuracy    <    2638.50393438 Ry

[...]

     iteration #  3     ecut=    29.40 Ry     beta= 0.05
     Davidson diagonalization with overlap
     ethr =  1.00E-02,  avg # of iterations = 15.6

[...]

     iteration # 53     ecut=    29.40 Ry     beta= 0.05
     Davidson diagonalization with overlap
     c_bands:  1 eigenvalues not converged
     ethr =  3.35E-07,  avg # of iterations =  6.9

[...]

     total energy              =   -2937.89144858 Ry
     estimated scf accuracy    <       0.00000016 Ry

     iteration # 74     ecut=    29.40 Ry     beta= 0.05
     Davidson diagonalization with overlap
     ethr =  4.12E-11,  avg # of iterations =  5.8

     negative rho (up, down):  1.608E-02 0.000E+00

     Adding external electric field

     Computed dipole along edir(3) :
        Dipole                0.5232 Ry au,          1.3300 Debye
        Dipole field          0.0010 Ry au,

        Potential amp.       -0.0915 Ry
        Total length         46.3494 bohr

     End of self-consistent calculation

          k = 0.0000 0.0000 0.0000 ( 18029 PWs)   bands (ev):

   -56.3135 -56.2796 -55.8944 -55.8912 -55.8584 -55.8572 -55.8286 -55.7949
   -55.6770 -55.6680 -55.6374 -55.6314 -55.1616 -55.1357 -55.1276 -55.0587
   -32.7695 -32.6056 -32.5783 -32.4724 -32.4357 -32.3930 -32.3791 -32.3562
   -32.3150 -32.1924 -32.1793 -32.1486 -32.1403 -32.1171 -32.1063 -32.0764
   -32.0607 -32.0599 -32.0569 -32.0298 -32.0259 -32.0215 -32.0206 -32.0070
   -31.9950 -31.9911 -31.9806 -31.9388 -31.9114 -31.9069 -31.8427 -31.8289
   -31.8135 -31.8014 -31.7868 -31.7413 -31.6616 -31.5633 -31.4884 -31.4651
   -31.3889 -31.3805 -31.3463 -31.3130 -31.2949 -31.2609 -31.1858 -31.1839
   -17.7327 -16.6859 -16.5297 -16.2511 -16.0258 -15.9985 -15.8617 -15.8283
   -15.8039 -15.7759 -15.6555 -15.6154 -15.5781 -15.4612 -15.4186 -15.4061
   -15.3889 -15.3690 -15.3633 -15.2750 -15.2518 -15.2349 -15.1833 -15.0879
   -15.0572 -15.0157 -14.8740 -14.8576 -14.7606 -14.5003 -13.6627 -13.5488
   -11.9345  -6.6645  -4.6419  -4.1539  -4.0871  -4.0174  -3.8648  -3.7816
    -3.5954  -3.5605  -3.4668  -3.2390  -3.1541  -3.1447  -3.0691  -3.0449
    -3.0343  -2.9421  -2.8748  -2.8432  -2.8210  -2.7992  -2.7419  -2.6638
    -2.6181  -2.5851  -2.5656  -2.5335  -2.4271  -2.3722  -2.3565  -2.3321
    -2.2741  -2.2584  -2.2345  -2.2298  -2.1936  -2.1816  -2.1016  -2.0683
    -1.9448  -1.8715  -1.7477  -1.7399  -1.6688  -1.6492  -1.6253  -1.4261
    -1.4024  -1.3273  -1.2919  -1.2360  -1.2100  -1.1592  -1.0947  -1.0607
    -0.9636  -0.9355  -0.9058  -0.8710  -0.8483  -0.8182  -0.7987  -0.7394
    -0.6916  -0.5161  -0.4752  -0.4412  -0.3449  -0.3307  -0.3003  -0.2622
    -0.2497  -0.1957  -0.1894  -0.1759  -0.1176  -0.1037  -0.0185   0.0485
     0.0545   0.1037   0.1779   0.2404   0.2767   0.3948   0.4433   0.5109
     0.6066   0.6147   0.6754   0.8257   0.8394   0.8599   0.8636   1.0722
     1.3197   1.4219   1.4638   1.5652   2.7705   2.9071   3.0161   3.2120
     3.3285   3.3477   3.5236   3.6638   3.7014   3.7587   3.7662

[...]

          k = 0.0380-0.0419 0.0000 ( 17876 PWs)   bands (ev):

[...]

          k =-0.0760-0.0000 0.0000 ( 17886 PWs)   bands (ev):

[...]

          k =-0.0760-0.0839 0.0000 ( 17948 PWs)   bands (ev):

   -56.2966 -56.2963 -55.8787 -55.8766 -55.8740 -55.8715 -55.8127 -55.8109
   -55.6666 -55.6556 -55.6477 -55.6438 -55.1446 -55.1444 -55.1316 -55.0627
   -32.5913 -32.5908 -32.5853 -32.5851 -32.4240 -32.4236 -32.2426 -32.2387
   -32.1817 -32.1761 -32.1534 -32.1513 -32.1351 -32.1322 -32.0922 -32.0883
   -32.0662 -32.0604 -32.0540 -32.0516 -32.0407 -32.0393 -32.0258 -32.0247
   -32.0145 -32.0012 -31.9806 -31.9718 -31.9460 -31.9350 -31.8862 -31.8798
   -31.8725 -31.8470 -31.8151 -31.8114 -31.5507 -31.4780 -31.4779 -31.4055
   -31.3770 -31.3768 -31.3578 -31.3414 -31.3378 -31.3378 -31.2683 -31.2433
   -17.7267 -16.0460 -16.0438 -16.0392 -16.0328 -15.9150 -15.9129 -15.7562
   -15.7542 -15.7280 -15.7226 -15.5777 -15.5543 -15.5127 -15.5119 -15.4719
   -15.4620 -15.3936 -15.3908 -15.3814 -15.3755 -15.3610 -15.3564 -15.3120
   -15.2707 -15.0323 -14.9594 -14.8996 -14.7845 -14.6907 -13.6513 -13.6512
   -11.9388  -6.6592  -4.5828  -4.0809  -3.3363  -3.3317  -3.1680  -3.1502
    -3.0964  -3.0951  -3.0156  -2.9708  -2.9697  -2.8546  -2.8323  -2.7912
    -2.7877  -2.7736  -2.7710  -2.7375  -2.7315  -2.7098  -2.7033  -2.6475
    -2.6326  -2.6259  -2.6208  -2.5483  -2.5044  -2.4763  -2.4434  -2.4095
    -2.3809  -2.2887  -2.2850  -2.2485  -2.2273  -2.1673  -2.1637  -2.1102
    -2.0748  -2.0078  -1.9983  -1.7866  -1.7399  -1.7306  -1.6807  -1.5939
    -1.5716  -1.4264  -1.3952  -1.3340  -1.3232  -1.2711  -1.2530  -1.2439
    -1.1569  -1.1489  -1.1407  -1.0652  -1.0566  -0.9955  -0.9590  -0.9277
    -0.8420  -0.8277  -0.7891  -0.7863  -0.7762  -0.7088  -0.6622  -0.5901
    -0.5418  -0.5284  -0.4095  -0.3608  -0.2970  -0.2309  -0.1884  -0.0846
    -0.0414  -0.0318   0.1778   0.1885   0.2329   0.3236   0.4440   0.4455
     0.4839   0.5753   0.5972   0.6227   0.6393   0.8370   0.9104   1.2396
     1.2407   1.2805   1.2809   1.5290   2.7291   3.4317   3.4326   3.4576
     3.4581   3.5941   3.6178   3.6543   3.6635   3.7468   3.7507

     the Fermi energy is     2.8566 ev

!    total energy              =   -2937.89146039 Ry
     estimated scf accuracy    <       0.00000003 Ry
     smearing contrib. (-TS)   =      -0.01396280 Ry
     internal energy E=F+TS    =   -2937.87749759 Ry

     The total energy is F=E-TS. E is the sum of the following terms:
     one-electron contribution =  -24294.08498469 Ry
     hartree contribution      =   12233.39380103 Ry
     xc contribution           =    -484.32097329 Ry
     ewald contribution        =    9607.13414269 Ry
     electric field correction =       0.00051667 Ry

     convergence has been achieved in  74 iterations

     Forces acting on atoms (cartesian axes, Ry/au):

     atom    1 type  1   force =     0.00010921   -0.00020867    0.10742543
     atom    2 type  1   force =    -0.00012372   -0.00062828   -0.16928314
     atom    3 type  2   force =    -0.00015982    0.00000454   -0.04191979
     atom    4 type  2   force =     0.00005503   -0.00093529    0.04202730
     atom    5 type  2   force =    -0.01491738    0.00022182   -0.00302779
     atom    6 type  2   force =     0.01655272    0.00103780   -0.00400639
     atom    7 type  1   force =    -0.00113334   -0.00212788    0.00237034
     atom    8 type  1   force =     0.00131806    0.00452789    0.07553979
     atom    9 type  2   force =     0.00004389    0.00010909    0.00044569
     atom   10 type  2   force =    -0.00132123    0.00009838   -0.04721602
     atom   11 type  2   force =    -0.00046871    0.00031774    0.00024991
     atom   12 type  2   force =    -0.00008287    0.00050187    0.00015747
     atom   13 type  1   force =     0.00045019   -0.00041544    0.00069024
     atom   14 type  1   force =    -0.00015190   -0.00011300   -0.00008142
     atom   15 type  2   force =    -0.00023291   -0.00020418    0.00023379
     atom   16 type  2   force =     0.00019613    0.00024213   -0.00013343
     atom   17 type  2   force =     0.00011817    0.00050323    0.00033286
     atom   18 type  2   force =    -0.00040240   -0.00004791   -0.00028090
     atom   19 type  1   force =     0.00017078    0.00076056   -0.00026209
     atom   20 type  1   force =     0.00018760    0.00008396    0.00003363
     atom   21 type  2   force =     0.00007187    0.00003671    0.10164831
     atom   22 type  2   force =    -0.00043357    0.00040966    0.00012632
     atom   23 type  2   force =    -0.07419622   -0.00003491   -0.02981217
     atom   24 type  2   force =     0.07415319    0.00041865   -0.02981674
     atom   25 type  1   force =     0.00025569   -0.00034691    0.10692227
     atom   26 type  1   force =    -0.00002773   -0.00037363   -0.16936289
     atom   27 type  2   force =    -0.00004051   -0.00029169   -0.04086328
     atom   28 type  2   force =     0.00010885   -0.00073617    0.04200020
     atom   29 type  2   force =    -0.01522148    0.00063853   -0.00331748
     atom   30 type  2   force =     0.01678501    0.00101304   -0.00429015
     atom   31 type  1   force =    -0.00133324    0.00038226    0.00212425
     atom   32 type  1   force =     0.00130810   -0.00711768    0.07616416
     atom   33 type  2   force =    -0.00004770    0.00016899    0.00017261
     atom   34 type  2   force =    -0.00146242   -0.00007921   -0.05552387
     atom   35 type  2   force =     0.00001045    0.00006131    0.00013179
     atom   36 type  2   force =    -0.00003874    0.00022023   -0.00013200
     atom   37 type  1   force =     0.00022320    0.00028348    0.00037620
     atom   38 type  1   force =     0.00010546    0.00022366   -0.00033152
     atom   39 type  2   force =    -0.00022465   -0.00003980   -0.00059969
     atom   40 type  2   force =     0.00007948    0.00026732    0.00018865
     atom   41 type  2   force =    -0.00041663    0.00023279   -0.00039656
     atom   42 type  2   force =     0.00018194    0.00021387    0.00024787
     atom   43 type  1   force =    -0.00014811    0.00062508    0.00021349
     atom   44 type  1   force =    -0.00020496    0.00017846   -0.00014150
     atom   45 type  2   force =     0.00006035    0.00000033    0.10166107
     atom   46 type  2   force =    -0.07418589    0.00001463   -0.02978191
     atom   47 type  2   force =     0.07414108    0.00044677   -0.02980237
     atom   48 type  3   force =     0.00101418    0.00065580   -0.00056337
     atom   49 type  3   force =     0.00010552   -0.00016299   -0.00072255
     atom   50 type  4   force =     0.01208289   -0.00231889    0.00053528
     atom   51 type  5   force =    -0.01231290    0.00152887    0.00012766
     atom   52 type  5   force =    -0.00060000   -0.00024694   -0.00047756

     Total force =     0.389609     Total SCF correction =     0.000644
  @ DRIVER MODE: Message from server: STATUS
  @ DRIVER MODE: Message from server: GETFORCE
  @ DRIVER MODE: Returning v,forces,stress,ensemble

     Writing output data file ./calc.save/
  @ DRIVER MODE: Message from server: EXIT
  @ DRIVE MODE: Exiting

     General routines

     Parallel routines

   This run was terminated on:   5: 8:57   9Sep2021

   JOB DONE.