     Program PWSCF v.6.7GPU starts on 28Sep2021 at  8:32:32

     R & G space division:  proc/nbgrp/npool/nimage =       8
     Reading input from /storage/home/hcoda1/3/ntian30/research/carbon/CxH_vib/H2O_calc/ads_slab/CH3OHN2H2O_a/out_0032/pw.inp
Warning: card &CELL ignored
Warning: card   CELL_DYNAMICS='IPI', ignored
Warning: card / ignored

     Current dimensions of program PWSCF are:
     Max number of different atomic species (ntypx) = 10
     Max number of k-points (npk) =  40000
     Max angular momentum in pseudopotentials (lmaxx) =  3
     Presently no symmetry can be used with electric field

     Message from routine cell_base_init:
     DEPRECATED: use true lattice parameter, not A to a.u. conversion factor

     IMPORTANT: XC functional enforced from input :
     Exchange-correlation= BEEF-VDW
                           (   1   4  43  14   2   0   0)
     Any further DFT definition will be discarded
     Please, verify this is what you really want

  @ DRIVER MODE: Connecting to
 qe_1139763_3000313.sched-torque.pace.gatech.edu3cfvn5qu_scratch
  using UNIX socket
  @ DRIVER MODE: Message from server: STATUS
  @ DRIVER MODE: Message from server: INIT
  @ DRIVER MODE: Receiving replica           0          -1
  @ DRIVER MODE: Receiving encoded integer          25
  @ DRIVER MODE:  SCF:  T  FORCE:  T  STRESS:  F  VC:  F  ENSEMBLE:  F
  @ DRIVER MODE:  SCF:  T  FORCE:  T  STRESS:  F  VC:  F  ENSEMBLE:  F

     Using Slab Decomposition

     bravais-lattice index     =            0
     lattice parameter (alat)  =       1.8897  a.u.
     unit-cell volume          =    6658.9804 (a.u.)^3
     number of atoms/cell      =           58
     number of atomic types    =            5
     number of electrons       =       410.00
     number of Kohn-Sham states=          215
     kinetic-energy cutoff     =      29.3995  Ry
     charge density cutoff     =     293.9946  Ry
     scf convergence threshold =      7.3E-08
     mixing beta               =       0.0500
     number of iterations used =            8  plain     mixing
     Exchange-correlation= BEEF-VDW
                           (   1   4  43  14   2   0   0)

     celldm(1)=   1.889726  celldm(2)=   0.000000  celldm(3)=   0.000000
     celldm(4)=   0.000000  celldm(5)=   0.000000  celldm(6)=   0.000000

     crystal axes: (cart. coord. in units of alat)
               a(1) = (   6.579727   0.000000   0.000000 )
               a(2) = (  -0.000775   5.961596   0.000000 )
               a(3) = (   0.000000   0.000000  25.155947 )

     reciprocal axes: (cart. coord. in units 2 pi/alat)
               b(1) = (  0.151982  0.000020  0.000000 )
               b(2) = (  0.000000  0.167740  0.000000 )
               b(3) = (  0.000000  0.000000  0.039752 )

     PseudoPot. # 1 for Ti read from file:
     /storage/coda1/p-amedford6/0/shared/rich_project_chbe-medford/medford-share/data/pseudos_module/espresso/nninc/pbe/van/Ti.UPF
     MD5 check sum: 8e4df49b7f0d34bbd5052bf3f5ea0213
     Pseudo is Ultrasoft, Zval = 12.0
     Generated by new atomic code, or converted to UPF format
     Using radial grid of  851 points,  6 beta functions with:
                l(1) =   0
                l(2) =   0
                l(3) =   1
                l(4) =   1
                l(5) =   2
                l(6) =   2
     Q(r) pseudized with  8 coefficients,  rinner =    1.000   1.000   1.000
                                                       1.000   1.000

     PseudoPot. # 2 for O  read from file:
     /storage/coda1/p-amedford6/0/shared/rich_project_chbe-medford/medford-share/data/pseudos_module/espresso/nninc/pbe/van/O.UPF
     MD5 check sum: 78c19812648e8988a0fe644b0f25305e
     Pseudo is Ultrasoft, Zval =  6.0
     Generated by new atomic code, or converted to UPF format
     Using radial grid of  737 points,  4 beta functions with:
                l(1) =   0
                l(2) =   0
                l(3) =   1
                l(4) =   1
     Q(r) pseudized with  8 coefficients,  rinner =    0.800   0.800   0.800

     PseudoPot. # 3 for C  read from file:
     /storage/coda1/p-amedford6/0/shared/rich_project_chbe-medford/medford-share/data/pseudos_module/espresso/nninc/pbe/van/C.UPF
     MD5 check sum: 1a69bf6b8db32088f5b2163dbdb77a27
     Pseudo is Ultrasoft, Zval =  4.0
     Generated by new atomic code, or converted to UPF format
     Using radial grid of  721 points,  4 beta functions with:
                l(1) =   0
                l(2) =   0
                l(3) =   1
                l(4) =   1
     Q(r) pseudized with  8 coefficients,  rinner =    0.800   0.800   0.800

     PseudoPot. # 4 for H  read from file:
     /storage/coda1/p-amedford6/0/shared/rich_project_chbe-medford/medford-share/data/pseudos_module/espresso/nninc/pbe/van/H.UPF
     MD5 check sum: b5ee9d7bfd3a09ee7748110bda690ff7
     Pseudo is Ultrasoft, Zval =  1.0
     Generated by new atomic code, or converted to UPF format
     Using radial grid of  615 points,  1 beta functions with:
                l(1) =   0
     Q(r) pseudized with  8 coefficients,  rinner =    0.800

     PseudoPot. # 5 for N  read from file:
     /storage/coda1/p-amedford6/0/shared/rich_project_chbe-medford/medford-share/data/pseudos_module/espresso/nninc/pbe/van/N.UPF
     MD5 check sum: 90d10febe142ad51ac9d5be1deb811c4
     Pseudo is Ultrasoft, Zval =  5.0
     Generated by new atomic code, or converted to UPF format
     Using radial grid of  729 points,  4 beta functions with:
                l(1) =   0
                l(2) =   0
                l(3) =   1
                l(4) =   1
     Q(r) pseudized with  8 coefficients,  rinner =    0.800   0.800   0.800

     atomic species   valence    mass     pseudopotential
        Ti1           12.00    47.86700     Ti( 1.00)
        O1             6.00    15.99900     O ( 1.00)
        C1             4.00    12.01100     C ( 1.00)
        H1             1.00     1.00800     H ( 1.00)
        N1             5.00    14.00700     N ( 1.00)

     No symmetry found

   Cartesian axes

     site n.     atom                  positions (alat units)
         1           Ti1 tau(   1) = (   0.0004258   2.9801865   6.0000000  )
         2           Ti1 tau(   2) = (   3.2906075   1.4906267   6.0002472  )
         3           O1  tau(   3) = (   0.0006271   0.0005054   7.9858123  )
         4           O1  tau(   4) = (   3.2906025   0.0005020   7.3038282  )
         5           O1  tau(   5) = (   4.5942328   1.4918067   9.2879030  )
         6           O1  tau(   6) = (   1.9868534   1.4903216   9.2879459  )
         7           Ti1 tau(   7) = (   3.3250738   2.9918783   9.1599549  )
         8           Ti1 tau(   8) = (   0.0412716   1.4903975   9.2658274  )
         9           O1  tau(   9) = (   3.2852344   0.0116916  11.3753809  )
        10           O1  tau(  10) = (   6.5701620   0.0027176  10.6052010  )
        11           O1  tau(  11) = (   1.2758103   1.4969824  12.6410148  )
        12           O1  tau(  12) = (   5.2796941   1.4985041  12.6691897  )
        13           Ti1 tau(  13) = (   6.5531116   2.9870417  12.5348353  )
        14           Ti1 tau(  14) = (   3.2504356   1.4995581  12.5215122  )
        15           O1  tau(  15) = (   0.0383206   0.0046779  14.6787597  )
        16           O1  tau(  16) = (   3.2537876   0.0095675  14.0320577  )
        17           O1  tau(  17) = (   4.5855444   1.5609978  16.0639115  )
        18           O1  tau(  18) = (   2.0343745   1.5440679  16.2001998  )
        19           Ti1 tau(  19) = (   3.3058624   3.0043567  15.7064231  )
        20           Ti1 tau(  20) = (   6.5549511   1.4266458  15.8675638  )
        21           O1  tau(  21) = (   3.2904802   0.0005063   4.7018136  )
        22           O1  tau(  22) = (   6.4974171   0.0126247  17.2237355  )
        23           O1  tau(  23) = (   1.3043587   1.4918075   6.0039043  )
        24           O1  tau(  24) = (   5.2767064   1.4903225   6.0039473  )
        25           Ti1 tau(  25) = (   0.0000382   5.9609847   6.0000000  )
        26           Ti1 tau(  26) = (   3.2902200   4.4714249   6.0002472  )
        27           O1  tau(  27) = (   0.0002396   2.9813036   7.9858123  )
        28           O1  tau(  28) = (   3.2902150   2.9813002   7.3038282  )
        29           O1  tau(  29) = (   4.5938453   4.4726049   9.2879030  )
        30           O1  tau(  30) = (   1.9864658   4.4711199   9.2879459  )
        31           Ti1 tau(  31) = (   3.3194574   0.0113313   9.1541029  )
        32           Ti1 tau(  32) = (   0.0414074   4.4589881   9.2683624  )
        33           O1  tau(  33) = (   3.2821265   2.9896323  11.3676027  )
        34           O1  tau(  34) = (   6.5712111   2.9825298  10.6251173  )
        35           O1  tau(  35) = (   1.2751242   4.4805681  12.6359318  )
        36           O1  tau(  36) = (   5.2791817   4.4782367  12.6627471  )
        37           Ti1 tau(  37) = (   6.5506445   0.0032150  12.4806913  )
        38           Ti1 tau(  38) = (   3.2507345   4.4881811  12.5195668  )
        39           O1  tau(  39) = (   0.0469291   2.9928743  14.8464778  )
        40           O1  tau(  40) = (   3.2514374   2.9975957  13.9281162  )
        41           O1  tau(  41) = (   4.5866068   4.4203933  16.0984022  )
        42           O1  tau(  42) = (   2.0418857   4.4579080  16.2200674  )
        43           Ti1 tau(  43) = (   3.2648600   0.0292614  15.8571223  )
        44           Ti1 tau(  44) = (   6.5763064   4.6169283  15.9626260  )
        45           O1  tau(  45) = (   3.2900926   2.9813045   4.7018136  )
        46           O1  tau(  46) = (   1.3039711   4.4726057   6.0039043  )
        47           O1  tau(  47) = (   5.2763189   4.4711207   6.0039473  )
        48           C1  tau(  48) = (   6.0301898   2.9050411  18.9351799  )
        49           O1  tau(  49) = (   0.1575529   2.9516393  17.6723866  )
        50           H1  tau(  50) = (   4.9714676   2.8818909  18.6991823  )
        51           H1  tau(  51) = (   1.1132637   2.8218831  17.8130049  )
        52           H1  tau(  52) = (   6.2985093   1.9952365  19.4696065  )
        53           H1  tau(  53) = (   6.2832381   3.7939772  19.5169533  )
        54           N1  tau(  54) = (   4.8840950   3.1052494  22.6850861  )
        55           N1  tau(  55) = (   4.2680757   3.3403818  21.7970487  )
        56           O1  tau(  56) = (   3.8772584   0.1141246  18.3039653  )
        57           H1  tau(  57) = (   4.8407149   0.0692883  18.0716375  )
        58           H1  tau(  58) = (   3.6680196   5.2122673  18.6877519  )

     number of k points=    10  Fermi-Dirac smearing, width (Ry)=  0.0073
                       cart. coord. in units 2pi/alat
        k(    1) = (   0.0000000   0.0000000   0.0000000), wk =   0.1250000
        k(    2) = (   0.0000000   0.0419351   0.0000000), wk =   0.2500000
        k(    3) = (   0.0000000  -0.0838702   0.0000000), wk =   0.1250000
        k(    4) = (   0.0379955   0.0000049   0.0000000), wk =   0.2500000
        k(    5) = (   0.0379955   0.0419400   0.0000000), wk =   0.2500000
        k(    6) = (   0.0379955  -0.0838652   0.0000000), wk =   0.2500000
        k(    7) = (   0.0379955  -0.0419301   0.0000000), wk =   0.2500000
        k(    8) = (  -0.0759910  -0.0000099   0.0000000), wk =   0.1250000
        k(    9) = (  -0.0759910   0.0419252   0.0000000), wk =   0.2500000
        k(   10) = (  -0.0759910  -0.0838800   0.0000000), wk =   0.1250000

     Initial potential from superposition of free atoms

     starting charge  393.99913, renormalised to  410.00000

     negative rho (up, down):  9.553E-03 0.000E+00

     %%%%%%%%%%%%%%%%%%%%%%%%%%%%%%%%%%%%%%%%%%%%%%%%%%%%%%%%%%%%%%%%%%%%%%%%
     %                                                                      %
     % You are using vdW-DF, which was implemented by the Thonhauser group. %
     % Please cite the following two papers that made this development      %
     % possible and the two reviews that describe the various versions:     %
     %                                                                      %
     %   T. Thonhauser et al., PRL 115, 136402 (2015).                      %
     %   T. Thonhauser et al., PRB 76, 125112 (2007).                       %
     %   K. Berland et al., Rep. Prog. Phys. 78, 066501 (2015).             %
     %   D.C. Langreth et al., J. Phys.: Condens. Matter 21, 084203 (2009). %
     %                                                                      %
     %                                                                      %
     % If you are calculating the stress with vdW-DF, please also cite:     %
     %                                                                      %
     %   R. Sabatini et al., J. Phys.: Condens. Matter 24, 424209 (2012).   %
     %                                                                      %
     %%%%%%%%%%%%%%%%%%%%%%%%%%%%%%%%%%%%%%%%%%%%%%%%%%%%%%%%%%%%%%%%%%%%%%%%

     Adding external electric field

     Computed dipole along edir(3) :
        Dipole              -20.0784 Ry au,        -51.0342 Debye
        Dipole field         -0.0379 Ry au,

        Potential amp.        3.5124 Ry
        Total length         46.3494 bohr

     Starting wfcs are  310 atomic wfcs
  @ DRIVER MODE: Message from server: STATUS
  @ DRIVER MODE: Message from server: POSDATA
  @ DRIVER MODE: Reading and sharing cell
  @ DRIVER MODE: Reading and sharing positions
  @ DRIVER MODE: Received positions

     Self-consistent Calculation

     iteration #  1     ecut=    29.40 Ry     beta= 0.05
     Davidson diagonalization with overlap
     c_bands:  1 eigenvalues not converged
     c_bands:  1 eigenvalues not converged
     c_bands:  5 eigenvalues not converged
     c_bands:  1 eigenvalues not converged
     c_bands:  4 eigenvalues not converged
     c_bands:  3 eigenvalues not converged
     ethr =  1.00E-05,  avg # of iterations = 32.1

[...]

     total energy              =   -2098.61763750 Ry
     estimated scf accuracy    <   10668.29704096 Ry

     iteration #  2     ecut=    29.40 Ry     beta= 0.05
     Davidson diagonalization with overlap
     ethr =  1.00E-02,  avg # of iterations = 30.4

[...]

     iteration # 98     ecut=    29.40 Ry     beta= 0.05
     Davidson diagonalization with overlap
     ethr =  3.04E-11,  avg # of iterations =  9.7

[...]

     total energy              =   -3007.66319726 Ry
     estimated scf accuracy    <       0.00000008 Ry

     iteration # 99     ecut=    29.40 Ry     beta= 0.05
     Davidson diagonalization with overlap
     c_bands:  1 eigenvalues not converged
     ethr =  2.00E-11,  avg # of iterations = 16.9

     negative rho (up, down):  1.050E-02 0.000E+00

     Adding external electric field

     Computed dipole along edir(3) :
        Dipole                1.2312 Ry au,          3.1294 Debye
        Dipole field          0.0023 Ry au,

        Potential amp.       -0.2154 Ry
        Total length         46.3494 bohr

     End of self-consistent calculation

          k = 0.0000 0.0000 0.0000 ( 18029 PWs)   bands (ev):

   -54.9356 -54.9114 -54.8996 -54.8770 -54.8623 -54.8568 -54.8298 -54.8104
   -54.7823 -54.7802 -54.7457 -54.7246 -54.6933 -54.6907 -53.9996 -53.9656
   -31.5015 -31.4752 -31.4072 -31.3144 -31.2558 -31.2496 -31.2377 -31.2356
   -31.2001 -31.1657 -31.1565 -31.1542 -31.1500 -31.1269 -31.1202 -31.1144
   -31.0978 -31.0794 -31.0734 -31.0716 -31.0648 -31.0574 -31.0348 -31.0280
   -31.0277 -31.0220 -31.0071 -31.0049 -31.0044 -30.9679 -30.9509 -30.9310
   -30.9294 -30.9284 -30.9207 -30.9190 -30.9093 -30.8793 -30.8646 -30.8602
   -30.8557 -30.8362 -30.4116 -30.3093 -30.2877 -30.2278 -30.1415 -30.0305
   -21.6221 -19.8082 -18.2751 -15.7686 -15.5226 -15.3832 -15.2858 -15.1623
   -15.0320 -14.9582 -14.8378 -14.7658 -14.6720 -14.6584 -14.6404 -14.6187
   -14.5860 -14.5597 -14.5029 -14.4978 -14.4431 -14.4396 -14.4293 -14.4182
   -14.3855 -14.3692 -14.3389 -14.3300 -14.1673 -14.1017 -14.0423 -13.8976
   -12.5005 -12.3812 -10.8179  -6.8728  -6.5531  -6.0330  -4.8531  -4.7804
    -4.7279  -4.6224  -3.5448  -3.1022  -2.9510  -2.9159  -2.8939  -2.8717
    -2.7479  -2.6562  -2.6273  -2.4670  -2.3727  -2.2378  -2.2103  -2.1781
    -2.1400  -2.0717  -2.0156  -1.9291  -1.8997  -1.8592  -1.8395  -1.8158
    -1.8009  -1.7738  -1.7438  -1.6716  -1.6340  -1.5491  -1.5322  -1.4434
    -1.3926  -1.3843  -1.3411  -1.2783  -1.2748  -1.2644  -1.2240  -1.2102
    -1.2023  -1.1924  -1.1851  -1.0244  -0.9791  -0.9445  -0.8217  -0.7117
    -0.6193  -0.6086  -0.5060  -0.4925  -0.4296  -0.4250  -0.3858  -0.3463
    -0.2840  -0.1874  -0.1291  -0.0829  -0.0699   0.0407   0.1066   0.1213
     0.1825   0.2578   0.2729   0.2943   0.3239   0.4109   0.4787   0.5206
     0.5551   0.6197   0.6295   0.6769   0.7059   0.7469   0.8325   0.8862
     0.8899   0.9768   0.9941   1.0072   1.0326   1.0383   1.1363   1.1705
     1.2144   1.2426   1.3938   1.4292   1.6199   1.6556   1.9156   2.0142
     2.0259   2.1872   2.6118   2.6664   4.1545   4.2224   4.2588   4.2661
     4.2809   4.3604   4.6429   4.6539   4.6629   4.6746   4.6825

[...]

          k = 0.0380-0.0419 0.0000 ( 17876 PWs)   bands (ev):

[...]

          k =-0.0760-0.0000 0.0000 ( 17886 PWs)   bands (ev):

[...]

          k =-0.0760-0.0839 0.0000 ( 17948 PWs)   bands (ev):

   -54.9185 -54.9165 -54.8959 -54.8924 -54.8574 -54.8522 -54.8226 -54.8179
   -54.7896 -54.7652 -54.7605 -54.7091 -54.7063 -54.6949 -53.9825 -53.9825
   -31.3878 -31.3103 -31.3001 -31.2238 -31.2204 -31.1980 -31.1908 -31.1888
   -31.1820 -31.1593 -31.1447 -31.1428 -31.1351 -31.1292 -31.1101 -31.0962
   -31.0811 -31.0792 -31.0698 -31.0685 -31.0668 -31.0658 -31.0601 -31.0546
   -31.0298 -31.0251 -31.0204 -31.0151 -31.0149 -31.0122 -31.0115 -31.0114
   -31.0110 -30.9820 -30.9735 -30.9632 -30.9620 -30.9344 -30.9320 -30.8959
   -30.8927 -30.8782 -30.3003 -30.3003 -30.2245 -30.2241 -30.1847 -30.1846
   -21.6220 -19.8046 -18.2740 -15.3434 -15.2303 -15.0645 -14.9559 -14.9462
   -14.9177 -14.8585 -14.8153 -14.7841 -14.7441 -14.7338 -14.7044 -14.6865
   -14.6814 -14.6236 -14.5397 -14.5340 -14.5203 -14.4849 -14.4580 -14.4440
   -14.4420 -14.4275 -14.3907 -14.3889 -14.3697 -14.3586 -14.3015 -14.2095
   -12.4825 -12.4819 -10.8206  -6.8719  -6.5553  -6.0355  -4.8497  -4.7870
    -4.7216  -4.6110  -3.5365  -2.7687  -2.5412  -2.4978  -2.4247  -2.2588
    -2.1792  -2.1584  -2.0826  -2.0588  -2.0232  -1.9449  -1.9411  -1.9071
    -1.8671  -1.8428  -1.8370  -1.8186  -1.8002  -1.7671  -1.7466  -1.7250
    -1.7119  -1.6966  -1.6504  -1.6414  -1.6056  -1.6020  -1.5871  -1.5754
    -1.5561  -1.5454  -1.4644  -1.4360  -1.3955  -1.3091  -1.2932  -1.1639
    -1.1583  -1.1102  -1.0757  -1.0372  -1.0182  -0.9968  -0.9718  -0.9405
    -0.9097  -0.7380  -0.7170  -0.6737  -0.6224  -0.6163  -0.5435  -0.5278
    -0.4732  -0.4411  -0.3516  -0.3105  -0.2709  -0.1624  -0.1354  -0.1231
     0.0150   0.0208   0.0661   0.0677   0.1100   0.1485   0.1609   0.1680
     0.2428   0.2752   0.3115   0.3375   0.3613   0.5395   0.5755   0.6344
     0.7241   0.7419   0.9206   0.9508   0.9946   1.0755   1.1369   1.1909
     1.2130   1.3213   1.3288   1.3522   1.4437   1.4921   1.4933   1.5234
     2.3772   2.3801   2.4809   2.4837   4.2789   4.4097   4.4159   4.4958
     4.5696   4.6622   4.6686   4.6777   4.7075   4.7175   4.7235

     the Fermi energy is     4.2106 ev

!    total energy              =   -3007.66319930 Ry
     estimated scf accuracy    <       0.00000005 Ry
     smearing contrib. (-TS)   =      -0.03682885 Ry
     internal energy E=F+TS    =   -3007.62637045 Ry

     The total energy is F=E-TS. E is the sum of the following terms:
     one-electron contribution =  -22339.06956537 Ry
     hartree contribution      =   11271.32680723 Ry
     xc contribution           =    -502.07945965 Ry
     ewald contribution        =    8562.19298668 Ry
     electric field correction =       0.00286066 Ry

     convergence has been achieved in  99 iterations

     Forces acting on atoms (cartesian axes, Ry/au):

     atom    1 type  1   force =    -0.00027573   -0.00000940    0.09249909
     atom    2 type  1   force =    -0.00012976    0.00114113   -0.18324313
     atom    3 type  2   force =     0.00054920   -0.00040090   -0.02389026
     atom    4 type  2   force =     0.00079747    0.00021101    0.05087176
     atom    5 type  2   force =    -0.01551022   -0.00014157    0.00435969
     atom    6 type  2   force =     0.01422905   -0.00032622    0.00504192
     atom    7 type  1   force =    -0.00010973    0.00020872    0.00004309
     atom    8 type  1   force =    -0.00008118    0.00016507    0.00000497
     atom    9 type  2   force =     0.00007242    0.00004450    0.00012380
     atom   10 type  2   force =    -0.00000042    0.00001957   -0.00006102
     atom   11 type  2   force =     0.00017214    0.00001127   -0.00013800
     atom   12 type  2   force =     0.00003853    0.00002947   -0.00006086
     atom   13 type  1   force =     0.00017019    0.00011701   -0.00002866
     atom   14 type  1   force =     0.00027081    0.00016329   -0.00011996
     atom   15 type  2   force =     0.00027867    0.00037807   -0.00000149
     atom   16 type  2   force =     0.00015513   -0.00001695    0.00017132
     atom   17 type  2   force =     0.00000251    0.00014385    0.00015962
     atom   18 type  2   force =     0.00021262    0.00001521    0.00029942
     atom   19 type  1   force =     0.00008229   -0.00013781    0.00010713
     atom   20 type  1   force =     0.00020008   -0.00002015   -0.00013800
     atom   21 type  2   force =     0.00002989    0.00001538    0.10489290
     atom   22 type  2   force =    -0.00023332   -0.00002810    0.00012796
     atom   23 type  2   force =    -0.06801146   -0.00011441   -0.02684361
     atom   24 type  2   force =     0.06787511    0.00034230   -0.02688468
     atom   25 type  1   force =    -0.00011931   -0.00002739    0.09594951
     atom   26 type  1   force =    -0.00010830   -0.00143572   -0.18315690
     atom   27 type  2   force =     0.00049954   -0.00019562   -0.02269377
     atom   28 type  2   force =     0.00086524    0.00017985    0.05126683
     atom   29 type  2   force =    -0.01542715    0.00050177    0.00453195
     atom   30 type  2   force =     0.01418503    0.00077920    0.00523085
     atom   31 type  1   force =    -0.00009975    0.00005730   -0.00001676
     atom   32 type  1   force =    -0.00008082    0.00016195   -0.00003924
     atom   33 type  2   force =     0.00012773   -0.00002722    0.00016958
     atom   34 type  2   force =    -0.00000080    0.00007197    0.00001717
     atom   35 type  2   force =     0.00013130    0.00000142   -0.00003323
     atom   36 type  2   force =     0.00008212   -0.00000063    0.00009239
     atom   37 type  1   force =     0.00016337    0.00006524   -0.00010225
     atom   38 type  1   force =     0.00015474   -0.00003028    0.00002870
     atom   39 type  2   force =     0.00016642   -0.00008358   -0.00019939
     atom   40 type  2   force =     0.00002393   -0.00018038    0.00002284
     atom   41 type  2   force =     0.00020177   -0.00000485    0.00006489
     atom   42 type  2   force =    -0.00005444    0.00000737    0.00016084
     atom   43 type  1   force =    -0.00004707   -0.00018788    0.00117141
     atom   44 type  1   force =     0.00005910    0.00010698    0.00037653
     atom   45 type  2   force =     0.00003460    0.00001945    0.10482354
     atom   46 type  2   force =    -0.06802172   -0.00050853   -0.02683256
     atom   47 type  2   force =     0.06788158   -0.00008702   -0.02691050
     atom   48 type  3   force =     0.00244768    0.00193752    0.00119478
     atom   49 type  2   force =    -0.00035696   -0.00067460   -0.00070002
     atom   50 type  4   force =     0.00005414    0.00053448    0.00064450
     atom   51 type  4   force =     0.00007086   -0.00016249    0.00006838
     atom   52 type  4   force =     0.00017606   -0.00066421   -0.00009163
     atom   53 type  4   force =    -0.00240371   -0.00192416   -0.00127959
     atom   54 type  5   force =    -0.00080501   -0.00000633   -0.00091614
     atom   55 type  5   force =     0.00022236   -0.00002675    0.00000015
     atom   56 type  2   force =     0.00128911    0.00058566   -0.00083015
     atom   57 type  4   force =    -0.00100743   -0.00046898    0.00024100
     atom   58 type  4   force =    -0.00108852   -0.00012388    0.00045330

     Total force =     0.368172     Total SCF correction =     0.000622
  @ DRIVER MODE: Message from server: STATUS
  @ DRIVER MODE: Message from server: GETFORCE
  @ DRIVER MODE: Returning v,forces,stress,ensemble

     Writing output data file ./calc.save/
  @ DRIVER MODE: Message from server: EXIT
  @ DRIVE MODE: Exiting

     General routines

     Parallel routines

   This run was terminated on:   9: 7:30  28Sep2021

   JOB DONE.