     Program PWSCF v.6.7GPU starts on 24Aug2021 at  0:18:11

     R & G space division:  proc/nbgrp/npool/nimage =       6
     Reading input from /storage/home/hcoda1/3/ntian30/research/carbon/CH2_vib/ads_slab/CH2N2_a/out_0022/pw.inp
Warning: card &CELL ignored
Warning: card   CELL_DYNAMICS='IPI', ignored
Warning: card / ignored

     Current dimensions of program PWSCF are:
     Max number of different atomic species (ntypx) = 10
     Max number of k-points (npk) =  40000
     Max angular momentum in pseudopotentials (lmaxx) =  3
     Presently no symmetry can be used with electric field

     Message from routine cell_base_init:
     DEPRECATED: use true lattice parameter, not A to a.u. conversion factor

     IMPORTANT: XC functional enforced from input :
     Exchange-correlation= BEEF-VDW
                           (   1   4  43  14   2   0   0)
     Any further DFT definition will be discarded
     Please, verify this is what you really want

  @ DRIVER MODE: Connecting to
 qe_1139763_2632803.sched-torque.pace.gatech.edu7k_0xykh_scratch
  using UNIX socket
  @ DRIVER MODE: Message from server: STATUS
  @ DRIVER MODE: Message from server: INIT
  @ DRIVER MODE: Receiving replica           0          -1
  @ DRIVER MODE: Receiving encoded integer          25
  @ DRIVER MODE:  SCF:  T  FORCE:  T  STRESS:  F  VC:  F  ENSEMBLE:  F
  @ DRIVER MODE:  SCF:  T  FORCE:  T  STRESS:  F  VC:  F  ENSEMBLE:  F

     Using Slab Decomposition

     bravais-lattice index     =            0
     lattice parameter (alat)  =       1.8897  a.u.
     unit-cell volume          =    6658.9804 (a.u.)^3
     number of atoms/cell      =           52
     number of atomic types    =            5
     number of electrons       =       394.00
     number of Kohn-Sham states=          207
     kinetic-energy cutoff     =      29.3995  Ry
     charge density cutoff     =     293.9946  Ry
     scf convergence threshold =      7.3E-08
     mixing beta               =       0.0500
     number of iterations used =            8  plain     mixing
     Exchange-correlation= BEEF-VDW
                           (   1   4  43  14   2   0   0)

     celldm(1)=   1.889726  celldm(2)=   0.000000  celldm(3)=   0.000000
     celldm(4)=   0.000000  celldm(5)=   0.000000  celldm(6)=   0.000000

     crystal axes: (cart. coord. in units of alat)
               a(1) = (   6.579727   0.000000   0.000000 )
               a(2) = (  -0.000775   5.961596   0.000000 )
               a(3) = (   0.000000   0.000000  25.155947 )

     reciprocal axes: (cart. coord. in units 2 pi/alat)
               b(1) = (  0.151982  0.000020  0.000000 )
               b(2) = (  0.000000  0.167740  0.000000 )
               b(3) = (  0.000000  0.000000  0.039752 )

     PseudoPot. # 1 for Ti read from file:
     /storage/coda1/p-amedford6/0/shared/rich_project_chbe-medford/medford-share/data/pseudos_module/espresso/nninc/pbe/van/Ti.UPF
     MD5 check sum: 8e4df49b7f0d34bbd5052bf3f5ea0213
     Pseudo is Ultrasoft, Zval = 12.0
     Generated by new atomic code, or converted to UPF format
     Using radial grid of  851 points,  6 beta functions with:
                l(1) =   0
                l(2) =   0
                l(3) =   1
                l(4) =   1
                l(5) =   2
                l(6) =   2
     Q(r) pseudized with  8 coefficients,  rinner =    1.000   1.000   1.000
                                                       1.000   1.000

     PseudoPot. # 2 for O  read from file:
     /storage/coda1/p-amedford6/0/shared/rich_project_chbe-medford/medford-share/data/pseudos_module/espresso/nninc/pbe/van/O.UPF
     MD5 check sum: 78c19812648e8988a0fe644b0f25305e
     Pseudo is Ultrasoft, Zval =  6.0
     Generated by new atomic code, or converted to UPF format
     Using radial grid of  737 points,  4 beta functions with:
                l(1) =   0
                l(2) =   0
                l(3) =   1
                l(4) =   1
     Q(r) pseudized with  8 coefficients,  rinner =    0.800   0.800   0.800

     PseudoPot. # 3 for N  read from file:
     /storage/coda1/p-amedford6/0/shared/rich_project_chbe-medford/medford-share/data/pseudos_module/espresso/nninc/pbe/van/N.UPF
     MD5 check sum: 90d10febe142ad51ac9d5be1deb811c4
     Pseudo is Ultrasoft, Zval =  5.0
     Generated by new atomic code, or converted to UPF format
     Using radial grid of  729 points,  4 beta functions with:
                l(1) =   0
                l(2) =   0
                l(3) =   1
                l(4) =   1
     Q(r) pseudized with  8 coefficients,  rinner =    0.800   0.800   0.800

     PseudoPot. # 4 for C  read from file:
     /storage/coda1/p-amedford6/0/shared/rich_project_chbe-medford/medford-share/data/pseudos_module/espresso/nninc/pbe/van/C.UPF
     MD5 check sum: 1a69bf6b8db32088f5b2163dbdb77a27
     Pseudo is Ultrasoft, Zval =  4.0
     Generated by new atomic code, or converted to UPF format
     Using radial grid of  721 points,  4 beta functions with:
                l(1) =   0
                l(2) =   0
                l(3) =   1
                l(4) =   1
     Q(r) pseudized with  8 coefficients,  rinner =    0.800   0.800   0.800

     PseudoPot. # 5 for H  read from file:
     /storage/coda1/p-amedford6/0/shared/rich_project_chbe-medford/medford-share/data/pseudos_module/espresso/nninc/pbe/van/H.UPF
     MD5 check sum: b5ee9d7bfd3a09ee7748110bda690ff7
     Pseudo is Ultrasoft, Zval =  1.0
     Generated by new atomic code, or converted to UPF format
     Using radial grid of  615 points,  1 beta functions with:
                l(1) =   0
     Q(r) pseudized with  8 coefficients,  rinner =    0.800

     atomic species   valence    mass     pseudopotential
        Ti1           12.00    47.86700     Ti( 1.00)
        O1             6.00    15.99900     O ( 1.00)
        N1             5.00    14.00700     N ( 1.00)
        C1             4.00    12.01100     C ( 1.00)
        H1             1.00     1.00800     H ( 1.00)

     No symmetry found

   Cartesian axes

     site n.     atom                  positions (alat units)
         1           Ti1 tau(   1) = (   0.0004258   2.9801865   6.0000000  )
         2           Ti1 tau(   2) = (   3.2906075   1.4906267   6.0002472  )
         3           O1  tau(   3) = (   0.0006271   0.0005054   7.9858123  )
         4           O1  tau(   4) = (   3.2906025   0.0005020   7.3038282  )
         5           O1  tau(   5) = (   4.5942328   1.4918067   9.2879030  )
         6           O1  tau(   6) = (   1.9868534   1.4903216   9.2879459  )
         7           Ti1 tau(   7) = (   3.2907910   2.8959150   9.1758416  )
         8           Ti1 tau(   8) = (   0.0015273   1.4827037   9.2680791  )
         9           O1  tau(   9) = (   3.2817373   5.9460525  11.2946146  )
        10           O1  tau(  10) = (   0.0116148   5.9584955  10.6183126  )
        11           O1  tau(  11) = (   1.3133758   1.4766388  12.6259016  )
        12           O1  tau(  12) = (   5.2926964   1.4629885  12.6363546  )
        13           Ti1 tau(  13) = (   6.4867702   2.9530348  12.7875790  )
        14           Ti1 tau(  14) = (   3.1556433   1.4654666  12.4614878  )
        15           O1  tau(  15) = (   0.0119351   5.9170239  14.6319389  )
        16           O1  tau(  16) = (   3.2888796   5.9458463  13.8730829  )
        17           O1  tau(  17) = (   4.5050169   1.4765614  15.9709225  )
        18           O1  tau(  18) = (   2.0372034   1.4852366  16.0641042  )
        19           Ti1 tau(  19) = (   3.3196583   2.9724019  15.6708981  )
        20           Ti1 tau(  20) = (   6.5671717   1.4125937  15.9950936  )
        21           O1  tau(  21) = (   3.2904802   0.0005063   4.7018136  )
        22           O1  tau(  22) = (   6.4769187   0.0355975  17.2006351  )
        23           O1  tau(  23) = (   1.3043587   1.4918075   6.0039043  )
        24           O1  tau(  24) = (   5.2767064   1.4903225   6.0039473  )
        25           Ti1 tau(  25) = (   0.0000382   5.9609847   6.0000000  )
        26           Ti1 tau(  26) = (   3.2902200   4.4714249   6.0002472  )
        27           O1  tau(  27) = (   0.0002396   2.9813036   7.9858123  )
        28           O1  tau(  28) = (   3.2902150   2.9813002   7.3038282  )
        29           O1  tau(  29) = (   4.5938453   4.4726049   9.2879030  )
        30           O1  tau(  30) = (   1.9864658   4.4711199   9.2879459  )
        31           Ti1 tau(  31) = (   3.2891106   5.8743827   9.1763621  )
        32           Ti1 tau(  32) = (   0.0006254   4.4649316   9.2693709  )
        33           O1  tau(  33) = (   3.2830713   2.9620590  11.2933342  )
        34           O1  tau(  34) = (   0.0092240   2.9805883  10.6323155  )
        35           O1  tau(  35) = (   1.3110001   4.4530301  12.6158702  )
        36           O1  tau(  36) = (   5.2890030   4.4574094  12.6263766  )
        37           Ti1 tau(  37) = (   6.4749751   5.9256585  12.7408108  )
        38           Ti1 tau(  38) = (   3.1548284   4.4449468  12.4552140  )
        39           O1  tau(  39) = (   6.5563663   2.9679540  14.6355405  )
        40           O1  tau(  40) = (   3.2955455   2.9696487  13.8658995  )
        41           O1  tau(  41) = (   4.4874099   4.4549745  16.0617524  )
        42           O1  tau(  42) = (   2.0361269   4.4599000  15.9844638  )
        43           Ti1 tau(  43) = (   3.2961532   5.9498675  15.6757175  )
        44           Ti1 tau(  44) = (   0.0931452   4.4613781  16.2340760  )
        45           O1  tau(  45) = (   3.2900926   2.9813045   4.7018136  )
        46           O1  tau(  46) = (   1.3039711   4.4726057   6.0039043  )
        47           O1  tau(  47) = (   5.2763189   4.4711207   6.0039473  )
        48           N1  tau(  48) = (   0.6376139   3.5490058  18.1121658  )
        49           C1  tau(  49) = (   1.1877089   3.2859424  19.2441644  )
        50           H1  tau(  50) = (   1.7795953   4.0554207  19.7143479  )
        51           H1  tau(  51) = (   1.0443441   2.3279332  19.7136356  )
        52           N1  tau(  52) = (   6.4637678   2.8186144  17.3583733  )

     number of k points=    10  Fermi-Dirac smearing, width (Ry)=  0.0073
                       cart. coord. in units 2pi/alat
        k(    1) = (   0.0000000   0.0000000   0.0000000), wk =   0.1250000
        k(    2) = (   0.0000000   0.0419351   0.0000000), wk =   0.2500000
        k(    3) = (   0.0000000  -0.0838702   0.0000000), wk =   0.1250000
        k(    4) = (   0.0379955   0.0000049   0.0000000), wk =   0.2500000
        k(    5) = (   0.0379955   0.0419400   0.0000000), wk =   0.2500000
        k(    6) = (   0.0379955  -0.0838652   0.0000000), wk =   0.2500000
        k(    7) = (   0.0379955  -0.0419301   0.0000000), wk =   0.2500000
        k(    8) = (  -0.0759910  -0.0000099   0.0000000), wk =   0.1250000
        k(    9) = (  -0.0759910   0.0419252   0.0000000), wk =   0.2500000
        k(   10) = (  -0.0759910  -0.0838800   0.0000000), wk =   0.1250000

     Initial potential from superposition of free atoms

     starting charge  377.99917, renormalised to  394.00000

     negative rho (up, down):  1.613E-02 0.000E+00

     %%%%%%%%%%%%%%%%%%%%%%%%%%%%%%%%%%%%%%%%%%%%%%%%%%%%%%%%%%%%%%%%%%%%%%%%
     %                                                                      %
     % You are using vdW-DF, which was implemented by the Thonhauser group. %
     % Please cite the following two papers that made this development      %
     % possible and the two reviews that describe the various versions:     %
     %                                                                      %
     %   T. Thonhauser et al., PRL 115, 136402 (2015).                      %
     %   T. Thonhauser et al., PRB 76, 125112 (2007).                       %
     %   K. Berland et al., Rep. Prog. Phys. 78, 066501 (2015).             %
     %   D.C. Langreth et al., J. Phys.: Condens. Matter 21, 084203 (2009). %
     %                                                                      %
     %                                                                      %
     % If you are calculating the stress with vdW-DF, please also cite:     %
     %                                                                      %
     %   R. Sabatini et al., J. Phys.: Condens. Matter 24, 424209 (2012).   %
     %                                                                      %
     %%%%%%%%%%%%%%%%%%%%%%%%%%%%%%%%%%%%%%%%%%%%%%%%%%%%%%%%%%%%%%%%%%%%%%%%

     Adding external electric field

     Computed dipole along edir(3) :
        Dipole               -7.0538 Ry au,        -17.9290 Debye
        Dipole field         -0.0133 Ry au,

        Potential amp.        1.2340 Ry
        Total length         46.3494 bohr

     Starting wfcs are  298 atomic wfcs
  @ DRIVER MODE: Message from server: STATUS
  @ DRIVER MODE: Message from server: POSDATA
  @ DRIVER MODE: Reading and sharing cell
  @ DRIVER MODE: Reading and sharing positions
  @ DRIVER MODE: Received positions

     Self-consistent Calculation

     iteration #  1     ecut=    29.40 Ry     beta= 0.05
     Davidson diagonalization with overlap
     c_bands:  1 eigenvalues not converged
     c_bands:  1 eigenvalues not converged
     c_bands:  1 eigenvalues not converged
     c_bands:  2 eigenvalues not converged
     ethr =  1.00E-05,  avg # of iterations = 17.9

[...]

     total energy              =   -2722.73056023 Ry
     estimated scf accuracy    <    2375.03765062 Ry

[...]

     iteration #  3     ecut=    29.40 Ry     beta= 0.05
     Davidson diagonalization with overlap
     ethr =  1.00E-02,  avg # of iterations = 15.1

[...]

     iteration # 38     ecut=    29.40 Ry     beta= 0.05
     Davidson diagonalization with overlap
     c_bands:  3 eigenvalues not converged
     ethr =  3.74E-07,  avg # of iterations =  6.6

[...]

     total energy              =   -2937.87534113 Ry
     estimated scf accuracy    <       0.00000011 Ry

     iteration # 62     ecut=    29.40 Ry     beta= 0.05
     Davidson diagonalization with overlap
     ethr =  2.14E-11,  avg # of iterations =  3.5

     negative rho (up, down):  1.679E-02 0.000E+00

     Adding external electric field

     Computed dipole along edir(3) :
        Dipole                0.3924 Ry au,          0.9974 Debye
        Dipole field          0.0007 Ry au,

        Potential amp.       -0.0686 Ry
        Total length         46.3494 bohr

     End of self-consistent calculation

          k = 0.0000 0.0000 0.0000 ( 18029 PWs)   bands (ev):

   -56.6495 -56.6158 -55.8571 -55.8459 -55.8219 -55.8130 -55.7842 -55.7486
   -55.6098 -55.5643 -55.4667 -55.4016 -55.3509 -55.3169 -55.0601 -54.8082
   -33.0821 -32.9285 -32.9003 -32.8219 -32.7304 -32.7076 -32.3307 -32.3291
   -32.3207 -32.1419 -32.1140 -32.0756 -32.0708 -32.0549 -32.0538 -32.0316
   -31.9982 -31.9946 -31.9937 -31.9870 -31.9726 -31.9621 -31.9607 -31.9501
   -31.9466 -31.9437 -31.9210 -31.9204 -31.8425 -31.7493 -31.7455 -31.7145
   -31.6870 -31.6695 -31.6630 -31.6421 -31.6253 -31.5917 -31.5698 -31.5637
   -31.4823 -31.4796 -31.3686 -31.3205 -31.2720 -31.1583 -31.0485 -30.9559
   -18.0290 -16.8449 -16.5036 -16.2727 -16.0313 -16.0313 -15.9337 -15.9097
   -15.9002 -15.7921 -15.7365 -15.7091 -15.6235 -15.6110 -15.4527 -15.3749
   -15.3545 -15.3396 -15.2208 -15.1684 -15.1544 -15.1074 -15.0759 -15.0116
   -14.8671 -14.8292 -14.7594 -14.6879 -14.5561 -14.3289 -13.8499 -13.7390
   -12.1526  -6.5955  -4.5485  -4.4020  -4.3993  -3.9833  -3.7864  -3.6678
    -3.5575  -3.5352  -3.5029  -3.2918  -3.2532  -3.2292  -3.1901  -3.1317
    -3.0820  -2.9412  -2.9087  -2.8612  -2.8485  -2.8396  -2.8183  -2.7541
    -2.6548  -2.5266  -2.4985  -2.4837  -2.4568  -2.3752  -2.3607  -2.2852
    -2.2598  -2.2362  -2.2112  -2.1933  -2.0421  -2.0235  -1.9957  -1.9741
    -1.9097  -1.8672  -1.8617  -1.7425  -1.6661  -1.5750  -1.5482  -1.4191
    -1.4103  -1.3710  -1.2931  -1.2724  -1.1737  -1.1349  -1.0652  -1.0454
    -0.9837  -0.9643  -0.8429  -0.8275  -0.7994  -0.7893  -0.6638  -0.6537
    -0.6205  -0.5485  -0.5442  -0.4897  -0.3801  -0.3571  -0.3303  -0.2918
    -0.2651  -0.2192  -0.1574  -0.1434  -0.0937  -0.0567   0.0225   0.1345
     0.1386   0.2224   0.2962   0.3231   0.4185   0.4638   0.5312   0.5969
     0.6226   0.6708   0.6904   0.7124   0.8010   0.8987   0.9077   0.9741
     1.2247   1.2642   1.4521   1.8911   2.2693   2.6155   2.7654   3.0692
     3.2011   3.3053   3.5734   3.6063   3.6074   3.6535   3.7421

[...]

          k = 0.0380-0.0419 0.0000 ( 17876 PWs)   bands (ev):

[...]

          k =-0.0760-0.0000 0.0000 ( 17886 PWs)   bands (ev):

[...]

          k =-0.0760-0.0839 0.0000 ( 17948 PWs)   bands (ev):

   -56.6330 -56.6322 -55.8424 -55.8353 -55.8306 -55.8294 -55.7678 -55.7648
   -55.6015 -55.5725 -55.4617 -55.4065 -55.3339 -55.3338 -55.0589 -54.8093
   -32.9147 -32.9136 -32.8990 -32.8984 -32.7749 -32.7741 -32.1592 -32.1568
   -32.1460 -32.1411 -32.1386 -32.1385 -32.0715 -32.0702 -32.0412 -32.0403
   -32.0319 -32.0297 -32.0267 -32.0234 -32.0225 -32.0193 -31.9719 -31.9667
   -31.9419 -31.9253 -31.8856 -31.8657 -31.8021 -31.7931 -31.7748 -31.7455
   -31.6972 -31.6760 -31.6759 -31.6479 -31.6366 -31.5917 -31.5609 -31.5608
   -31.5219 -31.5218 -31.4056 -31.3128 -31.2733 -31.1784 -31.0713 -31.0069
   -18.0195 -16.1970 -16.1934 -16.1564 -16.1559 -15.9508 -15.9462 -15.9014
   -15.8960 -15.7644 -15.7584 -15.5332 -15.5326 -15.5138 -15.4991 -15.4185
   -15.4067 -15.3852 -15.3732 -15.3461 -15.3301 -15.2151 -15.1988 -15.1593
   -15.1182 -14.8348 -14.7662 -14.7059 -14.5840 -14.4754 -13.8423 -13.8422
   -12.1587  -6.5848  -4.5357  -4.3591  -3.3261  -3.3222  -3.2519  -3.2448
    -3.2282  -3.1943  -3.1924  -3.0205  -3.0187  -3.0176  -3.0170  -2.8409
    -2.8397  -2.8211  -2.8054  -2.6987  -2.6832  -2.6661  -2.6479  -2.5956
    -2.5756  -2.5338  -2.5277  -2.5195  -2.5008  -2.4769  -2.4213  -2.4182
    -2.3585  -2.3339  -2.2341  -2.1890  -2.1873  -2.1624  -2.1279  -2.0470
    -2.0109  -1.8592  -1.8518  -1.7844  -1.7838  -1.6861  -1.6259  -1.5927
    -1.5326  -1.4944  -1.4845  -1.4250  -1.3492  -1.3372  -1.2626  -1.2495
    -1.2281  -1.1164  -1.0933  -1.0341  -0.9588  -0.9213  -0.8676  -0.8612
    -0.8433  -0.8304  -0.7979  -0.7406  -0.6718  -0.6394  -0.5866  -0.5480
    -0.5157  -0.4530  -0.3898  -0.3225  -0.2266  -0.1754  -0.1689  -0.1178
    -0.1040   0.0834   0.0928   0.1659   0.3331   0.4107   0.4994   0.5188
     0.5838   0.7214   0.7413   0.7519   0.7872   0.9774   1.0248   1.0755
     1.0758   1.0777   1.0977   1.8469   2.1230   3.1784   3.1792   3.2427
     3.2434   3.5652   3.5691   3.6738   3.6798   3.6939   3.6977

     the Fermi energy is     2.4929 ev

!    total energy              =   -2937.87539089 Ry
     estimated scf accuracy    <       0.00000005 Ry
     smearing contrib. (-TS)   =      -0.00676524 Ry
     internal energy E=F+TS    =   -2937.86862565 Ry

     The total energy is F=E-TS. E is the sum of the following terms:
     one-electron contribution =  -24389.75240893 Ry
     hartree contribution      =   12281.89737966 Ry
     xc contribution           =    -484.38788303 Ry
     ewald contribution        =    9654.37399605 Ry
     electric field correction =       0.00029060 Ry

     convergence has been achieved in  62 iterations

     Forces acting on atoms (cartesian axes, Ry/au):

     atom    1 type  1   force =    -0.00001497   -0.00039070    0.12098657
     atom    2 type  1   force =    -0.00005663   -0.00059526   -0.16254538
     atom    3 type  2   force =     0.00018757   -0.00020677   -0.06338712
     atom    4 type  2   force =    -0.00005821   -0.00047489    0.03044295
     atom    5 type  2   force =    -0.01676896    0.00082021   -0.00760594
     atom    6 type  2   force =     0.01809469    0.00143793   -0.00861202
     atom    7 type  1   force =     0.00080846   -0.00399438    0.01547055
     atom    8 type  1   force =    -0.00025851    0.00469447    0.10593952
     atom    9 type  2   force =    -0.00027784   -0.00003608    0.00045089
     atom   10 type  2   force =    -0.00275121    0.00064840   -0.06143088
     atom   11 type  2   force =     0.00053113    0.00022275   -0.00014612
     atom   12 type  2   force =    -0.00021292    0.00013657   -0.00024170
     atom   13 type  1   force =     0.00029557   -0.00008493    0.00049240
     atom   14 type  1   force =    -0.00004836    0.00049681    0.00043005
     atom   15 type  2   force =    -0.00000225    0.00034775    0.00004130
     atom   16 type  2   force =     0.00007593   -0.00020773   -0.00060473
     atom   17 type  2   force =     0.00016553    0.00007269    0.00006190
     atom   18 type  2   force =     0.00004005    0.00012982    0.00000379
     atom   19 type  1   force =     0.00030735   -0.00028545    0.00007462
     atom   20 type  1   force =     0.00011294   -0.00044438   -0.00042152
     atom   21 type  2   force =     0.00005463    0.00005476    0.10008918
     atom   22 type  2   force =    -0.00011333    0.00064618   -0.00057299
     atom   23 type  2   force =    -0.07806660    0.00003299   -0.03200469
     atom   24 type  2   force =     0.07793379    0.00045213   -0.03200413
     atom   25 type  1   force =     0.00008622   -0.00039201    0.12057222
     atom   26 type  1   force =    -0.00010902   -0.00035580   -0.16267922
     atom   27 type  2   force =     0.00029510   -0.00046179   -0.06245864
     atom   28 type  2   force =    -0.00002889   -0.00027819    0.03030112
     atom   29 type  2   force =    -0.01725780    0.00115257   -0.00752819
     atom   30 type  2   force =     0.01853895    0.00141387   -0.00849896
     atom   31 type  1   force =     0.00072852   -0.00085747    0.01494427
     atom   32 type  1   force =    -0.00022909   -0.00735372    0.10668768
     atom   33 type  2   force =     0.00010998    0.00048188    0.00050206
     atom   34 type  2   force =    -0.00268016   -0.00007272   -0.07484693
     atom   35 type  2   force =     0.00064056   -0.00004326   -0.00000373
     atom   36 type  2   force =    -0.00047424    0.00022884   -0.00011954
     atom   37 type  1   force =    -0.00014615    0.00061678    0.00057527
     atom   38 type  1   force =    -0.00018970    0.00051810    0.00044479
     atom   39 type  2   force =    -0.00016180   -0.00000004    0.00000683
     atom   40 type  2   force =     0.00014860    0.00004088   -0.00012381
     atom   41 type  2   force =    -0.00028586   -0.00042029    0.00053877
     atom   42 type  2   force =     0.00050559   -0.00014997   -0.00022039
     atom   43 type  1   force =    -0.00019368   -0.00042686    0.00006951
     atom   44 type  1   force =    -0.00000079    0.00009739   -0.00022221
     atom   45 type  2   force =     0.00004545    0.00004191    0.10011604
     atom   46 type  2   force =    -0.07806213    0.00009079   -0.03196908
     atom   47 type  2   force =     0.07793758    0.00053216   -0.03198226
     atom   48 type  3   force =     0.00111035    0.00089782   -0.00042771
     atom   49 type  4   force =     0.00201240    0.01043938   -0.00397737
     atom   50 type  5   force =     0.00057963    0.00158109   -0.00044402
     atom   51 type  5   force =    -0.00196076   -0.01040207    0.00550608
     atom   52 type  3   force =    -0.00093671   -0.00039216    0.00033090

     Total force =     0.417914     Total SCF correction =     0.000651
  @ DRIVER MODE: Message from server: STATUS
  @ DRIVER MODE: Message from server: GETFORCE
  @ DRIVER MODE: Returning v,forces,stress,ensemble

     Writing output data file ./calc.save/
  @ DRIVER MODE: Message from server: EXIT
  @ DRIVE MODE: Exiting

     General routines

     Parallel routines

   This run was terminated on:   0:46:45  24Aug2021

   JOB DONE.