     Program PWSCF v.6.7GPU starts on 24Aug2021 at  3:38: 2

     R & G space division:  proc/nbgrp/npool/nimage =       6
     Reading input from /storage/home/hcoda1/3/ntian30/research/carbon/CH2_vib/ads_slab/CH2N2H_a/out_0029/pw.inp
Warning: card &CELL ignored
Warning: card   CELL_DYNAMICS='IPI', ignored
Warning: card / ignored

     Current dimensions of program PWSCF are:
     Max number of different atomic species (ntypx) = 10
     Max number of k-points (npk) =  40000
     Max angular momentum in pseudopotentials (lmaxx) =  3
     Presently no symmetry can be used with electric field

     Message from routine cell_base_init:
     DEPRECATED: use true lattice parameter, not A to a.u. conversion factor

     IMPORTANT: XC functional enforced from input :
     Exchange-correlation= BEEF-VDW
                           (   1   4  43  14   2   0   0)
     Any further DFT definition will be discarded
     Please, verify this is what you really want

  @ DRIVER MODE: Connecting to
 qe_1139763_2632802.sched-torque.pace.gatech.edukwkbxp71_scratch
  using UNIX socket
  @ DRIVER MODE: Message from server: STATUS
  @ DRIVER MODE: Message from server: INIT
  @ DRIVER MODE: Receiving replica           0          -1
  @ DRIVER MODE: Receiving encoded integer          25
  @ DRIVER MODE:  SCF:  T  FORCE:  T  STRESS:  F  VC:  F  ENSEMBLE:  F
  @ DRIVER MODE:  SCF:  T  FORCE:  T  STRESS:  F  VC:  F  ENSEMBLE:  F

     Using Slab Decomposition

     bravais-lattice index     =            0
     lattice parameter (alat)  =       1.8897  a.u.
     unit-cell volume          =    6658.9804 (a.u.)^3
     number of atoms/cell      =           53
     number of atomic types    =            5
     number of electrons       =       395.00
     number of Kohn-Sham states=          207
     kinetic-energy cutoff     =      29.3995  Ry
     charge density cutoff     =     293.9946  Ry
     scf convergence threshold =      7.3E-08
     mixing beta               =       0.0500
     number of iterations used =            8  plain     mixing
     Exchange-correlation= BEEF-VDW
                           (   1   4  43  14   2   0   0)

     celldm(1)=   1.889726  celldm(2)=   0.000000  celldm(3)=   0.000000
     celldm(4)=   0.000000  celldm(5)=   0.000000  celldm(6)=   0.000000

     crystal axes: (cart. coord. in units of alat)
               a(1) = (   6.579727   0.000000   0.000000 )
               a(2) = (  -0.000775   5.961596   0.000000 )
               a(3) = (   0.000000   0.000000  25.155947 )

     reciprocal axes: (cart. coord. in units 2 pi/alat)
               b(1) = (  0.151982  0.000020  0.000000 )
               b(2) = (  0.000000  0.167740  0.000000 )
               b(3) = (  0.000000  0.000000  0.039752 )

     PseudoPot. # 1 for Ti read from file:
     /storage/coda1/p-amedford6/0/shared/rich_project_chbe-medford/medford-share/data/pseudos_module/espresso/nninc/pbe/van/Ti.UPF
     MD5 check sum: 8e4df49b7f0d34bbd5052bf3f5ea0213
     Pseudo is Ultrasoft, Zval = 12.0
     Generated by new atomic code, or converted to UPF format
     Using radial grid of  851 points,  6 beta functions with:
                l(1) =   0
                l(2) =   0
                l(3) =   1
                l(4) =   1
                l(5) =   2
                l(6) =   2
     Q(r) pseudized with  8 coefficients,  rinner =    1.000   1.000   1.000
                                                       1.000   1.000

     PseudoPot. # 2 for O  read from file:
     /storage/coda1/p-amedford6/0/shared/rich_project_chbe-medford/medford-share/data/pseudos_module/espresso/nninc/pbe/van/O.UPF
     MD5 check sum: 78c19812648e8988a0fe644b0f25305e
     Pseudo is Ultrasoft, Zval =  6.0
     Generated by new atomic code, or converted to UPF format
     Using radial grid of  737 points,  4 beta functions with:
                l(1) =   0
                l(2) =   0
                l(3) =   1
                l(4) =   1
     Q(r) pseudized with  8 coefficients,  rinner =    0.800   0.800   0.800

     PseudoPot. # 3 for N  read from file:
     /storage/coda1/p-amedford6/0/shared/rich_project_chbe-medford/medford-share/data/pseudos_module/espresso/nninc/pbe/van/N.UPF
     MD5 check sum: 90d10febe142ad51ac9d5be1deb811c4
     Pseudo is Ultrasoft, Zval =  5.0
     Generated by new atomic code, or converted to UPF format
     Using radial grid of  729 points,  4 beta functions with:
                l(1) =   0
                l(2) =   0
                l(3) =   1
                l(4) =   1
     Q(r) pseudized with  8 coefficients,  rinner =    0.800   0.800   0.800

     PseudoPot. # 4 for C  read from file:
     /storage/coda1/p-amedford6/0/shared/rich_project_chbe-medford/medford-share/data/pseudos_module/espresso/nninc/pbe/van/C.UPF
     MD5 check sum: 1a69bf6b8db32088f5b2163dbdb77a27
     Pseudo is Ultrasoft, Zval =  4.0
     Generated by new atomic code, or converted to UPF format
     Using radial grid of  721 points,  4 beta functions with:
                l(1) =   0
                l(2) =   0
                l(3) =   1
                l(4) =   1
     Q(r) pseudized with  8 coefficients,  rinner =    0.800   0.800   0.800

     PseudoPot. # 5 for H  read from file:
     /storage/coda1/p-amedford6/0/shared/rich_project_chbe-medford/medford-share/data/pseudos_module/espresso/nninc/pbe/van/H.UPF
     MD5 check sum: b5ee9d7bfd3a09ee7748110bda690ff7
     Pseudo is Ultrasoft, Zval =  1.0
     Generated by new atomic code, or converted to UPF format
     Using radial grid of  615 points,  1 beta functions with:
                l(1) =   0
     Q(r) pseudized with  8 coefficients,  rinner =    0.800

     atomic species   valence    mass     pseudopotential
        Ti1           12.00    47.86700     Ti( 1.00)
        O1             6.00    15.99900     O ( 1.00)
        N1             5.00    14.00700     N ( 1.00)
        C1             4.00    12.01100     C ( 1.00)
        H1             1.00     1.00800     H ( 1.00)

     No symmetry found

   Cartesian axes

     site n.     atom                  positions (alat units)
         1           Ti1 tau(   1) = (   0.0004258   2.9801865   6.0000000  )
         2           Ti1 tau(   2) = (   3.2906075   1.4906267   6.0002472  )
         3           O1  tau(   3) = (   0.0006271   0.0005054   7.9858123  )
         4           O1  tau(   4) = (   3.2906025   0.0005020   7.3038282  )
         5           O1  tau(   5) = (   4.5942328   1.4918067   9.2879030  )
         6           O1  tau(   6) = (   1.9868534   1.4903216   9.2879459  )
         7           Ti1 tau(   7) = (   3.2907910   2.8959150   9.1758416  )
         8           Ti1 tau(   8) = (   0.0015273   1.4827037   9.2680791  )
         9           O1  tau(   9) = (   3.3007851   0.0027079  11.3193151  )
        10           O1  tau(  10) = (   0.0116148   5.9584955  10.6183126  )
        11           O1  tau(  11) = (   1.3147357   1.5019762  12.6210215  )
        12           O1  tau(  12) = (   5.3120411   1.4917641  12.6342566  )
        13           Ti1 tau(  13) = (   6.5359925   2.9538565  12.6086018  )
        14           Ti1 tau(  14) = (   3.2189980   1.4905645  12.4770757  )
        15           O1  tau(  15) = (   0.0426301   5.9606301  14.6312846  )
        16           O1  tau(  16) = (   3.3149351   0.0098317  13.8848037  )
        17           O1  tau(  17) = (   4.5523768   1.5206755  16.0744300  )
        18           O1  tau(  18) = (   2.0715852   1.4807026  15.9918588  )
        19           Ti1 tau(  19) = (   3.2935730   2.9941335  15.6827836  )
        20           Ti1 tau(  20) = (   0.0200723   1.3023755  15.9747514  )
        21           O1  tau(  21) = (   3.2904802   0.0005063   4.7018136  )
        22           O1  tau(  22) = (   6.5179923   0.0002674  17.1556216  )
        23           O1  tau(  23) = (   1.3043587   1.4918075   6.0039043  )
        24           O1  tau(  24) = (   5.2767064   1.4903225   6.0039473  )
        25           Ti1 tau(  25) = (   0.0000382   5.9609847   6.0000000  )
        26           Ti1 tau(  26) = (   3.2902200   4.4714249   6.0002472  )
        27           O1  tau(  27) = (   0.0002396   2.9813036   7.9858123  )
        28           O1  tau(  28) = (   3.2902150   2.9813002   7.3038282  )
        29           O1  tau(  29) = (   4.5938453   4.4726049   9.2879030  )
        30           O1  tau(  30) = (   1.9864658   4.4711199   9.2879459  )
        31           Ti1 tau(  31) = (   3.2891106   5.8743827   9.1763621  )
        32           Ti1 tau(  32) = (   0.0006254   4.4649316   9.2693709  )
        33           O1  tau(  33) = (   3.3053585   2.9833221  11.3185053  )
        34           O1  tau(  34) = (   0.0092240   2.9805883  10.6323155  )
        35           O1  tau(  35) = (   1.3157767   4.4721532  12.6203727  )
        36           O1  tau(  36) = (   5.3104355   4.4689601  12.6331991  )
        37           Ti1 tau(  37) = (   6.5385524   5.9338372  12.5465384  )
        38           Ti1 tau(  38) = (   3.2200853   4.4710709  12.4725482  )
        39           O1  tau(  39) = (   0.0068575   2.9964749  14.7765288  )
        40           O1  tau(  40) = (   3.3021705   2.9848394  13.8818356  )
        41           O1  tau(  41) = (   4.5334443   4.4765196  15.9883447  )
        42           O1  tau(  42) = (   2.0816803   4.4801587  16.0471567  )
        43           Ti1 tau(  43) = (   3.3155128   0.0116264  15.6901768  )
        44           Ti1 tau(  44) = (   6.5575601   4.4671909  15.9479714  )
        45           O1  tau(  45) = (   3.2900926   2.9813045   4.7018136  )
        46           O1  tau(  46) = (   1.3039711   4.4726057   6.0039043  )
        47           O1  tau(  47) = (   5.2763189   4.4711207   6.0039473  )
        48           N1  tau(  48) = (   0.4270260   2.3853988  17.9668900  )
        49           C1  tau(  49) = (   0.9469377   1.9340014  19.0583692  )
        50           H1  tau(  50) = (   1.0789317   2.5769861  19.9249762  )
        51           H1  tau(  51) = (   1.2326487   0.8959138  19.0941702  )
        52           N1  tau(  52) = (   0.0025679   3.6232397  17.7896529  )
        53           H1  tau(  53) = (   0.1020252   4.2324666  18.6151602  )

     number of k points=    10  Fermi-Dirac smearing, width (Ry)=  0.0073
                       cart. coord. in units 2pi/alat
        k(    1) = (   0.0000000   0.0000000   0.0000000), wk =   0.1250000
        k(    2) = (   0.0000000   0.0419351   0.0000000), wk =   0.2500000
        k(    3) = (   0.0000000  -0.0838702   0.0000000), wk =   0.1250000
        k(    4) = (   0.0379955   0.0000049   0.0000000), wk =   0.2500000
        k(    5) = (   0.0379955   0.0419400   0.0000000), wk =   0.2500000
        k(    6) = (   0.0379955  -0.0838652   0.0000000), wk =   0.2500000
        k(    7) = (   0.0379955  -0.0419301   0.0000000), wk =   0.2500000
        k(    8) = (  -0.0759910  -0.0000099   0.0000000), wk =   0.1250000
        k(    9) = (  -0.0759910   0.0419252   0.0000000), wk =   0.2500000
        k(   10) = (  -0.0759910  -0.0838800   0.0000000), wk =   0.1250000

     Initial potential from superposition of free atoms

     starting charge  378.99916, renormalised to  395.00000

     negative rho (up, down):  1.649E-02 0.000E+00

     %%%%%%%%%%%%%%%%%%%%%%%%%%%%%%%%%%%%%%%%%%%%%%%%%%%%%%%%%%%%%%%%%%%%%%%%
     %                                                                      %
     % You are using vdW-DF, which was implemented by the Thonhauser group. %
     % Please cite the following two papers that made this development      %
     % possible and the two reviews that describe the various versions:     %
     %                                                                      %
     %   T. Thonhauser et al., PRL 115, 136402 (2015).                      %
     %   T. Thonhauser et al., PRB 76, 125112 (2007).                       %
     %   K. Berland et al., Rep. Prog. Phys. 78, 066501 (2015).             %
     %   D.C. Langreth et al., J. Phys.: Condens. Matter 21, 084203 (2009). %
     %                                                                      %
     %                                                                      %
     % If you are calculating the stress with vdW-DF, please also cite:     %
     %                                                                      %
     %   R. Sabatini et al., J. Phys.: Condens. Matter 24, 424209 (2012).   %
     %                                                                      %
     %%%%%%%%%%%%%%%%%%%%%%%%%%%%%%%%%%%%%%%%%%%%%%%%%%%%%%%%%%%%%%%%%%%%%%%%

     Adding external electric field

     Computed dipole along edir(3) :
        Dipole               -8.3930 Ry au,        -21.3329 Debye
        Dipole field         -0.0158 Ry au,

        Potential amp.        1.4682 Ry
        Total length         46.3494 bohr

     Starting wfcs are  299 atomic wfcs
  @ DRIVER MODE: Message from server: STATUS
  @ DRIVER MODE: Message from server: POSDATA
  @ DRIVER MODE: Reading and sharing cell
  @ DRIVER MODE: Reading and sharing positions
  @ DRIVER MODE: Received positions

     Self-consistent Calculation

     iteration #  1     ecut=    29.40 Ry     beta= 0.05
     Davidson diagonalization with overlap
     c_bands:  2 eigenvalues not converged
     c_bands:  1 eigenvalues not converged
     c_bands:  2 eigenvalues not converged
     c_bands:  3 eigenvalues not converged
     c_bands:  3 eigenvalues not converged
     c_bands:  2 eigenvalues not converged
     c_bands:  1 eigenvalues not converged
     ethr =  1.00E-05,  avg # of iterations = 19.3

[...]

     total energy              =   -2613.92861986 Ry
     estimated scf accuracy    <    3601.42524133 Ry

[...]

     iteration #  3     ecut=    29.40 Ry     beta= 0.05
     Davidson diagonalization with overlap
     ethr =  1.00E-02,  avg # of iterations = 14.3

[...]

     iteration # 59     ecut=    29.40 Ry     beta= 0.05
     Davidson diagonalization with overlap
     c_bands:  2 eigenvalues not converged
     ethr =  4.02E-08,  avg # of iterations = 13.5

[...]

     total energy              =   -2939.13525829 Ry
     estimated scf accuracy    <       0.00000016 Ry

     iteration # 72     ecut=    29.40 Ry     beta= 0.05
     Davidson diagonalization with overlap
     ethr =  3.94E-11,  avg # of iterations =  6.0

     negative rho (up, down):  1.681E-02 0.000E+00

     Adding external electric field

     Computed dipole along edir(3) :
        Dipole                0.7933 Ry au,          2.0163 Debye
        Dipole field          0.0015 Ry au,

        Potential amp.       -0.1388 Ry
        Total length         46.3494 bohr

     End of self-consistent calculation

          k = 0.0000 0.0000 0.0000 ( 18029 PWs)   bands (ev):

   -55.8477 -55.8466 -55.8136 -55.8106 -55.7409 -55.6979 -55.6601 -55.6585
   -55.6252 -55.6245 -55.6198 -55.5862 -55.1836 -55.1377 -54.8236 -54.7896
   -32.4007 -32.3307 -32.2366 -32.1584 -32.1444 -32.1399 -32.1262 -32.1116
   -32.0908 -32.0776 -32.0247 -32.0070 -32.0002 -31.9984 -31.9885 -31.9847
   -31.9526 -31.9409 -31.9347 -31.9320 -31.9051 -31.9026 -31.8868 -31.8847
   -31.8540 -31.8499 -31.8475 -31.8465 -31.8214 -31.8062 -31.7988 -31.7885
   -31.7754 -31.7744 -31.7667 -31.7333 -31.7266 -31.4498 -31.4095 -31.3841
   -31.3323 -31.2964 -31.2304 -31.1429 -31.1204 -31.0475 -30.9610 -30.8496
   -17.9019 -16.6070 -16.3270 -16.0715 -15.9964 -15.9924 -15.8589 -15.6960
   -15.5833 -15.5163 -15.4359 -15.4063 -15.3843 -15.3482 -15.3420 -15.3046
   -15.2958 -15.2703 -15.2669 -15.2047 -15.2013 -15.1938 -15.1841 -15.0995
   -15.0420 -14.9907 -14.9830 -14.9096 -14.8757 -14.3482 -13.3255 -13.2091
   -12.1729  -7.8441  -5.3663  -4.5477  -3.9838  -3.8245  -3.7549  -3.7204
    -3.6442  -3.4841  -3.4053  -3.1251  -3.0759  -3.0191  -3.0095  -2.9729
    -2.9331  -2.7772  -2.6998  -2.6718  -2.6565  -2.6343  -2.6192  -2.6070
    -2.5917  -2.5719  -2.4918  -2.4100  -2.3655  -2.2887  -2.2750  -2.2402
    -2.1601  -2.1598  -2.1205  -2.0994  -2.0811  -2.0650  -2.0567  -2.0412
    -1.9026  -1.8467  -1.8297  -1.6619  -1.6439  -1.5840  -1.4568  -1.4506
    -1.3339  -1.3188  -1.2784  -1.2407  -1.1691  -1.1463  -1.0346  -0.9935
    -0.9316  -0.8895  -0.8707  -0.7939  -0.7290  -0.6903  -0.6768  -0.6124
    -0.6057  -0.5927  -0.4582  -0.3790  -0.3281  -0.2722  -0.2500  -0.1939
    -0.1550  -0.1114  -0.0251   0.0035   0.0149   0.0749   0.0948   0.1207
     0.1324   0.1523   0.1798   0.2364   0.3546   0.3851   0.4614   0.4767
     0.5382   0.6712   0.8093   0.8758   0.9291   1.0177   1.1297   1.1992
     1.2726   1.3916   1.7694   1.8148   2.1185   3.2719   3.3739   3.4067
     3.4177   3.5207   3.6698   3.7312   3.7463   3.7880   3.8214

[...]

          k = 0.0380-0.0419 0.0000 ( 17876 PWs)   bands (ev):

[...]

          k =-0.0760-0.0000 0.0000 ( 17886 PWs)   bands (ev):

[...]

          k =-0.0760-0.0839 0.0000 ( 17948 PWs)   bands (ev):

   -55.8308 -55.8304 -55.8290 -55.8279 -55.7323 -55.7065 -55.6434 -55.6418
   -55.6418 -55.6408 -55.6037 -55.6024 -55.1757 -55.1454 -54.8067 -54.8064
   -32.2028 -32.2012 -32.1461 -32.1458 -32.1255 -32.1251 -32.0915 -32.0885
   -32.0793 -32.0628 -31.9972 -31.9944 -31.9890 -31.9871 -31.9652 -31.9576
   -31.9506 -31.9501 -31.9451 -31.9437 -31.9419 -31.9302 -31.9245 -31.9177
   -31.9056 -31.9006 -31.8557 -31.8455 -31.8438 -31.8430 -31.8346 -31.8338
   -31.8206 -31.8200 -31.8194 -31.8182 -31.6782 -31.4441 -31.4102 -31.4040
   -31.3881 -31.3337 -31.1332 -31.1331 -31.0433 -31.0431 -31.0043 -31.0042
   -17.8882 -16.0222 -16.0194 -15.8117 -15.7728 -15.7536 -15.7479 -15.6576
   -15.5722 -15.5388 -15.5358 -15.4485 -15.4228 -15.4067 -15.3904 -15.3849
   -15.3763 -15.3464 -15.3114 -15.3039 -15.2898 -15.2842 -15.2723 -15.2153
   -15.1641 -15.1599 -15.1365 -15.0652 -14.8261 -14.6889 -13.3110 -13.3108
   -12.1338  -7.7832  -5.4117  -4.6091  -3.3167  -3.3072  -3.0608  -3.0187
    -3.0159  -2.9935  -2.9461  -2.7849  -2.7724  -2.7532  -2.7452  -2.7004
    -2.6770  -2.6567  -2.6370  -2.6319  -2.6030  -2.5768  -2.5618  -2.5247
    -2.5178  -2.5089  -2.4774  -2.4667  -2.4213  -2.4148  -2.3942  -2.3669
    -2.3580  -2.3260  -2.1763  -2.1024  -2.0743  -1.9896  -1.9827  -1.9447
    -1.9234  -1.9022  -1.8981  -1.8638  -1.8271  -1.6900  -1.6073  -1.5456
    -1.5369  -1.4524  -1.4250  -1.3637  -1.2735  -1.2482  -1.2267  -1.1553
    -1.0803  -1.0413  -0.9900  -0.9771  -0.9086  -0.9020  -0.8437  -0.8064
    -0.8043  -0.7300  -0.7052  -0.6509  -0.6133  -0.5965  -0.5736  -0.5463
    -0.5315  -0.5084  -0.4409  -0.3480  -0.2964  -0.2340  -0.1436  -0.0083
     0.1071   0.2195   0.2415   0.2843   0.3398   0.3737   0.4660   0.4698
     0.5346   0.5568   0.5972   0.6755   0.6868   0.7113   0.8224   0.8472
     1.5637   1.5641   1.6347   1.6349   2.0575   3.5948   3.6237   3.6427
     3.6746   3.8040   3.8100   3.8204   3.8212   3.9562   3.9593

     the Fermi energy is     3.2818 ev

!    total energy              =   -2939.13527179 Ry
     estimated scf accuracy    <       0.00000007 Ry
     smearing contrib. (-TS)   =      -0.02098771 Ry
     internal energy E=F+TS    =   -2939.11428408 Ry

     The total energy is F=E-TS. E is the sum of the following terms:
     one-electron contribution =  -24495.04324998 Ry
     hartree contribution      =   12335.51954234 Ry
     xc contribution           =    -485.36640139 Ry
     ewald contribution        =    9705.77463737 Ry
     electric field correction =       0.00118758 Ry

     convergence has been achieved in  72 iterations

     Forces acting on atoms (cartesian axes, Ry/au):

     atom    1 type  1   force =     0.00007611   -0.00024065    0.09631765
     atom    2 type  1   force =     0.00005361   -0.00057217   -0.17515922
     atom    3 type  2   force =     0.00014992   -0.00013174   -0.02410078
     atom    4 type  2   force =    -0.00000447   -0.00124756    0.05223034
     atom    5 type  2   force =    -0.01056619   -0.00047468    0.00250994
     atom    6 type  2   force =     0.01238371    0.00022428    0.00288546
     atom    7 type  1   force =     0.00098788    0.00026144   -0.01176230
     atom    8 type  1   force =    -0.00014286    0.00774996    0.02262160
     atom    9 type  2   force =    -0.00019798   -0.00015613   -0.00027318
     atom   10 type  2   force =    -0.00262206    0.00115635   -0.01267700
     atom   11 type  2   force =     0.00008379   -0.00012029    0.00004213
     atom   12 type  2   force =     0.00008335    0.00018430   -0.00040204
     atom   13 type  1   force =     0.00044003   -0.00036143    0.00025878
     atom   14 type  1   force =     0.00015592    0.00032670   -0.00015210
     atom   15 type  2   force =    -0.00019634    0.00053471   -0.00009201
     atom   16 type  2   force =     0.00010970   -0.00020740    0.00032776
     atom   17 type  2   force =     0.00050814   -0.00000085    0.00043435
     atom   18 type  2   force =     0.00064371   -0.00013470    0.00033658
     atom   19 type  1   force =    -0.00117610    0.00008811    0.00008900
     atom   20 type  1   force =     0.00032489   -0.00037752   -0.00073597
     atom   21 type  2   force =     0.00004768    0.00000338    0.10311910
     atom   22 type  2   force =     0.00004846   -0.00043775    0.00005804
     atom   23 type  2   force =    -0.07163196   -0.00015193   -0.02765947
     atom   24 type  2   force =     0.07156919    0.00034918   -0.02772266
     atom   25 type  1   force =     0.00015909   -0.00023412    0.09584551
     atom   26 type  1   force =     0.00009842   -0.00040313   -0.17538922
     atom   27 type  2   force =     0.00017681   -0.00021563   -0.02293018
     atom   28 type  2   force =     0.00006388   -0.00101471    0.05219134
     atom   29 type  2   force =    -0.01086703    0.00048172    0.00243270
     atom   30 type  2   force =     0.01256233    0.00064117    0.00277882
     atom   31 type  1   force =     0.00087505    0.00348239   -0.01291194
     atom   32 type  1   force =     0.00003055   -0.00924718    0.02306233
     atom   33 type  2   force =    -0.00048523    0.00013537    0.00022725
     atom   34 type  2   force =    -0.00302289    0.00022715   -0.01290170
     atom   35 type  2   force =     0.00010004    0.00008913   -0.00008805
     atom   36 type  2   force =     0.00009338    0.00033737   -0.00040227
     atom   37 type  1   force =     0.00033501    0.00037634    0.00015712
     atom   38 type  1   force =     0.00001768   -0.00043108    0.00015679
     atom   39 type  2   force =     0.00017471    0.00041608    0.00051936
     atom   40 type  2   force =     0.00035452    0.00012723   -0.00039805
     atom   41 type  2   force =     0.00012742    0.00013319    0.00023304
     atom   42 type  2   force =     0.00121084    0.00012350    0.00041668
     atom   43 type  1   force =    -0.00155460   -0.00048677   -0.00046001
     atom   44 type  1   force =     0.00072657    0.00071105   -0.00446840
     atom   45 type  2   force =     0.00006206   -0.00003655    0.10309695
     atom   46 type  2   force =    -0.07165527   -0.00007325   -0.02767515
     atom   47 type  2   force =     0.07159276    0.00032395   -0.02774244
     atom   48 type  3   force =    -0.00081407   -0.00206273   -0.00414576
     atom   49 type  4   force =    -0.00206715    0.00229617   -0.00109427
     atom   50 type  5   force =    -0.00086685    0.00086434    0.00083227
     atom   51 type  5   force =     0.00030569   -0.00062447    0.00007266
     atom   52 type  3   force =     0.00318171    0.00284403    0.01766901
     atom   53 type  5   force =    -0.00204358   -0.00504416   -0.00957840

     Total force =     0.366408     Total SCF correction =     0.000575
  @ DRIVER MODE: Message from server: STATUS
  @ DRIVER MODE: Message from server: GETFORCE
  @ DRIVER MODE: Returning v,forces,stress,ensemble

     Writing output data file ./calc.save/
  @ DRIVER MODE: Message from server: EXIT
  @ DRIVE MODE: Exiting

     General routines

     Parallel routines

   This run was terminated on:   4: 9: 4  24Aug2021

   JOB DONE.