     Program PWSCF v.6.7GPU starts on 12Oct2021 at 12:34:47

     R & G space division:  proc/nbgrp/npool/nimage =       8
     Reading input from /storage/home/hcoda1/3/ntian30/research/carbon/ACS_vib/ads_slab/NH3/out_0012/pw.inp
Warning: card &CELL ignored
Warning: card   CELL_DYNAMICS='IPI', ignored
Warning: card / ignored

     Current dimensions of program PWSCF are:
     Max number of different atomic species (ntypx) = 10
     Max number of k-points (npk) =  40000
     Max angular momentum in pseudopotentials (lmaxx) =  3
     Presently no symmetry can be used with electric field

     Message from routine cell_base_init:
     DEPRECATED: use true lattice parameter, not A to a.u. conversion factor

     IMPORTANT: XC functional enforced from input :
     Exchange-correlation= BEEF-VDW
                           (   1   4  43  14   2   0   0)
     Any further DFT definition will be discarded
     Please, verify this is what you really want

  @ DRIVER MODE: Connecting to
 qe_1139763_3181317.sched-torque.pace.gatech.edu072ftn0m_scratch
  using UNIX socket
  @ DRIVER MODE: Message from server: STATUS
  @ DRIVER MODE: Message from server: INIT
  @ DRIVER MODE: Receiving replica           0          -1
  @ DRIVER MODE: Receiving encoded integer          25
  @ DRIVER MODE:  SCF:  T  FORCE:  T  STRESS:  F  VC:  F  ENSEMBLE:  F
  @ DRIVER MODE:  SCF:  T  FORCE:  T  STRESS:  F  VC:  F  ENSEMBLE:  F

     Using Slab Decomposition

     bravais-lattice index     =            0
     lattice parameter (alat)  =       1.8897  a.u.
     unit-cell volume          =    6658.9804 (a.u.)^3
     number of atoms/cell      =           51
     number of atomic types    =            4
     number of electrons       =       386.00
     number of Kohn-Sham states=          203
     kinetic-energy cutoff     =      29.3995  Ry
     charge density cutoff     =     293.9946  Ry
     scf convergence threshold =      7.3E-08
     mixing beta               =       0.0500
     number of iterations used =            8  plain     mixing
     Exchange-correlation= BEEF-VDW
                           (   1   4  43  14   2   0   0)

     celldm(1)=   1.889726  celldm(2)=   0.000000  celldm(3)=   0.000000
     celldm(4)=   0.000000  celldm(5)=   0.000000  celldm(6)=   0.000000

     crystal axes: (cart. coord. in units of alat)
               a(1) = (   6.579727   0.000000   0.000000 )
               a(2) = (  -0.000775   5.961596   0.000000 )
               a(3) = (   0.000000   0.000000  25.155947 )

     reciprocal axes: (cart. coord. in units 2 pi/alat)
               b(1) = (  0.151982  0.000020  0.000000 )
               b(2) = (  0.000000  0.167740  0.000000 )
               b(3) = (  0.000000  0.000000  0.039752 )

     PseudoPot. # 1 for Ti read from file:
     /storage/coda1/p-amedford6/0/shared/rich_project_chbe-medford/medford-share/data/pseudos_module/espresso/nninc/pbe/van/Ti.UPF
     MD5 check sum: 8e4df49b7f0d34bbd5052bf3f5ea0213
     Pseudo is Ultrasoft, Zval = 12.0
     Generated by new atomic code, or converted to UPF format
     Using radial grid of  851 points,  6 beta functions with:
                l(1) =   0
                l(2) =   0
                l(3) =   1
                l(4) =   1
                l(5) =   2
                l(6) =   2
     Q(r) pseudized with  8 coefficients,  rinner =    1.000   1.000   1.000
                                                       1.000   1.000

     PseudoPot. # 2 for O  read from file:
     /storage/coda1/p-amedford6/0/shared/rich_project_chbe-medford/medford-share/data/pseudos_module/espresso/nninc/pbe/van/O.UPF
     MD5 check sum: 78c19812648e8988a0fe644b0f25305e
     Pseudo is Ultrasoft, Zval =  6.0
     Generated by new atomic code, or converted to UPF format
     Using radial grid of  737 points,  4 beta functions with:
                l(1) =   0
                l(2) =   0
                l(3) =   1
                l(4) =   1
     Q(r) pseudized with  8 coefficients,  rinner =    0.800   0.800   0.800

     PseudoPot. # 3 for N  read from file:
     /storage/coda1/p-amedford6/0/shared/rich_project_chbe-medford/medford-share/data/pseudos_module/espresso/nninc/pbe/van/N.UPF
     MD5 check sum: 90d10febe142ad51ac9d5be1deb811c4
     Pseudo is Ultrasoft, Zval =  5.0
     Generated by new atomic code, or converted to UPF format
     Using radial grid of  729 points,  4 beta functions with:
                l(1) =   0
                l(2) =   0
                l(3) =   1
                l(4) =   1
     Q(r) pseudized with  8 coefficients,  rinner =    0.800   0.800   0.800

     PseudoPot. # 4 for H  read from file:
     /storage/coda1/p-amedford6/0/shared/rich_project_chbe-medford/medford-share/data/pseudos_module/espresso/nninc/pbe/van/H.UPF
     MD5 check sum: b5ee9d7bfd3a09ee7748110bda690ff7
     Pseudo is Ultrasoft, Zval =  1.0
     Generated by new atomic code, or converted to UPF format
     Using radial grid of  615 points,  1 beta functions with:
                l(1) =   0
     Q(r) pseudized with  8 coefficients,  rinner =    0.800

     atomic species   valence    mass     pseudopotential
        Ti1           12.00    47.86700     Ti( 1.00)
        O1             6.00    15.99900     O ( 1.00)
        N1             5.00    14.00700     N ( 1.00)
        H1             1.00     1.00800     H ( 1.00)

     No symmetry found

   Cartesian axes

     site n.     atom                  positions (alat units)
         1           Ti1 tau(   1) = (   0.0004258   2.9801865   6.0000000  )
         2           Ti1 tau(   2) = (   3.2906075   1.4906267   6.0002472  )
         3           O1  tau(   3) = (   0.0006271   0.0005054   7.9858123  )
         4           O1  tau(   4) = (   3.2906025   0.0005020   7.3038282  )
         5           O1  tau(   5) = (   4.5942328   1.4918067   9.2879030  )
         6           O1  tau(   6) = (   1.9868534   1.4903216   9.2879459  )
         7           Ti1 tau(   7) = (   3.2905188   2.9817269   9.1608671  )
         8           Ti1 tau(   8) = (   0.0008727   1.4903491   9.2579811  )
         9           O1  tau(   9) = (   3.2954587   0.0012773  11.3746546  )
        10           O1  tau(  10) = (   0.0020290   0.0006084  10.6073296  )
        11           O1  tau(  11) = (   1.2942686   1.4887116  12.6629798  )
        12           O1  tau(  12) = (   5.2972733   1.4890718  12.6650130  )
        13           Ti1 tau(  13) = (   0.0067627   2.9786896  12.5148789  )
        14           Ti1 tau(  14) = (   3.2982433   1.4907855  12.5198723  )
        15           O1  tau(  15) = (   0.0088675   5.9288053  14.6873217  )
        16           O1  tau(  16) = (   3.2976659   5.9545549  13.9976866  )
        17           O1  tau(  17) = (   4.5618459   1.5065800  16.1616785  )
        18           O1  tau(  18) = (   2.0406978   1.5054917  16.1618958  )
        19           Ti1 tau(  19) = (   3.3003398   2.9801551  15.7464260  )
        20           Ti1 tau(  20) = (   0.0122322   1.3591711  15.8926631  )
        21           O1  tau(  21) = (   3.2904802   0.0005063   4.7018136  )
        22           O1  tau(  22) = (   0.0111396   0.0327255  17.2179391  )
        23           O1  tau(  23) = (   1.3043587   1.4918075   6.0039043  )
        24           O1  tau(  24) = (   5.2767064   1.4903225   6.0039473  )
        25           Ti1 tau(  25) = (   0.0000382   5.9609847   6.0000000  )
        26           Ti1 tau(  26) = (   3.2902200   4.4714249   6.0002472  )
        27           O1  tau(  27) = (   0.0002396   2.9813036   7.9858123  )
        28           O1  tau(  28) = (   3.2902150   2.9813002   7.3038282  )
        29           O1  tau(  29) = (   4.5938453   4.4726049   9.2879030  )
        30           O1  tau(  30) = (   1.9864658   4.4711199   9.2879459  )
        31           Ti1 tau(  31) = (   3.2908958   0.0009406   9.1591437  )
        32           Ti1 tau(  32) = (   0.0004876   4.4725358   9.2579169  )
        33           O1  tau(  33) = (   3.2950182   2.9773574  11.3676543  )
        34           O1  tau(  34) = (   0.0019984   2.9784031  10.6274637  )
        35           O1  tau(  35) = (   1.2946310   4.4674284  12.6500497  )
        36           O1  tau(  36) = (   5.2961322   4.4668132  12.6522398  )
        37           Ti1 tau(  37) = (   0.0072964   5.9565020  12.4821340  )
        38           Ti1 tau(  38) = (   3.2980713   4.4687862  12.5160290  )
        39           O1  tau(  39) = (   0.0098827   2.9916113  14.9005182  )
        40           O1  tau(  40) = (   3.2960480   2.9848727  13.9584560  )
        41           O1  tau(  41) = (   4.5591248   4.4529439  16.1935040  )
        42           O1  tau(  42) = (   2.0431063   4.4547719  16.1917947  )
        43           Ti1 tau(  43) = (   3.3030955   0.0010839  15.7925060  )
        44           Ti1 tau(  44) = (   0.0111621   4.5610188  15.9796684  )
        45           O1  tau(  45) = (   3.2900926   2.9813045   4.7018136  )
        46           O1  tau(  46) = (   1.3039711   4.4726057   6.0039043  )
        47           O1  tau(  47) = (   5.2763189   4.4711207   6.0039473  )
        48           N1  tau(  48) = (   0.0348475   3.0484350  18.0388005  )
        49           H1  tau(  49) = (   0.0344738   2.0763216  18.3578120  )
        50           H1  tau(  50) = (   0.8651728   3.4882926  18.4252144  )
        51           H1  tau(  51) = (   5.8033537   3.4985160  18.4509717  )

     number of k points=    10  Fermi-Dirac smearing, width (Ry)=  0.0073
                       cart. coord. in units 2pi/alat
        k(    1) = (   0.0000000   0.0000000   0.0000000), wk =   0.1250000
        k(    2) = (   0.0000000   0.0419351   0.0000000), wk =   0.2500000
        k(    3) = (   0.0000000  -0.0838702   0.0000000), wk =   0.1250000
        k(    4) = (   0.0379955   0.0000049   0.0000000), wk =   0.2500000
        k(    5) = (   0.0379955   0.0419400   0.0000000), wk =   0.2500000
        k(    6) = (   0.0379955  -0.0838652   0.0000000), wk =   0.2500000
        k(    7) = (   0.0379955  -0.0419301   0.0000000), wk =   0.2500000
        k(    8) = (  -0.0759910  -0.0000099   0.0000000), wk =   0.1250000
        k(    9) = (  -0.0759910   0.0419252   0.0000000), wk =   0.2500000
        k(   10) = (  -0.0759910  -0.0838800   0.0000000), wk =   0.1250000

     Initial potential from superposition of free atoms

     starting charge  369.99921, renormalised to  386.00000

     negative rho (up, down):  1.971E-02 0.000E+00

     %%%%%%%%%%%%%%%%%%%%%%%%%%%%%%%%%%%%%%%%%%%%%%%%%%%%%%%%%%%%%%%%%%%%%%%%
     %                                                                      %
     % You are using vdW-DF, which was implemented by the Thonhauser group. %
     % Please cite the following two papers that made this development      %
     % possible and the two reviews that describe the various versions:     %
     %                                                                      %
     %   T. Thonhauser et al., PRL 115, 136402 (2015).                      %
     %   T. Thonhauser et al., PRB 76, 125112 (2007).                       %
     %   K. Berland et al., Rep. Prog. Phys. 78, 066501 (2015).             %
     %   D.C. Langreth et al., J. Phys.: Condens. Matter 21, 084203 (2009). %
     %                                                                      %
     %                                                                      %
     % If you are calculating the stress with vdW-DF, please also cite:     %
     %                                                                      %
     %   R. Sabatini et al., J. Phys.: Condens. Matter 24, 424209 (2012).   %
     %                                                                      %
     %%%%%%%%%%%%%%%%%%%%%%%%%%%%%%%%%%%%%%%%%%%%%%%%%%%%%%%%%%%%%%%%%%%%%%%%

     Adding external electric field

     Computed dipole along edir(3) :
        Dipole               -3.5664 Ry au,         -9.0649 Debye
        Dipole field         -0.0067 Ry au,

        Potential amp.        0.6239 Ry
        Total length         46.3494 bohr

     Starting wfcs are  291 atomic wfcs
  @ DRIVER MODE: Message from server: STATUS
  @ DRIVER MODE: Message from server: POSDATA
  @ DRIVER MODE: Reading and sharing cell
  @ DRIVER MODE: Reading and sharing positions
  @ DRIVER MODE: Received positions

     Self-consistent Calculation

     iteration #  1     ecut=    29.40 Ry     beta= 0.05
     Davidson diagonalization with overlap
     c_bands:  1 eigenvalues not converged
     c_bands:  2 eigenvalues not converged
     c_bands:  1 eigenvalues not converged
     c_bands:  4 eigenvalues not converged
     c_bands:  1 eigenvalues not converged
     c_bands:  1 eigenvalues not converged
     c_bands:  3 eigenvalues not converged
     ethr =  1.00E-05,  avg # of iterations = 20.0

[...]

     total energy              =   -2896.13545602 Ry
     estimated scf accuracy    <     156.31723333 Ry

     iteration #  2     ecut=    29.40 Ry     beta= 0.05
     Davidson diagonalization with overlap
     ethr =  1.00E-02,  avg # of iterations = 15.1

[...]

     iteration # 44     ecut=    29.40 Ry     beta= 0.05
     Davidson diagonalization with overlap
     c_bands:  1 eigenvalues not converged
     c_bands:  1 eigenvalues not converged
     ethr =  2.13E-10,  avg # of iterations = 16.4

[...]

     total energy              =   -2907.69377152 Ry
     estimated scf accuracy    <       0.00000022 Ry

     iteration # 47     ecut=    29.40 Ry     beta= 0.05
     Davidson diagonalization with overlap
     ethr =  5.67E-11,  avg # of iterations =  6.9

     negative rho (up, down):  1.930E-02 0.000E+00

     Adding external electric field

     Computed dipole along edir(3) :
        Dipole                1.2506 Ry au,          3.1788 Debye
        Dipole field          0.0024 Ry au,

        Potential amp.       -0.2188 Ry
        Total length         46.3494 bohr

     End of self-consistent calculation

          k = 0.0000 0.0000 0.0000 ( 18029 PWs)   bands (ev):

   -55.6667 -55.6305 -55.6241 -55.5899 -55.5766 -55.5484 -55.5389 -55.5014
   -55.4953 -55.4938 -55.4596 -55.4585 -55.4488 -55.4148 -54.7095 -54.6755
   -32.2358 -32.1714 -32.1224 -32.0251 -31.9836 -31.9684 -31.9670 -31.9609
   -31.9146 -31.9101 -31.8733 -31.8725 -31.8702 -31.8690 -31.8410 -31.8213
   -31.8199 -31.8109 -31.8019 -31.7950 -31.7774 -31.7725 -31.7507 -31.7473
   -31.7431 -31.7279 -31.7193 -31.7185 -31.6842 -31.6799 -31.6681 -31.6528
   -31.6525 -31.6405 -31.6332 -31.6280 -31.6259 -31.5989 -31.5928 -31.5827
   -31.5810 -31.5625 -31.1213 -31.0202 -30.9986 -30.9375 -30.8510 -30.7400
   -16.5030 -16.2620 -16.1364 -15.9959 -15.8864 -15.8538 -15.7552 -15.7221
   -15.6085 -15.5205 -15.3960 -15.3505 -15.3243 -15.3187 -15.3065 -15.2879
   -15.2786 -15.2153 -15.1765 -15.1679 -15.1475 -15.1461 -15.1036 -15.1027
   -15.0460 -15.0303 -14.8933 -14.8186 -14.7577 -14.5059 -13.2111 -13.0920
    -6.0363  -5.9721  -3.8308  -3.6713  -3.6441  -3.5938  -3.5831  -3.4270
    -3.2673  -3.1347  -3.0893  -2.9515  -2.9176  -2.8697  -2.8414  -2.6934
    -2.6601  -2.6297  -2.5723  -2.5436  -2.5413  -2.5330  -2.5195  -2.4382
    -2.4356  -2.4173  -2.3014  -2.2513  -2.1406  -2.1100  -2.0463  -2.0292
    -1.9918  -1.9908  -1.9806  -1.9299  -1.9289  -1.9048  -1.8714  -1.8013
    -1.7063  -1.6576  -1.5614  -1.5307  -1.4187  -1.4154  -1.2482  -1.2285
    -1.1630  -1.1213  -1.1091  -1.0763  -1.0663  -1.0163  -0.9068  -0.8225
    -0.7838  -0.7217  -0.6708  -0.6379  -0.6010  -0.5280  -0.4575  -0.4504
    -0.4189  -0.3034  -0.2614  -0.2064  -0.1534  -0.1447  -0.1094  -0.0104
    -0.0050   0.0939   0.1005   0.1335   0.1616   0.2678   0.2762   0.2854
     0.3054   0.3064   0.3939   0.4324   0.4935   0.5092   0.6545   0.8694
     0.9059   0.9370   1.2088   1.2839   1.3157   1.4790   1.8982   1.9504
     3.4323   3.4965   3.5313   3.5609   3.5748   3.6417   3.9221   3.9249
     3.9377   3.9526   3.9883

[...]

          k = 0.0380-0.0419 0.0000 ( 17876 PWs)   bands (ev):

[...]

          k =-0.0760-0.0000 0.0000 ( 17886 PWs)   bands (ev):

[...]

          k =-0.0760-0.0839 0.0000 ( 17948 PWs)   bands (ev):

   -55.6503 -55.6466 -55.6070 -55.6068 -55.5720 -55.5453 -55.5278 -55.5124
   -55.4995 -55.4774 -55.4755 -55.4617 -55.4332 -55.4305 -54.6925 -54.6924
   -32.0908 -32.0403 -32.0372 -31.9538 -31.9374 -31.9370 -31.9256 -31.9001
   -31.8998 -31.8698 -31.8676 -31.8631 -31.8594 -31.8368 -31.8269 -31.8168
   -31.7940 -31.7933 -31.7931 -31.7899 -31.7875 -31.7849 -31.7831 -31.7441
   -31.7425 -31.7407 -31.7345 -31.7303 -31.7254 -31.7251 -31.7250 -31.7233
   -31.7047 -31.7015 -31.6892 -31.6755 -31.6742 -31.6565 -31.6538 -31.6444
   -31.6190 -31.6163 -31.0112 -31.0111 -30.9339 -30.9338 -30.8943 -30.8942
   -16.0614 -15.9300 -15.9104 -15.8568 -15.6943 -15.6811 -15.6507 -15.6318
   -15.4904 -15.4735 -15.4579 -15.4514 -15.4076 -15.3979 -15.3905 -15.3807
   -15.2608 -15.2565 -15.2461 -15.2428 -15.1747 -15.1715 -15.1684 -15.1516
   -15.1262 -15.1133 -15.0774 -15.0731 -14.9969 -14.8398 -13.1931 -13.1930
    -5.9937  -5.9772  -3.1860  -3.1458  -3.1207  -2.9029  -2.8688  -2.8410
    -2.8281  -2.7455  -2.6851  -2.6803  -2.6660  -2.6283  -2.5735  -2.5582
    -2.5523  -2.5171  -2.5071  -2.4917  -2.4584  -2.4447  -2.3889  -2.3598
    -2.3472  -2.3455  -2.3331  -2.3264  -2.3111  -2.2924  -2.2704  -2.2648
    -2.1470  -2.0430  -1.9964  -1.9879  -1.8859  -1.8832  -1.8818  -1.7944
    -1.7739  -1.7215  -1.7162  -1.6949  -1.4804  -1.4641  -1.4453  -1.4414
    -1.4165  -1.3380  -1.2605  -1.2332  -1.2169  -1.1625  -1.0485  -1.0168
    -0.9956  -0.9256  -0.8794  -0.8641  -0.8141  -0.6804  -0.6674  -0.6630
    -0.6486  -0.6433  -0.5857  -0.5802  -0.4991  -0.4525  -0.4012  -0.3889
    -0.3684  -0.1763  -0.1424  -0.0760   0.0206   0.0265   0.2020   0.2478
     0.2547   0.3576   0.3801   0.4176   0.4732   0.5949   0.6083   0.6453
     0.7205   0.7769   0.7775   0.7797   1.6672   1.6685   1.7685   1.7687
     3.5790   3.6684   3.6853   3.7484   3.8415   3.9444   3.9459   3.9609
     3.9903   3.9921   4.0949

     the Fermi energy is     3.4921 ev

!    total energy              =   -2907.69390263 Ry
     estimated scf accuracy    <       0.00000007 Ry
     smearing contrib. (-TS)   =      -0.03697557 Ry
     internal energy E=F+TS    =   -2907.65692706 Ry

     The total energy is F=E-TS. E is the sum of the following terms:
     one-electron contribution =  -24675.43949870 Ry
     hartree contribution      =   12422.55165080 Ry
     xc contribution           =    -476.54774265 Ry
     ewald contribution        =    9821.77571179 Ry
     electric field correction =       0.00295171 Ry

     convergence has been achieved in  47 iterations

     Forces acting on atoms (cartesian axes, Ry/au):

     atom    1 type  1   force =    -0.00000122    0.00005535    0.09123786
     atom    2 type  1   force =    -0.00012876    0.00034132   -0.18249853
     atom    3 type  2   force =     0.00003519   -0.00041300   -0.02464874
     atom    4 type  2   force =     0.00001201    0.00000663    0.05209048
     atom    5 type  2   force =    -0.01339626   -0.00056639    0.00486475
     atom    6 type  2   force =     0.01363873   -0.00008852    0.00502060
     atom    7 type  1   force =    -0.00000098   -0.00033837   -0.00325159
     atom    8 type  1   force =    -0.00006983    0.00367551    0.00359028
     atom    9 type  2   force =     0.00000687    0.00016292   -0.00017584
     atom   10 type  2   force =     0.00003540    0.00004610   -0.00037911
     atom   11 type  2   force =    -0.00004787    0.00019047    0.00017430
     atom   12 type  2   force =     0.00009072    0.00014328    0.00013519
     atom   13 type  1   force =     0.00012000    0.00055979   -0.00021017
     atom   14 type  1   force =     0.00010771   -0.00015217   -0.00075272
     atom   15 type  2   force =     0.00010888   -0.00015125   -0.00004534
     atom   16 type  2   force =    -0.00004293    0.00005729    0.00027076
     atom   17 type  2   force =     0.00051427    0.00008502   -0.00002173
     atom   18 type  2   force =    -0.00051497    0.00016558    0.00006295
     atom   19 type  1   force =     0.00025247    0.00022027    0.00040462
     atom   20 type  1   force =    -0.00003084   -0.00148563    0.00018299
     atom   21 type  2   force =     0.00001266    0.00011778    0.10475059
     atom   22 type  2   force =     0.00010064    0.00025049    0.00128318
     atom   23 type  2   force =    -0.06842684   -0.00025065   -0.02641675
     atom   24 type  2   force =     0.06827149    0.00017942   -0.02647309
     atom   25 type  1   force =     0.00006794    0.00000643    0.09099831
     atom   26 type  1   force =    -0.00008749   -0.00044399   -0.18244946
     atom   27 type  2   force =     0.00002578    0.00005363   -0.02325433
     atom   28 type  2   force =     0.00000585    0.00001320    0.05197200
     atom   29 type  2   force =    -0.01323134   -0.00011284    0.00519982
     atom   30 type  2   force =     0.01347024    0.00040281    0.00535026
     atom   31 type  1   force =     0.00005117    0.00023404   -0.00291433
     atom   32 type  1   force =    -0.00008688   -0.00360301    0.00350041
     atom   33 type  2   force =     0.00001358   -0.00019973    0.00018426
     atom   34 type  2   force =     0.00001564   -0.00006922   -0.00064344
     atom   35 type  2   force =    -0.00010448   -0.00028395   -0.00003382
     atom   36 type  2   force =     0.00014286   -0.00023602   -0.00006132
     atom   37 type  1   force =     0.00008537   -0.00065193    0.00073431
     atom   38 type  1   force =     0.00010120    0.00015725   -0.00070098
     atom   39 type  2   force =     0.00006732   -0.00018417    0.00014767
     atom   40 type  2   force =     0.00008931   -0.00010534    0.00068262
     atom   41 type  2   force =     0.00042697   -0.00019121    0.00021625
     atom   42 type  2   force =    -0.00041322   -0.00029935    0.00041562
     atom   43 type  1   force =     0.00009816   -0.00030158   -0.00001318
     atom   44 type  1   force =    -0.00011602    0.00072184   -0.00013276
     atom   45 type  2   force =     0.00001420    0.00009240    0.10474001
     atom   46 type  2   force =    -0.06840772   -0.00014905   -0.02639799
     atom   47 type  2   force =     0.06826011    0.00028747   -0.02644374
     atom   48 type  3   force =     0.00052552   -0.00421594    0.00259806
     atom   49 type  4   force =    -0.00029079    0.00362251   -0.00327866
     atom   50 type  4   force =    -0.00030285    0.00111197   -0.00027872
     atom   51 type  4   force =    -0.00106699    0.00153251    0.00066822

     Total force =     0.366258     Total SCF correction =     0.000770
  @ DRIVER MODE: Message from server: STATUS
  @ DRIVER MODE: Message from server: GETFORCE
  @ DRIVER MODE: Returning v,forces,stress,ensemble

     Writing output data file ./calc.save/
  @ DRIVER MODE: Message from server: EXIT
  @ DRIVE MODE: Exiting

     General routines

     Parallel routines

   This run was terminated on:  12:50: 8  12Oct2021

   JOB DONE.