     Program PWSCF v.6.7GPU starts on 16Sep2021 at  5: 0:17

     R & G space division:  proc/nbgrp/npool/nimage =      10
     Reading input from /storage/home/hcoda1/3/ntian30/research/carbon/CxH_vib/H2O_calc/ads_slab/CH3OHH2O_e/out_0042/pw.inp
Warning: card &CELL ignored
Warning: card   CELL_DYNAMICS='IPI', ignored
Warning: card / ignored

     Current dimensions of program PWSCF are:
     Max number of different atomic species (ntypx) = 10
     Max number of k-points (npk) =  40000
     Max angular momentum in pseudopotentials (lmaxx) =  3
     Presently no symmetry can be used with electric field

     Message from routine cell_base_init:
     DEPRECATED: use true lattice parameter, not A to a.u. conversion factor

     IMPORTANT: XC functional enforced from input :
     Exchange-correlation= BEEF-VDW
                           (   1   4  43  14   2   0   0)
     Any further DFT definition will be discarded
     Please, verify this is what you really want

  @ DRIVER MODE: Connecting to
 qe_1139763_2852623.sched-torque.pace.gatech.eduysd72rvy_scratch
  using UNIX socket
  @ DRIVER MODE: Message from server: STATUS
  @ DRIVER MODE: Message from server: INIT
  @ DRIVER MODE: Receiving replica           0          -1
  @ DRIVER MODE: Receiving encoded integer          25
  @ DRIVER MODE:  SCF:  T  FORCE:  T  STRESS:  F  VC:  F  ENSEMBLE:  F
  @ DRIVER MODE:  SCF:  T  FORCE:  T  STRESS:  F  VC:  F  ENSEMBLE:  F

     Using Slab Decomposition

     bravais-lattice index     =            0
     lattice parameter (alat)  =       1.8897  a.u.
     unit-cell volume          =    6658.9804 (a.u.)^3
     number of atoms/cell      =           56
     number of atomic types    =            4
     number of electrons       =       400.00
     number of Kohn-Sham states=          210
     kinetic-energy cutoff     =      29.3995  Ry
     charge density cutoff     =     293.9946  Ry
     scf convergence threshold =      7.3E-08
     mixing beta               =       0.0500
     number of iterations used =            8  plain     mixing
     Exchange-correlation= BEEF-VDW
                           (   1   4  43  14   2   0   0)

     celldm(1)=   1.889726  celldm(2)=   0.000000  celldm(3)=   0.000000
     celldm(4)=   0.000000  celldm(5)=   0.000000  celldm(6)=   0.000000

     crystal axes: (cart. coord. in units of alat)
               a(1) = (   6.579727   0.000000   0.000000 )
               a(2) = (  -0.000775   5.961596   0.000000 )
               a(3) = (   0.000000   0.000000  25.155947 )

     reciprocal axes: (cart. coord. in units 2 pi/alat)
               b(1) = (  0.151982  0.000020  0.000000 )
               b(2) = (  0.000000  0.167740  0.000000 )
               b(3) = (  0.000000  0.000000  0.039752 )

     PseudoPot. # 1 for Ti read from file:
     /storage/coda1/p-amedford6/0/shared/rich_project_chbe-medford/medford-share/data/pseudos_module/espresso/nninc/pbe/van/Ti.UPF
     MD5 check sum: 8e4df49b7f0d34bbd5052bf3f5ea0213
     Pseudo is Ultrasoft, Zval = 12.0
     Generated by new atomic code, or converted to UPF format
     Using radial grid of  851 points,  6 beta functions with:
                l(1) =   0
                l(2) =   0
                l(3) =   1
                l(4) =   1
                l(5) =   2
                l(6) =   2
     Q(r) pseudized with  8 coefficients,  rinner =    1.000   1.000   1.000
                                                       1.000   1.000

     PseudoPot. # 2 for O  read from file:
     /storage/coda1/p-amedford6/0/shared/rich_project_chbe-medford/medford-share/data/pseudos_module/espresso/nninc/pbe/van/O.UPF
     MD5 check sum: 78c19812648e8988a0fe644b0f25305e
     Pseudo is Ultrasoft, Zval =  6.0
     Generated by new atomic code, or converted to UPF format
     Using radial grid of  737 points,  4 beta functions with:
                l(1) =   0
                l(2) =   0
                l(3) =   1
                l(4) =   1
     Q(r) pseudized with  8 coefficients,  rinner =    0.800   0.800   0.800

     PseudoPot. # 3 for C  read from file:
     /storage/coda1/p-amedford6/0/shared/rich_project_chbe-medford/medford-share/data/pseudos_module/espresso/nninc/pbe/van/C.UPF
     MD5 check sum: 1a69bf6b8db32088f5b2163dbdb77a27
     Pseudo is Ultrasoft, Zval =  4.0
     Generated by new atomic code, or converted to UPF format
     Using radial grid of  721 points,  4 beta functions with:
                l(1) =   0
                l(2) =   0
                l(3) =   1
                l(4) =   1
     Q(r) pseudized with  8 coefficients,  rinner =    0.800   0.800   0.800

     PseudoPot. # 4 for H  read from file:
     /storage/coda1/p-amedford6/0/shared/rich_project_chbe-medford/medford-share/data/pseudos_module/espresso/nninc/pbe/van/H.UPF
     MD5 check sum: b5ee9d7bfd3a09ee7748110bda690ff7
     Pseudo is Ultrasoft, Zval =  1.0
     Generated by new atomic code, or converted to UPF format
     Using radial grid of  615 points,  1 beta functions with:
                l(1) =   0
     Q(r) pseudized with  8 coefficients,  rinner =    0.800

     atomic species   valence    mass     pseudopotential
        Ti1           12.00    47.86700     Ti( 1.00)
        O1             6.00    15.99900     O ( 1.00)
        C1             4.00    12.01100     C ( 1.00)
        H1             1.00     1.00800     H ( 1.00)

     No symmetry found

   Cartesian axes

     site n.     atom                  positions (alat units)
         1           Ti1 tau(   1) = (   0.0004258   2.9801865   6.0000000  )
         2           Ti1 tau(   2) = (   3.2906075   1.4906267   6.0002472  )
         3           O1  tau(   3) = (   0.0006271   0.0005054   7.9858123  )
         4           O1  tau(   4) = (   3.2906025   0.0005020   7.3038282  )
         5           O1  tau(   5) = (   4.5942328   1.4918067   9.2879030  )
         6           O1  tau(   6) = (   1.9868534   1.4903216   9.2879459  )
         7           Ti1 tau(   7) = (   3.3179988   2.9667087   9.1587561  )
         8           Ti1 tau(   8) = (   0.0368451   1.4888401   9.2646154  )
         9           O1  tau(   9) = (   3.2981896   5.9413050  11.3756853  )
        10           O1  tau(  10) = (   0.0022081   5.9550161  10.6068466  )
        11           O1  tau(  11) = (   1.2930414   1.4711740  12.6526869  )
        12           O1  tau(  12) = (   5.2963464   1.4745835  12.6500758  )
        13           Ti1 tau(  13) = (   0.0229324   2.9590759  12.5385950  )
        14           Ti1 tau(  14) = (   3.3157970   1.4644123  12.5194148  )
        15           O1  tau(  15) = (   6.5691168   5.9481840  14.6869282  )
        16           O1  tau(  16) = (   3.2964787   5.9455965  14.0277316  )
        17           O1  tau(  17) = (   4.5665908   1.5027878  16.2081754  )
        18           O1  tau(  18) = (   2.0283028   1.5092035  16.1774433  )
        19           Ti1 tau(  19) = (   3.2999954   2.9453206  15.7178785  )
        20           Ti1 tau(  20) = (   6.5724188   1.3235339  15.9896992  )
        21           O1  tau(  21) = (   3.2904802   0.0005063   4.7018136  )
        22           O1  tau(  22) = (   0.0286320   5.9425150  17.2304330  )
        23           O1  tau(  23) = (   1.3043587   1.4918075   6.0039043  )
        24           O1  tau(  24) = (   5.2767064   1.4903225   6.0039473  )
        25           Ti1 tau(  25) = (   0.0000382   5.9609847   6.0000000  )
        26           Ti1 tau(  26) = (   3.2902200   4.4714249   6.0002472  )
        27           O1  tau(  27) = (   0.0002396   2.9813036   7.9858123  )
        28           O1  tau(  28) = (   3.2902150   2.9813002   7.3038282  )
        29           O1  tau(  29) = (   4.5938453   4.4726049   9.2879030  )
        30           O1  tau(  30) = (   1.9864658   4.4711199   9.2879459  )
        31           Ti1 tau(  31) = (   3.3176359   5.9492212   9.1540102  )
        32           Ti1 tau(  32) = (   0.0367062   4.4560090   9.2708352  )
        33           O1  tau(  33) = (   3.2951800   2.9650663  11.3684769  )
        34           O1  tau(  34) = (   0.0080098   2.9764013  10.6279654  )
        35           O1  tau(  35) = (   1.2931912   4.4560454  12.6592269  )
        36           O1  tau(  36) = (   5.2946864   4.4524020  12.6579832  )
        37           Ti1 tau(  37) = (   0.0159028   5.9413441  12.4831893  )
        38           Ti1 tau(  38) = (   3.3151975   4.4500431  12.5204281  )
        39           O1  tau(  39) = (   0.0034497   2.9621527  14.8596962  )
        40           O1  tau(  40) = (   3.2989893   2.9535984  13.9376031  )
        41           O1  tau(  41) = (   4.5724332   4.4114593  16.1445292  )
        42           O1  tau(  42) = (   2.0255208   4.3883007  16.1585022  )
        43           Ti1 tau(  43) = (   3.2821299   5.9114753  15.8432964  )
        44           Ti1 tau(  44) = (   6.5414858   4.5242847  15.8739915  )
        45           O1  tau(  45) = (   3.2900926   2.9813045   4.7018136  )
        46           O1  tau(  46) = (   1.3039711   4.4726057   6.0039043  )
        47           O1  tau(  47) = (   5.2763189   4.4711207   6.0039473  )
        48           C1  tau(  48) = (   5.9754720   3.1749164  18.9278073  )
        49           O1  tau(  49) = (   0.1533887   3.0270296  17.7012840  )
        50           H1  tau(  50) = (   4.9293134   3.0706859  18.6584277  )
        51           H1  tau(  51) = (   1.0910173   3.2466920  17.8500278  )
        52           H1  tau(  52) = (   6.2690755   2.3937635  19.6305738  )
        53           H1  tau(  53) = (   6.1431946   4.1694627  19.3379575  )
        54           O1  tau(  54) = (   3.1723115   5.9428592  18.3789464  )
        55           H1  tau(  55) = (   3.8852673   0.6353712  18.4582360  )
        56           H1  tau(  56) = (   2.3406934   0.4831942  18.3201771  )

     number of k points=    10  Fermi-Dirac smearing, width (Ry)=  0.0073
                       cart. coord. in units 2pi/alat
        k(    1) = (   0.0000000   0.0000000   0.0000000), wk =   0.1250000
        k(    2) = (   0.0000000   0.0419351   0.0000000), wk =   0.2500000
        k(    3) = (   0.0000000  -0.0838702   0.0000000), wk =   0.1250000
        k(    4) = (   0.0379955   0.0000049   0.0000000), wk =   0.2500000
        k(    5) = (   0.0379955   0.0419400   0.0000000), wk =   0.2500000
        k(    6) = (   0.0379955  -0.0838652   0.0000000), wk =   0.2500000
        k(    7) = (   0.0379955  -0.0419301   0.0000000), wk =   0.2500000
        k(    8) = (  -0.0759910  -0.0000099   0.0000000), wk =   0.1250000
        k(    9) = (  -0.0759910   0.0419252   0.0000000), wk =   0.2500000
        k(   10) = (  -0.0759910  -0.0838800   0.0000000), wk =   0.1250000

     Initial potential from superposition of free atoms

     starting charge  383.99915, renormalised to  400.00000

     negative rho (up, down):  1.599E-02 0.000E+00

     %%%%%%%%%%%%%%%%%%%%%%%%%%%%%%%%%%%%%%%%%%%%%%%%%%%%%%%%%%%%%%%%%%%%%%%%
     %                                                                      %
     % You are using vdW-DF, which was implemented by the Thonhauser group. %
     % Please cite the following two papers that made this development      %
     % possible and the two reviews that describe the various versions:     %
     %                                                                      %
     %   T. Thonhauser et al., PRL 115, 136402 (2015).                      %
     %   T. Thonhauser et al., PRB 76, 125112 (2007).                       %
     %   K. Berland et al., Rep. Prog. Phys. 78, 066501 (2015).             %
     %   D.C. Langreth et al., J. Phys.: Condens. Matter 21, 084203 (2009). %
     %                                                                      %
     %                                                                      %
     % If you are calculating the stress with vdW-DF, please also cite:     %
     %                                                                      %
     %   R. Sabatini et al., J. Phys.: Condens. Matter 24, 424209 (2012).   %
     %                                                                      %
     %%%%%%%%%%%%%%%%%%%%%%%%%%%%%%%%%%%%%%%%%%%%%%%%%%%%%%%%%%%%%%%%%%%%%%%%

     Adding external electric field

     Computed dipole along edir(3) :
        Dipole              -11.7448 Ry au,        -29.8522 Debye
        Dipole field         -0.0222 Ry au,

        Potential amp.        2.0546 Ry
        Total length         46.3494 bohr

     Starting wfcs are  302 atomic wfcs
  @ DRIVER MODE: Message from server: STATUS
  @ DRIVER MODE: Message from server: POSDATA
  @ DRIVER MODE: Reading and sharing cell
  @ DRIVER MODE: Reading and sharing positions
  @ DRIVER MODE: Received positions

     Self-consistent Calculation

     iteration #  1     ecut=    29.40 Ry     beta= 0.05
     Davidson diagonalization with overlap
     c_bands:  2 eigenvalues not converged
     c_bands:  2 eigenvalues not converged
     c_bands:  4 eigenvalues not converged
     c_bands:  3 eigenvalues not converged
     c_bands:  4 eigenvalues not converged
     c_bands:  4 eigenvalues not converged
     c_bands:  3 eigenvalues not converged
     c_bands:  2 eigenvalues not converged
     ethr =  1.00E-05,  avg # of iterations = 21.3

[...]

     total energy              =   -2420.24274543 Ry
     estimated scf accuracy    <    6189.15317551 Ry

     iteration #  2     ecut=    29.40 Ry     beta= 0.05
     Davidson diagonalization with overlap
     ethr =  1.00E-02,  avg # of iterations = 29.3

[...]

     iteration # 85     ecut=    29.40 Ry     beta= 0.05
     Davidson diagonalization with overlap
     c_bands:  1 eigenvalues not converged
     ethr =  3.83E-11,  avg # of iterations = 15.3

[...]

     total energy              =   -2967.47601609 Ry
     estimated scf accuracy    <       0.00000012 Ry

     iteration # 86     ecut=    29.40 Ry     beta= 0.05
     Davidson diagonalization with overlap
     ethr =  2.93E-11,  avg # of iterations =  3.9

     negative rho (up, down):  1.586E-02 0.000E+00

     Adding external electric field

     Computed dipole along edir(3) :
        Dipole                1.3693 Ry au,          3.4805 Debye
        Dipole field          0.0026 Ry au,

        Potential amp.       -0.2395 Ry
        Total length         46.3494 bohr

     End of self-consistent calculation

          k = 0.0000 0.0000 0.0000 ( 18029 PWs)   bands (ev):

   -55.2566 -55.2289 -55.2206 -55.1945 -55.1634 -55.1549 -55.1495 -55.1027
   -55.1020 -55.0960 -55.0617 -55.0440 -55.0143 -55.0100 -54.3180 -54.2839
   -31.8233 -31.7724 -31.7239 -31.6339 -31.5715 -31.5618 -31.5568 -31.5541
   -31.5174 -31.4893 -31.4718 -31.4700 -31.4584 -31.4489 -31.4347 -31.4203
   -31.4031 -31.3965 -31.3937 -31.3892 -31.3831 -31.3742 -31.3513 -31.3468
   -31.3448 -31.3251 -31.3222 -31.3205 -31.2997 -31.2863 -31.2705 -31.2498
   -31.2484 -31.2477 -31.2364 -31.2272 -31.2085 -31.1954 -31.1836 -31.1788
   -31.1659 -31.1552 -30.7300 -30.6275 -30.6060 -30.5463 -30.4600 -30.3488
   -20.1679 -19.0729 -16.0860 -15.8387 -15.6989 -15.6004 -15.4795 -15.3460
   -15.2861 -15.1714 -15.0800 -14.9899 -14.9752 -14.9567 -14.9265 -14.9043
   -14.8800 -14.8419 -14.8154 -14.7717 -14.7630 -14.7463 -14.7395 -14.7028
   -14.6998 -14.6547 -14.6463 -14.4896 -14.4192 -14.3590 -14.1355 -12.8189
   -12.6995 -11.1831  -6.9234  -6.8429  -5.1342  -5.0117  -3.4249  -3.2687
    -3.2302  -3.2005  -3.1886  -3.1353  -3.0621  -2.9644  -2.7917  -2.6851
    -2.5461  -2.5407  -2.4935  -2.4675  -2.4103  -2.3276  -2.2400  -2.2134
    -2.1751  -2.1454  -2.1420  -2.1258  -2.1154  -2.0595  -2.0242  -1.9664
    -1.8688  -1.8179  -1.7754  -1.7599  -1.7011  -1.6577  -1.6181  -1.5941
    -1.5882  -1.5820  -1.5233  -1.5211  -1.5129  -1.5021  -1.4845  -1.2956
    -1.2551  -1.1233  -1.0323  -0.9904  -0.9779  -0.8239  -0.8173  -0.7726
    -0.7385  -0.7053  -0.6648  -0.6072  -0.5096  -0.4760  -0.4274  -0.3895
    -0.2815  -0.2493  -0.2176  -0.1642  -0.0562  -0.0479  -0.0222  -0.0028
     0.0711   0.1669   0.1965   0.2174   0.2942   0.2994   0.3612   0.4017
     0.4351   0.5100   0.5554   0.5666   0.6582   0.6750   0.6887   0.7151
     0.7189   0.8173   0.8535   0.8980   0.9163   1.0679   1.1634   1.3018
     1.3305   1.5971   1.6924   1.7077   1.8682   2.2937   2.3484   3.8347
     3.9030   3.9414   3.9491   3.9624   4.0421   4.3259   4.3412   4.3529
     4.3624   4.3807

[...]

          k = 0.0380-0.0419 0.0000 ( 17876 PWs)   bands (ev):

[...]

          k =-0.0760-0.0000 0.0000 ( 17886 PWs)   bands (ev):

[...]

          k =-0.0760-0.0839 0.0000 ( 17948 PWs)   bands (ev):

   -55.2395 -55.2375 -55.2136 -55.2095 -55.1605 -55.1489 -55.1422 -55.1101
   -55.1086 -55.0802 -55.0773 -55.0289 -55.0253 -55.0162 -54.3009 -54.3008
   -31.6894 -31.6304 -31.6234 -31.5408 -31.5368 -31.5244 -31.5119 -31.5066
   -31.4988 -31.4787 -31.4605 -31.4551 -31.4512 -31.4370 -31.4116 -31.4088
   -31.3975 -31.3950 -31.3879 -31.3870 -31.3835 -31.3803 -31.3675 -31.3539
   -31.3457 -31.3406 -31.3398 -31.3335 -31.3303 -31.3302 -31.3297 -31.3115
   -31.3038 -31.3016 -31.2831 -31.2785 -31.2779 -31.2539 -31.2501 -31.2150
   -31.2108 -31.1980 -30.6185 -30.6185 -30.5428 -30.5425 -30.5032 -30.5031
   -20.1645 -19.0722 -15.6438 -15.5456 -15.3955 -15.2719 -15.2596 -15.2470
   -15.1953 -15.1305 -15.1169 -15.0666 -15.0537 -15.0231 -15.0071 -15.0011
   -14.9655 -14.8567 -14.8527 -14.8424 -14.8220 -14.7765 -14.7655 -14.7584
   -14.7462 -14.7101 -14.7017 -14.6873 -14.6769 -14.5848 -14.4444 -12.8007
   -12.8003 -11.1849  -6.9198  -6.8431  -5.1353  -4.9903  -3.1660  -2.9775
    -2.8136  -2.7344  -2.6373  -2.4898  -2.4753  -2.3941  -2.3819  -2.3315
    -2.2601  -2.2580  -2.2542  -2.1727  -2.1607  -2.1603  -2.1397  -2.1186
    -2.0793  -2.0706  -2.0450  -2.0367  -1.9957  -1.9648  -1.9518  -1.9330
    -1.9239  -1.9202  -1.8888  -1.8738  -1.8573  -1.8176  -1.7942  -1.7338
    -1.6451  -1.6094  -1.4860  -1.4838  -1.4448  -1.4153  -1.3935  -1.3527
    -1.3331  -1.2854  -1.2644  -1.2394  -1.0560  -1.0400  -0.9848  -0.9437
    -0.9245  -0.9123  -0.8506  -0.7785  -0.7507  -0.7206  -0.6547  -0.5813
    -0.4859  -0.4615  -0.4531  -0.3458  -0.2946  -0.2552  -0.2509  -0.2415
    -0.2179  -0.1689  -0.1492  -0.0873  -0.0483  -0.0046   0.0208   0.0377
     0.2189   0.2571   0.3157   0.4075   0.4363   0.5809   0.6298   0.6810
     0.7417   0.8181   0.8290   0.8950   1.0094   1.0217   1.0518   1.1285
     1.1720   1.1777   1.2027   2.0591   2.0611   2.1627   2.1656   3.9644
     4.0718   4.0904   4.1694   4.2360   4.3438   4.3570   4.3863   4.3969
     4.4423   4.4734

     the Fermi energy is     3.8911 ev

!    total energy              =   -2967.47602579 Ry
     estimated scf accuracy    <       0.00000007 Ry
     smearing contrib. (-TS)   =      -0.03653711 Ry
     internal energy E=F+TS    =   -2967.43948868 Ry

     The total energy is F=E-TS. E is the sum of the following terms:
     one-electron contribution =  -23959.60664206 Ry
     hartree contribution      =   12075.33417344 Ry
     xc contribution           =    -491.85876193 Ry
     ewald contribution        =    9408.68820343 Ry
     electric field correction =       0.00353845 Ry

     convergence has been achieved in  86 iterations

     Forces acting on atoms (cartesian axes, Ry/au):

     atom    1 type  1   force =    -0.00026509    0.00020288    0.09243809
     atom    2 type  1   force =    -0.00035538    0.00103331   -0.18339816
     atom    3 type  2   force =     0.00050459   -0.00072682   -0.02347955
     atom    4 type  2   force =     0.00072310   -0.00018662    0.05070481
     atom    5 type  2   force =    -0.01404715   -0.00131339    0.00495837
     atom    6 type  2   force =     0.01521654   -0.00065017    0.00510190
     atom    7 type  1   force =    -0.00048636    0.00106509   -0.00014003
     atom    8 type  1   force =     0.00016069   -0.00052895    0.00040630
     atom    9 type  2   force =    -0.00043967    0.00017679    0.00041579
     atom   10 type  2   force =     0.00040790    0.00016233    0.00048384
     atom   11 type  2   force =     0.00035774    0.00043697    0.00034692
     atom   12 type  2   force =     0.00005879    0.00013768    0.00027574
     atom   13 type  1   force =    -0.00088010   -0.00119195   -0.00009541
     atom   14 type  1   force =     0.00058879   -0.00000259    0.00015956
     atom   15 type  2   force =     0.00051358    0.00077234    0.00002823
     atom   16 type  2   force =    -0.00061609   -0.00038004    0.00029980
     atom   17 type  2   force =    -0.00010216    0.00003817   -0.00026732
     atom   18 type  2   force =     0.00002475    0.00004347    0.00004285
     atom   19 type  1   force =     0.00066867    0.00003692   -0.00025753
     atom   20 type  1   force =    -0.00004686    0.00014082    0.00006294
     atom   21 type  2   force =    -0.00004099    0.00015527    0.10495941
     atom   22 type  2   force =    -0.00034505    0.00062141   -0.00112984
     atom   23 type  2   force =    -0.06796720    0.00013044   -0.02678396
     atom   24 type  2   force =     0.06768392    0.00053060   -0.02684838
     atom   25 type  1   force =    -0.00038827   -0.00009343    0.09622418
     atom   26 type  1   force =    -0.00035544   -0.00098573   -0.18319221
     atom   27 type  2   force =     0.00041677   -0.00124990   -0.02224643
     atom   28 type  2   force =     0.00070250   -0.00033203    0.05102944
     atom   29 type  2   force =    -0.01423578   -0.00106328    0.00466865
     atom   30 type  2   force =     0.01518453    0.00021184    0.00485303
     atom   31 type  1   force =    -0.00050158   -0.00145819    0.00016227
     atom   32 type  1   force =     0.00012834    0.00071522   -0.00026028
     atom   33 type  2   force =     0.00002093   -0.00021007    0.00007695
     atom   34 type  2   force =     0.00002367   -0.00006681   -0.00007729
     atom   35 type  2   force =     0.00021150    0.00008542    0.00031251
     atom   36 type  2   force =     0.00039917    0.00045322    0.00005804
     atom   37 type  1   force =    -0.00106554    0.00124823   -0.00004842
     atom   38 type  1   force =     0.00037296    0.00006582   -0.00047445
     atom   39 type  2   force =     0.00039577    0.00020952   -0.00038889
     atom   40 type  2   force =    -0.00008293    0.00019150    0.00007693
     atom   41 type  2   force =    -0.00030149    0.00027773   -0.00049888
     atom   42 type  2   force =     0.00023840    0.00011077    0.00024612
     atom   43 type  1   force =    -0.00057433    0.00002011   -0.00022370
     atom   44 type  1   force =    -0.00004420    0.00003322   -0.00068301
     atom   45 type  2   force =    -0.00005556    0.00015326    0.10489633
     atom   46 type  2   force =    -0.06801264   -0.00038804   -0.02677407
     atom   47 type  2   force =     0.06773749    0.00005376   -0.02686200
     atom   48 type  3   force =    -0.00011638    0.00051981   -0.00009505
     atom   49 type  2   force =    -0.00103765    0.00033835    0.00070712
     atom   50 type  4   force =     0.00049535    0.00057168    0.00010274
     atom   51 type  4   force =     0.00069487    0.00084102    0.00003276
     atom   52 type  4   force =    -0.00043203    0.00062767   -0.00025785
     atom   53 type  4   force =    -0.00018301   -0.00026765    0.00010570
     atom   54 type  2   force =    -0.00128408   -0.00080913    0.00006211
     atom   55 type  4   force =     0.00028245    0.00085864   -0.00026308
     atom   56 type  4   force =     0.00004925   -0.00136649    0.00044635

     Total force =     0.368139     Total SCF correction =     0.000814
  @ DRIVER MODE: Message from server: STATUS
  @ DRIVER MODE: Message from server: GETFORCE
  @ DRIVER MODE: Returning v,forces,stress,ensemble

     Writing output data file ./calc.save/
  @ DRIVER MODE: Message from server: EXIT
  @ DRIVE MODE: Exiting

     General routines

     Parallel routines

   This run was terminated on:   5:21:51  16Sep2021

   JOB DONE.