     Program PWSCF v.6.7GPU starts on 13Oct2021 at  2:11: 8

     R & G space division:  proc/nbgrp/npool/nimage =       8
     Reading input from /storage/home/hcoda1/3/ntian30/research/carbon/ACS_vib/ads_slab/HNNH/out_0024/pw.inp
Warning: card &CELL ignored
Warning: card   CELL_DYNAMICS='IPI', ignored
Warning: card / ignored

     Current dimensions of program PWSCF are:
     Max number of different atomic species (ntypx) = 10
     Max number of k-points (npk) =  40000
     Max angular momentum in pseudopotentials (lmaxx) =  3
     Presently no symmetry can be used with electric field

     Message from routine cell_base_init:
     DEPRECATED: use true lattice parameter, not A to a.u. conversion factor

     IMPORTANT: XC functional enforced from input :
     Exchange-correlation= BEEF-VDW
                           (   1   4  43  14   2   0   0)
     Any further DFT definition will be discarded
     Please, verify this is what you really want

  @ DRIVER MODE: Connecting to
 qe_1139763_3181311.sched-torque.pace.gatech.edusnxhmz0a_scratch
  using UNIX socket
  @ DRIVER MODE: Message from server: STATUS
  @ DRIVER MODE: Message from server: INIT
  @ DRIVER MODE: Receiving replica           0          -1
  @ DRIVER MODE: Receiving encoded integer          25
  @ DRIVER MODE:  SCF:  T  FORCE:  T  STRESS:  F  VC:  F  ENSEMBLE:  F
  @ DRIVER MODE:  SCF:  T  FORCE:  T  STRESS:  F  VC:  F  ENSEMBLE:  F

     Using Slab Decomposition

     bravais-lattice index     =            0
     lattice parameter (alat)  =       1.8897  a.u.
     unit-cell volume          =    6658.9804 (a.u.)^3
     number of atoms/cell      =           51
     number of atomic types    =            4
     number of electrons       =       390.00
     number of Kohn-Sham states=          205
     kinetic-energy cutoff     =      29.3995  Ry
     charge density cutoff     =     293.9946  Ry
     scf convergence threshold =      7.3E-08
     mixing beta               =       0.0500
     number of iterations used =            8  plain     mixing
     Exchange-correlation= BEEF-VDW
                           (   1   4  43  14   2   0   0)

     celldm(1)=   1.889726  celldm(2)=   0.000000  celldm(3)=   0.000000
     celldm(4)=   0.000000  celldm(5)=   0.000000  celldm(6)=   0.000000

     crystal axes: (cart. coord. in units of alat)
               a(1) = (   6.579727   0.000000   0.000000 )
               a(2) = (  -0.000775   5.961596   0.000000 )
               a(3) = (   0.000000   0.000000  25.155947 )

     reciprocal axes: (cart. coord. in units 2 pi/alat)
               b(1) = (  0.151982  0.000020  0.000000 )
               b(2) = (  0.000000  0.167740  0.000000 )
               b(3) = (  0.000000  0.000000  0.039752 )

     PseudoPot. # 1 for Ti read from file:
     /storage/coda1/p-amedford6/0/shared/rich_project_chbe-medford/medford-share/data/pseudos_module/espresso/nninc/pbe/van/Ti.UPF
     MD5 check sum: 8e4df49b7f0d34bbd5052bf3f5ea0213
     Pseudo is Ultrasoft, Zval = 12.0
     Generated by new atomic code, or converted to UPF format
     Using radial grid of  851 points,  6 beta functions with:
                l(1) =   0
                l(2) =   0
                l(3) =   1
                l(4) =   1
                l(5) =   2
                l(6) =   2
     Q(r) pseudized with  8 coefficients,  rinner =    1.000   1.000   1.000
                                                       1.000   1.000

     PseudoPot. # 2 for O  read from file:
     /storage/coda1/p-amedford6/0/shared/rich_project_chbe-medford/medford-share/data/pseudos_module/espresso/nninc/pbe/van/O.UPF
     MD5 check sum: 78c19812648e8988a0fe644b0f25305e
     Pseudo is Ultrasoft, Zval =  6.0
     Generated by new atomic code, or converted to UPF format
     Using radial grid of  737 points,  4 beta functions with:
                l(1) =   0
                l(2) =   0
                l(3) =   1
                l(4) =   1
     Q(r) pseudized with  8 coefficients,  rinner =    0.800   0.800   0.800

     PseudoPot. # 3 for H  read from file:
     /storage/coda1/p-amedford6/0/shared/rich_project_chbe-medford/medford-share/data/pseudos_module/espresso/nninc/pbe/van/H.UPF
     MD5 check sum: b5ee9d7bfd3a09ee7748110bda690ff7
     Pseudo is Ultrasoft, Zval =  1.0
     Generated by new atomic code, or converted to UPF format
     Using radial grid of  615 points,  1 beta functions with:
                l(1) =   0
     Q(r) pseudized with  8 coefficients,  rinner =    0.800

     PseudoPot. # 4 for N  read from file:
     /storage/coda1/p-amedford6/0/shared/rich_project_chbe-medford/medford-share/data/pseudos_module/espresso/nninc/pbe/van/N.UPF
     MD5 check sum: 90d10febe142ad51ac9d5be1deb811c4
     Pseudo is Ultrasoft, Zval =  5.0
     Generated by new atomic code, or converted to UPF format
     Using radial grid of  729 points,  4 beta functions with:
                l(1) =   0
                l(2) =   0
                l(3) =   1
                l(4) =   1
     Q(r) pseudized with  8 coefficients,  rinner =    0.800   0.800   0.800

     atomic species   valence    mass     pseudopotential
        Ti1           12.00    47.86700     Ti( 1.00)
        O1             6.00    15.99900     O ( 1.00)
        H1             1.00     1.00800     H ( 1.00)
        N1             5.00    14.00700     N ( 1.00)

     No symmetry found

   Cartesian axes

     site n.     atom                  positions (alat units)
         1           Ti1 tau(   1) = (   0.0004258   2.9801865   6.0000000  )
         2           Ti1 tau(   2) = (   3.2906075   1.4906267   6.0002472  )
         3           O1  tau(   3) = (   0.0006271   0.0005054   7.9858123  )
         4           O1  tau(   4) = (   3.2906025   0.0005020   7.3038282  )
         5           O1  tau(   5) = (   4.5942328   1.4918067   9.2879030  )
         6           O1  tau(   6) = (   1.9868534   1.4903216   9.2879459  )
         7           Ti1 tau(   7) = (   3.2908881   2.9042228   9.1664735  )
         8           Ti1 tau(   8) = (   0.0028208   1.4453605   9.2576896  )
         9           O1  tau(   9) = (   3.2707936   0.0024169  11.3547307  )
        10           O1  tau(  10) = (   6.5771562   5.9613851  10.5998947  )
        11           O1  tau(  11) = (   1.2750810   1.4887983  12.6623546  )
        12           O1  tau(  12) = (   5.2735957   1.4941237  12.6366476  )
        13           Ti1 tau(  13) = (   6.5484273   3.0048924  12.8091026  )
        14           Ti1 tau(  14) = (   3.2635572   1.4892482  12.5038529  )
        15           O1  tau(  15) = (   6.5112577   5.9342846  14.6610847  )
        16           O1  tau(  16) = (   3.2966729   5.9487847  13.9562402  )
        17           O1  tau(  17) = (   4.4981853   1.5100712  16.1215815  )
        18           O1  tau(  18) = (   1.9927245   1.4809274  16.0269182  )
        19           Ti1 tau(  19) = (   3.2349744   2.9714856  15.7300180  )
        20           Ti1 tau(  20) = (   6.5689460   1.3052557  15.9023701  )
        21           O1  tau(  21) = (   3.2904802   0.0005063   4.7018136  )
        22           O1  tau(  22) = (   6.5497555   0.0700294  17.2054191  )
        23           O1  tau(  23) = (   1.3043587   1.4918075   6.0039043  )
        24           O1  tau(  24) = (   5.2767064   1.4903225   6.0039473  )
        25           Ti1 tau(  25) = (   0.0000382   5.9609847   6.0000000  )
        26           Ti1 tau(  26) = (   3.2902200   4.4714249   6.0002472  )
        27           O1  tau(  27) = (   0.0002396   2.9813036   7.9858123  )
        28           O1  tau(  28) = (   3.2902150   2.9813002   7.3038282  )
        29           O1  tau(  29) = (   4.5938453   4.4726049   9.2879030  )
        30           O1  tau(  30) = (   1.9864658   4.4711199   9.2879459  )
        31           Ti1 tau(  31) = (   3.2899333   5.8856170   9.1744801  )
        32           Ti1 tau(  32) = (   0.0020137   4.3658053   9.3606106  )
        33           O1  tau(  33) = (   3.2690173   2.9735267  11.3530824  )
        34           O1  tau(  34) = (   0.0002412   2.9750176  10.5666245  )
        35           O1  tau(  35) = (   1.2748646   4.4726994  12.6423647  )
        36           O1  tau(  36) = (   5.2720213   4.4664742  12.6163582  )
        37           Ti1 tau(  37) = (   6.5582605   0.0201509  12.4985948  )
        38           Ti1 tau(  38) = (   3.2618569   4.4653106  12.4956167  )
        39           O1  tau(  39) = (   6.5348066   3.0079926  14.7180217  )
        40           O1  tau(  40) = (   3.2797409   2.9875293  13.9337705  )
        41           O1  tau(  41) = (   4.5027845   4.4373921  16.1556124  )
        42           O1  tau(  42) = (   1.9850320   4.4617864  16.0830993  )
        43           Ti1 tau(  43) = (   3.2823567   5.9555293  15.7495178  )
        44           Ti1 tau(  44) = (   6.5552429   4.5047081  16.0597439  )
        45           O1  tau(  45) = (   3.2900926   2.9813045   4.7018136  )
        46           O1  tau(  46) = (   1.3039711   4.4726057   6.0039043  )
        47           O1  tau(  47) = (   5.2763189   4.4711207   6.0039473  )
        48           H1  tau(  48) = (   0.5659039   2.5807529  19.4396776  )
        49           N1  tau(  49) = (   0.9330341   2.9538053  18.5544450  )
        50           N1  tau(  50) = (   6.5241730   3.1816813  17.7405862  )
        51           H1  tau(  51) = (   5.5906726   3.0068531  18.1406748  )

     number of k points=    10  Fermi-Dirac smearing, width (Ry)=  0.0073
                       cart. coord. in units 2pi/alat
        k(    1) = (   0.0000000   0.0000000   0.0000000), wk =   0.1250000
        k(    2) = (   0.0000000   0.0419351   0.0000000), wk =   0.2500000
        k(    3) = (   0.0000000  -0.0838702   0.0000000), wk =   0.1250000
        k(    4) = (   0.0379955   0.0000049   0.0000000), wk =   0.2500000
        k(    5) = (   0.0379955   0.0419400   0.0000000), wk =   0.2500000
        k(    6) = (   0.0379955  -0.0838652   0.0000000), wk =   0.2500000
        k(    7) = (   0.0379955  -0.0419301   0.0000000), wk =   0.2500000
        k(    8) = (  -0.0759910  -0.0000099   0.0000000), wk =   0.1250000
        k(    9) = (  -0.0759910   0.0419252   0.0000000), wk =   0.2500000
        k(   10) = (  -0.0759910  -0.0838800   0.0000000), wk =   0.1250000

     Initial potential from superposition of free atoms

     starting charge  373.99921, renormalised to  390.00000

     negative rho (up, down):  1.940E-02 0.000E+00

     %%%%%%%%%%%%%%%%%%%%%%%%%%%%%%%%%%%%%%%%%%%%%%%%%%%%%%%%%%%%%%%%%%%%%%%%
     %                                                                      %
     % You are using vdW-DF, which was implemented by the Thonhauser group. %
     % Please cite the following two papers that made this development      %
     % possible and the two reviews that describe the various versions:     %
     %                                                                      %
     %   T. Thonhauser et al., PRL 115, 136402 (2015).                      %
     %   T. Thonhauser et al., PRB 76, 125112 (2007).                       %
     %   K. Berland et al., Rep. Prog. Phys. 78, 066501 (2015).             %
     %   D.C. Langreth et al., J. Phys.: Condens. Matter 21, 084203 (2009). %
     %                                                                      %
     %                                                                      %
     % If you are calculating the stress with vdW-DF, please also cite:     %
     %                                                                      %
     %   R. Sabatini et al., J. Phys.: Condens. Matter 24, 424209 (2012).   %
     %                                                                      %
     %%%%%%%%%%%%%%%%%%%%%%%%%%%%%%%%%%%%%%%%%%%%%%%%%%%%%%%%%%%%%%%%%%%%%%%%

     Adding external electric field

     Computed dipole along edir(3) :
        Dipole               -5.1497 Ry au,        -13.0891 Debye
        Dipole field         -0.0097 Ry au,

        Potential amp.        0.9009 Ry
        Total length         46.3494 bohr

     Starting wfcs are  294 atomic wfcs
  @ DRIVER MODE: Message from server: STATUS
  @ DRIVER MODE: Message from server: POSDATA
  @ DRIVER MODE: Reading and sharing cell
  @ DRIVER MODE: Reading and sharing positions
  @ DRIVER MODE: Received positions

     Self-consistent Calculation

     iteration #  1     ecut=    29.40 Ry     beta= 0.05
     Davidson diagonalization with overlap
     c_bands:  5 eigenvalues not converged
     c_bands:  3 eigenvalues not converged
     c_bands:  3 eigenvalues not converged
     c_bands:  1 eigenvalues not converged
     c_bands:  3 eigenvalues not converged
     c_bands:  2 eigenvalues not converged
     c_bands:  3 eigenvalues not converged
     ethr =  1.00E-05,  avg # of iterations = 20.6

[...]

     total energy              =   -2837.88118068 Ry
     estimated scf accuracy    <     991.50351123 Ry

     iteration #  2     ecut=    29.40 Ry     beta= 0.05
     Davidson diagonalization with overlap
     ethr =  1.00E-02,  avg # of iterations = 16.1

[...]

     iteration # 56     ecut=    29.40 Ry     beta= 0.05
     Davidson diagonalization with overlap
     c_bands:  1 eigenvalues not converged
     ethr =  1.91E-07,  avg # of iterations = 15.2

[...]

     total energy              =   -2926.39977626 Ry
     estimated scf accuracy    <       0.00000009 Ry

     iteration # 73     ecut=    29.40 Ry     beta= 0.05
     Davidson diagonalization with overlap
     ethr =  2.26E-11,  avg # of iterations =  9.5

     negative rho (up, down):  1.911E-02 0.000E+00

     Adding external electric field

     Computed dipole along edir(3) :
        Dipole                0.7864 Ry au,          1.9988 Debye
        Dipole field          0.0015 Ry au,

        Potential amp.       -0.1376 Ry
        Total length         46.3494 bohr

     End of self-consistent calculation

          k = 0.0000 0.0000 0.0000 ( 18029 PWs)   bands (ev):

   -55.9554 -55.9423 -55.9176 -55.9057 -55.8643 -55.8239 -55.8009 -55.7885
   -55.7304 -55.7058 -55.6722 -55.6157 -55.5672 -55.4975 -54.9228 -54.8887
   -32.5096 -32.4214 -32.3049 -32.2958 -32.2723 -32.2497 -32.2254 -32.1973
   -32.1907 -32.1828 -32.1631 -32.1504 -32.1250 -32.1224 -32.1146 -32.0963
   -32.0895 -32.0733 -32.0538 -32.0437 -32.0196 -32.0067 -31.9980 -31.9975
   -31.9817 -31.9680 -31.9499 -31.9419 -31.9290 -31.9199 -31.9151 -31.8902
   -31.8826 -31.8544 -31.8372 -31.8195 -31.8163 -31.8037 -31.7972 -31.7301
   -31.6835 -31.6116 -31.3310 -31.2397 -31.2171 -31.1472 -31.0609 -30.9502
   -18.0776 -16.7119 -16.4102 -16.2756 -16.1295 -16.0836 -15.9824 -15.7983
   -15.6952 -15.6439 -15.5797 -15.5563 -15.5535 -15.5018 -15.4925 -15.4868
   -15.4628 -15.4237 -15.3885 -15.3475 -15.3442 -15.3370 -15.3039 -15.2419
   -15.2109 -15.1144 -15.0601 -14.9637 -14.9596 -14.8267 -13.4256 -13.3088
   -10.2844  -6.6186  -4.0624  -3.9447  -3.8778  -3.8328  -3.7768  -3.5731
    -3.5194  -3.3240  -3.2490  -3.1454  -3.1014  -3.0824  -3.0762  -3.0091
    -2.8690  -2.7726  -2.7638  -2.7501  -2.7277  -2.7162  -2.7071  -2.6914
    -2.6855  -2.6412  -2.5667  -2.5013  -2.4360  -2.3753  -2.3245  -2.2449
    -2.2314  -2.2161  -2.2048  -2.1995  -2.1637  -2.1560  -2.1457  -2.0172
    -1.9946  -1.9051  -1.7826  -1.7618  -1.6467  -1.5662  -1.5472  -1.4181
    -1.3818  -1.3486  -1.3153  -1.2697  -1.2364  -1.2256  -1.1511  -1.1091
    -1.0133  -0.9774  -0.8781  -0.8328  -0.8277  -0.7671  -0.6896  -0.6784
    -0.6644  -0.5259  -0.4387  -0.4292  -0.4255  -0.3419  -0.2865  -0.2339
    -0.1868  -0.1784  -0.1594  -0.1205  -0.0929   0.0058   0.0154   0.0490
     0.0629   0.1011   0.1913   0.2599   0.2730   0.3325   0.3480   0.5575
     0.5691   0.5799   0.7185   0.7657   1.0134   1.0985   1.1247   1.2860
     1.6789   1.7338   3.1511   3.2392   3.2551   3.2921   3.3562   3.4018
     3.5547   3.6065   3.6512   3.6781   3.7029

[...]

          k = 0.0380-0.0419 0.0000 ( 17876 PWs)   bands (ev):

[...]

          k =-0.0760-0.0000 0.0000 ( 17886 PWs)   bands (ev):

[...]

          k =-0.0760-0.0839 0.0000 ( 17948 PWs)   bands (ev):

   -55.9448 -55.9281 -55.9267 -55.9211 -55.8592 -55.8136 -55.8058 -55.7987
   -55.7274 -55.6893 -55.6888 -55.6183 -55.5630 -55.5016 -54.9062 -54.9052
   -32.3145 -32.3102 -32.2468 -32.2465 -32.2375 -32.2291 -32.2123 -32.2116
   -32.1546 -32.1519 -32.1462 -32.1394 -32.1225 -32.0968 -32.0781 -32.0705
   -32.0665 -32.0643 -32.0617 -32.0592 -32.0469 -32.0278 -32.0211 -32.0136
   -32.0115 -32.0084 -32.0060 -32.0024 -31.9535 -31.9306 -31.9266 -31.9263
   -31.9114 -31.8986 -31.8945 -31.8882 -31.8440 -31.8180 -31.8135 -31.7344
   -31.7200 -31.6567 -31.2304 -31.2291 -31.1443 -31.1433 -31.1046 -31.1034
   -18.0724 -16.1498 -16.1217 -15.9721 -15.8808 -15.8697 -15.8246 -15.7659
   -15.7372 -15.6807 -15.6484 -15.6298 -15.6131 -15.5959 -15.5712 -15.5231
   -15.4734 -15.4675 -15.4576 -15.4425 -15.3920 -15.3824 -15.3573 -15.3490
   -15.3261 -15.2614 -15.2397 -15.1937 -15.1141 -14.9920 -13.4123 -13.4086
   -10.2890  -6.6193  -3.4357  -3.4028  -3.3175  -3.2061  -3.0958  -3.0913
    -3.0123  -2.9494  -2.9098  -2.8612  -2.8176  -2.7934  -2.7616  -2.7576
    -2.7499  -2.7379  -2.7292  -2.6973  -2.6848  -2.6802  -2.6443  -2.6288
    -2.6074  -2.6009  -2.5598  -2.5481  -2.5333  -2.4906  -2.4875  -2.4822
    -2.4774  -2.2858  -2.2462  -2.1996  -2.1488  -2.0694  -2.0534  -2.0402
    -1.9993  -1.9846  -1.9738  -1.9059  -1.8111  -1.6928  -1.6573  -1.6343
    -1.6214  -1.5798  -1.4040  -1.3718  -1.3568  -1.3342  -1.3020  -1.2495
    -1.2183  -1.1986  -1.1034  -1.0832  -1.0398  -0.9657  -0.9102  -0.8901
    -0.8592  -0.8218  -0.7777  -0.7384  -0.6964  -0.6810  -0.6161  -0.5674
    -0.5226  -0.5032  -0.4848  -0.4007  -0.3229  -0.2973  -0.0948   0.0382
     0.0717   0.0842   0.2210   0.2372   0.2737   0.3449   0.3780   0.4211
     0.4794   0.5853   0.5875   0.5995   0.6090   0.6684   1.4598   1.4644
     1.5390   1.5510   3.2152   3.3994   3.4430   3.4825   3.5436   3.6869
     3.7110   3.7125   3.7355   3.7889   3.8564

     the Fermi energy is     3.1961 ev

!    total energy              =   -2926.39979545 Ry
     estimated scf accuracy    <       0.00000005 Ry
     smearing contrib. (-TS)   =      -0.03281209 Ry
     internal energy E=F+TS    =   -2926.36698337 Ry

     The total energy is F=E-TS. E is the sum of the following terms:
     one-electron contribution =  -24580.56618026 Ry
     hartree contribution      =   12374.43547390 Ry
     xc contribution           =    -480.78605805 Ry
     ewald contribution        =    9760.54861402 Ry
     electric field correction =       0.00116702 Ry

     convergence has been achieved in  73 iterations

     Forces acting on atoms (cartesian axes, Ry/au):

     atom    1 type  1   force =     0.00019430    0.00160800    0.10334496
     atom    2 type  1   force =     0.00006868   -0.00227948   -0.17659304
     atom    3 type  2   force =     0.00018004    0.00648514   -0.03461430
     atom    4 type  2   force =    -0.00004905   -0.00102749    0.05241300
     atom    5 type  2   force =    -0.01732020   -0.00086895    0.00516150
     atom    6 type  2   force =     0.01633225   -0.00066219    0.00402230
     atom    7 type  1   force =     0.00051362    0.00280688   -0.00768777
     atom    8 type  1   force =    -0.00011524   -0.00003571    0.00050219
     atom    9 type  2   force =     0.00013826   -0.00018668   -0.00051411
     atom   10 type  2   force =     0.00006925   -0.00015429   -0.00040528
     atom   11 type  2   force =     0.00025388    0.00017466    0.00030815
     atom   12 type  2   force =     0.00017504    0.00031170    0.00019165
     atom   13 type  1   force =    -0.00041184    0.00068857   -0.00080853
     atom   14 type  1   force =    -0.00039881   -0.00004555   -0.00101181
     atom   15 type  2   force =     0.00000886    0.00074030    0.00018966
     atom   16 type  2   force =     0.00003782   -0.00015924    0.00084733
     atom   17 type  2   force =     0.00022772    0.00031877    0.00025649
     atom   18 type  2   force =    -0.00047776    0.00032091    0.00008199
     atom   19 type  1   force =     0.00024733   -0.00051528    0.00047941
     atom   20 type  1   force =    -0.00023807   -0.00141064    0.00018411
     atom   21 type  2   force =     0.00012712   -0.00007721    0.10333706
     atom   22 type  2   force =    -0.00029977    0.00019535    0.00144018
     atom   23 type  2   force =    -0.07031430    0.00112942   -0.02964352
     atom   24 type  2   force =     0.07030290    0.00155993   -0.02964857
     atom   25 type  1   force =     0.00010693   -0.00166655    0.11622485
     atom   26 type  1   force =    -0.00002286    0.00129119   -0.17607774
     atom   27 type  2   force =     0.00011087   -0.00260210   -0.02894174
     atom   28 type  2   force =    -0.00004134   -0.00141333    0.05146548
     atom   29 type  2   force =    -0.01883774    0.00098173    0.00642651
     atom   30 type  2   force =     0.01783965    0.00162579    0.00534130
     atom   31 type  1   force =     0.00052005   -0.00134042   -0.01365925
     atom   32 type  1   force =    -0.00010343   -0.00101978    0.00068415
     atom   33 type  2   force =     0.00007275   -0.00014506   -0.00046917
     atom   34 type  2   force =     0.00008750   -0.00064899    0.00082885
     atom   35 type  2   force =     0.00037663   -0.00019979    0.00040290
     atom   36 type  2   force =     0.00007657   -0.00015572    0.00029860
     atom   37 type  1   force =    -0.00014256    0.00021410   -0.00004502
     atom   38 type  1   force =    -0.00051894   -0.00055121   -0.00078805
     atom   39 type  2   force =    -0.00031086   -0.00049606    0.00097807
     atom   40 type  2   force =     0.00010592   -0.00014492    0.00148015
     atom   41 type  2   force =     0.00035468   -0.00040265    0.00021288
     atom   42 type  2   force =    -0.00083990   -0.00024542   -0.00008481
     atom   43 type  1   force =     0.00030179    0.00024595    0.00005344
     atom   44 type  1   force =    -0.00030502    0.00151715    0.00034210
     atom   45 type  2   force =     0.00012381   -0.00004426    0.10352898
     atom   46 type  2   force =    -0.07074629   -0.00146873   -0.02960757
     atom   47 type  2   force =     0.07072504   -0.00103892   -0.02964118
     atom   48 type  3   force =     0.00034457   -0.00047197    0.00049412
     atom   49 type  4   force =     0.00306261    0.00039557   -0.00088844
     atom   50 type  4   force =    -0.00532218   -0.00127647    0.00364405
     atom   51 type  3   force =     0.00372971    0.00014395   -0.00403652

     Total force =     0.374704     Total SCF correction =     0.000878
  @ DRIVER MODE: Message from server: STATUS
  @ DRIVER MODE: Message from server: GETFORCE
  @ DRIVER MODE: Returning v,forces,stress,ensemble

     Writing output data file ./calc.save/
  @ DRIVER MODE: Message from server: EXIT
  @ DRIVE MODE: Exiting

     General routines

     Parallel routines

   This run was terminated on:   2:34:41  13Oct2021

   JOB DONE.