     Program PWSCF v.6.7GPU starts on 16Sep2021 at  2:56:29

     R & G space division:  proc/nbgrp/npool/nimage =      10
     Reading input from /storage/home/hcoda1/3/ntian30/research/carbon/CxH_vib/H2O_calc/ads_slab/CH2NHH2O_a/out_0034/pw.inp
Warning: card &CELL ignored
Warning: card   CELL_DYNAMICS='IPI', ignored
Warning: card / ignored

     Current dimensions of program PWSCF are:
     Max number of different atomic species (ntypx) = 10
     Max number of k-points (npk) =  40000
     Max angular momentum in pseudopotentials (lmaxx) =  3
     Presently no symmetry can be used with electric field

     Message from routine cell_base_init:
     DEPRECATED: use true lattice parameter, not A to a.u. conversion factor

     IMPORTANT: XC functional enforced from input :
     Exchange-correlation= BEEF-VDW
                           (   1   4  43  14   2   0   0)
     Any further DFT definition will be discarded
     Please, verify this is what you really want

  @ DRIVER MODE: Connecting to
 qe_1139763_2852608.sched-torque.pace.gatech.edu52ij7rx2_scratch
  using UNIX socket
  @ DRIVER MODE: Message from server: STATUS
  @ DRIVER MODE: Message from server: INIT
  @ DRIVER MODE: Receiving replica           0          -1
  @ DRIVER MODE: Receiving encoded integer          25
  @ DRIVER MODE:  SCF:  T  FORCE:  T  STRESS:  F  VC:  F  ENSEMBLE:  F
  @ DRIVER MODE:  SCF:  T  FORCE:  T  STRESS:  F  VC:  F  ENSEMBLE:  F

     Using Slab Decomposition

     bravais-lattice index     =            0
     lattice parameter (alat)  =       1.8897  a.u.
     unit-cell volume          =    6658.9804 (a.u.)^3
     number of atoms/cell      =           55
     number of atomic types    =            5
     number of electrons       =       398.00
     number of Kohn-Sham states=          209
     kinetic-energy cutoff     =      29.3995  Ry
     charge density cutoff     =     293.9946  Ry
     scf convergence threshold =      7.3E-08
     mixing beta               =       0.0500
     number of iterations used =            8  plain     mixing
     Exchange-correlation= BEEF-VDW
                           (   1   4  43  14   2   0   0)

     celldm(1)=   1.889726  celldm(2)=   0.000000  celldm(3)=   0.000000
     celldm(4)=   0.000000  celldm(5)=   0.000000  celldm(6)=   0.000000

     crystal axes: (cart. coord. in units of alat)
               a(1) = (   6.579727   0.000000   0.000000 )
               a(2) = (  -0.000775   5.961596   0.000000 )
               a(3) = (   0.000000   0.000000  25.155947 )

     reciprocal axes: (cart. coord. in units 2 pi/alat)
               b(1) = (  0.151982  0.000020  0.000000 )
               b(2) = (  0.000000  0.167740  0.000000 )
               b(3) = (  0.000000  0.000000  0.039752 )

     PseudoPot. # 1 for Ti read from file:
     /storage/coda1/p-amedford6/0/shared/rich_project_chbe-medford/medford-share/data/pseudos_module/espresso/nninc/pbe/van/Ti.UPF
     MD5 check sum: 8e4df49b7f0d34bbd5052bf3f5ea0213
     Pseudo is Ultrasoft, Zval = 12.0
     Generated by new atomic code, or converted to UPF format
     Using radial grid of  851 points,  6 beta functions with:
                l(1) =   0
                l(2) =   0
                l(3) =   1
                l(4) =   1
                l(5) =   2
                l(6) =   2
     Q(r) pseudized with  8 coefficients,  rinner =    1.000   1.000   1.000
                                                       1.000   1.000

     PseudoPot. # 2 for O  read from file:
     /storage/coda1/p-amedford6/0/shared/rich_project_chbe-medford/medford-share/data/pseudos_module/espresso/nninc/pbe/van/O.UPF
     MD5 check sum: 78c19812648e8988a0fe644b0f25305e
     Pseudo is Ultrasoft, Zval =  6.0
     Generated by new atomic code, or converted to UPF format
     Using radial grid of  737 points,  4 beta functions with:
                l(1) =   0
                l(2) =   0
                l(3) =   1
                l(4) =   1
     Q(r) pseudized with  8 coefficients,  rinner =    0.800   0.800   0.800

     PseudoPot. # 3 for N  read from file:
     /storage/coda1/p-amedford6/0/shared/rich_project_chbe-medford/medford-share/data/pseudos_module/espresso/nninc/pbe/van/N.UPF
     MD5 check sum: 90d10febe142ad51ac9d5be1deb811c4
     Pseudo is Ultrasoft, Zval =  5.0
     Generated by new atomic code, or converted to UPF format
     Using radial grid of  729 points,  4 beta functions with:
                l(1) =   0
                l(2) =   0
                l(3) =   1
                l(4) =   1
     Q(r) pseudized with  8 coefficients,  rinner =    0.800   0.800   0.800

     PseudoPot. # 4 for C  read from file:
     /storage/coda1/p-amedford6/0/shared/rich_project_chbe-medford/medford-share/data/pseudos_module/espresso/nninc/pbe/van/C.UPF
     MD5 check sum: 1a69bf6b8db32088f5b2163dbdb77a27
     Pseudo is Ultrasoft, Zval =  4.0
     Generated by new atomic code, or converted to UPF format
     Using radial grid of  721 points,  4 beta functions with:
                l(1) =   0
                l(2) =   0
                l(3) =   1
                l(4) =   1
     Q(r) pseudized with  8 coefficients,  rinner =    0.800   0.800   0.800

     PseudoPot. # 5 for H  read from file:
     /storage/coda1/p-amedford6/0/shared/rich_project_chbe-medford/medford-share/data/pseudos_module/espresso/nninc/pbe/van/H.UPF
     MD5 check sum: b5ee9d7bfd3a09ee7748110bda690ff7
     Pseudo is Ultrasoft, Zval =  1.0
     Generated by new atomic code, or converted to UPF format
     Using radial grid of  615 points,  1 beta functions with:
                l(1) =   0
     Q(r) pseudized with  8 coefficients,  rinner =    0.800

     atomic species   valence    mass     pseudopotential
        Ti1           12.00    47.86700     Ti( 1.00)
        O1             6.00    15.99900     O ( 1.00)
        N1             5.00    14.00700     N ( 1.00)
        C1             4.00    12.01100     C ( 1.00)
        H1             1.00     1.00800     H ( 1.00)

     No symmetry found

   Cartesian axes

     site n.     atom                  positions (alat units)
         1           Ti1 tau(   1) = (   0.0004258   2.9801865   6.0000000  )
         2           Ti1 tau(   2) = (   3.2906075   1.4906267   6.0002472  )
         3           O1  tau(   3) = (   0.0006271   0.0005054   7.9858123  )
         4           O1  tau(   4) = (   3.2906025   0.0005020   7.3038282  )
         5           O1  tau(   5) = (   4.5942328   1.4918067   9.2879030  )
         6           O1  tau(   6) = (   1.9868534   1.4903216   9.2879459  )
         7           Ti1 tau(   7) = (   3.2907910   2.8959150   9.1758416  )
         8           Ti1 tau(   8) = (   0.0015273   1.4827037   9.2680791  )
         9           O1  tau(   9) = (   3.2898722   0.0008919  11.3582996  )
        10           O1  tau(  10) = (   0.0116148   5.9584955  10.6183126  )
        11           O1  tau(  11) = (   1.2941175   1.4997011  12.6415926  )
        12           O1  tau(  12) = (   5.2900041   1.4988670  12.6311679  )
        13           Ti1 tau(  13) = (   0.0286627   2.9677426  12.5549903  )
        14           Ti1 tau(  14) = (   3.3305619   1.4761135  12.5169476  )
        15           O1  tau(  15) = (   0.0011522   0.0488603  14.6479508  )
        16           O1  tau(  16) = (   3.3026717   0.0283160  13.9913086  )
        17           O1  tau(  17) = (   4.5493611   1.5432082  16.1208237  )
        18           O1  tau(  18) = (   2.0202358   1.5417912  16.1150647  )
        19           Ti1 tau(  19) = (   3.2887705   3.0075965  15.7001020  )
        20           Ti1 tau(  20) = (   0.0091052   1.4341126  16.0176487  )
        21           O1  tau(  21) = (   3.2904802   0.0005063   4.7018136  )
        22           O1  tau(  22) = (   6.5755782   5.8726442  17.1894482  )
        23           O1  tau(  23) = (   1.3043587   1.4918075   6.0039043  )
        24           O1  tau(  24) = (   5.2767064   1.4903225   6.0039473  )
        25           Ti1 tau(  25) = (   0.0000382   5.9609847   6.0000000  )
        26           Ti1 tau(  26) = (   3.2902200   4.4714249   6.0002472  )
        27           O1  tau(  27) = (   0.0002396   2.9813036   7.9858123  )
        28           O1  tau(  28) = (   3.2902150   2.9813002   7.3038282  )
        29           O1  tau(  29) = (   4.5938453   4.4726049   9.2879030  )
        30           O1  tau(  30) = (   1.9864658   4.4711199   9.2879459  )
        31           Ti1 tau(  31) = (   3.2891106   5.8743827   9.1763621  )
        32           Ti1 tau(  32) = (   0.0006254   4.4649316   9.2693709  )
        33           O1  tau(  33) = (   3.2934734   2.9861727  11.3537610  )
        34           O1  tau(  34) = (   0.0092240   2.9805883  10.6323155  )
        35           O1  tau(  35) = (   1.2909626   4.4766429  12.6619247  )
        36           O1  tau(  36) = (   5.2900193   4.4803912  12.6490267  )
        37           Ti1 tau(  37) = (   0.0281377   5.9553508  12.5047683  )
        38           Ti1 tau(  38) = (   3.3302429   4.4653876  12.5079491  )
        39           O1  tau(  39) = (   6.5693844   2.9599090  14.8264494  )
        40           O1  tau(  40) = (   3.2969629   2.9925989  13.9157470  )
        41           O1  tau(  41) = (   4.5484520   4.4472025  16.1223275  )
        42           O1  tau(  42) = (   2.0280084   4.4594140  16.0867804  )
        43           Ti1 tau(  43) = (   3.2969344   0.0408593  15.8189202  )
        44           Ti1 tau(  44) = (   0.0203989   4.6198729  15.8219907  )
        45           O1  tau(  45) = (   3.2900926   2.9813045   4.7018136  )
        46           O1  tau(  46) = (   1.3039711   4.4726057   6.0039043  )
        47           O1  tau(  47) = (   5.2763189   4.4711207   6.0039473  )
        48           N1  tau(  48) = (   6.4956655   2.7544209  17.8339637  )
        49           C1  tau(  49) = (   0.7364952   2.7663736  18.8366375  )
        50           H1  tau(  50) = (   0.4484493   3.1383336  19.8159577  )
        51           H1  tau(  51) = (   1.7396475   2.3816028  18.7013769  )
        52           H1  tau(  52) = (   5.5670006   3.0916272  18.0761613  )
        53           O1  tau(  53) = (   3.3072362   0.1102980  18.2711691  )
        54           H1  tau(  54) = (   4.1501014   5.6086691  18.4387546  )
        55           H1  tau(  55) = (   2.5909652   5.4478326  18.5068232  )

     number of k points=    10  Fermi-Dirac smearing, width (Ry)=  0.0073
                       cart. coord. in units 2pi/alat
        k(    1) = (   0.0000000   0.0000000   0.0000000), wk =   0.1250000
        k(    2) = (   0.0000000   0.0419351   0.0000000), wk =   0.2500000
        k(    3) = (   0.0000000  -0.0838702   0.0000000), wk =   0.1250000
        k(    4) = (   0.0379955   0.0000049   0.0000000), wk =   0.2500000
        k(    5) = (   0.0379955   0.0419400   0.0000000), wk =   0.2500000
        k(    6) = (   0.0379955  -0.0838652   0.0000000), wk =   0.2500000
        k(    7) = (   0.0379955  -0.0419301   0.0000000), wk =   0.2500000
        k(    8) = (  -0.0759910  -0.0000099   0.0000000), wk =   0.1250000
        k(    9) = (  -0.0759910   0.0419252   0.0000000), wk =   0.2500000
        k(   10) = (  -0.0759910  -0.0838800   0.0000000), wk =   0.1250000

     Initial potential from superposition of free atoms

     starting charge  381.99915, renormalised to  398.00000

     negative rho (up, down):  1.643E-02 0.000E+00

     %%%%%%%%%%%%%%%%%%%%%%%%%%%%%%%%%%%%%%%%%%%%%%%%%%%%%%%%%%%%%%%%%%%%%%%%
     %                                                                      %
     % You are using vdW-DF, which was implemented by the Thonhauser group. %
     % Please cite the following two papers that made this development      %
     % possible and the two reviews that describe the various versions:     %
     %                                                                      %
     %   T. Thonhauser et al., PRL 115, 136402 (2015).                      %
     %   T. Thonhauser et al., PRB 76, 125112 (2007).                       %
     %   K. Berland et al., Rep. Prog. Phys. 78, 066501 (2015).             %
     %   D.C. Langreth et al., J. Phys.: Condens. Matter 21, 084203 (2009). %
     %                                                                      %
     %                                                                      %
     % If you are calculating the stress with vdW-DF, please also cite:     %
     %                                                                      %
     %   R. Sabatini et al., J. Phys.: Condens. Matter 24, 424209 (2012).   %
     %                                                                      %
     %%%%%%%%%%%%%%%%%%%%%%%%%%%%%%%%%%%%%%%%%%%%%%%%%%%%%%%%%%%%%%%%%%%%%%%%

     Adding external electric field

     Computed dipole along edir(3) :
        Dipole              -10.4007 Ry au,        -26.4360 Debye
        Dipole field         -0.0196 Ry au,

        Potential amp.        1.8194 Ry
        Total length         46.3494 bohr

     Starting wfcs are  301 atomic wfcs
  @ DRIVER MODE: Message from server: STATUS
  @ DRIVER MODE: Message from server: POSDATA
  @ DRIVER MODE: Reading and sharing cell
  @ DRIVER MODE: Reading and sharing positions
  @ DRIVER MODE: Received positions

     Self-consistent Calculation

     iteration #  1     ecut=    29.40 Ry     beta= 0.05
     Davidson diagonalization with overlap
     c_bands:  3 eigenvalues not converged
     c_bands:  3 eigenvalues not converged
     c_bands:  1 eigenvalues not converged
     c_bands:  4 eigenvalues not converged
     c_bands:  4 eigenvalues not converged
     c_bands:  4 eigenvalues not converged
     c_bands:  2 eigenvalues not converged
     c_bands:  3 eigenvalues not converged
     c_bands:  2 eigenvalues not converged
     ethr =  1.00E-05,  avg # of iterations = 19.9

[...]

     total energy              =   -2485.34916318 Ry
     estimated scf accuracy    <    5245.67314127 Ry

     iteration #  2     ecut=    29.40 Ry     beta= 0.05
     Davidson diagonalization with overlap
     ethr =  1.00E-02,  avg # of iterations = 23.9

[...]

     iteration # 40     ecut=    29.40 Ry     beta= 0.05
     Davidson diagonalization with overlap
     c_bands:  1 eigenvalues not converged
     ethr =  6.06E-07,  avg # of iterations = 13.4

[...]

     total energy              =   -2953.94943897 Ry
     estimated scf accuracy    <       0.00000011 Ry

     iteration # 62     ecut=    29.40 Ry     beta= 0.05
     Davidson diagonalization with overlap
     ethr =  2.67E-11,  avg # of iterations = 10.0

     negative rho (up, down):  1.568E-02 0.000E+00

     Adding external electric field

     Computed dipole along edir(3) :
        Dipole                1.2801 Ry au,          3.2538 Debye
        Dipole field          0.0024 Ry au,

        Potential amp.       -0.2239 Ry
        Total length         46.3494 bohr

     End of self-consistent calculation

          k = 0.0000 0.0000 0.0000 ( 18029 PWs)   bands (ev):

   -55.3927 -55.3730 -55.3566 -55.3397 -55.3389 -55.2728 -55.2283 -55.2080
   -55.1983 -55.1894 -55.1724 -55.1658 -55.1227 -54.9946 -54.3828 -54.3488
   -31.9530 -31.8623 -31.7606 -31.7463 -31.7011 -31.6980 -31.6965 -31.6630
   -31.6563 -31.6231 -31.6176 -31.6065 -31.5868 -31.5697 -31.5689 -31.5348
   -31.5321 -31.5258 -31.5113 -31.5084 -31.4839 -31.4562 -31.4532 -31.4360
   -31.4301 -31.4070 -31.4060 -31.4027 -31.4009 -31.3945 -31.3748 -31.3684
   -31.3622 -31.3578 -31.3484 -31.3314 -31.3293 -31.3227 -31.3055 -31.2944
   -31.2213 -31.1083 -30.7912 -30.6994 -30.6772 -30.6078 -30.5211 -30.4101
   -19.1167 -16.2523 -16.1583 -15.9150 -15.7341 -15.6454 -15.5835 -15.3942
   -15.3527 -15.2620 -15.1791 -15.0875 -15.0332 -14.9895 -14.9798 -14.9585
   -14.9328 -14.9226 -14.8850 -14.8702 -14.8687 -14.8219 -14.8195 -14.7807
   -14.7720 -14.7279 -14.7063 -14.5972 -14.5414 -14.4871 -14.0592 -12.8851
   -12.7680  -9.0950  -6.8848  -5.9823  -4.4636  -3.5521  -3.4137  -3.3896
    -3.3029  -3.2964  -3.2349  -3.1183  -2.9290  -2.7747  -2.6884  -2.6451
    -2.5934  -2.5695  -2.5114  -2.4568  -2.3620  -2.2902  -2.2593  -2.2275
    -2.2100  -2.1910  -2.1674  -2.1445  -2.1018  -2.0790  -2.0418  -1.9403
    -1.8557  -1.8008  -1.7859  -1.7155  -1.6926  -1.6868  -1.6784  -1.6687
    -1.6645  -1.6561  -1.6030  -1.5789  -1.5382  -1.4106  -1.3399  -1.2350
    -1.1225  -1.0716  -1.0313  -1.0121  -0.9256  -0.9199  -0.8650  -0.7886
    -0.7553  -0.7148  -0.7018  -0.5747  -0.4928  -0.4795  -0.4307  -0.3571
    -0.2991  -0.2586  -0.2015  -0.1777  -0.1553  -0.1379   0.0014   0.0344
     0.0780   0.1059   0.1346   0.2095   0.2464   0.3084   0.3563   0.3634
     0.4113   0.4979   0.5116   0.5613   0.5655   0.6103   0.6292   0.7252
     0.7598   0.7684   0.8343   0.8683   1.0109   1.2271   1.2348   1.2818
     1.5549   1.6165   1.6400   1.8269   2.2139   2.2612   3.7008   3.7918
     3.8307   3.8493   3.8621   3.9366   4.0758   4.1914   4.1957   4.2255
     4.2389

[...]

          k = 0.0380-0.0419 0.0000 ( 17876 PWs)   bands (ev):

[...]

          k =-0.0760-0.0000 0.0000 ( 17886 PWs)   bands (ev):

[...]

          k =-0.0760-0.0839 0.0000 ( 17948 PWs)   bands (ev):

   -55.3765 -55.3726 -55.3561 -55.3557 -55.3377 -55.2647 -55.2363 -55.1920
   -55.1912 -55.1868 -55.1830 -55.1823 -55.1203 -54.9969 -54.3658 -54.3657
   -31.7628 -31.7518 -31.6776 -31.6772 -31.6601 -31.6495 -31.6486 -31.6482
   -31.6207 -31.6092 -31.5908 -31.5867 -31.5792 -31.5606 -31.5408 -31.5265
   -31.5251 -31.5221 -31.5177 -31.5129 -31.5072 -31.4947 -31.4756 -31.4751
   -31.4688 -31.4673 -31.4655 -31.4353 -31.4243 -31.4167 -31.4064 -31.4025
   -31.4017 -31.4013 -31.3898 -31.3840 -31.3623 -31.3607 -31.3398 -31.2905
   -31.2248 -31.1941 -30.6899 -30.6899 -30.6039 -30.6038 -30.5645 -30.5644
   -19.1158 -16.1946 -15.6517 -15.5923 -15.5222 -15.3674 -15.3613 -15.3363
   -15.2743 -15.1759 -15.1627 -15.1303 -15.1227 -15.0881 -15.0763 -15.0564
   -15.0356 -14.9625 -14.9543 -14.9496 -14.9269 -14.8956 -14.8808 -14.8720
   -14.8500 -14.8454 -14.7898 -14.7428 -14.7398 -14.5485 -14.3544 -12.8697
   -12.8695  -9.1003  -6.8829  -5.9809  -4.4459  -3.3507  -2.9271  -2.7966
    -2.7469  -2.5952  -2.5680  -2.5206  -2.4632  -2.4029  -2.3757  -2.3569
    -2.3087  -2.3028  -2.2555  -2.2415  -2.2211  -2.2199  -2.2107  -2.1645
    -2.1479  -2.1374  -2.1207  -2.1062  -2.0952  -2.0751  -2.0483  -2.0379
    -2.0044  -1.9739  -1.9599  -1.9373  -1.8836  -1.7688  -1.7393  -1.6951
    -1.5837  -1.5759  -1.5698  -1.5282  -1.4818  -1.4743  -1.4481  -1.4186
    -1.3500  -1.3218  -1.1307  -1.1184  -1.1049  -1.0391  -1.0119  -0.9153
    -0.8967  -0.8289  -0.8120  -0.7970  -0.7110  -0.6792  -0.5738  -0.5656
    -0.5495  -0.5146  -0.4068  -0.3604  -0.3524  -0.3473  -0.3263  -0.2438
    -0.2281  -0.2102  -0.1761  -0.1481  -0.1148  -0.1014  -0.0177   0.1522
     0.1621   0.2497   0.3495   0.4442   0.5649   0.6353   0.6442   0.6990
     0.7423   0.8240   0.8672   0.9051   0.9244   1.0356   1.0681   1.0838
     1.0903   1.1457   1.9991   2.0005   2.0811   2.0813   3.7818   3.9309
     4.0001   4.0176   4.0574   4.1832   4.2223   4.2742   4.2759   4.2809
     4.3714

     the Fermi energy is     3.7466 ev

!    total energy              =   -2953.94948499 Ry
     estimated scf accuracy    <       0.00000007 Ry
     smearing contrib. (-TS)   =      -0.03631853 Ry
     internal energy E=F+TS    =   -2953.91316646 Ry

     The total energy is F=E-TS. E is the sum of the following terms:
     one-electron contribution =  -24165.61857505 Ry
     hartree contribution      =   12176.19530651 Ry
     xc contribution           =    -488.88377456 Ry
     ewald contribution        =    9524.39078413 Ry
     electric field correction =       0.00309250 Ry

     convergence has been achieved in  62 iterations

     Forces acting on atoms (cartesian axes, Ry/au):

     atom    1 type  1   force =     0.00005504   -0.00021323    0.09432602
     atom    2 type  1   force =    -0.00029241   -0.00032514   -0.17714913
     atom    3 type  2   force =     0.00001693   -0.00013701   -0.02178356
     atom    4 type  2   force =    -0.00002215   -0.00175357    0.05662152
     atom    5 type  2   force =    -0.01065710   -0.00110964    0.00625554
     atom    6 type  2   force =     0.01215859   -0.00036366    0.00530061
     atom    7 type  1   force =    -0.00069519    0.00165732   -0.01077128
     atom    8 type  1   force =     0.00018675    0.00660951    0.00670147
     atom    9 type  2   force =     0.00025171   -0.00039676   -0.00053667
     atom   10 type  2   force =    -0.00109554    0.00064273   -0.01010735
     atom   11 type  2   force =    -0.00026389   -0.00016599   -0.00020306
     atom   12 type  2   force =     0.00038111   -0.00023595    0.00003240
     atom   13 type  1   force =     0.00018315   -0.00051055    0.00120847
     atom   14 type  1   force =    -0.00006738    0.00038719    0.00043401
     atom   15 type  2   force =     0.00008579    0.00015981    0.00119088
     atom   16 type  2   force =    -0.00018067   -0.00066117    0.00022135
     atom   17 type  2   force =     0.00001907    0.00000469   -0.00039194
     atom   18 type  2   force =    -0.00110332    0.00007349    0.00035057
     atom   19 type  1   force =     0.00110298   -0.00057378   -0.00055412
     atom   20 type  1   force =    -0.00138684    0.00066790   -0.00054319
     atom   21 type  2   force =     0.00000472   -0.00004861    0.10369101
     atom   22 type  2   force =    -0.00002072    0.00049971    0.00056548
     atom   23 type  2   force =    -0.07087621   -0.00015050   -0.02716289
     atom   24 type  2   force =     0.07072112    0.00029092   -0.02723093
     atom   25 type  1   force =     0.00000797   -0.00013355    0.09408590
     atom   26 type  1   force =    -0.00022783   -0.00037140   -0.17731284
     atom   27 type  2   force =     0.00005450   -0.00031581   -0.02070110
     atom   28 type  2   force =     0.00005121   -0.00136179    0.05586583
     atom   29 type  2   force =    -0.01088412    0.00028867    0.00603734
     atom   30 type  2   force =     0.01228812    0.00054964    0.00507545
     atom   31 type  1   force =    -0.00057095    0.00495662   -0.01403286
     atom   32 type  1   force =     0.00031149   -0.00744958    0.00636368
     atom   33 type  2   force =     0.00025117    0.00013009   -0.00020063
     atom   34 type  2   force =    -0.00066591    0.00182979   -0.00593601
     atom   35 type  2   force =    -0.00002242   -0.00024403    0.00004701
     atom   36 type  2   force =     0.00025352   -0.00031994    0.00020812
     atom   37 type  1   force =     0.00021224    0.00092376    0.00052169
     atom   38 type  1   force =    -0.00008601    0.00005385    0.00068920
     atom   39 type  2   force =     0.00034220    0.00030656    0.00005437
     atom   40 type  2   force =    -0.00012147   -0.00036650    0.00059099
     atom   41 type  2   force =    -0.00066268   -0.00017272   -0.00018950
     atom   42 type  2   force =    -0.00018710    0.00018322    0.00051851
     atom   43 type  1   force =     0.00077944   -0.00119878   -0.00072204
     atom   44 type  1   force =    -0.00104753    0.00041928   -0.00153334
     atom   45 type  2   force =     0.00000247   -0.00009472    0.10366895
     atom   46 type  2   force =    -0.07091094   -0.00009182   -0.02716770
     atom   47 type  2   force =     0.07075615    0.00033511   -0.02722046
     atom   48 type  3   force =     0.00128220   -0.00037751    0.00024906
     atom   49 type  4   force =     0.00011412   -0.00034880   -0.00002423
     atom   50 type  5   force =    -0.00007161   -0.00024294   -0.00020341
     atom   51 type  5   force =     0.00034570   -0.00031764   -0.00010634
     atom   52 type  5   force =    -0.00127461    0.00100734    0.00050459
     atom   53 type  2   force =    -0.00000372   -0.01515330    0.00574117
     atom   54 type  5   force =    -0.00623011    0.00573781   -0.00191382
     atom   55 type  5   force =     0.00740895    0.00749139   -0.00342279

     Total force =     0.366254     Total SCF correction =     0.000724
  @ DRIVER MODE: Message from server: STATUS
  @ DRIVER MODE: Message from server: GETFORCE
  @ DRIVER MODE: Returning v,forces,stress,ensemble

     Writing output data file ./calc.save/
  @ DRIVER MODE: Message from server: EXIT
  @ DRIVE MODE: Exiting

     General routines

     Parallel routines

   This run was terminated on:   3:14:16  16Sep2021

   JOB DONE.