     Program PWSCF v.6.7GPU starts on 23Sep2021 at 21:22: 6

     R & G space division:  proc/nbgrp/npool/nimage =       8
     Reading input from /storage/home/hcoda1/3/ntian30/research/carbon/CxH_vib/H2O_calc/ads_slab/CH2N2HO_b/out_0027/pw.inp
Warning: card &CELL ignored
Warning: card   CELL_DYNAMICS='IPI', ignored
Warning: card / ignored

     Current dimensions of program PWSCF are:
     Max number of different atomic species (ntypx) = 10
     Max number of k-points (npk) =  40000
     Max angular momentum in pseudopotentials (lmaxx) =  3
     Presently no symmetry can be used with electric field

     Message from routine cell_base_init:
     DEPRECATED: use true lattice parameter, not A to a.u. conversion factor

     IMPORTANT: XC functional enforced from input :
     Exchange-correlation= BEEF-VDW
                           (   1   4  43  14   2   0   0)
     Any further DFT definition will be discarded
     Please, verify this is what you really want

  @ DRIVER MODE: Connecting to
 qe_1139763_2947312.sched-torque.pace.gatech.edu8ws73fyw_scratch
  using UNIX socket
  @ DRIVER MODE: Message from server: STATUS
  @ DRIVER MODE: Message from server: INIT
  @ DRIVER MODE: Receiving replica           0          -1
  @ DRIVER MODE: Receiving encoded integer          25
  @ DRIVER MODE:  SCF:  T  FORCE:  T  STRESS:  F  VC:  F  ENSEMBLE:  F
  @ DRIVER MODE:  SCF:  T  FORCE:  T  STRESS:  F  VC:  F  ENSEMBLE:  F

     Using Slab Decomposition

     bravais-lattice index     =            0
     lattice parameter (alat)  =       1.8897  a.u.
     unit-cell volume          =    6658.9804 (a.u.)^3
     number of atoms/cell      =           54
     number of atomic types    =            5
     number of electrons       =       401.00
     number of Kohn-Sham states=          210
     kinetic-energy cutoff     =      29.3995  Ry
     charge density cutoff     =     293.9946  Ry
     scf convergence threshold =      7.3E-08
     mixing beta               =       0.0500
     number of iterations used =            8  plain     mixing
     Exchange-correlation= BEEF-VDW
                           (   1   4  43  14   2   0   0)

     celldm(1)=   1.889726  celldm(2)=   0.000000  celldm(3)=   0.000000
     celldm(4)=   0.000000  celldm(5)=   0.000000  celldm(6)=   0.000000

     crystal axes: (cart. coord. in units of alat)
               a(1) = (   6.579727   0.000000   0.000000 )
               a(2) = (  -0.000775   5.961596   0.000000 )
               a(3) = (   0.000000   0.000000  25.155947 )

     reciprocal axes: (cart. coord. in units 2 pi/alat)
               b(1) = (  0.151982  0.000020  0.000000 )
               b(2) = (  0.000000  0.167740  0.000000 )
               b(3) = (  0.000000  0.000000  0.039752 )

     PseudoPot. # 1 for Ti read from file:
     /storage/coda1/p-amedford6/0/shared/rich_project_chbe-medford/medford-share/data/pseudos_module/espresso/nninc/pbe/van/Ti.UPF
     MD5 check sum: 8e4df49b7f0d34bbd5052bf3f5ea0213
     Pseudo is Ultrasoft, Zval = 12.0
     Generated by new atomic code, or converted to UPF format
     Using radial grid of  851 points,  6 beta functions with:
                l(1) =   0
                l(2) =   0
                l(3) =   1
                l(4) =   1
                l(5) =   2
                l(6) =   2
     Q(r) pseudized with  8 coefficients,  rinner =    1.000   1.000   1.000
                                                       1.000   1.000

     PseudoPot. # 2 for O  read from file:
     /storage/coda1/p-amedford6/0/shared/rich_project_chbe-medford/medford-share/data/pseudos_module/espresso/nninc/pbe/van/O.UPF
     MD5 check sum: 78c19812648e8988a0fe644b0f25305e
     Pseudo is Ultrasoft, Zval =  6.0
     Generated by new atomic code, or converted to UPF format
     Using radial grid of  737 points,  4 beta functions with:
                l(1) =   0
                l(2) =   0
                l(3) =   1
                l(4) =   1
     Q(r) pseudized with  8 coefficients,  rinner =    0.800   0.800   0.800

     PseudoPot. # 3 for N  read from file:
     /storage/coda1/p-amedford6/0/shared/rich_project_chbe-medford/medford-share/data/pseudos_module/espresso/nninc/pbe/van/N.UPF
     MD5 check sum: 90d10febe142ad51ac9d5be1deb811c4
     Pseudo is Ultrasoft, Zval =  5.0
     Generated by new atomic code, or converted to UPF format
     Using radial grid of  729 points,  4 beta functions with:
                l(1) =   0
                l(2) =   0
                l(3) =   1
                l(4) =   1
     Q(r) pseudized with  8 coefficients,  rinner =    0.800   0.800   0.800

     PseudoPot. # 4 for C  read from file:
     /storage/coda1/p-amedford6/0/shared/rich_project_chbe-medford/medford-share/data/pseudos_module/espresso/nninc/pbe/van/C.UPF
     MD5 check sum: 1a69bf6b8db32088f5b2163dbdb77a27
     Pseudo is Ultrasoft, Zval =  4.0
     Generated by new atomic code, or converted to UPF format
     Using radial grid of  721 points,  4 beta functions with:
                l(1) =   0
                l(2) =   0
                l(3) =   1
                l(4) =   1
     Q(r) pseudized with  8 coefficients,  rinner =    0.800   0.800   0.800

     PseudoPot. # 5 for H  read from file:
     /storage/coda1/p-amedford6/0/shared/rich_project_chbe-medford/medford-share/data/pseudos_module/espresso/nninc/pbe/van/H.UPF
     MD5 check sum: b5ee9d7bfd3a09ee7748110bda690ff7
     Pseudo is Ultrasoft, Zval =  1.0
     Generated by new atomic code, or converted to UPF format
     Using radial grid of  615 points,  1 beta functions with:
                l(1) =   0
     Q(r) pseudized with  8 coefficients,  rinner =    0.800

     atomic species   valence    mass     pseudopotential
        Ti1           12.00    47.86700     Ti( 1.00)
        O1             6.00    15.99900     O ( 1.00)
        N1             5.00    14.00700     N ( 1.00)
        C1             4.00    12.01100     C ( 1.00)
        H1             1.00     1.00800     H ( 1.00)

     No symmetry found

   Cartesian axes

     site n.     atom                  positions (alat units)
         1           Ti1 tau(   1) = (   0.0004258   2.9801865   6.0000000  )
         2           Ti1 tau(   2) = (   3.2906075   1.4906267   6.0002472  )
         3           O1  tau(   3) = (   0.0006271   0.0005054   7.9858123  )
         4           O1  tau(   4) = (   3.2906025   0.0005020   7.3038282  )
         5           O1  tau(   5) = (   4.5942328   1.4918067   9.2879030  )
         6           O1  tau(   6) = (   1.9868534   1.4903216   9.2879459  )
         7           Ti1 tau(   7) = (   3.2907910   2.8959150   9.1758416  )
         8           Ti1 tau(   8) = (   0.0015273   1.4827037   9.2680791  )
         9           O1  tau(   9) = (   3.2935892   5.9488104  11.3374186  )
        10           O1  tau(  10) = (   0.0116148   5.9584955  10.6183126  )
        11           O1  tau(  11) = (   1.2908913   1.5070562  12.6495475  )
        12           O1  tau(  12) = (   5.3136790   1.4931969  12.6373367  )
        13           Ti1 tau(  13) = (   0.0127878   2.8868139  12.6015941  )
        14           Ti1 tau(  14) = (   3.2987545   1.3040885  12.7026746  )
        15           O1  tau(  15) = (   0.0175227   0.0240941  14.6538407  )
        16           O1  tau(  16) = (   3.3064676   0.0741613  13.9771881  )
        17           O1  tau(  17) = (   4.5827780   1.5498142  16.1449436  )
        18           O1  tau(  18) = (   2.0366442   1.5898792  16.0867183  )
        19           Ti1 tau(  19) = (   3.3102262   3.0030951  15.6784192  )
        20           Ti1 tau(  20) = (   0.0574396   1.3488835  16.0050117  )
        21           O1  tau(  21) = (   3.2904802   0.0005063   4.7018136  )
        22           O1  tau(  22) = (   0.0721820   0.0083530  17.1768217  )
        23           O1  tau(  23) = (   1.3043587   1.4918075   6.0039043  )
        24           O1  tau(  24) = (   5.2767064   1.4903225   6.0039473  )
        25           Ti1 tau(  25) = (   0.0000382   5.9609847   6.0000000  )
        26           Ti1 tau(  26) = (   3.2902200   4.4714249   6.0002472  )
        27           O1  tau(  27) = (   0.0002396   2.9813036   7.9858123  )
        28           O1  tau(  28) = (   3.2902150   2.9813002   7.3038282  )
        29           O1  tau(  29) = (   4.5938453   4.4726049   9.2879030  )
        30           O1  tau(  30) = (   1.9864658   4.4711199   9.2879459  )
        31           Ti1 tau(  31) = (   3.2891106   5.8743827   9.1763621  )
        32           Ti1 tau(  32) = (   0.0006254   4.4649316   9.2693709  )
        33           O1  tau(  33) = (   3.2934580   3.0155445  11.2926531  )
        34           O1  tau(  34) = (   0.0092240   2.9805883  10.6323155  )
        35           O1  tau(  35) = (   1.2931599   4.4792858  12.6478595  )
        36           O1  tau(  36) = (   5.3056662   4.4876152  12.6363886  )
        37           Ti1 tau(  37) = (   6.5746511   5.8741161  12.5153022  )
        38           Ti1 tau(  38) = (   3.2863760   4.3878630  12.4273393  )
        39           O1  tau(  39) = (   6.5684735   3.0099032  14.7382625  )
        40           O1  tau(  40) = (   3.3273571   2.9915841  13.8999870  )
        41           O1  tau(  41) = (   4.5754576   4.4629145  16.1269992  )
        42           O1  tau(  42) = (   2.0375947   4.4358961  16.0236521  )
        43           Ti1 tau(  43) = (   3.3857405   0.0156461  16.2930207  )
        44           Ti1 tau(  44) = (   0.0840152   4.5257857  15.8004899  )
        45           O1  tau(  45) = (   3.2900926   2.9813045   4.7018136  )
        46           O1  tau(  46) = (   1.3039711   4.4726057   6.0039043  )
        47           O1  tau(  47) = (   5.2763189   4.4711207   6.0039473  )
        48           N1  tau(  48) = (   6.4876325   3.2951735  18.6921505  )
        49           N1  tau(  49) = (   0.0139976   3.0420413  17.5569154  )
        50           C1  tau(  50) = (   6.3059459   3.6199554  19.9036174  )
        51           H1  tau(  51) = (   5.2963100   3.8231348  20.2372398  )
        52           H1  tau(  52) = (   0.5840524   3.7051184  20.5547593  )
        53           O1  tau(  53) = (   3.1058724   5.9363815  18.1230642  )
        54           H1  tau(  54) = (   2.1709728   0.0855973  18.3648350  )

     number of k points=    10  Fermi-Dirac smearing, width (Ry)=  0.0073
                       cart. coord. in units 2pi/alat
        k(    1) = (   0.0000000   0.0000000   0.0000000), wk =   0.1250000
        k(    2) = (   0.0000000   0.0419351   0.0000000), wk =   0.2500000
        k(    3) = (   0.0000000  -0.0838702   0.0000000), wk =   0.1250000
        k(    4) = (   0.0379955   0.0000049   0.0000000), wk =   0.2500000
        k(    5) = (   0.0379955   0.0419400   0.0000000), wk =   0.2500000
        k(    6) = (   0.0379955  -0.0838652   0.0000000), wk =   0.2500000
        k(    7) = (   0.0379955  -0.0419301   0.0000000), wk =   0.2500000
        k(    8) = (  -0.0759910  -0.0000099   0.0000000), wk =   0.1250000
        k(    9) = (  -0.0759910   0.0419252   0.0000000), wk =   0.2500000
        k(   10) = (  -0.0759910  -0.0838800   0.0000000), wk =   0.1250000

     Initial potential from superposition of free atoms

     starting charge  384.99916, renormalised to  401.00000

     negative rho (up, down):  1.407E-02 0.000E+00

     %%%%%%%%%%%%%%%%%%%%%%%%%%%%%%%%%%%%%%%%%%%%%%%%%%%%%%%%%%%%%%%%%%%%%%%%
     %                                                                      %
     % You are using vdW-DF, which was implemented by the Thonhauser group. %
     % Please cite the following two papers that made this development      %
     % possible and the two reviews that describe the various versions:     %
     %                                                                      %
     %   T. Thonhauser et al., PRL 115, 136402 (2015).                      %
     %   T. Thonhauser et al., PRB 76, 125112 (2007).                       %
     %   K. Berland et al., Rep. Prog. Phys. 78, 066501 (2015).             %
     %   D.C. Langreth et al., J. Phys.: Condens. Matter 21, 084203 (2009). %
     %                                                                      %
     %                                                                      %
     % If you are calculating the stress with vdW-DF, please also cite:     %
     %                                                                      %
     %   R. Sabatini et al., J. Phys.: Condens. Matter 24, 424209 (2012).   %
     %                                                                      %
     %%%%%%%%%%%%%%%%%%%%%%%%%%%%%%%%%%%%%%%%%%%%%%%%%%%%%%%%%%%%%%%%%%%%%%%%

     Adding external electric field

     Computed dipole along edir(3) :
        Dipole              -11.8206 Ry au,        -30.0448 Debye
        Dipole field         -0.0223 Ry au,

        Potential amp.        2.0678 Ry
        Total length         46.3494 bohr

     Starting wfcs are  303 atomic wfcs
  @ DRIVER MODE: Message from server: STATUS
  @ DRIVER MODE: Message from server: POSDATA
  @ DRIVER MODE: Reading and sharing cell
  @ DRIVER MODE: Reading and sharing positions
  @ DRIVER MODE: Received positions

     Self-consistent Calculation

     iteration #  1     ecut=    29.40 Ry     beta= 0.05
     Davidson diagonalization with overlap
     c_bands:  3 eigenvalues not converged
     c_bands:  4 eigenvalues not converged
     c_bands:  1 eigenvalues not converged
     c_bands:  4 eigenvalues not converged
     c_bands:  4 eigenvalues not converged
     c_bands:  1 eigenvalues not converged
     c_bands:  2 eigenvalues not converged
     ethr =  1.00E-05,  avg # of iterations = 22.9

[...]

     total energy              =   -2411.66245942 Ry
     estimated scf accuracy    <    6295.62679122 Ry

     iteration #  2     ecut=    29.40 Ry     beta= 0.05
     Davidson diagonalization with overlap
     ethr =  1.00E-02,  avg # of iterations = 22.2

[...]

     iteration # 57     ecut=    29.40 Ry     beta= 0.05
     Davidson diagonalization with overlap
     c_bands:  1 eigenvalues not converged
     ethr =  5.74E-07,  avg # of iterations = 10.2

[...]

     total energy              =   -2971.49160985 Ry
     estimated scf accuracy    <       0.00000014 Ry

     iteration # 79     ecut=    29.40 Ry     beta= 0.05
     Davidson diagonalization with overlap
     ethr =  3.54E-11,  avg # of iterations =  4.3

     negative rho (up, down):  1.460E-02 0.000E+00

     Adding external electric field

     Computed dipole along edir(3) :
        Dipole                1.0660 Ry au,          2.7096 Debye
        Dipole field          0.0020 Ry au,

        Potential amp.       -0.1865 Ry
        Total length         46.3494 bohr

     End of self-consistent calculation

          k = 0.0000 0.0000 0.0000 ( 18029 PWs)   bands (ev):

   -55.6915 -55.6575 -55.4761 -55.4736 -55.4422 -55.3334 -55.3157 -55.2814
   -55.2805 -55.2247 -55.1791 -55.0945 -55.0861 -54.9799 -54.5991 -54.5651
   -32.1654 -31.9868 -31.9848 -31.9287 -31.8442 -31.8166 -31.8110 -31.7915
   -31.7880 -31.7552 -31.7500 -31.7471 -31.7128 -31.6953 -31.6818 -31.6500
   -31.6468 -31.6107 -31.5837 -31.5779 -31.5749 -31.5511 -31.5418 -31.5383
   -31.4937 -31.4862 -31.4809 -31.4699 -31.4573 -31.4431 -31.4399 -31.4242
   -31.4236 -31.3678 -31.3632 -31.3603 -31.2936 -31.2813 -31.2577 -31.2293
   -31.2041 -31.1907 -31.0021 -30.9235 -30.9006 -30.8200 -30.7341 -30.6223
   -20.7426 -16.2528 -16.1713 -15.9661 -15.7887 -15.6373 -15.5848 -15.4448
   -15.3737 -15.2739 -15.1935 -15.0941 -15.0740 -15.0334 -14.9974 -14.9956
   -14.9672 -14.9351 -14.9349 -14.9118 -14.8947 -14.8469 -14.7874 -14.7699
   -14.7252 -14.6976 -14.6464 -14.6433 -14.6177 -14.5150 -14.2469 -14.2323
   -13.0971 -12.9821  -7.4021  -6.0972  -5.6756  -5.0451  -3.7619  -3.5795
    -3.5048  -3.3557  -3.2769  -3.2005  -3.0767  -2.9852  -2.9078  -2.7474
    -2.6620  -2.6351  -2.5838  -2.5277  -2.4624  -2.4360  -2.3950  -2.3721
    -2.2932  -2.2522  -2.2295  -2.2080  -2.1539  -2.1248  -2.0893  -2.0041
    -1.9755  -1.9408  -1.8666  -1.8576  -1.8328  -1.8239  -1.7821  -1.7635
    -1.7505  -1.7312  -1.5954  -1.5874  -1.5092  -1.4703  -1.3236  -1.2001
    -1.1351  -1.0659  -1.0509  -0.9689  -0.9328  -0.8529  -0.8336  -0.8041
    -0.7663  -0.6997  -0.6350  -0.6128  -0.5674  -0.5310  -0.3955  -0.3732
    -0.3259  -0.3211  -0.2987  -0.2335  -0.1643  -0.0835  -0.0707  -0.0051
     0.0152   0.0974   0.1795   0.1866   0.2368   0.2598   0.3142   0.3370
     0.3557   0.3890   0.4189   0.4879   0.5509   0.5984   0.6038   0.6370
     0.7042   0.7717   0.8118   0.8450   0.9950   1.0240   1.0390   1.1289
     1.1396   1.2477   1.4056   1.4270   1.6310   1.6327   1.9870   2.0294
     3.4551   3.5852   3.6190   3.6929   3.7784   3.9067   3.9150   4.0425
     4.1614   4.1670

[...]

          k = 0.0380-0.0419 0.0000 ( 17876 PWs)   bands (ev):

[...]

          k =-0.0760-0.0000 0.0000 ( 17886 PWs)   bands (ev):

[...]

          k =-0.0760-0.0839 0.0000 ( 17948 PWs)   bands (ev):

   -55.6749 -55.6739 -55.4728 -55.4603 -55.4577 -55.3271 -55.3020 -55.2940
   -55.2876 -55.2253 -55.1755 -55.0980 -55.0835 -54.9824 -54.5826 -54.5815
   -31.9812 -31.9808 -31.9709 -31.9702 -31.7956 -31.7943 -31.7817 -31.7761
   -31.7413 -31.7208 -31.6949 -31.6869 -31.6845 -31.6684 -31.6534 -31.6488
   -31.6308 -31.6172 -31.6162 -31.6106 -31.5931 -31.5515 -31.5465 -31.5242
   -31.5231 -31.5173 -31.5132 -31.5123 -31.5043 -31.4862 -31.4644 -31.4556
   -31.4284 -31.3880 -31.3741 -31.3525 -31.3398 -31.3254 -31.2970 -31.2854
   -31.2356 -31.1943 -30.9138 -30.9130 -30.8161 -30.8148 -30.7776 -30.7767
   -20.7415 -16.2269 -15.6169 -15.5494 -15.5285 -15.5194 -15.4050 -15.3724
   -15.2403 -15.2392 -15.2163 -15.1574 -15.1470 -15.1161 -15.1075 -15.0826
   -15.0498 -15.0251 -15.0021 -14.9720 -14.9614 -14.9178 -14.8911 -14.8875
   -14.8739 -14.8248 -14.7382 -14.6538 -14.6423 -14.5749 -14.4925 -14.3661
   -13.0847 -13.0840  -7.4027  -6.1007  -5.6783  -5.0227  -3.7351  -3.1112
    -2.8960  -2.7481  -2.7219  -2.5938  -2.5748  -2.4808  -2.4727  -2.4294
    -2.4158  -2.3761  -2.3490  -2.3318  -2.2894  -2.2719  -2.2567  -2.2524
    -2.2342  -2.2037  -2.1952  -2.1910  -2.1820  -2.1519  -2.1242  -2.1101
    -2.0937  -2.0474  -2.0203  -1.9207  -1.8164  -1.7912  -1.7181  -1.7132
    -1.7110  -1.6986  -1.6761  -1.6522  -1.5675  -1.4775  -1.4398  -1.3834
    -1.2090  -1.1949  -1.1723  -1.1506  -1.0937  -1.0454  -1.0171  -0.9653
    -0.9534  -0.9292  -0.8558  -0.7933  -0.7206  -0.7001  -0.6315  -0.5829
    -0.5656  -0.4749  -0.4615  -0.4287  -0.3881  -0.3739  -0.3446  -0.2911
    -0.2760  -0.2570  -0.2281  -0.1896  -0.1545   0.0146   0.1487   0.2120
     0.2296   0.2664   0.3204   0.3863   0.4102   0.5935   0.6062   0.6106
     0.6496   0.7085   0.7343   0.7513   0.8441   0.9578   0.9846   1.0213
     1.0484   1.0678   1.1487   1.2079   1.7979   1.8061   1.8490   1.8497
     3.4566   3.9920   4.0111   4.0124   4.0135   4.1084   4.1327   4.1410
     4.2057   4.2696

     the Fermi energy is     3.4493 ev

!    total energy              =   -2971.49161997 Ry
     estimated scf accuracy    <       0.00000005 Ry
     smearing contrib. (-TS)   =      -0.01886655 Ry
     internal energy E=F+TS    =   -2971.47275342 Ry

     The total energy is F=E-TS. E is the sum of the following terms:
     one-electron contribution =  -23618.24869816 Ry
     hartree contribution      =   11902.97914438 Ry
     xc contribution           =    -492.36825429 Ry
     ewald contribution        =    9236.16291006 Ry
     electric field correction =       0.00214458 Ry

     convergence has been achieved in  79 iterations

     Forces acting on atoms (cartesian axes, Ry/au):

     atom    1 type  1   force =     0.00001663   -0.00040122    0.09765845
     atom    2 type  1   force =    -0.00003978    0.00021835   -0.17213005
     atom    3 type  2   force =     0.00005097   -0.00005266   -0.02537668
     atom    4 type  2   force =     0.00001584   -0.00144609    0.04760097
     atom    5 type  2   force =    -0.00616764   -0.00239987   -0.00084917
     atom    6 type  2   force =     0.00778974   -0.00181811   -0.00151341
     atom    7 type  1   force =    -0.00008758   -0.00484475    0.01889023
     atom    8 type  1   force =     0.00022226    0.01221533    0.02701169
     atom    9 type  2   force =    -0.00010409   -0.00016906   -0.00011694
     atom   10 type  2   force =    -0.00111913    0.00132034   -0.02502553
     atom   11 type  2   force =     0.00014646   -0.00003095    0.00006608
     atom   12 type  2   force =     0.00005747   -0.00003537   -0.00000903
     atom   13 type  1   force =     0.00034744   -0.00021712   -0.00014941
     atom   14 type  1   force =     0.00005358   -0.00013728   -0.00015715
     atom   15 type  2   force =    -0.00030552   -0.00017517   -0.00028823
     atom   16 type  2   force =    -0.00002986   -0.00011971   -0.00047053
     atom   17 type  2   force =    -0.00014595   -0.00006832   -0.00005887
     atom   18 type  2   force =     0.00001043   -0.00016793   -0.00004879
     atom   19 type  1   force =    -0.00017784   -0.00000273   -0.00041599
     atom   20 type  1   force =    -0.00022527   -0.00020605    0.00014059
     atom   21 type  2   force =     0.00005678    0.00008619    0.10224515
     atom   22 type  2   force =     0.00008391    0.00006766   -0.00023307
     atom   23 type  2   force =    -0.07352909   -0.00016108   -0.02809927
     atom   24 type  2   force =     0.07344625    0.00028246   -0.02817211
     atom   25 type  1   force =     0.00013733   -0.00033174    0.09745637
     atom   26 type  1   force =    -0.00003896   -0.00130943   -0.17226749
     atom   27 type  2   force =     0.00009411   -0.00030505   -0.02401041
     atom   28 type  2   force =     0.00004177    0.00031111    0.04322748
     atom   29 type  2   force =    -0.00506067    0.00403119   -0.00277798
     atom   30 type  2   force =     0.00657023    0.00442064   -0.00333314
     atom   31 type  1   force =     0.00001225    0.00579781    0.00692511
     atom   32 type  1   force =     0.00029118   -0.01518909    0.02659680
     atom   33 type  2   force =     0.00038229   -0.00002506    0.00010378
     atom   34 type  2   force =    -0.00138545    0.00099925   -0.02676447
     atom   35 type  2   force =     0.00037439    0.00005378    0.00003914
     atom   36 type  2   force =    -0.00028175   -0.00005889   -0.00008009
     atom   37 type  1   force =     0.00009912   -0.00052942   -0.00009392
     atom   38 type  1   force =     0.00024197    0.00012696    0.00011592
     atom   39 type  2   force =    -0.00013013   -0.00016969   -0.00009447
     atom   40 type  2   force =     0.00005764    0.00002747   -0.00013878
     atom   41 type  2   force =    -0.00012708    0.00006719   -0.00016958
     atom   42 type  2   force =    -0.00025317   -0.00009127   -0.00000462
     atom   43 type  1   force =    -0.00010788    0.00020923   -0.00065805
     atom   44 type  1   force =    -0.00017104    0.00038793    0.00013266
     atom   45 type  2   force =     0.00004944   -0.00008026    0.10203909
     atom   46 type  2   force =    -0.07356488   -0.00007694   -0.02813471
     atom   47 type  2   force =     0.07347036    0.00036122   -0.02818257
     atom   48 type  3   force =    -0.00083438    0.00004211   -0.00005915
     atom   49 type  3   force =    -0.00014792   -0.00010210   -0.00027911
     atom   50 type  4   force =    -0.00084915   -0.00094448   -0.00084458
     atom   51 type  5   force =     0.00011620    0.00012419    0.00024245
     atom   52 type  5   force =     0.00042231    0.00047665    0.00098707
     atom   53 type  2   force =     0.00037648    0.00071146   -0.00026821
     atom   54 type  5   force =    -0.00015061   -0.00067162   -0.00020346

     Total force =     0.364987     Total SCF correction =     0.000632
  @ DRIVER MODE: Message from server: STATUS
  @ DRIVER MODE: Message from server: GETFORCE
  @ DRIVER MODE: Returning v,forces,stress,ensemble

     Writing output data file ./calc.save/
  @ DRIVER MODE: Message from server: EXIT
  @ DRIVE MODE: Exiting

     General routines

     Parallel routines

   This run was terminated on:  21:47:51  23Sep2021

   JOB DONE.