     Program PWSCF v.6.7GPU starts on 16Jul2021 at  0:48:45

     R & G space division:  proc/nbgrp/npool/nimage =      16
     Reading input from /storage/home/hcoda1/3/ntian30/research/carbon/15Jul_vib/ads_slab/CH3NNHHH_a/out_0010/pw.inp
Warning: card &CELL ignored
Warning: card   CELL_DYNAMICS='IPI', ignored
Warning: card / ignored

     Current dimensions of program PWSCF are:
     Max number of different atomic species (ntypx) = 10
     Max number of k-points (npk) =  40000
     Max angular momentum in pseudopotentials (lmaxx) =  3
     Presently no symmetry can be used with electric field

     Message from routine cell_base_init:
     DEPRECATED: use true lattice parameter, not A to a.u. conversion factor

     IMPORTANT: XC functional enforced from input :
     Exchange-correlation= BEEF-VDW
                           (   1   4  43  14   2   0   0)
     Any further DFT definition will be discarded
     Please, verify this is what you really want

  @ DRIVER MODE: Connecting to
 qe_1139763_2351652.sched-torque.pace.gatech.edugdxc7wk4_scratch
  using UNIX socket
  @ DRIVER MODE: Message from server: STATUS
  @ DRIVER MODE: Message from server: INIT
  @ DRIVER MODE: Receiving replica           0          -1
  @ DRIVER MODE: Receiving encoded integer          25
  @ DRIVER MODE:  SCF:  T  FORCE:  T  STRESS:  F  VC:  F  ENSEMBLE:  F
  @ DRIVER MODE:  SCF:  T  FORCE:  T  STRESS:  F  VC:  F  ENSEMBLE:  F

     Using Slab Decomposition

     bravais-lattice index     =            0
     lattice parameter (alat)  =       1.8897  a.u.
     unit-cell volume          =    6658.9804 (a.u.)^3
     number of atoms/cell      =           56
     number of atomic types    =            5
     number of electrons       =       398.00
     number of Kohn-Sham states=          209
     kinetic-energy cutoff     =      29.3995  Ry
     charge density cutoff     =     293.9946  Ry
     scf convergence threshold =      7.3E-08
     mixing beta               =       0.0500
     number of iterations used =            8  plain     mixing
     Exchange-correlation= BEEF-VDW
                           (   1   4  43  14   2   0   0)

     celldm(1)=   1.889726  celldm(2)=   0.000000  celldm(3)=   0.000000
     celldm(4)=   0.000000  celldm(5)=   0.000000  celldm(6)=   0.000000

     crystal axes: (cart. coord. in units of alat)
               a(1) = (   6.579727   0.000000   0.000000 )
               a(2) = (  -0.000775   5.961596   0.000000 )
               a(3) = (   0.000000   0.000000  25.155947 )

     reciprocal axes: (cart. coord. in units 2 pi/alat)
               b(1) = (  0.151982  0.000020  0.000000 )
               b(2) = (  0.000000  0.167740  0.000000 )
               b(3) = (  0.000000  0.000000  0.039752 )

     PseudoPot. # 1 for Ti read from file:
     /storage/coda1/p-amedford6/0/shared/rich_project_chbe-medford/medford-share/data/pseudos_module/espresso/nninc/pbe/van/Ti.UPF
     MD5 check sum: 8e4df49b7f0d34bbd5052bf3f5ea0213
     Pseudo is Ultrasoft, Zval = 12.0
     Generated by new atomic code, or converted to UPF format
     Using radial grid of  851 points,  6 beta functions with:
                l(1) =   0
                l(2) =   0
                l(3) =   1
                l(4) =   1
                l(5) =   2
                l(6) =   2
     Q(r) pseudized with  8 coefficients,  rinner =    1.000   1.000   1.000
                                                       1.000   1.000

     PseudoPot. # 2 for O  read from file:
     /storage/coda1/p-amedford6/0/shared/rich_project_chbe-medford/medford-share/data/pseudos_module/espresso/nninc/pbe/van/O.UPF
     MD5 check sum: 78c19812648e8988a0fe644b0f25305e
     Pseudo is Ultrasoft, Zval =  6.0
     Generated by new atomic code, or converted to UPF format
     Using radial grid of  737 points,  4 beta functions with:
                l(1) =   0
                l(2) =   0
                l(3) =   1
                l(4) =   1
     Q(r) pseudized with  8 coefficients,  rinner =    0.800   0.800   0.800

     PseudoPot. # 3 for N  read from file:
     /storage/coda1/p-amedford6/0/shared/rich_project_chbe-medford/medford-share/data/pseudos_module/espresso/nninc/pbe/van/N.UPF
     MD5 check sum: 90d10febe142ad51ac9d5be1deb811c4
     Pseudo is Ultrasoft, Zval =  5.0
     Generated by new atomic code, or converted to UPF format
     Using radial grid of  729 points,  4 beta functions with:
                l(1) =   0
                l(2) =   0
                l(3) =   1
                l(4) =   1
     Q(r) pseudized with  8 coefficients,  rinner =    0.800   0.800   0.800

     PseudoPot. # 4 for C  read from file:
     /storage/coda1/p-amedford6/0/shared/rich_project_chbe-medford/medford-share/data/pseudos_module/espresso/nninc/pbe/van/C.UPF
     MD5 check sum: 1a69bf6b8db32088f5b2163dbdb77a27
     Pseudo is Ultrasoft, Zval =  4.0
     Generated by new atomic code, or converted to UPF format
     Using radial grid of  721 points,  4 beta functions with:
                l(1) =   0
                l(2) =   0
                l(3) =   1
                l(4) =   1
     Q(r) pseudized with  8 coefficients,  rinner =    0.800   0.800   0.800

     PseudoPot. # 5 for H  read from file:
     /storage/coda1/p-amedford6/0/shared/rich_project_chbe-medford/medford-share/data/pseudos_module/espresso/nninc/pbe/van/H.UPF
     MD5 check sum: b5ee9d7bfd3a09ee7748110bda690ff7
     Pseudo is Ultrasoft, Zval =  1.0
     Generated by new atomic code, or converted to UPF format
     Using radial grid of  615 points,  1 beta functions with:
                l(1) =   0
     Q(r) pseudized with  8 coefficients,  rinner =    0.800

     atomic species   valence    mass     pseudopotential
        Ti1           12.00    47.86700     Ti( 1.00)
        O1             6.00    15.99900     O ( 1.00)
        N1             5.00    14.00700     N ( 1.00)
        C1             4.00    12.01100     C ( 1.00)
        H1             1.00     1.00800     H ( 1.00)

     Starting magnetic structure
     atomic species   magnetization
        Ti1          0.000
        O1           0.000
        N1           0.000
        C1           0.025
        H1           0.000

     No symmetry found

   Cartesian axes

     site n.     atom                  positions (alat units)
         1           Ti1 tau(   1) = (   0.0004258   2.9801865   6.0000000  )
         2           Ti1 tau(   2) = (   3.2906075   1.4906267   6.0002472  )
         3           O1  tau(   3) = (   0.0006271   0.0005054   7.9858123  )
         4           O1  tau(   4) = (   3.2906025   0.0005020   7.3038282  )
         5           O1  tau(   5) = (   4.5942328   1.4918067   9.2879030  )
         6           O1  tau(   6) = (   1.9868534   1.4903216   9.2879459  )
         7           Ti1 tau(   7) = (   3.2907910   2.8959150   9.1758416  )
         8           Ti1 tau(   8) = (   0.0015273   1.4827037   9.2680791  )
         9           O1  tau(   9) = (   3.2969863   5.9453513  11.3493076  )
        10           O1  tau(  10) = (   0.0116148   5.9584955  10.6183126  )
        11           O1  tau(  11) = (   1.3059050   1.4736943  12.6642453  )
        12           O1  tau(  12) = (   5.3003793   1.4775083  12.6459419  )
        13           Ti1 tau(  13) = (   0.0167275   2.9625105  12.5508078  )
        14           Ti1 tau(  14) = (   3.3131340   1.4712512  12.4909780  )
        15           O1  tau(  15) = (   6.5517612   5.9325698  14.7566896  )
        16           O1  tau(  16) = (   3.3302114   5.9429442  13.9823395  )
        17           O1  tau(  17) = (   4.5243935   1.5056208  16.2316672  )
        18           O1  tau(  18) = (   2.0170937   1.4633510  16.1378485  )
        19           Ti1 tau(  19) = (   3.2500237   2.9242626  15.6920970  )
        20           Ti1 tau(  20) = (   6.5441017   1.2779805  16.1516014  )
        21           O1  tau(  21) = (   3.2904802   0.0005063   4.7018136  )
        22           O1  tau(  22) = (   6.5540411   5.9581837  17.3465722  )
        23           O1  tau(  23) = (   1.3043587   1.4918075   6.0039043  )
        24           O1  tau(  24) = (   5.2767064   1.4903225   6.0039473  )
        25           Ti1 tau(  25) = (   0.0000382   5.9609847   6.0000000  )
        26           Ti1 tau(  26) = (   3.2902200   4.4714249   6.0002472  )
        27           O1  tau(  27) = (   0.0002396   2.9813036   7.9858123  )
        28           O1  tau(  28) = (   3.2902150   2.9813002   7.3038282  )
        29           O1  tau(  29) = (   4.5938453   4.4726049   9.2879030  )
        30           O1  tau(  30) = (   1.9864658   4.4711199   9.2879459  )
        31           Ti1 tau(  31) = (   3.2891106   5.8743827   9.1763621  )
        32           Ti1 tau(  32) = (   0.0006254   4.4649316   9.2693709  )
        33           O1  tau(  33) = (   3.2962403   2.9651072  11.3429128  )
        34           O1  tau(  34) = (   0.0092240   2.9805883  10.6323155  )
        35           O1  tau(  35) = (   1.3076126   4.4641214  12.6643835  )
        36           O1  tau(  36) = (   5.2981430   4.4591552  12.6429889  )
        37           Ti1 tau(  37) = (   0.0194730   5.9489450  12.5196332  )
        38           Ti1 tau(  38) = (   3.3150505   4.4522436  12.4946186  )
        39           O1  tau(  39) = (   6.5702761   2.9869041  14.8038460  )
        40           O1  tau(  40) = (   3.3119818   2.9576719  13.9204832  )
        41           O1  tau(  41) = (   4.5223198   4.3950437  16.2490866  )
        42           O1  tau(  42) = (   2.0356696   4.4339808  16.1311045  )
        43           Ti1 tau(  43) = (   3.3057863   5.9493229  15.7677403  )
        44           Ti1 tau(  44) = (   0.0958844   4.4293496  15.8701971  )
        45           O1  tau(  45) = (   3.2900926   2.9813045   4.7018136  )
        46           O1  tau(  46) = (   1.3039711   4.4726057   6.0039043  )
        47           O1  tau(  47) = (   5.2763189   4.4711207   6.0039473  )
        48           N1  tau(  48) = (   0.0620580   3.0375546  17.6897758  )
        49           C1  tau(  49) = (   1.1116374   2.9793208  18.6984743  )
        50           H1  tau(  50) = (   1.2951007   3.9532040  19.1583453  )
        51           H1  tau(  51) = (   0.8627774   2.2426413  19.4871689  )
        52           H1  tau(  52) = (   2.0263963   2.6228967  18.2308865  )
        53           N1  tau(  53) = (   5.4279256   3.3744730  18.4033390  )
        54           H1  tau(  54) = (   5.6103604   4.1199394  19.0852601  )
        55           H1  tau(  55) = (   4.7934260   3.8076565  17.6395878  )
        56           H1  tau(  56) = (   5.0090149   2.5598412  18.8678436  )

     number of k points=    10  Fermi-Dirac smearing, width (Ry)=  0.0073
                       cart. coord. in units 2pi/alat
        k(    1) = (   0.0000000   0.0000000   0.0000000), wk =   0.0625000
        k(    2) = (   0.0000000   0.0419351   0.0000000), wk =   0.1250000
        k(    3) = (   0.0000000  -0.0838702   0.0000000), wk =   0.0625000
        k(    4) = (   0.0379955   0.0000049   0.0000000), wk =   0.1250000
        k(    5) = (   0.0379955   0.0419400   0.0000000), wk =   0.1250000
[...]
     % Please cite the following two papers that made this development      %
     % possible and the two reviews that describe the various versions:     %
     %                                                                      %
     %   T. Thonhauser et al., PRL 115, 136402 (2015).                      %
     %   T. Thonhauser et al., PRB 76, 125112 (2007).                       %
     %   K. Berland et al., Rep. Prog. Phys. 78, 066501 (2015).             %
     %   D.C. Langreth et al., J. Phys.: Condens. Matter 21, 084203 (2009). %
     %                                                                      %
     %                                                                      %
     % If you are calculating the stress with vdW-DF, please also cite:     %
     %                                                                      %
     %   R. Sabatini et al., J. Phys.: Condens. Matter 24, 424209 (2012).   %
     %                                                                      %
     %%%%%%%%%%%%%%%%%%%%%%%%%%%%%%%%%%%%%%%%%%%%%%%%%%%%%%%%%%%%%%%%%%%%%%%%

     Adding external electric field

     Computed dipole along edir(3) :
        Dipole              -10.5729 Ry au,        -26.8736 Debye
        Dipole field         -0.0200 Ry au,

        Potential amp.        1.8496 Ry
        Total length         46.3494 bohr

[...]

     Starting wfcs are  302 atomic wfcs
  @ DRIVER MODE: Message from server: STATUS
  @ DRIVER MODE: Message from server: POSDATA
  @ DRIVER MODE: Reading and sharing cell
  @ DRIVER MODE: Reading and sharing positions
  @ DRIVER MODE: Received positions

     Self-consistent Calculation

     iteration #  1     ecut=    29.40 Ry     beta= 0.05
     Davidson diagonalization with overlap
     c_bands:  4 eigenvalues not converged
     c_bands:  3 eigenvalues not converged
     c_bands:  1 eigenvalues not converged
     c_bands:  4 eigenvalues not converged
     c_bands:  5 eigenvalues not converged
     c_bands:  5 eigenvalues not converged
     c_bands:  1 eigenvalues not converged
     c_bands:  5 eigenvalues not converged
     c_bands:  3 eigenvalues not converged
     c_bands:  4 eigenvalues not converged
     c_bands:  2 eigenvalues not converged
     c_bands:  1 eigenvalues not converged
     c_bands:  4 eigenvalues not converged
     c_bands:  5 eigenvalues not converged
     c_bands:  5 eigenvalues not converged
     c_bands:  5 eigenvalues not converged
     c_bands:  3 eigenvalues not converged
     ethr =  1.00E-05,  avg # of iterations = 20.0

[...]

     total energy              =   -2443.28015886 Ry
     estimated scf accuracy    <    5586.06123559 Ry

     total magnetization       =     0.00 Bohr mag/cell
     absolute magnetization    =     0.01 Bohr mag/cell

     iteration #  2     ecut=    29.40 Ry     beta= 0.05
     Davidson diagonalization with overlap
     ethr =  1.00E-02,  avg # of iterations = 25.2

[...]

     iteration # 95     ecut=    29.40 Ry     beta= 0.05
     Davidson diagonalization with overlap
     c_bands:  1 eigenvalues not converged
     ethr =  2.27E-11,  avg # of iterations =  9.3

[...]

     total energy              =   -2942.82536981 Ry
     estimated scf accuracy    <       0.00000010 Ry

[...]

     iteration # 96     ecut=    29.40 Ry     beta= 0.05
     Davidson diagonalization with overlap
     ethr =  2.27E-11,  avg # of iterations =  8.8

     negative rho (up, down):  7.274E-03 7.277E-03

[...]

     Adding external electric field

     Computed dipole along edir(3) :
        Dipole                1.6183 Ry au,          4.1134 Debye
        Dipole field          0.0031 Ry au,

        Potential amp.       -0.2831 Ry
        Total length         46.3494 bohr

     Magnetic moment per site  (integrated on atomic sphere of radius R)
     atom   1 (R=0.723)  charge=  7.9140  magn= -0.0093
     atom   2 (R=0.723)  charge=  7.8963  magn= -0.0003
     atom   3 (R=0.633)  charge=  4.2081  magn=  0.0008
     atom   4 (R=0.633)  charge=  4.2373  magn=  0.0001
     atom   5 (R=0.633)  charge=  4.2138  magn=  0.0002
     atom   6 (R=0.633)  charge=  4.2139  magn=  0.0002
     atom   7 (R=0.723)  charge=  7.8964  magn= -0.0007
     atom   8 (R=0.723)  charge=  7.8945  magn= -0.0045
     atom   9 (R=0.633)  charge=  4.2238  magn=  0.0001
     atom  10 (R=0.633)  charge=  4.2125  magn=  0.0003
     atom  11 (R=0.633)  charge=  4.2093  magn=  0.0002
     atom  12 (R=0.633)  charge=  4.2111  magn=  0.0002
     atom  13 (R=0.723)  charge=  7.8926  magn= -0.0014
     atom  14 (R=0.723)  charge=  7.9040  magn= -0.0006
     atom  15 (R=0.633)  charge=  4.2098  magn=  0.0001
     atom  16 (R=0.633)  charge=  4.2161  magn= -0.0001
     atom  17 (R=0.633)  charge=  4.2035  magn= -0.0001
     atom  18 (R=0.633)  charge=  4.2034  magn= -0.0001
     atom  19 (R=0.723)  charge=  7.9504  magn=  0.0021
     atom  20 (R=0.723)  charge=  7.9297  magn=  0.0003
     atom  21 (R=0.633)  charge=  4.1284  magn=  0.0002
     atom  22 (R=0.633)  charge=  4.1765  magn=  0.0000
     atom  23 (R=0.633)  charge=  4.2073  magn=  0.0009
     atom  24 (R=0.633)  charge=  4.2074  magn=  0.0009
     atom  25 (R=0.723)  charge=  7.9141  magn= -0.0093
     atom  26 (R=0.723)  charge=  7.8964  magn= -0.0004
     atom  27 (R=0.633)  charge=  4.2076  magn=  0.0008
     atom  28 (R=0.633)  charge=  4.2375  magn=  0.0002
     atom  29 (R=0.633)  charge=  4.2143  magn=  0.0002
     atom  30 (R=0.633)  charge=  4.2144  magn=  0.0002
     atom  31 (R=0.723)  charge=  7.8969  magn= -0.0007
     atom  32 (R=0.723)  charge=  7.8947  magn= -0.0044
     atom  33 (R=0.633)  charge=  4.2222  magn=  0.0001
     atom  34 (R=0.633)  charge=  4.2053  magn=  0.0003
     atom  35 (R=0.633)  charge=  4.2090  magn=  0.0002
     atom  36 (R=0.633)  charge=  4.2115  magn=  0.0002
     atom  37 (R=0.723)  charge=  7.8964  magn= -0.0014
     atom  38 (R=0.723)  charge=  7.9034  magn= -0.0006
     atom  39 (R=0.633)  charge=  4.1926  magn=  0.0000
     atom  40 (R=0.633)  charge=  4.2343  magn= -0.0000
     atom  41 (R=0.633)  charge=  4.2025  magn= -0.0001
     atom  42 (R=0.633)  charge=  4.2135  magn= -0.0001
     atom  43 (R=0.723)  charge=  7.9399  magn=  0.0027
     atom  44 (R=0.723)  charge=  7.9262  magn=  0.0002
     atom  45 (R=0.633)  charge=  4.1284  magn=  0.0002
     atom  46 (R=0.633)  charge=  4.2073  magn=  0.0009
     atom  47 (R=0.633)  charge=  4.2074  magn=  0.0009
     atom  48 (R=0.423)  charge=  1.3357  magn= -0.0000
     atom  49 (R=0.449)  charge=  0.8455  magn=  0.0000
     atom  50 (R=0.423)  charge=  0.4536  magn= -0.0000
     atom  51 (R=0.423)  charge=  0.4463  magn= -0.0000
     atom  52 (R=0.423)  charge=  0.4532  magn= -0.0000
     atom  53 (R=0.423)  charge=  1.3749  magn=  0.0000
     atom  54 (R=0.423)  charge=  0.4520  magn=  0.0000
     atom  55 (R=0.423)  charge=  0.3988  magn= -0.0000
     atom  56 (R=0.423)  charge=  0.4520  magn=  0.0000

     End of self-consistent calculation

 ------ SPIN UP ------------

          k = 0.0000 0.0000 0.0000 ( 18029 PWs)   bands (ev):

   -55.1340 -55.0974 -55.0875 -55.0534 -55.0159 -55.0036 -54.9778 -54.9351
   -54.9200 -54.9166 -54.9001 -54.8869 -54.8564 -54.7865 -54.1077 -54.0737
   -31.7142 -31.5823 -31.5027 -31.4718 -31.4261 -31.4246 -31.4219 -31.3945
   -31.3908 -31.3759 -31.3594 -31.3434 -31.3313 -31.3116 -31.2940 -31.2685
   -31.2512 -31.2397 -31.2356 -31.2351 -31.2037 -31.1999 -31.1930 -31.1666
   -31.1450 -31.1425 -31.1383 -31.1318 -31.1288 -31.1197 -31.1165 -31.1130
   -31.0929 -31.0851 -31.0817 -31.0513 -31.0492 -31.0408 -31.0287 -31.0285
   -31.0180 -30.9755 -30.5162 -30.4240 -30.4019 -30.3326 -30.2459 -30.1350
   -18.9393 -15.9991 -15.7447 -15.6092 -15.3743 -15.3225 -15.2658 -15.0604
   -15.0569 -14.9858 -14.9707 -14.9218 -14.9022 -14.8347 -14.7503 -14.7309
   -14.6619 -14.6598 -14.6303 -14.6201 -14.6181 -14.5555 -14.5458 -14.5160
   -14.5033 -14.4781 -14.3597 -14.2754 -14.2171 -13.9677 -13.5983 -12.6107
   -12.4936  -9.7481  -7.7228  -7.2133  -5.4583  -3.8405  -3.3360  -3.2584
    -3.1617  -3.1321  -3.0548  -3.0255  -2.8407  -2.8201  -2.4787  -2.4426
    -2.3922  -2.3747  -2.3526  -2.3355  -2.1685  -2.1427  -2.0694  -2.0358
    -2.0178  -1.9762  -1.9602  -1.9495  -1.9163  -1.9110  -1.9015  -1.6947
    -1.6379  -1.5428  -1.5206  -1.5007  -1.4611  -1.4252  -1.4162  -1.4136
    -1.4078  -1.3943  -1.3821  -1.3012  -1.2433  -1.1625  -1.1535  -1.1188
    -1.0142  -0.9695  -0.7667  -0.7522  -0.7064  -0.6642  -0.6013  -0.5808
    -0.5132  -0.4827  -0.4640  -0.3420  -0.3135  -0.2742  -0.2460  -0.1779
    -0.1487  -0.1025  -0.0200   0.0517   0.0883   0.1063   0.1656   0.2951
     0.3070   0.3363   0.3973   0.4614   0.5016   0.5217   0.5403   0.5762
     0.6272   0.7528   0.7975   0.8174   0.8214   0.8553   0.8784   0.9288
     0.9537   1.0145   1.0198   1.1377   1.2069   1.4332   1.4680   1.4944
     1.8270   1.8499   1.9145   2.1005   2.4884   2.5360   3.9739   4.0324
     4.0852   4.1144   4.1264   4.2147   4.2460   4.4332   4.4608   4.4669
     4.4702

[...]

          k =-0.0760-0.0000 0.0000 ( 17886 PWs)   bands (ev):

[...]

 ------ SPIN DOWN ----------

[...]

          k = 0.0380-0.0419 0.0000 ( 17876 PWs)   bands (ev):

[...]

          k =-0.0760-0.0839 0.0000 ( 17948 PWs)   bands (ev):

   -55.1198 -55.1141 -55.0875 -55.0875 -55.0079 -54.9963 -54.9910 -54.9207
   -54.9169 -54.9168 -54.9123 -54.9108 -54.8522 -54.7899 -54.0912 -54.0911
   -31.5184 -31.5155 -31.4379 -31.4162 -31.4043 -31.4042 -31.3810 -31.3809
   -31.3465 -31.3404 -31.3374 -31.3370 -31.3033 -31.2655 -31.2620 -31.2575
   -31.2560 -31.2521 -31.2519 -31.2458 -31.2111 -31.2100 -31.2085 -31.2083
   -31.2083 -31.2044 -31.1838 -31.1821 -31.1553 -31.1507 -31.1353 -31.1314
   -31.1308 -31.1302 -31.1267 -31.1168 -31.0943 -31.0930 -31.0893 -31.0651
   -31.0402 -31.0228 -30.4153 -30.4151 -30.3290 -30.3289 -30.2899 -30.2898
   -18.9345 -15.5060 -15.3962 -15.2886 -15.2228 -15.1803 -15.1286 -15.1111
   -15.1002 -15.0558 -15.0261 -14.9569 -14.8921 -14.8387 -14.8377 -14.8036
   -14.7251 -14.7112 -14.7039 -14.6936 -14.6366 -14.6299 -14.5985 -14.5773
   -14.5742 -14.5449 -14.4708 -14.4684 -14.3830 -14.1765 -13.6344 -12.5949
   -12.5949  -9.7174  -7.7190  -7.1592  -5.4619  -3.8631  -3.4115  -2.7543
    -2.6434  -2.4332  -2.4066  -2.3468  -2.3272  -2.2420  -2.1811  -2.1597
    -2.1362  -2.1019  -2.0990  -2.0754  -2.0530  -2.0009  -1.9711  -1.9592
    -1.9537  -1.9386  -1.9260  -1.9062  -1.8497  -1.8394  -1.8320  -1.7894
    -1.7786  -1.7467  -1.7404  -1.7015  -1.6847  -1.6101  -1.5161  -1.4917
    -1.4328  -1.3321  -1.3172  -1.3115  -1.2188  -1.2101  -1.1806  -1.1496
    -1.0954  -0.9961  -0.9414  -0.8643  -0.8610  -0.8328  -0.7444  -0.6800
    -0.6477  -0.6374  -0.5978  -0.5403  -0.5196  -0.4841  -0.4012  -0.3599
    -0.3325  -0.2997  -0.2035  -0.1428  -0.1189  -0.0873  -0.0838   0.0048
     0.0381   0.0747   0.0954   0.1340   0.1609   0.2251   0.2468   0.3577
     0.4243   0.4574   0.5764   0.6008   0.6643   0.7968   0.8683   0.9087
     0.9612   1.0195   1.0471   1.1782   1.1854   1.2025   1.3037   1.3441
     1.3510   1.3639   2.2734   2.2745   2.3558   2.3561   4.1030   4.1894
     4.2309   4.2683   4.3759   4.4821   4.5006   4.5444   4.5450   4.6196
     4.6251

     the Fermi energy is     4.0221 ev

!    total energy              =   -2942.82537172 Ry
     estimated scf accuracy    <       0.00000006 Ry
     smearing contrib. (-TS)   =      -0.03683336 Ry
     internal energy E=F+TS    =   -2942.78853836 Ry

     The total energy is F=E-TS. E is the sum of the following terms:
     one-electron contribution =  -23972.27336922 Ry
     hartree contribution      =   12081.71372323 Ry
     xc contribution           =    -487.77305028 Ry
     ewald contribution        =    9435.53921560 Ry
     electric field correction =       0.00494231 Ry

     total magnetization       =    -0.04 Bohr mag/cell
     absolute magnetization    =     0.07 Bohr mag/cell

     convergence has been achieved in  96 iterations

     Forces acting on atoms (cartesian axes, Ry/au):

     atom    1 type  1   force =     0.00015239   -0.00022312    0.09431888
     atom    2 type  1   force =    -0.00009387   -0.00033199   -0.17739236
     atom    3 type  2   force =     0.00005502   -0.00016621   -0.02135177
     atom    4 type  2   force =    -0.00001414   -0.00172654    0.05658054
     atom    5 type  2   force =    -0.01054874   -0.00127788    0.00623584
     atom    6 type  2   force =     0.01221590   -0.00074482    0.00570674
     atom    7 type  1   force =    -0.00032671    0.00172392   -0.01618744
     atom    8 type  1   force =    -0.00011167    0.00438485    0.00559451
     atom    9 type  2   force =     0.00000982   -0.00004493   -0.00005988
     atom   10 type  2   force =    -0.00074278   -0.00021848   -0.00045109
     atom   11 type  2   force =     0.00034347    0.00012991   -0.00019556
     atom   12 type  2   force =    -0.00051526    0.00000792   -0.00013299
     atom   13 type  1   force =     0.00003982   -0.00035445    0.00013243
     atom   14 type  1   force =     0.00055885    0.00011488   -0.00032104
     atom   15 type  2   force =    -0.00040523    0.00035684   -0.00013741
     atom   16 type  2   force =    -0.00033164    0.00019840   -0.00005168
     atom   17 type  2   force =    -0.00012071    0.00012347    0.00047156
     atom   18 type  2   force =     0.00008925    0.00033912    0.00000871
     atom   19 type  1   force =     0.00014384    0.00008544    0.00012139
     atom   20 type  1   force =     0.00019999    0.00047292   -0.00044359
     atom   21 type  2   force =     0.00003678    0.00004159    0.10363131
     atom   22 type  2   force =    -0.00002630   -0.00083905   -0.00024625
     atom   23 type  2   force =    -0.07083099   -0.00009793   -0.02719511
     atom   24 type  2   force =     0.07069609    0.00034358   -0.02722720
     atom   25 type  1   force =    -0.00009488   -0.00019427    0.09373930
     atom   26 type  1   force =    -0.00015120   -0.00032257   -0.17732672
     atom   27 type  2   force =     0.00008716   -0.00035201   -0.02045350
     atom   28 type  2   force =     0.00003118   -0.00144083    0.05589003
     atom   29 type  2   force =    -0.01091258   -0.00073667    0.00608420
     atom   30 type  2   force =     0.01246507   -0.00029290    0.00556302
     atom   31 type  1   force =    -0.00017382    0.00462683   -0.01721879
     atom   32 type  1   force =    -0.00003605   -0.00480306    0.00557616
     atom   33 type  2   force =     0.00005591    0.00012261    0.00026284
     atom   34 type  2   force =     0.00005752   -0.00085495   -0.00297742
     atom   35 type  2   force =     0.00022861    0.00002914    0.00007524
     atom   36 type  2   force =    -0.00042282    0.00015575   -0.00007080
     atom   37 type  1   force =    -0.00012718   -0.00010725   -0.00017433
     atom   38 type  1   force =     0.00043637   -0.00028557    0.00037784
     atom   39 type  2   force =    -0.00045747    0.00009719    0.00077705
     atom   40 type  2   force =    -0.00011841    0.00018398   -0.00021444
     atom   41 type  2   force =     0.00006107    0.00031429    0.00020315
     atom   42 type  2   force =    -0.00008725    0.00027277   -0.00007300
     atom   43 type  1   force =    -0.00041925    0.00053514   -0.00005158
     atom   44 type  1   force =    -0.00026296    0.00029500   -0.00033852
     atom   45 type  2   force =     0.00002619    0.00001074    0.10363595
     atom   46 type  2   force =    -0.07083349   -0.00003709   -0.02719045
     atom   47 type  2   force =     0.07069936    0.00037557   -0.02719484
     atom   48 type  3   force =     0.00041887    0.00147615    0.00042782
     atom   49 type  4   force =     0.00041608   -0.01957946   -0.00147402
     atom   50 type  5   force =     0.00111885    0.00904076    0.00308410
     atom   51 type  5   force =     0.00120643    0.00519144   -0.00369215
     atom   52 type  5   force =    -0.00294211    0.00267247    0.00160868
     atom   53 type  3   force =    -0.00029841    0.00114983    0.00107433
     atom   54 type  5   force =    -0.00004326   -0.00006886   -0.00041182
     atom   55 type  5   force =    -0.00018865    0.00015102   -0.00076389
     atom   56 type  5   force =    -0.00021202    0.00007739   -0.00016199

     Total force =     0.366329     Total SCF correction =     0.000276
  @ DRIVER MODE: Message from server: STATUS
  @ DRIVER MODE: Message from server: GETFORCE
  @ DRIVER MODE: Returning v,forces,stress,ensemble

     Writing output data file ./calc.save/
  @ DRIVER MODE: Message from server: EXIT
  @ DRIVE MODE: Exiting

     General routines

     Parallel routines

   This run was terminated on:   1:29:46  16Jul2021

   JOB DONE.