     Program PWSCF v.6.7GPU starts on 16Sep2021 at  0:26:11

     R & G space division:  proc/nbgrp/npool/nimage =      10
     Reading input from /storage/home/hcoda1/3/ntian30/research/carbon/CxH_vib/H2O_calc/ads_slab/CH3N2H2O_c/out_0028/pw.inp
Warning: card &CELL ignored
Warning: card   CELL_DYNAMICS='IPI', ignored
Warning: card / ignored

     Current dimensions of program PWSCF are:
     Max number of different atomic species (ntypx) = 10
     Max number of k-points (npk) =  40000
     Max angular momentum in pseudopotentials (lmaxx) =  3
     Presently no symmetry can be used with electric field

     Message from routine cell_base_init:
     DEPRECATED: use true lattice parameter, not A to a.u. conversion factor

     IMPORTANT: XC functional enforced from input :
     Exchange-correlation= BEEF-VDW
                           (   1   4  43  14   2   0   0)
     Any further DFT definition will be discarded
     Please, verify this is what you really want

  @ DRIVER MODE: Connecting to
 qe_1139763_2852616.sched-torque.pace.gatech.eduy_9ghmol_scratch
  using UNIX socket
  @ DRIVER MODE: Message from server: STATUS
  @ DRIVER MODE: Message from server: INIT
  @ DRIVER MODE: Receiving replica           0          -1
  @ DRIVER MODE: Receiving encoded integer          25
  @ DRIVER MODE:  SCF:  T  FORCE:  T  STRESS:  F  VC:  F  ENSEMBLE:  F
  @ DRIVER MODE:  SCF:  T  FORCE:  T  STRESS:  F  VC:  F  ENSEMBLE:  F

     Using Slab Decomposition

     bravais-lattice index     =            0
     lattice parameter (alat)  =       1.8897  a.u.
     unit-cell volume          =    6658.9804 (a.u.)^3
     number of atoms/cell      =           56
     number of atomic types    =            5
     number of electrons       =       403.00
     number of Kohn-Sham states=          211
     kinetic-energy cutoff     =      29.3995  Ry
     charge density cutoff     =     293.9946  Ry
     scf convergence threshold =      7.3E-08
     mixing beta               =       0.0500
     number of iterations used =            8  plain     mixing
     Exchange-correlation= BEEF-VDW
                           (   1   4  43  14   2   0   0)

     celldm(1)=   1.889726  celldm(2)=   0.000000  celldm(3)=   0.000000
     celldm(4)=   0.000000  celldm(5)=   0.000000  celldm(6)=   0.000000

     crystal axes: (cart. coord. in units of alat)
               a(1) = (   6.579727   0.000000   0.000000 )
               a(2) = (  -0.000775   5.961596   0.000000 )
               a(3) = (   0.000000   0.000000  25.155947 )

     reciprocal axes: (cart. coord. in units 2 pi/alat)
               b(1) = (  0.151982  0.000020  0.000000 )
               b(2) = (  0.000000  0.167740  0.000000 )
               b(3) = (  0.000000  0.000000  0.039752 )

     PseudoPot. # 1 for Ti read from file:
     /storage/coda1/p-amedford6/0/shared/rich_project_chbe-medford/medford-share/data/pseudos_module/espresso/nninc/pbe/van/Ti.UPF
     MD5 check sum: 8e4df49b7f0d34bbd5052bf3f5ea0213
     Pseudo is Ultrasoft, Zval = 12.0
     Generated by new atomic code, or converted to UPF format
     Using radial grid of  851 points,  6 beta functions with:
                l(1) =   0
                l(2) =   0
                l(3) =   1
                l(4) =   1
                l(5) =   2
                l(6) =   2
     Q(r) pseudized with  8 coefficients,  rinner =    1.000   1.000   1.000
                                                       1.000   1.000

     PseudoPot. # 2 for O  read from file:
     /storage/coda1/p-amedford6/0/shared/rich_project_chbe-medford/medford-share/data/pseudos_module/espresso/nninc/pbe/van/O.UPF
     MD5 check sum: 78c19812648e8988a0fe644b0f25305e
     Pseudo is Ultrasoft, Zval =  6.0
     Generated by new atomic code, or converted to UPF format
     Using radial grid of  737 points,  4 beta functions with:
                l(1) =   0
                l(2) =   0
                l(3) =   1
                l(4) =   1
     Q(r) pseudized with  8 coefficients,  rinner =    0.800   0.800   0.800

     PseudoPot. # 3 for N  read from file:
     /storage/coda1/p-amedford6/0/shared/rich_project_chbe-medford/medford-share/data/pseudos_module/espresso/nninc/pbe/van/N.UPF
     MD5 check sum: 90d10febe142ad51ac9d5be1deb811c4
     Pseudo is Ultrasoft, Zval =  5.0
     Generated by new atomic code, or converted to UPF format
     Using radial grid of  729 points,  4 beta functions with:
                l(1) =   0
                l(2) =   0
                l(3) =   1
                l(4) =   1
     Q(r) pseudized with  8 coefficients,  rinner =    0.800   0.800   0.800

     PseudoPot. # 4 for C  read from file:
     /storage/coda1/p-amedford6/0/shared/rich_project_chbe-medford/medford-share/data/pseudos_module/espresso/nninc/pbe/van/C.UPF
     MD5 check sum: 1a69bf6b8db32088f5b2163dbdb77a27
     Pseudo is Ultrasoft, Zval =  4.0
     Generated by new atomic code, or converted to UPF format
     Using radial grid of  721 points,  4 beta functions with:
                l(1) =   0
                l(2) =   0
                l(3) =   1
                l(4) =   1
     Q(r) pseudized with  8 coefficients,  rinner =    0.800   0.800   0.800

     PseudoPot. # 5 for H  read from file:
     /storage/coda1/p-amedford6/0/shared/rich_project_chbe-medford/medford-share/data/pseudos_module/espresso/nninc/pbe/van/H.UPF
     MD5 check sum: b5ee9d7bfd3a09ee7748110bda690ff7
     Pseudo is Ultrasoft, Zval =  1.0
     Generated by new atomic code, or converted to UPF format
     Using radial grid of  615 points,  1 beta functions with:
                l(1) =   0
     Q(r) pseudized with  8 coefficients,  rinner =    0.800

     atomic species   valence    mass     pseudopotential
        Ti1           12.00    47.86700     Ti( 1.00)
        O1             6.00    15.99900     O ( 1.00)
        N1             5.00    14.00700     N ( 1.00)
        C1             4.00    12.01100     C ( 1.00)
        H1             1.00     1.00800     H ( 1.00)

     No symmetry found

   Cartesian axes

     site n.     atom                  positions (alat units)
         1           Ti1 tau(   1) = (   0.0004258   2.9801865   6.0000000  )
         2           Ti1 tau(   2) = (   3.2906075   1.4906267   6.0002472  )
         3           O1  tau(   3) = (   0.0006271   0.0005054   7.9858123  )
         4           O1  tau(   4) = (   3.2906025   0.0005020   7.3038282  )
         5           O1  tau(   5) = (   4.5942328   1.4918067   9.2879030  )
         6           O1  tau(   6) = (   1.9868534   1.4903216   9.2879459  )
         7           Ti1 tau(   7) = (   3.2907910   2.8959150   9.1758416  )
         8           Ti1 tau(   8) = (   0.0015273   1.4827037   9.2680791  )
         9           O1  tau(   9) = (   3.2828550   5.9398922  11.3444325  )
        10           O1  tau(  10) = (   0.0116148   5.9584955  10.6183126  )
        11           O1  tau(  11) = (   1.2785533   1.4626539  12.6279770  )
        12           O1  tau(  12) = (   5.2704455   1.4657548  12.6160130  )
        13           Ti1 tau(  13) = (   0.0600808   2.9393476  12.6134163  )
        14           Ti1 tau(  14) = (   3.3737088   1.4602624  12.5010433  )
        15           O1  tau(  15) = (   6.5684750   5.9323085  14.6353932  )
        16           O1  tau(  16) = (   3.2849856   5.9366180  13.9618146  )
        17           O1  tau(  17) = (   4.5362432   1.5114280  16.0576559  )
        18           O1  tau(  18) = (   2.0240554   1.5008084  16.0383298  )
        19           Ti1 tau(  19) = (   3.2703657   2.9522362  15.6888820  )
        20           Ti1 tau(  20) = (   6.5391562   1.4934284  15.8005638  )
        21           O1  tau(  21) = (   3.2904802   0.0005063   4.7018136  )
        22           O1  tau(  22) = (   6.5583345   5.9570231  17.1947061  )
        23           O1  tau(  23) = (   1.3043587   1.4918075   6.0039043  )
        24           O1  tau(  24) = (   5.2767064   1.4903225   6.0039473  )
        25           Ti1 tau(  25) = (   0.0000382   5.9609847   6.0000000  )
        26           Ti1 tau(  26) = (   3.2902200   4.4714249   6.0002472  )
        27           O1  tau(  27) = (   0.0002396   2.9813036   7.9858123  )
        28           O1  tau(  28) = (   3.2902150   2.9813002   7.3038282  )
        29           O1  tau(  29) = (   4.5938453   4.4726049   9.2879030  )
        30           O1  tau(  30) = (   1.9864658   4.4711199   9.2879459  )
        31           Ti1 tau(  31) = (   3.2891106   5.8743827   9.1763621  )
        32           Ti1 tau(  32) = (   0.0006254   4.4649316   9.2693709  )
        33           O1  tau(  33) = (   3.2888364   2.9620848  11.3424199  )
        34           O1  tau(  34) = (   0.0092240   2.9805883  10.6323155  )
        35           O1  tau(  35) = (   1.2785924   4.4508711  12.6313046  )
        36           O1  tau(  36) = (   5.2742027   4.4576360  12.6186982  )
        37           Ti1 tau(  37) = (   0.0560446   5.9134488  12.5469576  )
        38           Ti1 tau(  38) = (   3.3742563   4.4530221  12.5021653  )
        39           O1  tau(  39) = (   6.5655761   2.9369947  14.6516633  )
        40           O1  tau(  40) = (   3.2805149   2.9594171  13.8967751  )
        41           O1  tau(  41) = (   4.5308665   4.4203993  16.0704334  )
        42           O1  tau(  42) = (   2.0169005   4.4237906  16.0574931  )
        43           Ti1 tau(  43) = (   3.2493829   5.9208236  15.8028744  )
        44           Ti1 tau(  44) = (   6.5423592   4.6318136  16.0678394  )
        45           O1  tau(  45) = (   3.2900926   2.9813045   4.7018136  )
        46           O1  tau(  46) = (   1.3039711   4.4726057   6.0039043  )
        47           O1  tau(  47) = (   5.2763189   4.4711207   6.0039473  )
        48           N1  tau(  48) = (   0.1516996   2.6368831  18.6397825  )
        49           N1  tau(  49) = (   0.0343947   2.8734663  17.4441277  )
        50           C1  tau(  50) = (   0.1908864   3.7705318  19.5986308  )
        51           H1  tau(  51) = (   6.5333492   4.7333814  19.1494580  )
        52           H1  tau(  52) = (   6.0816938   3.5330213  20.4074400  )
        53           H1  tau(  53) = (   1.1988782   3.7880179  20.0220438  )
        54           O1  tau(  54) = (   3.2442500   5.9498283  18.2024067  )
        55           H1  tau(  55) = (   4.0366425   0.4867780  18.4672138  )
        56           H1  tau(  56) = (   2.4709518   0.5160301  18.4623371  )

     number of k points=    10  Fermi-Dirac smearing, width (Ry)=  0.0073
                       cart. coord. in units 2pi/alat
        k(    1) = (   0.0000000   0.0000000   0.0000000), wk =   0.1250000
        k(    2) = (   0.0000000   0.0419351   0.0000000), wk =   0.2500000
        k(    3) = (   0.0000000  -0.0838702   0.0000000), wk =   0.1250000
        k(    4) = (   0.0379955   0.0000049   0.0000000), wk =   0.2500000
        k(    5) = (   0.0379955   0.0419400   0.0000000), wk =   0.2500000
        k(    6) = (   0.0379955  -0.0838652   0.0000000), wk =   0.2500000
        k(    7) = (   0.0379955  -0.0419301   0.0000000), wk =   0.2500000
        k(    8) = (  -0.0759910  -0.0000099   0.0000000), wk =   0.1250000
        k(    9) = (  -0.0759910   0.0419252   0.0000000), wk =   0.2500000
        k(   10) = (  -0.0759910  -0.0838800   0.0000000), wk =   0.1250000

     Initial potential from superposition of free atoms

     starting charge  386.99914, renormalised to  403.00000

     negative rho (up, down):  1.445E-02 0.000E+00

     %%%%%%%%%%%%%%%%%%%%%%%%%%%%%%%%%%%%%%%%%%%%%%%%%%%%%%%%%%%%%%%%%%%%%%%%
     %                                                                      %
     % You are using vdW-DF, which was implemented by the Thonhauser group. %
     % Please cite the following two papers that made this development      %
     % possible and the two reviews that describe the various versions:     %
     %                                                                      %
     %   T. Thonhauser et al., PRL 115, 136402 (2015).                      %
     %   T. Thonhauser et al., PRB 76, 125112 (2007).                       %
     %   K. Berland et al., Rep. Prog. Phys. 78, 066501 (2015).             %
     %   D.C. Langreth et al., J. Phys.: Condens. Matter 21, 084203 (2009). %
     %                                                                      %
     %                                                                      %
     % If you are calculating the stress with vdW-DF, please also cite:     %
     %                                                                      %
     %   R. Sabatini et al., J. Phys.: Condens. Matter 24, 424209 (2012).   %
     %                                                                      %
     %%%%%%%%%%%%%%%%%%%%%%%%%%%%%%%%%%%%%%%%%%%%%%%%%%%%%%%%%%%%%%%%%%%%%%%%

     Adding external electric field

     Computed dipole along edir(3) :
        Dipole              -13.2286 Ry au,        -33.6236 Debye
        Dipole field         -0.0250 Ry au,

        Potential amp.        2.3141 Ry
        Total length         46.3494 bohr

     Starting wfcs are  305 atomic wfcs
  @ DRIVER MODE: Message from server: STATUS
  @ DRIVER MODE: Message from server: POSDATA
  @ DRIVER MODE: Reading and sharing cell
  @ DRIVER MODE: Reading and sharing positions
  @ DRIVER MODE: Received positions

     Self-consistent Calculation

     iteration #  1     ecut=    29.40 Ry     beta= 0.05
     Davidson diagonalization with overlap
     c_bands:  4 eigenvalues not converged
     c_bands:  2 eigenvalues not converged
     c_bands:  4 eigenvalues not converged
     c_bands:  1 eigenvalues not converged
     c_bands:  1 eigenvalues not converged
     c_bands:  1 eigenvalues not converged
     c_bands:  4 eigenvalues not converged
     c_bands:  1 eigenvalues not converged
     c_bands:  1 eigenvalues not converged
     ethr =  1.00E-05,  avg # of iterations = 29.9

[...]

     total energy              =   -2367.53719407 Ry
     estimated scf accuracy    <    6916.36629397 Ry

     iteration #  2     ecut=    29.40 Ry     beta= 0.05
     Davidson diagonalization with overlap
     ethr =  1.00E-02,  avg # of iterations = 22.9

[...]

     iteration # 60     ecut=    29.40 Ry     beta= 0.05
     Davidson diagonalization with overlap
     c_bands:  1 eigenvalues not converged
     ethr =  2.36E-11,  avg # of iterations = 13.3

[...]

     total energy              =   -2974.00305791 Ry
     estimated scf accuracy    <       0.00000009 Ry

     iteration # 61     ecut=    29.40 Ry     beta= 0.05
     Davidson diagonalization with overlap
     ethr =  2.14E-11,  avg # of iterations =  9.2

     negative rho (up, down):  1.458E-02 0.000E+00

     Adding external electric field

     Computed dipole along edir(3) :
        Dipole                0.9247 Ry au,          2.3504 Debye
        Dipole field          0.0017 Ry au,

        Potential amp.       -0.1618 Ry
        Total length         46.3494 bohr

     End of self-consistent calculation

          k = 0.0000 0.0000 0.0000 ( 18029 PWs)   bands (ev):

   -55.6023 -55.5682 -55.5614 -55.5540 -55.5254 -55.4356 -55.4124 -55.3953
   -55.3785 -55.3778 -55.3497 -55.3440 -55.0014 -54.8721 -54.5809 -54.5468
   -32.1036 -32.0847 -31.9531 -31.9356 -31.9112 -31.8951 -31.8675 -31.8646
   -31.8452 -31.7979 -31.7909 -31.7764 -31.7545 -31.7400 -31.7242 -31.7183
   -31.7066 -31.6942 -31.6886 -31.6594 -31.6526 -31.6399 -31.6052 -31.6009
   -31.5901 -31.5879 -31.5843 -31.5767 -31.5527 -31.5491 -31.5472 -31.5422
   -31.5306 -31.5289 -31.5193 -31.5106 -31.4896 -31.2708 -31.2001 -31.1296
   -31.1092 -31.0788 -30.9881 -30.8995 -30.8771 -30.8047 -30.7182 -30.6072
   -18.9008 -18.3027 -16.3015 -16.0685 -15.8429 -15.7514 -15.7101 -15.5036
   -15.4031 -15.3274 -15.2094 -15.1455 -15.1373 -15.1181 -15.1067 -15.1020
   -15.0432 -15.0392 -15.0372 -15.0236 -14.9980 -14.9504 -14.9357 -14.9315
   -14.8365 -14.7639 -14.7398 -14.7225 -14.6799 -14.6550 -14.2027 -13.0835
   -12.9670 -11.3162  -6.8722  -6.6914  -4.2081  -3.8580  -3.8226  -3.6758
    -3.5469  -3.5070  -3.4358  -3.3635  -3.2326  -3.2082  -3.0355  -2.8360
    -2.7760  -2.7472  -2.7014  -2.6301  -2.5153  -2.4591  -2.4087  -2.4061
    -2.3864  -2.3806  -2.3563  -2.3379  -2.2400  -2.2203  -2.1503  -2.1353
    -2.0861  -1.9856  -1.9559  -1.9148  -1.9052  -1.8775  -1.8641  -1.8504
    -1.8275  -1.8031  -1.7625  -1.6953  -1.6167  -1.5809  -1.5050  -1.4489
    -1.4082  -1.3482  -1.2125  -1.1371  -1.0891  -1.0568  -1.0472  -1.0290
    -0.9949  -0.9776  -0.8664  -0.7544  -0.7384  -0.6736  -0.6112  -0.5280
    -0.4944  -0.4335  -0.3693  -0.3516  -0.3465  -0.3100  -0.2687  -0.2218
    -0.0844  -0.0292   0.0044   0.0124   0.0740   0.1152   0.1466   0.2292
     0.2440   0.2836   0.3268   0.3581   0.3692   0.3790   0.4001   0.4308
     0.4356   0.6254   0.6683   0.7131   0.7475   0.7857   0.9316   0.9506
     1.0571   1.1627   1.3679   1.4411   1.5405   1.6331   2.0124   2.0582
     2.7603   3.5318   3.6195   3.6642   3.7019   3.7778   3.7889   3.9870
     4.0022   4.0414   4.1192

[...]

          k = 0.0380-0.0419 0.0000 ( 17876 PWs)   bands (ev):

[...]

          k =-0.0760-0.0000 0.0000 ( 17886 PWs)   bands (ev):

[...]

          k =-0.0760-0.0839 0.0000 ( 17948 PWs)   bands (ev):

   -55.5857 -55.5846 -55.5529 -55.5444 -55.5418 -55.4258 -55.4052 -55.3960
   -55.3942 -55.3629 -55.3591 -55.3510 -54.9993 -54.8741 -54.5639 -54.5637
   -31.9173 -31.9009 -31.9003 -31.8996 -31.8809 -31.8799 -31.8400 -31.8314
   -31.8045 -31.7835 -31.7719 -31.7634 -31.7587 -31.7151 -31.7115 -31.7088
   -31.7065 -31.7052 -31.7042 -31.7000 -31.6975 -31.6968 -31.6566 -31.6444
   -31.6235 -31.6173 -31.6103 -31.5958 -31.5952 -31.5926 -31.5864 -31.5777
   -31.5738 -31.5640 -31.5635 -31.5546 -31.4213 -31.2728 -31.2186 -31.1631
   -31.1314 -31.1058 -30.8899 -30.8897 -30.8009 -30.8007 -30.7615 -30.7615
   -18.8998 -18.2990 -15.7555 -15.6512 -15.5546 -15.5190 -15.4625 -15.4030
   -15.3882 -15.3068 -15.2832 -15.2796 -15.2186 -15.1967 -15.1618 -15.1493
   -15.1280 -15.1146 -15.1111 -15.0549 -15.0485 -15.0393 -15.0325 -15.0291
   -14.9622 -14.9198 -14.9162 -14.9117 -14.7871 -14.6616 -14.3822 -13.0690
   -13.0687 -11.3136  -6.8979  -6.6725  -4.1337  -3.8828  -3.7918  -3.2605
    -3.0383  -2.8360  -2.8077  -2.7130  -2.6980  -2.6679  -2.5355  -2.4957
    -2.4559  -2.4416  -2.4186  -2.4175  -2.4045  -2.3981  -2.3812  -2.3575
    -2.3294  -2.3037  -2.2739  -2.2659  -2.2538  -2.2353  -2.2222  -2.2050
    -2.2020  -2.1581  -2.1367  -2.1274  -2.0445  -1.9900  -1.8273  -1.7850
    -1.7407  -1.7311  -1.7060  -1.7005  -1.6685  -1.6545  -1.6028  -1.5909
    -1.4757  -1.3615  -1.3221  -1.2997  -1.2893  -1.2707  -1.1994  -1.0983
    -1.0738  -0.9993  -0.9947  -0.8912  -0.8772  -0.7970  -0.7864  -0.7619
    -0.7063  -0.6700  -0.6501  -0.5667  -0.5611  -0.5383  -0.4961  -0.4657
    -0.4084  -0.3527  -0.3233  -0.3140  -0.2765  -0.2519  -0.2111  -0.1605
    -0.0981  -0.0600   0.0354   0.1382   0.2222   0.3582   0.4683   0.4960
     0.5708   0.6073   0.6816   0.7111   0.7181   0.7794   0.7925   0.8819
     0.9387   0.9515   0.9875   1.1063   1.8045   1.8059   1.8778   1.8781
     2.7853   3.7567   3.8664   3.9094   3.9301   4.0051   4.0463   4.0662
     4.0687   4.1047   4.2086

     the Fermi energy is     3.5312 ev

!    total energy              =   -2974.00311118 Ry
     estimated scf accuracy    <       0.00000006 Ry
     smearing contrib. (-TS)   =      -0.02180990 Ry
     internal energy E=F+TS    =   -2973.98130128 Ry

     The total energy is F=E-TS. E is the sum of the following terms:
     one-electron contribution =  -23851.72514023 Ry
     hartree contribution      =   12020.44868718 Ry
     xc contribution           =    -494.03957274 Ry
     ewald contribution        =    9351.33311081 Ry
     electric field correction =       0.00161369 Ry

     convergence has been achieved in  61 iterations

     Forces acting on atoms (cartesian axes, Ry/au):

     atom    1 type  1   force =     0.00016137   -0.00020764    0.09636054
     atom    2 type  1   force =    -0.00019156   -0.00044810   -0.17538202
     atom    3 type  2   force =     0.00001821   -0.00014758   -0.02471470
     atom    4 type  2   force =     0.00005442   -0.00161778    0.05341392
     atom    5 type  2   force =    -0.01198966   -0.00148522    0.00369070
     atom    6 type  2   force =     0.01344362   -0.00064402    0.00222543
     atom    7 type  1   force =    -0.00108835    0.00056363   -0.00697674
     atom    8 type  1   force =     0.00064717    0.00919632    0.02676617
     atom    9 type  2   force =     0.00017772    0.00020365   -0.00046974
     atom   10 type  2   force =    -0.00157967   -0.00030338   -0.01790130
     atom   11 type  2   force =     0.00091004    0.00089433   -0.00000282
     atom   12 type  2   force =    -0.00061152    0.00059868   -0.00003740
     atom   13 type  1   force =    -0.00027067    0.00024108   -0.00033364
     atom   14 type  1   force =     0.00028126    0.00026479    0.00006428
     atom   15 type  2   force =     0.00008354    0.00021046   -0.00030522
     atom   16 type  2   force =     0.00001193    0.00020909    0.00081139
     atom   17 type  2   force =     0.00103808    0.00004032    0.00014277
     atom   18 type  2   force =    -0.00135818   -0.00004966   -0.00004398
     atom   19 type  1   force =    -0.00006330    0.00131715   -0.00006419
     atom   20 type  1   force =    -0.00026340   -0.00016987   -0.00016574
     atom   21 type  2   force =     0.00009977    0.00001183    0.10319890
     atom   22 type  2   force =    -0.00013346    0.00033575    0.00045629
     atom   23 type  2   force =    -0.07144996   -0.00008873   -0.02778096
     atom   24 type  2   force =     0.07143867    0.00035545   -0.02777629
     atom   25 type  1   force =     0.00001706   -0.00033015    0.09609687
     atom   26 type  1   force =    -0.00030303   -0.00045244   -0.17575221
     atom   27 type  2   force =     0.00008807   -0.00025057   -0.02371111
     atom   28 type  2   force =     0.00012092   -0.00130010    0.05281746
     atom   29 type  2   force =    -0.01225867    0.00021114    0.00357053
     atom   30 type  2   force =     0.01359901    0.00042579    0.00206671
     atom   31 type  1   force =    -0.00118079    0.00350204   -0.01017018
     atom   32 type  1   force =     0.00082936   -0.01100356    0.02705911
     atom   33 type  2   force =     0.00010319   -0.00000252    0.00057861
     atom   34 type  2   force =    -0.00116212   -0.00123287   -0.02345339
     atom   35 type  2   force =     0.00082914   -0.00052020   -0.00011384
     atom   36 type  2   force =    -0.00058805   -0.00018145   -0.00014145
     atom   37 type  1   force =    -0.00056719    0.00019812   -0.00040845
     atom   38 type  1   force =     0.00029457   -0.00025947    0.00012091
     atom   39 type  2   force =     0.00011914    0.00047156    0.00009028
     atom   40 type  2   force =     0.00019811    0.00015043   -0.00055671
     atom   41 type  2   force =     0.00080320    0.00069796    0.00034804
     atom   42 type  2   force =    -0.00088243    0.00068122    0.00020571
     atom   43 type  1   force =    -0.00000450   -0.00093410   -0.00082710
     atom   44 type  1   force =    -0.00026374    0.00112806    0.00036672
     atom   45 type  2   force =     0.00008633   -0.00002472    0.10319560
     atom   46 type  2   force =    -0.07145556   -0.00002004   -0.02778665
     atom   47 type  2   force =     0.07143829    0.00039340   -0.02778328
     atom   48 type  3   force =    -0.00043199   -0.00169859    0.00029413
     atom   49 type  3   force =     0.00010436   -0.00011337    0.00042118
     atom   50 type  4   force =     0.00171927    0.00362431   -0.00113149
     atom   51 type  5   force =     0.00078700   -0.00054987   -0.00162942
     atom   52 type  5   force =    -0.00137618   -0.00249003    0.00138734
     atom   53 type  5   force =     0.00003583   -0.00019832   -0.00052842
     atom   54 type  2   force =     0.00163578    0.00012567   -0.00020570
     atom   55 type  5   force =    -0.00061746   -0.00007669   -0.00012672
     atom   56 type  5   force =    -0.00108299    0.00074883    0.00053124

     Total force =     0.367760     Total SCF correction =     0.000490
  @ DRIVER MODE: Message from server: STATUS
  @ DRIVER MODE: Message from server: GETFORCE
  @ DRIVER MODE: Returning v,forces,stress,ensemble

     Writing output data file ./calc.save/
  @ DRIVER MODE: Message from server: EXIT
  @ DRIVE MODE: Exiting

     General routines

     Parallel routines

   This run was terminated on:   0:43:36  16Sep2021

   JOB DONE.