     Program PWSCF v.6.7GPU starts on 24Sep2021 at  3:50: 5

     R & G space division:  proc/nbgrp/npool/nimage =       8
     Reading input from /storage/home/hcoda1/3/ntian30/research/carbon/CxH_vib/H2O_calc/ads_slab/CH3NHHHO_a/out_0042/pw.inp
Warning: card &CELL ignored
Warning: card   CELL_DYNAMICS='IPI', ignored
Warning: card / ignored

     Current dimensions of program PWSCF are:
     Max number of different atomic species (ntypx) = 10
     Max number of k-points (npk) =  40000
     Max angular momentum in pseudopotentials (lmaxx) =  3
     Presently no symmetry can be used with electric field

     Message from routine cell_base_init:
     DEPRECATED: use true lattice parameter, not A to a.u. conversion factor

     IMPORTANT: XC functional enforced from input :
     Exchange-correlation= BEEF-VDW
                           (   1   4  43  14   2   0   0)
     Any further DFT definition will be discarded
     Please, verify this is what you really want

  @ DRIVER MODE: Connecting to
 qe_1139763_2947311.sched-torque.pace.gatech.edudlclvb3n_scratch
  using UNIX socket
  @ DRIVER MODE: Message from server: STATUS
  @ DRIVER MODE: Message from server: INIT
  @ DRIVER MODE: Receiving replica           0          -1
  @ DRIVER MODE: Receiving encoded integer          25
  @ DRIVER MODE:  SCF:  T  FORCE:  T  STRESS:  F  VC:  F  ENSEMBLE:  F
  @ DRIVER MODE:  SCF:  T  FORCE:  T  STRESS:  F  VC:  F  ENSEMBLE:  F

     Using Slab Decomposition

     bravais-lattice index     =            0
     lattice parameter (alat)  =       1.8897  a.u.
     unit-cell volume          =    6658.9804 (a.u.)^3
     number of atoms/cell      =           56
     number of atomic types    =            5
     number of electrons       =       399.00
     number of Kohn-Sham states=          209
     kinetic-energy cutoff     =      29.3995  Ry
     charge density cutoff     =     293.9946  Ry
     scf convergence threshold =      7.3E-08
     mixing beta               =       0.0500
     number of iterations used =            8  plain     mixing
     Exchange-correlation= BEEF-VDW
                           (   1   4  43  14   2   0   0)

     celldm(1)=   1.889726  celldm(2)=   0.000000  celldm(3)=   0.000000
     celldm(4)=   0.000000  celldm(5)=   0.000000  celldm(6)=   0.000000

     crystal axes: (cart. coord. in units of alat)
               a(1) = (   6.579727   0.000000   0.000000 )
               a(2) = (  -0.000775   5.961596   0.000000 )
               a(3) = (   0.000000   0.000000  25.155947 )

     reciprocal axes: (cart. coord. in units 2 pi/alat)
               b(1) = (  0.151982  0.000020  0.000000 )
               b(2) = (  0.000000  0.167740  0.000000 )
               b(3) = (  0.000000  0.000000  0.039752 )

     PseudoPot. # 1 for Ti read from file:
     /storage/coda1/p-amedford6/0/shared/rich_project_chbe-medford/medford-share/data/pseudos_module/espresso/nninc/pbe/van/Ti.UPF
     MD5 check sum: 8e4df49b7f0d34bbd5052bf3f5ea0213
     Pseudo is Ultrasoft, Zval = 12.0
     Generated by new atomic code, or converted to UPF format
     Using radial grid of  851 points,  6 beta functions with:
                l(1) =   0
                l(2) =   0
                l(3) =   1
                l(4) =   1
                l(5) =   2
                l(6) =   2
     Q(r) pseudized with  8 coefficients,  rinner =    1.000   1.000   1.000
                                                       1.000   1.000

     PseudoPot. # 2 for O  read from file:
     /storage/coda1/p-amedford6/0/shared/rich_project_chbe-medford/medford-share/data/pseudos_module/espresso/nninc/pbe/van/O.UPF
     MD5 check sum: 78c19812648e8988a0fe644b0f25305e
     Pseudo is Ultrasoft, Zval =  6.0
     Generated by new atomic code, or converted to UPF format
     Using radial grid of  737 points,  4 beta functions with:
                l(1) =   0
                l(2) =   0
                l(3) =   1
                l(4) =   1
     Q(r) pseudized with  8 coefficients,  rinner =    0.800   0.800   0.800

     PseudoPot. # 3 for N  read from file:
     /storage/coda1/p-amedford6/0/shared/rich_project_chbe-medford/medford-share/data/pseudos_module/espresso/nninc/pbe/van/N.UPF
     MD5 check sum: 90d10febe142ad51ac9d5be1deb811c4
     Pseudo is Ultrasoft, Zval =  5.0
     Generated by new atomic code, or converted to UPF format
     Using radial grid of  729 points,  4 beta functions with:
                l(1) =   0
                l(2) =   0
                l(3) =   1
                l(4) =   1
     Q(r) pseudized with  8 coefficients,  rinner =    0.800   0.800   0.800

     PseudoPot. # 4 for C  read from file:
     /storage/coda1/p-amedford6/0/shared/rich_project_chbe-medford/medford-share/data/pseudos_module/espresso/nninc/pbe/van/C.UPF
     MD5 check sum: 1a69bf6b8db32088f5b2163dbdb77a27
     Pseudo is Ultrasoft, Zval =  4.0
     Generated by new atomic code, or converted to UPF format
     Using radial grid of  721 points,  4 beta functions with:
                l(1) =   0
                l(2) =   0
                l(3) =   1
                l(4) =   1
     Q(r) pseudized with  8 coefficients,  rinner =    0.800   0.800   0.800

     PseudoPot. # 5 for H  read from file:
     /storage/coda1/p-amedford6/0/shared/rich_project_chbe-medford/medford-share/data/pseudos_module/espresso/nninc/pbe/van/H.UPF
     MD5 check sum: b5ee9d7bfd3a09ee7748110bda690ff7
     Pseudo is Ultrasoft, Zval =  1.0
     Generated by new atomic code, or converted to UPF format
     Using radial grid of  615 points,  1 beta functions with:
                l(1) =   0
     Q(r) pseudized with  8 coefficients,  rinner =    0.800

     atomic species   valence    mass     pseudopotential
        Ti1           12.00    47.86700     Ti( 1.00)
        O1             6.00    15.99900     O ( 1.00)
        N1             5.00    14.00700     N ( 1.00)
        C1             4.00    12.01100     C ( 1.00)
        H1             1.00     1.00800     H ( 1.00)

     No symmetry found

   Cartesian axes

     site n.     atom                  positions (alat units)
         1           Ti1 tau(   1) = (   0.0004258   2.9801865   6.0000000  )
         2           Ti1 tau(   2) = (   3.2906075   1.4906267   6.0002472  )
         3           O1  tau(   3) = (   0.0006271   0.0005054   7.9858123  )
         4           O1  tau(   4) = (   3.2906025   0.0005020   7.3038282  )
         5           O1  tau(   5) = (   4.5942328   1.4918067   9.2879030  )
         6           O1  tau(   6) = (   1.9868534   1.4903216   9.2879459  )
         7           Ti1 tau(   7) = (   3.2907910   2.8959150   9.1758416  )
         8           Ti1 tau(   8) = (   0.0015273   1.4827037   9.2680791  )
         9           O1  tau(   9) = (   3.2949530   5.9481847  11.3666340  )
        10           O1  tau(  10) = (   0.0116148   5.9584955  10.6183126  )
        11           O1  tau(  11) = (   1.2732546   1.4916747  12.6876809  )
        12           O1  tau(  12) = (   5.3119445   1.4892451  12.6851550  )
        13           Ti1 tau(  13) = (   6.5688325   2.9465269  12.5174317  )
        14           Ti1 tau(  14) = (   3.2996026   1.2975375  12.7241829  )
        15           O1  tau(  15) = (   0.0172205   5.8793003  14.6619373  )
        16           O1  tau(  16) = (   3.2917661   0.0702926  14.0149596  )
        17           O1  tau(  17) = (   4.5643074   1.5920826  16.1346482  )
        18           O1  tau(  18) = (   2.0131957   1.5841813  16.0575481  )
        19           Ti1 tau(  19) = (   3.2662748   3.0407108  15.6947786  )
        20           Ti1 tau(  20) = (   0.0618610   1.3206105  15.7998127  )
        21           O1  tau(  21) = (   3.2904802   0.0005063   4.7018136  )
        22           O1  tau(  22) = (   0.0233933   0.1570098  17.1842078  )
        23           O1  tau(  23) = (   1.3043587   1.4918075   6.0039043  )
        24           O1  tau(  24) = (   5.2767064   1.4903225   6.0039473  )
        25           Ti1 tau(  25) = (   0.0000382   5.9609847   6.0000000  )
        26           Ti1 tau(  26) = (   3.2902200   4.4714249   6.0002472  )
        27           O1  tau(  27) = (   0.0002396   2.9813036   7.9858123  )
        28           O1  tau(  28) = (   3.2902150   2.9813002   7.3038282  )
        29           O1  tau(  29) = (   4.5938453   4.4726049   9.2879030  )
        30           O1  tau(  30) = (   1.9864658   4.4711199   9.2879459  )
        31           Ti1 tau(  31) = (   3.2891106   5.8743827   9.1763621  )
        32           Ti1 tau(  32) = (   0.0006254   4.4649316   9.2693709  )
        33           O1  tau(  33) = (   3.2948289   2.9949798  11.3176834  )
        34           O1  tau(  34) = (   0.0092240   2.9805883  10.6323155  )
        35           O1  tau(  35) = (   1.2828652   4.4571597  12.6432593  )
        36           O1  tau(  36) = (   5.3079144   4.4605214  12.6419564  )
        37           Ti1 tau(  37) = (   0.0266940   5.9154698  12.5044250  )
        38           Ti1 tau(  38) = (   3.3008436   4.3760658  12.4353554  )
        39           O1  tau(  39) = (   6.5507285   3.0461080  14.9005035  )
        40           O1  tau(  40) = (   3.2938476   3.0131494  13.9233183  )
        41           O1  tau(  41) = (   4.5350990   4.4864192  16.1518712  )
        42           O1  tau(  42) = (   1.9883536   4.4285065  16.1690201  )
        43           Ti1 tau(  43) = (   3.3916644   0.0784854  16.2809578  )
        44           Ti1 tau(  44) = (   0.0590441   4.5159846  16.0209683  )
        45           O1  tau(  45) = (   3.2900926   2.9813045   4.7018136  )
        46           O1  tau(  46) = (   1.3039711   4.4726057   6.0039043  )
        47           O1  tau(  47) = (   5.2763189   4.4711207   6.0039473  )
        48           N1  tau(  48) = (   6.2706434   3.3837210  18.0754458  )
        49           C1  tau(  49) = (   0.7642246   3.1223808  19.0622891  )
        50           H1  tau(  50) = (   1.3158356   4.0410886  19.2409436  )
        51           H1  tau(  51) = (   0.3597117   2.7583523  20.0089400  )
        52           H1  tau(  52) = (   1.4517744   2.3810259  18.6668870  )
        53           H1  tau(  53) = (   5.6745199   4.1349376  18.4206214  )
        54           H1  tau(  54) = (   5.6587021   2.5696541  18.0251127  )
        55           O1  tau(  55) = (   3.1972372   0.0910451  18.1323504  )
        56           H1  tau(  56) = (   2.2767176   0.1080423  18.4377142  )

     number of k points=    10  Fermi-Dirac smearing, width (Ry)=  0.0073
                       cart. coord. in units 2pi/alat
        k(    1) = (   0.0000000   0.0000000   0.0000000), wk =   0.1250000
        k(    2) = (   0.0000000   0.0419351   0.0000000), wk =   0.2500000
        k(    3) = (   0.0000000  -0.0838702   0.0000000), wk =   0.1250000
        k(    4) = (   0.0379955   0.0000049   0.0000000), wk =   0.2500000
        k(    5) = (   0.0379955   0.0419400   0.0000000), wk =   0.2500000
        k(    6) = (   0.0379955  -0.0838652   0.0000000), wk =   0.2500000
        k(    7) = (   0.0379955  -0.0419301   0.0000000), wk =   0.2500000
        k(    8) = (  -0.0759910  -0.0000099   0.0000000), wk =   0.1250000
        k(    9) = (  -0.0759910   0.0419252   0.0000000), wk =   0.2500000
        k(   10) = (  -0.0759910  -0.0838800   0.0000000), wk =   0.1250000

     Initial potential from superposition of free atoms

     starting charge  382.99914, renormalised to  399.00000

     negative rho (up, down):  1.588E-02 0.000E+00

     %%%%%%%%%%%%%%%%%%%%%%%%%%%%%%%%%%%%%%%%%%%%%%%%%%%%%%%%%%%%%%%%%%%%%%%%
     %                                                                      %
     % You are using vdW-DF, which was implemented by the Thonhauser group. %
     % Please cite the following two papers that made this development      %
     % possible and the two reviews that describe the various versions:     %
     %                                                                      %
     %   T. Thonhauser et al., PRL 115, 136402 (2015).                      %
     %   T. Thonhauser et al., PRB 76, 125112 (2007).                       %
     %   K. Berland et al., Rep. Prog. Phys. 78, 066501 (2015).             %
     %   D.C. Langreth et al., J. Phys.: Condens. Matter 21, 084203 (2009). %
     %                                                                      %
     %                                                                      %
     % If you are calculating the stress with vdW-DF, please also cite:     %
     %                                                                      %
     %   R. Sabatini et al., J. Phys.: Condens. Matter 24, 424209 (2012).   %
     %                                                                      %
     %%%%%%%%%%%%%%%%%%%%%%%%%%%%%%%%%%%%%%%%%%%%%%%%%%%%%%%%%%%%%%%%%%%%%%%%

     Adding external electric field

     Computed dipole along edir(3) :
        Dipole              -10.6970 Ry au,        -27.1890 Debye
        Dipole field         -0.0202 Ry au,

        Potential amp.        1.8713 Ry
        Total length         46.3494 bohr

     Starting wfcs are  302 atomic wfcs
  @ DRIVER MODE: Message from server: STATUS
  @ DRIVER MODE: Message from server: POSDATA
  @ DRIVER MODE: Reading and sharing cell
  @ DRIVER MODE: Reading and sharing positions
  @ DRIVER MODE: Received positions

     Self-consistent Calculation

     iteration #  1     ecut=    29.40 Ry     beta= 0.05
     Davidson diagonalization with overlap
     c_bands:  3 eigenvalues not converged
     c_bands:  2 eigenvalues not converged
     c_bands:  2 eigenvalues not converged
     c_bands:  5 eigenvalues not converged
     c_bands:  2 eigenvalues not converged
     c_bands:  5 eigenvalues not converged
     c_bands:  4 eigenvalues not converged
     c_bands:  3 eigenvalues not converged
     ethr =  1.00E-05,  avg # of iterations = 21.6

[...]

     total energy              =   -2438.24897947 Ry
     estimated scf accuracy    <    5770.50263751 Ry

     iteration #  2     ecut=    29.40 Ry     beta= 0.05
     Davidson diagonalization with overlap
     ethr =  1.00E-02,  avg # of iterations = 23.1

[...]

     iteration # 54     ecut=    29.40 Ry     beta= 0.05
     Davidson diagonalization with overlap
     c_bands:  1 eigenvalues not converged
     ethr =  3.43E-07,  avg # of iterations = 12.1

[...]

     total energy              =   -2955.26291558 Ry
     estimated scf accuracy    <       0.00000008 Ry

     iteration # 84     ecut=    29.40 Ry     beta= 0.05
     Davidson diagonalization with overlap
     ethr =  2.10E-11,  avg # of iterations =  5.3

     negative rho (up, down):  1.647E-02 0.000E+00

     Adding external electric field

     Computed dipole along edir(3) :
        Dipole                0.9760 Ry au,          2.4808 Debye
        Dipole field          0.0018 Ry au,

        Potential amp.       -0.1707 Ry
        Total length         46.3494 bohr

     End of self-consistent calculation

          k = 0.0000 0.0000 0.0000 ( 18029 PWs)   bands (ev):

   -55.6816 -55.6357 -55.6016 -55.5118 -55.5009 -55.4651 -55.4647 -55.4626
   -55.4306 -55.4171 -55.3663 -55.2717 -55.2255 -55.2114 -54.6114 -54.5774
   -32.1211 -32.0184 -32.0111 -31.9870 -31.9675 -31.9550 -31.9265 -31.9003
   -31.8929 -31.8817 -31.8815 -31.7888 -31.7884 -31.7735 -31.7479 -31.7445
   -31.7430 -31.7416 -31.7414 -31.7045 -31.6933 -31.6637 -31.6606 -31.6547
   -31.6490 -31.6430 -31.6350 -31.6047 -31.6026 -31.5970 -31.5917 -31.5884
   -31.5775 -31.5623 -31.5480 -31.5225 -31.4630 -31.4542 -31.4444 -31.4213
   -31.4180 -31.4133 -31.0175 -30.9310 -30.9086 -30.8350 -30.7486 -30.6368
   -16.5111 -16.2952 -16.1492 -15.9806 -15.8395 -15.8108 -15.7709 -15.5977
   -15.5050 -15.4413 -15.2407 -15.2192 -15.1744 -15.1627 -15.1576 -15.1347
   -15.1250 -15.0800 -15.0616 -15.0583 -15.0482 -15.0307 -14.9942 -14.9519
   -14.9084 -14.8878 -14.7754 -14.7189 -14.6782 -14.4671 -14.3991 -13.1099
   -12.9935  -9.9868  -6.0155  -4.5917  -4.0618  -3.7634  -3.6433  -3.5457
    -3.5343  -3.4140  -3.4050  -3.1645  -3.0410  -2.9822  -2.9036  -2.7814
    -2.7496  -2.6767  -2.6371  -2.5864  -2.5675  -2.5310  -2.4907  -2.4469
    -2.4221  -2.3944  -2.3608  -2.3047  -2.2933  -2.1951  -2.1807  -2.1579
    -2.0519  -2.0112  -1.9711  -1.9530  -1.9483  -1.9290  -1.8904  -1.8839
    -1.8643  -1.7861  -1.7171  -1.6710  -1.6361  -1.6082  -1.3304  -1.2453
    -1.2014  -1.1866  -1.0830  -1.0592  -1.0312  -1.0177  -0.9811  -0.9647
    -0.8526  -0.8368  -0.7685  -0.7182  -0.7060  -0.6657  -0.5478  -0.5109
    -0.4598  -0.4192  -0.3687  -0.3519  -0.3468  -0.2520  -0.2255  -0.1910
    -0.0823  -0.0659  -0.0028   0.0822   0.0918   0.1434   0.1671   0.2269
     0.2308   0.2863   0.3160   0.3381   0.3916   0.4241   0.4602   0.4934
     0.5105   0.6127   0.6880   0.7008   0.7977   0.8725   0.9261   1.0299
     1.0977   1.3616   1.4152   1.4389   1.6071   1.9824   2.0278   3.4460
     3.5951   3.6106   3.6855   3.6979   3.7749   3.9355   3.9606   4.0955
     4.1348

[...]

          k = 0.0380-0.0419 0.0000 ( 17876 PWs)   bands (ev):

[...]

          k =-0.0760-0.0000 0.0000 ( 17886 PWs)   bands (ev):

[...]

          k =-0.0760-0.0839 0.0000 ( 17948 PWs)   bands (ev):

   -55.6806 -55.6188 -55.6184 -55.5106 -55.4897 -55.4738 -55.4660 -55.4483
   -55.4466 -55.4107 -55.3728 -55.2669 -55.2265 -55.2161 -54.5948 -54.5938
   -31.9514 -31.9437 -31.9365 -31.9362 -31.9293 -31.9122 -31.9117 -31.8953
   -31.8509 -31.8098 -31.7918 -31.7790 -31.7750 -31.7734 -31.7516 -31.7423
   -31.7387 -31.7381 -31.7275 -31.7240 -31.7165 -31.7154 -31.7006 -31.6767
   -31.6705 -31.6659 -31.6567 -31.6463 -31.6311 -31.6301 -31.6279 -31.6225
   -31.6209 -31.5955 -31.5949 -31.5541 -31.5296 -31.4942 -31.4673 -31.4624
   -31.4468 -31.4173 -30.9217 -30.9209 -30.8310 -30.8297 -30.7922 -30.7914
   -16.4811 -15.9453 -15.8582 -15.7434 -15.6204 -15.6071 -15.4960 -15.4129
   -15.4096 -15.3780 -15.3483 -15.3205 -15.3109 -15.2941 -15.2471 -15.2036
   -15.1683 -15.1406 -15.1386 -15.0928 -15.0857 -15.0742 -15.0616 -15.0393
   -15.0056 -14.9559 -14.9415 -14.9024 -14.7648 -14.6891 -14.5894 -13.0956
   -13.0951  -9.9888  -5.9955  -4.5892  -4.0261  -3.7204  -3.0550  -2.9587
    -2.8469  -2.7223  -2.7142  -2.6988  -2.6412  -2.6103  -2.5843  -2.5429
    -2.4858  -2.4664  -2.4455  -2.4290  -2.4072  -2.3891  -2.3805  -2.3754
    -2.3388  -2.3211  -2.3128  -2.2717  -2.2641  -2.2481  -2.2273  -2.2103
    -2.1795  -2.1752  -2.1457  -2.0944  -2.0451  -1.9708  -1.8781  -1.7967
    -1.7856  -1.7671  -1.7177  -1.7112  -1.6657  -1.6579  -1.6330  -1.5474
    -1.4351  -1.3852  -1.2743  -1.2542  -1.2277  -1.1886  -1.1352  -1.1210
    -1.0754  -1.0450  -0.9852  -0.8841  -0.8541  -0.7988  -0.6855  -0.6490
    -0.6094  -0.5894  -0.5773  -0.5525  -0.5356  -0.4959  -0.4679  -0.4227
    -0.3801  -0.3461  -0.3192  -0.2940  -0.2500  -0.1450  -0.0509  -0.0135
     0.0881   0.1343   0.1761   0.2079   0.2691   0.4047   0.4317   0.5277
     0.5423   0.5714   0.6730   0.6832   0.7842   0.8086   0.8466   0.8876
     0.9123   0.9335   0.9531   1.7768   1.7853   1.8482   1.8483   3.7389
     3.9316   3.9465   3.9628   4.0074   4.0148   4.0415   4.0473   4.1139
     4.1249

     the Fermi energy is     3.4849 ev

!    total energy              =   -2955.26293846 Ry
     estimated scf accuracy    <       0.00000003 Ry
     smearing contrib. (-TS)   =      -0.01952714 Ry
     internal energy E=F+TS    =   -2955.24341132 Ry

     The total energy is F=E-TS. E is the sum of the following terms:
     one-electron contribution =  -23741.08893890 Ry
     hartree contribution      =   11962.66773201 Ry
     xc contribution           =    -489.73789521 Ry
     ewald contribution        =    9312.91389312 Ry
     electric field correction =       0.00179767 Ry

     convergence has been achieved in  84 iterations

     Forces acting on atoms (cartesian axes, Ry/au):

     atom    1 type  1   force =     0.00009738   -0.00029111    0.09415338
     atom    2 type  1   force =    -0.00004124    0.00043164   -0.17542450
     atom    3 type  2   force =     0.00003906   -0.00033463   -0.02111576
     atom    4 type  2   force =     0.00002278   -0.00197824    0.05462450
     atom    5 type  2   force =    -0.00674446   -0.00244833    0.00301259
     atom    6 type  2   force =     0.00834867   -0.00187272    0.00243298
     atom    7 type  1   force =    -0.00017597   -0.00405196    0.00898169
     atom    8 type  1   force =     0.00031673    0.00082723    0.00313931
     atom    9 type  2   force =    -0.00058130    0.00058759   -0.00019943
     atom   10 type  2   force =    -0.00139052    0.00173553   -0.00927054
     atom   11 type  2   force =     0.00004455   -0.00015962    0.00037701
     atom   12 type  2   force =    -0.00006141   -0.00011276   -0.00030542
     atom   13 type  1   force =    -0.00048912   -0.00025337    0.00005285
     atom   14 type  1   force =     0.00001083   -0.00033540   -0.00005392
     atom   15 type  2   force =    -0.00030292   -0.00012879   -0.00013642
     atom   16 type  2   force =     0.00031712   -0.00055318   -0.00039803
     atom   17 type  2   force =     0.00031041   -0.00025597   -0.00086251
     atom   18 type  2   force =    -0.00049206    0.00014714   -0.00012471
     atom   19 type  1   force =     0.00059571   -0.00069145    0.00072610
     atom   20 type  1   force =     0.00034891    0.00054534    0.00062456
     atom   21 type  2   force =     0.00007573    0.00004439    0.10326377
     atom   22 type  2   force =    -0.00047177    0.00021865    0.00028804
     atom   23 type  2   force =    -0.07191680   -0.00019023   -0.02721546
     atom   24 type  2   force =     0.07184487    0.00024909   -0.02725760
     atom   25 type  1   force =     0.00003085   -0.00023479    0.09381753
     atom   26 type  1   force =    -0.00006385   -0.00132960   -0.17560650
     atom   27 type  2   force =     0.00015580   -0.00011586   -0.01987878
     atom   28 type  2   force =     0.00006878   -0.00032265    0.04990051
     atom   29 type  2   force =    -0.00613647    0.00232308    0.00251497
     atom   30 type  2   force =     0.00762776    0.00268853    0.00196534
     atom   31 type  1   force =     0.00002526    0.00839615   -0.00274948
     atom   32 type  1   force =     0.00011672   -0.00235740    0.00260958
     atom   33 type  2   force =     0.00005038   -0.00001215   -0.00006341
     atom   34 type  2   force =    -0.00211649   -0.00249040   -0.01004840
     atom   35 type  2   force =    -0.00014176   -0.00001852    0.00052999
     atom   36 type  2   force =    -0.00007655    0.00007109   -0.00008029
     atom   37 type  1   force =     0.00015965   -0.00009222   -0.00023166
     atom   38 type  1   force =     0.00006108   -0.00017894    0.00024003
     atom   39 type  2   force =    -0.00011501    0.00011562   -0.00032777
     atom   40 type  2   force =     0.00016798   -0.00025404   -0.00011492
     atom   41 type  2   force =    -0.00039046   -0.00068872    0.00062193
     atom   42 type  2   force =     0.00044171    0.00004896   -0.00014984
     atom   43 type  1   force =    -0.00067079   -0.00051372    0.00018214
     atom   44 type  1   force =     0.00028782    0.00041208   -0.00044334
     atom   45 type  2   force =     0.00006723   -0.00006975    0.10306150
     atom   46 type  2   force =    -0.07193677   -0.00004382   -0.02724743
     atom   47 type  2   force =     0.07189933    0.00039347   -0.02729749
     atom   48 type  3   force =    -0.00019990   -0.00014370    0.00150613
     atom   49 type  4   force =     0.00130899    0.00114550    0.00075445
     atom   50 type  5   force =     0.00063251    0.00081579   -0.00007687
     atom   51 type  5   force =    -0.00009516    0.00074112    0.00012932
     atom   52 type  5   force =     0.00028903   -0.00021947   -0.00071430
     atom   53 type  5   force =    -0.00005952    0.00105139   -0.00062227
     atom   54 type  5   force =    -0.00037861   -0.00070443   -0.00162063
     atom   55 type  2   force =    -0.00046102    0.00037857    0.00057475
     atom   56 type  5   force =    -0.00025371    0.00008000   -0.00044730

     Total force =     0.362237     Total SCF correction =     0.000368
  @ DRIVER MODE: Message from server: STATUS
  @ DRIVER MODE: Message from server: GETFORCE
  @ DRIVER MODE: Returning v,forces,stress,ensemble

     Writing output data file ./calc.save/
  @ DRIVER MODE: Message from server: EXIT
  @ DRIVE MODE: Exiting

     General routines

     Parallel routines

   This run was terminated on:   4:17:38  24Sep2021

   JOB DONE.