     Program PWSCF v.6.7GPU starts on 23Aug2021 at 21:19:32

     R & G space division:  proc/nbgrp/npool/nimage =       6
     Reading input from /storage/home/hcoda1/3/ntian30/research/carbon/CH_vib/ads_slab/CHN_a/out_0018/pw.inp
Warning: card &CELL ignored
Warning: card   CELL_DYNAMICS='IPI', ignored
Warning: card / ignored

     Current dimensions of program PWSCF are:
     Max number of different atomic species (ntypx) = 10
     Max number of k-points (npk) =  40000
     Max angular momentum in pseudopotentials (lmaxx) =  3
     Presently no symmetry can be used with electric field

     Message from routine cell_base_init:
     DEPRECATED: use true lattice parameter, not A to a.u. conversion factor

     IMPORTANT: XC functional enforced from input :
     Exchange-correlation= BEEF-VDW
                           (   1   4  43  14   2   0   0)
     Any further DFT definition will be discarded
     Please, verify this is what you really want

  @ DRIVER MODE: Connecting to
 qe_1139763_2632801.sched-torque.pace.gatech.eduxjqh638f_scratch
  using UNIX socket
  @ DRIVER MODE: Message from server: STATUS
  @ DRIVER MODE: Message from server: INIT
  @ DRIVER MODE: Receiving replica           0          -1
  @ DRIVER MODE: Receiving encoded integer          25
  @ DRIVER MODE:  SCF:  T  FORCE:  T  STRESS:  F  VC:  F  ENSEMBLE:  F
  @ DRIVER MODE:  SCF:  T  FORCE:  T  STRESS:  F  VC:  F  ENSEMBLE:  F

     Using Slab Decomposition

     bravais-lattice index     =            0
     lattice parameter (alat)  =       1.8897  a.u.
     unit-cell volume          =    6658.9804 (a.u.)^3
     number of atoms/cell      =           50
     number of atomic types    =            5
     number of electrons       =       388.00
     number of Kohn-Sham states=          204
     kinetic-energy cutoff     =      29.3995  Ry
     charge density cutoff     =     293.9946  Ry
     scf convergence threshold =      7.3E-08
     mixing beta               =       0.0500
     number of iterations used =            8  plain     mixing
     Exchange-correlation= BEEF-VDW
                           (   1   4  43  14   2   0   0)

     celldm(1)=   1.889726  celldm(2)=   0.000000  celldm(3)=   0.000000
     celldm(4)=   0.000000  celldm(5)=   0.000000  celldm(6)=   0.000000

     crystal axes: (cart. coord. in units of alat)
               a(1) = (   6.579727   0.000000   0.000000 )
               a(2) = (  -0.000775   5.961596   0.000000 )
               a(3) = (   0.000000   0.000000  25.155947 )

     reciprocal axes: (cart. coord. in units 2 pi/alat)
               b(1) = (  0.151982  0.000020  0.000000 )
               b(2) = (  0.000000  0.167740  0.000000 )
               b(3) = (  0.000000  0.000000  0.039752 )

     PseudoPot. # 1 for Ti read from file:
     /storage/coda1/p-amedford6/0/shared/rich_project_chbe-medford/medford-share/data/pseudos_module/espresso/nninc/pbe/van/Ti.UPF
     MD5 check sum: 8e4df49b7f0d34bbd5052bf3f5ea0213
     Pseudo is Ultrasoft, Zval = 12.0
     Generated by new atomic code, or converted to UPF format
     Using radial grid of  851 points,  6 beta functions with:
                l(1) =   0
                l(2) =   0
                l(3) =   1
                l(4) =   1
                l(5) =   2
                l(6) =   2
     Q(r) pseudized with  8 coefficients,  rinner =    1.000   1.000   1.000
                                                       1.000   1.000

     PseudoPot. # 2 for O  read from file:
     /storage/coda1/p-amedford6/0/shared/rich_project_chbe-medford/medford-share/data/pseudos_module/espresso/nninc/pbe/van/O.UPF
     MD5 check sum: 78c19812648e8988a0fe644b0f25305e
     Pseudo is Ultrasoft, Zval =  6.0
     Generated by new atomic code, or converted to UPF format
     Using radial grid of  737 points,  4 beta functions with:
                l(1) =   0
                l(2) =   0
                l(3) =   1
                l(4) =   1
     Q(r) pseudized with  8 coefficients,  rinner =    0.800   0.800   0.800

     PseudoPot. # 3 for N  read from file:
     /storage/coda1/p-amedford6/0/shared/rich_project_chbe-medford/medford-share/data/pseudos_module/espresso/nninc/pbe/van/N.UPF
     MD5 check sum: 90d10febe142ad51ac9d5be1deb811c4
     Pseudo is Ultrasoft, Zval =  5.0
     Generated by new atomic code, or converted to UPF format
     Using radial grid of  729 points,  4 beta functions with:
                l(1) =   0
                l(2) =   0
                l(3) =   1
                l(4) =   1
     Q(r) pseudized with  8 coefficients,  rinner =    0.800   0.800   0.800

     PseudoPot. # 4 for C  read from file:
     /storage/coda1/p-amedford6/0/shared/rich_project_chbe-medford/medford-share/data/pseudos_module/espresso/nninc/pbe/van/C.UPF
     MD5 check sum: 1a69bf6b8db32088f5b2163dbdb77a27
     Pseudo is Ultrasoft, Zval =  4.0
     Generated by new atomic code, or converted to UPF format
     Using radial grid of  721 points,  4 beta functions with:
                l(1) =   0
                l(2) =   0
                l(3) =   1
                l(4) =   1
     Q(r) pseudized with  8 coefficients,  rinner =    0.800   0.800   0.800

     PseudoPot. # 5 for H  read from file:
     /storage/coda1/p-amedford6/0/shared/rich_project_chbe-medford/medford-share/data/pseudos_module/espresso/nninc/pbe/van/H.UPF
     MD5 check sum: b5ee9d7bfd3a09ee7748110bda690ff7
     Pseudo is Ultrasoft, Zval =  1.0
     Generated by new atomic code, or converted to UPF format
     Using radial grid of  615 points,  1 beta functions with:
                l(1) =   0
     Q(r) pseudized with  8 coefficients,  rinner =    0.800

     atomic species   valence    mass     pseudopotential
        Ti1           12.00    47.86700     Ti( 1.00)
        O1             6.00    15.99900     O ( 1.00)
        N1             5.00    14.00700     N ( 1.00)
        C1             4.00    12.01100     C ( 1.00)
        H1             1.00     1.00800     H ( 1.00)

     No symmetry found

   Cartesian axes

     site n.     atom                  positions (alat units)
         1           Ti1 tau(   1) = (   0.0004258   2.9801865   6.0000000  )
         2           Ti1 tau(   2) = (   3.2906075   1.4906267   6.0002472  )
         3           O1  tau(   3) = (   0.0006271   0.0005054   7.9858123  )
         4           O1  tau(   4) = (   3.2906025   0.0005020   7.3038282  )
         5           O1  tau(   5) = (   4.5942328   1.4918067   9.2879030  )
         6           O1  tau(   6) = (   1.9868534   1.4903216   9.2879459  )
         7           Ti1 tau(   7) = (   3.2907910   2.8959150   9.1758416  )
         8           Ti1 tau(   8) = (   0.0015273   1.4827037   9.2680791  )
         9           O1  tau(   9) = (   3.3014052   0.0114069  11.3737528  )
        10           O1  tau(  10) = (   0.0116148   5.9584955  10.6183126  )
        11           O1  tau(  11) = (   1.3012034   1.4994444  12.6801950  )
        12           O1  tau(  12) = (   5.3042999   1.4981222  12.6788946  )
        13           Ti1 tau(  13) = (   0.0222102   2.9879630  12.5217794  )
        14           Ti1 tau(  14) = (   3.3166014   1.4969944  12.5290657  )
        15           O1  tau(  15) = (   0.0131148   5.9114811  14.6787674  )
        16           O1  tau(  16) = (   3.3052116   5.9585997  13.9918696  )
        17           O1  tau(  17) = (   4.5573354   1.5165695  16.1403462  )
        18           O1  tau(  18) = (   2.0429717   1.5180214  16.1331141  )
        19           Ti1 tau(  19) = (   3.3061463   3.0045039  15.7576854  )
        20           Ti1 tau(  20) = (   0.0190008   1.3629876  15.8180984  )
        21           O1  tau(  21) = (   3.2904802   0.0005063   4.7018136  )
        22           O1  tau(  22) = (   0.0120025   0.1123878  17.2186474  )
        23           O1  tau(  23) = (   1.3043587   1.4918075   6.0039043  )
        24           O1  tau(  24) = (   5.2767064   1.4903225   6.0039473  )
        25           Ti1 tau(  25) = (   0.0000382   5.9609847   6.0000000  )
        26           Ti1 tau(  26) = (   3.2902200   4.4714249   6.0002472  )
        27           O1  tau(  27) = (   0.0002396   2.9813036   7.9858123  )
        28           O1  tau(  28) = (   3.2902150   2.9813002   7.3038282  )
        29           O1  tau(  29) = (   4.5938453   4.4726049   9.2879030  )
        30           O1  tau(  30) = (   1.9864658   4.4711199   9.2879459  )
        31           Ti1 tau(  31) = (   3.2891106   5.8743827   9.1763621  )
        32           Ti1 tau(  32) = (   0.0006254   4.4649316   9.2693709  )
        33           O1  tau(  33) = (   3.3015003   2.9799855  11.3692792  )
        34           O1  tau(  34) = (   0.0092240   2.9805883  10.6323155  )
        35           O1  tau(  35) = (   1.3024855   4.4701597  12.6493271  )
        36           O1  tau(  36) = (   5.3029933   4.4710749  12.6473438  )
        37           Ti1 tau(  37) = (   0.0213219   5.9581237  12.5009821  )
        38           Ti1 tau(  38) = (   3.3165689   4.4756321  12.5216884  )
        39           O1  tau(  39) = (   0.0062450   3.0260372  14.9395602  )
        40           O1  tau(  40) = (   3.3068494   3.0035608  13.9656762  )
        41           O1  tau(  41) = (   4.5532872   4.4785133  16.2063021  )
        42           O1  tau(  42) = (   2.0453360   4.4758230  16.1992630  )
        43           Ti1 tau(  43) = (   3.3068391   0.0190840  15.7907057  )
        44           Ti1 tau(  44) = (   0.0173475   4.5946531  16.0781683  )
        45           O1  tau(  45) = (   3.2900926   2.9813045   4.7018136  )
        46           O1  tau(  46) = (   1.3039711   4.4726057   6.0039043  )
        47           O1  tau(  47) = (   5.2763189   4.4711207   6.0039473  )
        48           N1  tau(  48) = (   0.0050225   3.2246995  17.9653954  )
        49           C1  tau(  49) = (   6.5749124   2.4458835  18.8135322  )
        50           H1  tau(  50) = (   6.5624368   1.6931146  19.5745906  )

     number of k points=    10  Fermi-Dirac smearing, width (Ry)=  0.0073
                       cart. coord. in units 2pi/alat
        k(    1) = (   0.0000000   0.0000000   0.0000000), wk =   0.1250000
        k(    2) = (   0.0000000   0.0419351   0.0000000), wk =   0.2500000
        k(    3) = (   0.0000000  -0.0838702   0.0000000), wk =   0.1250000
        k(    4) = (   0.0379955   0.0000049   0.0000000), wk =   0.2500000
        k(    5) = (   0.0379955   0.0419400   0.0000000), wk =   0.2500000
        k(    6) = (   0.0379955  -0.0838652   0.0000000), wk =   0.2500000
        k(    7) = (   0.0379955  -0.0419301   0.0000000), wk =   0.2500000
        k(    8) = (  -0.0759910  -0.0000099   0.0000000), wk =   0.1250000
        k(    9) = (  -0.0759910   0.0419252   0.0000000), wk =   0.2500000
        k(   10) = (  -0.0759910  -0.0838800   0.0000000), wk =   0.1250000

     Initial potential from superposition of free atoms

     starting charge  371.99919, renormalised to  388.00000

     negative rho (up, down):  1.808E-02 0.000E+00

     %%%%%%%%%%%%%%%%%%%%%%%%%%%%%%%%%%%%%%%%%%%%%%%%%%%%%%%%%%%%%%%%%%%%%%%%
     %                                                                      %
     % You are using vdW-DF, which was implemented by the Thonhauser group. %
     % Please cite the following two papers that made this development      %
     % possible and the two reviews that describe the various versions:     %
     %                                                                      %
     %   T. Thonhauser et al., PRL 115, 136402 (2015).                      %
     %   T. Thonhauser et al., PRB 76, 125112 (2007).                       %
     %   K. Berland et al., Rep. Prog. Phys. 78, 066501 (2015).             %
     %   D.C. Langreth et al., J. Phys.: Condens. Matter 21, 084203 (2009). %
     %                                                                      %
     %                                                                      %
     % If you are calculating the stress with vdW-DF, please also cite:     %
     %                                                                      %
     %   R. Sabatini et al., J. Phys.: Condens. Matter 24, 424209 (2012).   %
     %                                                                      %
     %%%%%%%%%%%%%%%%%%%%%%%%%%%%%%%%%%%%%%%%%%%%%%%%%%%%%%%%%%%%%%%%%%%%%%%%

     Adding external electric field

     Computed dipole along edir(3) :
        Dipole               -4.8593 Ry au,        -12.3511 Debye
        Dipole field         -0.0092 Ry au,

        Potential amp.        0.8501 Ry
        Total length         46.3494 bohr

     Starting wfcs are  293 atomic wfcs
  @ DRIVER MODE: Message from server: STATUS
  @ DRIVER MODE: Message from server: POSDATA
  @ DRIVER MODE: Reading and sharing cell
  @ DRIVER MODE: Reading and sharing positions
  @ DRIVER MODE: Received positions

     Self-consistent Calculation

     iteration #  1     ecut=    29.40 Ry     beta= 0.05
     Davidson diagonalization with overlap
     c_bands:  5 eigenvalues not converged
     c_bands:  5 eigenvalues not converged
     c_bands:  5 eigenvalues not converged
     c_bands:  5 eigenvalues not converged
     c_bands:  3 eigenvalues not converged
     c_bands:  5 eigenvalues not converged
     c_bands:  4 eigenvalues not converged
     c_bands:  3 eigenvalues not converged
     c_bands:  1 eigenvalues not converged
     ethr =  1.00E-05,  avg # of iterations = 20.0

[...]

     total energy              =   -2846.08962715 Ry
     estimated scf accuracy    <     790.56145695 Ry

     iteration #  2     ecut=    29.40 Ry     beta= 0.05
     Davidson diagonalization with overlap
     ethr =  1.00E-02,  avg # of iterations = 15.5

[...]

     iteration # 59     ecut=    29.40 Ry     beta= 0.05
     Davidson diagonalization with overlap
     c_bands:  1 eigenvalues not converged
     ethr =  1.12E-08,  avg # of iterations = 10.5

[...]

     total energy              =   -2916.61474116 Ry
     estimated scf accuracy    <       0.00000023 Ry

     iteration # 72     ecut=    29.40 Ry     beta= 0.05
     Davidson diagonalization with overlap
     ethr =  3.98E-11,  avg # of iterations =  8.1

     negative rho (up, down):  1.830E-02 0.000E+00

     Adding external electric field

     Computed dipole along edir(3) :
        Dipole                1.5193 Ry au,          3.8616 Debye
        Dipole field          0.0029 Ry au,

        Potential amp.       -0.2658 Ry
        Total length         46.3494 bohr

     End of self-consistent calculation

          k = 0.0000 0.0000 0.0000 ( 18029 PWs)   bands (ev):

   -55.4426 -55.4065 -55.3991 -55.3650 -55.3215 -55.3177 -55.2818 -55.2612
   -55.2522 -55.2394 -55.2287 -55.2268 -55.1951 -55.1351 -54.4252 -54.3911
   -32.0091 -31.8910 -31.8442 -31.8063 -31.7520 -31.7505 -31.7454 -31.7332
   -31.6883 -31.6743 -31.6514 -31.6438 -31.6380 -31.6129 -31.5963 -31.5838
   -31.5794 -31.5652 -31.5594 -31.5513 -31.5316 -31.5226 -31.5124 -31.4971
   -31.4916 -31.4713 -31.4635 -31.4562 -31.4486 -31.4450 -31.4411 -31.4267
   -31.4209 -31.4125 -31.4096 -31.4090 -31.3751 -31.3601 -31.3570 -31.3419
   -31.3393 -31.2562 -30.8345 -30.7406 -30.7185 -30.6508 -30.5641 -30.4532
   -17.4137 -16.2595 -15.9909 -15.8385 -15.7335 -15.6375 -15.5031 -15.4845
   -15.3593 -15.2687 -15.1470 -15.0936 -15.0747 -15.0563 -15.0480 -15.0317
   -14.9840 -14.9794 -14.9487 -14.9368 -14.9142 -14.8767 -14.8713 -14.8379
   -14.8188 -14.7485 -14.6740 -14.5974 -14.5312 -14.2278 -12.9279 -12.8105
    -9.0095  -4.6800  -3.6020  -3.5031  -3.4549  -3.3549  -3.3372  -3.2633
    -3.2465  -3.1861  -3.0227  -2.8439  -2.7816  -2.7078  -2.6434  -2.6313
    -2.6023  -2.4431  -2.4052  -2.3559  -2.3015  -2.2768  -2.2492  -2.2263
    -2.1918  -2.1736  -2.1695  -2.1621  -2.0058  -1.9353  -1.9018  -1.8512
    -1.8342  -1.7826  -1.7604  -1.7279  -1.7243  -1.7183  -1.6669  -1.6516
    -1.6156  -1.5183  -1.4620  -1.3272  -1.2853  -1.1437  -1.0796  -1.0167
    -1.0046  -0.9255  -0.8880  -0.8802  -0.8234  -0.7940  -0.7789  -0.6555
    -0.5544  -0.5077  -0.4513  -0.4209  -0.3742  -0.3379  -0.2485  -0.2223
    -0.2059  -0.1956  -0.0525  -0.0255   0.0565   0.0820   0.1146   0.1156
     0.2225   0.2365   0.3110   0.3584   0.3891   0.4498   0.5002   0.5031
     0.5249   0.5490   0.5575   0.6509   0.6705   0.6821   0.7541   0.8990
     1.1305   1.1718   1.1836   1.5041   1.5164   1.5974   1.7817   2.1733
     2.2213   3.6554   3.7273   3.7973   3.8060   3.8442   3.8923   4.1247
     4.1364   4.1563   4.1628   4.1971

[...]

          k = 0.0380-0.0419 0.0000 ( 17876 PWs)   bands (ev):

[...]

          k =-0.0760-0.0000 0.0000 ( 17886 PWs)   bands (ev):

[...]

          k =-0.0760-0.0839 0.0000 ( 17948 PWs)   bands (ev):

   -55.4261 -55.4228 -55.3820 -55.3818 -55.3176 -55.3050 -55.2944 -55.2494
   -55.2451 -55.2431 -55.2424 -55.2122 -55.2118 -55.1377 -54.4082 -54.4080
   -31.8141 -31.8114 -31.7680 -31.7178 -31.7062 -31.7060 -31.6940 -31.6736
   -31.6736 -31.6505 -31.6412 -31.6381 -31.6285 -31.5861 -31.5782 -31.5747
   -31.5729 -31.5688 -31.5675 -31.5612 -31.5305 -31.5277 -31.5195 -31.5184
   -31.5100 -31.5016 -31.5015 -31.5004 -31.4873 -31.4779 -31.4767 -31.4752
   -31.4586 -31.4555 -31.4420 -31.4409 -31.4400 -31.4319 -31.3926 -31.3922
   -31.3468 -31.3454 -30.7313 -30.7311 -30.6471 -30.6469 -30.6075 -30.6074
   -17.4082 -15.7742 -15.6638 -15.6312 -15.4495 -15.4390 -15.4028 -15.3910
   -15.2476 -15.2039 -15.1978 -15.1868 -15.1398 -15.1358 -15.1353 -15.1099
   -15.0391 -15.0329 -15.0282 -15.0120 -14.9556 -14.9443 -14.9412 -14.9243
   -14.8929 -14.8889 -14.7949 -14.7917 -14.6839 -14.5839 -12.9120 -12.9120
    -9.0070  -4.6673  -3.4139  -3.2608  -2.9337  -2.8985  -2.8930  -2.6598
    -2.6324  -2.6005  -2.5564  -2.4849  -2.4370  -2.4137  -2.4124  -2.3439
    -2.2957  -2.2885  -2.2799  -2.2625  -2.2554  -2.2345  -2.2005  -2.1673
    -2.1575  -2.1293  -2.1138  -2.0943  -2.0756  -2.0403  -2.0267  -2.0020
    -1.9985  -1.8956  -1.8705  -1.7883  -1.7480  -1.7161  -1.6448  -1.6391
    -1.5366  -1.5328  -1.4799  -1.4684  -1.4280  -1.3224  -1.2372  -1.1865
    -1.1814  -1.1721  -1.0686  -1.0036  -0.9758  -0.9410  -0.9159  -0.8342
    -0.7774  -0.7570  -0.7154  -0.6322  -0.6272  -0.5640  -0.4617  -0.4200
    -0.4039  -0.3983  -0.3773  -0.3250  -0.3136  -0.2518  -0.2083  -0.1733
    -0.1625  -0.1174   0.0935   0.0960   0.1436   0.2557   0.2967   0.4445
     0.5220   0.5402   0.6158   0.6513   0.6756   0.7425   0.8505   0.8684
     0.8816   0.9524   0.9918   1.0159   1.0255   1.9545   1.9550   2.0413
     2.0414   3.7768   3.8910   3.9236   3.9726   4.0173   4.0711   4.1755
     4.1962   4.2385   4.2400   4.3175

     the Fermi energy is     3.7150 ev

!    total energy              =   -2916.61475749 Ry
     estimated scf accuracy    <       0.00000006 Ry
     smearing contrib. (-TS)   =      -0.03748180 Ry
     internal energy E=F+TS    =   -2916.57727568 Ry

     The total energy is F=E-TS. E is the sum of the following terms:
     one-electron contribution =  -24444.26995642 Ry
     hartree contribution      =   12309.62400413 Ry
     xc contribution           =    -478.36669057 Ry
     ewald contribution        =    9696.43101134 Ry
     electric field correction =       0.00435584 Ry

     convergence has been achieved in  72 iterations

     Forces acting on atoms (cartesian axes, Ry/au):

     atom    1 type  1   force =     0.00000134   -0.00028899    0.09342987
     atom    2 type  1   force =    -0.00018366   -0.00046561   -0.17791372
     atom    3 type  2   force =     0.00002203   -0.00033849   -0.02063806
     atom    4 type  2   force =    -0.00003642   -0.00186796    0.05840524
     atom    5 type  2   force =    -0.01035283   -0.00073390    0.00709598
     atom    6 type  2   force =     0.01201844   -0.00013561    0.00686755
     atom    7 type  1   force =    -0.00011128    0.00193086   -0.01365929
     atom    8 type  1   force =    -0.00009528    0.00178053   -0.00207012
     atom    9 type  2   force =    -0.00004711   -0.00044534   -0.00036161
     atom   10 type  2   force =    -0.00120235    0.00259392   -0.00299987
     atom   11 type  2   force =    -0.00067160   -0.00013282    0.00012193
     atom   12 type  2   force =     0.00050771   -0.00009159   -0.00007176
     atom   13 type  1   force =    -0.00006726   -0.00002363    0.00008693
     atom   14 type  1   force =    -0.00001771   -0.00004661    0.00026604
     atom   15 type  2   force =    -0.00010623    0.00018425    0.00005243
     atom   16 type  2   force =    -0.00002871   -0.00011180   -0.00017451
     atom   17 type  2   force =     0.00061751    0.00002849   -0.00013915
     atom   18 type  2   force =    -0.00016756    0.00001193    0.00023815
     atom   19 type  1   force =    -0.00026616    0.00034570    0.00023223
     atom   20 type  1   force =    -0.00014164    0.00038225    0.00035973
     atom   21 type  2   force =    -0.00002343   -0.00012440    0.10390580
     atom   22 type  2   force =    -0.00007247    0.00021727    0.00028497
     atom   23 type  2   force =    -0.07052388   -0.00022109   -0.02693990
     atom   24 type  2   force =     0.07030856    0.00021636   -0.02698780
     atom   25 type  1   force =     0.00001154   -0.00033927    0.09300508
     atom   26 type  1   force =    -0.00019311   -0.00053317   -0.17812995
     atom   27 type  2   force =     0.00005994   -0.00024306   -0.01964549
     atom   28 type  2   force =     0.00001299   -0.00164147    0.05787503
     atom   29 type  2   force =    -0.01086204   -0.00057392    0.00759329
     atom   30 type  2   force =     0.01238952   -0.00022686    0.00733729
     atom   31 type  1   force =    -0.00004108    0.00593133   -0.01474100
     atom   32 type  1   force =    -0.00011985   -0.00215009   -0.00202518
     atom   33 type  2   force =     0.00002090   -0.00006375   -0.00032733
     atom   34 type  2   force =    -0.00064619   -0.00101073   -0.00063050
     atom   35 type  2   force =    -0.00012385   -0.00006824    0.00011976
     atom   36 type  2   force =    -0.00007100   -0.00000785    0.00019564
     atom   37 type  1   force =     0.00022343   -0.00078565    0.00010158
     atom   38 type  1   force =    -0.00005642   -0.00009262    0.00023162
     atom   39 type  2   force =     0.00011635   -0.00045906    0.00006420
     atom   40 type  2   force =    -0.00021821   -0.00011617   -0.00044185
     atom   41 type  2   force =     0.00035066   -0.00012321   -0.00045201
     atom   42 type  2   force =     0.00007098    0.00010216   -0.00004128
     atom   43 type  1   force =    -0.00015366   -0.00007703    0.00015748
     atom   44 type  1   force =     0.00008602    0.00014599    0.00030366
     atom   45 type  2   force =    -0.00002369   -0.00014751    0.10386104
     atom   46 type  2   force =    -0.07050247   -0.00016844   -0.02692489
     atom   47 type  2   force =     0.07029718    0.00026005   -0.02697922
     atom   48 type  3   force =     0.00026578    0.00051988   -0.00020797
     atom   49 type  4   force =    -0.00041796   -0.00682526    0.00813572
     atom   50 type  5   force =     0.00016424    0.00603024   -0.00782574

     Total force =     0.366181     Total SCF correction =     0.000651
  @ DRIVER MODE: Message from server: STATUS
  @ DRIVER MODE: Message from server: GETFORCE
  @ DRIVER MODE: Returning v,forces,stress,ensemble

     Writing output data file ./calc.save/
  @ DRIVER MODE: Message from server: EXIT
  @ DRIVE MODE: Exiting

     General routines

     Parallel routines

   This run was terminated on:  21:51:57  23Aug2021

   JOB DONE.