     Program PWSCF v.6.7GPU starts on 23Aug2021 at 21: 7:50

     R & G space division:  proc/nbgrp/npool/nimage =       6
     Reading input from /storage/home/hcoda1/3/ntian30/research/carbon/CH_vib/ads_slab/CHNHHH_a/out_0016/pw.inp
Warning: card &CELL ignored
Warning: card   CELL_DYNAMICS='IPI', ignored
Warning: card / ignored

     Current dimensions of program PWSCF are:
     Max number of different atomic species (ntypx) = 10
     Max number of k-points (npk) =  40000
     Max angular momentum in pseudopotentials (lmaxx) =  3
     Presently no symmetry can be used with electric field

     Message from routine cell_base_init:
     DEPRECATED: use true lattice parameter, not A to a.u. conversion factor

     IMPORTANT: XC functional enforced from input :
     Exchange-correlation= BEEF-VDW
                           (   1   4  43  14   2   0   0)
     Any further DFT definition will be discarded
     Please, verify this is what you really want

  @ DRIVER MODE: Connecting to
 qe_1139763_2632793.sched-torque.pace.gatech.eduhej6ne2d_scratch
  using UNIX socket
  @ DRIVER MODE: Message from server: STATUS
  @ DRIVER MODE: Message from server: INIT
  @ DRIVER MODE: Receiving replica           0          -1
  @ DRIVER MODE: Receiving encoded integer          25
  @ DRIVER MODE:  SCF:  T  FORCE:  T  STRESS:  F  VC:  F  ENSEMBLE:  F
  @ DRIVER MODE:  SCF:  T  FORCE:  T  STRESS:  F  VC:  F  ENSEMBLE:  F

     Using Slab Decomposition

     bravais-lattice index     =            0
     lattice parameter (alat)  =       1.8897  a.u.
     unit-cell volume          =    6658.9804 (a.u.)^3
     number of atoms/cell      =           53
     number of atomic types    =            5
     number of electrons       =       391.00
     number of Kohn-Sham states=          205
     kinetic-energy cutoff     =      29.3995  Ry
     charge density cutoff     =     293.9946  Ry
     scf convergence threshold =      7.3E-08
     mixing beta               =       0.0500
     number of iterations used =            8  plain     mixing
     Exchange-correlation= BEEF-VDW
                           (   1   4  43  14   2   0   0)

     celldm(1)=   1.889726  celldm(2)=   0.000000  celldm(3)=   0.000000
     celldm(4)=   0.000000  celldm(5)=   0.000000  celldm(6)=   0.000000

     crystal axes: (cart. coord. in units of alat)
               a(1) = (   6.579727   0.000000   0.000000 )
               a(2) = (  -0.000775   5.961596   0.000000 )
               a(3) = (   0.000000   0.000000  25.155947 )

     reciprocal axes: (cart. coord. in units 2 pi/alat)
               b(1) = (  0.151982  0.000020  0.000000 )
               b(2) = (  0.000000  0.167740  0.000000 )
               b(3) = (  0.000000  0.000000  0.039752 )

     PseudoPot. # 1 for Ti read from file:
     /storage/coda1/p-amedford6/0/shared/rich_project_chbe-medford/medford-share/data/pseudos_module/espresso/nninc/pbe/van/Ti.UPF
     MD5 check sum: 8e4df49b7f0d34bbd5052bf3f5ea0213
     Pseudo is Ultrasoft, Zval = 12.0
     Generated by new atomic code, or converted to UPF format
     Using radial grid of  851 points,  6 beta functions with:
                l(1) =   0
                l(2) =   0
                l(3) =   1
                l(4) =   1
                l(5) =   2
                l(6) =   2
     Q(r) pseudized with  8 coefficients,  rinner =    1.000   1.000   1.000
                                                       1.000   1.000

     PseudoPot. # 2 for O  read from file:
     /storage/coda1/p-amedford6/0/shared/rich_project_chbe-medford/medford-share/data/pseudos_module/espresso/nninc/pbe/van/O.UPF
     MD5 check sum: 78c19812648e8988a0fe644b0f25305e
     Pseudo is Ultrasoft, Zval =  6.0
     Generated by new atomic code, or converted to UPF format
     Using radial grid of  737 points,  4 beta functions with:
                l(1) =   0
                l(2) =   0
                l(3) =   1
                l(4) =   1
     Q(r) pseudized with  8 coefficients,  rinner =    0.800   0.800   0.800

     PseudoPot. # 3 for N  read from file:
     /storage/coda1/p-amedford6/0/shared/rich_project_chbe-medford/medford-share/data/pseudos_module/espresso/nninc/pbe/van/N.UPF
     MD5 check sum: 90d10febe142ad51ac9d5be1deb811c4
     Pseudo is Ultrasoft, Zval =  5.0
     Generated by new atomic code, or converted to UPF format
     Using radial grid of  729 points,  4 beta functions with:
                l(1) =   0
                l(2) =   0
                l(3) =   1
                l(4) =   1
     Q(r) pseudized with  8 coefficients,  rinner =    0.800   0.800   0.800

     PseudoPot. # 4 for C  read from file:
     /storage/coda1/p-amedford6/0/shared/rich_project_chbe-medford/medford-share/data/pseudos_module/espresso/nninc/pbe/van/C.UPF
     MD5 check sum: 1a69bf6b8db32088f5b2163dbdb77a27
     Pseudo is Ultrasoft, Zval =  4.0
     Generated by new atomic code, or converted to UPF format
     Using radial grid of  721 points,  4 beta functions with:
                l(1) =   0
                l(2) =   0
                l(3) =   1
                l(4) =   1
     Q(r) pseudized with  8 coefficients,  rinner =    0.800   0.800   0.800

     PseudoPot. # 5 for H  read from file:
     /storage/coda1/p-amedford6/0/shared/rich_project_chbe-medford/medford-share/data/pseudos_module/espresso/nninc/pbe/van/H.UPF
     MD5 check sum: b5ee9d7bfd3a09ee7748110bda690ff7
     Pseudo is Ultrasoft, Zval =  1.0
     Generated by new atomic code, or converted to UPF format
     Using radial grid of  615 points,  1 beta functions with:
                l(1) =   0
     Q(r) pseudized with  8 coefficients,  rinner =    0.800

     atomic species   valence    mass     pseudopotential
        Ti1           12.00    47.86700     Ti( 1.00)
        O1             6.00    15.99900     O ( 1.00)
        N1             5.00    14.00700     N ( 1.00)
        C1             4.00    12.01100     C ( 1.00)
        H1             1.00     1.00800     H ( 1.00)

     No symmetry found

   Cartesian axes

     site n.     atom                  positions (alat units)
         1           Ti1 tau(   1) = (   0.0004258   2.9801865   6.0000000  )
         2           Ti1 tau(   2) = (   3.2906075   1.4906267   6.0002472  )
         3           O1  tau(   3) = (   0.0006271   0.0005054   7.9858123  )
         4           O1  tau(   4) = (   3.2906025   0.0005020   7.3038282  )
         5           O1  tau(   5) = (   4.5942328   1.4918067   9.2879030  )
         6           O1  tau(   6) = (   1.9868534   1.4903216   9.2879459  )
         7           Ti1 tau(   7) = (   3.2907910   2.8959150   9.1758416  )
         8           Ti1 tau(   8) = (   0.0015273   1.4827037   9.2680791  )
         9           O1  tau(   9) = (   3.3113122   5.9567026  11.3833813  )
        10           O1  tau(  10) = (   0.0116148   5.9584955  10.6183126  )
        11           O1  tau(  11) = (   1.3074368   1.4838846  12.6958875  )
        12           O1  tau(  12) = (   5.3165545   1.4905306  12.6890028  )
        13           Ti1 tau(  13) = (   0.0319163   2.9634337  12.5060949  )
        14           Ti1 tau(  14) = (   3.3348194   1.4676286  12.5406051  )
        15           O1  tau(  15) = (   6.5718004   5.8756060  14.7032446  )
        16           O1  tau(  16) = (   3.3285255   5.9545307  14.0046557  )
        17           O1  tau(  17) = (   4.5620449   1.5282301  16.1894795  )
        18           O1  tau(  18) = (   2.0507131   1.5111456  16.1254446  )
        19           Ti1 tau(  19) = (   3.3090684   3.0029381  15.7706148  )
        20           Ti1 tau(  20) = (   0.0350077   1.2886257  15.8758580  )
        21           O1  tau(  21) = (   3.2904802   0.0005063   4.7018136  )
        22           O1  tau(  22) = (   0.0240991   0.1326893  17.2553962  )
        23           O1  tau(  23) = (   1.3043587   1.4918075   6.0039043  )
        24           O1  tau(  24) = (   5.2767064   1.4903225   6.0039473  )
        25           Ti1 tau(  25) = (   0.0000382   5.9609847   6.0000000  )
        26           Ti1 tau(  26) = (   3.2902200   4.4714249   6.0002472  )
        27           O1  tau(  27) = (   0.0002396   2.9813036   7.9858123  )
        28           O1  tau(  28) = (   3.2902150   2.9813002   7.3038282  )
        29           O1  tau(  29) = (   4.5938453   4.4726049   9.2879030  )
        30           O1  tau(  30) = (   1.9864658   4.4711199   9.2879459  )
        31           Ti1 tau(  31) = (   3.2891106   5.8743827   9.1763621  )
        32           Ti1 tau(  32) = (   0.0006254   4.4649316   9.2693709  )
        33           O1  tau(  33) = (   3.3073171   2.9646269  11.3784001  )
        34           O1  tau(  34) = (   0.0092240   2.9805883  10.6323155  )
        35           O1  tau(  35) = (   1.3112202   4.4579144  12.6624112  )
        36           O1  tau(  36) = (   5.3138049   4.4530836  12.6532163  )
        37           Ti1 tau(  37) = (   0.0383750   5.9352221  12.5084026  )
        38           Ti1 tau(  38) = (   3.3346062   4.4465110  12.5317211  )
        39           O1  tau(  39) = (   0.0124192   3.0170750  14.9941726  )
        40           O1  tau(  40) = (   3.3221393   2.9969786  13.9787254  )
        41           O1  tau(  41) = (   4.5445774   4.4782521  16.2319081  )
        42           O1  tau(  42) = (   2.0501905   4.4790704  16.2078326  )
        43           Ti1 tau(  43) = (   3.3285819   0.0194352  15.8051934  )
        44           Ti1 tau(  44) = (   0.0611752   4.5099810  16.0683830  )
        45           O1  tau(  45) = (   3.2900926   2.9813045   4.7018136  )
        46           O1  tau(  46) = (   1.3039711   4.4726057   6.0039043  )
        47           O1  tau(  47) = (   5.2763189   4.4711207   6.0039473  )
        48           N1  tau(  48) = (   6.2166669   3.4226028  18.2351681  )
        49           C1  tau(  49) = (   0.7325778   3.1430902  19.0455235  )
        50           H1  tau(  50) = (   1.1688338   2.1728109  18.9760543  )
        51           H1  tau(  51) = (   5.7007151   4.2593073  18.4945226  )
        52           H1  tau(  52) = (   5.5741914   2.6425579  18.1107425  )
        53           H1  tau(  53) = (   1.2593429   3.9788434  19.4721980  )

     number of k points=    10  Fermi-Dirac smearing, width (Ry)=  0.0073
                       cart. coord. in units 2pi/alat
        k(    1) = (   0.0000000   0.0000000   0.0000000), wk =   0.1250000
        k(    2) = (   0.0000000   0.0419351   0.0000000), wk =   0.2500000
        k(    3) = (   0.0000000  -0.0838702   0.0000000), wk =   0.1250000
        k(    4) = (   0.0379955   0.0000049   0.0000000), wk =   0.2500000
        k(    5) = (   0.0379955   0.0419400   0.0000000), wk =   0.2500000
        k(    6) = (   0.0379955  -0.0838652   0.0000000), wk =   0.2500000
        k(    7) = (   0.0379955  -0.0419301   0.0000000), wk =   0.2500000
        k(    8) = (  -0.0759910  -0.0000099   0.0000000), wk =   0.1250000
        k(    9) = (  -0.0759910   0.0419252   0.0000000), wk =   0.2500000
        k(   10) = (  -0.0759910  -0.0838800   0.0000000), wk =   0.1250000

     Initial potential from superposition of free atoms

     starting charge  374.99916, renormalised to  391.00000

     negative rho (up, down):  1.698E-02 0.000E+00

     %%%%%%%%%%%%%%%%%%%%%%%%%%%%%%%%%%%%%%%%%%%%%%%%%%%%%%%%%%%%%%%%%%%%%%%%
     %                                                                      %
     % You are using vdW-DF, which was implemented by the Thonhauser group. %
     % Please cite the following two papers that made this development      %
     % possible and the two reviews that describe the various versions:     %
     %                                                                      %
     %   T. Thonhauser et al., PRL 115, 136402 (2015).                      %
     %   T. Thonhauser et al., PRB 76, 125112 (2007).                       %
     %   K. Berland et al., Rep. Prog. Phys. 78, 066501 (2015).             %
     %   D.C. Langreth et al., J. Phys.: Condens. Matter 21, 084203 (2009). %
     %                                                                      %
     %                                                                      %
     % If you are calculating the stress with vdW-DF, please also cite:     %
     %                                                                      %
     %   R. Sabatini et al., J. Phys.: Condens. Matter 24, 424209 (2012).   %
     %                                                                      %
     %%%%%%%%%%%%%%%%%%%%%%%%%%%%%%%%%%%%%%%%%%%%%%%%%%%%%%%%%%%%%%%%%%%%%%%%

     Adding external electric field

     Computed dipole along edir(3) :
        Dipole               -6.8871 Ry au,        -17.5052 Debye
        Dipole field         -0.0130 Ry au,

        Potential amp.        1.2048 Ry
        Total length         46.3494 bohr

     Starting wfcs are  296 atomic wfcs
  @ DRIVER MODE: Message from server: STATUS
  @ DRIVER MODE: Message from server: POSDATA
  @ DRIVER MODE: Reading and sharing cell
  @ DRIVER MODE: Reading and sharing positions
  @ DRIVER MODE: Received positions

     Self-consistent Calculation

     iteration #  1     ecut=    29.40 Ry     beta= 0.05
     Davidson diagonalization with overlap
     c_bands:  1 eigenvalues not converged
     c_bands:  2 eigenvalues not converged
     ethr =  1.00E-05,  avg # of iterations = 15.9

[...]

     total energy              =   -2713.95703653 Ry
     estimated scf accuracy    <    2275.92749297 Ry

     iteration #  2     ecut=    29.40 Ry     beta= 0.05
     Davidson diagonalization with overlap
     ethr =  1.00E-02,  avg # of iterations = 18.9

[...]

     iteration # 86     ecut=    29.40 Ry     beta= 0.05
     Davidson diagonalization with overlap
     c_bands:  1 eigenvalues not converged
     ethr =  1.18E-10,  avg # of iterations = 13.6

[...]

     total energy              =   -2920.25687158 Ry
     estimated scf accuracy    <       0.00000018 Ry

     iteration # 88     ecut=    29.40 Ry     beta= 0.05
     Davidson diagonalization with overlap
     ethr =  4.57E-11,  avg # of iterations =  4.4

     negative rho (up, down):  1.634E-02 0.000E+00

     Adding external electric field

     Computed dipole along edir(3) :
        Dipole                0.9013 Ry au,          2.2909 Debye
        Dipole field          0.0017 Ry au,

        Potential amp.       -0.1577 Ry
        Total length         46.3494 bohr

     End of self-consistent calculation

          k = 0.0000 0.0000 0.0000 ( 18029 PWs)   bands (ev):

   -55.7212 -55.6848 -55.6748 -55.6407 -55.6081 -55.6045 -55.5702 -55.5462
   -55.5382 -55.5118 -55.5067 -55.4730 -55.4521 -55.2893 -54.7060 -54.6720
   -32.2862 -32.1677 -32.0920 -32.0428 -32.0391 -32.0352 -32.0306 -32.0125
   -31.9638 -31.9539 -31.9336 -31.9285 -31.9198 -31.8901 -31.8751 -31.8745
   -31.8598 -31.8462 -31.8422 -31.8273 -31.8222 -31.7890 -31.7818 -31.7767
   -31.7485 -31.7363 -31.7360 -31.7319 -31.7259 -31.7188 -31.7065 -31.7047
   -31.6951 -31.6925 -31.6597 -31.6584 -31.6544 -31.6346 -31.6244 -31.6182
   -31.5091 -31.4621 -31.1156 -31.0210 -30.9990 -30.9319 -30.8451 -30.7342
   -16.6851 -16.5271 -16.2711 -16.1050 -16.0065 -15.9211 -15.7792 -15.7603
   -15.6442 -15.5675 -15.4250 -15.3881 -15.3753 -15.3586 -15.3358 -15.3235
   -15.2692 -15.2635 -15.2424 -15.2184 -15.2140 -15.1660 -15.1628 -15.1225
   -15.0992 -15.0371 -14.9670 -14.8835 -14.8113 -14.4800 -13.2091 -13.0916
    -9.5481  -6.8719  -4.9755  -3.8846  -3.7417  -3.6750  -3.6224  -3.6160
    -3.4718  -3.3006  -3.1581  -3.1322  -3.1075  -2.9903  -2.9263  -2.9118
    -2.8878  -2.7555  -2.7315  -2.6804  -2.6455  -2.5710  -2.5675  -2.5270
    -2.5134  -2.4686  -2.4625  -2.4366  -2.3029  -2.2893  -2.2512  -2.1884
    -2.1286  -2.1267  -2.0701  -2.0522  -2.0126  -2.0038  -1.9923  -1.9509
    -1.9452  -1.9103  -1.8079  -1.7458  -1.6134  -1.5792  -1.4335  -1.3633
    -1.3145  -1.2960  -1.2126  -1.1912  -1.1403  -1.1018  -1.0910  -1.0593
    -0.9458  -0.8597  -0.8090  -0.7544  -0.7214  -0.7057  -0.6165  -0.5237
    -0.5022  -0.4890  -0.4469  -0.3454  -0.3245  -0.2616  -0.2027  -0.1870
    -0.1778  -0.0816  -0.0507   0.0218   0.0726   0.0936   0.1650   0.1909
     0.2099   0.2152   0.2506   0.2618   0.3382   0.3546   0.3791   0.4661
     0.5918   0.8386   0.8870   0.9011   1.2172   1.2212   1.3163   1.4996
     1.8928   1.9411   3.3698   3.3877   3.4516   3.5207   3.5243   3.5887
     3.6114   3.8566   3.8778   3.8852   3.9019

[...]

          k = 0.0380-0.0419 0.0000 ( 17876 PWs)   bands (ev):

[...]

          k =-0.0760-0.0000 0.0000 ( 17886 PWs)   bands (ev):

[...]

          k =-0.0760-0.0839 0.0000 ( 17948 PWs)   bands (ev):

   -55.7060 -55.6999 -55.6577 -55.6576 -55.6036 -55.5880 -55.5867 -55.5425
   -55.5306 -55.5270 -55.4903 -55.4896 -55.4500 -55.2913 -54.6891 -54.6888
   -32.0929 -32.0883 -31.9970 -31.9827 -31.9827 -31.9789 -31.9515 -31.9492
   -31.9490 -31.9328 -31.9262 -31.9174 -31.9121 -31.8717 -31.8681 -31.8629
   -31.8589 -31.8542 -31.8488 -31.8455 -31.8296 -31.8095 -31.8013 -31.8006
   -31.7831 -31.7784 -31.7774 -31.7771 -31.7633 -31.7599 -31.7433 -31.7397
   -31.7394 -31.7247 -31.7229 -31.7201 -31.6728 -31.6705 -31.6694 -31.6305
   -31.5533 -31.5113 -31.0117 -31.0115 -30.9282 -30.9280 -30.8886 -30.8885
   -16.6533 -16.0105 -15.9455 -15.9074 -15.7593 -15.7183 -15.6834 -15.6718
   -15.5484 -15.5165 -15.4956 -15.4754 -15.4394 -15.4254 -15.4188 -15.3662
   -15.3401 -15.3201 -15.3158 -15.3018 -15.2396 -15.2332 -15.2283 -15.2211
   -15.1734 -15.1698 -15.0784 -15.0755 -15.0518 -14.7666 -13.1930 -13.1930
    -9.5500  -6.8536  -4.9552  -3.2175  -3.2016  -3.1622  -3.1380  -2.9793
    -2.9162  -2.9028  -2.8730  -2.8001  -2.7487  -2.7325  -2.6885  -2.6843
    -2.6311  -2.5980  -2.5728  -2.5593  -2.5531  -2.5393  -2.5177  -2.4816
    -2.4527  -2.4508  -2.4419  -2.3961  -2.3699  -2.3593  -2.3215  -2.3150
    -2.3072  -2.2795  -2.2160  -2.1153  -2.0860  -2.0577  -1.9616  -1.9307
    -1.9256  -1.8456  -1.8125  -1.7576  -1.7508  -1.7430  -1.5773  -1.5058
    -1.4696  -1.4663  -1.4439  -1.3166  -1.3019  -1.2235  -1.1998  -1.1872
    -1.0986  -1.0785  -1.0352  -1.0084  -0.9318  -0.9026  -0.8408  -0.7539
    -0.7153  -0.7083  -0.6791  -0.6753  -0.6262  -0.6152  -0.5299  -0.4914
    -0.4566  -0.4462  -0.3979  -0.2126  -0.1961  -0.1655  -0.0269   0.0243
     0.1492   0.1722   0.2336   0.3071   0.3476   0.3911   0.4278   0.5727
     0.5824   0.6153   0.6600   0.6712   0.7293   0.7381   1.6726   1.6731
     1.7609   1.7612   3.3836   3.6307   3.6332   3.6684   3.6911   3.8463
     3.8911   3.9349   3.9565   3.9597   3.9816

     the Fermi energy is     3.4380 ev

!    total energy              =   -2920.25687437 Ry
     estimated scf accuracy    <       0.00000007 Ry
     smearing contrib. (-TS)   =      -0.04245232 Ry
     internal energy E=F+TS    =   -2920.21442205 Ry

     The total energy is F=E-TS. E is the sum of the following terms:
     one-electron contribution =  -24059.36546380 Ry
     hartree contribution      =   12115.86941490 Ry
     xc contribution           =    -480.86400422 Ry
     ewald contribution        =    9504.14409804 Ry
     electric field correction =       0.00153303 Ry

     convergence has been achieved in  88 iterations

     Forces acting on atoms (cartesian axes, Ry/au):

     atom    1 type  1   force =    -0.00001546   -0.00019681    0.09315588
     atom    2 type  1   force =    -0.00011513   -0.00033766   -0.17839381
     atom    3 type  2   force =     0.00009140   -0.00039329   -0.02006833
     atom    4 type  2   force =     0.00004569   -0.00199783    0.05911243
     atom    5 type  2   force =    -0.01019501   -0.00082150    0.00743320
     atom    6 type  2   force =     0.01220148   -0.00043051    0.00774707
     atom    7 type  1   force =     0.00015443    0.00228523   -0.01370395
     atom    8 type  1   force =    -0.00035318   -0.00183155   -0.00452153
     atom    9 type  2   force =    -0.00034348    0.00036721   -0.00023496
     atom   10 type  2   force =    -0.00026796    0.00141562    0.00225250
     atom   11 type  2   force =    -0.00012336    0.00010836   -0.00009722
     atom   12 type  2   force =    -0.00028046   -0.00022426   -0.00060972
     atom   13 type  1   force =    -0.00048185    0.00090151   -0.00023764
     atom   14 type  1   force =    -0.00069489    0.00043270   -0.00047943
     atom   15 type  2   force =     0.00004410   -0.00018017    0.00013295
     atom   16 type  2   force =    -0.00041049   -0.00009233    0.00002930
     atom   17 type  2   force =    -0.00013801   -0.00030796   -0.00046816
     atom   18 type  2   force =    -0.00030058   -0.00013352    0.00048678
     atom   19 type  1   force =    -0.00058005   -0.00008382    0.00000321
     atom   20 type  1   force =    -0.00012275   -0.00029923   -0.00025763
     atom   21 type  2   force =     0.00002536   -0.00006120    0.10397737
     atom   22 type  2   force =    -0.00052309    0.00001318    0.00008792
     atom   23 type  2   force =    -0.07033307   -0.00013947   -0.02686829
     atom   24 type  2   force =     0.07021084    0.00029892   -0.02695410
     atom   25 type  1   force =     0.00002480   -0.00014732    0.09256309
     atom   26 type  1   force =    -0.00014638   -0.00046611   -0.17846296
     atom   27 type  2   force =     0.00015855   -0.00028297   -0.01915822
     atom   28 type  2   force =     0.00005794   -0.00176700    0.05849318
     atom   29 type  2   force =    -0.01067784   -0.00130538    0.00790130
     atom   30 type  2   force =     0.01255271   -0.00083640    0.00816891
     atom   31 type  1   force =     0.00028686    0.00600139   -0.01443229
     atom   32 type  1   force =    -0.00036583    0.00122151   -0.00499119
     atom   33 type  2   force =    -0.00004845   -0.00045833   -0.00008438
     atom   34 type  2   force =     0.00078288   -0.00258509    0.00065360
     atom   35 type  2   force =    -0.00059475   -0.00028712   -0.00011486
     atom   36 type  2   force =     0.00058977    0.00005467    0.00005583
     atom   37 type  1   force =    -0.00046691   -0.00043728    0.00005639
     atom   38 type  1   force =    -0.00026696    0.00035071   -0.00084991
     atom   39 type  2   force =    -0.00063169    0.00036038   -0.00014171
     atom   40 type  2   force =    -0.00015142   -0.00036483   -0.00056085
     atom   41 type  2   force =    -0.00106153    0.00010616    0.00000371
     atom   42 type  2   force =     0.00007267   -0.00014528    0.00027756
     atom   43 type  1   force =     0.00051238   -0.00001517   -0.00043875
     atom   44 type  1   force =     0.00041604    0.00065082   -0.00004582
     atom   45 type  2   force =     0.00003727   -0.00007444    0.10393273
     atom   46 type  2   force =    -0.07030549   -0.00009787   -0.02684777
     atom   47 type  2   force =     0.07020758    0.00034478   -0.02690455
     atom   48 type  3   force =    -0.00069833    0.00172300   -0.00002543
     atom   49 type  4   force =    -0.00483726    0.01318571    0.00180459
     atom   50 type  5   force =     0.00530118   -0.01286719   -0.00130518
     atom   51 type  5   force =     0.00158112   -0.00108475   -0.00033065
     atom   52 type  5   force =    -0.00007726    0.00059901   -0.00010458
     atom   53 type  5   force =     0.00025386    0.00033275   -0.00063563

     Total force =     0.366820     Total SCF correction =     0.000771
  @ DRIVER MODE: Message from server: STATUS
  @ DRIVER MODE: Message from server: GETFORCE
  @ DRIVER MODE: Returning v,forces,stress,ensemble

     Writing output data file ./calc.save/
  @ DRIVER MODE: Message from server: EXIT
  @ DRIVE MODE: Exiting

     General routines

     Parallel routines

   This run was terminated on:  21:44:40  23Aug2021

   JOB DONE.