     Program PWSCF v.6.7GPU starts on  5Oct2021 at 14:10:25

     R & G space division:  proc/nbgrp/npool/nimage =       8
     Reading input from /storage/home/hcoda1/3/ntian30/research/carbon/CxH_vib/pristine/ads_slab/CH2N2_a/out_0009/pw.inp
Warning: card &CELL ignored
Warning: card   CELL_DYNAMICS='IPI', ignored
Warning: card / ignored

     Current dimensions of program PWSCF are:
     Max number of different atomic species (ntypx) = 10
     Max number of k-points (npk) =  40000
     Max angular momentum in pseudopotentials (lmaxx) =  3
     Presently no symmetry can be used with electric field

     Message from routine cell_base_init:
     DEPRECATED: use true lattice parameter, not A to a.u. conversion factor

     IMPORTANT: XC functional enforced from input :
     Exchange-correlation= BEEF-VDW
                           (   1   4  43  14   2   0   0)
     Any further DFT definition will be discarded
     Please, verify this is what you really want

  @ DRIVER MODE: Connecting to
 qe_1139763_3091261.sched-torque.pace.gatech.edup1hg9ay3_scratch
  using UNIX socket
  @ DRIVER MODE: Message from server: STATUS
  @ DRIVER MODE: Message from server: INIT
  @ DRIVER MODE: Receiving replica           0          -1
  @ DRIVER MODE: Receiving encoded integer          25
  @ DRIVER MODE:  SCF:  T  FORCE:  T  STRESS:  F  VC:  F  ENSEMBLE:  F
  @ DRIVER MODE:  SCF:  T  FORCE:  T  STRESS:  F  VC:  F  ENSEMBLE:  F

     Using Slab Decomposition

     bravais-lattice index     =            0
     lattice parameter (alat)  =       1.8897  a.u.
     unit-cell volume          =    6658.9804 (a.u.)^3
     number of atoms/cell      =           53
     number of atomic types    =            5
     number of electrons       =       400.00
     number of Kohn-Sham states=          210
     kinetic-energy cutoff     =      29.3995  Ry
     charge density cutoff     =     293.9946  Ry
     scf convergence threshold =      7.3E-08
     mixing beta               =       0.0500
     number of iterations used =            8  plain     mixing
     Exchange-correlation= BEEF-VDW
                           (   1   4  43  14   2   0   0)

     celldm(1)=   1.889726  celldm(2)=   0.000000  celldm(3)=   0.000000
     celldm(4)=   0.000000  celldm(5)=   0.000000  celldm(6)=   0.000000

     crystal axes: (cart. coord. in units of alat)
               a(1) = (   6.579727   0.000000   0.000000 )
               a(2) = (  -0.000775   5.961596   0.000000 )
               a(3) = (   0.000000   0.000000  25.155947 )

     reciprocal axes: (cart. coord. in units 2 pi/alat)
               b(1) = (  0.151982  0.000020  0.000000 )
               b(2) = (  0.000000  0.167740  0.000000 )
               b(3) = (  0.000000  0.000000  0.039752 )

     PseudoPot. # 1 for Ti read from file:
     /storage/coda1/p-amedford6/0/shared/rich_project_chbe-medford/medford-share/data/pseudos_module/espresso/nninc/pbe/van/Ti.UPF
     MD5 check sum: 8e4df49b7f0d34bbd5052bf3f5ea0213
     Pseudo is Ultrasoft, Zval = 12.0
     Generated by new atomic code, or converted to UPF format
     Using radial grid of  851 points,  6 beta functions with:
                l(1) =   0
                l(2) =   0
                l(3) =   1
                l(4) =   1
                l(5) =   2
                l(6) =   2
     Q(r) pseudized with  8 coefficients,  rinner =    1.000   1.000   1.000
                                                       1.000   1.000

     PseudoPot. # 2 for O  read from file:
     /storage/coda1/p-amedford6/0/shared/rich_project_chbe-medford/medford-share/data/pseudos_module/espresso/nninc/pbe/van/O.UPF
     MD5 check sum: 78c19812648e8988a0fe644b0f25305e
     Pseudo is Ultrasoft, Zval =  6.0
     Generated by new atomic code, or converted to UPF format
     Using radial grid of  737 points,  4 beta functions with:
                l(1) =   0
                l(2) =   0
                l(3) =   1
                l(4) =   1
     Q(r) pseudized with  8 coefficients,  rinner =    0.800   0.800   0.800

     PseudoPot. # 3 for N  read from file:
     /storage/coda1/p-amedford6/0/shared/rich_project_chbe-medford/medford-share/data/pseudos_module/espresso/nninc/pbe/van/N.UPF
     MD5 check sum: 90d10febe142ad51ac9d5be1deb811c4
     Pseudo is Ultrasoft, Zval =  5.0
     Generated by new atomic code, or converted to UPF format
     Using radial grid of  729 points,  4 beta functions with:
                l(1) =   0
                l(2) =   0
                l(3) =   1
                l(4) =   1
     Q(r) pseudized with  8 coefficients,  rinner =    0.800   0.800   0.800

     PseudoPot. # 4 for C  read from file:
     /storage/coda1/p-amedford6/0/shared/rich_project_chbe-medford/medford-share/data/pseudos_module/espresso/nninc/pbe/van/C.UPF
     MD5 check sum: 1a69bf6b8db32088f5b2163dbdb77a27
     Pseudo is Ultrasoft, Zval =  4.0
     Generated by new atomic code, or converted to UPF format
     Using radial grid of  721 points,  4 beta functions with:
                l(1) =   0
                l(2) =   0
                l(3) =   1
                l(4) =   1
     Q(r) pseudized with  8 coefficients,  rinner =    0.800   0.800   0.800

     PseudoPot. # 5 for H  read from file:
     /storage/coda1/p-amedford6/0/shared/rich_project_chbe-medford/medford-share/data/pseudos_module/espresso/nninc/pbe/van/H.UPF
     MD5 check sum: b5ee9d7bfd3a09ee7748110bda690ff7
     Pseudo is Ultrasoft, Zval =  1.0
     Generated by new atomic code, or converted to UPF format
     Using radial grid of  615 points,  1 beta functions with:
                l(1) =   0
     Q(r) pseudized with  8 coefficients,  rinner =    0.800

     atomic species   valence    mass     pseudopotential
        Ti1           12.00    47.86700     Ti( 1.00)
        O1             6.00    15.99900     O ( 1.00)
        N1             5.00    14.00700     N ( 1.00)
        C1             4.00    12.01100     C ( 1.00)
        H1             1.00     1.00800     H ( 1.00)

     No symmetry found

   Cartesian axes

     site n.     atom                  positions (alat units)
         1           Ti1 tau(   1) = (   0.0004258   2.9801865   6.0000000  )
         2           Ti1 tau(   2) = (   3.2906075   1.4906267   6.0002472  )
         3           O1  tau(   3) = (   0.0006271   0.0005054   7.9858123  )
         4           O1  tau(   4) = (   3.2906025   0.0005020   7.3038282  )
         5           O1  tau(   5) = (   4.5942328   1.4918067   9.2879030  )
         6           O1  tau(   6) = (   1.9868534   1.4903216   9.2879459  )
         7           Ti1 tau(   7) = (   3.2967797   2.8647345   9.1688538  )
         8           Ti1 tau(   8) = (   0.0139078   1.4260134   9.3797207  )
         9           O1  tau(   9) = (   3.2818202   5.9426219  11.3413624  )
        10           O1  tau(  10) = (  -0.0006713   5.9438105  10.5613913  )
        11           O1  tau(  11) = (   1.2629550   1.4689526  12.6431422  )
        12           O1  tau(  12) = (   5.2627372   1.4724369  12.6244454  )
        13           Ti1 tau(  13) = (   0.0649248   2.9521173  12.8162972  )
        14           Ti1 tau(  14) = (   3.3900010   1.4623865  12.4921655  )
        15           O1  tau(  15) = (   6.5612248   5.9427239  14.6529025  )
        16           O1  tau(  16) = (   3.2707349   5.9499158  13.9186396  )
        17           O1  tau(  17) = (   4.5120437   1.4930778  16.0516072  )
        18           O1  tau(  18) = (   2.0188724   1.4901805  16.0528637  )
        19           Ti1 tau(  19) = (   3.2526435   2.9656207  15.7242400  )
        20           Ti1 tau(  20) = (   6.5390660   1.5270114  16.1581541  )
        21           O1  tau(  21) = (   3.2904802   0.0005063   4.7018136  )
        22           O1  tau(  22) = (   6.5517350   0.0054997  17.2382445  )
        23           O1  tau(  23) = (   1.3043587   1.4918075   6.0039043  )
        24           O1  tau(  24) = (   5.2767064   1.4903225   6.0039473  )
        25           Ti1 tau(  25) = (   0.0000382   5.9609847   6.0000000  )
        26           Ti1 tau(  26) = (   3.2902200   4.4714249   6.0002472  )
        27           O1  tau(  27) = (   0.0002396   2.9813036   7.9858123  )
        28           O1  tau(  28) = (   3.2902150   2.9813002   7.3038282  )
        29           O1  tau(  29) = (   4.5938453   4.4726049   9.2879030  )
        30           O1  tau(  30) = (   1.9864658   4.4711199   9.2879459  )
        31           Ti1 tau(  31) = (   3.2991641   5.8454459   9.1677744  )
        32           Ti1 tau(  32) = (   0.0142928   4.4069258   9.3804372  )
        33           O1  tau(  33) = (   3.2794024   2.9620648  11.3429404  )
        34           O1  tau(  34) = (   0.0008107   2.9631099  10.5617750  )
        35           O1  tau(  35) = (   1.2628400   4.4505553  12.6449227  )
        36           O1  tau(  36) = (   5.2621040   4.4508628  12.6271667  )
        37           Ti1 tau(  37) = (   0.0634051   5.9337149  12.8176510  )
        38           Ti1 tau(  38) = (   3.3888395   4.4462795  12.4902329  )
        39           O1  tau(  39) = (   6.5643088   2.9532696  14.6533357  )
        40           O1  tau(  40) = (   3.2687884   2.9653797  13.9163527  )
        41           O1  tau(  41) = (   4.5138939   4.4677068  16.0260545  )
        42           O1  tau(  42) = (   2.0159196   4.4685127  16.0260682  )
        43           Ti1 tau(  43) = (   3.2551286   5.9518885  15.7372992  )
        44           Ti1 tau(  44) = (   6.5382561   4.5045293  16.1449140  )
        45           O1  tau(  45) = (   3.2900926   2.9813045   4.7018136  )
        46           O1  tau(  46) = (   6.5520679   2.9954315  17.2342401  )
        47           O1  tau(  47) = (   1.3039711   4.4726057   6.0039043  )
        48           O1  tau(  48) = (   5.2763189   4.4711207   6.0039473  )
        49           N1  tau(  49) = (   3.2718132   4.4933032  18.6889481  )
        50           N1  tau(  50) = (   3.2619367   3.3463452  18.5802627  )
        51           C1  tau(  51) = (   3.2831389   5.7900214  18.6539038  )
        52           H1  tau(  52) = (   2.3406966   0.3270794  18.8225995  )
        53           H1  tau(  53) = (   4.2401870   0.3074325  18.8013464  )

     number of k points=    10  Fermi-Dirac smearing, width (Ry)=  0.0073
                       cart. coord. in units 2pi/alat
        k(    1) = (   0.0000000   0.0000000   0.0000000), wk =   0.1250000
        k(    2) = (   0.0000000   0.0419351   0.0000000), wk =   0.2500000
        k(    3) = (   0.0000000  -0.0838702   0.0000000), wk =   0.1250000
        k(    4) = (   0.0379955   0.0000049   0.0000000), wk =   0.2500000
        k(    5) = (   0.0379955   0.0419400   0.0000000), wk =   0.2500000
        k(    6) = (   0.0379955  -0.0838652   0.0000000), wk =   0.2500000
        k(    7) = (   0.0379955  -0.0419301   0.0000000), wk =   0.2500000
        k(    8) = (  -0.0759910  -0.0000099   0.0000000), wk =   0.1250000
        k(    9) = (  -0.0759910   0.0419252   0.0000000), wk =   0.2500000
        k(   10) = (  -0.0759910  -0.0838800   0.0000000), wk =   0.1250000

     Initial potential from superposition of free atoms

     starting charge  383.99917, renormalised to  400.00000

     negative rho (up, down):  1.829E-02 0.000E+00

     %%%%%%%%%%%%%%%%%%%%%%%%%%%%%%%%%%%%%%%%%%%%%%%%%%%%%%%%%%%%%%%%%%%%%%%%
     %                                                                      %
     % You are using vdW-DF, which was implemented by the Thonhauser group. %
     % Please cite the following two papers that made this development      %
     % possible and the two reviews that describe the various versions:     %
     %                                                                      %
     %   T. Thonhauser et al., PRL 115, 136402 (2015).                      %
     %   T. Thonhauser et al., PRB 76, 125112 (2007).                       %
     %   K. Berland et al., Rep. Prog. Phys. 78, 066501 (2015).             %
     %   D.C. Langreth et al., J. Phys.: Condens. Matter 21, 084203 (2009). %
     %                                                                      %
     %                                                                      %
     % If you are calculating the stress with vdW-DF, please also cite:     %
     %                                                                      %
     %   R. Sabatini et al., J. Phys.: Condens. Matter 24, 424209 (2012).   %
     %                                                                      %
     %%%%%%%%%%%%%%%%%%%%%%%%%%%%%%%%%%%%%%%%%%%%%%%%%%%%%%%%%%%%%%%%%%%%%%%%

     Adding external electric field

     Computed dipole along edir(3) :
        Dipole               -9.8398 Ry au,        -25.0102 Debye
        Dipole field         -0.0186 Ry au,

        Potential amp.        1.7213 Ry
        Total length         46.3494 bohr

     Starting wfcs are  302 atomic wfcs
  @ DRIVER MODE: Message from server: STATUS
  @ DRIVER MODE: Message from server: POSDATA
  @ DRIVER MODE: Reading and sharing cell
  @ DRIVER MODE: Reading and sharing positions
  @ DRIVER MODE: Received positions

     Self-consistent Calculation

     iteration #  1     ecut=    29.40 Ry     beta= 0.05
     Davidson diagonalization with overlap
     c_bands:  1 eigenvalues not converged
     c_bands:  2 eigenvalues not converged
     c_bands:  1 eigenvalues not converged
     c_bands:  2 eigenvalues not converged
     c_bands:  2 eigenvalues not converged
     c_bands:  2 eigenvalues not converged
     c_bands:  1 eigenvalues not converged
     c_bands:  3 eigenvalues not converged
     ethr =  1.00E-05,  avg # of iterations = 20.0

[...]

     total energy              =   -2519.81533563 Ry
     estimated scf accuracy    <    5013.15314578 Ry

     iteration #  2     ecut=    29.40 Ry     beta= 0.05
     Davidson diagonalization with overlap
     ethr =  1.00E-02,  avg # of iterations = 25.2

[...]

     iteration # 54     ecut=    29.40 Ry     beta= 0.05
     Davidson diagonalization with overlap
     c_bands:  1 eigenvalues not converged
     ethr =  7.00E-10,  avg # of iterations =  6.5

[...]

     total energy              =   -2970.35048196 Ry
     estimated scf accuracy    <       0.00000011 Ry

     iteration # 66     ecut=    29.40 Ry     beta= 0.05
     Davidson diagonalization with overlap
     ethr =  2.75E-11,  avg # of iterations =  5.2

     negative rho (up, down):  1.788E-02 0.000E+00

     Adding external electric field

     Computed dipole along edir(3) :
        Dipole                0.5344 Ry au,          1.3583 Debye
        Dipole field          0.0010 Ry au,

        Potential amp.       -0.0935 Ry
        Total length         46.3494 bohr

     End of self-consistent calculation

          k = 0.0000 0.0000 0.0000 ( 18029 PWs)   bands (ev):

   -56.2404 -56.2069 -55.8910 -55.8553 -55.7667 -55.7315 -55.6327 -55.6093
   -55.5981 -55.5754 -55.5285 -55.4935 -55.4817 -55.4449 -55.0136 -54.9796
   -32.6674 -32.4881 -32.4601 -32.4318 -32.4260 -32.3407 -32.2943 -32.2406
   -32.1873 -32.1358 -32.1049 -32.1013 -32.0701 -32.0682 -32.0526 -32.0482
   -32.0337 -32.0140 -32.0086 -31.9918 -31.9073 -31.8843 -31.8733 -31.8620
   -31.8531 -31.8480 -31.8245 -31.8153 -31.8021 -31.7739 -31.7672 -31.7451
   -31.7381 -31.7256 -31.7075 -31.7057 -31.7048 -31.6881 -31.6863 -31.6575
   -31.6325 -31.5525 -31.4129 -31.3407 -31.3169 -31.2313 -31.1463 -31.0344
   -20.8824 -16.5581 -16.3944 -16.1729 -16.0199 -15.9308 -15.7998 -15.6044
   -15.5791 -15.4861 -15.4836 -15.4595 -15.3893 -15.3885 -15.3551 -15.3502
   -15.3215 -15.3000 -15.2606 -15.2440 -15.2416 -15.1990 -15.1392 -15.1133
   -15.0208 -14.9736 -14.8686 -14.8633 -14.8328 -14.7480 -14.7164 -14.2642
   -13.5075 -13.3941  -6.8362  -5.8269  -5.0181  -3.9854  -3.9217  -3.8916
    -3.7789  -3.7607  -3.6344  -3.3558  -3.3011  -3.0499  -2.9947  -2.9784
    -2.9330  -2.9110  -2.8435  -2.8011  -2.7388  -2.7340  -2.6882  -2.6812
    -2.6479  -2.6457  -2.6281  -2.5687  -2.5478  -2.4627  -2.4539  -2.4228
    -2.3840  -2.2812  -2.2365  -2.1918  -2.1898  -2.1612  -2.0619  -2.0544
    -2.0401  -2.0111  -1.9289  -1.8780  -1.7510  -1.6503  -1.6344  -1.5893
    -1.5280  -1.4956  -1.2965  -1.2493  -1.2458  -1.2237  -1.2021  -1.1897
    -1.1205  -1.0545  -0.9316  -0.8551  -0.8308  -0.7761  -0.7553  -0.7497
    -0.7300  -0.6522  -0.6224  -0.6162  -0.5926  -0.4520  -0.3065  -0.2674
    -0.2451  -0.2306  -0.2090  -0.1299  -0.1134  -0.0770  -0.0363  -0.0178
     0.0014   0.0498   0.0784   0.0872   0.1919   0.2120   0.2732   0.2945
     0.3042   0.3402   0.3839   0.5294   0.6162   0.7297   0.7389   0.8188
     0.9663   0.9734   1.0140   1.2033   1.2283   1.2758   1.5995   1.6726
     3.0316   3.2149   3.4466   3.5173   3.5376   3.6301   3.7351   3.7657
     3.8326   3.9107

[...]

          k = 0.0380-0.0419 0.0000 ( 17876 PWs)   bands (ev):

[...]

          k =-0.0760-0.0000 0.0000 ( 17886 PWs)   bands (ev):

[...]

          k =-0.0760-0.0839 0.0000 ( 17948 PWs)   bands (ev):

   -56.2237 -56.2235 -55.8734 -55.8728 -55.7520 -55.7461 -55.6162 -55.6146
   -55.5926 -55.5918 -55.5117 -55.5104 -55.4637 -55.4628 -54.9965 -54.9965
   -32.4849 -32.4848 -32.4738 -32.4736 -32.3846 -32.3845 -32.2322 -32.2279
   -32.1368 -32.1327 -32.0793 -32.0784 -32.0690 -32.0587 -32.0384 -32.0307
   -31.9569 -31.9484 -31.9374 -31.9356 -31.9226 -31.9218 -31.8560 -31.8555
   -31.8444 -31.8430 -31.8378 -31.8373 -31.8311 -31.8306 -31.8028 -31.8021
   -31.7907 -31.7846 -31.7276 -31.7266 -31.7181 -31.7170 -31.7002 -31.6987
   -31.6835 -31.6824 -31.3298 -31.3298 -31.2271 -31.2271 -31.1889 -31.1889
   -20.8812 -15.9788 -15.9676 -15.7736 -15.7689 -15.7057 -15.7056 -15.6652
   -15.6631 -15.6128 -15.6115 -15.4726 -15.4698 -15.4691 -15.4655 -15.3893
   -15.3879 -15.3739 -15.3729 -15.3220 -15.3203 -15.1860 -15.1848 -15.0986
   -15.0975 -15.0538 -15.0529 -14.9970 -14.9962 -14.8967 -14.8821 -14.2770
   -13.4965 -13.4964  -6.6748  -5.7967  -5.0069  -4.1477  -3.2645  -3.2518
    -2.9854  -2.9794  -2.8732  -2.8640  -2.8351  -2.8273  -2.8212  -2.7398
    -2.7290  -2.7089  -2.7026  -2.6758  -2.6715  -2.6145  -2.6129  -2.5907
    -2.5839  -2.5750  -2.5739  -2.5686  -2.5658  -2.4769  -2.4737  -2.4604
    -2.4583  -2.3856  -2.3786  -2.3452  -2.3325  -2.1249  -2.1245  -2.0549
    -2.0538  -1.9359  -1.9346  -1.9182  -1.9143  -1.8781  -1.8377  -1.5997
    -1.5976  -1.5399  -1.5375  -1.4873  -1.4730  -1.3683  -1.3389  -1.2118
    -1.1921  -1.1763  -1.1687  -1.0185  -1.0153  -1.0134  -1.0099  -0.9859
    -0.9828  -0.8663  -0.8532  -0.7669  -0.7597  -0.7430  -0.7395  -0.7014
    -0.6833  -0.5336  -0.5331  -0.5101  -0.5042  -0.3627  -0.3617  -0.3025
    -0.2957  -0.0537  -0.0454   0.0663   0.0665   0.2958   0.3307   0.3513
     0.3629   0.5047   0.5136   0.5272   0.5364   0.6612   0.6659   0.6825
     0.6886   0.7757   0.7757   1.2009   1.4016   1.4022   1.4540   1.4541
     3.5723   3.5770   3.5814   3.5859   3.6262   3.6278   3.6733   3.6749
     3.9420   3.9900

     the Fermi energy is     2.4042 ev

!    total energy              =   -2970.35050868 Ry
     estimated scf accuracy    <       0.00000003 Ry
     smearing contrib. (-TS)   =      -0.00009794 Ry
     internal energy E=F+TS    =   -2970.35041074 Ry

     The total energy is F=E-TS. E is the sum of the following terms:
     one-electron contribution =  -24066.50010420 Ry
     hartree contribution      =   12123.55690755 Ry
     xc contribution           =    -491.46512459 Ry
     ewald contribution        =    9464.05737155 Ry
     electric field correction =       0.00053894 Ry

     convergence has been achieved in  66 iterations

     Forces acting on atoms (cartesian axes, Ry/au):

     atom    1 type  1   force =     0.00011975   -0.00010730    0.14847826
     atom    2 type  1   force =    -0.00010201   -0.00049958   -0.16835142
     atom    3 type  2   force =     0.00013972    0.00223668   -0.05995223
     atom    4 type  2   force =     0.00015540   -0.00146632    0.03992165
     atom    5 type  2   force =    -0.02120920   -0.00097013    0.00398320
     atom    6 type  2   force =     0.02100290    0.00033293    0.00311717
     atom    7 type  1   force =    -0.00012003   -0.00019475   -0.00001989
     atom    8 type  1   force =    -0.00021631    0.00001955    0.00006170
     atom    9 type  2   force =    -0.00023760   -0.00005563    0.00015358
     atom   10 type  2   force =     0.00001710    0.00000027    0.00004450
     atom   11 type  2   force =    -0.00000163   -0.00006384   -0.00012605
     atom   12 type  2   force =    -0.00010878   -0.00013575   -0.00006982
     atom   13 type  1   force =    -0.00008521   -0.00000508   -0.00007593
     atom   14 type  1   force =     0.00006183    0.00002881    0.00003077
     atom   15 type  2   force =     0.00010903    0.00002140   -0.00006265
     atom   16 type  2   force =     0.00006875   -0.00002061    0.00029788
     atom   17 type  2   force =     0.00001909   -0.00029903    0.00024666
     atom   18 type  2   force =     0.00022925   -0.00024562   -0.00002296
     atom   19 type  1   force =     0.00020141    0.00026761    0.00053436
     atom   20 type  1   force =    -0.00013464    0.00005898   -0.00009618
     atom   21 type  2   force =     0.00004332   -0.00004430    0.10204745
     atom   22 type  2   force =     0.00007181   -0.00000228   -0.00001993
     atom   23 type  2   force =    -0.07527172    0.00015654   -0.03467600
     atom   24 type  2   force =     0.07520465    0.00058259   -0.03474986
     atom   25 type  1   force =     0.00011706   -0.00013129    0.14838333
     atom   26 type  1   force =    -0.00013610   -0.00086214   -0.16858797
     atom   27 type  2   force =     0.00012286    0.00218684   -0.05990532
     atom   28 type  2   force =     0.00009082   -0.00146106    0.04020244
     atom   29 type  2   force =    -0.02100524   -0.00107426    0.00396359
     atom   30 type  2   force =     0.02119676    0.00041289    0.00311610
     atom   31 type  1   force =    -0.00019868   -0.00010678   -0.00001897
     atom   32 type  1   force =    -0.00011772   -0.00005213   -0.00006915
     atom   33 type  2   force =     0.00013511    0.00008389    0.00005979
     atom   34 type  2   force =    -0.00008791    0.00002947   -0.00003235
     atom   35 type  2   force =    -0.00003462    0.00002868    0.00003514
     atom   36 type  2   force =    -0.00015404    0.00022715   -0.00014875
     atom   37 type  1   force =    -0.00007122   -0.00014588   -0.00003053
     atom   38 type  1   force =     0.00005161   -0.00000326    0.00019730
     atom   39 type  2   force =    -0.00007794   -0.00002023   -0.00018325
     atom   40 type  2   force =     0.00011614    0.00001388   -0.00002962
     atom   41 type  2   force =     0.00025174    0.00006797   -0.00003522
     atom   42 type  2   force =     0.00020772    0.00012838    0.00011709
     atom   43 type  1   force =    -0.00009185    0.00008650   -0.00054276
     atom   44 type  1   force =    -0.00007004   -0.00003360    0.00008807
     atom   45 type  2   force =     0.00003731   -0.00004734    0.10203930
     atom   46 type  2   force =     0.00003862   -0.00003379   -0.00024224
     atom   47 type  2   force =    -0.07527296    0.00019847   -0.03467574
     atom   48 type  2   force =     0.07521067    0.00063052   -0.03474536
     atom   49 type  3   force =    -0.00047131   -0.03868195   -0.00451330
     atom   50 type  3   force =     0.00046600    0.04134876    0.00434973
     atom   51 type  4   force =    -0.00076400   -0.00310706    0.00011135
     atom   52 type  5   force =    -0.00020044    0.00007801    0.00009183
     atom   53 type  5   force =     0.00075474    0.00064422    0.00031119

     Total force =     0.405734     Total SCF correction =     0.000365
  @ DRIVER MODE: Message from server: STATUS
  @ DRIVER MODE: Message from server: GETFORCE
  @ DRIVER MODE: Returning v,forces,stress,ensemble

     Writing output data file ./calc.save/
  @ DRIVER MODE: Message from server: EXIT
  @ DRIVE MODE: Exiting

     General routines

     Parallel routines

   This run was terminated on:  14:32:25   5Oct2021

   JOB DONE.