     Program PWSCF v.6.7GPU starts on  8Sep2021 at 23: 8:42

     R & G space division:  proc/nbgrp/npool/nimage =      10
     Reading input from /storage/home/hcoda1/3/ntian30/research/carbon/CxH_vib/CH3_calc/ads_slab/CH3N_a/out_0005/pw.inp
Warning: card &CELL ignored
Warning: card   CELL_DYNAMICS='IPI', ignored
Warning: card / ignored

     Current dimensions of program PWSCF are:
     Max number of different atomic species (ntypx) = 10
     Max number of k-points (npk) =  40000
     Max angular momentum in pseudopotentials (lmaxx) =  3
     Presently no symmetry can be used with electric field

     Message from routine cell_base_init:
     DEPRECATED: use true lattice parameter, not A to a.u. conversion factor

     IMPORTANT: XC functional enforced from input :
     Exchange-correlation= BEEF-VDW
                           (   1   4  43  14   2   0   0)
     Any further DFT definition will be discarded
     Please, verify this is what you really want

  @ DRIVER MODE: Connecting to
 qe_1139763_2767403.sched-torque.pace.gatech.edupktp73ap_scratch
  using UNIX socket
  @ DRIVER MODE: Message from server: STATUS
  @ DRIVER MODE: Message from server: INIT
  @ DRIVER MODE: Receiving replica           0          -1
  @ DRIVER MODE: Receiving encoded integer          25
  @ DRIVER MODE:  SCF:  T  FORCE:  T  STRESS:  F  VC:  F  ENSEMBLE:  F
  @ DRIVER MODE:  SCF:  T  FORCE:  T  STRESS:  F  VC:  F  ENSEMBLE:  F

     Using Slab Decomposition

     bravais-lattice index     =            0
     lattice parameter (alat)  =       1.8897  a.u.
     unit-cell volume          =    6658.9804 (a.u.)^3
     number of atoms/cell      =           52
     number of atomic types    =            5
     number of electrons       =       390.00
     number of Kohn-Sham states=          205
     kinetic-energy cutoff     =      29.3995  Ry
     charge density cutoff     =     293.9946  Ry
     scf convergence threshold =      7.3E-08
     mixing beta               =       0.0500
     number of iterations used =            8  plain     mixing
     Exchange-correlation= BEEF-VDW
                           (   1   4  43  14   2   0   0)

     celldm(1)=   1.889726  celldm(2)=   0.000000  celldm(3)=   0.000000
     celldm(4)=   0.000000  celldm(5)=   0.000000  celldm(6)=   0.000000

     crystal axes: (cart. coord. in units of alat)
               a(1) = (   6.579727   0.000000   0.000000 )
               a(2) = (  -0.000775   5.961596   0.000000 )
               a(3) = (   0.000000   0.000000  25.155947 )

     reciprocal axes: (cart. coord. in units 2 pi/alat)
               b(1) = (  0.151982  0.000020  0.000000 )
               b(2) = (  0.000000  0.167740  0.000000 )
               b(3) = (  0.000000  0.000000  0.039752 )

     PseudoPot. # 1 for Ti read from file:
     /storage/coda1/p-amedford6/0/shared/rich_project_chbe-medford/medford-share/data/pseudos_module/espresso/nninc/pbe/van/Ti.UPF
     MD5 check sum: 8e4df49b7f0d34bbd5052bf3f5ea0213
     Pseudo is Ultrasoft, Zval = 12.0
     Generated by new atomic code, or converted to UPF format
     Using radial grid of  851 points,  6 beta functions with:
                l(1) =   0
                l(2) =   0
                l(3) =   1
                l(4) =   1
                l(5) =   2
                l(6) =   2
     Q(r) pseudized with  8 coefficients,  rinner =    1.000   1.000   1.000
                                                       1.000   1.000

     PseudoPot. # 2 for O  read from file:
     /storage/coda1/p-amedford6/0/shared/rich_project_chbe-medford/medford-share/data/pseudos_module/espresso/nninc/pbe/van/O.UPF
     MD5 check sum: 78c19812648e8988a0fe644b0f25305e
     Pseudo is Ultrasoft, Zval =  6.0
     Generated by new atomic code, or converted to UPF format
     Using radial grid of  737 points,  4 beta functions with:
                l(1) =   0
                l(2) =   0
                l(3) =   1
                l(4) =   1
     Q(r) pseudized with  8 coefficients,  rinner =    0.800   0.800   0.800

     PseudoPot. # 3 for N  read from file:
     /storage/coda1/p-amedford6/0/shared/rich_project_chbe-medford/medford-share/data/pseudos_module/espresso/nninc/pbe/van/N.UPF
     MD5 check sum: 90d10febe142ad51ac9d5be1deb811c4
     Pseudo is Ultrasoft, Zval =  5.0
     Generated by new atomic code, or converted to UPF format
     Using radial grid of  729 points,  4 beta functions with:
                l(1) =   0
                l(2) =   0
                l(3) =   1
                l(4) =   1
     Q(r) pseudized with  8 coefficients,  rinner =    0.800   0.800   0.800

     PseudoPot. # 4 for C  read from file:
     /storage/coda1/p-amedford6/0/shared/rich_project_chbe-medford/medford-share/data/pseudos_module/espresso/nninc/pbe/van/C.UPF
     MD5 check sum: 1a69bf6b8db32088f5b2163dbdb77a27
     Pseudo is Ultrasoft, Zval =  4.0
     Generated by new atomic code, or converted to UPF format
     Using radial grid of  721 points,  4 beta functions with:
                l(1) =   0
                l(2) =   0
                l(3) =   1
                l(4) =   1
     Q(r) pseudized with  8 coefficients,  rinner =    0.800   0.800   0.800

     PseudoPot. # 5 for H  read from file:
     /storage/coda1/p-amedford6/0/shared/rich_project_chbe-medford/medford-share/data/pseudos_module/espresso/nninc/pbe/van/H.UPF
     MD5 check sum: b5ee9d7bfd3a09ee7748110bda690ff7
     Pseudo is Ultrasoft, Zval =  1.0
     Generated by new atomic code, or converted to UPF format
     Using radial grid of  615 points,  1 beta functions with:
                l(1) =   0
     Q(r) pseudized with  8 coefficients,  rinner =    0.800

     atomic species   valence    mass     pseudopotential
        Ti1           12.00    47.86700     Ti( 1.00)
        O1             6.00    15.99900     O ( 1.00)
        N1             5.00    14.00700     N ( 1.00)
        C1             4.00    12.01100     C ( 1.00)
        H1             1.00     1.00800     H ( 1.00)

     No symmetry found

   Cartesian axes

     site n.     atom                  positions (alat units)
         1           Ti1 tau(   1) = (   0.0004258   2.9801865   6.0000000  )
         2           Ti1 tau(   2) = (   3.2906075   1.4906267   6.0002472  )
         3           O1  tau(   3) = (   0.0006271   0.0005054   7.9858123  )
         4           O1  tau(   4) = (   3.2906025   0.0005020   7.3038282  )
         5           O1  tau(   5) = (   4.5942328   1.4918067   9.2879030  )
         6           O1  tau(   6) = (   1.9868534   1.4903216   9.2879459  )
         7           Ti1 tau(   7) = (   3.2907910   2.8959150   9.1758416  )
         8           Ti1 tau(   8) = (   0.0015273   1.4827037   9.2680791  )
         9           O1  tau(   9) = (   3.3018735   5.9614316  11.2970789  )
        10           O1  tau(  10) = (   0.0116148   5.9584955  10.6183126  )
        11           O1  tau(  11) = (   1.3353665   1.4968727  12.6140821  )
        12           O1  tau(  12) = (   5.3123320   1.5002621  12.6324210  )
        13           Ti1 tau(  13) = (   6.4913169   2.9877414  12.7576577  )
        14           Ti1 tau(  14) = (   3.1819880   1.4874128  12.4666476  )
        15           O1  tau(  15) = (   0.0325390   5.9514364  14.5942808  )
        16           O1  tau(  16) = (   3.3157460   0.0104736  13.8786857  )
        17           O1  tau(  17) = (   4.5538541   1.5308062  16.0536203  )
        18           O1  tau(  18) = (   2.1012647   1.5271178  16.0466835  )
        19           Ti1 tau(  19) = (   3.3239613   3.0121693  15.6870930  )
        20           Ti1 tau(  20) = (   0.0188375   1.6096557  16.0875739  )
        21           O1  tau(  21) = (   3.2904802   0.0005063   4.7018136  )
        22           O1  tau(  22) = (   0.0443345   0.0604659  17.2041813  )
        23           O1  tau(  23) = (   1.3043587   1.4918075   6.0039043  )
        24           O1  tau(  24) = (   5.2767064   1.4903225   6.0039473  )
        25           Ti1 tau(  25) = (   0.0000382   5.9609847   6.0000000  )
        26           Ti1 tau(  26) = (   3.2902200   4.4714249   6.0002472  )
        27           O1  tau(  27) = (   0.0002396   2.9813036   7.9858123  )
        28           O1  tau(  28) = (   3.2902150   2.9813002   7.3038282  )
        29           O1  tau(  29) = (   4.5938453   4.4726049   9.2879030  )
        30           O1  tau(  30) = (   1.9864658   4.4711199   9.2879459  )
        31           Ti1 tau(  31) = (   3.2891106   5.8743827   9.1763621  )
        32           Ti1 tau(  32) = (   0.0006254   4.4649316   9.2693709  )
        33           O1  tau(  33) = (   3.3028429   2.9834257  11.2952420  )
        34           O1  tau(  34) = (   0.0092240   2.9805883  10.6323155  )
        35           O1  tau(  35) = (   1.3370139   4.4664586  12.6123119  )
        36           O1  tau(  36) = (   5.3107101   4.4655690  12.6333123  )
        37           Ti1 tau(  37) = (   6.5188704   0.0058144  12.7695920  )
        38           Ti1 tau(  38) = (   3.1805296   4.4670443  12.4671176  )
        39           O1  tau(  39) = (   0.0099197   2.9765079  14.6559069  )
        40           O1  tau(  40) = (   3.3143426   2.9928857  13.8797190  )
        41           O1  tau(  41) = (   4.5573730   4.5089470  16.0521860  )
        42           O1  tau(  42) = (   2.1018054   4.5121927  16.0508938  )
        43           Ti1 tau(  43) = (   3.3145791   0.0316975  15.6896801  )
        44           Ti1 tau(  44) = (   0.0207397   4.5876961  16.1385408  )
        45           O1  tau(  45) = (   3.2900926   2.9813045   4.7018136  )
        46           O1  tau(  46) = (   1.3039711   4.4726057   6.0039043  )
        47           O1  tau(  47) = (   5.2763189   4.4711207   6.0039473  )
        48           N1  tau(  48) = (   0.0936308   3.0233000  17.3157847  )
        49           C1  tau(  49) = (   0.4281149   3.0137428  18.7308649  )
        50           H1  tau(  50) = (   0.7292188   4.0033843  19.0862330  )
        51           H1  tau(  51) = (   6.1445545   2.6862439  19.3232575  )
        52           H1  tau(  52) = (   1.2401080   2.3040860  18.9332505  )

     number of k points=    10  Fermi-Dirac smearing, width (Ry)=  0.0073
                       cart. coord. in units 2pi/alat
        k(    1) = (   0.0000000   0.0000000   0.0000000), wk =   0.1250000
        k(    2) = (   0.0000000   0.0419351   0.0000000), wk =   0.2500000
        k(    3) = (   0.0000000  -0.0838702   0.0000000), wk =   0.1250000
        k(    4) = (   0.0379955   0.0000049   0.0000000), wk =   0.2500000
        k(    5) = (   0.0379955   0.0419400   0.0000000), wk =   0.2500000
        k(    6) = (   0.0379955  -0.0838652   0.0000000), wk =   0.2500000
        k(    7) = (   0.0379955  -0.0419301   0.0000000), wk =   0.2500000
        k(    8) = (  -0.0759910  -0.0000099   0.0000000), wk =   0.1250000
        k(    9) = (  -0.0759910   0.0419252   0.0000000), wk =   0.2500000
        k(   10) = (  -0.0759910  -0.0838800   0.0000000), wk =   0.1250000

     Initial potential from superposition of free atoms

     starting charge  373.99917, renormalised to  390.00000

     negative rho (up, down):  1.729E-02 0.000E+00

     %%%%%%%%%%%%%%%%%%%%%%%%%%%%%%%%%%%%%%%%%%%%%%%%%%%%%%%%%%%%%%%%%%%%%%%%
     %                                                                      %
     % You are using vdW-DF, which was implemented by the Thonhauser group. %
     % Please cite the following two papers that made this development      %
     % possible and the two reviews that describe the various versions:     %
     %                                                                      %
     %   T. Thonhauser et al., PRL 115, 136402 (2015).                      %
     %   T. Thonhauser et al., PRB 76, 125112 (2007).                       %
     %   K. Berland et al., Rep. Prog. Phys. 78, 066501 (2015).             %
     %   D.C. Langreth et al., J. Phys.: Condens. Matter 21, 084203 (2009). %
     %                                                                      %
     %                                                                      %
     % If you are calculating the stress with vdW-DF, please also cite:     %
     %                                                                      %
     %   R. Sabatini et al., J. Phys.: Condens. Matter 24, 424209 (2012).   %
     %                                                                      %
     %%%%%%%%%%%%%%%%%%%%%%%%%%%%%%%%%%%%%%%%%%%%%%%%%%%%%%%%%%%%%%%%%%%%%%%%

     Adding external electric field

     Computed dipole along edir(3) :
        Dipole               -4.6232 Ry au,        -11.7509 Debye
        Dipole field         -0.0087 Ry au,

        Potential amp.        0.8088 Ry
        Total length         46.3494 bohr

     Starting wfcs are  295 atomic wfcs
  @ DRIVER MODE: Message from server: STATUS
  @ DRIVER MODE: Message from server: POSDATA
  @ DRIVER MODE: Reading and sharing cell
  @ DRIVER MODE: Reading and sharing positions
  @ DRIVER MODE: Received positions

     Self-consistent Calculation

     iteration #  1     ecut=    29.40 Ry     beta= 0.05
     Davidson diagonalization with overlap
     c_bands:  4 eigenvalues not converged
     c_bands:  2 eigenvalues not converged
     c_bands:  3 eigenvalues not converged
     c_bands:  4 eigenvalues not converged
     c_bands:  4 eigenvalues not converged
     c_bands:  2 eigenvalues not converged
     c_bands:  2 eigenvalues not converged
     c_bands:  2 eigenvalues not converged
     ethr =  1.00E-05,  avg # of iterations = 19.7

[...]

     total energy              =   -2877.37861570 Ry
     estimated scf accuracy    <     481.51283570 Ry

     iteration #  2     ecut=    29.40 Ry     beta= 0.05
     Davidson diagonalization with overlap
     ethr =  1.00E-02,  avg # of iterations = 14.0

[...]

     iteration # 37     ecut=    29.40 Ry     beta= 0.05
     Davidson diagonalization with overlap
     c_bands:  1 eigenvalues not converged
     c_bands:  1 eigenvalues not converged
     ethr =  5.88E-07,  avg # of iterations = 10.6

[...]

     total energy              =   -2919.13171217 Ry
     estimated scf accuracy    <       0.00000012 Ry

     iteration # 58     ecut=    29.40 Ry     beta= 0.05
     Davidson diagonalization with overlap
     ethr =  3.16E-11,  avg # of iterations =  5.4

     negative rho (up, down):  1.788E-02 0.000E+00

     Adding external electric field

     Computed dipole along edir(3) :
        Dipole                0.2599 Ry au,          0.6605 Debye
        Dipole field          0.0005 Ry au,

        Potential amp.       -0.0455 Ry
        Total length         46.3494 bohr

     End of self-consistent calculation

          k = 0.0000 0.0000 0.0000 ( 18029 PWs)   bands (ev):

   -56.8956 -56.8620 -56.0102 -55.9988 -55.9752 -55.9660 -55.8558 -55.8171
   -55.6352 -55.5998 -55.5567 -55.5392 -55.5227 -55.4303 -54.9508 -54.9023
   -33.3232 -33.1699 -33.1418 -33.0720 -32.9809 -32.9492 -32.4815 -32.4748
   -32.3967 -32.2946 -32.2477 -32.2239 -32.2059 -32.1843 -32.1508 -32.1466
   -32.1393 -32.1351 -32.1139 -32.0999 -32.0994 -32.0627 -32.0362 -32.0216
   -32.0088 -31.9901 -31.9796 -31.9556 -31.9488 -31.8954 -31.8712 -31.8662
   -31.7810 -31.7737 -31.7675 -31.7141 -31.7015 -31.6841 -31.6597 -31.6345
   -31.6160 -31.5732 -31.4811 -31.2035 -31.1767 -31.1553 -31.1235 -31.0116
   -17.0573 -16.6153 -16.3826 -16.2565 -16.1838 -16.1346 -16.0878 -15.9495
   -15.8856 -15.8846 -15.8484 -15.8028 -15.7357 -15.6015 -15.5028 -15.4389
   -15.3943 -15.2746 -15.2241 -15.1813 -15.1725 -15.1323 -15.1182 -14.9255
   -14.8992 -14.8169 -14.7868 -14.6661 -14.4261 -14.0554 -13.9454 -13.0095
    -7.8400  -4.6235  -4.1125  -3.8670  -3.7882  -3.6755  -3.6706  -3.5742
    -3.4741  -3.4225  -3.3777  -3.2623  -3.2519  -3.1110  -3.0883  -3.0700
    -3.0623  -3.0237  -2.9500  -2.9354  -2.8946  -2.8896  -2.8807  -2.7253
    -2.6322  -2.5576  -2.5361  -2.5192  -2.4940  -2.4173  -2.3874  -2.3858
    -2.3813  -2.2636  -2.1364  -2.1195  -2.0883  -2.0555  -2.0472  -2.0078
    -1.9891  -1.8644  -1.7816  -1.6699  -1.6631  -1.6260  -1.5685  -1.5645
    -1.4598  -1.3861  -1.3103  -1.3022  -1.1956  -1.1385  -1.1175  -1.0239
    -0.9695  -0.9321  -0.9043  -0.8923  -0.7867  -0.7825  -0.7640  -0.6703
    -0.6583  -0.6191  -0.5288  -0.5049  -0.4966  -0.4142  -0.4047  -0.2968
    -0.2745  -0.2235  -0.1929  -0.0852  -0.0652   0.0273   0.0668   0.0838
     0.2080   0.2272   0.2825   0.3634   0.4219   0.4355   0.4649   0.5029
     0.5161   0.6035   0.7090   0.7109   0.8252   0.8567   1.0174   1.0562
     1.3325   1.3582   2.0324   2.3798   2.5402   2.8381   3.0321   3.1461
     3.3561   3.3759   3.5608   3.6062   3.7179

[...]

          k = 0.0380-0.0419 0.0000 ( 17876 PWs)   bands (ev):

[...]

          k =-0.0760-0.0000 0.0000 ( 17886 PWs)   bands (ev):

[...]

          k =-0.0760-0.0839 0.0000 ( 17948 PWs)   bands (ev):

   -56.8789 -56.8786 -55.9950 -55.9892 -55.9831 -55.9826 -55.8443 -55.8285
   -55.6206 -55.6143 -55.5397 -55.5396 -55.5364 -55.4330 -54.9432 -54.9098
   -33.1558 -33.1555 -33.1401 -33.1399 -33.0250 -33.0247 -32.3113 -32.3089
   -32.2993 -32.2928 -32.2375 -32.2348 -32.1942 -32.1930 -32.1927 -32.1846
   -32.1829 -32.1817 -32.1795 -32.1779 -32.0945 -32.0819 -32.0433 -32.0310
   -31.9717 -31.9629 -31.9027 -31.8965 -31.8843 -31.8841 -31.8648 -31.8190
   -31.8169 -31.7896 -31.7652 -31.7651 -31.7530 -31.7260 -31.7260 -31.7098
   -31.6760 -31.6363 -31.3449 -31.2672 -31.1734 -31.1491 -31.1313 -31.0949
   -16.4056 -16.4036 -16.3714 -16.3711 -16.1008 -16.0973 -16.0446 -16.0413
   -15.8676 -15.8604 -15.6604 -15.6513 -15.6419 -15.6390 -15.5112 -15.5057
   -15.4367 -15.4225 -15.3305 -15.3283 -15.2687 -15.2628 -15.2206 -15.2007
   -14.8930 -14.8779 -14.7671 -14.7402 -14.5700 -14.0489 -14.0488 -13.0261
    -7.8307  -3.5036  -3.5029  -3.4382  -3.4373  -3.3059  -3.3001  -3.2359
    -3.2352  -3.1264  -3.1226  -3.0630  -2.9928  -2.9841  -2.9809  -2.9718
    -2.9441  -2.8280  -2.8260  -2.8159  -2.8014  -2.7496  -2.7477  -2.7219
    -2.6460  -2.6315  -2.5976  -2.5593  -2.4489  -2.4375  -2.4201  -2.3907
    -2.3357  -2.3251  -2.3131  -2.2716  -2.2405  -2.1528  -2.0975  -2.0471
    -1.9385  -1.9363  -1.9217  -1.9049  -1.7596  -1.7184  -1.6914  -1.6882
    -1.6696  -1.6244  -1.5373  -1.5299  -1.3916  -1.3912  -1.3058  -1.2297
    -1.2124  -1.1834  -1.0528  -1.0124  -0.9765  -0.9677  -0.9374  -0.9162
    -0.8928  -0.8548  -0.7138  -0.7018  -0.6648  -0.6287  -0.6232  -0.5684
    -0.5106  -0.4359  -0.3634  -0.3617  -0.2989  -0.2274  -0.1665  -0.0905
    -0.0786  -0.0702   0.2082   0.2873   0.3832   0.4629   0.5332   0.5839
     0.6188   0.6845   0.7239   0.8459   0.8506   0.8652   0.8655   0.9354
     0.9379   1.3180   1.9184   2.9536   2.9539   3.0210   3.0214   3.3450
     3.3507   3.4598   3.4695   3.5894   3.5935

     the Fermi energy is     2.2144 ev

!    total energy              =   -2919.13175872 Ry
     estimated scf accuracy    <       0.00000007 Ry
     smearing contrib. (-TS)   =      -0.00464575 Ry
     internal energy E=F+TS    =   -2919.12711297 Ry

     The total energy is F=E-TS. E is the sum of the following terms:
     one-electron contribution =  -24572.13359732 Ry
     hartree contribution      =   12370.34425031 Ry
     xc contribution           =    -479.89847084 Ry
     ewald contribution        =    9762.56057744 Ry
     electric field correction =       0.00012743 Ry

     convergence has been achieved in  58 iterations

     Forces acting on atoms (cartesian axes, Ry/au):

     atom    1 type  1   force =     0.00004959   -0.00050630    0.12454919
     atom    2 type  1   force =    -0.00009250   -0.00055849   -0.16047685
     atom    3 type  2   force =     0.00022144   -0.00024709   -0.06850390
     atom    4 type  2   force =    -0.00000197   -0.00031140    0.02732273
     atom    5 type  2   force =    -0.01619728    0.00175069   -0.00946177
     atom    6 type  2   force =     0.01825182    0.00228901   -0.00901717
     atom    7 type  1   force =     0.00112547   -0.00384118    0.02249504
     atom    8 type  1   force =    -0.00061327   -0.00323602    0.11167068
     atom    9 type  2   force =    -0.00009722    0.00138553   -0.00067262
     atom   10 type  2   force =    -0.00190059    0.00178341   -0.07387508
     atom   11 type  2   force =     0.00087952    0.00005838   -0.00006371
     atom   12 type  2   force =    -0.00070723    0.00018459    0.00003258
     atom   13 type  1   force =     0.00007176    0.00021847    0.00042662
     atom   14 type  1   force =    -0.00102529   -0.00025362   -0.00014901
     atom   15 type  2   force =    -0.00001113   -0.00040799   -0.00078733
     atom   16 type  2   force =    -0.00006870    0.00106707    0.00048073
     atom   17 type  2   force =    -0.00016326    0.00005485   -0.00047512
     atom   18 type  2   force =     0.00033555    0.00009159   -0.00013573
     atom   19 type  1   force =     0.00012104   -0.00002421   -0.00060389
     atom   20 type  1   force =     0.00025750   -0.00331234   -0.00240789
     atom   21 type  2   force =     0.00004150   -0.00006683    0.09969620
     atom   22 type  2   force =     0.00013220   -0.00039074    0.00017817
     atom   23 type  2   force =    -0.07927697   -0.00005198   -0.03247609
     atom   24 type  2   force =     0.07914371    0.00038326   -0.03249836
     atom   25 type  1   force =     0.00004206   -0.00050218    0.12400185
     atom   26 type  1   force =    -0.00009870   -0.00049545   -0.16047928
     atom   27 type  2   force =     0.00032691   -0.00048550   -0.06755914
     atom   28 type  2   force =     0.00002649   -0.00013344    0.02701342
     atom   29 type  2   force =    -0.01659611    0.00135316   -0.00966671
     atom   30 type  2   force =     0.01853953    0.00166112   -0.00923459
     atom   31 type  1   force =     0.00109987   -0.00131419    0.02205041
     atom   32 type  1   force =    -0.00051320    0.00068645    0.11231801
     atom   33 type  2   force =    -0.00033005   -0.00115908   -0.00016949
     atom   34 type  2   force =    -0.00155547    0.00135574   -0.07284430
     atom   35 type  2   force =    -0.00171923   -0.00019393    0.00015064
     atom   36 type  2   force =     0.00063311   -0.00039958   -0.00017276
     atom   37 type  1   force =     0.00071346   -0.00034466    0.00143748
     atom   38 type  1   force =    -0.00017926    0.00051544    0.00053646
     atom   39 type  2   force =     0.00012093   -0.00025085   -0.00172856
     atom   40 type  2   force =     0.00009562   -0.00016903    0.00007420
     atom   41 type  2   force =    -0.00016061    0.00054355   -0.00013091
     atom   42 type  2   force =     0.00047401    0.00064900   -0.00007902
     atom   43 type  1   force =     0.00036869    0.00020839   -0.00028093
     atom   44 type  1   force =    -0.00024029    0.00143249   -0.00166471
     atom   45 type  2   force =     0.00002613   -0.00007077    0.09970198
     atom   46 type  2   force =    -0.07928589   -0.00000519   -0.03247578
     atom   47 type  2   force =     0.07915465    0.00042297   -0.03249808
     atom   48 type  3   force =     0.00210542    0.00000771    0.01493167
     atom   49 type  4   force =    -0.00195734   -0.00040890   -0.00585324
     atom   50 type  5   force =    -0.00092943   -0.00012256   -0.00085278
     atom   51 type  5   force =     0.00012846    0.00034953   -0.00108330
     atom   52 type  5   force =    -0.00076543    0.00081112   -0.00068993

     Total force =     0.425565     Total SCF correction =     0.000596
  @ DRIVER MODE: Message from server: STATUS
  @ DRIVER MODE: Message from server: GETFORCE
  @ DRIVER MODE: Returning v,forces,stress,ensemble

     Writing output data file ./calc.save/
  @ DRIVER MODE: Message from server: EXIT
  @ DRIVE MODE: Exiting

     General routines

     Parallel routines

   This run was terminated on:  23:23: 6   8Sep2021

   JOB DONE.