     Program PWSCF v.6.7GPU starts on 26Sep2021 at  7:57:15

     R & G space division:  proc/nbgrp/npool/nimage =       8
     Reading input from /storage/home/hcoda1/3/ntian30/research/carbon/CxH_vib/H2O_calc/ads_slab/CH3OH2O_a/out_0017/pw.inp
Warning: card &CELL ignored
Warning: card   CELL_DYNAMICS='IPI', ignored
Warning: card / ignored

     Current dimensions of program PWSCF are:
     Max number of different atomic species (ntypx) = 10
     Max number of k-points (npk) =  40000
     Max angular momentum in pseudopotentials (lmaxx) =  3
     Presently no symmetry can be used with electric field

     Message from routine cell_base_init:
     DEPRECATED: use true lattice parameter, not A to a.u. conversion factor

     IMPORTANT: XC functional enforced from input :
     Exchange-correlation= BEEF-VDW
                           (   1   4  43  14   2   0   0)
     Any further DFT definition will be discarded
     Please, verify this is what you really want

  @ DRIVER MODE: Connecting to
 qe_1139763_2971673.sched-torque.pace.gatech.eduzxa97jxr_scratch
  using UNIX socket
  @ DRIVER MODE: Message from server: STATUS
  @ DRIVER MODE: Message from server: INIT
  @ DRIVER MODE: Receiving replica           0          -1
  @ DRIVER MODE: Receiving encoded integer          25
  @ DRIVER MODE:  SCF:  T  FORCE:  T  STRESS:  F  VC:  F  ENSEMBLE:  F
  @ DRIVER MODE:  SCF:  T  FORCE:  T  STRESS:  F  VC:  F  ENSEMBLE:  F

     Using Slab Decomposition

     bravais-lattice index     =            0
     lattice parameter (alat)  =       1.8897  a.u.
     unit-cell volume          =    6658.9804 (a.u.)^3
     number of atoms/cell      =           55
     number of atomic types    =            4
     number of electrons       =       399.00
     number of Kohn-Sham states=          209
     kinetic-energy cutoff     =      29.3995  Ry
     charge density cutoff     =     293.9946  Ry
     scf convergence threshold =      7.3E-08
     mixing beta               =       0.0500
     number of iterations used =            8  plain     mixing
     Exchange-correlation= BEEF-VDW
                           (   1   4  43  14   2   0   0)

     celldm(1)=   1.889726  celldm(2)=   0.000000  celldm(3)=   0.000000
     celldm(4)=   0.000000  celldm(5)=   0.000000  celldm(6)=   0.000000

     crystal axes: (cart. coord. in units of alat)
               a(1) = (   6.579727   0.000000   0.000000 )
               a(2) = (  -0.000775   5.961596   0.000000 )
               a(3) = (   0.000000   0.000000  25.155947 )

     reciprocal axes: (cart. coord. in units 2 pi/alat)
               b(1) = (  0.151982  0.000020  0.000000 )
               b(2) = (  0.000000  0.167740  0.000000 )
               b(3) = (  0.000000  0.000000  0.039752 )

     PseudoPot. # 1 for Ti read from file:
     /storage/coda1/p-amedford6/0/shared/rich_project_chbe-medford/medford-share/data/pseudos_module/espresso/nninc/pbe/van/Ti.UPF
     MD5 check sum: 8e4df49b7f0d34bbd5052bf3f5ea0213
     Pseudo is Ultrasoft, Zval = 12.0
     Generated by new atomic code, or converted to UPF format
     Using radial grid of  851 points,  6 beta functions with:
                l(1) =   0
                l(2) =   0
                l(3) =   1
                l(4) =   1
                l(5) =   2
                l(6) =   2
     Q(r) pseudized with  8 coefficients,  rinner =    1.000   1.000   1.000
                                                       1.000   1.000

     PseudoPot. # 2 for O  read from file:
     /storage/coda1/p-amedford6/0/shared/rich_project_chbe-medford/medford-share/data/pseudos_module/espresso/nninc/pbe/van/O.UPF
     MD5 check sum: 78c19812648e8988a0fe644b0f25305e
     Pseudo is Ultrasoft, Zval =  6.0
     Generated by new atomic code, or converted to UPF format
     Using radial grid of  737 points,  4 beta functions with:
                l(1) =   0
                l(2) =   0
                l(3) =   1
                l(4) =   1
     Q(r) pseudized with  8 coefficients,  rinner =    0.800   0.800   0.800

     PseudoPot. # 3 for C  read from file:
     /storage/coda1/p-amedford6/0/shared/rich_project_chbe-medford/medford-share/data/pseudos_module/espresso/nninc/pbe/van/C.UPF
     MD5 check sum: 1a69bf6b8db32088f5b2163dbdb77a27
     Pseudo is Ultrasoft, Zval =  4.0
     Generated by new atomic code, or converted to UPF format
     Using radial grid of  721 points,  4 beta functions with:
                l(1) =   0
                l(2) =   0
                l(3) =   1
                l(4) =   1
     Q(r) pseudized with  8 coefficients,  rinner =    0.800   0.800   0.800

     PseudoPot. # 4 for H  read from file:
     /storage/coda1/p-amedford6/0/shared/rich_project_chbe-medford/medford-share/data/pseudos_module/espresso/nninc/pbe/van/H.UPF
     MD5 check sum: b5ee9d7bfd3a09ee7748110bda690ff7
     Pseudo is Ultrasoft, Zval =  1.0
     Generated by new atomic code, or converted to UPF format
     Using radial grid of  615 points,  1 beta functions with:
                l(1) =   0
     Q(r) pseudized with  8 coefficients,  rinner =    0.800

     atomic species   valence    mass     pseudopotential
        Ti1           12.00    47.86700     Ti( 1.00)
        O1             6.00    15.99900     O ( 1.00)
        C1             4.00    12.01100     C ( 1.00)
        H1             1.00     1.00800     H ( 1.00)

     No symmetry found

   Cartesian axes

     site n.     atom                  positions (alat units)
         1           Ti1 tau(   1) = (   0.0004258   2.9801865   6.0000000  )
         2           Ti1 tau(   2) = (   3.2906075   1.4906267   6.0002472  )
         3           O1  tau(   3) = (   0.0006271   0.0005054   7.9858123  )
         4           O1  tau(   4) = (   3.2906025   0.0005020   7.3038282  )
         5           O1  tau(   5) = (   4.5942328   1.4918067   9.2879030  )
         6           O1  tau(   6) = (   1.9868534   1.4903216   9.2879459  )
         7           Ti1 tau(   7) = (   3.2820359   3.0439161   9.1623595  )
         8           Ti1 tau(   8) = (   6.5599266   1.6132547   9.3553476  )
         9           O1  tau(   9) = (   3.2945286   0.0238644  11.3456088  )
        10           O1  tau(  10) = (   0.0063054   0.0138127  10.6020390  )
        11           O1  tau(  11) = (   1.2951583   1.5100513  12.6443238  )
        12           O1  tau(  12) = (   5.2990995   1.5148170  12.6233090  )
        13           Ti1 tau(  13) = (   0.0263474   3.0106421  12.7494805  )
        14           Ti1 tau(  14) = (   3.3336015   1.5167552  12.4948480  )
        15           O1  tau(  15) = (   6.5448532   0.0190031  14.6983011  )
        16           O1  tau(  16) = (   3.3224233   0.0259125  13.9568087  )
        17           O1  tau(  17) = (   4.5367000   1.5168325  16.1249780  )
        18           O1  tau(  18) = (   2.0218268   1.5507800  16.0022153  )
        19           Ti1 tau(  19) = (   3.2743302   2.9980917  15.6870858  )
        20           Ti1 tau(  20) = (   0.0201860   1.3869735  16.0719154  )
        21           O1  tau(  21) = (   3.2904802   0.0005063   4.7018136  )
        22           O1  tau(  22) = (   0.0925506   0.0150102  17.2361640  )
        23           O1  tau(  23) = (   1.3043587   1.4918075   6.0039043  )
        24           O1  tau(  24) = (   5.2767064   1.4903225   6.0039473  )
        25           Ti1 tau(  25) = (   0.0000382   5.9609847   6.0000000  )
        26           Ti1 tau(  26) = (   3.2902200   4.4714249   6.0002472  )
        27           O1  tau(  27) = (   0.0002396   2.9813036   7.9858123  )
        28           O1  tau(  28) = (   3.2902150   2.9813002   7.3038282  )
        29           O1  tau(  29) = (   4.5938453   4.4726049   9.2879030  )
        30           O1  tau(  30) = (   1.9864658   4.4711199   9.2879459  )
        31           Ti1 tau(  31) = (   3.2669230   0.0652730   9.1555536  )
        32           Ti1 tau(  32) = (   6.5613759   4.5453191   9.2698998  )
        33           O1  tau(  33) = (   3.2918870   3.0052186  11.3478826  )
        34           O1  tau(  34) = (   0.0060846   2.9950393  10.5821163  )
        35           O1  tau(  35) = (   1.2959246   4.5006532  12.6413340  )
        36           O1  tau(  36) = (   5.2961686   4.4944485  12.6189864  )
        37           Ti1 tau(  37) = (   0.0327138   0.0295606  12.5236923  )
        38           Ti1 tau(  38) = (   3.3339673   4.5113903  12.4983483  )
        39           O1  tau(  39) = (   6.5730609   3.0277731  14.6772624  )
        40           O1  tau(  40) = (   3.3208155   3.0007925  13.9016932  )
        41           O1  tau(  41) = (   4.5507661   4.4739758  16.0704957  )
        42           O1  tau(  42) = (   2.0281244   4.4521521  15.9894756  )
        43           Ti1 tau(  43) = (   3.3328935   0.0118079  15.7915215  )
        44           Ti1 tau(  44) = (   0.0096178   4.5175135  15.9069376  )
        45           O1  tau(  45) = (   3.2900926   2.9813045   4.7018136  )
        46           O1  tau(  46) = (   1.3039711   4.4726057   6.0039043  )
        47           O1  tau(  47) = (   5.2763189   4.4711207   6.0039473  )
        48           C1  tau(  48) = (   6.0108469   3.0492512  18.6187439  )
        49           O1  tau(  49) = (   6.5747659   3.0013081  17.3187206  )
        50           H1  tau(  50) = (   4.9221177   3.1735116  18.5549479  )
        51           H1  tau(  51) = (   6.2378858   2.1236533  19.1567593  )
        52           H1  tau(  52) = (   6.4208835   3.9027719  19.1655001  )
        53           O1  tau(  53) = (   2.8960476   5.8777769  18.1661119  )
        54           H1  tau(  54) = (   3.1709146   0.7341104  18.6084320  )
        55           H1  tau(  55) = (   1.9162551   5.9097105  18.1191095  )

     number of k points=    10  Fermi-Dirac smearing, width (Ry)=  0.0073
                       cart. coord. in units 2pi/alat
        k(    1) = (   0.0000000   0.0000000   0.0000000), wk =   0.1250000
        k(    2) = (   0.0000000   0.0419351   0.0000000), wk =   0.2500000
        k(    3) = (   0.0000000  -0.0838702   0.0000000), wk =   0.1250000
        k(    4) = (   0.0379955   0.0000049   0.0000000), wk =   0.2500000
        k(    5) = (   0.0379955   0.0419400   0.0000000), wk =   0.2500000
        k(    6) = (   0.0379955  -0.0838652   0.0000000), wk =   0.2500000
        k(    7) = (   0.0379955  -0.0419301   0.0000000), wk =   0.2500000
        k(    8) = (  -0.0759910  -0.0000099   0.0000000), wk =   0.1250000
        k(    9) = (  -0.0759910   0.0419252   0.0000000), wk =   0.2500000
        k(   10) = (  -0.0759910  -0.0838800   0.0000000), wk =   0.1250000

     Initial potential from superposition of free atoms

     starting charge  382.99916, renormalised to  399.00000

     negative rho (up, down):  1.705E-02 0.000E+00

     %%%%%%%%%%%%%%%%%%%%%%%%%%%%%%%%%%%%%%%%%%%%%%%%%%%%%%%%%%%%%%%%%%%%%%%%
     %                                                                      %
     % You are using vdW-DF, which was implemented by the Thonhauser group. %
     % Please cite the following two papers that made this development      %
     % possible and the two reviews that describe the various versions:     %
     %                                                                      %
     %   T. Thonhauser et al., PRL 115, 136402 (2015).                      %
     %   T. Thonhauser et al., PRB 76, 125112 (2007).                       %
     %   K. Berland et al., Rep. Prog. Phys. 78, 066501 (2015).             %
     %   D.C. Langreth et al., J. Phys.: Condens. Matter 21, 084203 (2009). %
     %                                                                      %
     %                                                                      %
     % If you are calculating the stress with vdW-DF, please also cite:     %
     %                                                                      %
     %   R. Sabatini et al., J. Phys.: Condens. Matter 24, 424209 (2012).   %
     %                                                                      %
     %%%%%%%%%%%%%%%%%%%%%%%%%%%%%%%%%%%%%%%%%%%%%%%%%%%%%%%%%%%%%%%%%%%%%%%%

     Adding external electric field

     Computed dipole along edir(3) :
        Dipole               -9.9863 Ry au,        -25.3827 Debye
        Dipole field         -0.0188 Ry au,

        Potential amp.        1.7470 Ry
        Total length         46.3494 bohr

     Starting wfcs are  301 atomic wfcs
  @ DRIVER MODE: Message from server: STATUS
  @ DRIVER MODE: Message from server: POSDATA
  @ DRIVER MODE: Reading and sharing cell
  @ DRIVER MODE: Reading and sharing positions
  @ DRIVER MODE: Received positions

     Self-consistent Calculation

     iteration #  1     ecut=    29.40 Ry     beta= 0.05
     Davidson diagonalization with overlap
     c_bands:  2 eigenvalues not converged
     c_bands:  2 eigenvalues not converged
     c_bands:  3 eigenvalues not converged
     c_bands:  3 eigenvalues not converged
     c_bands:  1 eigenvalues not converged
     c_bands:  3 eigenvalues not converged
     c_bands:  3 eigenvalues not converged
     c_bands:  1 eigenvalues not converged
     ethr =  1.00E-05,  avg # of iterations = 19.6

[...]

     total energy              =   -2489.87216329 Ry
     estimated scf accuracy    <    5304.34507229 Ry

     iteration #  2     ecut=    29.40 Ry     beta= 0.05
     Davidson diagonalization with overlap
     ethr =  1.00E-02,  avg # of iterations = 24.9

[...]

     iteration # 66     ecut=    29.40 Ry     beta= 0.05
     Davidson diagonalization with overlap
     c_bands:  2 eigenvalues not converged
     c_bands:  1 eigenvalues not converged
     c_bands:  1 eigenvalues not converged
     ethr =  2.27E-09,  avg # of iterations = 16.7

[...]

     total energy              =   -2966.34221343 Ry
     estimated scf accuracy    <       0.00000010 Ry

     iteration # 76     ecut=    29.40 Ry     beta= 0.05
     Davidson diagonalization with overlap
     ethr =  2.07E-11,  avg # of iterations = 12.4

     negative rho (up, down):  1.686E-02 0.000E+00

     Adding external electric field

     Computed dipole along edir(3) :
        Dipole                0.9471 Ry au,          2.4074 Debye
        Dipole field          0.0018 Ry au,

        Potential amp.       -0.1657 Ry
        Total length         46.3494 bohr

     End of self-consistent calculation

          k = 0.0000 0.0000 0.0000 ( 18029 PWs)   bands (ev):

   -55.7044 -55.6685 -55.6653 -55.6290 -55.6173 -55.6036 -55.5831 -55.5489
   -55.4940 -55.4807 -55.4712 -55.4546 -55.4198 -55.3790 -54.7082 -54.6741
   -32.2229 -32.1741 -32.0947 -32.0626 -32.0462 -31.9968 -31.9804 -31.9697
   -31.9369 -31.9340 -31.8927 -31.8818 -31.8760 -31.8709 -31.8638 -31.8474
   -31.8467 -31.8035 -31.7988 -31.7963 -31.7877 -31.7828 -31.7687 -31.7549
   -31.7485 -31.7439 -31.7258 -31.7031 -31.6963 -31.6949 -31.6880 -31.6848
   -31.6726 -31.6646 -31.6515 -31.6439 -31.6368 -31.6008 -31.5949 -31.5702
   -31.5615 -31.5551 -31.1171 -31.0222 -30.9998 -30.9340 -30.8479 -30.7366
   -18.9053 -17.5515 -16.4189 -16.1498 -15.9884 -15.8608 -15.8223 -15.6266
   -15.5107 -15.3859 -15.3597 -15.3050 -15.2801 -15.2402 -15.2345 -15.2259
   -15.2150 -15.2063 -15.1526 -15.1182 -15.1059 -15.0962 -15.0844 -15.0331
   -14.9811 -14.9168 -14.8443 -14.8218 -14.7970 -14.7253 -14.7045 -13.2083
   -13.0904  -9.4209  -6.6740  -4.2584  -4.0868  -3.8162  -3.7716  -3.6418
    -3.6168  -3.5872  -3.5057  -3.3080  -3.2754  -3.1525  -2.9410  -2.8826
    -2.8271  -2.8032  -2.7609  -2.6096  -2.5911  -2.5205  -2.5096  -2.4911
    -2.4803  -2.4483  -2.4305  -2.3975  -2.3702  -2.3302  -2.2862  -2.2248
    -2.0858  -2.0717  -2.0341  -2.0169  -2.0054  -1.9905  -1.9538  -1.9325
    -1.8992  -1.8811  -1.8716  -1.7713  -1.6632  -1.5696  -1.5320  -1.4634
    -1.3828  -1.2383  -1.2173  -1.1463  -1.1211  -1.1056  -1.0547  -1.0027
    -0.9417  -0.9376  -0.8807  -0.7819  -0.7128  -0.6943  -0.6575  -0.6089
    -0.5490  -0.4734  -0.4443  -0.4268  -0.4036  -0.3913  -0.2039  -0.1788
    -0.1365  -0.1092  -0.0269   0.0316   0.0486   0.0671   0.0938   0.1206
     0.1938   0.2531   0.2624   0.2891   0.3332   0.3477   0.3821   0.4497
     0.4981   0.5165   0.5638   0.6130   0.6648   0.8047   0.9094   0.9508
     1.0626   1.2274   1.3166   1.3905   1.4916   1.9020   1.9580   3.4756
     3.5076   3.5356   3.5572   3.6337   3.7257   3.8357   3.9277   3.9431
     3.9722

[...]

          k = 0.0380-0.0419 0.0000 ( 17876 PWs)   bands (ev):

[...]

          k =-0.0760-0.0000 0.0000 ( 17886 PWs)   bands (ev):

[...]

          k =-0.0760-0.0839 0.0000 ( 17948 PWs)   bands (ev):

   -55.6922 -55.6806 -55.6490 -55.6451 -55.6144 -55.6017 -55.5704 -55.5616
   -55.4963 -55.4774 -55.4733 -55.4418 -55.4327 -55.3819 -54.6916 -54.6906
   -32.0361 -32.0171 -31.9968 -31.9895 -31.9848 -31.9834 -31.9662 -31.9292
   -31.9198 -31.9114 -31.9029 -31.8933 -31.8555 -31.8451 -31.8304 -31.8260
   -31.8255 -31.8193 -31.8177 -31.8100 -31.8024 -31.7997 -31.7926 -31.7836
   -31.7743 -31.7714 -31.7669 -31.7662 -31.7563 -31.7401 -31.7139 -31.6972
   -31.6919 -31.6859 -31.6852 -31.6814 -31.6754 -31.6583 -31.6483 -31.6369
   -31.6068 -31.5725 -31.0131 -31.0119 -30.9305 -30.9297 -30.8914 -30.8905
   -18.9039 -17.5189 -15.8876 -15.7738 -15.6554 -15.5816 -15.5698 -15.5236
   -15.4933 -15.4671 -15.4097 -15.4024 -15.3545 -15.3528 -15.3021 -15.2961
   -15.2451 -15.2130 -15.2090 -15.1675 -15.1448 -15.1361 -15.1263 -15.0898
   -15.0727 -15.0632 -15.0284 -15.0191 -14.9701 -14.9310 -14.9052 -13.1927
   -13.1909  -9.4233  -6.6685  -4.1545  -4.0513  -3.8214  -3.3066  -3.1737
    -2.9701  -2.9010  -2.8355  -2.7732  -2.7695  -2.6535  -2.6337  -2.5947
    -2.5641  -2.5316  -2.5239  -2.5134  -2.4970  -2.4941  -2.4769  -2.4378
    -2.4172  -2.3938  -2.3717  -2.3605  -2.3388  -2.3164  -2.3088  -2.2890
    -2.2561  -2.2494  -2.2417  -2.1782  -2.1153  -1.9829  -1.9393  -1.9261
    -1.8411  -1.8065  -1.7900  -1.7609  -1.7529  -1.7374  -1.6064  -1.5866
    -1.4917  -1.4264  -1.4071  -1.3792  -1.2710  -1.2120  -1.1808  -1.1581
    -1.1221  -1.0743  -1.0070  -0.9666  -0.9149  -0.8562  -0.8120  -0.7980
    -0.7651  -0.6612  -0.6569  -0.6491  -0.6075  -0.5675  -0.5158  -0.4661
    -0.4585  -0.4335  -0.4014  -0.3593  -0.3399  -0.2431  -0.2322  -0.1930
    -0.1466  -0.0539   0.1269   0.2099   0.3166   0.3511   0.3910   0.4526
     0.4971   0.5496   0.5957   0.6439   0.6693   0.7136   0.7469   0.8291
     0.8475   0.8528   0.9212   1.6782   1.6786   1.7647   1.7732   3.7196
     3.7348   3.7871   3.8058   3.9437   3.9494   3.9632   3.9726   4.0716
     4.1324

     the Fermi energy is     3.4467 ev

!    total energy              =   -2966.34222470 Ry
     estimated scf accuracy    <       0.00000005 Ry
     smearing contrib. (-TS)   =      -0.02282768 Ry
     internal energy E=F+TS    =   -2966.31939701 Ry

     The total energy is F=E-TS. E is the sum of the following terms:
     one-electron contribution =  -24405.67470233 Ry
     hartree contribution      =   12294.84022573 Ry
     xc contribution           =    -490.96353539 Ry
     ewald contribution        =    9635.47692208 Ry
     electric field correction =       0.00169289 Ry

     convergence has been achieved in  76 iterations

     Forces acting on atoms (cartesian axes, Ry/au):

     atom    1 type  1   force =     0.00017823   -0.00147051    0.10510625
     atom    2 type  1   force =     0.00007465    0.00124565   -0.17894079
     atom    3 type  2   force =    -0.00001135   -0.00500933   -0.03284815
     atom    4 type  2   force =    -0.00058191    0.00074262    0.04591233
     atom    5 type  2   force =    -0.01790120   -0.00053148    0.00428694
     atom    6 type  2   force =     0.01739984    0.00074022    0.00348261
     atom    7 type  1   force =    -0.00005837   -0.00057440   -0.00004820
     atom    8 type  1   force =    -0.00037770   -0.00057521    0.00047265
     atom    9 type  2   force =     0.00013912   -0.00028197   -0.00005852
     atom   10 type  2   force =     0.00022709   -0.00002125    0.00054060
     atom   11 type  2   force =     0.00000085   -0.00009113   -0.00005305
     atom   12 type  2   force =    -0.00013542   -0.00027582   -0.00025325
     atom   13 type  1   force =     0.00056057   -0.00057422   -0.00130831
     atom   14 type  1   force =     0.00001431   -0.00046595    0.00036230
     atom   15 type  2   force =    -0.00012506   -0.00036957    0.00003042
     atom   16 type  2   force =     0.00005256   -0.00064106   -0.00002938
     atom   17 type  2   force =    -0.00033964   -0.00010545   -0.00037658
     atom   18 type  2   force =     0.00054502   -0.00044879    0.00002652
     atom   19 type  1   force =    -0.00004544    0.00050158    0.00013935
     atom   20 type  1   force =     0.00008391   -0.00082515    0.00072287
     atom   21 type  2   force =     0.00007485    0.00010716    0.10391793
     atom   22 type  2   force =    -0.00031817   -0.00029252   -0.00022133
     atom   23 type  2   force =    -0.06948236    0.00050036   -0.02944052
     atom   24 type  2   force =     0.06951276    0.00087012   -0.02947259
     atom   25 type  1   force =     0.00026885    0.00144908    0.11393272
     atom   26 type  1   force =    -0.00006018   -0.00044859   -0.17910722
     atom   27 type  2   force =    -0.00013436    0.00370374   -0.02691677
     atom   28 type  2   force =    -0.00026851    0.00101564    0.04785322
     atom   29 type  2   force =    -0.01571395    0.00042536    0.00352586
     atom   30 type  2   force =     0.01708711    0.00264916    0.00290311
     atom   31 type  1   force =     0.00036969    0.00005489   -0.00015739
     atom   32 type  1   force =    -0.00066428    0.00012104    0.00030485
     atom   33 type  2   force =     0.00025059   -0.00040478    0.00015264
     atom   34 type  2   force =     0.00007034   -0.00005213   -0.00004105
     atom   35 type  2   force =     0.00012209   -0.00019855    0.00022571
     atom   36 type  2   force =     0.00018810    0.00015483    0.00016320
     atom   37 type  1   force =     0.00034943    0.00078001   -0.00023186
     atom   38 type  1   force =    -0.00008738   -0.00053975    0.00002545
     atom   39 type  2   force =    -0.00048334    0.00024663    0.00026104
     atom   40 type  2   force =     0.00026425   -0.00064108   -0.00010588
     atom   41 type  2   force =     0.00011295   -0.00005644   -0.00011572
     atom   42 type  2   force =    -0.00030572   -0.00035294   -0.00039514
     atom   43 type  1   force =    -0.00016274   -0.00022540   -0.00010002
     atom   44 type  1   force =     0.00035601    0.00024115    0.00037089
     atom   45 type  2   force =     0.00007803    0.00008386    0.10395241
     atom   46 type  2   force =    -0.06917765   -0.00106531   -0.02945703
     atom   47 type  2   force =     0.06915658   -0.00059575   -0.02953309
     atom   48 type  3   force =    -0.00122493    0.00054764   -0.00107221
     atom   49 type  2   force =     0.00098578    0.00029656   -0.00033119
     atom   50 type  4   force =     0.00129717    0.00013506    0.00276462
     atom   51 type  4   force =    -0.00073570    0.00072947   -0.00050817
     atom   52 type  4   force =    -0.00081352   -0.00049618   -0.00015626
     atom   53 type  2   force =     0.00080766    0.00111876    0.00050428
     atom   54 type  4   force =    -0.00020212   -0.00089480   -0.00061841
     atom   55 type  4   force =    -0.00121742    0.00006494   -0.00004269

     Total force =     0.374085     Total SCF correction =     0.000795
  @ DRIVER MODE: Message from server: STATUS
  @ DRIVER MODE: Message from server: GETFORCE
  @ DRIVER MODE: Returning v,forces,stress,ensemble

     Writing output data file ./calc.save/
  @ DRIVER MODE: Message from server: EXIT
  @ DRIVE MODE: Exiting

     General routines

     Parallel routines

   This run was terminated on:   9: 8:33  26Sep2021

   JOB DONE.