     Program PWSCF v.6.7GPU starts on  9Sep2021 at  1:44:36

     R & G space division:  proc/nbgrp/npool/nimage =      10
     Reading input from /storage/home/hcoda1/3/ntian30/research/carbon/CxH_vib/CH2_calc/ads_slab/CH2NH_a/out_0013/pw.inp
Warning: card &CELL ignored
Warning: card   CELL_DYNAMICS='IPI', ignored
Warning: card / ignored

     Current dimensions of program PWSCF are:
     Max number of different atomic species (ntypx) = 10
     Max number of k-points (npk) =  40000
     Max angular momentum in pseudopotentials (lmaxx) =  3
     Presently no symmetry can be used with electric field

     Message from routine cell_base_init:
     DEPRECATED: use true lattice parameter, not A to a.u. conversion factor

     IMPORTANT: XC functional enforced from input :
     Exchange-correlation= BEEF-VDW
                           (   1   4  43  14   2   0   0)
     Any further DFT definition will be discarded
     Please, verify this is what you really want

  @ DRIVER MODE: Connecting to
 qe_1139763_2767389.sched-torque.pace.gatech.edu5pmgdrfj_scratch
  using UNIX socket
  @ DRIVER MODE: Message from server: STATUS
  @ DRIVER MODE: Message from server: INIT
  @ DRIVER MODE: Receiving replica           0          -1
  @ DRIVER MODE: Receiving encoded integer          25
  @ DRIVER MODE:  SCF:  T  FORCE:  T  STRESS:  F  VC:  F  ENSEMBLE:  F
  @ DRIVER MODE:  SCF:  T  FORCE:  T  STRESS:  F  VC:  F  ENSEMBLE:  F

     Using Slab Decomposition

     bravais-lattice index     =            0
     lattice parameter (alat)  =       1.8897  a.u.
     unit-cell volume          =    6658.9804 (a.u.)^3
     number of atoms/cell      =           52
     number of atomic types    =            5
     number of electrons       =       390.00
     number of Kohn-Sham states=          205
     kinetic-energy cutoff     =      29.3995  Ry
     charge density cutoff     =     293.9946  Ry
     scf convergence threshold =      7.3E-08
     mixing beta               =       0.0500
     number of iterations used =            8  plain     mixing
     Exchange-correlation= BEEF-VDW
                           (   1   4  43  14   2   0   0)

     celldm(1)=   1.889726  celldm(2)=   0.000000  celldm(3)=   0.000000
     celldm(4)=   0.000000  celldm(5)=   0.000000  celldm(6)=   0.000000

     crystal axes: (cart. coord. in units of alat)
               a(1) = (   6.579727   0.000000   0.000000 )
               a(2) = (  -0.000775   5.961596   0.000000 )
               a(3) = (   0.000000   0.000000  25.155947 )

     reciprocal axes: (cart. coord. in units 2 pi/alat)
               b(1) = (  0.151982  0.000020  0.000000 )
               b(2) = (  0.000000  0.167740  0.000000 )
               b(3) = (  0.000000  0.000000  0.039752 )

     PseudoPot. # 1 for Ti read from file:
     /storage/coda1/p-amedford6/0/shared/rich_project_chbe-medford/medford-share/data/pseudos_module/espresso/nninc/pbe/van/Ti.UPF
     MD5 check sum: 8e4df49b7f0d34bbd5052bf3f5ea0213
     Pseudo is Ultrasoft, Zval = 12.0
     Generated by new atomic code, or converted to UPF format
     Using radial grid of  851 points,  6 beta functions with:
                l(1) =   0
                l(2) =   0
                l(3) =   1
                l(4) =   1
                l(5) =   2
                l(6) =   2
     Q(r) pseudized with  8 coefficients,  rinner =    1.000   1.000   1.000
                                                       1.000   1.000

     PseudoPot. # 2 for O  read from file:
     /storage/coda1/p-amedford6/0/shared/rich_project_chbe-medford/medford-share/data/pseudos_module/espresso/nninc/pbe/van/O.UPF
     MD5 check sum: 78c19812648e8988a0fe644b0f25305e
     Pseudo is Ultrasoft, Zval =  6.0
     Generated by new atomic code, or converted to UPF format
     Using radial grid of  737 points,  4 beta functions with:
                l(1) =   0
                l(2) =   0
                l(3) =   1
                l(4) =   1
     Q(r) pseudized with  8 coefficients,  rinner =    0.800   0.800   0.800

     PseudoPot. # 3 for N  read from file:
     /storage/coda1/p-amedford6/0/shared/rich_project_chbe-medford/medford-share/data/pseudos_module/espresso/nninc/pbe/van/N.UPF
     MD5 check sum: 90d10febe142ad51ac9d5be1deb811c4
     Pseudo is Ultrasoft, Zval =  5.0
     Generated by new atomic code, or converted to UPF format
     Using radial grid of  729 points,  4 beta functions with:
                l(1) =   0
                l(2) =   0
                l(3) =   1
                l(4) =   1
     Q(r) pseudized with  8 coefficients,  rinner =    0.800   0.800   0.800

     PseudoPot. # 4 for C  read from file:
     /storage/coda1/p-amedford6/0/shared/rich_project_chbe-medford/medford-share/data/pseudos_module/espresso/nninc/pbe/van/C.UPF
     MD5 check sum: 1a69bf6b8db32088f5b2163dbdb77a27
     Pseudo is Ultrasoft, Zval =  4.0
     Generated by new atomic code, or converted to UPF format
     Using radial grid of  721 points,  4 beta functions with:
                l(1) =   0
                l(2) =   0
                l(3) =   1
                l(4) =   1
     Q(r) pseudized with  8 coefficients,  rinner =    0.800   0.800   0.800

     PseudoPot. # 5 for H  read from file:
     /storage/coda1/p-amedford6/0/shared/rich_project_chbe-medford/medford-share/data/pseudos_module/espresso/nninc/pbe/van/H.UPF
     MD5 check sum: b5ee9d7bfd3a09ee7748110bda690ff7
     Pseudo is Ultrasoft, Zval =  1.0
     Generated by new atomic code, or converted to UPF format
     Using radial grid of  615 points,  1 beta functions with:
                l(1) =   0
     Q(r) pseudized with  8 coefficients,  rinner =    0.800

     atomic species   valence    mass     pseudopotential
        Ti1           12.00    47.86700     Ti( 1.00)
        O1             6.00    15.99900     O ( 1.00)
        N1             5.00    14.00700     N ( 1.00)
        C1             4.00    12.01100     C ( 1.00)
        H1             1.00     1.00800     H ( 1.00)

     No symmetry found

   Cartesian axes

     site n.     atom                  positions (alat units)
         1           Ti1 tau(   1) = (   0.0004258   2.9801865   6.0000000  )
         2           Ti1 tau(   2) = (   3.2906075   1.4906267   6.0002472  )
         3           O1  tau(   3) = (   0.0006271   0.0005054   7.9858123  )
         4           O1  tau(   4) = (   3.2906025   0.0005020   7.3038282  )
         5           O1  tau(   5) = (   4.5942328   1.4918067   9.2879030  )
         6           O1  tau(   6) = (   1.9868534   1.4903216   9.2879459  )
         7           Ti1 tau(   7) = (   3.2907910   2.8959150   9.1758416  )
         8           Ti1 tau(   8) = (   0.0015273   1.4827037   9.2680791  )
         9           O1  tau(   9) = (   3.2859541   5.9290403  11.3715426  )
        10           O1  tau(  10) = (   0.0116148   5.9584955  10.6183126  )
        11           O1  tau(  11) = (   1.2917987   1.4688796  12.6526629  )
        12           O1  tau(  12) = (   5.2888266   1.4686376  12.6403033  )
        13           Ti1 tau(  13) = (   0.0074927   2.9495069  12.5376589  )
        14           Ti1 tau(  14) = (   3.2957121   1.4606513  12.5174744  )
        15           O1  tau(  15) = (   6.5702453   0.0264740  14.6787910  )
        16           O1  tau(  16) = (   3.3001739   5.9406727  13.9930656  )
        17           O1  tau(  17) = (   4.5367710   1.4643441  16.2106543  )
        18           O1  tau(  18) = (   2.0349547   1.4576396  16.1973481  )
        19           Ti1 tau(  19) = (   3.2821410   2.9383233  15.7467721  )
        20           Ti1 tau(  20) = (   6.5624771   1.3975196  16.0657228  )
        21           O1  tau(  21) = (   3.2904802   0.0005063   4.7018136  )
        22           O1  tau(  22) = (   0.0049924   5.8117904  17.2112648  )
        23           O1  tau(  23) = (   1.3043587   1.4918075   6.0039043  )
        24           O1  tau(  24) = (   5.2767064   1.4903225   6.0039473  )
        25           Ti1 tau(  25) = (   0.0000382   5.9609847   6.0000000  )
        26           Ti1 tau(  26) = (   3.2902200   4.4714249   6.0002472  )
        27           O1  tau(  27) = (   0.0002396   2.9813036   7.9858123  )
        28           O1  tau(  28) = (   3.2902150   2.9813002   7.3038282  )
        29           O1  tau(  29) = (   4.5938453   4.4726049   9.2879030  )
        30           O1  tau(  30) = (   1.9864658   4.4711199   9.2879459  )
        31           Ti1 tau(  31) = (   3.2891106   5.8743827   9.1763621  )
        32           Ti1 tau(  32) = (   0.0006254   4.4649316   9.2693709  )
        33           O1  tau(  33) = (   3.2878059   2.9597088  11.3652031  )
        34           O1  tau(  34) = (   0.0092240   2.9805883  10.6323155  )
        35           O1  tau(  35) = (   1.2887225   4.4431869  12.6829221  )
        36           O1  tau(  36) = (   5.2901277   4.4428847  12.6690855  )
        37           Ti1 tau(  37) = (   0.0035388   5.9380168  12.5099366  )
        38           Ti1 tau(  38) = (   3.2962120   4.4389810  12.5267566  )
        39           O1  tau(  39) = (   6.5655450   2.9014274  14.9049457  )
        40           O1  tau(  40) = (   3.2937888   2.9365130  13.9572806  )
        41           O1  tau(  41) = (   4.5374039   4.4072578  16.1608974  )
        42           O1  tau(  42) = (   2.0345115   4.4188705  16.1151926  )
        43           Ti1 tau(  43) = (   3.2925710   5.9161036  15.7896908  )
        44           Ti1 tau(  44) = (   0.0121651   4.6006060  15.8502786  )
        45           O1  tau(  45) = (   3.2900926   2.9813045   4.7018136  )
        46           O1  tau(  46) = (   1.3039711   4.4726057   6.0039043  )
        47           O1  tau(  47) = (   5.2763189   4.4711207   6.0039473  )
        48           N1  tau(  48) = (   6.5581919   2.6818180  17.9522317  )
        49           C1  tau(  49) = (   0.8403426   2.5546117  18.8965076  )
        50           H1  tau(  50) = (   0.6693733   2.9585088  19.8916666  )
        51           H1  tau(  51) = (   1.7584391   2.0155774  18.6961775  )
        52           H1  tau(  52) = (   5.7198555   3.1867788  18.2393814  )

     number of k points=    10  Fermi-Dirac smearing, width (Ry)=  0.0073
                       cart. coord. in units 2pi/alat
        k(    1) = (   0.0000000   0.0000000   0.0000000), wk =   0.1250000
        k(    2) = (   0.0000000   0.0419351   0.0000000), wk =   0.2500000
        k(    3) = (   0.0000000  -0.0838702   0.0000000), wk =   0.1250000
        k(    4) = (   0.0379955   0.0000049   0.0000000), wk =   0.2500000
        k(    5) = (   0.0379955   0.0419400   0.0000000), wk =   0.2500000
        k(    6) = (   0.0379955  -0.0838652   0.0000000), wk =   0.2500000
        k(    7) = (   0.0379955  -0.0419301   0.0000000), wk =   0.2500000
        k(    8) = (  -0.0759910  -0.0000099   0.0000000), wk =   0.1250000
        k(    9) = (  -0.0759910   0.0419252   0.0000000), wk =   0.2500000
        k(   10) = (  -0.0759910  -0.0838800   0.0000000), wk =   0.1250000

     Initial potential from superposition of free atoms

     starting charge  373.99917, renormalised to  390.00000

     negative rho (up, down):  1.699E-02 0.000E+00

     %%%%%%%%%%%%%%%%%%%%%%%%%%%%%%%%%%%%%%%%%%%%%%%%%%%%%%%%%%%%%%%%%%%%%%%%
     %                                                                      %
     % You are using vdW-DF, which was implemented by the Thonhauser group. %
     % Please cite the following two papers that made this development      %
     % possible and the two reviews that describe the various versions:     %
     %                                                                      %
     %   T. Thonhauser et al., PRL 115, 136402 (2015).                      %
     %   T. Thonhauser et al., PRB 76, 125112 (2007).                       %
     %   K. Berland et al., Rep. Prog. Phys. 78, 066501 (2015).             %
     %   D.C. Langreth et al., J. Phys.: Condens. Matter 21, 084203 (2009). %
     %                                                                      %
     %                                                                      %
     % If you are calculating the stress with vdW-DF, please also cite:     %
     %                                                                      %
     %   R. Sabatini et al., J. Phys.: Condens. Matter 24, 424209 (2012).   %
     %                                                                      %
     %%%%%%%%%%%%%%%%%%%%%%%%%%%%%%%%%%%%%%%%%%%%%%%%%%%%%%%%%%%%%%%%%%%%%%%%

     Adding external electric field

     Computed dipole along edir(3) :
        Dipole               -6.0480 Ry au,        -15.3725 Debye
        Dipole field         -0.0114 Ry au,

        Potential amp.        1.0580 Ry
        Total length         46.3494 bohr

     Starting wfcs are  295 atomic wfcs
  @ DRIVER MODE: Message from server: STATUS
  @ DRIVER MODE: Message from server: POSDATA
  @ DRIVER MODE: Reading and sharing cell
  @ DRIVER MODE: Reading and sharing positions
  @ DRIVER MODE: Received positions

     Self-consistent Calculation

     iteration #  1     ecut=    29.40 Ry     beta= 0.05
     Davidson diagonalization with overlap
     c_bands:  1 eigenvalues not converged
     c_bands:  1 eigenvalues not converged
     ethr =  1.00E-05,  avg # of iterations = 16.8

[...]

     total energy              =   -2758.76594520 Ry
     estimated scf accuracy    <    1760.53671359 Ry

     iteration #  2     ecut=    29.40 Ry     beta= 0.05
     Davidson diagonalization with overlap
     ethr =  1.00E-02,  avg # of iterations = 18.8

[...]

     iteration # 49     ecut=    29.40 Ry     beta= 0.05
     Davidson diagonalization with overlap
     c_bands:  1 eigenvalues not converged
     ethr =  2.29E-08,  avg # of iterations = 16.9

[...]

     total energy              =   -2919.11585262 Ry
     estimated scf accuracy    <       0.00000021 Ry

     iteration # 61     ecut=    29.40 Ry     beta= 0.05
     Davidson diagonalization with overlap
     ethr =  5.50E-11,  avg # of iterations =  5.0

     negative rho (up, down):  1.721E-02 0.000E+00

     Adding external electric field

     Computed dipole along edir(3) :
        Dipole                1.2606 Ry au,          3.2040 Debye
        Dipole field          0.0024 Ry au,

        Potential amp.       -0.2205 Ry
        Total length         46.3494 bohr

     End of self-consistent calculation

          k = 0.0000 0.0000 0.0000 ( 18029 PWs)   bands (ev):

   -55.5455 -55.5087 -55.5071 -55.4730 -55.4376 -55.4208 -55.3833 -55.3606
   -55.3604 -55.3354 -55.3258 -55.3121 -55.3020 -55.1294 -54.5276 -54.4936
   -32.1121 -31.9981 -31.9083 -31.8667 -31.8603 -31.8496 -31.8401 -31.8351
   -31.7967 -31.7852 -31.7537 -31.7519 -31.7516 -31.7163 -31.6987 -31.6807
   -31.6755 -31.6675 -31.6614 -31.6575 -31.6196 -31.6161 -31.6009 -31.5905
   -31.5642 -31.5623 -31.5607 -31.5524 -31.5475 -31.5419 -31.5318 -31.5236
   -31.5136 -31.5128 -31.5093 -31.4817 -31.4746 -31.4680 -31.4640 -31.4452
   -31.3530 -31.2707 -30.9367 -30.8434 -30.8213 -30.7531 -30.6664 -30.5554
   -16.5501 -16.3413 -16.0751 -15.8986 -15.7946 -15.7344 -15.5981 -15.5219
   -15.4443 -15.3418 -15.2514 -15.1847 -15.1687 -15.1483 -15.1433 -15.0823
   -15.0788 -15.0544 -15.0373 -15.0358 -14.9813 -14.9738 -14.9422 -14.9300
   -14.9192 -14.8466 -14.7627 -14.6938 -14.6336 -14.2066 -13.0304 -12.9131
    -9.3000  -6.2632  -4.6967  -3.6999  -3.5467  -3.4525  -3.4413  -3.4199
    -3.2710  -3.1332  -2.9271  -2.8464  -2.8002  -2.7509  -2.7228  -2.7051
    -2.6209  -2.5199  -2.4448  -2.4004  -2.3754  -2.3622  -2.3514  -2.3241
    -2.3127  -2.2789  -2.2399  -2.1992  -2.0938  -2.0059  -1.9651  -1.9299
    -1.8732  -1.8622  -1.8354  -1.8292  -1.8225  -1.8008  -1.7625  -1.7527
    -1.7052  -1.5643  -1.5524  -1.4351  -1.3972  -1.2846  -1.1849  -1.1795
    -1.0929  -1.0899  -1.0211  -0.9670  -0.9367  -0.9285  -0.8778  -0.8294
    -0.7401  -0.6470  -0.5854  -0.5435  -0.5087  -0.4796  -0.4123  -0.3211
    -0.3160  -0.3055  -0.2032  -0.1240  -0.1017  -0.0490  -0.0167   0.0266
     0.0427   0.1531   0.1960   0.2374   0.2554   0.3343   0.3561   0.4117
     0.4169   0.4520   0.4611   0.5272   0.5744   0.5939   0.6435   0.6627
     0.8210   1.0737   1.0807   1.1280   1.4038   1.4339   1.4948   1.6797
     2.0701   2.1179   3.5543   3.6267   3.6918   3.7045   3.7460   3.7911
     3.9585   4.0390   4.0553   4.0597   4.0911

[...]

          k = 0.0380-0.0419 0.0000 ( 17876 PWs)   bands (ev):

[...]

          k =-0.0760-0.0000 0.0000 ( 17886 PWs)   bands (ev):

[...]

          k =-0.0760-0.0839 0.0000 ( 17948 PWs)   bands (ev):

   -55.5309 -55.5231 -55.4900 -55.4900 -55.4336 -55.4097 -55.3944 -55.3644
   -55.3441 -55.3415 -55.3192 -55.3186 -55.3104 -55.1310 -54.5106 -54.5105
   -31.9185 -31.9133 -31.8294 -31.8133 -31.8132 -31.8047 -31.7821 -31.7820
   -31.7582 -31.7520 -31.7448 -31.7430 -31.7377 -31.6996 -31.6778 -31.6744
   -31.6705 -31.6661 -31.6623 -31.6575 -31.6529 -31.6337 -31.6195 -31.6190
   -31.6095 -31.6095 -31.6067 -31.5896 -31.5769 -31.5739 -31.5635 -31.5575
   -31.5547 -31.5535 -31.5440 -31.5435 -31.5107 -31.4988 -31.4979 -31.4859
   -31.3579 -31.3521 -30.8340 -30.8339 -30.7493 -30.7491 -30.7097 -30.7097
   -16.5271 -15.7798 -15.7459 -15.7303 -15.5265 -15.5182 -15.5104 -15.4926
   -15.3322 -15.3185 -15.2920 -15.2757 -15.2440 -15.2405 -15.2104 -15.1777
   -15.1245 -15.1201 -15.1118 -15.1094 -15.0495 -15.0453 -15.0250 -14.9965
   -14.9945 -14.9883 -14.8935 -14.8916 -14.7192 -14.5268 -13.0147 -13.0146
    -9.3043  -6.2590  -4.6790  -3.0548  -2.9935  -2.9330  -2.7360  -2.7326
    -2.7017  -2.6195  -2.5501  -2.5389  -2.5117  -2.4834  -2.4809  -2.4325
    -2.3882  -2.3785  -2.3673  -2.3601  -2.3417  -2.3277  -2.2986  -2.2619
    -2.2530  -2.2225  -2.2088  -2.1839  -2.1820  -2.1457  -2.1219  -2.1076
    -2.0958  -2.0362  -1.9330  -1.8806  -1.7945  -1.7685  -1.7390  -1.7330
    -1.6504  -1.6243  -1.5969  -1.5566  -1.5438  -1.5099  -1.3070  -1.2771
    -1.2676  -1.2538  -1.2304  -1.0802  -1.0709  -1.0208  -0.9895  -0.9422
    -0.8846  -0.8487  -0.8338  -0.7518  -0.7211  -0.6766  -0.6378  -0.5144
    -0.5106  -0.5035  -0.5019  -0.4841  -0.3973  -0.3855  -0.3425  -0.3091
    -0.2680  -0.2538  -0.1888  -0.0068   0.0100   0.0761   0.1831   0.2771
     0.3715   0.4509   0.4709   0.5220   0.5646   0.5851   0.6642   0.7573
     0.7692   0.8371   0.8833   0.9246   0.9288   0.9339   1.8527   1.8533
     1.9378   1.9380   3.6773   3.8023   3.8228   3.8608   3.8789   4.0281
     4.0740   4.1116   4.1335   4.1358   4.2145

     the Fermi energy is     3.6096 ev

!    total energy              =   -2919.11588909 Ry
     estimated scf accuracy    <       0.00000007 Ry
     smearing contrib. (-TS)   =      -0.03732013 Ry
     internal energy E=F+TS    =   -2919.07856895 Ry

     The total energy is F=E-TS. E is the sum of the following terms:
     one-electron contribution =  -24307.25940557 Ry
     hartree contribution      =   12241.03623406 Ry
     xc contribution           =    -480.01414699 Ry
     ewald contribution        =    9627.15575091 Ry
     electric field correction =       0.00299863 Ry

     convergence has been achieved in  61 iterations

     Forces acting on atoms (cartesian axes, Ry/au):

     atom    1 type  1   force =     0.00004893   -0.00015326    0.09380745
     atom    2 type  1   force =    -0.00018140   -0.00018365   -0.17778519
     atom    3 type  2   force =     0.00002649   -0.00021774   -0.02114194
     atom    4 type  2   force =    -0.00001584   -0.00198825    0.05774807
     atom    5 type  2   force =    -0.01108519   -0.00164741    0.00749560
     atom    6 type  2   force =     0.01244761   -0.00098046    0.00637790
     atom    7 type  1   force =    -0.00048079    0.00246519   -0.01334741
     atom    8 type  1   force =     0.00030426    0.00292555    0.00274596
     atom    9 type  2   force =     0.00007664   -0.00007921    0.00012932
     atom   10 type  2   force =    -0.00176420   -0.00226885   -0.00367082
     atom   11 type  2   force =     0.00016845    0.00060050   -0.00028360
     atom   12 type  2   force =     0.00044377    0.00053677   -0.00010210
     atom   13 type  1   force =    -0.00072180   -0.00094763   -0.00030794
     atom   14 type  1   force =     0.00082566    0.00026692   -0.00051577
     atom   15 type  2   force =     0.00025732    0.00017110   -0.00004866
     atom   16 type  2   force =    -0.00008283    0.00034425   -0.00061073
     atom   17 type  2   force =     0.00001350    0.00010835    0.00029061
     atom   18 type  2   force =     0.00054716    0.00002017    0.00024004
     atom   19 type  1   force =     0.00026025   -0.00092944    0.00036303
     atom   20 type  1   force =    -0.00010814    0.00062605    0.00040500
     atom   21 type  2   force =     0.00004492   -0.00002429    0.10382159
     atom   22 type  2   force =     0.00002254   -0.00064409    0.00007601
     atom   23 type  2   force =    -0.07058498   -0.00014510   -0.02705915
     atom   24 type  2   force =     0.07046367    0.00031860   -0.02710520
     atom   25 type  1   force =     0.00008440   -0.00018382    0.09360605
     atom   26 type  1   force =    -0.00009464   -0.00027341   -0.17781865
     atom   27 type  2   force =     0.00008317   -0.00045732   -0.02016973
     atom   28 type  2   force =     0.00002555   -0.00169251    0.05723616
     atom   29 type  2   force =    -0.01117496   -0.00114741    0.00695531
     atom   30 type  2   force =     0.01242596   -0.00080406    0.00581869
     atom   31 type  1   force =    -0.00039276    0.00467941   -0.01442737
     atom   32 type  1   force =     0.00037254   -0.00360925    0.00246225
     atom   33 type  2   force =    -0.00000523    0.00057777    0.00039400
     atom   34 type  2   force =    -0.00117842   -0.00059559   -0.00105050
     atom   35 type  2   force =     0.00039561    0.00025195    0.00021053
     atom   36 type  2   force =     0.00013718    0.00032478    0.00018100
     atom   37 type  1   force =    -0.00053185    0.00131932    0.00008683
     atom   38 type  1   force =     0.00086972    0.00007511   -0.00087724
     atom   39 type  2   force =     0.00013060    0.00047119    0.00028700
     atom   40 type  2   force =     0.00017820    0.00019969   -0.00051704
     atom   41 type  2   force =     0.00022572    0.00009019   -0.00072057
     atom   42 type  2   force =    -0.00008184    0.00005272   -0.00075344
     atom   43 type  1   force =     0.00001418    0.00103039    0.00012660
     atom   44 type  1   force =    -0.00015414    0.00023379   -0.00064100
     atom   45 type  2   force =     0.00004554   -0.00003940    0.10379753
     atom   46 type  2   force =    -0.07060172   -0.00007035   -0.02705432
     atom   47 type  2   force =     0.07047696    0.00034711   -0.02708328
     atom   48 type  3   force =    -0.00051838   -0.00065575   -0.00236984
     atom   49 type  4   force =    -0.00378641    0.00141820    0.00164701
     atom   50 type  5   force =     0.00196623    0.00011319   -0.00103302
     atom   51 type  5   force =    -0.00004577    0.00035645    0.00108389
     atom   52 type  5   force =     0.00020853   -0.00018648   -0.00089892

     Total force =     0.365936     Total SCF correction =     0.000597
  @ DRIVER MODE: Message from server: STATUS
  @ DRIVER MODE: Message from server: GETFORCE
  @ DRIVER MODE: Returning v,forces,stress,ensemble

     Writing output data file ./calc.save/
  @ DRIVER MODE: Message from server: EXIT
  @ DRIVE MODE: Exiting

     General routines

     Parallel routines

   This run was terminated on:   2: 0: 4   9Sep2021

   JOB DONE.