     Program PWSCF v.6.7GPU starts on 22Sep2021 at 23:14:47

     R & G space division:  proc/nbgrp/npool/nimage =       8
     Reading input from /storage/home/hcoda1/3/ntian30/research/carbon/CxH_vib/H2O_calc/ads_slab/CH2NHHO_a/out_0003/pw.inp
Warning: card &CELL ignored
Warning: card   CELL_DYNAMICS='IPI', ignored
Warning: card / ignored

     Current dimensions of program PWSCF are:
     Max number of different atomic species (ntypx) = 10
     Max number of k-points (npk) =  40000
     Max angular momentum in pseudopotentials (lmaxx) =  3
     Presently no symmetry can be used with electric field

     Message from routine cell_base_init:
     DEPRECATED: use true lattice parameter, not A to a.u. conversion factor

     IMPORTANT: XC functional enforced from input :
     Exchange-correlation= BEEF-VDW
                           (   1   4  43  14   2   0   0)
     Any further DFT definition will be discarded
     Please, verify this is what you really want

  @ DRIVER MODE: Connecting to
 qe_1139763_2941012.sched-torque.pace.gatech.edui5mpx576_scratch
  using UNIX socket
  @ DRIVER MODE: Message from server: STATUS
  @ DRIVER MODE: Message from server: INIT
  @ DRIVER MODE: Receiving replica           0          -1
  @ DRIVER MODE: Receiving encoded integer          25
  @ DRIVER MODE:  SCF:  T  FORCE:  T  STRESS:  F  VC:  F  ENSEMBLE:  F
  @ DRIVER MODE:  SCF:  T  FORCE:  T  STRESS:  F  VC:  F  ENSEMBLE:  F

     Using Slab Decomposition

     bravais-lattice index     =            0
     lattice parameter (alat)  =       1.8897  a.u.
     unit-cell volume          =    6658.9804 (a.u.)^3
     number of atoms/cell      =           54
     number of atomic types    =            5
     number of electrons       =       397.00
     number of Kohn-Sham states=          208
     kinetic-energy cutoff     =      29.3995  Ry
     charge density cutoff     =     293.9946  Ry
     scf convergence threshold =      7.3E-08
     mixing beta               =       0.0500
     number of iterations used =            8  plain     mixing
     Exchange-correlation= BEEF-VDW
                           (   1   4  43  14   2   0   0)

     celldm(1)=   1.889726  celldm(2)=   0.000000  celldm(3)=   0.000000
     celldm(4)=   0.000000  celldm(5)=   0.000000  celldm(6)=   0.000000

     crystal axes: (cart. coord. in units of alat)
               a(1) = (   6.579727   0.000000   0.000000 )
               a(2) = (  -0.000775   5.961596   0.000000 )
               a(3) = (   0.000000   0.000000  25.155947 )

     reciprocal axes: (cart. coord. in units 2 pi/alat)
               b(1) = (  0.151982  0.000020  0.000000 )
               b(2) = (  0.000000  0.167740  0.000000 )
               b(3) = (  0.000000  0.000000  0.039752 )

     PseudoPot. # 1 for Ti read from file:
     /storage/coda1/p-amedford6/0/shared/rich_project_chbe-medford/medford-share/data/pseudos_module/espresso/nninc/pbe/van/Ti.UPF
     MD5 check sum: 8e4df49b7f0d34bbd5052bf3f5ea0213
     Pseudo is Ultrasoft, Zval = 12.0
     Generated by new atomic code, or converted to UPF format
     Using radial grid of  851 points,  6 beta functions with:
                l(1) =   0
                l(2) =   0
                l(3) =   1
                l(4) =   1
                l(5) =   2
                l(6) =   2
     Q(r) pseudized with  8 coefficients,  rinner =    1.000   1.000   1.000
                                                       1.000   1.000

     PseudoPot. # 2 for O  read from file:
     /storage/coda1/p-amedford6/0/shared/rich_project_chbe-medford/medford-share/data/pseudos_module/espresso/nninc/pbe/van/O.UPF
     MD5 check sum: 78c19812648e8988a0fe644b0f25305e
     Pseudo is Ultrasoft, Zval =  6.0
     Generated by new atomic code, or converted to UPF format
     Using radial grid of  737 points,  4 beta functions with:
                l(1) =   0
                l(2) =   0
                l(3) =   1
                l(4) =   1
     Q(r) pseudized with  8 coefficients,  rinner =    0.800   0.800   0.800

     PseudoPot. # 3 for N  read from file:
     /storage/coda1/p-amedford6/0/shared/rich_project_chbe-medford/medford-share/data/pseudos_module/espresso/nninc/pbe/van/N.UPF
     MD5 check sum: 90d10febe142ad51ac9d5be1deb811c4
     Pseudo is Ultrasoft, Zval =  5.0
     Generated by new atomic code, or converted to UPF format
     Using radial grid of  729 points,  4 beta functions with:
                l(1) =   0
                l(2) =   0
                l(3) =   1
                l(4) =   1
     Q(r) pseudized with  8 coefficients,  rinner =    0.800   0.800   0.800

     PseudoPot. # 4 for C  read from file:
     /storage/coda1/p-amedford6/0/shared/rich_project_chbe-medford/medford-share/data/pseudos_module/espresso/nninc/pbe/van/C.UPF
     MD5 check sum: 1a69bf6b8db32088f5b2163dbdb77a27
     Pseudo is Ultrasoft, Zval =  4.0
     Generated by new atomic code, or converted to UPF format
     Using radial grid of  721 points,  4 beta functions with:
                l(1) =   0
                l(2) =   0
                l(3) =   1
                l(4) =   1
     Q(r) pseudized with  8 coefficients,  rinner =    0.800   0.800   0.800

     PseudoPot. # 5 for H  read from file:
     /storage/coda1/p-amedford6/0/shared/rich_project_chbe-medford/medford-share/data/pseudos_module/espresso/nninc/pbe/van/H.UPF
     MD5 check sum: b5ee9d7bfd3a09ee7748110bda690ff7
     Pseudo is Ultrasoft, Zval =  1.0
     Generated by new atomic code, or converted to UPF format
     Using radial grid of  615 points,  1 beta functions with:
                l(1) =   0
     Q(r) pseudized with  8 coefficients,  rinner =    0.800

     atomic species   valence    mass     pseudopotential
        Ti1           12.00    47.86700     Ti( 1.00)
        O1             6.00    15.99900     O ( 1.00)
        N1             5.00    14.00700     N ( 1.00)
        C1             4.00    12.01100     C ( 1.00)
        H1             1.00     1.00800     H ( 1.00)

     No symmetry found

   Cartesian axes

     site n.     atom                  positions (alat units)
         1           Ti1 tau(   1) = (   0.0004258   2.9801865   6.0000000  )
         2           Ti1 tau(   2) = (   3.2906075   1.4906267   6.0002472  )
         3           O1  tau(   3) = (   0.0006271   0.0005054   7.9858123  )
         4           O1  tau(   4) = (   3.2906025   0.0005020   7.3038282  )
         5           O1  tau(   5) = (   4.5942328   1.4918067   9.2879030  )
         6           O1  tau(   6) = (   1.9868534   1.4903216   9.2879459  )
         7           Ti1 tau(   7) = (   3.2907910   2.8959150   9.1758416  )
         8           Ti1 tau(   8) = (   0.0015273   1.4827037   9.2680791  )
         9           O1  tau(   9) = (   3.2872377   5.9372537  11.3619719  )
        10           O1  tau(  10) = (   0.0116148   5.9584955  10.6183126  )
        11           O1  tau(  11) = (   1.2678424   1.4880610  12.6451974  )
        12           O1  tau(  12) = (   5.2928823   1.5036634  12.6399001  )
        13           Ti1 tau(  13) = (   6.5521701   2.9315368  12.5404127  )
        14           Ti1 tau(  14) = (   3.2895327   1.2997526  12.7137971  )
        15           O1  tau(  15) = (   6.5477037   0.0845492  14.6505624  )
        16           O1  tau(  16) = (   3.2827468   0.0880329  14.0175491  )
        17           O1  tau(  17) = (   4.5427558   1.5765460  16.1196870  )
        18           O1  tau(  18) = (   1.9971221   1.5491956  16.2097298  )
        19           Ti1 tau(  19) = (   3.2670693   3.0250103  15.6873951  )
        20           Ti1 tau(  20) = (   6.4806419   1.4532933  16.0069425  )
        21           O1  tau(  21) = (   3.2904802   0.0005063   4.7018136  )
        22           O1  tau(  22) = (   6.5100566   5.8635464  17.1664964  )
        23           O1  tau(  23) = (   1.3043587   1.4918075   6.0039043  )
        24           O1  tau(  24) = (   5.2767064   1.4903225   6.0039473  )
        25           Ti1 tau(  25) = (   0.0000382   5.9609847   6.0000000  )
        26           Ti1 tau(  26) = (   3.2902200   4.4714249   6.0002472  )
        27           O1  tau(  27) = (   0.0002396   2.9813036   7.9858123  )
        28           O1  tau(  28) = (   3.2902150   2.9813002   7.3038282  )
        29           O1  tau(  29) = (   4.5938453   4.4726049   9.2879030  )
        30           O1  tau(  30) = (   1.9864658   4.4711199   9.2879459  )
        31           Ti1 tau(  31) = (   3.2891106   5.8743827   9.1763621  )
        32           Ti1 tau(  32) = (   0.0006254   4.4649316   9.2693709  )
        33           O1  tau(  33) = (   3.2826969   3.0075535  11.3127327  )
        34           O1  tau(  34) = (   0.0092240   2.9805883  10.6323155  )
        35           O1  tau(  35) = (   1.2713698   4.4757098  12.6731835  )
        36           O1  tau(  36) = (   5.2977781   4.4601507  12.6712348  )
        37           Ti1 tau(  37) = (   0.0330522   5.9225719  12.5042524  )
        38           Ti1 tau(  38) = (   3.2990360   4.3766664  12.4405836  )
        39           O1  tau(  39) = (   0.0150134   2.9421642  14.8567636  )
        40           O1  tau(  40) = (   3.2596324   2.9836344  13.9148061  )
        41           O1  tau(  41) = (   4.5490916   4.3969069  16.0525170  )
        42           O1  tau(  42) = (   1.9960638   4.4622821  16.0939853  )
        43           Ti1 tau(  43) = (   3.1777156   0.0378257  16.2738330  )
        44           Ti1 tau(  44) = (   6.5243348   4.6462111  15.7996153  )
        45           O1  tau(  45) = (   3.2900926   2.9813045   4.7018136  )
        46           O1  tau(  46) = (   1.3039711   4.4726057   6.0039043  )
        47           O1  tau(  47) = (   5.2763189   4.4711207   6.0039473  )
        48           N1  tau(  48) = (   6.4646383   2.7459932  17.9272311  )
        49           C1  tau(  49) = (   0.7552072   2.7164238  18.8602713  )
        50           H1  tau(  50) = (   0.5916026   3.1878006  19.8266510  )
        51           H1  tau(  51) = (   1.6887153   2.1901376  18.6919226  )
        52           H1  tau(  52) = (   5.6107037   3.2511282  18.1874541  )
        53           O1  tau(  53) = (   3.4589997   5.9358250  18.1144358  )
        54           H1  tau(  54) = (   4.3999295   5.9567086  18.3589960  )

     number of k points=    10  Fermi-Dirac smearing, width (Ry)=  0.0073
                       cart. coord. in units 2pi/alat
        k(    1) = (   0.0000000   0.0000000   0.0000000), wk =   0.1250000
        k(    2) = (   0.0000000   0.0419351   0.0000000), wk =   0.2500000
        k(    3) = (   0.0000000  -0.0838702   0.0000000), wk =   0.1250000
        k(    4) = (   0.0379955   0.0000049   0.0000000), wk =   0.2500000
        k(    5) = (   0.0379955   0.0419400   0.0000000), wk =   0.2500000
        k(    6) = (   0.0379955  -0.0838652   0.0000000), wk =   0.2500000
        k(    7) = (   0.0379955  -0.0419301   0.0000000), wk =   0.2500000
        k(    8) = (  -0.0759910  -0.0000099   0.0000000), wk =   0.1250000
        k(    9) = (  -0.0759910   0.0419252   0.0000000), wk =   0.2500000
        k(   10) = (  -0.0759910  -0.0838800   0.0000000), wk =   0.1250000

     Initial potential from superposition of free atoms

     starting charge  380.99916, renormalised to  397.00000

     negative rho (up, down):  1.654E-02 0.000E+00

     %%%%%%%%%%%%%%%%%%%%%%%%%%%%%%%%%%%%%%%%%%%%%%%%%%%%%%%%%%%%%%%%%%%%%%%%
     %                                                                      %
     % You are using vdW-DF, which was implemented by the Thonhauser group. %
     % Please cite the following two papers that made this development      %
     % possible and the two reviews that describe the various versions:     %
     %                                                                      %
     %   T. Thonhauser et al., PRL 115, 136402 (2015).                      %
     %   T. Thonhauser et al., PRB 76, 125112 (2007).                       %
     %   K. Berland et al., Rep. Prog. Phys. 78, 066501 (2015).             %
     %   D.C. Langreth et al., J. Phys.: Condens. Matter 21, 084203 (2009). %
     %                                                                      %
     %                                                                      %
     % If you are calculating the stress with vdW-DF, please also cite:     %
     %                                                                      %
     %   R. Sabatini et al., J. Phys.: Condens. Matter 24, 424209 (2012).   %
     %                                                                      %
     %%%%%%%%%%%%%%%%%%%%%%%%%%%%%%%%%%%%%%%%%%%%%%%%%%%%%%%%%%%%%%%%%%%%%%%%

     Adding external electric field

     Computed dipole along edir(3) :
        Dipole               -9.2998 Ry au,        -23.6378 Debye
        Dipole field         -0.0175 Ry au,

        Potential amp.        1.6269 Ry
        Total length         46.3494 bohr

     Starting wfcs are  300 atomic wfcs
  @ DRIVER MODE: Message from server: STATUS
  @ DRIVER MODE: Message from server: POSDATA
  @ DRIVER MODE: Reading and sharing cell
  @ DRIVER MODE: Reading and sharing positions
  @ DRIVER MODE: Received positions

     Self-consistent Calculation

     iteration #  1     ecut=    29.40 Ry     beta= 0.05
     Davidson diagonalization with overlap
     c_bands:  1 eigenvalues not converged
     c_bands:  1 eigenvalues not converged
     c_bands:  2 eigenvalues not converged
     c_bands:  1 eigenvalues not converged
     c_bands:  1 eigenvalues not converged
     c_bands:  2 eigenvalues not converged
     c_bands:  1 eigenvalues not converged
     c_bands:  1 eigenvalues not converged
     c_bands:  3 eigenvalues not converged
     ethr =  1.00E-05,  avg # of iterations = 19.6

[...]

     total energy              =   -2534.83738996 Ry
     estimated scf accuracy    <    4639.03441706 Ry

     iteration #  2     ecut=    29.40 Ry     beta= 0.05
     Davidson diagonalization with overlap
     ethr =  1.00E-02,  avg # of iterations = 25.1

[...]

     iteration # 59     ecut=    29.40 Ry     beta= 0.05
     Davidson diagonalization with overlap
     c_bands:  1 eigenvalues not converged
     ethr =  5.33E-07,  avg # of iterations = 13.5

[...]

     total energy              =   -2952.74690340 Ry
     estimated scf accuracy    <       0.00000008 Ry

     iteration # 82     ecut=    29.40 Ry     beta= 0.05
     Davidson diagonalization with overlap
     ethr =  2.01E-11,  avg # of iterations =  6.0

     negative rho (up, down):  1.672E-02 0.000E+00

     Adding external electric field

     Computed dipole along edir(3) :
        Dipole                1.0858 Ry au,          2.7599 Debye
        Dipole field          0.0020 Ry au,

        Potential amp.       -0.1899 Ry
        Total length         46.3494 bohr

     End of self-consistent calculation

          k = 0.0000 0.0000 0.0000 ( 18029 PWs)   bands (ev):

   -55.6623 -55.6400 -55.6059 -55.4689 -55.4617 -55.4337 -55.4329 -55.4283
   -55.4113 -55.3999 -55.3506 -55.2425 -55.2260 -55.1747 -54.6056 -54.5716
   -32.1236 -31.9907 -31.9648 -31.9575 -31.9523 -31.9315 -31.9310 -31.8851
   -31.8836 -31.8678 -31.8351 -31.7923 -31.7548 -31.7456 -31.7365 -31.7339
   -31.7157 -31.6974 -31.6768 -31.6659 -31.6635 -31.6571 -31.6359 -31.6250
   -31.6177 -31.6103 -31.6008 -31.5914 -31.5904 -31.5784 -31.5762 -31.5710
   -31.5664 -31.5468 -31.5215 -31.5063 -31.4391 -31.4306 -31.4173 -31.3875
   -31.3803 -31.3799 -31.0112 -30.9258 -30.9033 -30.8288 -30.7424 -30.6306
   -16.7149 -16.4365 -16.2563 -16.0825 -15.8687 -15.7945 -15.7573 -15.5603
   -15.4742 -15.4096 -15.1779 -15.1721 -15.1614 -15.1390 -15.1122 -15.1024
   -15.0921 -15.0571 -15.0551 -15.0330 -15.0071 -14.9738 -14.9652 -14.9177
   -14.8685 -14.8517 -14.7706 -14.6977 -14.6510 -14.4494 -14.3242 -13.1039
   -12.9877  -9.3090  -6.3415  -4.7233  -3.9546  -3.6252  -3.5392  -3.5051
    -3.4292  -3.3796  -3.1439  -3.0078  -2.9596  -2.8759  -2.7630  -2.7381
    -2.6765  -2.6206  -2.5527  -2.5298  -2.4871  -2.4309  -2.4083  -2.3784
    -2.3690  -2.3377  -2.2860  -2.2235  -2.1620  -2.1366  -2.0788  -2.0023
    -1.9534  -1.9493  -1.9423  -1.9215  -1.8974  -1.8751  -1.8521  -1.8410
    -1.7377  -1.6844  -1.6657  -1.6122  -1.5687  -1.3140  -1.2342  -1.2258
    -1.1534  -1.1038  -1.0713  -1.0529  -1.0241  -0.9791  -0.9265  -0.8937
    -0.8127  -0.7581  -0.6993  -0.6863  -0.6401  -0.5638  -0.4807  -0.4232
    -0.4063  -0.3485  -0.3400  -0.3145  -0.1922  -0.1541  -0.1441  -0.0895
    -0.0628   0.0402   0.0842   0.1232   0.1544   0.2427   0.2650   0.3063
     0.3120   0.3421   0.3486   0.4386   0.4480   0.4739   0.5363   0.5624
     0.6405   0.7118   0.7193   0.8749   0.9224   1.0126   1.0455   1.1348
     1.3717   1.4211   1.4788   1.6149   1.9873   2.0322   3.4532   3.5984
     3.6158   3.7077   3.7128   3.8187   3.9277   3.9824   4.0192   4.1307

[...]

          k = 0.0380-0.0419 0.0000 ( 17876 PWs)   bands (ev):

[...]

          k =-0.0760-0.0000 0.0000 ( 17886 PWs)   bands (ev):

[...]

          k =-0.0760-0.0839 0.0000 ( 17948 PWs)   bands (ev):

   -55.6615 -55.6231 -55.6227 -55.4528 -55.4499 -55.4451 -55.4444 -55.4312
   -55.4121 -55.3932 -55.3573 -55.2383 -55.2274 -55.1788 -54.5890 -54.5881
   -31.9390 -31.9388 -31.9262 -31.9177 -31.9167 -31.9163 -31.8756 -31.8681
   -31.8054 -31.7768 -31.7759 -31.7668 -31.7614 -31.7429 -31.7423 -31.7364
   -31.7184 -31.7155 -31.7021 -31.6818 -31.6693 -31.6566 -31.6544 -31.6470
   -31.6439 -31.6392 -31.6366 -31.6202 -31.6166 -31.6131 -31.6108 -31.6103
   -31.5976 -31.5801 -31.5775 -31.5216 -31.5056 -31.4604 -31.4425 -31.4341
   -31.4259 -31.3845 -30.9163 -30.9157 -30.8247 -30.8235 -30.7860 -30.7853
   -16.6942 -16.4174 -15.8226 -15.7144 -15.5933 -15.5847 -15.4720 -15.3994
   -15.3650 -15.3356 -15.3179 -15.3076 -15.2839 -15.2445 -15.1969 -15.1766
   -15.1441 -15.1258 -15.1137 -15.0726 -15.0574 -15.0479 -15.0288 -14.9845
   -14.9706 -14.9410 -14.9281 -14.7976 -14.7432 -14.6363 -14.5655 -13.0898
   -13.0893  -9.3141  -6.3378  -4.7080  -3.9364  -3.0269  -2.9314  -2.8009
    -2.7066  -2.6690  -2.6314  -2.6072  -2.5823  -2.5418  -2.5244  -2.4754
    -2.4307  -2.4140  -2.4028  -2.3725  -2.3686  -2.3602  -2.3283  -2.3079
    -2.3006  -2.2878  -2.2641  -2.2532  -2.2361  -2.2117  -2.1988  -2.1725
    -2.1520  -2.1064  -1.9956  -1.9457  -1.9142  -1.7849  -1.7718  -1.7513
    -1.7360  -1.7213  -1.7004  -1.6819  -1.6152  -1.5965  -1.5692  -1.3928
    -1.3748  -1.2863  -1.2521  -1.2067  -1.1425  -1.1285  -1.0786  -1.0509
    -0.9965  -0.9711  -0.8796  -0.8249  -0.7978  -0.7591  -0.6344  -0.5827
    -0.5768  -0.5675  -0.5376  -0.5173  -0.4730  -0.4520  -0.4222  -0.3567
    -0.3271  -0.3100  -0.2644  -0.2527  -0.1283  -0.0105   0.0737   0.1172
     0.1788   0.1994   0.2386   0.3434   0.4189   0.4995   0.5421   0.5604
     0.5916   0.6826   0.6982   0.8412   0.8707   0.8756   0.9119   0.9436
     0.9725   1.0172   1.7843   1.7924   1.8524   1.8527   3.7001   3.8317
     3.9607   3.9807   3.9930   4.0252   4.0293   4.0531   4.1026   4.1399

     the Fermi energy is     3.4847 ev

!    total energy              =   -2952.74693971 Ry
     estimated scf accuracy    <       0.00000003 Ry
     smearing contrib. (-TS)   =      -0.02003386 Ry
     internal energy E=F+TS    =   -2952.72690586 Ry

     The total energy is F=E-TS. E is the sum of the following terms:
     one-electron contribution =  -23991.57385054 Ry
     hartree contribution      =   12087.28232950 Ry
     xc contribution           =    -488.02669368 Ry
     ewald contribution        =    9439.58908391 Ry
     electric field correction =       0.00222495 Ry

     convergence has been achieved in  82 iterations

     Forces acting on atoms (cartesian axes, Ry/au):

     atom    1 type  1   force =     0.00016735   -0.00027581    0.09475492
     atom    2 type  1   force =    -0.00000212    0.00039686   -0.17487702
     atom    3 type  2   force =    -0.00001208   -0.00013564   -0.02195559
     atom    4 type  2   force =     0.00006648   -0.00191420    0.05342310
     atom    5 type  2   force =    -0.00734917   -0.00240305    0.00310152
     atom    6 type  2   force =     0.00861539   -0.00198041    0.00182118
     atom    7 type  1   force =    -0.00058760   -0.00349200    0.00958790
     atom    8 type  1   force =     0.00060287    0.00468857    0.00863495
     atom    9 type  2   force =     0.00009137    0.00016939   -0.00016687
     atom   10 type  2   force =    -0.00268480   -0.00030912   -0.01303975
     atom   11 type  2   force =    -0.00040384   -0.00035126   -0.00011087
     atom   12 type  2   force =     0.00018271   -0.00017073    0.00030329
     atom   13 type  1   force =     0.00039292    0.00020845   -0.00073025
     atom   14 type  1   force =    -0.00014654    0.00008005   -0.00003409
     atom   15 type  2   force =     0.00027507   -0.00056807   -0.00048694
     atom   16 type  2   force =     0.00039519    0.00010480   -0.00007487
     atom   17 type  2   force =    -0.00031746   -0.00003881    0.00017644
     atom   18 type  2   force =     0.00017282   -0.00093482   -0.00030317
     atom   19 type  1   force =     0.00031467    0.00035772    0.00019020
     atom   20 type  1   force =    -0.00002837   -0.00039374   -0.00003437
     atom   21 type  2   force =     0.00010199    0.00007985    0.10309505
     atom   22 type  2   force =     0.00010458   -0.00105117    0.00000761
     atom   23 type  2   force =    -0.07213413   -0.00013377   -0.02737485
     atom   24 type  2   force =     0.07208960    0.00027898   -0.02740518
     atom   25 type  1   force =     0.00003506   -0.00010019    0.09453107
     atom   26 type  1   force =    -0.00006939   -0.00133905   -0.17506119
     atom   27 type  2   force =     0.00014808   -0.00019471   -0.02072613
     atom   28 type  2   force =     0.00002253   -0.00018435    0.04901313
     atom   29 type  2   force =    -0.00616749    0.00259289    0.00154334
     atom   30 type  2   force =     0.00739129    0.00321870    0.00010646
     atom   31 type  1   force =    -0.00054898    0.00716099   -0.00091486
     atom   32 type  1   force =     0.00055374   -0.00650331    0.00788397
     atom   33 type  2   force =     0.00025695   -0.00025409   -0.00033926
     atom   34 type  2   force =    -0.00212699    0.00146650   -0.01183772
     atom   35 type  2   force =    -0.00009109   -0.00000023    0.00016959
     atom   36 type  2   force =    -0.00022450    0.00011121    0.00029448
     atom   37 type  1   force =     0.00054428   -0.00012633   -0.00024627
     atom   38 type  1   force =    -0.00019035   -0.00014191    0.00031218
     atom   39 type  2   force =     0.00011876    0.00040391   -0.00021515
     atom   40 type  2   force =    -0.00015660    0.00028465   -0.00048991
     atom   41 type  2   force =     0.00024419    0.00033564   -0.00016635
     atom   42 type  2   force =    -0.00021665    0.00033326    0.00031310
     atom   43 type  1   force =    -0.00004812   -0.00078783   -0.00028651
     atom   44 type  1   force =     0.00015260    0.00126884    0.00001214
     atom   45 type  2   force =     0.00010228   -0.00008606    0.10290535
     atom   46 type  2   force =    -0.07215291   -0.00005190   -0.02740066
     atom   47 type  2   force =     0.07215318    0.00039646   -0.02742819
     atom   48 type  3   force =    -0.00669758    0.00694047    0.00258110
     atom   49 type  4   force =     0.00211865   -0.00289613   -0.00047757
     atom   50 type  5   force =    -0.00040833    0.00076210   -0.00061287
     atom   51 type  5   force =     0.00064546    0.00000415    0.00028712
     atom   52 type  5   force =     0.00508748   -0.00484034   -0.00250931
     atom   53 type  2   force =    -0.00003993    0.00004382    0.00153739
     atom   54 type  5   force =    -0.00034252   -0.00002921   -0.00128080

     Total force =     0.362602     Total SCF correction =     0.000612
  @ DRIVER MODE: Message from server: STATUS
  @ DRIVER MODE: Message from server: GETFORCE
  @ DRIVER MODE: Returning v,forces,stress,ensemble

     Writing output data file ./calc.save/
  @ DRIVER MODE: Message from server: EXIT
  @ DRIVE MODE: Exiting

     General routines

     Parallel routines

   This run was terminated on:  23:40:25  22Sep2021

   JOB DONE.