     Program PWSCF v.6.7GPU starts on 11Sep2021 at  2:41:20

     R & G space division:  proc/nbgrp/npool/nimage =      10
     Reading input from /storage/home/hcoda1/3/ntian30/research/carbon/CxH_vib/CH2_calc/ads_slab/CH2NHNH2_a/out_0024/pw.inp
Warning: card &CELL ignored
Warning: card   CELL_DYNAMICS='IPI', ignored
Warning: card / ignored

     Current dimensions of program PWSCF are:
     Max number of different atomic species (ntypx) = 10
     Max number of k-points (npk) =  40000
     Max angular momentum in pseudopotentials (lmaxx) =  3
     Presently no symmetry can be used with electric field

     Message from routine cell_base_init:
     DEPRECATED: use true lattice parameter, not A to a.u. conversion factor

     IMPORTANT: XC functional enforced from input :
     Exchange-correlation= BEEF-VDW
                           (   1   4  43  14   2   0   0)
     Any further DFT definition will be discarded
     Please, verify this is what you really want

  @ DRIVER MODE: Connecting to
 qe_1139763_2792044.sched-torque.pace.gatech.eduw74zf7u7_scratch
  using UNIX socket
  @ DRIVER MODE: Message from server: STATUS
  @ DRIVER MODE: Message from server: INIT
  @ DRIVER MODE: Receiving replica           0          -1
  @ DRIVER MODE: Receiving encoded integer          25
  @ DRIVER MODE:  SCF:  T  FORCE:  T  STRESS:  F  VC:  F  ENSEMBLE:  F
  @ DRIVER MODE:  SCF:  T  FORCE:  T  STRESS:  F  VC:  F  ENSEMBLE:  F

     Using Slab Decomposition

     bravais-lattice index     =            0
     lattice parameter (alat)  =       1.8897  a.u.
     unit-cell volume          =    6658.9804 (a.u.)^3
     number of atoms/cell      =           55
     number of atomic types    =            5
     number of electrons       =       397.00
     number of Kohn-Sham states=          208
     kinetic-energy cutoff     =      29.3995  Ry
     charge density cutoff     =     293.9946  Ry
     scf convergence threshold =      7.3E-08
     mixing beta               =       0.0500
     number of iterations used =            8  plain     mixing
     Exchange-correlation= BEEF-VDW
                           (   1   4  43  14   2   0   0)

     celldm(1)=   1.889726  celldm(2)=   0.000000  celldm(3)=   0.000000
     celldm(4)=   0.000000  celldm(5)=   0.000000  celldm(6)=   0.000000

     crystal axes: (cart. coord. in units of alat)
               a(1) = (   6.579727   0.000000   0.000000 )
               a(2) = (  -0.000775   5.961596   0.000000 )
               a(3) = (   0.000000   0.000000  25.155947 )

     reciprocal axes: (cart. coord. in units 2 pi/alat)
               b(1) = (  0.151982  0.000020  0.000000 )
               b(2) = (  0.000000  0.167740  0.000000 )
               b(3) = (  0.000000  0.000000  0.039752 )

     PseudoPot. # 1 for Ti read from file:
     /storage/coda1/p-amedford6/0/shared/rich_project_chbe-medford/medford-share/data/pseudos_module/espresso/nninc/pbe/van/Ti.UPF
     MD5 check sum: 8e4df49b7f0d34bbd5052bf3f5ea0213
     Pseudo is Ultrasoft, Zval = 12.0
     Generated by new atomic code, or converted to UPF format
     Using radial grid of  851 points,  6 beta functions with:
                l(1) =   0
                l(2) =   0
                l(3) =   1
                l(4) =   1
                l(5) =   2
                l(6) =   2
     Q(r) pseudized with  8 coefficients,  rinner =    1.000   1.000   1.000
                                                       1.000   1.000

     PseudoPot. # 2 for O  read from file:
     /storage/coda1/p-amedford6/0/shared/rich_project_chbe-medford/medford-share/data/pseudos_module/espresso/nninc/pbe/van/O.UPF
     MD5 check sum: 78c19812648e8988a0fe644b0f25305e
     Pseudo is Ultrasoft, Zval =  6.0
     Generated by new atomic code, or converted to UPF format
     Using radial grid of  737 points,  4 beta functions with:
                l(1) =   0
                l(2) =   0
                l(3) =   1
                l(4) =   1
     Q(r) pseudized with  8 coefficients,  rinner =    0.800   0.800   0.800

     PseudoPot. # 3 for N  read from file:
     /storage/coda1/p-amedford6/0/shared/rich_project_chbe-medford/medford-share/data/pseudos_module/espresso/nninc/pbe/van/N.UPF
     MD5 check sum: 90d10febe142ad51ac9d5be1deb811c4
     Pseudo is Ultrasoft, Zval =  5.0
     Generated by new atomic code, or converted to UPF format
     Using radial grid of  729 points,  4 beta functions with:
                l(1) =   0
                l(2) =   0
                l(3) =   1
                l(4) =   1
     Q(r) pseudized with  8 coefficients,  rinner =    0.800   0.800   0.800

     PseudoPot. # 4 for C  read from file:
     /storage/coda1/p-amedford6/0/shared/rich_project_chbe-medford/medford-share/data/pseudos_module/espresso/nninc/pbe/van/C.UPF
     MD5 check sum: 1a69bf6b8db32088f5b2163dbdb77a27
     Pseudo is Ultrasoft, Zval =  4.0
     Generated by new atomic code, or converted to UPF format
     Using radial grid of  721 points,  4 beta functions with:
                l(1) =   0
                l(2) =   0
                l(3) =   1
                l(4) =   1
     Q(r) pseudized with  8 coefficients,  rinner =    0.800   0.800   0.800

     PseudoPot. # 5 for H  read from file:
     /storage/coda1/p-amedford6/0/shared/rich_project_chbe-medford/medford-share/data/pseudos_module/espresso/nninc/pbe/van/H.UPF
     MD5 check sum: b5ee9d7bfd3a09ee7748110bda690ff7
     Pseudo is Ultrasoft, Zval =  1.0
     Generated by new atomic code, or converted to UPF format
     Using radial grid of  615 points,  1 beta functions with:
                l(1) =   0
     Q(r) pseudized with  8 coefficients,  rinner =    0.800

     atomic species   valence    mass     pseudopotential
        Ti1           12.00    47.86700     Ti( 1.00)
        O1             6.00    15.99900     O ( 1.00)
        N1             5.00    14.00700     N ( 1.00)
        C1             4.00    12.01100     C ( 1.00)
        H1             1.00     1.00800     H ( 1.00)

     No symmetry found

   Cartesian axes

     site n.     atom                  positions (alat units)
         1           Ti1 tau(   1) = (   0.0004258   2.9801865   6.0000000  )
         2           Ti1 tau(   2) = (   3.2906075   1.4906267   6.0002472  )
         3           O1  tau(   3) = (   0.0006271   0.0005054   7.9858123  )
         4           O1  tau(   4) = (   3.2906025   0.0005020   7.3038282  )
         5           O1  tau(   5) = (   4.5942328   1.4918067   9.2879030  )
         6           O1  tau(   6) = (   1.9868534   1.4903216   9.2879459  )
         7           Ti1 tau(   7) = (   3.2907910   2.8959150   9.1758416  )
         8           Ti1 tau(   8) = (   0.0015273   1.4827037   9.2680791  )
         9           O1  tau(   9) = (   3.2904964   5.9585769  11.3857690  )
        10           O1  tau(  10) = (   0.0116148   5.9584955  10.6183126  )
        11           O1  tau(  11) = (   1.2878431   1.4867815  12.6991744  )
        12           O1  tau(  12) = (   5.2968392   1.4897239  12.6840540  )
        13           Ti1 tau(  13) = (   0.0031652   2.9724310  12.5021289  )
        14           Ti1 tau(  14) = (   3.2974598   1.4750309  12.5411678  )
        15           O1  tau(  15) = (   6.5490940   5.8844369  14.7025010  )
        16           O1  tau(  16) = (   3.3056738   5.9474069  14.0077327  )
        17           O1  tau(  17) = (   4.5358307   1.5199601  16.1809847  )
        18           O1  tau(  18) = (   2.0145668   1.5037208  16.1256758  )
        19           Ti1 tau(  19) = (   3.2722398   2.9952086  15.7861162  )
        20           Ti1 tau(  20) = (   6.5630583   1.3046800  15.8709962  )
        21           O1  tau(  21) = (   3.2904802   0.0005063   4.7018136  )
        22           O1  tau(  22) = (   0.0019326   0.1554656  17.2922311  )
        23           O1  tau(  23) = (   1.3043587   1.4918075   6.0039043  )
        24           O1  tau(  24) = (   5.2767064   1.4903225   6.0039473  )
        25           Ti1 tau(  25) = (   0.0000382   5.9609847   6.0000000  )
        26           Ti1 tau(  26) = (   3.2902200   4.4714249   6.0002472  )
        27           O1  tau(  27) = (   0.0002396   2.9813036   7.9858123  )
        28           O1  tau(  28) = (   3.2902150   2.9813002   7.3038282  )
        29           O1  tau(  29) = (   4.5938453   4.4726049   9.2879030  )
        30           O1  tau(  30) = (   1.9864658   4.4711199   9.2879459  )
        31           Ti1 tau(  31) = (   3.2891106   5.8743827   9.1763621  )
        32           Ti1 tau(  32) = (   0.0006254   4.4649316   9.2693709  )
        33           O1  tau(  33) = (   3.2902589   2.9648534  11.3782866  )
        34           O1  tau(  34) = (   0.0092240   2.9805883  10.6323155  )
        35           O1  tau(  35) = (   1.2907939   4.4579819  12.6664495  )
        36           O1  tau(  36) = (   5.2949113   4.4550998  12.6520156  )
        37           Ti1 tau(  37) = (   0.0082621   5.9437129  12.5015890  )
        38           Ti1 tau(  38) = (   3.2989848   4.4491302  12.5337562  )
        39           O1  tau(  39) = (   6.5545586   3.0159292  14.9830317  )
        40           O1  tau(  40) = (   3.2960925   2.9977268  13.9872472  )
        41           O1  tau(  41) = (   4.5245867   4.4695491  16.2648171  )
        42           O1  tau(  42) = (   2.0004542   4.4779941  16.2115700  )
        43           Ti1 tau(  43) = (   3.2998562   0.0139781  15.8031611  )
        44           Ti1 tau(  44) = (   0.0298651   4.5190837  16.0363964  )
        45           O1  tau(  45) = (   3.2900926   2.9813045   4.7018136  )
        46           O1  tau(  46) = (   1.3039711   4.4726057   6.0039043  )
        47           O1  tau(  47) = (   5.2763189   4.4711207   6.0039473  )
        48           N1  tau(  48) = (   0.7490466   2.5008218  18.8353846  )
        49           N1  tau(  49) = (   6.4369825   3.4131575  18.1751453  )
        50           C1  tau(  50) = (   1.9829018   2.9174465  19.1941100  )
        51           H1  tau(  51) = (   2.1359794   3.9544348  19.4590303  )
        52           H1  tau(  52) = (   2.6935556   2.1521737  19.4548401  )
        53           H1  tau(  53) = (   0.6355624   1.5475814  18.4636284  )
        54           H1  tau(  54) = (   6.4936903   4.3158724  18.6511896  )
        55           H1  tau(  55) = (   5.4890587   3.0624770  18.3097170  )

     number of k points=    10  Fermi-Dirac smearing, width (Ry)=  0.0073
                       cart. coord. in units 2pi/alat
        k(    1) = (   0.0000000   0.0000000   0.0000000), wk =   0.1250000
        k(    2) = (   0.0000000   0.0419351   0.0000000), wk =   0.2500000
        k(    3) = (   0.0000000  -0.0838702   0.0000000), wk =   0.1250000
        k(    4) = (   0.0379955   0.0000049   0.0000000), wk =   0.2500000
        k(    5) = (   0.0379955   0.0419400   0.0000000), wk =   0.2500000
        k(    6) = (   0.0379955  -0.0838652   0.0000000), wk =   0.2500000
        k(    7) = (   0.0379955  -0.0419301   0.0000000), wk =   0.2500000
        k(    8) = (  -0.0759910  -0.0000099   0.0000000), wk =   0.1250000
        k(    9) = (  -0.0759910   0.0419252   0.0000000), wk =   0.2500000
        k(   10) = (  -0.0759910  -0.0838800   0.0000000), wk =   0.1250000

     Initial potential from superposition of free atoms

     starting charge  380.99914, renormalised to  397.00000

     negative rho (up, down):  1.605E-02 0.000E+00

     %%%%%%%%%%%%%%%%%%%%%%%%%%%%%%%%%%%%%%%%%%%%%%%%%%%%%%%%%%%%%%%%%%%%%%%%
     %                                                                      %
     % You are using vdW-DF, which was implemented by the Thonhauser group. %
     % Please cite the following two papers that made this development      %
     % possible and the two reviews that describe the various versions:     %
     %                                                                      %
     %   T. Thonhauser et al., PRL 115, 136402 (2015).                      %
     %   T. Thonhauser et al., PRB 76, 125112 (2007).                       %
     %   K. Berland et al., Rep. Prog. Phys. 78, 066501 (2015).             %
     %   D.C. Langreth et al., J. Phys.: Condens. Matter 21, 084203 (2009). %
     %                                                                      %
     %                                                                      %
     % If you are calculating the stress with vdW-DF, please also cite:     %
     %                                                                      %
     %   R. Sabatini et al., J. Phys.: Condens. Matter 24, 424209 (2012).   %
     %                                                                      %
     %%%%%%%%%%%%%%%%%%%%%%%%%%%%%%%%%%%%%%%%%%%%%%%%%%%%%%%%%%%%%%%%%%%%%%%%

     Adding external electric field

     Computed dipole along edir(3) :
        Dipole              -10.6778 Ry au,        -27.1402 Debye
        Dipole field         -0.0202 Ry au,

        Potential amp.        1.8679 Ry
        Total length         46.3494 bohr

     Starting wfcs are  301 atomic wfcs
  @ DRIVER MODE: Message from server: STATUS
  @ DRIVER MODE: Message from server: POSDATA
  @ DRIVER MODE: Reading and sharing cell
  @ DRIVER MODE: Reading and sharing positions
  @ DRIVER MODE: Received positions

     Self-consistent Calculation

     iteration #  1     ecut=    29.40 Ry     beta= 0.05
     Davidson diagonalization with overlap
     c_bands:  2 eigenvalues not converged
     c_bands:  3 eigenvalues not converged
     c_bands:  1 eigenvalues not converged
     c_bands:  4 eigenvalues not converged
     c_bands:  4 eigenvalues not converged
     c_bands:  4 eigenvalues not converged
     c_bands:  1 eigenvalues not converged
     c_bands:  2 eigenvalues not converged
     c_bands:  2 eigenvalues not converged
     ethr =  1.00E-05,  avg # of iterations = 20.0

[...]

     total energy              =   -2465.31457154 Ry
     estimated scf accuracy    <    5331.47894175 Ry

     iteration #  2     ecut=    29.40 Ry     beta= 0.05
     Davidson diagonalization with overlap
     ethr =  1.00E-02,  avg # of iterations = 22.8

[...]

     iteration # 67     ecut=    29.40 Ry     beta= 0.05
     Davidson diagonalization with overlap
     ethr =  3.67E-11,  avg # of iterations = 10.7

[...]

     total energy              =   -2941.51058736 Ry
     estimated scf accuracy    <       0.00000010 Ry

     iteration # 68     ecut=    29.40 Ry     beta= 0.05
     Davidson diagonalization with overlap
     c_bands:  1 eigenvalues not converged
     ethr =  2.55E-11,  avg # of iterations = 11.3

     negative rho (up, down):  1.515E-02 0.000E+00

     Adding external electric field

     Computed dipole along edir(3) :
        Dipole                1.2043 Ry au,          3.0610 Debye
        Dipole field          0.0023 Ry au,

        Potential amp.       -0.2107 Ry
        Total length         46.3494 bohr

     End of self-consistent calculation

          k = 0.0000 0.0000 0.0000 ( 18029 PWs)   bands (ev):

   -55.3826 -55.3457 -55.3371 -55.3030 -55.2644 -55.2583 -55.2298 -55.2113
   -55.1869 -55.1845 -55.1769 -55.1676 -55.1339 -55.0319 -54.3699 -54.3359
   -31.9454 -31.8304 -31.7774 -31.7518 -31.7004 -31.6899 -31.6843 -31.6741
   -31.6257 -31.6172 -31.5948 -31.5817 -31.5723 -31.5482 -31.5419 -31.5348
   -31.5223 -31.5064 -31.5048 -31.4898 -31.4889 -31.4518 -31.4517 -31.4416
   -31.4416 -31.4136 -31.3948 -31.3943 -31.3935 -31.3891 -31.3728 -31.3664
   -31.3654 -31.3591 -31.3590 -31.3566 -31.3246 -31.3005 -31.2955 -31.2790
   -31.2469 -31.2020 -30.7795 -30.6849 -30.6628 -30.5958 -30.5090 -30.3982
   -18.8947 -16.2148 -15.9613 -15.8141 -15.7065 -15.5893 -15.4805 -15.4256
   -15.3195 -15.2481 -15.1337 -15.0845 -15.0679 -15.0361 -15.0273 -15.0150
   -14.9356 -14.9292 -14.9114 -14.8884 -14.8827 -14.8408 -14.8290 -14.7882
   -14.7632 -14.7565 -14.6357 -14.5498 -14.4752 -14.3212 -14.3123 -12.8730
   -12.7554  -9.8518  -7.4628  -6.2563  -4.9888  -4.0188  -3.5817  -3.5472
    -3.4085  -3.3003  -3.2796  -3.2405  -3.1431  -2.9621  -2.8257  -2.7923
    -2.6760  -2.5954  -2.5821  -2.5515  -2.4266  -2.3895  -2.3506  -2.2857
    -2.2562  -2.1940  -2.1753  -2.1637  -2.1446  -2.1201  -2.0959  -1.9945
    -1.9563  -1.8604  -1.8207  -1.7871  -1.7460  -1.7290  -1.7087  -1.6780
    -1.6679  -1.6136  -1.5995  -1.5858  -1.5369  -1.4193  -1.2980  -1.2645
    -1.1756  -1.0283  -0.9911  -0.9707  -0.9139  -0.8785  -0.8557  -0.8252
    -0.7652  -0.7260  -0.6666  -0.6091  -0.5407  -0.4966  -0.4490  -0.4120
    -0.3783  -0.2933  -0.2116  -0.1680  -0.1549  -0.1375  -0.0380  -0.0021
     0.0528   0.1291   0.1312   0.1433   0.1862   0.2683   0.3456   0.3636
     0.3867   0.4914   0.4961   0.5390   0.5416   0.5618   0.5958   0.6305
     0.6806   0.7077   0.7951   0.8918   1.1181   1.2194   1.2220   1.5453
     1.5562   1.6525   1.8354   2.2291   2.2775   3.7090   3.7795   3.8008
     3.8569   3.8599   3.9297   3.9463   4.1921   4.2176   4.2180   4.2371

[...]

          k = 0.0380-0.0419 0.0000 ( 17876 PWs)   bands (ev):

[...]

          k =-0.0760-0.0000 0.0000 ( 17886 PWs)   bands (ev):

[...]

          k =-0.0760-0.0839 0.0000 ( 17948 PWs)   bands (ev):

   -55.3686 -55.3596 -55.3202 -55.3198 -55.2540 -55.2493 -55.2449 -55.1955
   -55.1922 -55.1902 -55.1832 -55.1513 -55.1503 -55.0340 -54.3529 -54.3527
   -31.7545 -31.7455 -31.6863 -31.6622 -31.6456 -31.6454 -31.6271 -31.6110
   -31.6109 -31.5943 -31.5863 -31.5780 -31.5626 -31.5309 -31.5285 -31.5242
   -31.5236 -31.5225 -31.5110 -31.5068 -31.4776 -31.4655 -31.4615 -31.4515
   -31.4457 -31.4424 -31.4399 -31.4395 -31.4367 -31.4280 -31.4252 -31.4082
   -31.4069 -31.4047 -31.3852 -31.3835 -31.3834 -31.3732 -31.3319 -31.3306
   -31.2960 -31.2486 -30.6756 -30.6754 -30.5921 -30.5919 -30.5525 -30.5524
   -18.8886 -15.7663 -15.5974 -15.5784 -15.4344 -15.3981 -15.3550 -15.3440
   -15.2499 -15.2147 -15.1887 -15.1579 -15.1368 -15.1012 -15.0879 -15.0706
   -15.0138 -14.9915 -14.9858 -14.9659 -14.9069 -14.9025 -14.8949 -14.8920
   -14.8373 -14.8341 -14.8255 -14.7435 -14.7405 -14.6284 -14.2444 -12.8569
   -12.8569  -9.8215  -7.4228  -6.2535  -5.0861  -3.9624  -3.6055  -2.8548
    -2.8484  -2.8352  -2.6504  -2.5673  -2.5447  -2.5391  -2.4492  -2.4119
    -2.3665  -2.3641  -2.3108  -2.3045  -2.2773  -2.2367  -2.2253  -2.2053
    -2.1866  -2.1775  -2.1419  -2.1188  -2.1090  -2.0788  -2.0479  -2.0316
    -2.0243  -2.0026  -1.9718  -1.9526  -1.9402  -1.8866  -1.7753  -1.7600
    -1.6643  -1.5980  -1.5937  -1.5203  -1.4963  -1.4536  -1.4462  -1.4217
    -1.3763  -1.1972  -1.1658  -1.1350  -1.1272  -1.0414  -0.9892  -0.9174
    -0.9118  -0.8862  -0.8502  -0.7576  -0.7211  -0.7019  -0.6265  -0.6030
    -0.5361  -0.4941  -0.4290  -0.3983  -0.3444  -0.3425  -0.3072  -0.2937
    -0.2720  -0.2047  -0.1586  -0.1242  -0.1119  -0.0800   0.1176   0.1268
     0.1425   0.2515   0.2957   0.4431   0.4580   0.5209   0.6267   0.6530
     0.7227   0.7476   0.9042   0.9158   0.9313   0.9843   0.9925   1.0622
     1.0716   2.0085   2.0090   2.0973   2.0976   3.6775   3.8961   3.9674
     3.9825   4.0151   4.1403   4.2086   4.2267   4.2956   4.2980   4.3279

     the Fermi energy is     3.7750 ev

!    total energy              =   -2941.51061826 Ry
     estimated scf accuracy    <       0.00000007 Ry
     smearing contrib. (-TS)   =      -0.04439259 Ry
     internal energy E=F+TS    =   -2941.46622567 Ry

     The total energy is F=E-TS. E is the sum of the following terms:
     one-electron contribution =  -23633.27130801 Ry
     hartree contribution      =   11908.91885522 Ry
     xc contribution           =    -486.88446244 Ry
     ewald contribution        =    9269.76795263 Ry
     electric field correction =       0.00273693 Ry

     convergence has been achieved in  68 iterations

     Forces acting on atoms (cartesian axes, Ry/au):

     atom    1 type  1   force =     0.00013095   -0.00018692    0.09304451
     atom    2 type  1   force =    -0.00008486   -0.00045804   -0.17840493
     atom    3 type  2   force =     0.00004523   -0.00036239   -0.02005749
     atom    4 type  2   force =    -0.00000747   -0.00201591    0.05932145
     atom    5 type  2   force =    -0.01030851   -0.00098662    0.00817818
     atom    6 type  2   force =     0.01174052   -0.00038660    0.00732031
     atom    7 type  1   force =    -0.00038201    0.00240001   -0.01418611
     atom    8 type  1   force =     0.00023212   -0.00125166   -0.00620542
     atom    9 type  2   force =    -0.00023289    0.00021639    0.00013311
     atom   10 type  2   force =    -0.00162639    0.00149085    0.00162373
     atom   11 type  2   force =    -0.00005873   -0.00016076    0.00008475
     atom   12 type  2   force =    -0.00016807   -0.00016004   -0.00002395
     atom   13 type  1   force =     0.00007145   -0.00028358    0.00005429
     atom   14 type  1   force =     0.00018233    0.00019870    0.00029152
     atom   15 type  2   force =    -0.00007838    0.00026130   -0.00030848
     atom   16 type  2   force =     0.00017388   -0.00021602    0.00010745
     atom   17 type  2   force =    -0.00002848   -0.00001558    0.00042642
     atom   18 type  2   force =    -0.00023265   -0.00005604   -0.00017091
     atom   19 type  1   force =    -0.00011682   -0.00005177    0.00031458
     atom   20 type  1   force =    -0.00013605   -0.00008480    0.00014575
     atom   21 type  2   force =     0.00006096   -0.00008350    0.10399116
     atom   22 type  2   force =     0.00008053   -0.00009394   -0.00037058
     atom   23 type  2   force =    -0.07033196   -0.00017619   -0.02686781
     atom   24 type  2   force =     0.07021970    0.00027038   -0.02689362
     atom   25 type  1   force =    -0.00001687   -0.00014263    0.09260750
     atom   26 type  1   force =    -0.00005873   -0.00039255   -0.17855941
     atom   27 type  2   force =     0.00009431   -0.00030995   -0.01914230
     atom   28 type  2   force =     0.00003969   -0.00178833    0.05866217
     atom   29 type  2   force =    -0.01080944   -0.00126295    0.00872590
     atom   30 type  2   force =     0.01216200   -0.00086098    0.00782733
     atom   31 type  1   force =    -0.00028776    0.00613653   -0.01442420
     atom   32 type  1   force =     0.00028785    0.00071038   -0.00652277
     atom   33 type  2   force =    -0.00022686   -0.00025007   -0.00000861
     atom   34 type  2   force =    -0.00093599   -0.00223537   -0.00017171
     atom   35 type  2   force =    -0.00041203    0.00023276    0.00013734
     atom   36 type  2   force =     0.00011985    0.00019322   -0.00028696
     atom   37 type  1   force =     0.00017041    0.00000002    0.00005491
     atom   38 type  1   force =     0.00032789    0.00019170    0.00010845
     atom   39 type  2   force =    -0.00026219    0.00010508   -0.00026084
     atom   40 type  2   force =    -0.00009119   -0.00015930   -0.00009310
     atom   41 type  2   force =    -0.00007184    0.00032563   -0.00003670
     atom   42 type  2   force =    -0.00022035    0.00011801   -0.00003150
     atom   43 type  1   force =     0.00042498   -0.00004242    0.00026969
     atom   44 type  1   force =     0.00012305   -0.00014939   -0.00009505
     atom   45 type  2   force =     0.00004491   -0.00009080    0.10397762
     atom   46 type  2   force =    -0.07030604   -0.00010038   -0.02682278
     atom   47 type  2   force =     0.07018405    0.00031498   -0.02686082
     atom   48 type  3   force =     0.00114559   -0.00008209    0.00034363
     atom   49 type  3   force =     0.00042803    0.00003018   -0.00045227
     atom   50 type  4   force =     0.00021703    0.00295280   -0.00005509
     atom   51 type  5   force =    -0.00049254   -0.00372402   -0.00094027
     atom   52 type  5   force =     0.00025140    0.00015618    0.00007192
     atom   53 type  5   force =    -0.00031066    0.00153092    0.00015224
     atom   54 type  5   force =    -0.00008141    0.00111500    0.00032469
     atom   55 type  5   force =    -0.00058158   -0.00032945   -0.00004692

     Total force =     0.366460     Total SCF correction =     0.000527
  @ DRIVER MODE: Message from server: STATUS
  @ DRIVER MODE: Message from server: GETFORCE
  @ DRIVER MODE: Returning v,forces,stress,ensemble

     Writing output data file ./calc.save/
  @ DRIVER MODE: Message from server: EXIT
  @ DRIVE MODE: Exiting

     General routines

     Parallel routines

   This run was terminated on:   2:59:36  11Sep2021

   JOB DONE.