     Program PWSCF v.6.7GPU starts on 15Sep2021 at 20:40:47

     R & G space division:  proc/nbgrp/npool/nimage =      10
     Reading input from /storage/home/hcoda1/3/ntian30/research/carbon/CxH_vib/H2O_calc/ads_slab/CH2OHH2O_a/out_0016/pw.inp
Warning: card &CELL ignored
Warning: card   CELL_DYNAMICS='IPI', ignored
Warning: card / ignored

     Current dimensions of program PWSCF are:
     Max number of different atomic species (ntypx) = 10
     Max number of k-points (npk) =  40000
     Max angular momentum in pseudopotentials (lmaxx) =  3
     Presently no symmetry can be used with electric field

     Message from routine cell_base_init:
     DEPRECATED: use true lattice parameter, not A to a.u. conversion factor

     IMPORTANT: XC functional enforced from input :
     Exchange-correlation= BEEF-VDW
                           (   1   4  43  14   2   0   0)
     Any further DFT definition will be discarded
     Please, verify this is what you really want

  @ DRIVER MODE: Connecting to
 qe_1139763_2852615.sched-torque.pace.gatech.eduqhker30g_scratch
  using UNIX socket
  @ DRIVER MODE: Message from server: STATUS
  @ DRIVER MODE: Message from server: INIT
  @ DRIVER MODE: Receiving replica           0          -1
  @ DRIVER MODE: Receiving encoded integer          25
  @ DRIVER MODE:  SCF:  T  FORCE:  T  STRESS:  F  VC:  F  ENSEMBLE:  F
  @ DRIVER MODE:  SCF:  T  FORCE:  T  STRESS:  F  VC:  F  ENSEMBLE:  F

     Using Slab Decomposition

     bravais-lattice index     =            0
     lattice parameter (alat)  =       1.8897  a.u.
     unit-cell volume          =    6658.9804 (a.u.)^3
     number of atoms/cell      =           55
     number of atomic types    =            4
     number of electrons       =       399.00
     number of Kohn-Sham states=          209
     kinetic-energy cutoff     =      29.3995  Ry
     charge density cutoff     =     293.9946  Ry
     scf convergence threshold =      7.3E-08
     mixing beta               =       0.0500
     number of iterations used =            8  plain     mixing
     Exchange-correlation= BEEF-VDW
                           (   1   4  43  14   2   0   0)

     celldm(1)=   1.889726  celldm(2)=   0.000000  celldm(3)=   0.000000
     celldm(4)=   0.000000  celldm(5)=   0.000000  celldm(6)=   0.000000

     crystal axes: (cart. coord. in units of alat)
               a(1) = (   6.579727   0.000000   0.000000 )
               a(2) = (  -0.000775   5.961596   0.000000 )
               a(3) = (   0.000000   0.000000  25.155947 )

     reciprocal axes: (cart. coord. in units 2 pi/alat)
               b(1) = (  0.151982  0.000020  0.000000 )
               b(2) = (  0.000000  0.167740  0.000000 )
               b(3) = (  0.000000  0.000000  0.039752 )

     PseudoPot. # 1 for Ti read from file:
     /storage/coda1/p-amedford6/0/shared/rich_project_chbe-medford/medford-share/data/pseudos_module/espresso/nninc/pbe/van/Ti.UPF
     MD5 check sum: 8e4df49b7f0d34bbd5052bf3f5ea0213
     Pseudo is Ultrasoft, Zval = 12.0
     Generated by new atomic code, or converted to UPF format
     Using radial grid of  851 points,  6 beta functions with:
                l(1) =   0
                l(2) =   0
                l(3) =   1
                l(4) =   1
                l(5) =   2
                l(6) =   2
     Q(r) pseudized with  8 coefficients,  rinner =    1.000   1.000   1.000
                                                       1.000   1.000

     PseudoPot. # 2 for O  read from file:
     /storage/coda1/p-amedford6/0/shared/rich_project_chbe-medford/medford-share/data/pseudos_module/espresso/nninc/pbe/van/O.UPF
     MD5 check sum: 78c19812648e8988a0fe644b0f25305e
     Pseudo is Ultrasoft, Zval =  6.0
     Generated by new atomic code, or converted to UPF format
     Using radial grid of  737 points,  4 beta functions with:
                l(1) =   0
                l(2) =   0
                l(3) =   1
                l(4) =   1
     Q(r) pseudized with  8 coefficients,  rinner =    0.800   0.800   0.800

     PseudoPot. # 3 for C  read from file:
     /storage/coda1/p-amedford6/0/shared/rich_project_chbe-medford/medford-share/data/pseudos_module/espresso/nninc/pbe/van/C.UPF
     MD5 check sum: 1a69bf6b8db32088f5b2163dbdb77a27
     Pseudo is Ultrasoft, Zval =  4.0
     Generated by new atomic code, or converted to UPF format
     Using radial grid of  721 points,  4 beta functions with:
                l(1) =   0
                l(2) =   0
                l(3) =   1
                l(4) =   1
     Q(r) pseudized with  8 coefficients,  rinner =    0.800   0.800   0.800

     PseudoPot. # 4 for H  read from file:
     /storage/coda1/p-amedford6/0/shared/rich_project_chbe-medford/medford-share/data/pseudos_module/espresso/nninc/pbe/van/H.UPF
     MD5 check sum: b5ee9d7bfd3a09ee7748110bda690ff7
     Pseudo is Ultrasoft, Zval =  1.0
     Generated by new atomic code, or converted to UPF format
     Using radial grid of  615 points,  1 beta functions with:
                l(1) =   0
     Q(r) pseudized with  8 coefficients,  rinner =    0.800

     atomic species   valence    mass     pseudopotential
        Ti1           12.00    47.86700     Ti( 1.00)
        O1             6.00    15.99900     O ( 1.00)
        C1             4.00    12.01100     C ( 1.00)
        H1             1.00     1.00800     H ( 1.00)

     No symmetry found

   Cartesian axes

     site n.     atom                  positions (alat units)
         1           Ti1 tau(   1) = (   0.0004258   2.9801865   6.0000000  )
         2           Ti1 tau(   2) = (   3.2906075   1.4906267   6.0002472  )
         3           O1  tau(   3) = (   0.0006271   0.0005054   7.9858123  )
         4           O1  tau(   4) = (   3.2906025   0.0005020   7.3038282  )
         5           O1  tau(   5) = (   4.5942328   1.4918067   9.2879030  )
         6           O1  tau(   6) = (   1.9868534   1.4903216   9.2879459  )
         7           Ti1 tau(   7) = (   3.2434587   3.0186650   9.1693953  )
         8           Ti1 tau(   8) = (   6.5248695   1.5265067   9.2859949  )
         9           O1  tau(   9) = (   3.3238096   0.0077392  11.3399147  )
        10           O1  tau(  10) = (   0.0083103   0.0007143  10.5763085  )
        11           O1  tau(  11) = (   1.3076427   1.5153157  12.5877682  )
        12           O1  tau(  12) = (   5.3324098   1.4751673  12.6362968  )
        13           Ti1 tau(  13) = (   0.0822926   2.9518924  12.6100891  )
        14           Ti1 tau(  14) = (   3.3652580   1.6116561  12.6031695  )
        15           O1  tau(  15) = (   0.1623142   0.0003102  14.6136642  )
        16           O1  tau(  16) = (   3.2083997   0.0016335  13.9229753  )
        17           O1  tau(  17) = (   4.6427586   1.3635169  15.8692112  )
        18           O1  tau(  18) = (   2.0707938   1.5934636  16.1317492  )
        19           Ti1 tau(  19) = (   3.4055461   2.9583945  15.9219660  )
        20           Ti1 tau(  20) = (   0.0529163   1.3399360  15.9091509  )
        21           O1  tau(  21) = (   3.2904802   0.0005063   4.7018136  )
        22           O1  tau(  22) = (   0.1143047   5.9459637  17.1421970  )
        23           O1  tau(  23) = (   1.3043587   1.4918075   6.0039043  )
        24           O1  tau(  24) = (   5.2767064   1.4903225   6.0039473  )
        25           Ti1 tau(  25) = (   0.0000382   5.9609847   6.0000000  )
        26           Ti1 tau(  26) = (   3.2902200   4.4714249   6.0002472  )
        27           O1  tau(  27) = (   0.0002396   2.9813036   7.9858123  )
        28           O1  tau(  28) = (   3.2902150   2.9813002   7.3038282  )
        29           O1  tau(  29) = (   4.5938453   4.4726049   9.2879030  )
        30           O1  tau(  30) = (   1.9864658   4.4711199   9.2879459  )
        31           Ti1 tau(  31) = (   3.2519499   0.0415563   9.1803751  )
        32           Ti1 tau(  32) = (   6.5223785   4.4699269   9.2708698  )
        33           O1  tau(  33) = (   3.3249262   3.0006027  11.3427062  )
        34           O1  tau(  34) = (   6.5728067   2.9803724  10.5910131  )
        35           O1  tau(  35) = (   1.3048910   4.4590737  12.5876729  )
        36           O1  tau(  36) = (   5.3248012   4.5079456  12.6396186  )
        37           Ti1 tau(  37) = (   0.0305998   5.9348532  12.4502240  )
        38           Ti1 tau(  38) = (   3.3518916   4.5407868  12.4757475  )
        39           O1  tau(  39) = (   0.0741357   2.9755951  14.7167286  )
        40           O1  tau(  40) = (   3.3703583   2.9475192  13.9294239  )
        41           O1  tau(  41) = (   4.6408928   4.5782690  15.8216857  )
        42           O1  tau(  42) = (   2.0743197   4.3710070  16.0958311  )
        43           Ti1 tau(  43) = (   3.3271525   5.9323444  15.7323421  )
        44           Ti1 tau(  44) = (   0.0603002   4.5335970  15.7939964  )
        45           O1  tau(  45) = (   3.2900926   2.9813045   4.7018136  )
        46           O1  tau(  46) = (   1.3039711   4.4726057   6.0039043  )
        47           O1  tau(  47) = (   5.2763189   4.4711207   6.0039473  )
        48           C1  tau(  48) = (   4.5917920   3.0228413  17.9030398  )
        49           O1  tau(  49) = (   6.0625861   3.0006587  17.4562122  )
        50           H1  tau(  50) = (   0.0503952   3.1175262  18.2373115  )
        51           H1  tau(  51) = (   4.5265887   2.1706275  18.5876854  )
        52           H1  tau(  52) = (   4.4781653   3.9549082  18.4551422  )
        53           O1  tau(  53) = (   2.8659371   5.8926936  18.2031264  )
        54           H1  tau(  54) = (   3.0528466   0.8172038  18.5446680  )
        55           H1  tau(  55) = (   1.8959954   5.8777970  18.0521013  )

     number of k points=    10  Fermi-Dirac smearing, width (Ry)=  0.0073
                       cart. coord. in units 2pi/alat
        k(    1) = (   0.0000000   0.0000000   0.0000000), wk =   0.1250000
        k(    2) = (   0.0000000   0.0419351   0.0000000), wk =   0.2500000
        k(    3) = (   0.0000000  -0.0838702   0.0000000), wk =   0.1250000
        k(    4) = (   0.0379955   0.0000049   0.0000000), wk =   0.2500000
        k(    5) = (   0.0379955   0.0419400   0.0000000), wk =   0.2500000
        k(    6) = (   0.0379955  -0.0838652   0.0000000), wk =   0.2500000
        k(    7) = (   0.0379955  -0.0419301   0.0000000), wk =   0.2500000
        k(    8) = (  -0.0759910  -0.0000099   0.0000000), wk =   0.1250000
        k(    9) = (  -0.0759910   0.0419252   0.0000000), wk =   0.2500000
        k(   10) = (  -0.0759910  -0.0838800   0.0000000), wk =   0.1250000

     Initial potential from superposition of free atoms

     starting charge  382.99916, renormalised to  399.00000

     negative rho (up, down):  1.858E-02 0.000E+00

     %%%%%%%%%%%%%%%%%%%%%%%%%%%%%%%%%%%%%%%%%%%%%%%%%%%%%%%%%%%%%%%%%%%%%%%%
     %                                                                      %
     % You are using vdW-DF, which was implemented by the Thonhauser group. %
     % Please cite the following two papers that made this development      %
     % possible and the two reviews that describe the various versions:     %
     %                                                                      %
     %   T. Thonhauser et al., PRL 115, 136402 (2015).                      %
     %   T. Thonhauser et al., PRB 76, 125112 (2007).                       %
     %   K. Berland et al., Rep. Prog. Phys. 78, 066501 (2015).             %
     %   D.C. Langreth et al., J. Phys.: Condens. Matter 21, 084203 (2009). %
     %                                                                      %
     %                                                                      %
     % If you are calculating the stress with vdW-DF, please also cite:     %
     %                                                                      %
     %   R. Sabatini et al., J. Phys.: Condens. Matter 24, 424209 (2012).   %
     %                                                                      %
     %%%%%%%%%%%%%%%%%%%%%%%%%%%%%%%%%%%%%%%%%%%%%%%%%%%%%%%%%%%%%%%%%%%%%%%%

     Adding external electric field

     Computed dipole along edir(3) :
        Dipole               -9.7304 Ry au,        -24.7321 Debye
        Dipole field         -0.0184 Ry au,

        Potential amp.        1.7022 Ry
        Total length         46.3494 bohr

     Starting wfcs are  301 atomic wfcs
  @ DRIVER MODE: Message from server: STATUS
  @ DRIVER MODE: Message from server: POSDATA
  @ DRIVER MODE: Reading and sharing cell
  @ DRIVER MODE: Reading and sharing positions
  @ DRIVER MODE: Received positions

     Self-consistent Calculation

     iteration #  1     ecut=    29.40 Ry     beta= 0.05
     Davidson diagonalization with overlap
     c_bands:  1 eigenvalues not converged
     c_bands:  2 eigenvalues not converged
     c_bands:  3 eigenvalues not converged
     c_bands:  5 eigenvalues not converged
     c_bands:  3 eigenvalues not converged
     c_bands:  2 eigenvalues not converged
     c_bands:  3 eigenvalues not converged
     c_bands:  2 eigenvalues not converged
     ethr =  1.00E-05,  avg # of iterations = 19.8

[...]

     total energy              =   -2478.52216083 Ry
     estimated scf accuracy    <    5415.87708285 Ry

     iteration #  2     ecut=    29.40 Ry     beta= 0.05
     Davidson diagonalization with overlap
     ethr =  1.00E-02,  avg # of iterations = 24.6

[...]

     iteration # 71     ecut=    29.40 Ry     beta= 0.05
     Davidson diagonalization with overlap
     c_bands:  2 eigenvalues not converged
     ethr =  6.12E-11,  avg # of iterations = 10.6

[...]

     total energy              =   -2966.15822931 Ry
     estimated scf accuracy    <       0.00000043 Ry

     iteration # 72     ecut=    29.40 Ry     beta= 0.05
     Davidson diagonalization with overlap
     ethr =  6.12E-11,  avg # of iterations =  7.1

     negative rho (up, down):  1.797E-02 0.000E+00

     Adding external electric field

     Computed dipole along edir(3) :
        Dipole                1.0038 Ry au,          2.5515 Debye
        Dipole field          0.0019 Ry au,

        Potential amp.       -0.1756 Ry
        Total length         46.3494 bohr

     End of self-consistent calculation

          k = 0.0000 0.0000 0.0000 ( 18029 PWs)   bands (ev):

   -55.6893 -55.6528 -55.5816 -55.5735 -55.5171 -55.5148 -55.5089 -55.5060
   -55.4783 -55.4611 -55.4536 -55.4430 -55.4276 -55.3377 -54.6587 -54.6247
   -32.1795 -32.1653 -32.0552 -32.0254 -32.0032 -31.9765 -31.9556 -31.9443
   -31.9305 -31.8710 -31.8436 -31.8369 -31.8334 -31.8242 -31.7970 -31.7874
   -31.7839 -31.7647 -31.7594 -31.7484 -31.7372 -31.7320 -31.6982 -31.6929
   -31.6904 -31.6836 -31.6781 -31.6702 -31.6651 -31.6605 -31.6529 -31.6357
   -31.6321 -31.6299 -31.6243 -31.6210 -31.6126 -31.6124 -31.5870 -31.5643
   -31.5524 -31.4243 -31.0657 -30.9773 -30.9547 -30.8825 -30.7961 -30.6849
   -19.3825 -18.7443 -16.3747 -16.1779 -15.9731 -15.8597 -15.8399 -15.6588
   -15.5349 -15.3885 -15.3364 -15.3073 -15.2864 -15.2171 -15.2102 -15.1954
   -15.1601 -15.1551 -15.1188 -15.0991 -15.0930 -15.0653 -15.0139 -14.9922
   -14.9424 -14.8823 -14.8138 -14.7937 -14.7847 -14.7094 -14.6175 -13.1594
   -13.0428  -9.4298  -6.5043  -6.2766  -4.0744  -3.8412  -3.6864  -3.6440
    -3.6118  -3.5756  -3.4154  -3.3041  -3.1240  -3.0194  -2.9532  -2.9028
    -2.8660  -2.7888  -2.7469  -2.6226  -2.5994  -2.5493  -2.5167  -2.4806
    -2.4736  -2.4525  -2.4075  -2.3895  -2.3741  -2.2174  -2.2069  -2.1736
    -2.1085  -2.0772  -2.0499  -2.0130  -1.9912  -1.9642  -1.9458  -1.8996
    -1.8810  -1.8092  -1.8011  -1.7579  -1.6906  -1.6578  -1.3933  -1.3160
    -1.2955  -1.2572  -1.1934  -1.0964  -1.0926  -1.0861  -1.0856  -1.0286
    -1.0095  -0.8628  -0.8486  -0.8338  -0.7538  -0.6749  -0.5956  -0.5591
    -0.4944  -0.4440  -0.4115  -0.3836  -0.3563  -0.3020  -0.2339  -0.2107
    -0.1400  -0.0662  -0.0329   0.0195   0.0454   0.0901   0.1205   0.1966
     0.2357   0.2696   0.2975   0.3155   0.3257   0.3689   0.3889   0.4783
     0.5557   0.5837   0.5903   0.6645   0.7911   0.8735   0.9853   1.0769
     1.2992   1.3654   1.4168   1.5494   1.5567   1.9372   1.9877   3.4521
     3.5211   3.5805   3.5811   3.6159   3.6964   3.8995   3.9467   4.0041
     4.0377

[...]

          k = 0.0380-0.0419 0.0000 ( 17876 PWs)   bands (ev):

[...]

          k =-0.0760-0.0000 0.0000 ( 17886 PWs)   bands (ev):

[...]

          k =-0.0760-0.0839 0.0000 ( 17948 PWs)   bands (ev):

   -55.6775 -55.6644 -55.5762 -55.5688 -55.5216 -55.5135 -55.5112 -55.5026
   -55.4632 -55.4597 -55.4573 -55.4463 -55.4428 -55.3392 -54.6416 -54.6416
   -32.0984 -31.9868 -31.9759 -31.9741 -31.9519 -31.9014 -31.8747 -31.8537
   -31.8466 -31.8417 -31.8386 -31.8156 -31.8145 -31.7998 -31.7984 -31.7891
   -31.7880 -31.7798 -31.7782 -31.7753 -31.7725 -31.7627 -31.7411 -31.7356
   -31.7296 -31.7180 -31.7109 -31.7043 -31.7018 -31.6875 -31.6734 -31.6658
   -31.6652 -31.6627 -31.6607 -31.6543 -31.6530 -31.6509 -31.6487 -31.6464
   -31.6283 -31.4265 -30.9675 -30.9674 -30.8790 -30.8782 -30.8395 -30.8390
   -19.3760 -18.7432 -15.9929 -15.6538 -15.6408 -15.6357 -15.6049 -15.4835
   -15.4596 -15.4372 -15.3916 -15.3614 -15.3557 -15.3325 -15.2881 -15.2317
   -15.2125 -15.2048 -15.1951 -15.1428 -15.1284 -15.1175 -15.0718 -15.0312
   -15.0287 -15.0051 -14.9788 -14.9734 -14.9730 -14.9453 -14.8780 -13.1462
   -13.1430  -9.4359  -6.5041  -6.2569  -4.0313  -3.7277  -3.1611  -3.0410
    -2.8714  -2.8487  -2.7982  -2.7762  -2.7231  -2.6545  -2.6257  -2.6142
    -2.6125  -2.5786  -2.5159  -2.4820  -2.4781  -2.4388  -2.4205  -2.4128
    -2.3924  -2.3672  -2.3425  -2.3237  -2.3176  -2.2820  -2.2695  -2.2546
    -2.2485  -2.2371  -2.2183  -2.1777  -2.0702  -1.9484  -1.9143  -1.8788
    -1.8391  -1.7801  -1.7739  -1.7600  -1.7256  -1.7248  -1.7087  -1.6306
    -1.4671  -1.4033  -1.3429  -1.3209  -1.2473  -1.2351  -1.2196  -1.1758
    -1.1352  -1.0871  -1.0431  -1.0214  -0.9651  -0.9207  -0.7915  -0.7380
    -0.6536  -0.6485  -0.6259  -0.6108  -0.5567  -0.5321  -0.5069  -0.4622
    -0.4279  -0.3842  -0.3517  -0.3430  -0.3208  -0.2597  -0.1598  -0.1108
    -0.0485  -0.0424   0.0399   0.1696   0.3551   0.3853   0.4438   0.4946
     0.5841   0.6064   0.6552   0.6750   0.7325   0.7595   0.8010   0.8611
     0.9219   0.9500   1.5147   1.7288   1.7352   1.7984   1.8078   3.7435
     3.8311   3.9236   3.9375   3.9718   3.9841   3.9896   4.0192   4.0757
     4.1127

     the Fermi energy is     3.4495 ev

!    total energy              =   -2966.15824905 Ry
     estimated scf accuracy    <       0.00000006 Ry
     smearing contrib. (-TS)   =      -0.02139621 Ry
     internal energy E=F+TS    =   -2966.13685284 Ry

     The total energy is F=E-TS. E is the sum of the following terms:
     one-electron contribution =  -24755.61165048 Ry
     hartree contribution      =   12470.31856976 Ry
     xc contribution           =    -490.95777652 Ry
     ewald contribution        =    9810.11210275 Ry
     electric field correction =       0.00190165 Ry

     convergence has been achieved in  72 iterations

     Forces acting on atoms (cartesian axes, Ry/au):

     atom    1 type  1   force =     0.00075420   -0.00018211    0.09532678
     atom    2 type  1   force =     0.00024544   -0.00220527   -0.17571683
     atom    3 type  2   force =    -0.00065964   -0.00040967   -0.03008672
     atom    4 type  2   force =    -0.00084976    0.00063539    0.05235387
     atom    5 type  2   force =    -0.01386133   -0.00099724    0.00146637
     atom    6 type  2   force =     0.01581231    0.00241281    0.00319110
     atom    7 type  1   force =     0.00033716    0.00039261   -0.00026566
     atom    8 type  1   force =    -0.00036044    0.00140086    0.00065909
     atom    9 type  2   force =     0.00011414   -0.00002912    0.00024684
     atom   10 type  2   force =     0.00017627    0.00017013   -0.00056878
     atom   11 type  2   force =    -0.00023703    0.00025059    0.00017600
     atom   12 type  2   force =    -0.00037722    0.00008858    0.00007083
     atom   13 type  1   force =     0.00023207   -0.00018492   -0.00063488
     atom   14 type  1   force =    -0.00101415    0.00001685    0.00027024
     atom   15 type  2   force =     0.00006588   -0.00104282   -0.00013441
     atom   16 type  2   force =    -0.00000853   -0.00006748   -0.00020049
     atom   17 type  2   force =    -0.00028566   -0.00027998   -0.00011624
     atom   18 type  2   force =     0.00037563   -0.00032837    0.00004534
     atom   19 type  1   force =     0.00004669    0.00029842    0.00020202
     atom   20 type  1   force =     0.00032724    0.00086821    0.00040608
     atom   21 type  2   force =     0.00014785    0.00019879    0.10303246
     atom   22 type  2   force =     0.00015461   -0.00129160    0.00021385
     atom   23 type  2   force =    -0.07128673    0.00094227   -0.02829414
     atom   24 type  2   force =     0.07134077    0.00133738   -0.02832956
     atom   25 type  1   force =     0.00022290    0.00038380    0.10639681
     atom   26 type  1   force =     0.00000380    0.00253444   -0.17560249
     atom   27 type  2   force =    -0.00037575    0.00013311   -0.02786852
     atom   28 type  2   force =    -0.00096111    0.00076170    0.05166052
     atom   29 type  2   force =    -0.01301286   -0.00122987    0.00107540
     atom   30 type  2   force =     0.01545765    0.00037326    0.00295741
     atom   31 type  1   force =     0.00051384    0.00002454   -0.00001451
     atom   32 type  1   force =    -0.00041231   -0.00140519    0.00018125
     atom   33 type  2   force =    -0.00016616   -0.00031032    0.00020683
     atom   34 type  2   force =     0.00000828    0.00010747   -0.00013581
     atom   35 type  2   force =    -0.00061904   -0.00019323    0.00065311
     atom   36 type  2   force =     0.00003029   -0.00036749    0.00023289
     atom   37 type  1   force =     0.00060107    0.00027229    0.00051738
     atom   38 type  1   force =    -0.00092151    0.00014537    0.00044828
     atom   39 type  2   force =    -0.00017043    0.00063132    0.00025547
     atom   40 type  2   force =    -0.00002718   -0.00050530   -0.00067891
     atom   41 type  2   force =     0.00113116   -0.00000592   -0.00009491
     atom   42 type  2   force =    -0.00092416   -0.00015294    0.00018317
     atom   43 type  1   force =     0.00020379   -0.00101568   -0.00001285
     atom   44 type  1   force =    -0.00042916    0.00027165   -0.00030601
     atom   45 type  2   force =     0.00012233    0.00015493    0.10330380
     atom   46 type  2   force =    -0.07121032   -0.00125995   -0.02828843
     atom   47 type  2   force =     0.07127998   -0.00086342   -0.02832767
     atom   48 type  3   force =    -0.00077392   -0.00008860   -0.00011573
     atom   49 type  2   force =     0.00166865    0.00060249    0.00171052
     atom   50 type  4   force =    -0.00118544   -0.00101969   -0.00189265
     atom   51 type  4   force =    -0.00066702   -0.00011955    0.00014676
     atom   52 type  4   force =    -0.00039660   -0.00001079   -0.00037680
     atom   53 type  2   force =     0.00152674   -0.00041450    0.00081119
     atom   54 type  4   force =    -0.00025631    0.00041788    0.00008183
     atom   55 type  4   force =    -0.00145095    0.00015389   -0.00042048

     Total force =     0.367381     Total SCF correction =     0.000571
  @ DRIVER MODE: Message from server: STATUS
  @ DRIVER MODE: Message from server: GETFORCE
  @ DRIVER MODE: Returning v,forces,stress,ensemble

     Writing output data file ./calc.save/
  @ DRIVER MODE: Message from server: EXIT
  @ DRIVE MODE: Exiting

     General routines

     Parallel routines

   This run was terminated on:  21: 1: 6  15Sep2021

   JOB DONE.