     Program PWSCF v.6.7GPU starts on 26Sep2021 at  7: 1:38

     R & G space division:  proc/nbgrp/npool/nimage =       8
     Reading input from /storage/home/hcoda1/3/ntian30/research/carbon/CxH_vib/H2O_calc/ads_slab/CH2OHN2HO_a/out_0029/pw.inp
Warning: card &CELL ignored
Warning: card   CELL_DYNAMICS='IPI', ignored
Warning: card / ignored

     Current dimensions of program PWSCF are:
     Max number of different atomic species (ntypx) = 10
     Max number of k-points (npk) =  40000
     Max angular momentum in pseudopotentials (lmaxx) =  3
     Presently no symmetry can be used with electric field

     Message from routine cell_base_init:
     DEPRECATED: use true lattice parameter, not A to a.u. conversion factor

     IMPORTANT: XC functional enforced from input :
     Exchange-correlation= BEEF-VDW
                           (   1   4  43  14   2   0   0)
     Any further DFT definition will be discarded
     Please, verify this is what you really want

  @ DRIVER MODE: Connecting to
 qe_1139763_2971670.sched-torque.pace.gatech.eduh0i25age_scratch
  using UNIX socket
  @ DRIVER MODE: Message from server: STATUS
  @ DRIVER MODE: Message from server: INIT
  @ DRIVER MODE: Receiving replica           0          -1
  @ DRIVER MODE: Receiving encoded integer          25
  @ DRIVER MODE:  SCF:  T  FORCE:  T  STRESS:  F  VC:  F  ENSEMBLE:  F
  @ DRIVER MODE:  SCF:  T  FORCE:  T  STRESS:  F  VC:  F  ENSEMBLE:  F

     Using Slab Decomposition

     bravais-lattice index     =            0
     lattice parameter (alat)  =       1.8897  a.u.
     unit-cell volume          =    6658.9804 (a.u.)^3
     number of atoms/cell      =           56
     number of atomic types    =            5
     number of electrons       =       408.00
     number of Kohn-Sham states=          214
     kinetic-energy cutoff     =      29.3995  Ry
     charge density cutoff     =     293.9946  Ry
     scf convergence threshold =      7.3E-08
     mixing beta               =       0.0500
     number of iterations used =            8  plain     mixing
     Exchange-correlation= BEEF-VDW
                           (   1   4  43  14   2   0   0)

     celldm(1)=   1.889726  celldm(2)=   0.000000  celldm(3)=   0.000000
     celldm(4)=   0.000000  celldm(5)=   0.000000  celldm(6)=   0.000000

     crystal axes: (cart. coord. in units of alat)
               a(1) = (   6.579727   0.000000   0.000000 )
               a(2) = (  -0.000775   5.961596   0.000000 )
               a(3) = (   0.000000   0.000000  25.155947 )

     reciprocal axes: (cart. coord. in units 2 pi/alat)
               b(1) = (  0.151982  0.000020  0.000000 )
               b(2) = (  0.000000  0.167740  0.000000 )
               b(3) = (  0.000000  0.000000  0.039752 )

     PseudoPot. # 1 for C  read from file:
     /storage/coda1/p-amedford6/0/shared/rich_project_chbe-medford/medford-share/data/pseudos_module/espresso/nninc/pbe/van/C.UPF
     MD5 check sum: 1a69bf6b8db32088f5b2163dbdb77a27
     Pseudo is Ultrasoft, Zval =  4.0
     Generated by new atomic code, or converted to UPF format
     Using radial grid of  721 points,  4 beta functions with:
                l(1) =   0
                l(2) =   0
                l(3) =   1
                l(4) =   1
     Q(r) pseudized with  8 coefficients,  rinner =    0.800   0.800   0.800

     PseudoPot. # 2 for H  read from file:
     /storage/coda1/p-amedford6/0/shared/rich_project_chbe-medford/medford-share/data/pseudos_module/espresso/nninc/pbe/van/H.UPF
     MD5 check sum: b5ee9d7bfd3a09ee7748110bda690ff7
     Pseudo is Ultrasoft, Zval =  1.0
     Generated by new atomic code, or converted to UPF format
     Using radial grid of  615 points,  1 beta functions with:
                l(1) =   0
     Q(r) pseudized with  8 coefficients,  rinner =    0.800

     PseudoPot. # 3 for O  read from file:
     /storage/coda1/p-amedford6/0/shared/rich_project_chbe-medford/medford-share/data/pseudos_module/espresso/nninc/pbe/van/O.UPF
     MD5 check sum: 78c19812648e8988a0fe644b0f25305e
     Pseudo is Ultrasoft, Zval =  6.0
     Generated by new atomic code, or converted to UPF format
     Using radial grid of  737 points,  4 beta functions with:
                l(1) =   0
                l(2) =   0
                l(3) =   1
                l(4) =   1
     Q(r) pseudized with  8 coefficients,  rinner =    0.800   0.800   0.800

     PseudoPot. # 4 for Ti read from file:
     /storage/coda1/p-amedford6/0/shared/rich_project_chbe-medford/medford-share/data/pseudos_module/espresso/nninc/pbe/van/Ti.UPF
     MD5 check sum: 8e4df49b7f0d34bbd5052bf3f5ea0213
     Pseudo is Ultrasoft, Zval = 12.0
     Generated by new atomic code, or converted to UPF format
     Using radial grid of  851 points,  6 beta functions with:
                l(1) =   0
                l(2) =   0
                l(3) =   1
                l(4) =   1
                l(5) =   2
                l(6) =   2
     Q(r) pseudized with  8 coefficients,  rinner =    1.000   1.000   1.000
                                                       1.000   1.000

     PseudoPot. # 5 for N  read from file:
     /storage/coda1/p-amedford6/0/shared/rich_project_chbe-medford/medford-share/data/pseudos_module/espresso/nninc/pbe/van/N.UPF
     MD5 check sum: 90d10febe142ad51ac9d5be1deb811c4
     Pseudo is Ultrasoft, Zval =  5.0
     Generated by new atomic code, or converted to UPF format
     Using radial grid of  729 points,  4 beta functions with:
                l(1) =   0
                l(2) =   0
                l(3) =   1
                l(4) =   1
     Q(r) pseudized with  8 coefficients,  rinner =    0.800   0.800   0.800

     atomic species   valence    mass     pseudopotential
        C1             4.00    12.01100     C ( 1.00)
        H1             1.00     1.00800     H ( 1.00)
        O1             6.00    15.99900     O ( 1.00)
        Ti1           12.00    47.86700     Ti( 1.00)
        N1             5.00    14.00700     N ( 1.00)

     No symmetry found

   Cartesian axes

     site n.     atom                  positions (alat units)
         1           C1  tau(   1) = (   4.4694424   3.1333252  19.5683752  )
         2           H1  tau(   2) = (   3.5225350   3.1610456  19.0510688  )
         3           H1  tau(   3) = (   5.8501665   2.9975095  17.9951248  )
         4           H1  tau(   4) = (   4.8161173   2.2403860  20.0673745  )
         5           O1  tau(   5) = (   0.0006271   0.0005054   7.9858123  )
         6           O1  tau(   6) = (   3.2906025   0.0005020   7.3038282  )
         7           O1  tau(   7) = (   4.5942328   1.4918067   9.2879030  )
         8           O1  tau(   8) = (   1.9868534   1.4903216   9.2879459  )
         9           O1  tau(   9) = (   3.2658522   0.0207364  11.3165592  )
        10           O1  tau(  10) = (   0.0022773   0.0111808  10.5833539  )
        11           O1  tau(  11) = (   1.2584498   1.5025451  12.6333345  )
        12           O1  tau(  12) = (   5.2827793   1.4879884  12.6049259  )
        13           O1  tau(  13) = (   6.5229081   0.0016576  14.6697044  )
        14           O1  tau(  14) = (   3.2671471   5.9223268  13.9212949  )
        15           O1  tau(  15) = (   4.5038562   1.5078053  16.0770842  )
        16           O1  tau(  16) = (   1.9713840   1.5400684  15.9915579  )
        17           O1  tau(  17) = (   3.2904802   0.0005063   4.7018136  )
        18           O1  tau(  18) = (   0.0083768   5.9574009  17.1899481  )
        19           O1  tau(  19) = (   1.3043587   1.4918075   6.0039043  )
        20           O1  tau(  20) = (   5.2767064   1.4903225   6.0039473  )
        21           O1  tau(  21) = (   0.0002396   2.9813036   7.9858123  )
        22           O1  tau(  22) = (   3.2902150   2.9813002   7.3038282  )
        23           O1  tau(  23) = (   4.5938453   4.4726049   9.2879030  )
        24           O1  tau(  24) = (   1.9864658   4.4711199   9.2879459  )
        25           O1  tau(  25) = (   3.2699439   2.9592623  11.2883102  )
        26           O1  tau(  26) = (   0.0014687   2.9942081  10.5424492  )
        27           O1  tau(  27) = (   1.2624719   4.4656417  12.6394791  )
        28           O1  tau(  28) = (   5.2897987   4.4902883  12.6063686  )
        29           O1  tau(  29) = (   6.5205774   2.9949485  14.6561412  )
        30           O1  tau(  30) = (   3.3050662   2.9767913  13.8748461  )
        31           O1  tau(  31) = (   4.4950179   4.4323158  16.0974573  )
        32           O1  tau(  32) = (   1.9671975   4.4064719  15.9829847  )
        33           O1  tau(  33) = (   3.2900926   2.9813045   4.7018136  )
        34           O1  tau(  34) = (   1.3039711   4.4726057   6.0039043  )
        35           O1  tau(  35) = (   5.2763189   4.4711207   6.0039473  )
        36           O1  tau(  36) = (   6.5424668   2.9800173  17.2949776  )
        37           Ti1 tau(  37) = (   0.0004258   2.9801865   6.0000000  )
        38           Ti1 tau(  38) = (   3.2906075   1.4906267   6.0002472  )
        39           Ti1 tau(  39) = (   3.3167600   3.1006338   9.2159236  )
        40           Ti1 tau(  40) = (   0.0391818   1.5627686   9.3440282  )
        41           Ti1 tau(  41) = (   6.5783755   3.0458713  12.7937554  )
        42           Ti1 tau(  42) = (   3.2318486   1.5634082  12.4209175  )
        43           Ti1 tau(  43) = (   3.2670811   2.9501284  15.6494465  )
        44           Ti1 tau(  44) = (   0.0280251   1.4030395  16.0254105  )
        45           Ti1 tau(  45) = (   0.0000382   5.9609847   6.0000000  )
        46           Ti1 tau(  46) = (   3.2902200   4.4714249   6.0002472  )
        47           Ti1 tau(  47) = (   3.3194908   0.1157174   9.1781592  )
        48           Ti1 tau(  48) = (   0.0398790   4.5135925   9.3581580  )
        49           Ti1 tau(  49) = (   6.5007586   0.0629955  12.6074658  )
        50           Ti1 tau(  50) = (   3.2510718   4.6571100  12.6672192  )
        51           Ti1 tau(  51) = (   3.3282601   5.9350673  16.2366838  )
        52           Ti1 tau(  52) = (   0.0495319   4.5308688  15.9770001  )
        53           N1  tau(  53) = (   5.2748021   5.2735043  20.4272172  )
        54           N1  tau(  54) = (   4.8779203   4.2732533  20.0576380  )
        55           O1  tau(  55) = (   3.0402417   5.9484128  18.0530970  )
        56           H1  tau(  56) = (   2.1234608   0.1014992  18.3542784  )

     number of k points=    10  Fermi-Dirac smearing, width (Ry)=  0.0073
                       cart. coord. in units 2pi/alat
        k(    1) = (   0.0000000   0.0000000   0.0000000), wk =   0.1250000
        k(    2) = (   0.0000000   0.0419351   0.0000000), wk =   0.2500000
        k(    3) = (   0.0000000  -0.0838702   0.0000000), wk =   0.1250000
        k(    4) = (   0.0379955   0.0000049   0.0000000), wk =   0.2500000
        k(    5) = (   0.0379955   0.0419400   0.0000000), wk =   0.2500000
        k(    6) = (   0.0379955  -0.0838652   0.0000000), wk =   0.2500000
        k(    7) = (   0.0379955  -0.0419301   0.0000000), wk =   0.2500000
        k(    8) = (  -0.0759910  -0.0000099   0.0000000), wk =   0.1250000
        k(    9) = (  -0.0759910   0.0419252   0.0000000), wk =   0.2500000
        k(   10) = (  -0.0759910  -0.0838800   0.0000000), wk =   0.1250000

     Initial potential from superposition of free atoms

     starting charge  391.99915, renormalised to  408.00000

     negative rho (up, down):  1.415E-02 0.000E+00

     %%%%%%%%%%%%%%%%%%%%%%%%%%%%%%%%%%%%%%%%%%%%%%%%%%%%%%%%%%%%%%%%%%%%%%%%
     %                                                                      %
     % You are using vdW-DF, which was implemented by the Thonhauser group. %
     % Please cite the following two papers that made this development      %
     % possible and the two reviews that describe the various versions:     %
     %                                                                      %
     %   T. Thonhauser et al., PRL 115, 136402 (2015).                      %
     %   T. Thonhauser et al., PRB 76, 125112 (2007).                       %
     %   K. Berland et al., Rep. Prog. Phys. 78, 066501 (2015).             %
     %   D.C. Langreth et al., J. Phys.: Condens. Matter 21, 084203 (2009). %
     %                                                                      %
     %                                                                      %
     % If you are calculating the stress with vdW-DF, please also cite:     %
     %                                                                      %
     %   R. Sabatini et al., J. Phys.: Condens. Matter 24, 424209 (2012).   %
     %                                                                      %
     %%%%%%%%%%%%%%%%%%%%%%%%%%%%%%%%%%%%%%%%%%%%%%%%%%%%%%%%%%%%%%%%%%%%%%%%

     Adding external electric field

     Computed dipole along edir(3) :
        Dipole              -15.6033 Ry au,        -39.6596 Debye
        Dipole field         -0.0294 Ry au,

        Potential amp.        2.7296 Ry
        Total length         46.3494 bohr

     Starting wfcs are  308 atomic wfcs
  @ DRIVER MODE: Message from server: STATUS
  @ DRIVER MODE: Message from server: POSDATA
  @ DRIVER MODE: Reading and sharing cell
  @ DRIVER MODE: Reading and sharing positions
  @ DRIVER MODE: Received positions

     Self-consistent Calculation

     iteration #  1     ecut=    29.40 Ry     beta= 0.05
     Davidson diagonalization with overlap
     c_bands:  4 eigenvalues not converged
     c_bands:  1 eigenvalues not converged
     c_bands:  1 eigenvalues not converged
     c_bands:  1 eigenvalues not converged
     c_bands:  4 eigenvalues not converged
     c_bands:  2 eigenvalues not converged
     ethr =  1.00E-05,  avg # of iterations = 31.8

[...]

     total energy              =   -2234.25789886 Ry
     estimated scf accuracy    <    8818.47984316 Ry

     iteration #  2     ecut=    29.40 Ry     beta= 0.05
     Davidson diagonalization with overlap
     ethr =  1.00E-02,  avg # of iterations = 31.3

[...]

     iteration # 39     ecut=    29.40 Ry     beta= 0.05
     Davidson diagonalization with overlap
     c_bands:  1 eigenvalues not converged
     c_bands:  1 eigenvalues not converged
     c_bands:  1 eigenvalues not converged
     ethr =  1.53E-06,  avg # of iterations = 13.2

[...]

     total energy              =   -3005.15887261 Ry
     estimated scf accuracy    <       0.00000012 Ry

     iteration # 63     ecut=    29.40 Ry     beta= 0.05
     Davidson diagonalization with overlap
     ethr =  2.90E-11,  avg # of iterations =  2.0

     negative rho (up, down):  1.446E-02 0.000E+00

     Adding external electric field

     Computed dipole along edir(3) :
        Dipole                0.4822 Ry au,          1.2256 Debye
        Dipole field          0.0009 Ry au,

        Potential amp.       -0.0843 Ry
        Total length         46.3494 bohr

     End of self-consistent calculation

          k = 0.0000 0.0000 0.0000 ( 18029 PWs)   bands (ev):

   -56.2072 -56.1609 -55.6616 -55.6449 -55.6251 -55.5942 -55.5595 -55.5420
   -55.5156 -55.5061 -55.4574 -55.4149 -55.4101 -55.2856 -54.8317 -54.7978
   -32.6215 -32.4706 -32.4219 -32.3875 -32.2931 -32.2479 -32.1381 -32.0994
   -32.0928 -32.0171 -31.9535 -31.9494 -31.9480 -31.9005 -31.8910 -31.8809
   -31.8588 -31.8504 -31.8260 -31.8235 -31.8147 -31.7837 -31.7492 -31.7458
   -31.7425 -31.7282 -31.7192 -31.7058 -31.7037 -31.7008 -31.6967 -31.6843
   -31.6760 -31.6632 -31.6595 -31.6187 -31.6096 -31.6026 -31.5768 -31.5393
   -31.4993 -31.4880 -31.2265 -31.1709 -31.1466 -31.0435 -30.9586 -30.8476
   -20.5874 -16.8116 -16.4075 -16.3683 -16.2252 -15.9916 -15.8488 -15.7755
   -15.5443 -15.5284 -15.4067 -15.4059 -15.3652 -15.2513 -15.2247 -15.2078
   -15.1933 -15.1676 -15.1640 -15.1335 -15.1275 -15.1212 -15.0552 -15.0278
   -14.9997 -14.9541 -14.8834 -14.8543 -14.7911 -14.7688 -14.7412 -14.5338
   -13.7325 -13.3324 -13.2234  -6.3300  -5.3476  -4.8080  -4.2468  -3.9991
    -3.8956  -3.6802  -3.5773  -3.5669  -3.3905  -3.3695  -3.2856  -3.0671
    -2.9355  -2.8524  -2.8203  -2.7617  -2.7373  -2.6662  -2.6306  -2.6233
    -2.5786  -2.5322  -2.4784  -2.4615  -2.4439  -2.3984  -2.3847  -2.3658
    -2.3513  -2.3458  -2.2972  -2.1453  -2.1443  -2.0912  -2.0811  -2.0325
    -2.0149  -1.9981  -1.9832  -1.9425  -1.8990  -1.7611  -1.7437  -1.7333
    -1.6619  -1.4464  -1.4147  -1.3172  -1.2478  -1.2168  -1.1274  -1.1191
    -1.0960  -1.0584  -1.0166  -0.9179  -0.9017  -0.8425  -0.7974  -0.7798
    -0.7433  -0.6730  -0.6139  -0.5592  -0.5311  -0.4707  -0.4115  -0.3610
    -0.2903  -0.2760  -0.2170  -0.1793  -0.0920  -0.0610  -0.0268   0.0183
     0.0495   0.1056   0.1150   0.1534   0.1829   0.2514   0.2814   0.2993
     0.3494   0.3750   0.3904   0.4541   0.5164   0.5674   0.6003   0.7067
     0.7608   0.7767   0.8418   0.9201   1.0905   1.1868   1.2157   1.4102
     1.4434   1.7405   1.7885   1.8774   3.0909   3.2555   3.5431   3.6467
     3.6680   3.7012   3.7983   3.8297   3.9974   4.0292

[...]

          k = 0.0380-0.0419 0.0000 ( 17876 PWs)   bands (ev):

[...]

          k =-0.0760-0.0000 0.0000 ( 17886 PWs)   bands (ev):

[...]

          k =-0.0760-0.0839 0.0000 ( 17948 PWs)   bands (ev):

   -56.2000 -56.1680 -55.6596 -55.6430 -55.6204 -55.5874 -55.5643 -55.5485
   -55.5170 -55.5079 -55.4489 -55.4233 -55.4078 -55.2878 -54.8149 -54.8144
   -32.4659 -32.4520 -32.4262 -32.4246 -32.3524 -32.3252 -32.0277 -31.9683
   -31.9488 -31.9331 -31.9180 -31.8975 -31.8818 -31.8794 -31.8689 -31.8597
   -31.8391 -31.8283 -31.8241 -31.8220 -31.8152 -31.8026 -31.8016 -31.7950
   -31.7916 -31.7777 -31.7660 -31.7639 -31.7362 -31.7275 -31.7189 -31.7141
   -31.7130 -31.6877 -31.6714 -31.6607 -31.6564 -31.6360 -31.6073 -31.6008
   -31.5390 -31.4915 -31.1597 -31.1595 -31.0420 -31.0404 -31.0008 -30.9999
   -20.5867 -16.7309 -16.3808 -15.8057 -15.6833 -15.6742 -15.6731 -15.6377
   -15.5975 -15.5441 -15.5193 -15.4564 -15.3891 -15.3635 -15.3381 -15.3165
   -15.2760 -15.2417 -15.2336 -15.1633 -15.1257 -15.1145 -15.0980 -15.0878
   -15.0465 -15.0407 -15.0213 -15.0073 -14.9785 -14.9507 -14.8530 -14.6737
   -13.7397 -13.3275 -13.3265  -6.2621  -5.3907  -4.7567  -4.2163  -3.9717
    -3.4700  -3.0357  -2.9388  -2.8582  -2.8516  -2.7628  -2.7201  -2.6912
    -2.6692  -2.6533  -2.6281  -2.5707  -2.5530  -2.5172  -2.5087  -2.5059
    -2.4879  -2.4708  -2.4570  -2.4313  -2.4206  -2.4034  -2.3949  -2.3719
    -2.3582  -2.3463  -2.3168  -2.2845  -2.2498  -2.2346  -2.0527  -2.0306
    -2.0227  -2.0046  -1.9517  -1.9467  -1.8915  -1.8129  -1.7977  -1.7767
    -1.7635  -1.6458  -1.4960  -1.4475  -1.4015  -1.3830  -1.3162  -1.2641
    -1.1626  -1.1534  -1.1417  -1.1184  -1.0741  -1.0714  -0.9829  -0.9329
    -0.8923  -0.8873  -0.8616  -0.8173  -0.7026  -0.6957  -0.6549  -0.6281
    -0.6169  -0.5134  -0.4853  -0.4640  -0.4486  -0.4366  -0.3315  -0.2854
    -0.2345  -0.1849  -0.1169  -0.0692   0.0684   0.0940   0.1731   0.2023
     0.2486   0.3841   0.4111   0.4587   0.4924   0.5371   0.5846   0.5961
     0.7188   0.7745   0.7945   0.8602   0.8782   0.9178   0.9403   1.5792
     1.5853   1.5925   1.5950   1.8152   3.6331   3.6594   3.6657   3.7001
     3.8923   3.9184   3.9963   4.0223   4.0385   4.0475

     the Fermi energy is     2.5623 ev

!    total energy              =   -3005.15891003 Ry
     estimated scf accuracy    <       0.00000006 Ry
     smearing contrib. (-TS)   =      -0.00026401 Ry
     internal energy E=F+TS    =   -3005.15864602 Ry

     The total energy is F=E-TS. E is the sum of the following terms:
     one-electron contribution =  -22956.76662512 Ry
     hartree contribution      =   11574.22849196 Ry
     xc contribution           =    -500.30581387 Ry
     ewald contribution        =    8877.68486226 Ry
     electric field correction =       0.00043874 Ry

     convergence has been achieved in  63 iterations

     Forces acting on atoms (cartesian axes, Ry/au):

     atom    1 type  1   force =     0.00055322   -0.00027849    0.00023469
     atom    2 type  2   force =    -0.00021238    0.00021294   -0.00006247
     atom    3 type  2   force =     0.00013793    0.00017414   -0.00052338
     atom    4 type  2   force =    -0.00039280   -0.00011158    0.00008205
     atom    5 type  3   force =     0.00027698   -0.00317019   -0.05381738
     atom    6 type  3   force =     0.00044285    0.00120141    0.04057687
     atom    7 type  3   force =    -0.00979475   -0.00221425    0.00042414
     atom    8 type  3   force =     0.00886360   -0.00511698   -0.00067849
     atom    9 type  3   force =     0.00010637    0.00004408   -0.00008805
     atom   10 type  3   force =    -0.00011073    0.00004756    0.00013670
     atom   11 type  3   force =    -0.00009228    0.00000919   -0.00005527
     atom   12 type  3   force =     0.00020475    0.00013851    0.00005177
     atom   13 type  3   force =    -0.00013865   -0.00011863   -0.00239200
     atom   14 type  3   force =     0.00007075   -0.00016783   -0.00011013
     atom   15 type  3   force =    -0.00020425    0.00020101   -0.00035943
     atom   16 type  3   force =     0.00024560    0.00001899   -0.00051084
     atom   17 type  3   force =    -0.00007126    0.00016614    0.09945818
     atom   18 type  3   force =     0.00010753   -0.00019765   -0.00306695
     atom   19 type  3   force =    -0.08023450    0.00059419   -0.03417488
     atom   20 type  3   force =     0.08000359    0.00110859   -0.03419976
     atom   21 type  3   force =     0.00051768    0.00001698   -0.05289273
     atom   22 type  3   force =     0.00037924    0.00049353    0.04232356
     atom   23 type  3   force =    -0.01092760    0.00576307    0.00234104
     atom   24 type  3   force =     0.01004318    0.00213636    0.00119400
     atom   25 type  3   force =     0.00007495   -0.00001889   -0.00000500
     atom   26 type  3   force =     0.00000115    0.00007780    0.00010439
     atom   27 type  3   force =    -0.00013476    0.00001154    0.00004908
     atom   28 type  3   force =     0.00023157   -0.00006327    0.00011866
     atom   29 type  3   force =     0.00005813    0.00006563   -0.00103768
     atom   30 type  3   force =    -0.00001257   -0.00005260   -0.00077696
     atom   31 type  3   force =     0.00003780   -0.00017930   -0.00068139
     atom   32 type  3   force =    -0.00005191   -0.00023546   -0.00057061
     atom   33 type  3   force =    -0.00008092    0.00025585    0.09902612
     atom   34 type  3   force =    -0.08023663   -0.00144941   -0.03417952
     atom   35 type  3   force =     0.08000975   -0.00092581   -0.03422500
     atom   36 type  3   force =     0.00018385   -0.00009408   -0.00159800
     atom   37 type  4   force =     0.00019085    0.00017074    0.13335794
     atom   38 type  4   force =     0.00002748    0.00800769   -0.15912456
     atom   39 type  4   force =    -0.00006284   -0.00006986   -0.00000185
     atom   40 type  4   force =    -0.00008400    0.00016585   -0.00003962
     atom   41 type  4   force =    -0.00023901   -0.00016530   -0.00097469
     atom   42 type  4   force =    -0.00002039    0.00025664    0.00016532
     atom   43 type  4   force =     0.00014934   -0.00017045    0.00101672
     atom   44 type  4   force =     0.00015765   -0.00042728    0.00507663
     atom   45 type  4   force =    -0.00023302   -0.00008268    0.14209295
     atom   46 type  4   force =    -0.00019882   -0.00645269   -0.15860595
     atom   47 type  4   force =     0.00011124   -0.00008680    0.00001329
     atom   48 type  4   force =    -0.00014861    0.00016105    0.00000339
     atom   49 type  4   force =    -0.00013975    0.00017174   -0.00053086
     atom   50 type  4   force =    -0.00004247   -0.00012074    0.00033016
     atom   51 type  4   force =     0.00012529    0.00014999    0.00130887
     atom   52 type  4   force =     0.00009050    0.00017682    0.00630146
     atom   53 type  5   force =     0.00024261   -0.00003239   -0.00041623
     atom   54 type  5   force =    -0.00000984    0.00012086    0.00049449
     atom   55 type  3   force =     0.00003604    0.00032010   -0.00091283
     atom   56 type  2   force =     0.00019328   -0.00043637    0.00033001

     Total force =     0.385129     Total SCF correction =     0.000780
  @ DRIVER MODE: Message from server: STATUS
  @ DRIVER MODE: Message from server: GETFORCE
  @ DRIVER MODE: Returning v,forces,stress,ensemble

     Writing output data file ./calc.save/
  @ DRIVER MODE: Message from server: EXIT
  @ DRIVE MODE: Exiting

     General routines

     Parallel routines

   This run was terminated on:   7:29:17  26Sep2021

   JOB DONE.