     Program PWSCF v.6.7GPU starts on 18Oct2021 at 21:38: 7

     R & G space division:  proc/nbgrp/npool/nimage =       8
     Reading input from /storage/home/hcoda1/3/ntian30/research/carbon/CxH_vib/Thiel_calc/ads_slab/HNNH_perslab/out_0019/pw.inp
Warning: card &CELL ignored
Warning: card   CELL_DYNAMICS='IPI', ignored
Warning: card / ignored

     Current dimensions of program PWSCF are:
     Max number of different atomic species (ntypx) = 10
     Max number of k-points (npk) =  40000
     Max angular momentum in pseudopotentials (lmaxx) =  3
     Presently no symmetry can be used with electric field

     Message from routine cell_base_init:
     DEPRECATED: use true lattice parameter, not A to a.u. conversion factor

     IMPORTANT: XC functional enforced from input :
     Exchange-correlation= BEEF-VDW
                           (   1   4  43  14   2   0   0)
     Any further DFT definition will be discarded
     Please, verify this is what you really want

  @ DRIVER MODE: Connecting to
 qe_1139763_3255131.sched-torque.pace.gatech.edutwwqkrms_scratch
  using UNIX socket
  @ DRIVER MODE: Message from server: STATUS
  @ DRIVER MODE: Message from server: INIT
  @ DRIVER MODE: Receiving replica           0          -1
  @ DRIVER MODE: Receiving encoded integer          25
  @ DRIVER MODE:  SCF:  T  FORCE:  T  STRESS:  F  VC:  F  ENSEMBLE:  F
  @ DRIVER MODE:  SCF:  T  FORCE:  T  STRESS:  F  VC:  F  ENSEMBLE:  F

     Using Slab Decomposition

     bravais-lattice index     =            0
     lattice parameter (alat)  =       1.8897  a.u.
     unit-cell volume          =    9988.4706 (a.u.)^3
     number of atoms/cell      =           57
     number of atomic types    =            4
     number of electrons       =       438.00
     number of Kohn-Sham states=          229
     kinetic-energy cutoff     =      29.3995  Ry
     charge density cutoff     =     293.9946  Ry
     scf convergence threshold =      7.3E-08
     mixing beta               =       0.0500
     number of iterations used =            8  plain     mixing
     Exchange-correlation= BEEF-VDW
                           (   1   4  43  14   2   0   0)

     celldm(1)=   1.889726  celldm(2)=   0.000000  celldm(3)=   0.000000
     celldm(4)=   0.000000  celldm(5)=   0.000000  celldm(6)=   0.000000

     crystal axes: (cart. coord. in units of alat)
               a(1) = (   6.579727   0.000000   0.000000 )
               a(2) = (  -0.001163   8.942395   0.000000 )
               a(3) = (   0.000000   0.000000  25.155947 )

     reciprocal axes: (cart. coord. in units 2 pi/alat)
               b(1) = (  0.151982  0.000020  0.000000 )
               b(2) = (  0.000000  0.111827  0.000000 )
               b(3) = (  0.000000  0.000000  0.039752 )

     PseudoPot. # 1 for O  read from file:
     /storage/coda1/p-amedford6/0/shared/rich_project_chbe-medford/medford-share/data/pseudos_module/espresso/nninc/pbe/van/O.UPF
     MD5 check sum: 78c19812648e8988a0fe644b0f25305e
     Pseudo is Ultrasoft, Zval =  6.0
     Generated by new atomic code, or converted to UPF format
     Using radial grid of  737 points,  4 beta functions with:
                l(1) =   0
                l(2) =   0
                l(3) =   1
                l(4) =   1
     Q(r) pseudized with  8 coefficients,  rinner =    0.800   0.800   0.800

     PseudoPot. # 2 for Ti read from file:
     /storage/coda1/p-amedford6/0/shared/rich_project_chbe-medford/medford-share/data/pseudos_module/espresso/nninc/pbe/van/Ti.UPF
     MD5 check sum: 8e4df49b7f0d34bbd5052bf3f5ea0213
     Pseudo is Ultrasoft, Zval = 12.0
     Generated by new atomic code, or converted to UPF format
     Using radial grid of  851 points,  6 beta functions with:
                l(1) =   0
                l(2) =   0
                l(3) =   1
                l(4) =   1
                l(5) =   2
                l(6) =   2
     Q(r) pseudized with  8 coefficients,  rinner =    1.000   1.000   1.000
                                                       1.000   1.000

     PseudoPot. # 3 for H  read from file:
     /storage/coda1/p-amedford6/0/shared/rich_project_chbe-medford/medford-share/data/pseudos_module/espresso/nninc/pbe/van/H.UPF
     MD5 check sum: b5ee9d7bfd3a09ee7748110bda690ff7
     Pseudo is Ultrasoft, Zval =  1.0
     Generated by new atomic code, or converted to UPF format
     Using radial grid of  615 points,  1 beta functions with:
                l(1) =   0
     Q(r) pseudized with  8 coefficients,  rinner =    0.800

     PseudoPot. # 4 for N  read from file:
     /storage/coda1/p-amedford6/0/shared/rich_project_chbe-medford/medford-share/data/pseudos_module/espresso/nninc/pbe/van/N.UPF
     MD5 check sum: 90d10febe142ad51ac9d5be1deb811c4
     Pseudo is Ultrasoft, Zval =  5.0
     Generated by new atomic code, or converted to UPF format
     Using radial grid of  729 points,  4 beta functions with:
                l(1) =   0
                l(2) =   0
                l(3) =   1
                l(4) =   1
     Q(r) pseudized with  8 coefficients,  rinner =    0.800   0.800   0.800

     atomic species   valence    mass     pseudopotential
        O1             6.00    15.99900     O ( 1.00)
        Ti1           12.00    47.86700     Ti( 1.00)
        H1             1.00     1.00800     H ( 1.00)
        N1             5.00    14.00700     N ( 1.00)

     No symmetry found

   Cartesian axes

     site n.     atom                  positions (alat units)
         1           O1  tau(   1) = (   0.0007354   0.0005023  10.5931620  )
         2           O1  tau(   2) = (   3.2896598   8.9340738  13.9086047  )
         3           O1  tau(   3) = (   6.5779785   8.9335072  17.2267929  )
         4           O1  tau(   4) = (   0.0006271   0.0005054   7.9858123  )
         5           O1  tau(   5) = (   3.2892818   8.9168625  11.1887994  )
         6           O1  tau(   6) = (   0.0000953   0.0200859  14.6187425  )
         7           O1  tau(   7) = (   1.9868534   1.4903216   9.2879459  )
         8           O1  tau(   8) = (   5.2299496   1.5903429  12.5639559  )
         9           O1  tau(   9) = (   2.0057315   1.6103507  16.0678580  )
        10           Ti1 tau(  10) = (   0.0007404   1.4906270   9.2895810  )
        11           Ti1 tau(  11) = (   3.2903845   1.3415648  12.5012035  )
        12           Ti1 tau(  12) = (   0.0001950   1.2451541  15.9845895  )
        13           O1  tau(  13) = (   4.5942328   1.4918067   9.2879030  )
        14           O1  tau(  14) = (   1.3504490   1.5899334  12.5641350  )
        15           O1  tau(  15) = (   4.5723762   1.6092463  16.0679920  )
        16           Ti1 tau(  16) = (   3.2902859   2.9801868   9.2893338  )
        17           Ti1 tau(  17) = (  -0.0000381   2.8017340  12.4757424  )
        18           Ti1 tau(  18) = (   3.2890522   2.9119407  15.7046117  )
        19           O1  tau(  19) = (   0.0003479   2.9813005  10.5931620  )
        20           O1  tau(  20) = (   3.2896940   2.9634103  13.8950687  )
        21           O1  tau(  21) = (   0.0002396   2.9813036   7.9858123  )
        22           O1  tau(  22) = (   3.2899864   2.9652420  11.1892519  )
        23           O1  tau(  23) = (  -0.0000843   3.0239999  14.5506518  )
        24           O1  tau(  24) = (   1.9864658   4.4711199   9.2879459  )
        25           O1  tau(  25) = (   5.2265999   4.6000300  12.5825491  )
        26           O1  tau(  26) = (   2.0173024   4.5375175  16.0298170  )
        27           Ti1 tau(  27) = (   0.0003529   4.4714252   9.2895810  )
        28           Ti1 tau(  28) = (   3.2900658   4.3228872  12.5050252  )
        29           Ti1 tau(  29) = (   0.0015352   4.3959346  15.6897578  )
        30           O1  tau(  30) = (   4.5938453   4.4726049   9.2879030  )
        31           O1  tau(  31) = (   1.3532953   4.6000771  12.5829012  )
        32           O1  tau(  32) = (   4.5620845   4.5358613  16.0300787  )
        33           Ti1 tau(  33) = (   3.2898983   5.9609850   9.2893338  )
        34           Ti1 tau(  34) = (  -0.0003676   5.8120669  12.4544080  )
        35           Ti1 tau(  35) = (   3.2921900   5.8807914  15.7090278  )
        36           O1  tau(  36) = (  -0.0000397   5.9620987  10.5931620  )
        37           O1  tau(  37) = (   3.2903388   5.9631658  13.9136923  )
        38           O1  tau(  38) = (  -0.0000761   5.9602876  17.3216368  )
        39           O1  tau(  39) = (  -0.0001480   5.9621018   7.9858123  )
        40           O1  tau(  40) = (   3.2896813   5.9437884  11.1873515  )
        41           O1  tau(  41) = (  -0.0004454   6.0514558  14.6911356  )
        42           O1  tau(  42) = (   1.9860782   7.4519181   9.2879459  )
        43           O1  tau(  43) = (   5.2331690   7.5528723  12.5749626  )
        44           O1  tau(  44) = (   2.0197658   7.5481525  16.0489791  )
        45           Ti1 tau(  45) = (  -0.0000347   7.4522234   9.2895810  )
        46           Ti1 tau(  46) = (   3.2899396   7.3045924  12.4973202  )
        47           Ti1 tau(  47) = (   0.0022254   7.3576980  16.0878887  )
        48           O1  tau(  48) = (   4.5934577   7.4534031   9.2879030  )
        49           O1  tau(  49) = (   1.3462119   7.5526743  12.5754142  )
        50           O1  tau(  50) = (   4.5579802   7.5455642  16.0489991  )
        51           Ti1 tau(  51) = (   3.2895107   8.9417832   9.2893338  )
        52           Ti1 tau(  52) = (  -0.0004108   8.7719052  12.5005688  )
        53           Ti1 tau(  53) = (   3.2909707   8.8596889  15.7095313  )
        54           H1  tau(  54) = (   6.5770345   5.6246256  18.2315160  )
        55           N1  tau(  55) = (   6.5773047   3.3138987  18.5316601  )
        56           N1  tau(  56) = (   6.5788436   3.1068121  17.3210979  )
        57           H1  tau(  57) = (   6.5667427   2.4184016  19.0716447  )

     number of k points=    10  Fermi-Dirac smearing, width (Ry)=  0.0073
                       cart. coord. in units 2pi/alat
        k(    1) = (   0.0000000   0.0000000   0.0000000), wk =   0.1250000
        k(    2) = (   0.0000000   0.0279567   0.0000000), wk =   0.2500000
        k(    3) = (   0.0000000  -0.0559134   0.0000000), wk =   0.1250000
        k(    4) = (   0.0379955   0.0000049   0.0000000), wk =   0.2500000
        k(    5) = (   0.0379955   0.0279617   0.0000000), wk =   0.2500000
        k(    6) = (   0.0379955  -0.0559085   0.0000000), wk =   0.2500000
        k(    7) = (   0.0379955  -0.0279518   0.0000000), wk =   0.2500000
        k(    8) = (  -0.0759910  -0.0000099   0.0000000), wk =   0.1250000
        k(    9) = (  -0.0759910   0.0279468   0.0000000), wk =   0.2500000
        k(   10) = (  -0.0759910  -0.0559233   0.0000000), wk =   0.1250000

     Initial potential from superposition of free atoms

     starting charge  419.99912, renormalised to  438.00000

     negative rho (up, down):  3.865E-02 0.000E+00

     %%%%%%%%%%%%%%%%%%%%%%%%%%%%%%%%%%%%%%%%%%%%%%%%%%%%%%%%%%%%%%%%%%%%%%%%
     %                                                                      %
     % You are using vdW-DF, which was implemented by the Thonhauser group. %
     % Please cite the following two papers that made this development      %
     % possible and the two reviews that describe the various versions:     %
     %                                                                      %
     %   T. Thonhauser et al., PRL 115, 136402 (2015).                      %
     %   T. Thonhauser et al., PRB 76, 125112 (2007).                       %
     %   K. Berland et al., Rep. Prog. Phys. 78, 066501 (2015).             %
     %   D.C. Langreth et al., J. Phys.: Condens. Matter 21, 084203 (2009). %
     %                                                                      %
     %                                                                      %
     % If you are calculating the stress with vdW-DF, please also cite:     %
     %                                                                      %
     %   R. Sabatini et al., J. Phys.: Condens. Matter 24, 424209 (2012).   %
     %                                                                      %
     %%%%%%%%%%%%%%%%%%%%%%%%%%%%%%%%%%%%%%%%%%%%%%%%%%%%%%%%%%%%%%%%%%%%%%%%

     Adding external electric field

     Computed dipole along edir(3) :
        Dipole               -4.5407 Ry au,        -11.5413 Debye
        Dipole field         -0.0057 Ry au,

        Potential amp.        0.5296 Ry
        Total length         46.3494 bohr

     Starting wfcs are  330 atomic wfcs
  @ DRIVER MODE: Message from server: STATUS
  @ DRIVER MODE: Message from server: POSDATA
  @ DRIVER MODE: Reading and sharing cell
  @ DRIVER MODE: Reading and sharing positions
  @ DRIVER MODE: Received positions

     Self-consistent Calculation

     iteration #  1     ecut=    29.40 Ry     beta= 0.05
     Davidson diagonalization with overlap
     c_bands:  3 eigenvalues not converged
     c_bands:  2 eigenvalues not converged
     c_bands:  3 eigenvalues not converged
     c_bands:  5 eigenvalues not converged
     c_bands:  5 eigenvalues not converged
     c_bands:  1 eigenvalues not converged
     c_bands:  2 eigenvalues not converged
     ethr =  1.00E-05,  avg # of iterations = 24.8

[...]

     total energy              =   -3289.18161347 Ry
     estimated scf accuracy    <      57.49066085 Ry

     iteration #  2     ecut=    29.40 Ry     beta= 0.05
     Davidson diagonalization with overlap
     ethr =  1.00E-02,  avg # of iterations =  5.5

[...]

     iteration # 71     ecut=    29.40 Ry     beta= 0.05
     Davidson diagonalization with overlap
     c_bands:  1 eigenvalues not converged
     ethr =  2.93E-11,  avg # of iterations = 14.7

[...]

     total energy              =   -3290.76669899 Ry
     estimated scf accuracy    <       0.00000051 Ry

     iteration # 72     ecut=    29.40 Ry     beta= 0.05
     Davidson diagonalization with overlap
     ethr =  2.93E-11,  avg # of iterations = 10.9

     negative rho (up, down):  3.654E-02 0.000E+00

     Adding external electric field

     Computed dipole along edir(3) :
        Dipole                1.2084 Ry au,          3.0713 Debye
        Dipole field          0.0015 Ry au,

        Potential amp.       -0.1409 Ry
        Total length         46.3494 bohr

     End of self-consistent calculation

          k = 0.0000 0.0000 0.0000 ( 26871 PWs)   bands (ev):

   -57.9816 -57.9777 -57.9743 -57.9570 -57.9545 -57.9171 -57.8546 -57.8134
   -57.7895 -57.7802 -57.7098 -57.6878 -57.6553 -57.3921 -57.3671 -56.9217
   -56.8985 -56.8842 -34.3755 -34.3690 -34.3674 -34.3563 -34.3536 -34.3206
   -34.3104 -34.3023 -34.3006 -34.2936 -34.2540 -34.2487 -34.1930 -34.1878
   -34.1785 -34.1781 -34.1650 -34.1557 -34.1509 -34.1478 -34.1273 -34.1067
   -34.0976 -34.0790 -34.0771 -34.0721 -34.0671 -34.0410 -34.0214 -33.9742
   -33.9734 -33.9631 -33.9460 -33.9385 -33.9345 -33.9297 -33.9022 -33.8780
   -33.8678 -33.8241 -33.6895 -33.6724 -33.6332 -33.6075 -33.5796 -33.2436
   -33.2360 -33.2269 -33.2206 -33.2142 -33.1431 -33.0841 -33.0684 -32.9409
   -20.7914 -19.3907 -18.8140 -18.4152 -18.2278 -18.2115 -18.2026 -18.1454
   -18.0691 -18.0655 -17.8849 -17.7946 -17.7722 -17.7457 -17.7275 -17.6949
   -17.6371 -17.6177 -17.5970 -17.5871 -17.5669 -17.5615 -17.4830 -17.4187
   -17.3933 -17.3863 -17.3787 -17.3750 -17.3051 -17.2197 -17.1294 -17.0706
   -17.0368 -15.3860 -15.3326 -15.3273 -11.2611  -7.6592  -7.1706  -6.1365
    -5.9254  -5.8601  -5.7847  -5.4350  -5.4227  -5.4198  -5.3545  -5.3335
    -5.2970  -5.2841  -5.2341  -5.2141  -5.2136  -5.1853  -5.1103  -5.0872
    -5.0607  -4.9856  -4.9391  -4.9081  -4.8577  -4.8439  -4.7446  -4.7432
    -4.7197  -4.7177  -4.7053  -4.6862  -4.6370  -4.6290  -4.5351  -4.5173
    -4.4740  -4.3544  -4.3306  -4.2710  -4.2544  -4.2250  -4.1415  -4.0784
    -4.0673  -4.0488  -4.0146  -3.9824  -3.9475  -3.9143  -3.8643  -3.7846
    -3.7198  -3.6814  -3.5690  -3.5128  -3.4791  -3.4561  -3.3768  -3.3584
    -3.3181  -3.2462  -3.1987  -3.1579  -3.1226  -3.1201  -3.0849  -2.9875
    -2.9799  -2.9029  -2.8205  -2.7942  -2.7156  -2.7046  -2.6966  -2.6795
    -2.6600  -2.6319  -2.6033  -2.5736  -2.4954  -2.4794  -2.4558  -2.4025
    -2.2956  -2.2789  -2.2742  -2.2574  -2.2527  -2.1866  -2.0876  -1.9783
    -1.9781  -1.9699  -1.8266  -1.7999  -1.7468  -1.7433  -1.6950  -1.6243
    -1.5679  -1.1781  -0.9397  -0.6537  -0.6213  -0.6128  -0.3744  -0.3646
    -0.2464   0.0063   0.9957   1.2649   1.3450   1.4319   1.4819   1.4876
     1.6132   1.6360   1.6690   1.7117   1.7636

[...]

          k = 0.0380-0.0280 0.0000 ( 26873 PWs)   bands (ev):

[...]

          k =-0.0760-0.0000 0.0000 ( 26902 PWs)   bands (ev):

[...]

          k =-0.0760-0.0559 0.0000 ( 26868 PWs)   bands (ev):

   -57.9760 -57.9755 -57.9742 -57.9716 -57.9472 -57.9178 -57.8542 -57.8091
   -57.7979 -57.7757 -57.7077 -57.6912 -57.6542 -57.3923 -57.3669 -56.9178
   -56.9057 -56.8809 -34.4480 -34.4352 -34.3805 -34.3689 -34.3352 -34.3140
   -34.3105 -34.2994 -34.2719 -34.2640 -34.2259 -34.2044 -34.2041 -34.1663
   -34.1659 -34.1649 -34.1626 -34.1442 -34.1237 -34.1215 -34.1169 -34.1068
   -34.1065 -34.0676 -34.0643 -34.0547 -34.0345 -34.0293 -34.0067 -34.0007
   -33.9949 -33.9945 -33.9813 -33.9780 -33.9505 -33.9339 -33.9293 -33.8781
   -33.8609 -33.7792 -33.7308 -33.6755 -33.6346 -33.6095 -33.5808 -33.3201
   -33.2454 -33.2339 -33.2107 -33.1286 -33.1138 -33.0555 -33.0439 -33.0303
   -20.7903 -19.3849 -18.5063 -18.4936 -18.1805 -18.1113 -18.0774 -18.0466
   -18.0063 -17.9707 -17.9410 -17.9287 -17.8998 -17.8058 -17.7960 -17.7249
   -17.7006 -17.6777 -17.6645 -17.6363 -17.6015 -17.5975 -17.5839 -17.4761
   -17.4651 -17.3819 -17.3632 -17.3204 -17.2635 -17.2188 -17.1180 -17.1051
   -17.0048 -15.3885 -15.3808 -15.2670 -11.2586  -7.6421  -7.1529  -5.7653
    -5.7594  -5.7245  -5.6998  -5.6403  -5.3716  -5.3445  -5.2176  -5.2135
    -5.2061  -5.1730  -5.1520  -5.1114  -5.0954  -5.0837  -5.0711  -5.0661
    -5.0007  -4.9984  -4.9456  -4.9151  -4.8680  -4.8616  -4.8526  -4.7964
    -4.7715  -4.7344  -4.7291  -4.6935  -4.5742  -4.5535  -4.5292  -4.4885
    -4.4523  -4.4341  -4.3512  -4.2953  -4.2270  -4.1136  -4.0904  -4.0854
    -4.0304  -3.9880  -3.9279  -3.8782  -3.7237  -3.6883  -3.6626  -3.5967
    -3.5684  -3.5544  -3.5387  -3.5174  -3.5034  -3.4512  -3.4454  -3.3913
    -3.3553  -3.3273  -3.3075  -3.2152  -3.1649  -3.1317  -3.0925  -3.0741
    -3.0634  -3.0520  -3.0251  -3.0187  -3.0168  -2.9517  -2.9418  -2.9008
    -2.8558  -2.7684  -2.7384  -2.6994  -2.6415  -2.5367  -2.5181  -2.4673
    -2.4526  -2.3957  -2.2119  -2.1983  -2.1813  -2.1380  -2.0908  -2.0520
    -2.0432  -2.0228  -1.9750  -1.8660  -1.7320  -1.7128  -1.5517  -1.4834
    -1.4762  -1.4554  -1.2541  -0.8372  -0.5528  -0.5247  -0.5195  -0.3778
    -0.3745   0.0085   1.1561   1.1805   1.2472   1.3189   1.3546   1.3628
     1.3832   1.4859   1.4893   1.5915   1.6563

     the Fermi energy is     1.0949 ev

!    total energy              =   -3290.76671172 Ry
     estimated scf accuracy    <       0.00000006 Ry
     smearing contrib. (-TS)   =      -0.03255486 Ry
     internal energy E=F+TS    =   -3290.73415686 Ry

     The total energy is F=E-TS. E is the sum of the following terms:
     one-electron contribution =  -34499.06555583 Ry
     hartree contribution      =   17310.89541163 Ry
     xc contribution           =    -540.51314759 Ry
     ewald contribution        =   14437.94729798 Ry
     electric field correction =       0.00183695 Ry

     convergence has been achieved in  72 iterations

     Forces acting on atoms (cartesian axes, Ry/au):

     atom    1 type  1   force =    -0.00000231    0.00296206    0.06150646
     atom    2 type  1   force =     0.00005574    0.00057518   -0.00870038
     atom    3 type  1   force =    -0.00000327   -0.00450405    0.00120633
     atom    4 type  1   force =     0.00004911   -0.00105981    0.10514558
     atom    5 type  1   force =     0.00004952   -0.00001454    0.01001256
     atom    6 type  1   force =    -0.00005576   -0.00425923    0.00691651
     atom    7 type  1   force =     0.07080659   -0.00018132   -0.02970542
     atom    8 type  1   force =     0.00422616   -0.02881328    0.00203328
     atom    9 type  1   force =     0.00633981   -0.02305328    0.00270755
     atom   10 type  2   force =    -0.00005538   -0.00530057   -0.17418478
     atom   11 type  2   force =    -0.00024988    0.02022486   -0.00523948
     atom   12 type  2   force =    -0.00014051    0.02583352   -0.00809527
     atom   13 type  1   force =    -0.07089988   -0.00063077   -0.02964554
     atom   14 type  1   force =    -0.00451931   -0.02851858    0.00200820
     atom   15 type  1   force =    -0.00637460   -0.02315778    0.00261984
     atom   16 type  2   force =     0.00010703   -0.00200948    0.06351833
     atom   17 type  2   force =     0.00047406    0.03497193    0.00375673
     atom   18 type  2   force =    -0.00006666    0.01823247   -0.00077406
     atom   19 type  1   force =    -0.00001201    0.00864907    0.05615071
     atom   20 type  1   force =     0.00004349    0.00030034   -0.00812574
     atom   21 type  1   force =     0.00004779    0.00236642    0.10553501
     atom   22 type  1   force =     0.00004580   -0.00046641    0.00965100
     atom   23 type  1   force =     0.00001845   -0.00191804    0.00322650
     atom   24 type  1   force =     0.06933326   -0.00028931   -0.02956229
     atom   25 type  1   force =     0.00471103   -0.02809803    0.00245481
     atom   26 type  1   force =     0.00628364   -0.01512567   -0.00037192
     atom   27 type  2   force =    -0.00005593   -0.00798244   -0.18330600
     atom   28 type  2   force =    -0.00026724    0.02039246   -0.00598788
     atom   29 type  2   force =     0.00005348    0.02371721    0.00534442
     atom   30 type  1   force =    -0.06942747   -0.00074553   -0.02950704
     atom   31 type  1   force =    -0.00498183   -0.02780240    0.00242049
     atom   32 type  1   force =    -0.00584097   -0.01507224   -0.00025239
     atom   33 type  2   force =     0.00007756   -0.00101726    0.06382053
     atom   34 type  2   force =     0.00047646    0.03462320    0.00493762
     atom   35 type  2   force =    -0.00019523    0.02155494    0.00153527
     atom   36 type  1   force =    -0.00001224    0.00377000    0.05851901
     atom   37 type  1   force =     0.00005108   -0.00064591   -0.00666621
     atom   38 type  1   force =    -0.00001655   -0.00145397    0.00011732
     atom   39 type  1   force =     0.00005549   -0.00051224    0.10664004
     atom   40 type  1   force =     0.00004809   -0.00051211    0.00896862
     atom   41 type  1   force =     0.00001025   -0.00416054   -0.00099939
     atom   42 type  1   force =     0.06973363   -0.00119995   -0.03000642
     atom   43 type  1   force =     0.00450108   -0.02930157    0.00149723
     atom   44 type  1   force =     0.00986808   -0.02502052    0.00503627
     atom   45 type  2   force =    -0.00006339    0.00911574   -0.17965626
     atom   46 type  2   force =    -0.00024857    0.02120153   -0.00515827
     atom   47 type  2   force =    -0.00010979    0.02451165   -0.00976005
     atom   48 type  1   force =    -0.06983160   -0.00165123   -0.02995595
     atom   49 type  1   force =    -0.00478405   -0.02899352    0.00147201
     atom   50 type  1   force =    -0.00961710   -0.02491175    0.00506402
     atom   51 type  2   force =     0.00011253   -0.00179377    0.06381103
     atom   52 type  2   force =     0.00047229    0.03633990    0.00328198
     atom   53 type  2   force =    -0.00013820    0.03621960    0.00379704
     atom   54 type  3   force =     0.00002433   -0.00101601   -0.00093811
     atom   55 type  4   force =    -0.00072274    0.00264251    0.00020695
     atom   56 type  4   force =     0.00005103   -0.00577823    0.00154498
     atom   57 type  3   force =     0.00056561   -0.00123326    0.00013461

     Total force =     0.453320     Total SCF correction =     0.000640
  @ DRIVER MODE: Message from server: STATUS
  @ DRIVER MODE: Message from server: GETFORCE
  @ DRIVER MODE: Returning v,forces,stress,ensemble

     Writing output data file ./calc.save/
  @ DRIVER MODE: Message from server: EXIT
  @ DRIVE MODE: Exiting

     General routines

     Parallel routines

   This run was terminated on:  22:16: 6  18Oct2021

   JOB DONE.