     Program PWSCF v.6.7GPU starts on 16Jul2021 at  6:51:11

     R & G space division:  proc/nbgrp/npool/nimage =      16
     Reading input from /storage/home/hcoda1/3/ntian30/research/carbon/15Jul_vib/ads_slab/CH3NNH3_a/out_0027/pw.inp
Warning: card &CELL ignored
Warning: card   CELL_DYNAMICS='IPI', ignored
Warning: card / ignored

     Current dimensions of program PWSCF are:
     Max number of different atomic species (ntypx) = 10
     Max number of k-points (npk) =  40000
     Max angular momentum in pseudopotentials (lmaxx) =  3
     Presently no symmetry can be used with electric field

     Message from routine cell_base_init:
     DEPRECATED: use true lattice parameter, not A to a.u. conversion factor

     IMPORTANT: XC functional enforced from input :
     Exchange-correlation= BEEF-VDW
                           (   1   4  43  14   2   0   0)
     Any further DFT definition will be discarded
     Please, verify this is what you really want

  @ DRIVER MODE: Connecting to
 qe_1139763_2351650.sched-torque.pace.gatech.edufdsh3viz_scratch
  using UNIX socket
  @ DRIVER MODE: Message from server: STATUS
  @ DRIVER MODE: Message from server: INIT
  @ DRIVER MODE: Receiving replica           0          -1
  @ DRIVER MODE: Receiving encoded integer          25
  @ DRIVER MODE:  SCF:  T  FORCE:  T  STRESS:  F  VC:  F  ENSEMBLE:  F
  @ DRIVER MODE:  SCF:  T  FORCE:  T  STRESS:  F  VC:  F  ENSEMBLE:  F

     Using Slab Decomposition

     bravais-lattice index     =            0
     lattice parameter (alat)  =       1.8897  a.u.
     unit-cell volume          =    6658.9804 (a.u.)^3
     number of atoms/cell      =           56
     number of atomic types    =            5
     number of electrons       =       398.00
     number of Kohn-Sham states=          209
     kinetic-energy cutoff     =      29.3995  Ry
     charge density cutoff     =     293.9946  Ry
     scf convergence threshold =      7.3E-08
     mixing beta               =       0.0500
     number of iterations used =            8  plain     mixing
     Exchange-correlation= BEEF-VDW
                           (   1   4  43  14   2   0   0)

     celldm(1)=   1.889726  celldm(2)=   0.000000  celldm(3)=   0.000000
     celldm(4)=   0.000000  celldm(5)=   0.000000  celldm(6)=   0.000000

     crystal axes: (cart. coord. in units of alat)
               a(1) = (   6.579727   0.000000   0.000000 )
               a(2) = (  -0.000775   5.961596   0.000000 )
               a(3) = (   0.000000   0.000000  25.155947 )

     reciprocal axes: (cart. coord. in units 2 pi/alat)
               b(1) = (  0.151982  0.000020  0.000000 )
               b(2) = (  0.000000  0.167740  0.000000 )
               b(3) = (  0.000000  0.000000  0.039752 )

     PseudoPot. # 1 for Ti read from file:
     /storage/coda1/p-amedford6/0/shared/rich_project_chbe-medford/medford-share/data/pseudos_module/espresso/nninc/pbe/van/Ti.UPF
     MD5 check sum: 8e4df49b7f0d34bbd5052bf3f5ea0213
     Pseudo is Ultrasoft, Zval = 12.0
     Generated by new atomic code, or converted to UPF format
     Using radial grid of  851 points,  6 beta functions with:
                l(1) =   0
                l(2) =   0
                l(3) =   1
                l(4) =   1
                l(5) =   2
                l(6) =   2
     Q(r) pseudized with  8 coefficients,  rinner =    1.000   1.000   1.000
                                                       1.000   1.000

     PseudoPot. # 2 for O  read from file:
     /storage/coda1/p-amedford6/0/shared/rich_project_chbe-medford/medford-share/data/pseudos_module/espresso/nninc/pbe/van/O.UPF
     MD5 check sum: 78c19812648e8988a0fe644b0f25305e
     Pseudo is Ultrasoft, Zval =  6.0
     Generated by new atomic code, or converted to UPF format
     Using radial grid of  737 points,  4 beta functions with:
                l(1) =   0
                l(2) =   0
                l(3) =   1
                l(4) =   1
     Q(r) pseudized with  8 coefficients,  rinner =    0.800   0.800   0.800

     PseudoPot. # 3 for N  read from file:
     /storage/coda1/p-amedford6/0/shared/rich_project_chbe-medford/medford-share/data/pseudos_module/espresso/nninc/pbe/van/N.UPF
     MD5 check sum: 90d10febe142ad51ac9d5be1deb811c4
     Pseudo is Ultrasoft, Zval =  5.0
     Generated by new atomic code, or converted to UPF format
     Using radial grid of  729 points,  4 beta functions with:
                l(1) =   0
                l(2) =   0
                l(3) =   1
                l(4) =   1
     Q(r) pseudized with  8 coefficients,  rinner =    0.800   0.800   0.800

     PseudoPot. # 4 for C  read from file:
     /storage/coda1/p-amedford6/0/shared/rich_project_chbe-medford/medford-share/data/pseudos_module/espresso/nninc/pbe/van/C.UPF
     MD5 check sum: 1a69bf6b8db32088f5b2163dbdb77a27
     Pseudo is Ultrasoft, Zval =  4.0
     Generated by new atomic code, or converted to UPF format
     Using radial grid of  721 points,  4 beta functions with:
                l(1) =   0
                l(2) =   0
                l(3) =   1
                l(4) =   1
     Q(r) pseudized with  8 coefficients,  rinner =    0.800   0.800   0.800

     PseudoPot. # 5 for H  read from file:
     /storage/coda1/p-amedford6/0/shared/rich_project_chbe-medford/medford-share/data/pseudos_module/espresso/nninc/pbe/van/H.UPF
     MD5 check sum: b5ee9d7bfd3a09ee7748110bda690ff7
     Pseudo is Ultrasoft, Zval =  1.0
     Generated by new atomic code, or converted to UPF format
     Using radial grid of  615 points,  1 beta functions with:
                l(1) =   0
     Q(r) pseudized with  8 coefficients,  rinner =    0.800

     atomic species   valence    mass     pseudopotential
        Ti1           12.00    47.86700     Ti( 1.00)
        O1             6.00    15.99900     O ( 1.00)
        N1             5.00    14.00700     N ( 1.00)
        C1             4.00    12.01100     C ( 1.00)
        H1             1.00     1.00800     H ( 1.00)

     Starting magnetic structure
     atomic species   magnetization
        Ti1          0.000
        O1           0.000
        N1           0.000
        C1           0.025
        H1           0.000

     No symmetry found

   Cartesian axes

     site n.     atom                  positions (alat units)
         1           Ti1 tau(   1) = (   0.0004258   2.9801865   6.0000000  )
         2           Ti1 tau(   2) = (   3.2906075   1.4906267   6.0002472  )
         3           O1  tau(   3) = (   0.0006271   0.0005054   7.9858123  )
         4           O1  tau(   4) = (   3.2906025   0.0005020   7.3038282  )
         5           O1  tau(   5) = (   4.5942328   1.4918067   9.2879030  )
         6           O1  tau(   6) = (   1.9868534   1.4903216   9.2879459  )
         7           Ti1 tau(   7) = (   3.2907910   2.8959150   9.1758416  )
         8           Ti1 tau(   8) = (   0.0015273   1.4827037   9.2680791  )
         9           O1  tau(   9) = (   3.3019049   5.9598586  11.2958584  )
        10           O1  tau(  10) = (   0.0116148   5.9584955  10.6183126  )
        11           O1  tau(  11) = (   1.3346742   1.4914638  12.6145280  )
        12           O1  tau(  12) = (   5.3113054   1.4894223  12.6320738  )
        13           Ti1 tau(  13) = (   6.4919192   2.9607050  12.7581921  )
        14           Ti1 tau(  14) = (   3.1808934   1.4809541  12.4628303  )
        15           O1  tau(  15) = (   0.0259758   5.9327586  14.5948705  )
        16           O1  tau(  16) = (   3.3179433   0.0111293  13.8771559  )
        17           O1  tau(  17) = (   4.5450242   1.5254396  16.0425357  )
        18           O1  tau(  18) = (   2.0945915   1.5254857  16.0466093  )
        19           Ti1 tau(  19) = (   3.3175380   3.0118254  15.6854273  )
        20           Ti1 tau(  20) = (   0.0287691   1.6153805  16.0968480  )
        21           O1  tau(  21) = (   3.2904802   0.0005063   4.7018136  )
        22           O1  tau(  22) = (   0.0272082   0.0527987  17.2096484  )
        23           O1  tau(  23) = (   1.3043587   1.4918075   6.0039043  )
        24           O1  tau(  24) = (   5.2767064   1.4903225   6.0039473  )
        25           Ti1 tau(  25) = (   0.0000382   5.9609847   6.0000000  )
        26           Ti1 tau(  26) = (   3.2902200   4.4714249   6.0002472  )
        27           O1  tau(  27) = (   0.0002396   2.9813036   7.9858123  )
        28           O1  tau(  28) = (   3.2902150   2.9813002   7.3038282  )
        29           O1  tau(  29) = (   4.5938453   4.4726049   9.2879030  )
        30           O1  tau(  30) = (   1.9864658   4.4711199   9.2879459  )
        31           Ti1 tau(  31) = (   3.2891106   5.8743827   9.1763621  )
        32           Ti1 tau(  32) = (   0.0006254   4.4649316   9.2693709  )
        33           O1  tau(  33) = (   3.3007599   2.9794320  11.2948048  )
        34           O1  tau(  34) = (   0.0092240   2.9805883  10.6323155  )
        35           O1  tau(  35) = (   1.3367187   4.4652043  12.6121808  )
        36           O1  tau(  36) = (   5.3110114   4.4536366  12.6300246  )
        37           Ti1 tau(  37) = (   6.5175235   5.9394146  12.7678677  )
        38           Ti1 tau(  38) = (   3.1810223   4.4618757  12.4682998  )
        39           O1  tau(  39) = (   0.0141956   2.9656780  14.6533049  )
        40           O1  tau(  40) = (   3.3125561   2.9946134  13.8784269  )
        41           O1  tau(  41) = (   4.5469694   4.5079638  16.0550352  )
        42           O1  tau(  42) = (   2.0896055   4.5089645  16.0567747  )
        43           Ti1 tau(  43) = (   3.3249511   0.0336637  15.6879192  )
        44           Ti1 tau(  44) = (   0.0309337   4.5948497  16.1324869  )
        45           O1  tau(  45) = (   3.2900926   2.9813045   4.7018136  )
        46           O1  tau(  46) = (   1.3039711   4.4726057   6.0039043  )
        47           O1  tau(  47) = (   5.2763189   4.4711207   6.0039473  )
        48           N1  tau(  48) = (   0.0510883   3.0100077  17.3315927  )
        49           C1  tau(  49) = (   0.2149723   3.0659314  18.7643681  )
        50           H1  tau(  50) = (   6.1109748   3.7957518  19.2115106  )
        51           H1  tau(  51) = (   0.0391147   2.0919789  19.2277120  )
        52           H1  tau(  52) = (   1.2341903   3.3797193  19.0223879  )
        53           N1  tau(  53) = (   4.7717085   1.8344328  21.5424420  )
        54           H1  tau(  54) = (   4.4711387   2.7986659  21.4441960  )
        55           H1  tau(  55) = (   4.1840297   1.2822813  20.9257432  )
        56           H1  tau(  56) = (   4.5427024   1.5537098  22.4892962  )

     number of k points=    10  Fermi-Dirac smearing, width (Ry)=  0.0073
                       cart. coord. in units 2pi/alat
        k(    1) = (   0.0000000   0.0000000   0.0000000), wk =   0.0625000
        k(    2) = (   0.0000000   0.0419351   0.0000000), wk =   0.1250000
        k(    3) = (   0.0000000  -0.0838702   0.0000000), wk =   0.0625000
        k(    4) = (   0.0379955   0.0000049   0.0000000), wk =   0.1250000
        k(    5) = (   0.0379955   0.0419400   0.0000000), wk =   0.1250000
[...]
     % possible and the two reviews that describe the various versions:     %
     %                                                                      %
     %   T. Thonhauser et al., PRL 115, 136402 (2015).                      %
     %   T. Thonhauser et al., PRB 76, 125112 (2007).                       %
     %   K. Berland et al., Rep. Prog. Phys. 78, 066501 (2015).             %
     %   D.C. Langreth et al., J. Phys.: Condens. Matter 21, 084203 (2009). %
     %                                                                      %
     %                                                                      %
     % If you are calculating the stress with vdW-DF, please also cite:     %
     %                                                                      %
     %   R. Sabatini et al., J. Phys.: Condens. Matter 24, 424209 (2012).   %
     %                                                                      %
     %%%%%%%%%%%%%%%%%%%%%%%%%%%%%%%%%%%%%%%%%%%%%%%%%%%%%%%%%%%%%%%%%%%%%%%%

     Adding external electric field

     Computed dipole along edir(3) :
        Dipole              -11.2917 Ry au,        -28.7007 Debye
        Dipole field         -0.0213 Ry au,

        Potential amp.        1.9753 Ry
        Total length         46.3494 bohr

[...]

     Starting wfcs are  302 atomic wfcs
  @ DRIVER MODE: Message from server: STATUS
  @ DRIVER MODE: Message from server: POSDATA
  @ DRIVER MODE: Reading and sharing cell
  @ DRIVER MODE: Reading and sharing positions
  @ DRIVER MODE: Received positions

     Self-consistent Calculation

     iteration #  1     ecut=    29.40 Ry     beta= 0.05
     Davidson diagonalization with overlap
     c_bands:  1 eigenvalues not converged
     c_bands:  1 eigenvalues not converged
     c_bands:  2 eigenvalues not converged
     c_bands:  1 eigenvalues not converged
     c_bands:  1 eigenvalues not converged
     c_bands:  1 eigenvalues not converged
     c_bands:  2 eigenvalues not converged
     c_bands:  2 eigenvalues not converged
     c_bands:  1 eigenvalues not converged
     c_bands:  1 eigenvalues not converged
     c_bands:  2 eigenvalues not converged
     c_bands:  1 eigenvalues not converged
     c_bands:  1 eigenvalues not converged
     c_bands:  1 eigenvalues not converged
     c_bands:  2 eigenvalues not converged
     c_bands:  2 eigenvalues not converged
     ethr =  1.00E-05,  avg # of iterations = 19.6

[...]

     total energy              =   -2520.82276583 Ry
     estimated scf accuracy    <    4704.39574469 Ry

     total magnetization       =     0.00 Bohr mag/cell
     absolute magnetization    =     0.01 Bohr mag/cell

     iteration #  2     ecut=    29.40 Ry     beta= 0.05
     Davidson diagonalization with overlap
     ethr =  1.00E-02,  avg # of iterations = 21.9

[...]

     iteration # 39     ecut=    29.40 Ry     beta= 0.05
     Davidson diagonalization with overlap
     c_bands:  1 eigenvalues not converged
     c_bands:  1 eigenvalues not converged
     c_bands:  1 eigenvalues not converged
     c_bands:  1 eigenvalues not converged
     ethr =  5.97E-07,  avg # of iterations = 11.1

[...]

     total energy              =   -2942.90777542 Ry
     estimated scf accuracy    <       0.00000011 Ry

[...]

     iteration # 73     ecut=    29.40 Ry     beta= 0.05
     Davidson diagonalization with overlap
     ethr =  2.52E-11,  avg # of iterations =  4.3

     negative rho (up, down):  5.681E-03 5.681E-03

[...]

     Adding external electric field

     Computed dipole along edir(3) :
        Dipole                0.4181 Ry au,          1.0627 Debye
        Dipole field          0.0008 Ry au,

        Potential amp.       -0.0731 Ry
        Total length         46.3494 bohr

     Magnetic moment per site  (integrated on atomic sphere of radius R)
     atom   1 (R=0.735)  charge=  8.0053  magn=  0.0002
     atom   2 (R=0.735)  charge=  8.0011  magn=  0.0000
     atom   3 (R=0.735)  charge=  4.9958  magn=  0.0000
     atom   4 (R=0.735)  charge=  5.0345  magn=  0.0000
     atom   5 (R=0.735)  charge=  4.9982  magn= -0.0000
     atom   6 (R=0.735)  charge=  4.9994  magn= -0.0000
     atom   7 (R=0.735)  charge=  7.9947  magn=  0.0000
     atom   8 (R=0.735)  charge=  7.9823  magn=  0.0000
     atom   9 (R=0.735)  charge=  5.0128  magn= -0.0001
     atom  10 (R=0.735)  charge=  4.9434  magn= -0.0000
     atom  11 (R=0.735)  charge=  4.9999  magn= -0.0001
     atom  12 (R=0.735)  charge=  5.0036  magn= -0.0000
     atom  13 (R=0.735)  charge=  7.9932  magn=  0.0000
     atom  14 (R=0.735)  charge=  8.0007  magn=  0.0001
     atom  15 (R=0.735)  charge=  4.9894  magn= -0.0000
     atom  16 (R=0.735)  charge=  5.0146  magn= -0.0000
     atom  17 (R=0.735)  charge=  4.9901  magn=  0.0000
     atom  18 (R=0.735)  charge=  4.9888  magn=  0.0000
     atom  19 (R=0.735)  charge=  8.0209  magn=  0.0000
     atom  20 (R=0.735)  charge=  8.0242  magn=  0.0000
     atom  21 (R=0.735)  charge=  4.8827  magn=  0.0000
     atom  22 (R=0.735)  charge=  4.9720  magn=  0.0000
     atom  23 (R=0.735)  charge=  4.9884  magn= -0.0002
     atom  24 (R=0.735)  charge=  4.9885  magn= -0.0001
     atom  25 (R=0.735)  charge=  8.0053  magn=  0.0002
     atom  26 (R=0.735)  charge=  8.0011  magn=  0.0000
     atom  27 (R=0.735)  charge=  4.9957  magn=  0.0000
     atom  28 (R=0.735)  charge=  5.0347  magn=  0.0000
     atom  29 (R=0.735)  charge=  4.9989  magn= -0.0000
     atom  30 (R=0.735)  charge=  5.0001  magn= -0.0000
     atom  31 (R=0.735)  charge=  7.9948  magn=  0.0000
     atom  32 (R=0.735)  charge=  7.9826  magn=  0.0000
     atom  33 (R=0.735)  charge=  5.0126  magn= -0.0001
     atom  34 (R=0.735)  charge=  4.9424  magn= -0.0000
     atom  35 (R=0.735)  charge=  5.0005  magn= -0.0001
     atom  36 (R=0.735)  charge=  5.0043  magn= -0.0000
     atom  37 (R=0.735)  charge=  7.9990  magn=  0.0000
     atom  38 (R=0.735)  charge=  8.0004  magn=  0.0001
     atom  39 (R=0.735)  charge=  4.9853  magn=  0.0000
     atom  40 (R=0.735)  charge=  5.0160  magn= -0.0000
     atom  41 (R=0.735)  charge=  4.9884  magn=  0.0000
     atom  42 (R=0.735)  charge=  4.9878  magn=  0.0000
     atom  43 (R=0.735)  charge=  8.0214  magn= -0.0000
     atom  44 (R=0.735)  charge=  8.0216  magn= -0.0000
     atom  45 (R=0.735)  charge=  4.8827  magn= -0.0000
     atom  46 (R=0.735)  charge=  4.9884  magn= -0.0001
     atom  47 (R=0.735)  charge=  4.9886  magn= -0.0001
     atom  48 (R=0.418)  charge=  1.3137  magn= -0.0000
     atom  49 (R=0.451)  charge=  0.8539  magn=  0.0000
     atom  50 (R=0.418)  charge=  0.4371  magn= -0.0000
     atom  51 (R=0.418)  charge=  0.4392  magn= -0.0000
     atom  52 (R=0.418)  charge=  0.4355  magn= -0.0000
     atom  53 (R=0.418)  charge=  1.3298  magn=  0.0000
     atom  54 (R=0.418)  charge=  0.4522  magn= -0.0000
     atom  55 (R=0.418)  charge=  0.4511  magn= -0.0000
     atom  56 (R=0.418)  charge=  0.4538  magn= -0.0000

     End of self-consistent calculation

 ------ SPIN UP ------------

          k = 0.0000 0.0000 0.0000 ( 18029 PWs)   bands (ev):

   -56.6318 -56.5982 -55.7558 -55.7440 -55.7208 -55.7111 -55.6103 -55.5749
   -55.3924 -55.3565 -55.2969 -55.2909 -55.2630 -55.1931 -54.7268 -54.6155
   -33.0596 -32.9064 -32.8783 -32.8076 -32.7165 -32.6856 -32.2266 -32.2203
   -32.1529 -32.0399 -31.9938 -31.9694 -31.9511 -31.9297 -31.8961 -31.8918
   -31.8902 -31.8848 -31.8592 -31.8561 -31.8452 -31.8177 -31.7929 -31.7779
   -31.7649 -31.7465 -31.7368 -31.7120 -31.6891 -31.6352 -31.6230 -31.6111
   -31.5337 -31.5305 -31.5077 -31.4666 -31.4583 -31.4242 -31.4211 -31.3968
   -31.3743 -31.3133 -31.2326 -30.9726 -30.9571 -30.8745 -30.8373 -30.7472
   -16.7963 -16.3639 -16.1332 -15.9943 -15.9286 -15.8725 -15.8297 -15.7033
   -15.6357 -15.6279 -15.5863 -15.5577 -15.4865 -15.3470 -15.2484 -15.1953
   -15.1507 -15.0302 -14.9697 -14.9368 -14.9264 -14.8834 -14.8739 -14.6801
   -14.6572 -14.5637 -14.5420 -14.4216 -14.1864 -13.7954 -13.7034 -13.6853
   -12.8005  -7.5029  -4.3617  -3.8599  -3.7702  -3.7454  -3.6211  -3.5349
    -3.4275  -3.4139  -3.3267  -3.2130  -3.1685  -3.1209  -3.0045  -3.0028
    -2.8550  -2.8079  -2.8075  -2.8026  -2.7507  -2.6998  -2.6830  -2.6407
    -2.6331  -2.6005  -2.4778  -2.3798  -2.3073  -2.2849  -2.2787  -2.2434
    -2.1677  -2.1383  -2.1302  -2.1266  -2.0185  -1.8742  -1.8674  -1.8439
    -1.8020  -1.7973  -1.7549  -1.7408  -1.6231  -1.5327  -1.4301  -1.4140
    -1.3699  -1.3139  -1.3064  -1.2158  -1.1379  -1.0472  -1.0459  -0.9366
    -0.8887  -0.8717  -0.7814  -0.7220  -0.6826  -0.6562  -0.6440  -0.5443
    -0.5217  -0.5113  -0.4269  -0.4153  -0.3663  -0.2774  -0.2547  -0.2461
    -0.1633  -0.1607  -0.0651  -0.0237   0.0167   0.0519   0.1679   0.1852
     0.2834   0.3120   0.3400   0.4526   0.4685   0.5338   0.6087   0.6710
     0.6987   0.7247   0.7544   0.7735   0.8487   0.9603   0.9688   1.0719
     1.1039   1.2775   1.3164   1.3906   1.6028   1.6376   2.3045   2.6428
     2.8022   3.1006   3.2887   3.4017   3.6174   3.6333   3.6384   3.8080
     3.8606

[...]

          k =-0.0760-0.0000 0.0000 ( 17886 PWs)   bands (ev):

[...]

 ------ SPIN DOWN ----------

[...]

          k = 0.0380-0.0419 0.0000 ( 17876 PWs)   bands (ev):

[...]

          k =-0.0760-0.0839 0.0000 ( 17948 PWs)   bands (ev):

   -56.6146 -56.6143 -55.7406 -55.7348 -55.7281 -55.7276 -55.5925 -55.5917
   -55.3786 -55.3701 -55.2876 -55.2799 -55.2798 -55.1961 -54.7239 -54.6182
   -32.8917 -32.8915 -32.8761 -32.8759 -32.7601 -32.7598 -32.0564 -32.0540
   -32.0448 -32.0382 -31.9849 -31.9839 -31.9411 -31.9407 -31.9390 -31.9378
   -31.9301 -31.9271 -31.9250 -31.9234 -31.8450 -31.8430 -31.7940 -31.7911
   -31.7293 -31.7190 -31.6602 -31.6522 -31.6240 -31.6239 -31.6168 -31.5769
   -31.5727 -31.5450 -31.5108 -31.5053 -31.5052 -31.4661 -31.4661 -31.4619
   -31.4384 -31.3989 -31.1126 -30.9926 -30.9568 -30.9261 -30.8399 -30.8026
   -16.1453 -16.1433 -16.1105 -16.1103 -15.8416 -15.8380 -15.7950 -15.7926
   -15.6187 -15.6125 -15.4062 -15.3975 -15.3908 -15.3893 -15.2614 -15.2555
   -15.1897 -15.1793 -15.0899 -15.0806 -15.0244 -15.0179 -14.9752 -14.9541
   -14.6442 -14.6349 -14.5143 -14.4968 -14.3299 -13.7888 -13.7887 -13.7025
   -12.8168  -7.4931  -3.7775  -3.7535  -3.2442  -3.2438  -3.1799  -3.1789
    -3.0573  -3.0532  -2.9748  -2.9741  -2.8757  -2.8745  -2.7536  -2.7319
    -2.7291  -2.7281  -2.7095  -2.6754  -2.5753  -2.5718  -2.5617  -2.5472
    -2.4894  -2.4874  -2.4643  -2.3986  -2.3848  -2.3534  -2.3156  -2.2014
    -2.1912  -2.1789  -2.1473  -2.0841  -2.0775  -2.0642  -2.0218  -1.9907
    -1.9121  -1.8396  -1.8012  -1.6884  -1.6839  -1.6718  -1.6598  -1.5064
    -1.4661  -1.4356  -1.4290  -1.4224  -1.3744  -1.2800  -1.2725  -1.1402
    -1.1386  -1.0642  -0.9827  -0.9618  -0.9334  -0.8046  -0.7608  -0.7260
    -0.7183  -0.6901  -0.6697  -0.6484  -0.6043  -0.4688  -0.4570  -0.4184
    -0.3839  -0.3616  -0.3278  -0.2695  -0.1839  -0.1058  -0.1053  -0.0498
     0.0186   0.0790   0.1661   0.1759   0.1816   0.4625   0.5411   0.6309
     0.7067   0.7731   0.8362   0.8674   0.9228   0.9675   1.1033   1.1066
     1.1256   1.1260   1.1856   1.1893   1.3735   1.6436   2.1940   3.2158
     3.2162   3.2831   3.2835   3.6071   3.6129   3.7211   3.7304   3.8377
     3.8426

     the Fermi energy is     2.4832 ev

!    total energy              =   -2942.90779290 Ry
     estimated scf accuracy    <       0.00000007 Ry
     smearing contrib. (-TS)   =      -0.00487011 Ry
     internal energy E=F+TS    =   -2942.90292279 Ry

     The total energy is F=E-TS. E is the sum of the following terms:
     one-electron contribution =  -23242.41484726 Ry
     hartree contribution      =   11711.41336657 Ry
     xc contribution           =    -487.47421427 Ry
     ewald contribution        =    9075.57244232 Ry
     electric field correction =       0.00032985 Ry

     total magnetization       =     0.00 Bohr mag/cell
     absolute magnetization    =     0.00 Bohr mag/cell

     convergence has been achieved in  73 iterations

     Forces acting on atoms (cartesian axes, Ry/au):

     atom    1 type  1   force =     0.00003813   -0.00040792    0.12407618
     atom    2 type  1   force =    -0.00010474   -0.00057003   -0.16065455
     atom    3 type  2   force =     0.00023451   -0.00026872   -0.06800210
     atom    4 type  2   force =     0.00001290   -0.00029173    0.02757633
     atom    5 type  2   force =    -0.01615392    0.00175549   -0.00936289
     atom    6 type  2   force =     0.01818594    0.00219392   -0.00898510
     atom    7 type  1   force =     0.00115081   -0.00378059    0.02173692
     atom    8 type  1   force =    -0.00057790   -0.00291005    0.11110078
     atom    9 type  2   force =    -0.00018314    0.00030651   -0.00046988
     atom   10 type  2   force =    -0.00195836    0.00129318   -0.07325035
     atom   11 type  2   force =     0.00022890   -0.00010722    0.00016319
     atom   12 type  2   force =    -0.00026406    0.00022142    0.00019786
     atom   13 type  1   force =    -0.00009118    0.00008536   -0.00040083
     atom   14 type  1   force =    -0.00058644    0.00045117    0.00042946
     atom   15 type  2   force =     0.00028051    0.00000208    0.00013961
     atom   16 type  2   force =    -0.00049368   -0.00036658    0.00055466
     atom   17 type  2   force =    -0.00060513    0.00024028    0.00008134
     atom   18 type  2   force =     0.00003412    0.00024457    0.00009384
     atom   19 type  1   force =     0.00038993   -0.00053082   -0.00000147
     atom   20 type  1   force =    -0.00009615    0.00009919    0.00020319
     atom   21 type  2   force =     0.00004986   -0.00000740    0.09972277
     atom   22 type  2   force =     0.00026945   -0.00003288   -0.00041295
     atom   23 type  2   force =    -0.07916092    0.00000173   -0.03244480
     atom   24 type  2   force =     0.07904632    0.00043888   -0.03246694
     atom   25 type  1   force =     0.00001769   -0.00041510    0.12359979
     atom   26 type  1   force =    -0.00010033   -0.00046601   -0.16079015
     atom   27 type  2   force =     0.00032993   -0.00048472   -0.06705312
     atom   28 type  2   force =     0.00002770   -0.00012004    0.02730371
     atom   29 type  2   force =    -0.01662959    0.00127902   -0.00946929
     atom   30 type  2   force =     0.01855925    0.00165688   -0.00910374
     atom   31 type  1   force =     0.00116678   -0.00138448    0.02116634
     atom   32 type  1   force =    -0.00053297    0.00034667    0.11174402
     atom   33 type  2   force =    -0.00016309   -0.00024945    0.00005406
     atom   34 type  2   force =    -0.00132401    0.00066859   -0.07270343
     atom   35 type  2   force =    -0.00078028   -0.00043108   -0.00002963
     atom   36 type  2   force =     0.00010303   -0.00001950    0.00010109
     atom   37 type  1   force =     0.00006298    0.00063552    0.00025273
     atom   38 type  1   force =    -0.00021636    0.00002834   -0.00015138
     atom   39 type  2   force =     0.00013036   -0.00018168    0.00088020
     atom   40 type  2   force =    -0.00018598   -0.00046641    0.00031751
     atom   41 type  2   force =     0.00005603   -0.00008364    0.00004263
     atom   42 type  2   force =     0.00042837    0.00001888   -0.00000020
     atom   43 type  1   force =    -0.00022668   -0.00013579    0.00007758
     atom   44 type  1   force =    -0.00026386    0.00047133    0.00017168
     atom   45 type  2   force =     0.00002520   -0.00003187    0.09974674
     atom   46 type  2   force =    -0.07916659    0.00005375   -0.03244610
     atom   47 type  2   force =     0.07904621    0.00047662   -0.03246119
     atom   48 type  3   force =     0.00089011    0.00077494   -0.00157819
     atom   49 type  4   force =    -0.00238236   -0.00287348   -0.00030498
     atom   50 type  5   force =     0.00068826    0.00096952    0.00096025
     atom   51 type  5   force =    -0.00076459    0.00021312   -0.00033056
     atom   52 type  5   force =     0.00245310    0.00218179    0.00061150
     atom   53 type  3   force =     0.00002950   -0.00087243   -0.00009033
     atom   54 type  5   force =    -0.00002009    0.00020312   -0.00054212
     atom   55 type  5   force =     0.00016505    0.00031749   -0.00082773
     atom   56 type  5   force =    -0.00106855   -0.00013971    0.00122801

     Total force =     0.424439     Total SCF correction =     0.000543
  @ DRIVER MODE: Message from server: STATUS
  @ DRIVER MODE: Message from server: GETFORCE
  @ DRIVER MODE: Returning v,forces,stress,ensemble

     Writing output data file ./calc.save/
  @ DRIVER MODE: Message from server: EXIT
  @ DRIVE MODE: Exiting

     General routines

     Parallel routines

   This run was terminated on:   7:21:58  16Jul2021

   JOB DONE.