     Program PWSCF v.6.7GPU starts on 14Sep2021 at 13:40: 0

     R & G space division:  proc/nbgrp/npool/nimage =      10
     Reading input from /storage/home/hcoda1/3/ntian30/research/carbon/CxH_vib/CH2_calc/ads_slab/CH2OHN2_a/out_0000/pw.inp
Warning: card &CELL ignored
Warning: card   CELL_DYNAMICS='IPI', ignored
Warning: card / ignored

     Current dimensions of program PWSCF are:
     Max number of different atomic species (ntypx) = 10
     Max number of k-points (npk) =  40000
     Max angular momentum in pseudopotentials (lmaxx) =  3
     Presently no symmetry can be used with electric field

     Message from routine cell_base_init:
     DEPRECATED: use true lattice parameter, not A to a.u. conversion factor

     IMPORTANT: XC functional enforced from input :
     Exchange-correlation= BEEF-VDW
                           (   1   4  43  14   2   0   0)
     Any further DFT definition will be discarded
     Please, verify this is what you really want

  @ DRIVER MODE: Connecting to
 qe_1139763_2840440.sched-torque.pace.gatech.eduoqvi_48y_scratch
  using UNIX socket
  @ DRIVER MODE: Message from server: STATUS
  @ DRIVER MODE: Message from server: INIT
  @ DRIVER MODE: Receiving replica           0          -1
  @ DRIVER MODE: Receiving encoded integer          25
  @ DRIVER MODE:  SCF:  T  FORCE:  T  STRESS:  F  VC:  F  ENSEMBLE:  F
  @ DRIVER MODE:  SCF:  T  FORCE:  T  STRESS:  F  VC:  F  ENSEMBLE:  F

     Using Slab Decomposition

     bravais-lattice index     =            0
     lattice parameter (alat)  =       1.8897  a.u.
     unit-cell volume          =    6658.9804 (a.u.)^3
     number of atoms/cell      =           54
     number of atomic types    =            5
     number of electrons       =       401.00
     number of Kohn-Sham states=          210
     kinetic-energy cutoff     =      29.3995  Ry
     charge density cutoff     =     293.9946  Ry
     scf convergence threshold =      7.3E-08
     mixing beta               =       0.0500
     number of iterations used =            8  plain     mixing
     Exchange-correlation= BEEF-VDW
                           (   1   4  43  14   2   0   0)

     celldm(1)=   1.889726  celldm(2)=   0.000000  celldm(3)=   0.000000
     celldm(4)=   0.000000  celldm(5)=   0.000000  celldm(6)=   0.000000

     crystal axes: (cart. coord. in units of alat)
               a(1) = (   6.579727   0.000000   0.000000 )
               a(2) = (  -0.000775   5.961596   0.000000 )
               a(3) = (   0.000000   0.000000  25.155947 )

     reciprocal axes: (cart. coord. in units 2 pi/alat)
               b(1) = (  0.151982  0.000020  0.000000 )
               b(2) = (  0.000000  0.167740  0.000000 )
               b(3) = (  0.000000  0.000000  0.039752 )

     PseudoPot. # 1 for C  read from file:
     /storage/coda1/p-amedford6/0/shared/rich_project_chbe-medford/medford-share/data/pseudos_module/espresso/nninc/pbe/van/C.UPF
     MD5 check sum: 1a69bf6b8db32088f5b2163dbdb77a27
     Pseudo is Ultrasoft, Zval =  4.0
     Generated by new atomic code, or converted to UPF format
     Using radial grid of  721 points,  4 beta functions with:
                l(1) =   0
                l(2) =   0
                l(3) =   1
                l(4) =   1
     Q(r) pseudized with  8 coefficients,  rinner =    0.800   0.800   0.800

     PseudoPot. # 2 for H  read from file:
     /storage/coda1/p-amedford6/0/shared/rich_project_chbe-medford/medford-share/data/pseudos_module/espresso/nninc/pbe/van/H.UPF
     MD5 check sum: b5ee9d7bfd3a09ee7748110bda690ff7
     Pseudo is Ultrasoft, Zval =  1.0
     Generated by new atomic code, or converted to UPF format
     Using radial grid of  615 points,  1 beta functions with:
                l(1) =   0
     Q(r) pseudized with  8 coefficients,  rinner =    0.800

     PseudoPot. # 3 for O  read from file:
     /storage/coda1/p-amedford6/0/shared/rich_project_chbe-medford/medford-share/data/pseudos_module/espresso/nninc/pbe/van/O.UPF
     MD5 check sum: 78c19812648e8988a0fe644b0f25305e
     Pseudo is Ultrasoft, Zval =  6.0
     Generated by new atomic code, or converted to UPF format
     Using radial grid of  737 points,  4 beta functions with:
                l(1) =   0
                l(2) =   0
                l(3) =   1
                l(4) =   1
     Q(r) pseudized with  8 coefficients,  rinner =    0.800   0.800   0.800

     PseudoPot. # 4 for Ti read from file:
     /storage/coda1/p-amedford6/0/shared/rich_project_chbe-medford/medford-share/data/pseudos_module/espresso/nninc/pbe/van/Ti.UPF
     MD5 check sum: 8e4df49b7f0d34bbd5052bf3f5ea0213
     Pseudo is Ultrasoft, Zval = 12.0
     Generated by new atomic code, or converted to UPF format
     Using radial grid of  851 points,  6 beta functions with:
                l(1) =   0
                l(2) =   0
                l(3) =   1
                l(4) =   1
                l(5) =   2
                l(6) =   2
     Q(r) pseudized with  8 coefficients,  rinner =    1.000   1.000   1.000
                                                       1.000   1.000

     PseudoPot. # 5 for N  read from file:
     /storage/coda1/p-amedford6/0/shared/rich_project_chbe-medford/medford-share/data/pseudos_module/espresso/nninc/pbe/van/N.UPF
     MD5 check sum: 90d10febe142ad51ac9d5be1deb811c4
     Pseudo is Ultrasoft, Zval =  5.0
     Generated by new atomic code, or converted to UPF format
     Using radial grid of  729 points,  4 beta functions with:
                l(1) =   0
                l(2) =   0
                l(3) =   1
                l(4) =   1
     Q(r) pseudized with  8 coefficients,  rinner =    0.800   0.800   0.800

     atomic species   valence    mass     pseudopotential
        C1             4.00    12.01100     C ( 1.00)
        H1             1.00     1.00800     H ( 1.00)
        O1             6.00    15.99900     O ( 1.00)
        Ti1           12.00    47.86700     Ti( 1.00)
        N1             5.00    14.00700     N ( 1.00)

     No symmetry found

   Cartesian axes

     site n.     atom                  positions (alat units)
         1           C1  tau(   1) = (   5.1764158   1.5385028  19.8564928  )
         2           H1  tau(   2) = (   4.2418317   1.4168958  19.3325039  )
         3           H1  tau(   3) = (   6.1328006   2.9100337  18.2018079  )
         4           H1  tau(   4) = (   6.0297582   0.9181690  19.6386741  )
         5           O1  tau(   5) = (   0.0006271   0.0005054   7.9858123  )
         6           O1  tau(   6) = (   3.2906025   0.0005020   7.3038282  )
         7           O1  tau(   7) = (   4.5942328   1.4918067   9.2879030  )
         8           O1  tau(   8) = (   1.9868534   1.4903216   9.2879459  )
         9           O1  tau(   9) = (   3.2696825   0.0177092  11.3460806  )
        10           O1  tau(  10) = (   6.5743896   0.0111799  10.6115589  )
        11           O1  tau(  11) = (   1.2770957   1.5070501  12.6511825  )
        12           O1  tau(  12) = (   5.2749141   1.5057152  12.6378801  )
        13           O1  tau(  13) = (   6.5263050   0.0247340  14.7317399  )
        14           O1  tau(  14) = (   3.2747511   0.0213673  13.9312909  )
        15           O1  tau(  15) = (   4.4933390   1.5239927  16.1070736  )
        16           O1  tau(  16) = (   2.0026543   1.5217075  16.0711130  )
        17           O1  tau(  17) = (   3.2904802   0.0005063   4.7018136  )
        18           O1  tau(  18) = (   6.5469758   0.0421337  17.2556835  )
        19           O1  tau(  19) = (   1.3043587   1.4918075   6.0039043  )
        20           O1  tau(  20) = (   5.2767064   1.4903225   6.0039473  )
        21           O1  tau(  21) = (   0.0002396   2.9813036   7.9858123  )
        22           O1  tau(  22) = (   3.2902150   2.9813002   7.3038282  )
        23           O1  tau(  23) = (   4.5938453   4.4726049   9.2879030  )
        24           O1  tau(  24) = (   1.9864658   4.4711199   9.2879459  )
        25           O1  tau(  25) = (   3.2722311   3.0011533  11.3472759  )
        26           O1  tau(  26) = (   6.5787409   2.9955660  10.5677177  )
        27           O1  tau(  27) = (   1.2755865   4.4883074  12.6550720  )
        28           O1  tau(  28) = (   5.2773609   4.4903743  12.6413705  )
        29           O1  tau(  29) = (   6.5451067   2.9841024  14.7029789  )
        30           O1  tau(  30) = (   3.2773495   3.0062142  13.9304278  )
        31           O1  tau(  31) = (   4.4941242   4.5002890  16.1165364  )
        32           O1  tau(  32) = (   2.0016379   4.5015838  16.0818063  )
        33           O1  tau(  33) = (   3.2900926   2.9813045   4.7018136  )
        34           O1  tau(  34) = (   1.3039711   4.4726057   6.0039043  )
        35           O1  tau(  35) = (   5.2763189   4.4711207   6.0039473  )
        36           O1  tau(  36) = (   6.5536212   3.0044252  17.3297899  )
        37           Ti1 tau(  37) = (   0.0004258   2.9801865   6.0000000  )
        38           Ti1 tau(  38) = (   3.2906075   1.4906267   6.0002472  )
        39           Ti1 tau(  39) = (   3.3348906   3.0327224   9.1579215  )
        40           Ti1 tau(  40) = (   0.0203972   1.6099837   9.3624797  )
        41           Ti1 tau(  41) = (   6.5380572   3.0081639  12.8251979  )
        42           Ti1 tau(  42) = (   3.2225065   1.5141752  12.4854623  )
        43           Ti1 tau(  43) = (   3.2525775   3.0161725  15.7233172  )
        44           Ti1 tau(  44) = (   6.5465844   1.4469101  15.9770741  )
        45           Ti1 tau(  45) = (   0.0000382   5.9609847   6.0000000  )
        46           Ti1 tau(  46) = (   3.2902200   4.4714249   6.0002472  )
        47           Ti1 tau(  47) = (   3.2831171   0.0558662   9.1532617  )
        48           Ti1 tau(  48) = (   0.0294011   4.5318189   9.2743274  )
        49           Ti1 tau(  49) = (   6.5160019   0.0223579  12.5245727  )
        50           Ti1 tau(  50) = (   3.2207252   4.4944464  12.4919313  )
        51           Ti1 tau(  51) = (   3.2545639   0.0336594  15.7221480  )
        52           Ti1 tau(  52) = (   6.5427997   4.6104004  16.1309301  )
        53           N1  tau(  53) = (   5.0796009   2.6163306  22.0446247  )
        54           N1  tau(  54) = (   5.1188049   2.0915644  21.0330699  )

     number of k points=    10  Fermi-Dirac smearing, width (Ry)=  0.0073
                       cart. coord. in units 2pi/alat
        k(    1) = (   0.0000000   0.0000000   0.0000000), wk =   0.1250000
        k(    2) = (   0.0000000   0.0419351   0.0000000), wk =   0.2500000
        k(    3) = (   0.0000000  -0.0838702   0.0000000), wk =   0.1250000
        k(    4) = (   0.0379955   0.0000049   0.0000000), wk =   0.2500000
        k(    5) = (   0.0379955   0.0419400   0.0000000), wk =   0.2500000
        k(    6) = (   0.0379955  -0.0838652   0.0000000), wk =   0.2500000
        k(    7) = (   0.0379955  -0.0419301   0.0000000), wk =   0.2500000
        k(    8) = (  -0.0759910  -0.0000099   0.0000000), wk =   0.1250000
        k(    9) = (  -0.0759910   0.0419252   0.0000000), wk =   0.2500000
        k(   10) = (  -0.0759910  -0.0838800   0.0000000), wk =   0.1250000

     Initial potential from superposition of free atoms

     starting charge  384.99916, renormalised to  401.00000

     negative rho (up, down):  1.196E-02 0.000E+00

     %%%%%%%%%%%%%%%%%%%%%%%%%%%%%%%%%%%%%%%%%%%%%%%%%%%%%%%%%%%%%%%%%%%%%%%%
     %                                                                      %
     % You are using vdW-DF, which was implemented by the Thonhauser group. %
     % Please cite the following two papers that made this development      %
     % possible and the two reviews that describe the various versions:     %
     %                                                                      %
     %   T. Thonhauser et al., PRL 115, 136402 (2015).                      %
     %   T. Thonhauser et al., PRB 76, 125112 (2007).                       %
     %   K. Berland et al., Rep. Prog. Phys. 78, 066501 (2015).             %
     %   D.C. Langreth et al., J. Phys.: Condens. Matter 21, 084203 (2009). %
     %                                                                      %
     %                                                                      %
     % If you are calculating the stress with vdW-DF, please also cite:     %
     %                                                                      %
     %   R. Sabatini et al., J. Phys.: Condens. Matter 24, 424209 (2012).   %
     %                                                                      %
     %%%%%%%%%%%%%%%%%%%%%%%%%%%%%%%%%%%%%%%%%%%%%%%%%%%%%%%%%%%%%%%%%%%%%%%%

     Adding external electric field

     Computed dipole along edir(3) :
        Dipole              -14.0962 Ry au,        -35.8290 Debye
        Dipole field         -0.0266 Ry au,

        Potential amp.        2.4659 Ry
        Total length         46.3494 bohr

     Starting wfcs are  303 atomic wfcs
  @ DRIVER MODE: Message from server: STATUS
  @ DRIVER MODE: Message from server: POSDATA
  @ DRIVER MODE: Reading and sharing cell
  @ DRIVER MODE: Reading and sharing positions
  @ DRIVER MODE: Received positions

     Self-consistent Calculation

     iteration #  1     ecut=    29.40 Ry     beta= 0.05
     Davidson diagonalization with overlap
     ethr =  1.00E-02,  avg # of iterations =  2.9

[...]

     total energy              =   -2441.28628680 Ry
     estimated scf accuracy    <    6054.93833407 Ry

[...]

     iteration #  5     ecut=    29.40 Ry     beta= 0.05
     Davidson diagonalization with overlap
     c_bands:  3 eigenvalues not converged
     ethr =  1.00E-02,  avg # of iterations =  7.8

[...]

     iteration # 70     ecut=    29.40 Ry     beta= 0.05
     Davidson diagonalization with overlap
     c_bands:  1 eigenvalues not converged
     ethr =  7.26E-10,  avg # of iterations = 11.7

[...]

     total energy              =   -2971.53808210 Ry
     estimated scf accuracy    <       0.00000012 Ry

     iteration # 76     ecut=    29.40 Ry     beta= 0.05
     Davidson diagonalization with overlap
     ethr =  3.07E-11,  avg # of iterations =  6.2

     negative rho (up, down):  1.326E-02 0.000E+00

     Adding external electric field

     Computed dipole along edir(3) :
        Dipole                0.4410 Ry au,          1.1209 Debye
        Dipole field          0.0008 Ry au,

        Potential amp.       -0.0771 Ry
        Total length         46.3494 bohr

     End of self-consistent calculation

          k = 0.0000 0.0000 0.0000 ( 18029 PWs)   bands (ev):

   -55.7649 -55.7519 -55.7277 -55.7157 -55.6727 -55.6516 -55.6259 -55.5927
   -55.5895 -55.5799 -55.5379 -55.5148 -55.4812 -55.4149 -54.7753 -54.7413
   -32.3162 -32.2319 -32.1990 -32.1135 -32.0842 -32.0664 -32.0566 -32.0332
   -31.9945 -31.9902 -31.9755 -31.9675 -31.9621 -31.9330 -31.9252 -31.9220
   -31.9178 -31.8962 -31.8884 -31.8609 -31.8540 -31.8310 -31.8300 -31.8242
   -31.8074 -31.8007 -31.7827 -31.7786 -31.7712 -31.7688 -31.7616 -31.7539
   -31.7424 -31.7390 -31.7343 -31.6953 -31.6942 -31.6598 -31.6369 -31.6210
   -31.6036 -31.6008 -31.1850 -31.0882 -31.0658 -31.0017 -30.9157 -30.8044
   -20.7420 -16.9997 -16.5004 -16.2062 -16.0396 -15.9122 -15.8836 -15.7828
   -15.5918 -15.4574 -15.4405 -15.3661 -15.3318 -15.3242 -15.2937 -15.2840
   -15.2780 -15.2679 -15.2208 -15.1960 -15.1805 -15.1655 -15.1394 -15.0878
   -15.0404 -14.9688 -14.9214 -14.8808 -14.8611 -14.7622 -14.7434 -13.9449
   -13.2757 -13.1576  -6.5483  -5.5893  -4.9824  -4.5195  -3.8640  -3.6878
    -3.6705  -3.6520  -3.5689  -3.5129  -3.3261  -3.3101  -3.0099  -2.9346
    -2.9044  -2.9010  -2.8868  -2.7089  -2.6482  -2.6000  -2.5903  -2.5741
    -2.5720  -2.5486  -2.5282  -2.5183  -2.4900  -2.4693  -2.4610  -2.3229
    -2.2943  -2.1770  -2.1569  -2.1463  -2.0888  -2.0641  -2.0307  -2.0093
    -2.0042  -1.9871  -1.9653  -1.9304  -1.8450  -1.8210  -1.6961  -1.5911
    -1.5545  -1.4607  -1.3143  -1.2410  -1.2215  -1.1902  -1.1638  -1.1492
    -1.1019  -1.0770  -1.0249  -0.9624  -0.9572  -0.8526  -0.7795  -0.7419
    -0.6644  -0.6444  -0.6263  -0.5070  -0.4860  -0.4748  -0.3025  -0.2415
    -0.2296  -0.2269  -0.0978  -0.0563  -0.0220  -0.0087   0.0209   0.0517
     0.0971   0.1394   0.1984   0.2228   0.2336   0.2419   0.2649   0.2909
     0.4067   0.4229   0.4349   0.5519   0.5712   0.7605   0.7681   0.8854
     0.9853   1.1533   1.2493   1.3200   1.4203   1.7210   1.8381   1.8984
     3.4249   3.4558   3.4872   3.5045   3.5757   3.6988   3.8067   3.8622
     3.8835   3.9051

[...]

          k = 0.0380-0.0419 0.0000 ( 17876 PWs)   bands (ev):

[...]

          k =-0.0760-0.0000 0.0000 ( 17886 PWs)   bands (ev):

[...]

          k =-0.0760-0.0839 0.0000 ( 17948 PWs)   bands (ev):

   -55.7537 -55.7387 -55.7348 -55.7326 -55.6693 -55.6468 -55.6138 -55.6016
   -55.5975 -55.5831 -55.5351 -55.4988 -55.4972 -55.4173 -54.7588 -54.7577
   -32.1198 -32.1158 -32.0989 -32.0560 -32.0458 -32.0402 -32.0231 -32.0220
   -32.0154 -31.9789 -31.9543 -31.9468 -31.9444 -31.9101 -31.9053 -31.8968
   -31.8853 -31.8815 -31.8801 -31.8704 -31.8695 -31.8599 -31.8548 -31.8479
   -31.8445 -31.8224 -31.8177 -31.8135 -31.8062 -31.8059 -31.8021 -31.7833
   -31.7766 -31.7584 -31.7553 -31.7493 -31.7336 -31.7170 -31.7040 -31.6969
   -31.6453 -31.6101 -31.0791 -31.0778 -30.9984 -30.9976 -30.9592 -30.9582
   -20.7419 -16.9341 -15.9428 -15.9337 -15.6914 -15.6851 -15.6809 -15.6103
   -15.5262 -15.5051 -15.4832 -15.4789 -15.4293 -15.4156 -15.4037 -15.3405
   -15.3056 -15.2880 -15.2702 -15.2659 -15.2117 -15.2069 -15.1630 -15.1391
   -15.1210 -15.1154 -15.0906 -15.0864 -15.0472 -14.9859 -14.9176 -13.9448
   -13.2601 -13.2576  -6.5425  -5.5916  -4.9206  -4.5182  -3.5125  -3.2345
    -3.2236  -2.9577  -2.9090  -2.8959  -2.8140  -2.7518  -2.6863  -2.6457
    -2.6184  -2.6096  -2.5986  -2.5884  -2.5840  -2.5686  -2.5657  -2.5472
    -2.5269  -2.5159  -2.4580  -2.4381  -2.4131  -2.3936  -2.3857  -2.3749
    -2.3378  -2.3191  -2.3081  -2.2922  -2.2878  -2.2067  -2.0617  -2.0156
    -1.9198  -1.9002  -1.8903  -1.8482  -1.8264  -1.8096  -1.7948  -1.7457
    -1.7294  -1.5613  -1.4918  -1.4750  -1.4571  -1.4252  -1.3683  -1.2791
    -1.2485  -1.1745  -1.1673  -1.1250  -1.0658  -0.9908  -0.9689  -0.9287
    -0.8694  -0.8325  -0.7755  -0.7425  -0.7207  -0.7132  -0.6624  -0.6059
    -0.5675  -0.5071  -0.4809  -0.4177  -0.3779  -0.3414  -0.2851  -0.2589
    -0.2231  -0.1133  -0.0063   0.1298   0.1916   0.2679   0.2813   0.3076
     0.3290   0.4462   0.4773   0.5052   0.5477   0.6349   0.6889   0.7585
     0.7783   0.8065   0.8631   1.6097   1.6109   1.7001   1.7110   1.7243
     3.6219   3.6580   3.6766   3.7256   3.8833   3.8880   3.9067   3.9146
     3.9669   4.0873

     the Fermi energy is     3.3907 ev

!    total energy              =   -2971.53809249 Ry
     estimated scf accuracy    <       0.00000005 Ry
     smearing contrib. (-TS)   =      -0.02329244 Ry
     internal energy E=F+TS    =   -2971.51480005 Ry

     The total energy is F=E-TS. E is the sum of the following terms:
     one-electron contribution =  -22751.44452505 Ry
     hartree contribution      =   11466.79858038 Ry
     xc contribution           =    -492.33137056 Ry
     ewald contribution        =    8805.46214818 Ry
     electric field correction =       0.00036700 Ry

     convergence has been achieved in  76 iterations

     Forces acting on atoms (cartesian axes, Ry/au):

     atom    1 type  1   force =    -0.00064059    0.00095136    0.00071305
     atom    2 type  2   force =    -0.00046432    0.00082443   -0.00061633
     atom    3 type  2   force =    -0.00144843   -0.00071737   -0.00051925
     atom    4 type  2   force =     0.00082079   -0.00050956   -0.00026656
     atom    5 type  3   force =     0.00034128   -0.00680729   -0.03337923
     atom    6 type  3   force =    -0.00002134    0.00054844    0.04534073
     atom    7 type  3   force =    -0.02046846    0.00052876    0.00451370
     atom    8 type  3   force =     0.01814889   -0.00160165    0.00414595
     atom    9 type  3   force =     0.00013387    0.00000746   -0.00007568
     atom   10 type  3   force =    -0.00004620   -0.00005255    0.00018987
     atom   11 type  3   force =     0.00023539   -0.00009937   -0.00031113
     atom   12 type  3   force =     0.00048029    0.00011914   -0.00015654
     atom   13 type  3   force =     0.00030514   -0.00020502   -0.00018180
     atom   14 type  3   force =     0.00035803    0.00020949   -0.00005977
     atom   15 type  3   force =    -0.00022431   -0.00012984    0.00035775
     atom   16 type  3   force =     0.00026595   -0.00009173    0.00008797
     atom   17 type  3   force =     0.00003546    0.00005898    0.10415001
     atom   18 type  3   force =    -0.00012090    0.00012684    0.00064594
     atom   19 type  3   force =    -0.06902722    0.00070407   -0.02967971
     atom   20 type  3   force =     0.06879812    0.00126742   -0.02967067
     atom   21 type  3   force =     0.00038335    0.00378680   -0.02831124
     atom   22 type  3   force =     0.00085672    0.00084475    0.04703386
     atom   23 type  3   force =    -0.01798642    0.00141000    0.00375838
     atom   24 type  3   force =     0.01768393    0.00227140    0.00328708
     atom   25 type  3   force =    -0.00015931   -0.00019833    0.00005881
     atom   26 type  3   force =     0.00016769   -0.00003348    0.00040699
     atom   27 type  3   force =    -0.00025197   -0.00014777    0.00025659
     atom   28 type  3   force =    -0.00001360   -0.00020833    0.00058435
     atom   29 type  3   force =     0.00008939   -0.00055750    0.00009671
     atom   30 type  3   force =    -0.00019535   -0.00034321    0.00037115
     atom   31 type  3   force =    -0.00034248   -0.00010939    0.00003789
     atom   32 type  3   force =    -0.00006846   -0.00020541   -0.00036699
     atom   33 type  3   force =     0.00004179    0.00003372    0.10423935
     atom   34 type  3   force =    -0.06860529   -0.00136319   -0.02971842
     atom   35 type  3   force =     0.06848556   -0.00098879   -0.02969600
     atom   36 type  3   force =     0.00111515    0.00049739    0.00013819
     atom   37 type  4   force =    -0.00001526   -0.00158294    0.10639871
     atom   38 type  4   force =    -0.00016409    0.00074105   -0.17963681
     atom   39 type  4   force =    -0.00039397    0.00006772   -0.00015292
     atom   40 type  4   force =     0.00000187    0.00007029   -0.00009640
     atom   41 type  4   force =    -0.00004459    0.00055105   -0.00057808
     atom   42 type  4   force =    -0.00013585    0.00001661    0.00021645
     atom   43 type  4   force =    -0.00014756   -0.00022097   -0.00045972
     atom   44 type  4   force =     0.00055739    0.00048285   -0.00038412
     atom   45 type  4   force =    -0.00001068    0.00121263    0.11836555
     atom   46 type  4   force =     0.00000240   -0.00035514   -0.17989837
     atom   47 type  4   force =     0.00035552    0.00005671   -0.00027585
     atom   48 type  4   force =    -0.00003483    0.00025510   -0.00036189
     atom   49 type  4   force =     0.00054939    0.00057456   -0.00008457
     atom   50 type  4   force =     0.00014048    0.00011837   -0.00080625
     atom   51 type  4   force =     0.00040080   -0.00078225   -0.00011676
     atom   52 type  4   force =     0.00086995   -0.00100366    0.00052376
     atom   53 type  5   force =     0.00067751    0.00127601   -0.00000655
     atom   54 type  5   force =    -0.00127062   -0.00129867   -0.00005114

     Total force =     0.376610     Total SCF correction =     0.000312
  @ DRIVER MODE: Message from server: STATUS
  @ DRIVER MODE: Message from server: GETFORCE
  @ DRIVER MODE: Returning v,forces,stress,ensemble

     Writing output data file ./calc.save/
  @ DRIVER MODE: Message from server: EXIT
  @ DRIVE MODE: Exiting

     General routines

     Parallel routines

   This run was terminated on:  14: 0:58  14Sep2021

   JOB DONE.