     Program PWSCF v.6.7GPU starts on 10Sep2021 at 22: 1:41

     R & G space division:  proc/nbgrp/npool/nimage =      10
     Reading input from /storage/home/hcoda1/3/ntian30/research/carbon/CxH_vib/CH2_calc/ads_slab/CH2OH_f/out_0014/pw.inp
Warning: card &CELL ignored
Warning: card   CELL_DYNAMICS='IPI', ignored
Warning: card / ignored

     Current dimensions of program PWSCF are:
     Max number of different atomic species (ntypx) = 10
     Max number of k-points (npk) =  40000
     Max angular momentum in pseudopotentials (lmaxx) =  3
     Presently no symmetry can be used with electric field

     Message from routine cell_base_init:
     DEPRECATED: use true lattice parameter, not A to a.u. conversion factor

     IMPORTANT: XC functional enforced from input :
     Exchange-correlation= BEEF-VDW
                           (   1   4  43  14   2   0   0)
     Any further DFT definition will be discarded
     Please, verify this is what you really want

  @ DRIVER MODE: Connecting to
 qe_1139763_2792042.sched-torque.pace.gatech.edu1ppuhe8p_scratch
  using UNIX socket
  @ DRIVER MODE: Message from server: STATUS
  @ DRIVER MODE: Message from server: INIT
  @ DRIVER MODE: Receiving replica           0          -1
  @ DRIVER MODE: Receiving encoded integer          25
  @ DRIVER MODE:  SCF:  T  FORCE:  T  STRESS:  F  VC:  F  ENSEMBLE:  F
  @ DRIVER MODE:  SCF:  T  FORCE:  T  STRESS:  F  VC:  F  ENSEMBLE:  F

     Using Slab Decomposition

     bravais-lattice index     =            0
     lattice parameter (alat)  =       1.8897  a.u.
     unit-cell volume          =    6658.9804 (a.u.)^3
     number of atoms/cell      =           52
     number of atomic types    =            4
     number of electrons       =       391.00
     number of Kohn-Sham states=          205
     kinetic-energy cutoff     =      29.3995  Ry
     charge density cutoff     =     293.9946  Ry
     scf convergence threshold =      7.3E-08
     mixing beta               =       0.0500
     number of iterations used =            8  plain     mixing
     Exchange-correlation= BEEF-VDW
                           (   1   4  43  14   2   0   0)

     celldm(1)=   1.889726  celldm(2)=   0.000000  celldm(3)=   0.000000
     celldm(4)=   0.000000  celldm(5)=   0.000000  celldm(6)=   0.000000

     crystal axes: (cart. coord. in units of alat)
               a(1) = (   6.579727   0.000000   0.000000 )
               a(2) = (  -0.000775   5.961596   0.000000 )
               a(3) = (   0.000000   0.000000  25.155947 )

     reciprocal axes: (cart. coord. in units 2 pi/alat)
               b(1) = (  0.151982  0.000020  0.000000 )
               b(2) = (  0.000000  0.167740  0.000000 )
               b(3) = (  0.000000  0.000000  0.039752 )

     PseudoPot. # 1 for O  read from file:
     /storage/coda1/p-amedford6/0/shared/rich_project_chbe-medford/medford-share/data/pseudos_module/espresso/nninc/pbe/van/O.UPF
     MD5 check sum: 78c19812648e8988a0fe644b0f25305e
     Pseudo is Ultrasoft, Zval =  6.0
     Generated by new atomic code, or converted to UPF format
     Using radial grid of  737 points,  4 beta functions with:
                l(1) =   0
                l(2) =   0
                l(3) =   1
                l(4) =   1
     Q(r) pseudized with  8 coefficients,  rinner =    0.800   0.800   0.800

     PseudoPot. # 2 for Ti read from file:
     /storage/coda1/p-amedford6/0/shared/rich_project_chbe-medford/medford-share/data/pseudos_module/espresso/nninc/pbe/van/Ti.UPF
     MD5 check sum: 8e4df49b7f0d34bbd5052bf3f5ea0213
     Pseudo is Ultrasoft, Zval = 12.0
     Generated by new atomic code, or converted to UPF format
     Using radial grid of  851 points,  6 beta functions with:
                l(1) =   0
                l(2) =   0
                l(3) =   1
                l(4) =   1
                l(5) =   2
                l(6) =   2
     Q(r) pseudized with  8 coefficients,  rinner =    1.000   1.000   1.000
                                                       1.000   1.000

     PseudoPot. # 3 for H  read from file:
     /storage/coda1/p-amedford6/0/shared/rich_project_chbe-medford/medford-share/data/pseudos_module/espresso/nninc/pbe/van/H.UPF
     MD5 check sum: b5ee9d7bfd3a09ee7748110bda690ff7
     Pseudo is Ultrasoft, Zval =  1.0
     Generated by new atomic code, or converted to UPF format
     Using radial grid of  615 points,  1 beta functions with:
                l(1) =   0
     Q(r) pseudized with  8 coefficients,  rinner =    0.800

     PseudoPot. # 4 for C  read from file:
     /storage/coda1/p-amedford6/0/shared/rich_project_chbe-medford/medford-share/data/pseudos_module/espresso/nninc/pbe/van/C.UPF
     MD5 check sum: 1a69bf6b8db32088f5b2163dbdb77a27
     Pseudo is Ultrasoft, Zval =  4.0
     Generated by new atomic code, or converted to UPF format
     Using radial grid of  721 points,  4 beta functions with:
                l(1) =   0
                l(2) =   0
                l(3) =   1
                l(4) =   1
     Q(r) pseudized with  8 coefficients,  rinner =    0.800   0.800   0.800

     atomic species   valence    mass     pseudopotential
        O1             6.00    15.99900     O ( 1.00)
        Ti1           12.00    47.86700     Ti( 1.00)
        H1             1.00     1.00800     H ( 1.00)
        C1             4.00    12.01100     C ( 1.00)

     No symmetry found

   Cartesian axes

     site n.     atom                  positions (alat units)
         1           O1  tau(   1) = (   3.2904802   0.0005063   4.7018136  )
         2           O1  tau(   2) = (   3.2900926   2.9813045   4.7018136  )
         3           Ti1 tau(   3) = (   0.0004258   2.9801865   6.0000000  )
         4           Ti1 tau(   4) = (   0.0000382   5.9609847   6.0000000  )
         5           Ti1 tau(   5) = (   3.2906075   1.4906267   6.0002472  )
         6           Ti1 tau(   6) = (   3.2902200   4.4714249   6.0002472  )
         7           O1  tau(   7) = (   1.3043587   1.4918075   6.0039043  )
         8           O1  tau(   8) = (   1.3039711   4.4726057   6.0039043  )
         9           O1  tau(   9) = (   5.2767064   1.4903225   6.0039473  )
        10           O1  tau(  10) = (   5.2763189   4.4711207   6.0039473  )
        11           O1  tau(  11) = (   3.2906025   0.0005020   7.3038282  )
        12           O1  tau(  12) = (   3.2902150   2.9813002   7.3038282  )
        13           O1  tau(  13) = (   0.0006271   0.0005054   7.9858123  )
        14           O1  tau(  14) = (   0.0002396   2.9813036   7.9858123  )
        15           Ti1 tau(  15) = (   3.3208325   5.9232416   9.1783542  )
        16           Ti1 tau(  16) = (   3.3324863   2.9377666   9.1648094  )
        17           Ti1 tau(  17) = (   0.0524917   1.4788520   9.2606301  )
        18           Ti1 tau(  18) = (   0.0483789   4.4105323   9.3105966  )
        19           O1  tau(  19) = (   4.5942328   1.4918067   9.2879030  )
        20           O1  tau(  20) = (   4.5938453   4.4726049   9.2879030  )
        21           O1  tau(  21) = (   1.9868534   1.4903216   9.2879459  )
        22           O1  tau(  22) = (   1.9864658   4.4711199   9.2879459  )
        23           O1  tau(  23) = (   6.5712937   0.0017758  10.5841540  )
        24           O1  tau(  24) = (   0.0002036   2.9871675  10.5944109  )
        25           O1  tau(  25) = (   3.2216619   2.9970402  11.3379169  )
        26           O1  tau(  26) = (   3.2239595   0.0054171  11.3328765  )
        27           Ti1 tau(  27) = (   6.5319223   0.0329622  12.4533321  )
        28           Ti1 tau(  28) = (   3.1914638   1.6317768  12.6145244  )
        29           Ti1 tau(  29) = (   3.1843358   4.5420783  12.4476223  )
        30           Ti1 tau(  30) = (   6.4449355   3.0101977  12.6586491  )
        31           O1  tau(  31) = (   5.2440064   1.5124744  12.5792363  )
        32           O1  tau(  32) = (   5.2402295   4.4617308  12.5795526  )
        33           O1  tau(  33) = (   1.2196697   1.4730338  12.6667888  )
        34           O1  tau(  34) = (   1.2190574   4.4979232  12.6669875  )
        35           O1  tau(  35) = (   3.2067865   2.9341989  13.9395670  )
        36           O1  tau(  36) = (   3.3440650   5.9513154  13.9008253  )
        37           O1  tau(  37) = (   6.3267833   5.9539684  14.6370341  )
        38           O1  tau(  38) = (   6.3913104   2.9714873  14.7475579  )
        39           Ti1 tau(  39) = (   3.1260420   2.9476348  15.9752747  )
        40           Ti1 tau(  40) = (   3.1986908   5.9292636  15.6746755  )
        41           Ti1 tau(  41) = (   6.4744102   1.3498976  15.9078779  )
        42           Ti1 tau(  42) = (   6.4721656   4.5656371  15.8700466  )
        43           O1  tau(  43) = (   1.8677001   4.5604514  15.8157410  )
        44           O1  tau(  44) = (   1.8686447   1.3618557  15.8396546  )
        45           O1  tau(  45) = (   4.4008848   1.5192286  16.2292034  )
        46           O1  tau(  46) = (   4.3978686   4.4066597  16.2143399  )
        47           O1  tau(  47) = (   6.4830960   5.9408203  17.1431429  )
        48           O1  tau(  48) = (   0.4828407   2.9769521  17.4917737  )
        49           H1  tau(  49) = (   6.5026766   3.0145448  18.2851392  )
        50           C1  tau(  50) = (   1.9655054   2.9805414  17.9097346  )
        51           H1  tau(  51) = (   2.0761010   2.0893267  18.5304525  )
        52           H1  tau(  52) = (   2.0801140   3.8867162  18.5073456  )

     number of k points=    10  Fermi-Dirac smearing, width (Ry)=  0.0073
                       cart. coord. in units 2pi/alat
        k(    1) = (   0.0000000   0.0000000   0.0000000), wk =   0.1250000
        k(    2) = (   0.0000000   0.0419351   0.0000000), wk =   0.2500000
        k(    3) = (   0.0000000  -0.0838702   0.0000000), wk =   0.1250000
        k(    4) = (   0.0379955   0.0000049   0.0000000), wk =   0.2500000
        k(    5) = (   0.0379955   0.0419400   0.0000000), wk =   0.2500000
        k(    6) = (   0.0379955  -0.0838652   0.0000000), wk =   0.2500000
        k(    7) = (   0.0379955  -0.0419301   0.0000000), wk =   0.2500000
        k(    8) = (  -0.0759910  -0.0000099   0.0000000), wk =   0.1250000
        k(    9) = (  -0.0759910   0.0419252   0.0000000), wk =   0.2500000
        k(   10) = (  -0.0759910  -0.0838800   0.0000000), wk =   0.1250000

     Initial potential from superposition of free atoms

     starting charge  374.99918, renormalised to  391.00000

     negative rho (up, down):  1.929E-02 0.000E+00

     %%%%%%%%%%%%%%%%%%%%%%%%%%%%%%%%%%%%%%%%%%%%%%%%%%%%%%%%%%%%%%%%%%%%%%%%
     %                                                                      %
     % You are using vdW-DF, which was implemented by the Thonhauser group. %
     % Please cite the following two papers that made this development      %
     % possible and the two reviews that describe the various versions:     %
     %                                                                      %
     %   T. Thonhauser et al., PRL 115, 136402 (2015).                      %
     %   T. Thonhauser et al., PRB 76, 125112 (2007).                       %
     %   K. Berland et al., Rep. Prog. Phys. 78, 066501 (2015).             %
     %   D.C. Langreth et al., J. Phys.: Condens. Matter 21, 084203 (2009). %
     %                                                                      %
     %                                                                      %
     % If you are calculating the stress with vdW-DF, please also cite:     %
     %                                                                      %
     %   R. Sabatini et al., J. Phys.: Condens. Matter 24, 424209 (2012).   %
     %                                                                      %
     %%%%%%%%%%%%%%%%%%%%%%%%%%%%%%%%%%%%%%%%%%%%%%%%%%%%%%%%%%%%%%%%%%%%%%%%

     Adding external electric field

     Computed dipole along edir(3) :
        Dipole               -5.2494 Ry au,        -13.3426 Debye
        Dipole field         -0.0099 Ry au,

        Potential amp.        0.9183 Ry
        Total length         46.3494 bohr

     Starting wfcs are  295 atomic wfcs
  @ DRIVER MODE: Message from server: STATUS
  @ DRIVER MODE: Message from server: POSDATA
  @ DRIVER MODE: Reading and sharing cell
  @ DRIVER MODE: Reading and sharing positions
  @ DRIVER MODE: Received positions

     Self-consistent Calculation

     iteration #  1     ecut=    29.40 Ry     beta= 0.05
     Davidson diagonalization with overlap
     c_bands:  4 eigenvalues not converged
     c_bands:  1 eigenvalues not converged
     c_bands:  2 eigenvalues not converged
     c_bands:  4 eigenvalues not converged
     c_bands:  1 eigenvalues not converged
     c_bands:  1 eigenvalues not converged
     c_bands:  3 eigenvalues not converged
     ethr =  1.00E-05,  avg # of iterations = 19.3

[...]

     total energy              =   -2799.26869157 Ry
     estimated scf accuracy    <    1451.01173064 Ry

     iteration #  2     ecut=    29.40 Ry     beta= 0.05
     Davidson diagonalization with overlap
     ethr =  1.00E-02,  avg # of iterations = 17.0

[...]

     iteration # 69     ecut=    29.40 Ry     beta= 0.05
     Davidson diagonalization with overlap
     c_bands:  1 eigenvalues not converged
     ethr =  3.01E-11,  avg # of iterations = 15.3

[...]

     total energy              =   -2931.32921293 Ry
     estimated scf accuracy    <       0.00000013 Ry

     iteration # 70     ecut=    29.40 Ry     beta= 0.05
     Davidson diagonalization with overlap
     ethr =  3.01E-11,  avg # of iterations = 10.7

     negative rho (up, down):  1.889E-02 0.000E+00

     Adding external electric field

     Computed dipole along edir(3) :
        Dipole                0.9525 Ry au,          2.4209 Debye
        Dipole field          0.0018 Ry au,

        Potential amp.       -0.1666 Ry
        Total length         46.3494 bohr

     End of self-consistent calculation

          k = 0.0000 0.0000 0.0000 ( 18029 PWs)   bands (ev):

   -55.8499 -55.8122 -55.7577 -55.7446 -55.6912 -55.6843 -55.6691 -55.6645
   -55.6345 -55.6154 -55.6137 -55.5881 -55.5813 -55.5666 -54.8245 -54.7905
   -32.3582 -32.3242 -32.2332 -32.2038 -32.1587 -32.1336 -32.1220 -32.0969
   -32.0882 -32.0606 -32.0338 -32.0127 -32.0046 -31.9912 -31.9631 -31.9567
   -31.9461 -31.9344 -31.9162 -31.9135 -31.9092 -31.9027 -31.8755 -31.8575
   -31.8519 -31.8489 -31.8475 -31.8375 -31.8309 -31.8221 -31.8131 -31.8107
   -31.8004 -31.7879 -31.7845 -31.7829 -31.7706 -31.7649 -31.7485 -31.7363
   -31.7171 -31.6476 -31.2318 -31.1424 -31.1199 -31.0487 -30.9624 -30.8510
   -19.4798 -16.5531 -16.3373 -16.1505 -16.0514 -16.0012 -15.8323 -15.7503
   -15.5396 -15.4872 -15.4761 -15.4496 -15.3937 -15.3772 -15.3712 -15.3522
   -15.3404 -15.3156 -15.2562 -15.2472 -15.2389 -15.2041 -15.1466 -15.1166
   -14.9895 -14.9806 -14.9651 -14.9457 -14.8625 -14.7311 -13.3247 -13.2078
    -9.6052  -6.4069  -4.1804  -3.9724  -3.8567  -3.7675  -3.7511  -3.7314
    -3.5646  -3.4951  -3.2705  -3.1384  -3.0835  -3.0182  -2.9798  -2.9177
    -2.8252  -2.7634  -2.7209  -2.6800  -2.6474  -2.6460  -2.6305  -2.5764
    -2.5465  -2.4987  -2.4001  -2.3975  -2.3449  -2.2890  -2.2488  -2.2071
    -2.1660  -2.1506  -2.1298  -2.0935  -2.0600  -2.0500  -2.0170  -1.9873
    -1.9305  -1.8511  -1.8208  -1.5586  -1.4661  -1.3807  -1.3670  -1.2998
    -1.2758  -1.2470  -1.2318  -1.1960  -1.1827  -1.0929  -1.0863  -1.0123
    -0.9717  -0.8894  -0.8294  -0.7526  -0.6888  -0.6302  -0.6093  -0.5797
    -0.5640  -0.5536  -0.3927  -0.3815  -0.3550  -0.2435  -0.2276  -0.1632
    -0.1393  -0.0766  -0.0541   0.0109   0.0692   0.0914   0.1128   0.1486
     0.1592   0.1716   0.2137   0.2957   0.3856   0.3993   0.4160   0.4799
     0.6453   0.7196   0.8226   0.8865   1.1231   1.2002   1.2296   1.2633
     1.3866   1.7741   1.8270   3.2982   3.3676   3.4151   3.4258   3.4647
     3.5467   3.7356   3.7448   3.8046   3.8939

[...]

          k = 0.0380-0.0419 0.0000 ( 17876 PWs)   bands (ev):

[...]

          k =-0.0760-0.0000 0.0000 ( 17886 PWs)   bands (ev):

[...]

          k =-0.0760-0.0839 0.0000 ( 17948 PWs)   bands (ev):

   -55.8391 -55.8228 -55.7534 -55.7380 -55.6976 -55.6882 -55.6656 -55.6590
   -55.6264 -55.6208 -55.5992 -55.5973 -55.5956 -55.5692 -54.8076 -54.8073
   -32.2810 -32.1478 -32.1362 -32.1321 -32.1084 -32.0840 -32.0794 -32.0517
   -32.0203 -32.0021 -31.9920 -31.9891 -31.9765 -31.9668 -31.9649 -31.9604
   -31.9590 -31.9510 -31.9488 -31.9327 -31.9308 -31.9230 -31.8998 -31.8966
   -31.8920 -31.8858 -31.8847 -31.8743 -31.8659 -31.8593 -31.8466 -31.8433
   -31.8338 -31.8250 -31.8230 -31.8131 -31.8101 -31.8080 -31.8061 -31.7942
   -31.7903 -31.6491 -31.1328 -31.1324 -31.0452 -31.0443 -31.0058 -31.0051
   -19.4737 -16.1419 -15.9582 -15.8042 -15.7907 -15.7848 -15.6327 -15.6296
   -15.6045 -15.5682 -15.5352 -15.5172 -15.4791 -15.4749 -15.4319 -15.3804
   -15.3739 -15.3620 -15.3354 -15.2844 -15.2721 -15.2571 -15.1793 -15.1693
   -15.1611 -15.1347 -15.1318 -15.1000 -15.0993 -15.0240 -13.3115 -13.3076
    -9.6056  -6.3899  -4.1878  -3.8185  -3.2825  -3.2094  -3.0167  -3.0019
    -2.9270  -2.8925  -2.8666  -2.8265  -2.7762  -2.7693  -2.7545  -2.6802
    -2.6564  -2.6517  -2.6070  -2.5938  -2.5838  -2.5671  -2.5536  -2.5157
    -2.4933  -2.4692  -2.4461  -2.4308  -2.4090  -2.4003  -2.3956  -2.3495
    -2.3282  -2.2094  -2.1183  -2.0554  -2.0099  -1.9681  -1.9414  -1.9231
    -1.9052  -1.8912  -1.8781  -1.8374  -1.7697  -1.6008  -1.5246  -1.5199
    -1.4572  -1.4357  -1.3838  -1.3660  -1.2902  -1.2635  -1.2151  -1.1987
    -1.1827  -1.0796  -1.0564  -0.9647  -0.9313  -0.8247  -0.8015  -0.7883
    -0.7690  -0.7275  -0.7050  -0.6420  -0.6200  -0.5815  -0.5537  -0.5030
    -0.4579  -0.4419  -0.3434  -0.3020  -0.2477  -0.2015  -0.1323  -0.0248
     0.1538   0.1766   0.2111   0.3157   0.3549   0.4261   0.4824   0.5013
     0.5650   0.6017   0.6454   0.6944   0.7576   0.7939   1.2148   1.5617
     1.5703   1.6348   1.6464   3.6001   3.6499   3.7690   3.7822   3.8117
     3.8224   3.8356   3.8508   3.9008   3.9547

     the Fermi energy is     3.2914 ev

!    total energy              =   -2931.32923178 Ry
     estimated scf accuracy    <       0.00000007 Ry
     smearing contrib. (-TS)   =      -0.02173347 Ry
     internal energy E=F+TS    =   -2931.30749832 Ry

     The total energy is F=E-TS. E is the sum of the following terms:
     one-electron contribution =  -24944.35233977 Ry
     hartree contribution      =   12558.59472150 Ry
     xc contribution           =    -482.03760502 Ry
     ewald contribution        =    9936.48601304 Ry
     electric field correction =       0.00171194 Ry

     convergence has been achieved in  70 iterations

     Forces acting on atoms (cartesian axes, Ry/au):

     atom    1 type  1   force =    -0.00001038    0.00009970    0.10313033
     atom    2 type  1   force =     0.00000490    0.00011220    0.10346257
     atom    3 type  2   force =    -0.00029439    0.00098756    0.09590444
     atom    4 type  2   force =    -0.00015307   -0.00099985    0.10942388
     atom    5 type  2   force =    -0.00015784   -0.00319223   -0.17642602
     atom    6 type  2   force =    -0.00014932    0.00267824   -0.17602747
     atom    7 type  1   force =    -0.07087097    0.00113426   -0.02854267
     atom    8 type  1   force =    -0.07121738   -0.00152759   -0.02857523
     atom    9 type  1   force =     0.07071974    0.00155465   -0.02857475
     atom   10 type  1   force =     0.07093977   -0.00114642   -0.02861959
     atom   11 type  1   force =     0.00048691   -0.00020762    0.05105719
     atom   12 type  1   force =     0.00072235   -0.00042227    0.05033404
     atom   13 type  1   force =     0.00061224    0.00265115   -0.02979049
     atom   14 type  1   force =     0.00055754   -0.00112074   -0.02626182
     atom   15 type  2   force =     0.00019296   -0.00146182   -0.00049319
     atom   16 type  2   force =    -0.00010579    0.00157462   -0.00008716
     atom   17 type  2   force =    -0.00007633   -0.00004534    0.00029950
     atom   18 type  2   force =     0.00008751    0.00060243    0.00041939
     atom   19 type  1   force =    -0.01647862    0.00013111    0.00404781
     atom   20 type  1   force =    -0.01693023   -0.00138404    0.00404784
     atom   21 type  1   force =     0.01271361    0.00185649    0.00029193
     atom   22 type  1   force =     0.01236513    0.00142323    0.00045936
     atom   23 type  1   force =     0.00020207   -0.00009698   -0.00060694
     atom   24 type  1   force =     0.00017495   -0.00041119   -0.00048066
     atom   25 type  1   force =     0.00035057   -0.00003045   -0.00004013
     atom   26 type  1   force =     0.00007070   -0.00043748   -0.00069753
     atom   27 type  2   force =    -0.00001652   -0.00059976   -0.00023885
     atom   28 type  2   force =     0.00015706    0.00009521   -0.00029078
     atom   29 type  2   force =    -0.00012309   -0.00113950    0.00031560
     atom   30 type  2   force =     0.00034795    0.00034515    0.00024585
     atom   31 type  1   force =     0.00012899    0.00005194   -0.00007397
     atom   32 type  1   force =    -0.00011526   -0.00034223    0.00038535
     atom   33 type  1   force =     0.00024781   -0.00017109   -0.00013159
     atom   34 type  1   force =     0.00051443   -0.00037585    0.00024970
     atom   35 type  1   force =    -0.00006383    0.00014727    0.00162791
     atom   36 type  1   force =     0.00033827    0.00014656    0.00035830
     atom   37 type  1   force =     0.00014979   -0.00000141   -0.00016099
     atom   38 type  1   force =     0.00041972   -0.00037241   -0.00002814
     atom   39 type  2   force =     0.00139776    0.00129487   -0.00182606
     atom   40 type  2   force =     0.00052542   -0.00028118    0.00002033
     atom   41 type  2   force =     0.00016051   -0.00035364    0.00091601
     atom   42 type  2   force =     0.00030009    0.00009349    0.00046583
     atom   43 type  1   force =     0.00110696   -0.00002385    0.00008361
     atom   44 type  1   force =     0.00077379    0.00003812    0.00011341
     atom   45 type  1   force =     0.00004070   -0.00000723   -0.00007318
     atom   46 type  1   force =     0.00032631   -0.00027229    0.00010392
     atom   47 type  1   force =     0.00050275    0.00042408   -0.00045155
     atom   48 type  1   force =     0.00292731   -0.00013151   -0.00076336
     atom   49 type  3   force =     0.00101192   -0.00047195    0.00031539
     atom   50 type  4   force =    -0.00791246   -0.00058502   -0.00057000
     atom   51 type  3   force =     0.00161147   -0.00068471    0.00096141
     atom   52 type  3   force =     0.00148551    0.00085532    0.00079121

     Total force =     0.368500     Total SCF correction =     0.000978
  @ DRIVER MODE: Message from server: STATUS
  @ DRIVER MODE: Message from server: GETFORCE
  @ DRIVER MODE: Returning v,forces,stress,ensemble

     Writing output data file ./calc.save/
  @ DRIVER MODE: Message from server: EXIT
  @ DRIVE MODE: Exiting

     General routines

     Parallel routines

   This run was terminated on:  22:21:30  10Sep2021

   JOB DONE.