     Program PWSCF v.6.7GPU starts on 19Oct2021 at 10:11: 9

     R & G space division:  proc/nbgrp/npool/nimage =       8
     Reading input from /storage/home/hcoda1/3/ntian30/research/carbon/CxH_vib/Thiel_calc/ads_slab/NH2NH3H_perslab/out_0047/pw.inp
Warning: card &CELL ignored
Warning: card   CELL_DYNAMICS='IPI', ignored
Warning: card / ignored

     Current dimensions of program PWSCF are:
     Max number of different atomic species (ntypx) = 10
     Max number of k-points (npk) =  40000
     Max angular momentum in pseudopotentials (lmaxx) =  3
     Presently no symmetry can be used with electric field

     Message from routine cell_base_init:
     DEPRECATED: use true lattice parameter, not A to a.u. conversion factor

     IMPORTANT: XC functional enforced from input :
     Exchange-correlation= BEEF-VDW
                           (   1   4  43  14   2   0   0)
     Any further DFT definition will be discarded
     Please, verify this is what you really want

  @ DRIVER MODE: Connecting to
 qe_1139763_3255138.sched-torque.pace.gatech.edu55gv7dpv_scratch
  using UNIX socket
  @ DRIVER MODE: Message from server: STATUS
  @ DRIVER MODE: Message from server: INIT
  @ DRIVER MODE: Receiving replica           0          -1
  @ DRIVER MODE: Receiving encoded integer          25
  @ DRIVER MODE:  SCF:  T  FORCE:  T  STRESS:  F  VC:  F  ENSEMBLE:  F
  @ DRIVER MODE:  SCF:  T  FORCE:  T  STRESS:  F  VC:  F  ENSEMBLE:  F

     Using Slab Decomposition

     bravais-lattice index     =            0
     lattice parameter (alat)  =       1.8897  a.u.
     unit-cell volume          =    9988.4706 (a.u.)^3
     number of atoms/cell      =           61
     number of atomic types    =            4
     number of electrons       =       442.00
     number of Kohn-Sham states=          231
     kinetic-energy cutoff     =      29.3995  Ry
     charge density cutoff     =     293.9946  Ry
     scf convergence threshold =      7.3E-08
     mixing beta               =       0.0500
     number of iterations used =            8  plain     mixing
     Exchange-correlation= BEEF-VDW
                           (   1   4  43  14   2   0   0)

     celldm(1)=   1.889726  celldm(2)=   0.000000  celldm(3)=   0.000000
     celldm(4)=   0.000000  celldm(5)=   0.000000  celldm(6)=   0.000000

     crystal axes: (cart. coord. in units of alat)
               a(1) = (   6.579727   0.000000   0.000000 )
               a(2) = (  -0.001163   8.942395   0.000000 )
               a(3) = (   0.000000   0.000000  25.155947 )

     reciprocal axes: (cart. coord. in units 2 pi/alat)
               b(1) = (  0.151982  0.000020  0.000000 )
               b(2) = (  0.000000  0.111827  0.000000 )
               b(3) = (  0.000000  0.000000  0.039752 )

     PseudoPot. # 1 for O  read from file:
     /storage/coda1/p-amedford6/0/shared/rich_project_chbe-medford/medford-share/data/pseudos_module/espresso/nninc/pbe/van/O.UPF
     MD5 check sum: 78c19812648e8988a0fe644b0f25305e
     Pseudo is Ultrasoft, Zval =  6.0
     Generated by new atomic code, or converted to UPF format
     Using radial grid of  737 points,  4 beta functions with:
                l(1) =   0
                l(2) =   0
                l(3) =   1
                l(4) =   1
     Q(r) pseudized with  8 coefficients,  rinner =    0.800   0.800   0.800

     PseudoPot. # 2 for Ti read from file:
     /storage/coda1/p-amedford6/0/shared/rich_project_chbe-medford/medford-share/data/pseudos_module/espresso/nninc/pbe/van/Ti.UPF
     MD5 check sum: 8e4df49b7f0d34bbd5052bf3f5ea0213
     Pseudo is Ultrasoft, Zval = 12.0
     Generated by new atomic code, or converted to UPF format
     Using radial grid of  851 points,  6 beta functions with:
                l(1) =   0
                l(2) =   0
                l(3) =   1
                l(4) =   1
                l(5) =   2
                l(6) =   2
     Q(r) pseudized with  8 coefficients,  rinner =    1.000   1.000   1.000
                                                       1.000   1.000

     PseudoPot. # 3 for N  read from file:
     /storage/coda1/p-amedford6/0/shared/rich_project_chbe-medford/medford-share/data/pseudos_module/espresso/nninc/pbe/van/N.UPF
     MD5 check sum: 90d10febe142ad51ac9d5be1deb811c4
     Pseudo is Ultrasoft, Zval =  5.0
     Generated by new atomic code, or converted to UPF format
     Using radial grid of  729 points,  4 beta functions with:
                l(1) =   0
                l(2) =   0
                l(3) =   1
                l(4) =   1
     Q(r) pseudized with  8 coefficients,  rinner =    0.800   0.800   0.800

     PseudoPot. # 4 for H  read from file:
     /storage/coda1/p-amedford6/0/shared/rich_project_chbe-medford/medford-share/data/pseudos_module/espresso/nninc/pbe/van/H.UPF
     MD5 check sum: b5ee9d7bfd3a09ee7748110bda690ff7
     Pseudo is Ultrasoft, Zval =  1.0
     Generated by new atomic code, or converted to UPF format
     Using radial grid of  615 points,  1 beta functions with:
                l(1) =   0
     Q(r) pseudized with  8 coefficients,  rinner =    0.800

     atomic species   valence    mass     pseudopotential
        O1             6.00    15.99900     O ( 1.00)
        Ti1           12.00    47.86700     Ti( 1.00)
        N1             5.00    14.00700     N ( 1.00)
        H1             1.00     1.00800     H ( 1.00)

     No symmetry found

   Cartesian axes

     site n.     atom                  positions (alat units)
         1           O1  tau(   1) = (   0.0007354   0.0005023  10.5931620  )
         2           O1  tau(   2) = (   3.2893251   8.9324977  13.8850595  )
         3           O1  tau(   3) = (   0.0000810   0.0519898  17.3357851  )
         4           O1  tau(   4) = (   0.0006271   0.0005054   7.9858123  )
         5           O1  tau(   5) = (   3.2891750   8.9291278  11.1853435  )
         6           O1  tau(   6) = (   0.0004222   0.0485762  14.6167438  )
         7           O1  tau(   7) = (   1.9868534   1.4903216   9.2879459  )
         8           O1  tau(   8) = (   5.2393499   1.5905449  12.5682489  )
         9           O1  tau(   9) = (   1.9991366   1.5492019  16.1124644  )
        10           Ti1 tau(  10) = (   0.0007404   1.4906270   9.2895810  )
        11           Ti1 tau(  11) = (   3.2902999   1.3249318  12.4520864  )
        12           Ti1 tau(  12) = (   0.0005939   1.3452645  15.7597600  )
        13           O1  tau(  13) = (   4.5942328   1.4918067   9.2879030  )
        14           O1  tau(  14) = (   1.3411764   1.5910169  12.5684512  )
        15           O1  tau(  15) = (   4.5798538   1.5480364  16.1129854  )
        16           Ti1 tau(  16) = (   3.2902859   2.9801868   9.2893338  )
        17           Ti1 tau(  17) = (   0.0006295   2.8174385  12.4372122  )
        18           Ti1 tau(  18) = (   3.2897038   2.9127836  15.6935398  )
        19           O1  tau(  19) = (   0.0003479   2.9813005  10.5931620  )
        20           O1  tau(  20) = (   3.2904107   2.9319293  13.8952334  )
        21           O1  tau(  21) = (   0.0002396   2.9813036   7.9858123  )
        22           O1  tau(  22) = (   3.2903884   2.9732875  11.2024877  )
        23           O1  tau(  23) = (   6.5791771   2.9400465  14.7470945  )
        24           O1  tau(  24) = (   1.9864658   4.4711199   9.2879459  )
        25           O1  tau(  25) = (   5.2507180   4.5586503  12.6053682  )
        26           O1  tau(  26) = (   1.9989508   4.4013585  16.0758979  )
        27           Ti1 tau(  27) = (   0.0003529   4.4714252   9.2895810  )
        28           Ti1 tau(  28) = (   3.2908498   4.3294621  12.5515864  )
        29           Ti1 tau(  29) = (   0.0012874   4.5361023  15.7587160  )
        30           O1  tau(  30) = (   4.5938453   4.4726049   9.2879030  )
        31           O1  tau(  31) = (   1.3295807   4.5581274  12.6051842  )
        32           O1  tau(  32) = (   4.5807093   4.4011557  16.0767203  )
        33           Ti1 tau(  33) = (   3.2898983   5.9609850   9.2893338  )
        34           Ti1 tau(  34) = (   0.0011720   5.8030845  12.4395124  )
        35           Ti1 tau(  35) = (   3.2913837   5.8399099  16.1904745  )
        36           O1  tau(  36) = (  -0.0000397   5.9620987  10.5931620  )
        37           O1  tau(  37) = (   3.2897076   5.9457256  13.9643012  )
        38           O1  tau(  38) = (   0.0001823   5.8979554  17.1998916  )
        39           O1  tau(  39) = (  -0.0001480   5.9621018   7.9858123  )
        40           O1  tau(  40) = (   3.2897623   5.9362706  11.2341171  )
        41           O1  tau(  41) = (   0.0004469   5.9800359  14.6665197  )
        42           O1  tau(  42) = (   1.9860782   7.4519181   9.2879459  )
        43           O1  tau(  43) = (   5.2507221   7.5245448  12.5933772  )
        44           O1  tau(  44) = (   1.9799843   7.5745874  16.0532815  )
        45           Ti1 tau(  45) = (  -0.0000347   7.4522234   9.2895810  )
        46           Ti1 tau(  46) = (   3.2894177   7.1911746  12.6495270  )
        47           Ti1 tau(  47) = (   0.0007314   7.2822180  16.1322395  )
        48           O1  tau(  48) = (   4.5934577   7.4534031   9.2879030  )
        49           O1  tau(  49) = (   1.3275845   7.5244469  12.5935105  )
        50           O1  tau(  50) = (   4.5990354   7.5728923  16.0522427  )
        51           Ti1 tau(  51) = (   3.2895107   8.9417832   9.2893338  )
        52           Ti1 tau(  52) = (  -0.0007012   8.7603021  12.4499776  )
        53           Ti1 tau(  53) = (   3.2901857   8.8509785  15.6953962  )
        54           N1  tau(  54) = (   3.2899770   5.9827455  18.1265562  )
        55           H1  tau(  55) = (   3.2886311   5.2071789  18.7771882  )
        56           H1  tau(  56) = (   3.2869209   6.8541504  18.6418389  )
        57           H1  tau(  57) = (   6.5771076   8.8877891  18.2917622  )
        58           N1  tau(  58) = (   6.5788838   3.2021548  17.9140464  )
        59           H1  tau(  59) = (   6.5785461   2.2502248  18.2648563  )
        60           H1  tau(  60) = (   5.7591345   3.6762813  18.2792932  )
        61           H1  tau(  61) = (   0.8178175   3.6764091  18.2710048  )

     number of k points=    10  Fermi-Dirac smearing, width (Ry)=  0.0073
                       cart. coord. in units 2pi/alat
        k(    1) = (   0.0000000   0.0000000   0.0000000), wk =   0.1250000
        k(    2) = (   0.0000000   0.0279567   0.0000000), wk =   0.2500000
        k(    3) = (   0.0000000  -0.0559134   0.0000000), wk =   0.1250000
        k(    4) = (   0.0379955   0.0000049   0.0000000), wk =   0.2500000
        k(    5) = (   0.0379955   0.0279617   0.0000000), wk =   0.2500000
        k(    6) = (   0.0379955  -0.0559085   0.0000000), wk =   0.2500000
        k(    7) = (   0.0379955  -0.0279518   0.0000000), wk =   0.2500000
        k(    8) = (  -0.0759910  -0.0000099   0.0000000), wk =   0.1250000
        k(    9) = (  -0.0759910   0.0279468   0.0000000), wk =   0.2500000
        k(   10) = (  -0.0759910  -0.0559233   0.0000000), wk =   0.1250000

     Initial potential from superposition of free atoms

     starting charge  423.99908, renormalised to  442.00000

     negative rho (up, down):  3.661E-02 0.000E+00

     %%%%%%%%%%%%%%%%%%%%%%%%%%%%%%%%%%%%%%%%%%%%%%%%%%%%%%%%%%%%%%%%%%%%%%%%
     %                                                                      %
     % You are using vdW-DF, which was implemented by the Thonhauser group. %
     % Please cite the following two papers that made this development      %
     % possible and the two reviews that describe the various versions:     %
     %                                                                      %
     %   T. Thonhauser et al., PRL 115, 136402 (2015).                      %
     %   T. Thonhauser et al., PRB 76, 125112 (2007).                       %
     %   K. Berland et al., Rep. Prog. Phys. 78, 066501 (2015).             %
     %   D.C. Langreth et al., J. Phys.: Condens. Matter 21, 084203 (2009). %
     %                                                                      %
     %                                                                      %
     % If you are calculating the stress with vdW-DF, please also cite:     %
     %                                                                      %
     %   R. Sabatini et al., J. Phys.: Condens. Matter 24, 424209 (2012).   %
     %                                                                      %
     %%%%%%%%%%%%%%%%%%%%%%%%%%%%%%%%%%%%%%%%%%%%%%%%%%%%%%%%%%%%%%%%%%%%%%%%

     Adding external electric field

     Computed dipole along edir(3) :
        Dipole               -6.2835 Ry au,        -15.9711 Debye
        Dipole field         -0.0079 Ry au,

        Potential amp.        0.7328 Ry
        Total length         46.3494 bohr

     Starting wfcs are  334 atomic wfcs
  @ DRIVER MODE: Message from server: STATUS
  @ DRIVER MODE: Message from server: POSDATA
  @ DRIVER MODE: Reading and sharing cell
  @ DRIVER MODE: Reading and sharing positions
  @ DRIVER MODE: Received positions

     Self-consistent Calculation

     iteration #  1     ecut=    29.40 Ry     beta= 0.05
     Davidson diagonalization with overlap
     c_bands:  2 eigenvalues not converged
     c_bands:  4 eigenvalues not converged
     c_bands:  3 eigenvalues not converged
     c_bands:  4 eigenvalues not converged
     c_bands:  5 eigenvalues not converged
     c_bands:  3 eigenvalues not converged
     c_bands:  2 eigenvalues not converged
     c_bands:  2 eigenvalues not converged
     ethr =  1.00E-05,  avg # of iterations = 21.5

[...]

     total energy              =   -3276.11647567 Ry
     estimated scf accuracy    <     260.16757295 Ry

     iteration #  2     ecut=    29.40 Ry     beta= 0.05
     Davidson diagonalization with overlap
     ethr =  1.00E-02,  avg # of iterations = 15.4

[...]

     iteration # 50     ecut=    29.40 Ry     beta= 0.05
     Davidson diagonalization with overlap
     c_bands:  1 eigenvalues not converged
     ethr =  6.50E-11,  avg # of iterations =  9.6

[...]

     total energy              =   -3295.82443888 Ry
     estimated scf accuracy    <       0.00000008 Ry

     iteration # 56     ecut=    29.40 Ry     beta= 0.05
     Davidson diagonalization with overlap
     ethr =  1.84E-11,  avg # of iterations =  8.4

     negative rho (up, down):  3.546E-02 0.000E+00

     Adding external electric field

     Computed dipole along edir(3) :
        Dipole                1.9293 Ry au,          4.9037 Debye
        Dipole field          0.0024 Ry au,

        Potential amp.       -0.2250 Ry
        Total length         46.3494 bohr

     End of self-consistent calculation

          k = 0.0000 0.0000 0.0000 ( 26871 PWs)   bands (ev):

   -57.4700 -57.4347 -57.4220 -57.3823 -57.3734 -57.3650 -57.3547 -57.3435
   -57.3227 -57.2843 -57.2778 -57.2411 -57.2196 -57.2030 -57.1835 -56.5434
   -56.5191 -56.5131 -33.9405 -33.8540 -33.8529 -33.8310 -33.8110 -33.7936
   -33.7758 -33.7718 -33.7681 -33.7548 -33.7295 -33.7085 -33.7031 -33.6888
   -33.6869 -33.6824 -33.6617 -33.6529 -33.6314 -33.6259 -33.5943 -33.5797
   -33.5622 -33.5578 -33.5502 -33.5494 -33.5458 -33.5382 -33.5263 -33.5232
   -33.5164 -33.5021 -33.4933 -33.4925 -33.4857 -33.4842 -33.4755 -33.4736
   -33.4655 -33.4547 -33.4429 -33.4260 -33.4103 -33.4038 -33.3892 -32.8621
   -32.8539 -32.8529 -32.8362 -32.8308 -32.7714 -32.7101 -32.7028 -32.5713
   -19.3439 -18.2741 -17.9754 -17.7774 -17.7272 -17.6937 -17.5816 -17.5498
   -17.4970 -17.4434 -17.4069 -17.3637 -17.2891 -17.2487 -17.2474 -17.2228
   -17.1687 -17.1449 -17.1369 -17.1267 -17.1249 -17.1001 -17.0506 -17.0469
   -16.9902 -16.9488 -16.9172 -16.9069 -16.8983 -16.8659 -16.8583 -16.8052
   -16.6065 -15.0257 -15.0092 -14.9502 -14.9468  -7.8735  -7.6505  -7.3907
    -6.4615  -5.5826  -5.4308  -5.3997  -5.2359  -4.9644  -4.9127  -4.8694
    -4.8231  -4.7856  -4.7472  -4.7243  -4.6952  -4.6638  -4.6116  -4.5812
    -4.5648  -4.5312  -4.5115  -4.4803  -4.4504  -4.4452  -4.4156  -4.3268
    -4.3173  -4.2938  -4.2761  -4.2399  -4.2223  -4.2196  -4.1704  -4.1592
    -4.0699  -3.9837  -3.8977  -3.8453  -3.8188  -3.7956  -3.7481  -3.7108
    -3.6815  -3.6372  -3.6171  -3.5482  -3.5204  -3.5101  -3.4339  -3.3991
    -3.3034  -3.2654  -3.2542  -3.2334  -3.1910  -3.1792  -3.0919  -3.0842
    -2.9744  -2.9559  -2.8637  -2.7924  -2.7429  -2.7151  -2.6771  -2.6154
    -2.5959  -2.5497  -2.5222  -2.4619  -2.4478  -2.3218  -2.2543  -2.2508
    -2.2306  -2.1923  -2.1629  -2.1490  -2.1264  -2.1234  -2.0449  -2.0361
    -1.9863  -1.9112  -1.8855  -1.8487  -1.8360  -1.8006  -1.7584  -1.6936
    -1.6882  -1.6526  -1.5650  -1.5039  -1.5028  -1.3565  -1.3505  -1.3171
    -1.2688  -1.2151  -1.1846  -0.7822  -0.6062  -0.4364  -0.3106  -0.2499
    -0.2485   0.0261   0.0311   0.1635   1.6123   1.7634   1.8238   1.9577
     1.9762   2.0354   2.1170   2.1392   2.2060   2.2336   2.2434

[...]

          k = 0.0380-0.0280 0.0000 ( 26873 PWs)   bands (ev):

[...]

          k =-0.0760-0.0000 0.0000 ( 26902 PWs)   bands (ev):

[...]

          k =-0.0760-0.0559 0.0000 ( 26868 PWs)   bands (ev):

   -57.4683 -57.4394 -57.4190 -57.3798 -57.3692 -57.3669 -57.3631 -57.3401
   -57.3223 -57.2841 -57.2782 -57.2375 -57.2262 -57.2001 -57.1834 -56.5381
   -56.5301 -56.5073 -33.9853 -33.9367 -33.8648 -33.8204 -33.8041 -33.7921
   -33.7855 -33.7776 -33.7672 -33.7457 -33.7167 -33.6982 -33.6609 -33.6586
   -33.6391 -33.6257 -33.6111 -33.5974 -33.5963 -33.5918 -33.5874 -33.5778
   -33.5739 -33.5669 -33.5649 -33.5521 -33.5441 -33.5295 -33.5233 -33.5216
   -33.5171 -33.5167 -33.5128 -33.5097 -33.5077 -33.4962 -33.4898 -33.4860
   -33.4832 -33.4760 -33.4485 -33.4424 -33.4370 -33.4250 -33.4010 -32.9495
   -32.8547 -32.8466 -32.8249 -32.7541 -32.7456 -32.6851 -32.6720 -32.6643
   -19.3372 -17.9713 -17.8326 -17.8282 -17.6508 -17.6058 -17.6018 -17.5319
   -17.4861 -17.4414 -17.4361 -17.4048 -17.3560 -17.3316 -17.3022 -17.2765
   -17.2607 -17.2256 -17.1843 -17.1833 -17.1496 -17.1164 -17.0898 -17.0476
   -17.0411 -16.9866 -16.9228 -16.8853 -16.8608 -16.8585 -16.8221 -16.7968
   -16.6396 -15.0262 -15.0071 -15.0028 -14.8869  -7.8814  -7.6681  -7.3799
    -6.4530  -5.2170  -5.1794  -5.1340  -5.0408  -5.0027  -4.9713  -4.8352
    -4.7750  -4.7333  -4.6884  -4.6455  -4.6379  -4.6237  -4.5679  -4.5506
    -4.5351  -4.4889  -4.4481  -4.4277  -4.4050  -4.4034  -4.3999  -4.3968
    -4.2648  -4.2516  -4.2005  -4.1800  -4.1576  -4.1348  -4.1314  -4.0780
    -4.0359  -3.9948  -3.9828  -3.9569  -3.8946  -3.8372  -3.7566  -3.6594
    -3.6484  -3.5915  -3.5815  -3.4884  -3.4834  -3.3886  -3.3270  -3.2820
    -3.2536  -3.2287  -3.1522  -3.1472  -3.1382  -3.0879  -3.0534  -3.0252
    -2.9773  -2.9669  -2.9221  -2.8189  -2.7840  -2.7255  -2.6991  -2.6940
    -2.6380  -2.6335  -2.5968  -2.5950  -2.5884  -2.5435  -2.4887  -2.4539
    -2.4379  -2.4062  -2.3174  -2.2933  -2.2404  -2.2326  -2.1670  -2.1497
    -2.1382  -2.0745  -2.0227  -1.9916  -1.9835  -1.9098  -1.8062  -1.7479
    -1.7260  -1.7046  -1.5987  -1.5501  -1.4945  -1.4518  -1.2694  -1.2572
    -1.1848  -1.1451  -1.0921  -1.0435  -0.8564  -0.4577  -0.4058  -0.1883
    -0.1730  -0.1356   0.0308   0.0365   1.7049   1.7165   1.8140   1.8554
     1.9173   1.9281   1.9724   1.9895   1.9994   2.0455   2.0512

     the Fermi energy is     1.6438 ev

!    total energy              =   -3295.82449552 Ry
     estimated scf accuracy    <       0.00000006 Ry
     smearing contrib. (-TS)   =      -0.03670383 Ry
     internal energy E=F+TS    =   -3295.78779169 Ry

     The total energy is F=E-TS. E is the sum of the following terms:
     one-electron contribution =  -34290.42173563 Ry
     hartree contribution      =   17214.19233451 Ry
     xc contribution           =    -543.77658600 Ry
     ewald contribution        =   14324.21351277 Ry
     electric field correction =       0.00468266 Ry

     convergence has been achieved in  56 iterations

     Forces acting on atoms (cartesian axes, Ry/au):

     atom    1 type  1   force =     0.00001428    0.00240124    0.05210518
     atom    2 type  1   force =    -0.00004607   -0.00060897   -0.00558969
     atom    3 type  1   force =     0.00003098   -0.00288535   -0.00289966
     atom    4 type  1   force =     0.00005428   -0.00037047    0.10763318
     atom    5 type  1   force =    -0.00002230    0.00171257    0.00528524
     atom    6 type  1   force =     0.00001133   -0.00054624    0.00053075
     atom    7 type  1   force =     0.06435734    0.00076886   -0.03003543
     atom    8 type  1   force =     0.00531540   -0.02658352    0.00244716
     atom    9 type  1   force =     0.00841472   -0.01285875   -0.00073145
     atom   10 type  2   force =    -0.00006408   -0.00536578   -0.18728513
     atom   11 type  2   force =     0.00012603    0.02016376   -0.00480064
     atom   12 type  2   force =    -0.00017609    0.01857575   -0.00045947
     atom   13 type  1   force =    -0.06446193    0.00029324   -0.02999414
     atom   14 type  1   force =    -0.00513233   -0.02679256    0.00247514
     atom   15 type  1   force =    -0.00844210   -0.01281481   -0.00077305
     atom   16 type  2   force =     0.00009528   -0.00105110    0.07211358
     atom   17 type  2   force =    -0.00026626    0.03302537    0.00618160
     atom   18 type  2   force =     0.00014074    0.00452646   -0.00760099
     atom   19 type  1   force =     0.00001559    0.00395297    0.05307733
     atom   20 type  1   force =    -0.00004224   -0.00055649   -0.00170418
     atom   21 type  1   force =     0.00005434    0.00130237    0.10848943
     atom   22 type  1   force =    -0.00002612   -0.00119601    0.00629426
     atom   23 type  1   force =     0.00004636   -0.00516599    0.00189844
     atom   24 type  1   force =     0.06587098    0.00139069   -0.02849764
     atom   25 type  1   force =     0.00546770   -0.02924989    0.00263079
     atom   26 type  1   force =     0.00963934   -0.00201858   -0.00010106
     atom   27 type  2   force =    -0.00006936   -0.00076875   -0.19124609
     atom   28 type  2   force =     0.00014971    0.02479796   -0.00470414
     atom   29 type  2   force =    -0.00030659   -0.00423284    0.00909327
     atom   30 type  1   force =    -0.06597494    0.00095200   -0.02846943
     atom   31 type  1   force =    -0.00531736   -0.02937161    0.00266997
     atom   32 type  1   force =    -0.00971387   -0.00191893   -0.00023181
     atom   33 type  2   force =     0.00013486    0.00069333    0.08049622
     atom   34 type  2   force =    -0.00029266    0.03538466    0.00620952
     atom   35 type  2   force =     0.00013037    0.01553822    0.00202529
     atom   36 type  1   force =     0.00006573    0.00027152    0.05320207
     atom   37 type  1   force =    -0.00003784    0.00175839   -0.00889308
     atom   38 type  1   force =     0.00003941    0.00126577   -0.00008876
     atom   39 type  1   force =     0.00005478   -0.00116941    0.10821301
     atom   40 type  1   force =    -0.00003409   -0.00138415    0.00602630
     atom   41 type  1   force =     0.00002179    0.00391822    0.00141995
     atom   42 type  1   force =     0.06613211   -0.00348604   -0.02909159
     atom   43 type  1   force =     0.00365393   -0.02410170    0.00085761
     atom   44 type  1   force =     0.01421417   -0.01861924    0.00310854
     atom   45 type  2   force =    -0.00009524    0.00311207   -0.18718139
     atom   46 type  2   force =     0.00013730    0.01625046    0.00222551
     atom   47 type  2   force =    -0.00007782    0.01865270   -0.00293832
     atom   48 type  1   force =    -0.06623122   -0.00392198   -0.02904942
     atom   49 type  1   force =    -0.00340420   -0.02429373    0.00087204
     atom   50 type  1   force =    -0.01421771   -0.01856490    0.00311171
     atom   51 type  2   force =     0.00012859   -0.00294590    0.07342766
     atom   52 type  2   force =    -0.00027823    0.03104540    0.00787098
     atom   53 type  2   force =     0.00002834    0.02028963    0.00049274
     atom   54 type  3   force =     0.00000772   -0.00079116   -0.00287214
     atom   55 type  4   force =    -0.00000425   -0.00038606    0.00067926
     atom   56 type  4   force =    -0.00004162    0.00034754   -0.00027806
     atom   57 type  4   force =    -0.00005235   -0.00019451   -0.00003122
     atom   58 type  3   force =    -0.00536518   -0.00276265   -0.00271148
     atom   59 type  4   force =     0.00050844    0.00058680    0.00051372
     atom   60 type  4   force =     0.00066687    0.00084209    0.00083414
     atom   61 type  4   force =     0.00446521    0.00315803    0.00374787

     Total force =     0.459490     Total SCF correction =     0.000839
  @ DRIVER MODE: Message from server: STATUS
  @ DRIVER MODE: Message from server: GETFORCE
  @ DRIVER MODE: Returning v,forces,stress,ensemble

     Writing output data file ./calc.save/
  @ DRIVER MODE: Message from server: EXIT
  @ DRIVE MODE: Exiting

     General routines

     Parallel routines

   This run was terminated on:  10:41:19  19Oct2021

   JOB DONE.