     Program PWSCF v.6.7GPU starts on  2Aug2021 at 13:23: 8

     R & G space division:  proc/nbgrp/npool/nimage =      16
     Reading input from /storage/home/hcoda1/3/ntian30/research/carbon/02Aug_vib_paired/ads_slab/CH3NNHH_a/out_0005/pw.inp
Warning: card &CELL ignored
Warning: card   CELL_DYNAMICS='IPI', ignored
Warning: card / ignored

     Current dimensions of program PWSCF are:
     Max number of different atomic species (ntypx) = 10
     Max number of k-points (npk) =  40000
     Max angular momentum in pseudopotentials (lmaxx) =  3
     Presently no symmetry can be used with electric field

     Message from routine cell_base_init:
     DEPRECATED: use true lattice parameter, not A to a.u. conversion factor

     IMPORTANT: XC functional enforced from input :
     Exchange-correlation= BEEF-VDW
                           (   1   4  43  14   2   0   0)
     Any further DFT definition will be discarded
     Please, verify this is what you really want

  @ DRIVER MODE: Connecting to
 qe_1139763_2482543.sched-torque.pace.gatech.edu8opwtfm__scratch
  using UNIX socket
  @ DRIVER MODE: Message from server: STATUS
  @ DRIVER MODE: Message from server: INIT
  @ DRIVER MODE: Receiving replica           0          -1
  @ DRIVER MODE: Receiving encoded integer          25
  @ DRIVER MODE:  SCF:  T  FORCE:  T  STRESS:  F  VC:  F  ENSEMBLE:  F
  @ DRIVER MODE:  SCF:  T  FORCE:  T  STRESS:  F  VC:  F  ENSEMBLE:  F

     Using Slab Decomposition

     bravais-lattice index     =            0
     lattice parameter (alat)  =       1.8897  a.u.
     unit-cell volume          =    6658.9804 (a.u.)^3
     number of atoms/cell      =           55
     number of atomic types    =            5
     number of electrons       =       397.00
     number of Kohn-Sham states=          208
     kinetic-energy cutoff     =      29.3995  Ry
     charge density cutoff     =     293.9946  Ry
     scf convergence threshold =      7.3E-08
     mixing beta               =       0.0500
     number of iterations used =            8  plain     mixing
     Exchange-correlation= BEEF-VDW
                           (   1   4  43  14   2   0   0)

     celldm(1)=   1.889726  celldm(2)=   0.000000  celldm(3)=   0.000000
     celldm(4)=   0.000000  celldm(5)=   0.000000  celldm(6)=   0.000000

     crystal axes: (cart. coord. in units of alat)
               a(1) = (   6.579727   0.000000   0.000000 )
               a(2) = (  -0.000775   5.961596   0.000000 )
               a(3) = (   0.000000   0.000000  25.155947 )

     reciprocal axes: (cart. coord. in units 2 pi/alat)
               b(1) = (  0.151982  0.000020  0.000000 )
               b(2) = (  0.000000  0.167740  0.000000 )
               b(3) = (  0.000000  0.000000  0.039752 )

     PseudoPot. # 1 for Ti read from file:
     /storage/coda1/p-amedford6/0/shared/rich_project_chbe-medford/medford-share/data/pseudos_module/espresso/nninc/pbe/van/Ti.UPF
     MD5 check sum: 8e4df49b7f0d34bbd5052bf3f5ea0213
     Pseudo is Ultrasoft, Zval = 12.0
     Generated by new atomic code, or converted to UPF format
     Using radial grid of  851 points,  6 beta functions with:
                l(1) =   0
                l(2) =   0
                l(3) =   1
                l(4) =   1
                l(5) =   2
                l(6) =   2
     Q(r) pseudized with  8 coefficients,  rinner =    1.000   1.000   1.000
                                                       1.000   1.000

     PseudoPot. # 2 for O  read from file:
     /storage/coda1/p-amedford6/0/shared/rich_project_chbe-medford/medford-share/data/pseudos_module/espresso/nninc/pbe/van/O.UPF
     MD5 check sum: 78c19812648e8988a0fe644b0f25305e
     Pseudo is Ultrasoft, Zval =  6.0
     Generated by new atomic code, or converted to UPF format
     Using radial grid of  737 points,  4 beta functions with:
                l(1) =   0
                l(2) =   0
                l(3) =   1
                l(4) =   1
     Q(r) pseudized with  8 coefficients,  rinner =    0.800   0.800   0.800

     PseudoPot. # 3 for N  read from file:
     /storage/coda1/p-amedford6/0/shared/rich_project_chbe-medford/medford-share/data/pseudos_module/espresso/nninc/pbe/van/N.UPF
     MD5 check sum: 90d10febe142ad51ac9d5be1deb811c4
     Pseudo is Ultrasoft, Zval =  5.0
     Generated by new atomic code, or converted to UPF format
     Using radial grid of  729 points,  4 beta functions with:
                l(1) =   0
                l(2) =   0
                l(3) =   1
                l(4) =   1
     Q(r) pseudized with  8 coefficients,  rinner =    0.800   0.800   0.800

     PseudoPot. # 4 for C  read from file:
     /storage/coda1/p-amedford6/0/shared/rich_project_chbe-medford/medford-share/data/pseudos_module/espresso/nninc/pbe/van/C.UPF
     MD5 check sum: 1a69bf6b8db32088f5b2163dbdb77a27
     Pseudo is Ultrasoft, Zval =  4.0
     Generated by new atomic code, or converted to UPF format
     Using radial grid of  721 points,  4 beta functions with:
                l(1) =   0
                l(2) =   0
                l(3) =   1
                l(4) =   1
     Q(r) pseudized with  8 coefficients,  rinner =    0.800   0.800   0.800

     PseudoPot. # 5 for H  read from file:
     /storage/coda1/p-amedford6/0/shared/rich_project_chbe-medford/medford-share/data/pseudos_module/espresso/nninc/pbe/van/H.UPF
     MD5 check sum: b5ee9d7bfd3a09ee7748110bda690ff7
     Pseudo is Ultrasoft, Zval =  1.0
     Generated by new atomic code, or converted to UPF format
     Using radial grid of  615 points,  1 beta functions with:
                l(1) =   0
     Q(r) pseudized with  8 coefficients,  rinner =    0.800

     atomic species   valence    mass     pseudopotential
        Ti1           12.00    47.86700     Ti( 1.00)
        O1             6.00    15.99900     O ( 1.00)
        N1             5.00    14.00700     N ( 1.00)
        C1             4.00    12.01100     C ( 1.00)
        H1             1.00     1.00800     H ( 1.00)

     No symmetry found

   Cartesian axes

     site n.     atom                  positions (alat units)
         1           Ti1 tau(   1) = (   0.0004258   2.9801865   6.0000000  )
         2           Ti1 tau(   2) = (   3.2906075   1.4906267   6.0002472  )
         3           O1  tau(   3) = (   0.0006271   0.0005054   7.9858123  )
         4           O1  tau(   4) = (   3.2906025   0.0005020   7.3038282  )
         5           O1  tau(   5) = (   4.5942328   1.4918067   9.2879030  )
         6           O1  tau(   6) = (   1.9868534   1.4903216   9.2879459  )
         7           Ti1 tau(   7) = (   3.2907910   2.8959150   9.1758416  )
         8           Ti1 tau(   8) = (   0.0015273   1.4827037   9.2680791  )
         9           O1  tau(   9) = (   3.3049802   0.0007868  11.3057318  )
        10           O1  tau(  10) = (   0.0116148   5.9584955  10.6183126  )
        11           O1  tau(  11) = (   1.3244024   1.4905818  12.6109357  )
        12           O1  tau(  12) = (   5.3168099   1.4893704  12.6271843  )
        13           Ti1 tau(  13) = (   6.5373159   3.0114403  12.6515439  )
        14           Ti1 tau(  14) = (   3.2156784   1.4952808  12.4541107  )
        15           O1  tau(  15) = (   0.0550716   5.9579553  14.6769760  )
        16           O1  tau(  16) = (   3.3119233   0.0240268  13.8744051  )
        17           O1  tau(  17) = (   4.5754650   1.5399768  16.1198157  )
        18           O1  tau(  18) = (   2.0928293   1.5118261  15.9950610  )
        19           Ti1 tau(  19) = (   3.3312717   3.0210965  15.6459898  )
        20           Ti1 tau(  20) = (   0.0837956   1.4057146  15.8023643  )
        21           O1  tau(  21) = (   3.2904802   0.0005063   4.7018136  )
        22           O1  tau(  22) = (   0.0662678   0.0194342  17.2484716  )
        23           O1  tau(  23) = (   1.3043587   1.4918075   6.0039043  )
        24           O1  tau(  24) = (   5.2767064   1.4903225   6.0039473  )
        25           Ti1 tau(  25) = (   0.0000382   5.9609847   6.0000000  )
        26           Ti1 tau(  26) = (   3.2902200   4.4714249   6.0002472  )
        27           O1  tau(  27) = (   0.0002396   2.9813036   7.9858123  )
        28           O1  tau(  28) = (   3.2902150   2.9813002   7.3038282  )
        29           O1  tau(  29) = (   4.5938453   4.4726049   9.2879030  )
        30           O1  tau(  30) = (   1.9864658   4.4711199   9.2879459  )
        31           Ti1 tau(  31) = (   3.2891106   5.8743827   9.1763621  )
        32           Ti1 tau(  32) = (   0.0006254   4.4649316   9.2693709  )
        33           O1  tau(  33) = (   3.3066024   2.9928613  11.3071500  )
        34           O1  tau(  34) = (   0.0092240   2.9805883  10.6323155  )
        35           O1  tau(  35) = (   1.3207996   4.4694119  12.6241097  )
        36           O1  tau(  36) = (   5.3140488   4.4801720  12.6365454  )
        37           Ti1 tau(  37) = (   6.5381296   0.0208815  12.5444857  )
        38           Ti1 tau(  38) = (   3.2183512   4.4801350  12.4586296  )
        39           O1  tau(  39) = (   0.0202472   2.9427232  14.7250097  )
        40           O1  tau(  40) = (   3.3152672   2.9848540  13.8607131  )
        41           O1  tau(  41) = (   4.5737023   4.5140360  15.9163038  )
        42           O1  tau(  42) = (   2.1295162   4.4918226  16.0779194  )
        43           Ti1 tau(  43) = (   3.3279662   0.0229233  15.6733299  )
        44           Ti1 tau(  44) = (   6.5520288   4.5036137  16.2892914  )
        45           O1  tau(  45) = (   3.2900926   2.9813045   4.7018136  )
        46           O1  tau(  46) = (   1.3039711   4.4726057   6.0039043  )
        47           O1  tau(  47) = (   5.2763189   4.4711207   6.0039473  )
        48           N1  tau(  48) = (   0.3708600   2.9881754  17.5930774  )
        49           C1  tau(  49) = (   1.3543844   2.7351176  18.6431602  )
        50           H1  tau(  50) = (   1.5086739   3.6319226  19.2591966  )
        51           H1  tau(  51) = (   1.0320479   1.9069190  19.2840631  )
        52           H1  tau(  52) = (   2.3019873   2.4496563  18.1994378  )
        53           N1  tau(  53) = (   5.7269228   3.4566738  18.1314761  )
        54           H1  tau(  54) = (   5.8315057   4.0292447  18.9662490  )
        55           H1  tau(  55) = (   5.0361168   2.7172796  18.2515220  )

     number of k points=    10  Fermi-Dirac smearing, width (Ry)=  0.0073
                       cart. coord. in units 2pi/alat
        k(    1) = (   0.0000000   0.0000000   0.0000000), wk =   0.1250000
        k(    2) = (   0.0000000   0.0419351   0.0000000), wk =   0.2500000
        k(    3) = (   0.0000000  -0.0838702   0.0000000), wk =   0.1250000
        k(    4) = (   0.0379955   0.0000049   0.0000000), wk =   0.2500000
        k(    5) = (   0.0379955   0.0419400   0.0000000), wk =   0.2500000
        k(    6) = (   0.0379955  -0.0838652   0.0000000), wk =   0.2500000
        k(    7) = (   0.0379955  -0.0419301   0.0000000), wk =   0.2500000
        k(    8) = (  -0.0759910  -0.0000099   0.0000000), wk =   0.1250000
        k(    9) = (  -0.0759910   0.0419252   0.0000000), wk =   0.2500000
        k(   10) = (  -0.0759910  -0.0838800   0.0000000), wk =   0.1250000

     Initial potential from superposition of free atoms

     starting charge  380.99914, renormalised to  397.00000

     negative rho (up, down):  1.665E-02 0.000E+00

     %%%%%%%%%%%%%%%%%%%%%%%%%%%%%%%%%%%%%%%%%%%%%%%%%%%%%%%%%%%%%%%%%%%%%%%%
     %                                                                      %
     % You are using vdW-DF, which was implemented by the Thonhauser group. %
     % Please cite the following two papers that made this development      %
     % possible and the two reviews that describe the various versions:     %
     %                                                                      %
     %   T. Thonhauser et al., PRL 115, 136402 (2015).                      %
     %   T. Thonhauser et al., PRB 76, 125112 (2007).                       %
     %   K. Berland et al., Rep. Prog. Phys. 78, 066501 (2015).             %
     %   D.C. Langreth et al., J. Phys.: Condens. Matter 21, 084203 (2009). %
     %                                                                      %
     %                                                                      %
     % If you are calculating the stress with vdW-DF, please also cite:     %
     %                                                                      %
     %   R. Sabatini et al., J. Phys.: Condens. Matter 24, 424209 (2012).   %
     %                                                                      %
     %%%%%%%%%%%%%%%%%%%%%%%%%%%%%%%%%%%%%%%%%%%%%%%%%%%%%%%%%%%%%%%%%%%%%%%%

     Adding external electric field

     Computed dipole along edir(3) :
        Dipole               -9.2500 Ry au,        -23.5112 Debye
        Dipole field         -0.0175 Ry au,

        Potential amp.        1.6182 Ry
        Total length         46.3494 bohr

     Starting wfcs are  301 atomic wfcs
  @ DRIVER MODE: Message from server: STATUS
  @ DRIVER MODE: Message from server: POSDATA
  @ DRIVER MODE: Reading and sharing cell
  @ DRIVER MODE: Reading and sharing positions
  @ DRIVER MODE: Received positions

     Self-consistent Calculation

     iteration #  1     ecut=    29.40 Ry     beta= 0.05
     Davidson diagonalization with overlap
     c_bands:  1 eigenvalues not converged
     c_bands:  2 eigenvalues not converged
     c_bands:  1 eigenvalues not converged
     c_bands:  2 eigenvalues not converged
     c_bands:  2 eigenvalues not converged
     c_bands:  1 eigenvalues not converged
     c_bands:  2 eigenvalues not converged
     c_bands:  2 eigenvalues not converged
     c_bands:  4 eigenvalues not converged
     ethr =  1.00E-05,  avg # of iterations = 19.7

[...]

     total energy              =   -2525.58807262 Ry
     estimated scf accuracy    <    4612.59873973 Ry

     iteration #  2     ecut=    29.40 Ry     beta= 0.05
     Davidson diagonalization with overlap
     ethr =  1.00E-02,  avg # of iterations = 23.5

[...]

     iteration # 74     ecut=    29.40 Ry     beta= 0.05
     Davidson diagonalization with overlap
     c_bands:  1 eigenvalues not converged
     ethr =  6.61E-11,  avg # of iterations = 10.2

[...]

     total energy              =   -2941.63739713 Ry
     estimated scf accuracy    <       0.00000021 Ry

     iteration # 76     ecut=    29.40 Ry     beta= 0.05
     Davidson diagonalization with overlap
     ethr =  5.32E-11,  avg # of iterations =  7.2

     negative rho (up, down):  1.676E-02 0.000E+00

     Adding external electric field

     Computed dipole along edir(3) :
        Dipole                1.1559 Ry au,          2.9379 Debye
        Dipole field          0.0022 Ry au,

        Potential amp.       -0.2022 Ry
        Total length         46.3494 bohr

     End of self-consistent calculation

          k = 0.0000 0.0000 0.0000 ( 18029 PWs)   bands (ev):

   -55.5685 -55.5659 -55.5318 -55.5316 -55.4547 -55.4190 -55.4168 -55.3839
   -55.3662 -55.3322 -55.3208 -55.2870 -55.0270 -54.8849 -54.5320 -54.4980
   -32.1312 -32.0472 -31.9520 -31.8884 -31.8831 -31.8683 -31.8584 -31.8134
   -31.8064 -31.7998 -31.7799 -31.7547 -31.7506 -31.7210 -31.7181 -31.7104
   -31.6691 -31.6560 -31.6527 -31.6437 -31.6428 -31.6232 -31.6066 -31.5909
   -31.5641 -31.5638 -31.5617 -31.5538 -31.5513 -31.5247 -31.5012 -31.5004
   -31.4946 -31.4883 -31.4753 -31.4696 -31.4345 -31.3035 -31.2522 -31.1548
   -31.1386 -31.0466 -30.9384 -30.8518 -30.8293 -30.7554 -30.6690 -30.5576
   -17.5505 -16.3573 -16.0441 -15.8331 -15.7218 -15.7172 -15.6336 -15.4123
   -15.2924 -15.2768 -15.1607 -15.1556 -15.0970 -15.0565 -15.0501 -15.0448
   -15.0096 -14.9972 -14.9790 -14.9480 -14.9100 -14.8924 -14.8724 -14.7664
   -14.7039 -14.6946 -14.6793 -14.6118 -14.5678 -14.2037 -13.0340 -12.9178
   -12.5136  -9.2220  -6.3353  -5.0780  -4.1840  -3.7356  -3.5445  -3.4690
    -3.4339  -3.3699  -3.3533  -3.1779  -3.1705  -2.7924  -2.7717  -2.7526
    -2.7310  -2.7283  -2.4604  -2.4073  -2.3933  -2.3892  -2.3727  -2.3531
    -2.3332  -2.3220  -2.2930  -2.2885  -2.1525  -2.1068  -2.0278  -1.9972
    -1.9883  -1.8740  -1.8508  -1.8290  -1.8181  -1.8034  -1.7762  -1.7675
    -1.7475  -1.6375  -1.5291  -1.4565  -1.4111  -1.3572  -1.3446  -1.1576
    -1.1061  -1.0486  -1.0229  -0.9989  -0.9831  -0.9495  -0.8769  -0.8568
    -0.7095  -0.6711  -0.6189  -0.5919  -0.5615  -0.5066  -0.4710  -0.4430
    -0.3500  -0.3335  -0.3218  -0.3089  -0.2507  -0.0612  -0.0142   0.0043
     0.0202   0.1202   0.1594   0.1815   0.2194   0.2743   0.3011   0.3676
     0.3979   0.4175   0.4271   0.4516   0.4739   0.6052   0.6327   0.6635
     0.7222   0.7760   0.8527   0.9633   1.0502   1.1038   1.2047   1.4234
     1.4905   1.5736   1.6812   1.6843   2.0600   2.1050   3.5695   3.6598
     3.6983   3.7121   3.8191   3.8701   4.0184   4.0282   4.0711   4.1000

[...]

          k = 0.0380-0.0419 0.0000 ( 17876 PWs)   bands (ev):

[...]

          k =-0.0760-0.0000 0.0000 ( 17886 PWs)   bands (ev):

[...]

          k =-0.0760-0.0839 0.0000 ( 17948 PWs)   bands (ev):

   -55.5532 -55.5494 -55.5481 -55.5467 -55.4439 -55.4276 -55.4040 -55.3988
   -55.3507 -55.3473 -55.3055 -55.3024 -55.0255 -54.8862 -54.5150 -54.5149
   -31.9362 -31.9274 -31.8629 -31.8621 -31.8443 -31.8433 -31.8386 -31.8233
   -31.7962 -31.7826 -31.7635 -31.7447 -31.7162 -31.7076 -31.7030 -31.6781
   -31.6754 -31.6691 -31.6677 -31.6632 -31.6599 -31.6470 -31.6438 -31.6398
   -31.6207 -31.6091 -31.5990 -31.5965 -31.5479 -31.5457 -31.5385 -31.5368
   -31.5300 -31.5264 -31.5209 -31.5193 -31.4091 -31.3164 -31.2540 -31.2155
   -31.1445 -31.0587 -30.8420 -30.8419 -30.7512 -30.7511 -30.7123 -30.7122
   -17.5382 -15.8152 -15.7795 -15.5217 -15.5142 -15.5125 -15.4707 -15.3480
   -15.2998 -15.2733 -15.2615 -15.2426 -15.2364 -15.1312 -15.1187 -15.1014
   -15.0915 -15.0661 -15.0219 -15.0162 -15.0093 -14.9987 -14.9868 -14.9224
   -14.8673 -14.8635 -14.7541 -14.6603 -14.5174 -14.4344 -13.0198 -13.0195
   -12.5332  -9.1834  -6.2946  -5.1054  -4.1162  -3.4234  -3.1163  -3.0723
    -2.7836  -2.7644  -2.7504  -2.6342  -2.5142  -2.5052  -2.4804  -2.4583
    -2.4244  -2.4113  -2.4025  -2.3941  -2.3755  -2.3564  -2.3452  -2.3073
    -2.2383  -2.2313  -2.2232  -2.2125  -2.1960  -2.1722  -2.1625  -2.1344
    -2.1105  -2.0772  -2.0186  -1.9861  -1.8379  -1.7894  -1.7432  -1.6910
    -1.6830  -1.6537  -1.6200  -1.6124  -1.5066  -1.4944  -1.4537  -1.3233
    -1.2625  -1.2542  -1.2224  -1.1372  -1.0958  -0.9687  -0.9559  -0.9203
    -0.8685  -0.8562  -0.8186  -0.7814  -0.7272  -0.6765  -0.6323  -0.6083
    -0.5926  -0.5195  -0.5187  -0.4745  -0.4147  -0.3479  -0.3218  -0.3144
    -0.2828  -0.2391  -0.1929  -0.1278  -0.0540  -0.0358  -0.0174   0.0796
     0.1562   0.3713   0.4182   0.5194   0.5398   0.5638   0.6279   0.6757
     0.7462   0.7604   0.7896   0.8635   0.8850   0.9766   0.9871   1.0034
     1.1822   1.6131   1.8560   1.8569   1.9246   1.9252   3.8637   3.8770
     3.9033   3.9271   4.0887   4.0925   4.1047   4.1074   4.2276   4.2581

     the Fermi energy is     3.5683 ev

!    total energy              =   -2941.63740606 Ry
     estimated scf accuracy    <       0.00000005 Ry
     smearing contrib. (-TS)   =      -0.02170994 Ry
     internal energy E=F+TS    =   -2941.61569612 Ry

     The total energy is F=E-TS. E is the sum of the following terms:
     one-electron contribution =  -24407.87661209 Ry
     hartree contribution      =   12295.94053057 Ry
     xc contribution           =    -486.93955884 Ry
     ewald contribution        =    9657.25742299 Ry
     electric field correction =       0.00252124 Ry

     convergence has been achieved in  76 iterations

     Forces acting on atoms (cartesian axes, Ry/au):

     atom    1 type  1   force =     0.00002671   -0.00018967    0.09679582
     atom    2 type  1   force =     0.00010756   -0.00067166   -0.17456585
     atom    3 type  2   force =     0.00020099   -0.00005272   -0.02508486
     atom    4 type  2   force =     0.00001493   -0.00121991    0.05106736
     atom    5 type  2   force =    -0.01106806   -0.00078670    0.00213121
     atom    6 type  2   force =     0.01302157   -0.00028601    0.00280752
     atom    7 type  1   force =     0.00113865    0.00019723   -0.01337246
     atom    8 type  1   force =    -0.00018769    0.01540983    0.02796569
     atom    9 type  2   force =    -0.00011419    0.00044946    0.00001532
     atom   10 type  2   force =    -0.00221512    0.00097703   -0.01128576
     atom   11 type  2   force =     0.00030976   -0.00011098    0.00016700
     atom   12 type  2   force =    -0.00028088   -0.00012448    0.00039614
     atom   13 type  1   force =    -0.00008878   -0.00026947    0.00017132
     atom   14 type  1   force =     0.00011575    0.00012782   -0.00005737
     atom   15 type  2   force =     0.00013670   -0.00067804   -0.00055300
     atom   16 type  2   force =    -0.00044104    0.00017007    0.00031378
     atom   17 type  2   force =    -0.00026842   -0.00007045   -0.00007154
     atom   18 type  2   force =    -0.00027776   -0.00004523    0.00018420
     atom   19 type  1   force =     0.00005107    0.00033707   -0.00032540
     atom   20 type  1   force =    -0.00047888    0.00006727   -0.00021806
     atom   21 type  2   force =     0.00004896   -0.00009596    0.10297238
     atom   22 type  2   force =    -0.00068126   -0.00033287    0.00055619
     atom   23 type  2   force =    -0.07179647   -0.00022222   -0.02780004
     atom   24 type  2   force =     0.07176800    0.00023349   -0.02786014
     atom   25 type  1   force =     0.00004778   -0.00022755    0.09634301
     atom   26 type  1   force =    -0.00001437   -0.00030603   -0.17483068
     atom   27 type  2   force =     0.00020265   -0.00025371   -0.02392488
     atom   28 type  2   force =     0.00007527   -0.00096495    0.05129432
     atom   29 type  2   force =    -0.01106595    0.00095664    0.00149496
     atom   30 type  2   force =     0.01287180    0.00120121    0.00212669
     atom   31 type  1   force =     0.00114941    0.00257292   -0.01568472
     atom   32 type  1   force =    -0.00001898   -0.01668490    0.02888367
     atom   33 type  2   force =    -0.00017638   -0.00045231    0.00044071
     atom   34 type  2   force =    -0.00258401    0.00114405   -0.01892792
     atom   35 type  2   force =    -0.00009035   -0.00011352    0.00002965
     atom   36 type  2   force =    -0.00005609   -0.00018673    0.00021766
     atom   37 type  1   force =    -0.00024868   -0.00016914    0.00057858
     atom   38 type  1   force =     0.00010190   -0.00053700    0.00033977
     atom   39 type  2   force =     0.00001288    0.00048339   -0.00021307
     atom   40 type  2   force =    -0.00032367   -0.00013253   -0.00066120
     atom   41 type  2   force =     0.00021737    0.00003754    0.00003820
     atom   42 type  2   force =    -0.00010371    0.00027424    0.00019685
     atom   43 type  1   force =     0.00008904   -0.00042670   -0.00088177
     atom   44 type  1   force =    -0.00120008    0.00305719   -0.00225971
     atom   45 type  2   force =     0.00006157   -0.00011427    0.10297665
     atom   46 type  2   force =    -0.07181797   -0.00016554   -0.02781473
     atom   47 type  2   force =     0.07177709    0.00021726   -0.02786020
     atom   48 type  3   force =     0.00096356   -0.00214452    0.01392693
     atom   49 type  4   force =    -0.00112948    0.00116678   -0.00521838
     atom   50 type  5   force =    -0.00072128   -0.00006286   -0.00065667
     atom   51 type  5   force =    -0.00166738   -0.00029859   -0.00105594
     atom   52 type  5   force =     0.00172505   -0.00038650    0.00045049
     atom   53 type  3   force =     0.00046770   -0.00052885   -0.00226420
     atom   54 type  5   force =     0.00188492   -0.00077283    0.00058605
     atom   55 type  5   force =     0.00052830    0.00100492   -0.00201962

     Total force =     0.367424     Total SCF correction =     0.000771
  @ DRIVER MODE: Message from server: STATUS
  @ DRIVER MODE: Message from server: GETFORCE
  @ DRIVER MODE: Returning v,forces,stress,ensemble

     Writing output data file ./calc.save/
  @ DRIVER MODE: Message from server: EXIT
  @ DRIVE MODE: Exiting

     General routines

     Parallel routines

   This run was terminated on:  13:38:42   2Aug2021

   JOB DONE.