     Program PWSCF v.6.7GPU starts on 10Sep2021 at 23: 0:51

     R & G space division:  proc/nbgrp/npool/nimage =      10
     Reading input from /storage/home/hcoda1/3/ntian30/research/carbon/CxH_vib/CH2_calc/ads_slab/CH2NHNH_b/out_0016/pw.inp
Warning: card &CELL ignored
Warning: card   CELL_DYNAMICS='IPI', ignored
Warning: card / ignored

     Current dimensions of program PWSCF are:
     Max number of different atomic species (ntypx) = 10
     Max number of k-points (npk) =  40000
     Max angular momentum in pseudopotentials (lmaxx) =  3
     Presently no symmetry can be used with electric field

     Message from routine cell_base_init:
     DEPRECATED: use true lattice parameter, not A to a.u. conversion factor

     IMPORTANT: XC functional enforced from input :
     Exchange-correlation= BEEF-VDW
                           (   1   4  43  14   2   0   0)
     Any further DFT definition will be discarded
     Please, verify this is what you really want

  @ DRIVER MODE: Connecting to
 qe_1139763_2792040.sched-torque.pace.gatech.edugcy3d1xw_scratch
  using UNIX socket
  @ DRIVER MODE: Message from server: STATUS
  @ DRIVER MODE: Message from server: INIT
  @ DRIVER MODE: Receiving replica           0          -1
  @ DRIVER MODE: Receiving encoded integer          25
  @ DRIVER MODE:  SCF:  T  FORCE:  T  STRESS:  F  VC:  F  ENSEMBLE:  F
  @ DRIVER MODE:  SCF:  T  FORCE:  T  STRESS:  F  VC:  F  ENSEMBLE:  F

     Using Slab Decomposition

     bravais-lattice index     =            0
     lattice parameter (alat)  =       1.8897  a.u.
     unit-cell volume          =    6658.9804 (a.u.)^3
     number of atoms/cell      =           54
     number of atomic types    =            5
     number of electrons       =       396.00
     number of Kohn-Sham states=          208
     kinetic-energy cutoff     =      29.3995  Ry
     charge density cutoff     =     293.9946  Ry
     scf convergence threshold =      7.3E-08
     mixing beta               =       0.0500
     number of iterations used =            8  plain     mixing
     Exchange-correlation= BEEF-VDW
                           (   1   4  43  14   2   0   0)

     celldm(1)=   1.889726  celldm(2)=   0.000000  celldm(3)=   0.000000
     celldm(4)=   0.000000  celldm(5)=   0.000000  celldm(6)=   0.000000

     crystal axes: (cart. coord. in units of alat)
               a(1) = (   6.579727   0.000000   0.000000 )
               a(2) = (  -0.000775   5.961596   0.000000 )
               a(3) = (   0.000000   0.000000  25.155947 )

     reciprocal axes: (cart. coord. in units 2 pi/alat)
               b(1) = (  0.151982  0.000020  0.000000 )
               b(2) = (  0.000000  0.167740  0.000000 )
               b(3) = (  0.000000  0.000000  0.039752 )

     PseudoPot. # 1 for Ti read from file:
     /storage/coda1/p-amedford6/0/shared/rich_project_chbe-medford/medford-share/data/pseudos_module/espresso/nninc/pbe/van/Ti.UPF
     MD5 check sum: 8e4df49b7f0d34bbd5052bf3f5ea0213
     Pseudo is Ultrasoft, Zval = 12.0
     Generated by new atomic code, or converted to UPF format
     Using radial grid of  851 points,  6 beta functions with:
                l(1) =   0
                l(2) =   0
                l(3) =   1
                l(4) =   1
                l(5) =   2
                l(6) =   2
     Q(r) pseudized with  8 coefficients,  rinner =    1.000   1.000   1.000
                                                       1.000   1.000

     PseudoPot. # 2 for O  read from file:
     /storage/coda1/p-amedford6/0/shared/rich_project_chbe-medford/medford-share/data/pseudos_module/espresso/nninc/pbe/van/O.UPF
     MD5 check sum: 78c19812648e8988a0fe644b0f25305e
     Pseudo is Ultrasoft, Zval =  6.0
     Generated by new atomic code, or converted to UPF format
     Using radial grid of  737 points,  4 beta functions with:
                l(1) =   0
                l(2) =   0
                l(3) =   1
                l(4) =   1
     Q(r) pseudized with  8 coefficients,  rinner =    0.800   0.800   0.800

     PseudoPot. # 3 for N  read from file:
     /storage/coda1/p-amedford6/0/shared/rich_project_chbe-medford/medford-share/data/pseudos_module/espresso/nninc/pbe/van/N.UPF
     MD5 check sum: 90d10febe142ad51ac9d5be1deb811c4
     Pseudo is Ultrasoft, Zval =  5.0
     Generated by new atomic code, or converted to UPF format
     Using radial grid of  729 points,  4 beta functions with:
                l(1) =   0
                l(2) =   0
                l(3) =   1
                l(4) =   1
     Q(r) pseudized with  8 coefficients,  rinner =    0.800   0.800   0.800

     PseudoPot. # 4 for C  read from file:
     /storage/coda1/p-amedford6/0/shared/rich_project_chbe-medford/medford-share/data/pseudos_module/espresso/nninc/pbe/van/C.UPF
     MD5 check sum: 1a69bf6b8db32088f5b2163dbdb77a27
     Pseudo is Ultrasoft, Zval =  4.0
     Generated by new atomic code, or converted to UPF format
     Using radial grid of  721 points,  4 beta functions with:
                l(1) =   0
                l(2) =   0
                l(3) =   1
                l(4) =   1
     Q(r) pseudized with  8 coefficients,  rinner =    0.800   0.800   0.800

     PseudoPot. # 5 for H  read from file:
     /storage/coda1/p-amedford6/0/shared/rich_project_chbe-medford/medford-share/data/pseudos_module/espresso/nninc/pbe/van/H.UPF
     MD5 check sum: b5ee9d7bfd3a09ee7748110bda690ff7
     Pseudo is Ultrasoft, Zval =  1.0
     Generated by new atomic code, or converted to UPF format
     Using radial grid of  615 points,  1 beta functions with:
                l(1) =   0
     Q(r) pseudized with  8 coefficients,  rinner =    0.800

     atomic species   valence    mass     pseudopotential
        Ti1           12.00    47.86700     Ti( 1.00)
        O1             6.00    15.99900     O ( 1.00)
        N1             5.00    14.00700     N ( 1.00)
        C1             4.00    12.01100     C ( 1.00)
        H1             1.00     1.00800     H ( 1.00)

     No symmetry found

   Cartesian axes

     site n.     atom                  positions (alat units)
         1           Ti1 tau(   1) = (   0.0004258   2.9801865   6.0000000  )
         2           Ti1 tau(   2) = (   3.2906075   1.4906267   6.0002472  )
         3           O1  tau(   3) = (   0.0006271   0.0005054   7.9858123  )
         4           O1  tau(   4) = (   3.2906025   0.0005020   7.3038282  )
         5           O1  tau(   5) = (   4.5942328   1.4918067   9.2879030  )
         6           O1  tau(   6) = (   1.9868534   1.4903216   9.2879459  )
         7           Ti1 tau(   7) = (   3.2907910   2.8959150   9.1758416  )
         8           Ti1 tau(   8) = (   0.0015273   1.4827037   9.2680791  )
         9           O1  tau(   9) = (   3.3006942   5.9534781  11.3553798  )
        10           O1  tau(  10) = (   0.0116148   5.9584955  10.6183126  )
        11           O1  tau(  11) = (   1.3049435   1.4862809  12.6371303  )
        12           O1  tau(  12) = (   5.2939446   1.4839232  12.6419886  )
        13           Ti1 tau(  13) = (   0.0297220   2.9630369  12.5573518  )
        14           Ti1 tau(  14) = (   3.3261824   1.4838644  12.4981318  )
        15           O1  tau(  15) = (   0.0289408   0.0313188  14.6920809  )
        16           O1  tau(  16) = (   3.2926898   0.0103323  13.9875539  )
        17           O1  tau(  17) = (   4.5688264   1.5151599  16.1499861  )
        18           O1  tau(  18) = (   2.0666082   1.5432664  16.2461230  )
        19           Ti1 tau(  19) = (   3.3290317   3.0025141  15.7092439  )
        20           Ti1 tau(  20) = (   6.5420716   1.4859973  15.9011789  )
        21           O1  tau(  21) = (   3.2904802   0.0005063   4.7018136  )
        22           O1  tau(  22) = (   0.0300787   5.9197746  17.2397460  )
        23           O1  tau(  23) = (   1.3043587   1.4918075   6.0039043  )
        24           O1  tau(  24) = (   5.2767064   1.4903225   6.0039473  )
        25           Ti1 tau(  25) = (   0.0000382   5.9609847   6.0000000  )
        26           Ti1 tau(  26) = (   3.2902200   4.4714249   6.0002472  )
        27           O1  tau(  27) = (   0.0002396   2.9813036   7.9858123  )
        28           O1  tau(  28) = (   3.2902150   2.9813002   7.3038282  )
        29           O1  tau(  29) = (   4.5938453   4.4726049   9.2879030  )
        30           O1  tau(  30) = (   1.9864658   4.4711199   9.2879459  )
        31           Ti1 tau(  31) = (   3.2891106   5.8743827   9.1763621  )
        32           Ti1 tau(  32) = (   0.0006254   4.4649316   9.2693709  )
        33           O1  tau(  33) = (   3.3021489   2.9801797  11.3479352  )
        34           O1  tau(  34) = (   0.0092240   2.9805883  10.6323155  )
        35           O1  tau(  35) = (   1.3026635   4.4666190  12.6547599  )
        36           O1  tau(  36) = (   5.2965037   4.4700493  12.6603964  )
        37           Ti1 tau(  37) = (   0.0280624   5.9437424  12.5124334  )
        38           Ti1 tau(  38) = (   3.3252324   4.4624078  12.5019987  )
        39           O1  tau(  39) = (   0.0181394   2.9416354  14.7876853  )
        40           O1  tau(  40) = (   3.2997337   2.9731399  13.9284607  )
        41           O1  tau(  41) = (   4.5639665   4.4616582  16.1522005  )
        42           O1  tau(  42) = (   2.0594857   4.4554260  16.1407723  )
        43           Ti1 tau(  43) = (   3.2991394   0.0041700  15.7772358  )
        44           Ti1 tau(  44) = (   0.0501841   4.6507117  16.0116611  )
        45           O1  tau(  45) = (   3.2900926   2.9813045   4.7018136  )
        46           O1  tau(  46) = (   1.3039711   4.4726057   6.0039043  )
        47           O1  tau(  47) = (   5.2763189   4.4711207   6.0039473  )
        48           N1  tau(  48) = (   1.0195810   2.7978639  18.4834737  )
        49           N1  tau(  49) = (   6.5530482   2.9315443  17.6565599  )
        50           C1  tau(  50) = (   1.1739936   3.2092704  19.7158448  )
        51           H1  tau(  51) = (   2.1028141   2.9667422  20.2081369  )
        52           H1  tau(  52) = (   0.3908697   3.7596525  20.2009034  )
        53           H1  tau(  53) = (   1.7673082   2.2798185  17.9998463  )
        54           H1  tau(  54) = (   5.7337981   3.2184162  18.1887256  )

     number of k points=    10  Fermi-Dirac smearing, width (Ry)=  0.0073
                       cart. coord. in units 2pi/alat
        k(    1) = (   0.0000000   0.0000000   0.0000000), wk =   0.1250000
        k(    2) = (   0.0000000   0.0419351   0.0000000), wk =   0.2500000
        k(    3) = (   0.0000000  -0.0838702   0.0000000), wk =   0.1250000
        k(    4) = (   0.0379955   0.0000049   0.0000000), wk =   0.2500000
        k(    5) = (   0.0379955   0.0419400   0.0000000), wk =   0.2500000
        k(    6) = (   0.0379955  -0.0838652   0.0000000), wk =   0.2500000
        k(    7) = (   0.0379955  -0.0419301   0.0000000), wk =   0.2500000
        k(    8) = (  -0.0759910  -0.0000099   0.0000000), wk =   0.1250000
        k(    9) = (  -0.0759910   0.0419252   0.0000000), wk =   0.2500000
        k(   10) = (  -0.0759910  -0.0838800   0.0000000), wk =   0.1250000

     Initial potential from superposition of free atoms

     starting charge  379.99915, renormalised to  396.00000

     negative rho (up, down):  1.484E-02 0.000E+00

     %%%%%%%%%%%%%%%%%%%%%%%%%%%%%%%%%%%%%%%%%%%%%%%%%%%%%%%%%%%%%%%%%%%%%%%%
     %                                                                      %
     % You are using vdW-DF, which was implemented by the Thonhauser group. %
     % Please cite the following two papers that made this development      %
     % possible and the two reviews that describe the various versions:     %
     %                                                                      %
     %   T. Thonhauser et al., PRL 115, 136402 (2015).                      %
     %   T. Thonhauser et al., PRB 76, 125112 (2007).                       %
     %   K. Berland et al., Rep. Prog. Phys. 78, 066501 (2015).             %
     %   D.C. Langreth et al., J. Phys.: Condens. Matter 21, 084203 (2009). %
     %                                                                      %
     %                                                                      %
     % If you are calculating the stress with vdW-DF, please also cite:     %
     %                                                                      %
     %   R. Sabatini et al., J. Phys.: Condens. Matter 24, 424209 (2012).   %
     %                                                                      %
     %%%%%%%%%%%%%%%%%%%%%%%%%%%%%%%%%%%%%%%%%%%%%%%%%%%%%%%%%%%%%%%%%%%%%%%%

     Adding external electric field

     Computed dipole along edir(3) :
        Dipole               -9.8032 Ry au,        -24.9172 Debye
        Dipole field         -0.0185 Ry au,

        Potential amp.        1.7149 Ry
        Total length         46.3494 bohr

     Starting wfcs are  300 atomic wfcs
  @ DRIVER MODE: Message from server: STATUS
  @ DRIVER MODE: Message from server: POSDATA
  @ DRIVER MODE: Reading and sharing cell
  @ DRIVER MODE: Reading and sharing positions
  @ DRIVER MODE: Received positions

     Self-consistent Calculation

     iteration #  1     ecut=    29.40 Ry     beta= 0.05
     Davidson diagonalization with overlap
     c_bands:  1 eigenvalues not converged
     c_bands:  2 eigenvalues not converged
     c_bands:  1 eigenvalues not converged
     c_bands:  1 eigenvalues not converged
     c_bands:  2 eigenvalues not converged
     c_bands:  1 eigenvalues not converged
     c_bands:  1 eigenvalues not converged
     c_bands:  1 eigenvalues not converged
     c_bands:  3 eigenvalues not converged
     ethr =  1.00E-05,  avg # of iterations = 19.6

[...]

     total energy              =   -2536.30136647 Ry
     estimated scf accuracy    <    4505.44611355 Ry

     iteration #  2     ecut=    29.40 Ry     beta= 0.05
     Davidson diagonalization with overlap
     ethr =  1.00E-02,  avg # of iterations = 24.5

[...]

     iteration #101     ecut=    29.40 Ry     beta= 0.05
     Davidson diagonalization with overlap
     c_bands:  1 eigenvalues not converged
     c_bands:  1 eigenvalues not converged
     ethr =  3.92E-10,  avg # of iterations = 14.5

[...]

     total energy              =   -2940.35786453 Ry
     estimated scf accuracy    <       0.00000009 Ry

     iteration #106     ecut=    29.40 Ry     beta= 0.05
     Davidson diagonalization with overlap
     ethr =  2.39E-11,  avg # of iterations =  2.0

     negative rho (up, down):  1.443E-02 0.000E+00

     Adding external electric field

     Computed dipole along edir(3) :
        Dipole                1.4582 Ry au,          3.7063 Debye
        Dipole field          0.0028 Ry au,

        Potential amp.       -0.2551 Ry
        Total length         46.3494 bohr

     End of self-consistent calculation

          k = 0.0000 0.0000 0.0000 ( 18029 PWs)   bands (ev):

   -55.2636 -55.2292 -55.2272 -55.1951 -55.1596 -55.1360 -55.0946 -55.0694
   -55.0674 -55.0570 -55.0546 -55.0324 -55.0217 -54.9145 -54.2412 -54.2071
   -31.8372 -31.7187 -31.6238 -31.5957 -31.5898 -31.5759 -31.5572 -31.5563
   -31.5220 -31.5192 -31.4755 -31.4737 -31.4720 -31.4401 -31.4199 -31.4001
   -31.3950 -31.3818 -31.3744 -31.3693 -31.3403 -31.3190 -31.3173 -31.3120
   -31.2981 -31.2893 -31.2861 -31.2699 -31.2657 -31.2621 -31.2506 -31.2405
   -31.2376 -31.2257 -31.2173 -31.1958 -31.1881 -31.1859 -31.1819 -31.1623
   -31.1392 -31.0980 -30.6497 -30.5576 -30.5354 -30.4663 -30.3796 -30.2686
   -19.5295 -16.0931 -15.8148 -15.6882 -15.5103 -15.4498 -15.3569 -15.2074
   -15.1575 -15.0424 -15.0085 -15.0003 -14.9723 -14.9344 -14.8640 -14.7920
   -14.7914 -14.7890 -14.7469 -14.7465 -14.6998 -14.6848 -14.6824 -14.6469
   -14.6328 -14.5868 -14.4766 -14.4037 -14.3472 -14.0286 -13.8574 -12.7438
   -12.6267 -10.2493  -7.0221  -6.6599  -4.2567  -4.1020  -3.4405  -3.2636
    -3.2461  -3.1775  -3.1581  -2.9853  -2.9097  -2.7406  -2.6129  -2.5256
    -2.4837  -2.4629  -2.4586  -2.2802  -2.2291  -2.1792  -2.1567  -2.1428
    -2.1127  -2.0761  -2.0604  -2.0256  -2.0176  -2.0021  -1.8274  -1.7470
    -1.7041  -1.6835  -1.6455  -1.5839  -1.5736  -1.5481  -1.5394  -1.5357
    -1.5106  -1.4801  -1.4628  -1.4232  -1.2896  -1.2455  -1.2108  -1.1236
    -1.0370  -0.8893  -0.8126  -0.8080  -0.7744  -0.7289  -0.6900  -0.6460
    -0.6379  -0.6042  -0.4609  -0.4164  -0.3514  -0.3246  -0.2858  -0.2378
    -0.2239  -0.0843  -0.0419  -0.0362  -0.0112   0.1133   0.1539   0.2097
     0.2389   0.3014   0.3473   0.4123   0.4268   0.4504   0.4961   0.5174
     0.6283   0.6798   0.6939   0.7029   0.7311   0.7971   0.8519   0.8736
     0.8963   0.9120   1.0813   1.1266   1.2009   1.3514   1.3643   1.6933
     1.7324   1.7812   1.9677   2.3556   2.4030   3.8412   3.9109   3.9707
     3.9895   3.9943   4.0758   4.1924   4.3141   4.3346   4.3401   4.3430

[...]

          k = 0.0380-0.0419 0.0000 ( 17876 PWs)   bands (ev):

[...]

          k =-0.0760-0.0000 0.0000 ( 17886 PWs)   bands (ev):

[...]

          k =-0.0760-0.0839 0.0000 ( 17948 PWs)   bands (ev):

   -55.2479 -55.2427 -55.2122 -55.2119 -55.1566 -55.1270 -55.1035 -55.0674
   -55.0599 -55.0511 -55.0476 -55.0389 -55.0382 -54.9164 -54.2241 -54.2241
   -31.6427 -31.6377 -31.5712 -31.5340 -31.5337 -31.5314 -31.5048 -31.5044
   -31.5037 -31.4714 -31.4695 -31.4617 -31.4587 -31.4180 -31.3895 -31.3859
   -31.3822 -31.3821 -31.3759 -31.3660 -31.3632 -31.3480 -31.3331 -31.3316
   -31.3311 -31.3285 -31.3274 -31.2993 -31.2969 -31.2851 -31.2838 -31.2810
   -31.2654 -31.2618 -31.2613 -31.2586 -31.2580 -31.2268 -31.2185 -31.2178
   -31.1739 -31.1440 -30.5481 -30.5481 -30.4623 -30.4623 -30.4230 -30.4229
   -19.5274 -15.5660 -15.4771 -15.4153 -15.2841 -15.2604 -15.2270 -15.2214
   -15.1527 -15.1188 -15.0587 -15.0252 -14.9863 -14.9664 -14.9641 -14.9425
   -14.8367 -14.8331 -14.8286 -14.8179 -14.7632 -14.7577 -14.7293 -14.7084
   -14.7049 -14.6513 -14.6027 -14.6003 -14.5133 -14.2682 -13.8684 -12.7284
   -12.7282 -10.2525  -7.0149  -6.6559  -4.2387  -4.0943  -2.8407  -2.7392
    -2.6483  -2.5720  -2.4932  -2.4504  -2.4273  -2.2953  -2.2522  -2.2412
    -2.2269  -2.2104  -2.1639  -2.1370  -2.1191  -2.1053  -2.0891  -2.0839
    -2.0663  -2.0463  -2.0325  -1.9725  -1.9625  -1.9455  -1.9199  -1.8994
    -1.8762  -1.8554  -1.8306  -1.8192  -1.7078  -1.6326  -1.5943  -1.5193
    -1.4661  -1.4460  -1.4386  -1.3480  -1.3131  -1.3025  -1.2881  -1.2175
    -1.1011  -1.0478  -0.9894  -0.9871  -0.9606  -0.8220  -0.8069  -0.7542
    -0.7334  -0.7143  -0.6757  -0.6360  -0.6066  -0.5217  -0.4767  -0.4459
    -0.4117  -0.2921  -0.2586  -0.2330  -0.2200  -0.2145  -0.0976  -0.0879
    -0.0618  -0.0330   0.0098   0.0323   0.0952   0.1036   0.2405   0.3160
     0.3904   0.4721   0.5712   0.6266   0.7017   0.7695   0.7721   0.8697
     0.9296   1.0063   1.0209   1.0506   1.0562   1.1749   1.2175   1.2229
     1.2604   2.1401   2.1411   2.2229   2.2231   4.0157   4.0270   4.1018
     4.1323   4.1655   4.2310   4.3549   4.3757   4.4160   4.4176   4.5012

     the Fermi energy is     3.8906 ev

!    total energy              =   -2940.35786503 Ry
     estimated scf accuracy    <       0.00000007 Ry
     smearing contrib. (-TS)   =      -0.03839483 Ry
     internal energy E=F+TS    =   -2940.31947020 Ry

     The total energy is F=E-TS. E is the sum of the following terms:
     one-electron contribution =  -23947.28993694 Ry
     hartree contribution      =   12066.22925508 Ry
     xc contribution           =    -486.10313674 Ry
     ewald contribution        =    9426.84033585 Ry
     electric field correction =       0.00401255 Ry

     convergence has been achieved in 106 iterations

     Forces acting on atoms (cartesian axes, Ry/au):

     atom    1 type  1   force =     0.00000893   -0.00025932    0.09432752
     atom    2 type  1   force =    -0.00016276   -0.00034459   -0.17722551
     atom    3 type  2   force =     0.00003727   -0.00014106   -0.02177838
     atom    4 type  2   force =    -0.00000558   -0.00172886    0.05672519
     atom    5 type  2   force =    -0.01091099   -0.00112593    0.00621026
     atom    6 type  2   force =     0.01267323   -0.00046364    0.00594425
     atom    7 type  1   force =    -0.00028173    0.00188719   -0.01477505
     atom    8 type  1   force =    -0.00006939    0.00584830    0.00723158
     atom    9 type  2   force =    -0.00014853   -0.00025769   -0.00002411
     atom   10 type  2   force =    -0.00135899    0.00012338   -0.00582779
     atom   11 type  2   force =    -0.00012562    0.00006709   -0.00007240
     atom   12 type  2   force =     0.00015506    0.00003533    0.00018109
     atom   13 type  1   force =     0.00012021    0.00009491    0.00026741
     atom   14 type  1   force =    -0.00005524    0.00002418    0.00024473
     atom   15 type  2   force =    -0.00026929    0.00022884   -0.00017051
     atom   16 type  2   force =     0.00001474    0.00023933   -0.00017361
     atom   17 type  2   force =     0.00021781    0.00018327    0.00000871
     atom   18 type  2   force =     0.00025484   -0.00022899    0.00014649
     atom   19 type  1   force =    -0.00043668   -0.00008086    0.00000503
     atom   20 type  1   force =    -0.00047096    0.00007392    0.00031241
     atom   21 type  2   force =    -0.00001071   -0.00003561    0.10370418
     atom   22 type  2   force =     0.00023334    0.00020468   -0.00001511
     atom   23 type  2   force =    -0.07083321   -0.00012474   -0.02713516
     atom   24 type  2   force =     0.07068200    0.00030452   -0.02722076
     atom   25 type  1   force =     0.00001083   -0.00019658    0.09403604
     atom   26 type  1   force =    -0.00024499   -0.00046489   -0.17719303
     atom   27 type  2   force =     0.00009126   -0.00028821   -0.02084263
     atom   28 type  2   force =     0.00002628   -0.00141794    0.05609477
     atom   29 type  2   force =    -0.01102520   -0.00017058    0.00582861
     atom   30 type  2   force =     0.01268269    0.00014661    0.00558533
     atom   31 type  1   force =    -0.00016790    0.00464778   -0.01584358
     atom   32 type  1   force =    -0.00003566   -0.00691298    0.00711401
     atom   33 type  2   force =     0.00010705    0.00047994   -0.00010593
     atom   34 type  2   force =    -0.00097407    0.00064597   -0.00550641
     atom   35 type  2   force =     0.00058430    0.00025532   -0.00012714
     atom   36 type  2   force =    -0.00068211    0.00026856   -0.00021430
     atom   37 type  1   force =     0.00012852   -0.00022469    0.00008846
     atom   38 type  1   force =     0.00001023   -0.00020962   -0.00007530
     atom   39 type  2   force =     0.00077014   -0.00027423   -0.00016821
     atom   40 type  2   force =     0.00016933    0.00057024    0.00003498
     atom   41 type  2   force =    -0.00029267   -0.00041734    0.00026951
     atom   42 type  2   force =     0.00039185    0.00014744   -0.00022295
     atom   43 type  1   force =    -0.00003866    0.00009526    0.00008739
     atom   44 type  1   force =    -0.00011185    0.00043066    0.00040799
     atom   45 type  2   force =    -0.00000387   -0.00005953    0.10369909
     atom   46 type  2   force =    -0.07085113   -0.00007976   -0.02711840
     atom   47 type  2   force =     0.07067944    0.00035555   -0.02717897
     atom   48 type  3   force =     0.00004812    0.00315197    0.00650602
     atom   49 type  3   force =    -0.00074275   -0.00020672   -0.00096946
     atom   50 type  4   force =     0.00748663   -0.00923420   -0.00715121
     atom   51 type  5   force =    -0.00318270    0.00150483   -0.00075631
     atom   52 type  5   force =    -0.00452561    0.00338148    0.00226399
     atom   53 type  5   force =     0.00064960   -0.00051520    0.00133096
     atom   54 type  5   force =    -0.00021487    0.00006718   -0.00076378

     Total force =     0.366153     Total SCF correction =     0.000690
  @ DRIVER MODE: Message from server: STATUS
  @ DRIVER MODE: Message from server: GETFORCE
  @ DRIVER MODE: Returning v,forces,stress,ensemble

     Writing output data file ./calc.save/
  @ DRIVER MODE: Message from server: EXIT
  @ DRIVE MODE: Exiting

     General routines

     Parallel routines

   This run was terminated on:  23:48: 1  10Sep2021

   JOB DONE.