     Program PWSCF v.6.7GPU starts on 16Sep2021 at  5:23:16

     R & G space division:  proc/nbgrp/npool/nimage =      10
     Reading input from /storage/home/hcoda1/3/ntian30/research/carbon/CxH_vib/H2O_calc/ads_slab/CH2OH2O_a/out_0041/pw.inp
Warning: card &CELL ignored
Warning: card   CELL_DYNAMICS='IPI', ignored
Warning: card / ignored

     Current dimensions of program PWSCF are:
     Max number of different atomic species (ntypx) = 10
     Max number of k-points (npk) =  40000
     Max angular momentum in pseudopotentials (lmaxx) =  3
     Presently no symmetry can be used with electric field

     Message from routine cell_base_init:
     DEPRECATED: use true lattice parameter, not A to a.u. conversion factor

     IMPORTANT: XC functional enforced from input :
     Exchange-correlation= BEEF-VDW
                           (   1   4  43  14   2   0   0)
     Any further DFT definition will be discarded
     Please, verify this is what you really want

  @ DRIVER MODE: Connecting to
 qe_1139763_2852613.sched-torque.pace.gatech.educ7rlryu4_scratch
  using UNIX socket
  @ DRIVER MODE: Message from server: STATUS
  @ DRIVER MODE: Message from server: INIT
  @ DRIVER MODE: Receiving replica           0          -1
  @ DRIVER MODE: Receiving encoded integer          25
  @ DRIVER MODE:  SCF:  T  FORCE:  T  STRESS:  F  VC:  F  ENSEMBLE:  F
  @ DRIVER MODE:  SCF:  T  FORCE:  T  STRESS:  F  VC:  F  ENSEMBLE:  F

     Using Slab Decomposition

     bravais-lattice index     =            0
     lattice parameter (alat)  =       1.8897  a.u.
     unit-cell volume          =    6658.9804 (a.u.)^3
     number of atoms/cell      =           54
     number of atomic types    =            4
     number of electrons       =       398.00
     number of Kohn-Sham states=          209
     kinetic-energy cutoff     =      29.3995  Ry
     charge density cutoff     =     293.9946  Ry
     scf convergence threshold =      7.3E-08
     mixing beta               =       0.0500
     number of iterations used =            8  plain     mixing
     Exchange-correlation= BEEF-VDW
                           (   1   4  43  14   2   0   0)

     celldm(1)=   1.889726  celldm(2)=   0.000000  celldm(3)=   0.000000
     celldm(4)=   0.000000  celldm(5)=   0.000000  celldm(6)=   0.000000

     crystal axes: (cart. coord. in units of alat)
               a(1) = (   6.579727   0.000000   0.000000 )
               a(2) = (  -0.000775   5.961596   0.000000 )
               a(3) = (   0.000000   0.000000  25.155947 )

     reciprocal axes: (cart. coord. in units 2 pi/alat)
               b(1) = (  0.151982  0.000020  0.000000 )
               b(2) = (  0.000000  0.167740  0.000000 )
               b(3) = (  0.000000  0.000000  0.039752 )

     PseudoPot. # 1 for O  read from file:
     /storage/coda1/p-amedford6/0/shared/rich_project_chbe-medford/medford-share/data/pseudos_module/espresso/nninc/pbe/van/O.UPF
     MD5 check sum: 78c19812648e8988a0fe644b0f25305e
     Pseudo is Ultrasoft, Zval =  6.0
     Generated by new atomic code, or converted to UPF format
     Using radial grid of  737 points,  4 beta functions with:
                l(1) =   0
                l(2) =   0
                l(3) =   1
                l(4) =   1
     Q(r) pseudized with  8 coefficients,  rinner =    0.800   0.800   0.800

     PseudoPot. # 2 for Ti read from file:
     /storage/coda1/p-amedford6/0/shared/rich_project_chbe-medford/medford-share/data/pseudos_module/espresso/nninc/pbe/van/Ti.UPF
     MD5 check sum: 8e4df49b7f0d34bbd5052bf3f5ea0213
     Pseudo is Ultrasoft, Zval = 12.0
     Generated by new atomic code, or converted to UPF format
     Using radial grid of  851 points,  6 beta functions with:
                l(1) =   0
                l(2) =   0
                l(3) =   1
                l(4) =   1
                l(5) =   2
                l(6) =   2
     Q(r) pseudized with  8 coefficients,  rinner =    1.000   1.000   1.000
                                                       1.000   1.000

     PseudoPot. # 3 for C  read from file:
     /storage/coda1/p-amedford6/0/shared/rich_project_chbe-medford/medford-share/data/pseudos_module/espresso/nninc/pbe/van/C.UPF
     MD5 check sum: 1a69bf6b8db32088f5b2163dbdb77a27
     Pseudo is Ultrasoft, Zval =  4.0
     Generated by new atomic code, or converted to UPF format
     Using radial grid of  721 points,  4 beta functions with:
                l(1) =   0
                l(2) =   0
                l(3) =   1
                l(4) =   1
     Q(r) pseudized with  8 coefficients,  rinner =    0.800   0.800   0.800

     PseudoPot. # 4 for H  read from file:
     /storage/coda1/p-amedford6/0/shared/rich_project_chbe-medford/medford-share/data/pseudos_module/espresso/nninc/pbe/van/H.UPF
     MD5 check sum: b5ee9d7bfd3a09ee7748110bda690ff7
     Pseudo is Ultrasoft, Zval =  1.0
     Generated by new atomic code, or converted to UPF format
     Using radial grid of  615 points,  1 beta functions with:
                l(1) =   0
     Q(r) pseudized with  8 coefficients,  rinner =    0.800

     atomic species   valence    mass     pseudopotential
        O1             6.00    15.99900     O ( 1.00)
        Ti1           12.00    47.86700     Ti( 1.00)
        C1             4.00    12.01100     C ( 1.00)
        H1             1.00     1.00800     H ( 1.00)

     No symmetry found

   Cartesian axes

     site n.     atom                  positions (alat units)
         1           O1  tau(   1) = (   3.2904802   0.0005063   4.7018136  )
         2           O1  tau(   2) = (   3.2900926   2.9813045   4.7018136  )
         3           Ti1 tau(   3) = (   0.0004258   2.9801865   6.0000000  )
         4           Ti1 tau(   4) = (   0.0000382   5.9609847   6.0000000  )
         5           Ti1 tau(   5) = (   3.2906075   1.4906267   6.0002472  )
         6           Ti1 tau(   6) = (   3.2902200   4.4714249   6.0002472  )
         7           O1  tau(   7) = (   1.3043587   1.4918075   6.0039043  )
         8           O1  tau(   8) = (   1.3039711   4.4726057   6.0039043  )
         9           O1  tau(   9) = (   5.2767064   1.4903225   6.0039473  )
        10           O1  tau(  10) = (   5.2763189   4.4711207   6.0039473  )
        11           O1  tau(  11) = (   3.2906025   0.0005020   7.3038282  )
        12           O1  tau(  12) = (   3.2902150   2.9813002   7.3038282  )
        13           O1  tau(  13) = (   0.0006271   0.0005054   7.9858123  )
        14           O1  tau(  14) = (   0.0002396   2.9813036   7.9858123  )
        15           Ti1 tau(  15) = (   3.3036605   0.0548493   9.1550340  )
        16           Ti1 tau(  16) = (   3.3179312   3.0323762   9.1622521  )
        17           Ti1 tau(  17) = (   0.0293130   4.5303424   9.2586280  )
        18           Ti1 tau(  18) = (   0.0255512   1.6071936   9.3606264  )
        19           O1  tau(  19) = (   4.5942328   1.4918067   9.2879030  )
        20           O1  tau(  20) = (   4.5938453   4.4726049   9.2879030  )
        21           O1  tau(  21) = (   1.9868534   1.4903216   9.2879459  )
        22           O1  tau(  22) = (   1.9864658   4.4711199   9.2879459  )
        23           O1  tau(  23) = (   0.0067149   0.0090568  10.6008527  )
        24           O1  tau(  24) = (   0.0066098   2.9904127  10.5810825  )
        25           O1  tau(  25) = (   3.3023248   2.9935247  11.3558429  )
        26           O1  tau(  26) = (   3.3019398   0.0103095  11.3581380  )
        27           Ti1 tau(  27) = (   0.0322082   0.0188897  12.5014682  )
        28           Ti1 tau(  28) = (   3.3323403   4.4947089  12.5096490  )
        29           Ti1 tau(  29) = (   3.3327227   1.5059056  12.5040540  )
        30           Ti1 tau(  30) = (   0.0321551   3.0004163  12.7750784  )
        31           O1  tau(  31) = (   1.2963378   4.4834263  12.6382484  )
        32           O1  tau(  32) = (   1.2968596   1.4996660  12.6342602  )
        33           O1  tau(  33) = (   5.3004736   4.4821179  12.6410582  )
        34           O1  tau(  34) = (   5.3007909   1.4998706  12.6367838  )
        35           O1  tau(  35) = (   3.3017874   2.9879694  13.9086975  )
        36           O1  tau(  36) = (   3.3040514   0.0100701  13.9766235  )
        37           O1  tau(  37) = (   0.0177811   0.0165449  14.6846256  )
        38           O1  tau(  38) = (   0.0218693   2.9952767  14.7100221  )
        39           Ti1 tau(  39) = (   3.3083447   2.9915206  15.7010863  )
        40           Ti1 tau(  40) = (   3.3165693   0.0114089  15.8055842  )
        41           Ti1 tau(  41) = (   0.0300915   4.5703342  15.9344200  )
        42           Ti1 tau(  42) = (   0.0294271   1.3911826  15.9958598  )
        43           O1  tau(  43) = (   4.5666857   4.4545776  16.0545193  )
        44           O1  tau(  44) = (   4.5654216   1.5273373  16.0688375  )
        45           O1  tau(  45) = (   2.0398213   1.5345912  16.0698912  )
        46           O1  tau(  46) = (   2.0372649   4.4468515  16.0554978  )
        47           O1  tau(  47) = (   0.0160947   0.0056016  17.2166677  )
        48           O1  tau(  48) = (   6.5639191   3.0028441  17.4181802  )
        49           C1  tau(  49) = (   6.3909186   3.0704891  18.6902598  )
        50           H1  tau(  50) = (   6.3116585   4.0479728  19.1570877  )
        51           H1  tau(  51) = (   6.3127454   2.1532251  19.2664540  )
        52           O1  tau(  52) = (   3.2659488   5.9319982  18.2141537  )
        53           H1  tau(  53) = (   4.0486762   5.9278262  18.7801078  )
        54           H1  tau(  54) = (   2.4667005   5.9275743  18.7483984  )

     number of k points=    10  Fermi-Dirac smearing, width (Ry)=  0.0073
                       cart. coord. in units 2pi/alat
        k(    1) = (   0.0000000   0.0000000   0.0000000), wk =   0.1250000
        k(    2) = (   0.0000000   0.0419351   0.0000000), wk =   0.2500000
        k(    3) = (   0.0000000  -0.0838702   0.0000000), wk =   0.1250000
        k(    4) = (   0.0379955   0.0000049   0.0000000), wk =   0.2500000
        k(    5) = (   0.0379955   0.0419400   0.0000000), wk =   0.2500000
        k(    6) = (   0.0379955  -0.0838652   0.0000000), wk =   0.2500000
        k(    7) = (   0.0379955  -0.0419301   0.0000000), wk =   0.2500000
        k(    8) = (  -0.0759910  -0.0000099   0.0000000), wk =   0.1250000
        k(    9) = (  -0.0759910   0.0419252   0.0000000), wk =   0.2500000
        k(   10) = (  -0.0759910  -0.0838800   0.0000000), wk =   0.1250000

     Initial potential from superposition of free atoms

     starting charge  381.99917, renormalised to  398.00000

     negative rho (up, down):  1.686E-02 0.000E+00

     %%%%%%%%%%%%%%%%%%%%%%%%%%%%%%%%%%%%%%%%%%%%%%%%%%%%%%%%%%%%%%%%%%%%%%%%
     %                                                                      %
     % You are using vdW-DF, which was implemented by the Thonhauser group. %
     % Please cite the following two papers that made this development      %
     % possible and the two reviews that describe the various versions:     %
     %                                                                      %
     %   T. Thonhauser et al., PRL 115, 136402 (2015).                      %
     %   T. Thonhauser et al., PRB 76, 125112 (2007).                       %
     %   K. Berland et al., Rep. Prog. Phys. 78, 066501 (2015).             %
     %   D.C. Langreth et al., J. Phys.: Condens. Matter 21, 084203 (2009). %
     %                                                                      %
     %                                                                      %
     % If you are calculating the stress with vdW-DF, please also cite:     %
     %                                                                      %
     %   R. Sabatini et al., J. Phys.: Condens. Matter 24, 424209 (2012).   %
     %                                                                      %
     %%%%%%%%%%%%%%%%%%%%%%%%%%%%%%%%%%%%%%%%%%%%%%%%%%%%%%%%%%%%%%%%%%%%%%%%

     Adding external electric field

     Computed dipole along edir(3) :
        Dipole               -9.6365 Ry au,        -24.4934 Debye
        Dipole field         -0.0182 Ry au,

        Potential amp.        1.6858 Ry
        Total length         46.3494 bohr

     Starting wfcs are  300 atomic wfcs
  @ DRIVER MODE: Message from server: STATUS
  @ DRIVER MODE: Message from server: POSDATA
  @ DRIVER MODE: Reading and sharing cell
  @ DRIVER MODE: Reading and sharing positions
  @ DRIVER MODE: Received positions

     Self-consistent Calculation

     iteration #  1     ecut=    29.40 Ry     beta= 0.05
     Davidson diagonalization with overlap
     c_bands:  1 eigenvalues not converged
     c_bands:  3 eigenvalues not converged
     c_bands:  2 eigenvalues not converged
     c_bands:  2 eigenvalues not converged
     c_bands:  2 eigenvalues not converged
     c_bands:  1 eigenvalues not converged
     c_bands:  2 eigenvalues not converged
     c_bands:  1 eigenvalues not converged
     c_bands:  2 eigenvalues not converged
     ethr =  1.00E-05,  avg # of iterations = 19.6

[...]

     total energy              =   -2526.82379376 Ry
     estimated scf accuracy    <    4873.62764366 Ry

     iteration #  2     ecut=    29.40 Ry     beta= 0.05
     Davidson diagonalization with overlap
     ethr =  1.00E-02,  avg # of iterations = 26.5

[...]

     iteration # 60     ecut=    29.40 Ry     beta= 0.05
     Davidson diagonalization with overlap
     c_bands:  1 eigenvalues not converged
     ethr =  3.22E-10,  avg # of iterations = 11.7

[...]

     total energy              =   -2964.99531679 Ry
     estimated scf accuracy    <       0.00000019 Ry

     iteration # 66     ecut=    29.40 Ry     beta= 0.05
     Davidson diagonalization with overlap
     ethr =  4.04E-11,  avg # of iterations =  3.6

     negative rho (up, down):  1.529E-02 0.000E+00

     Adding external electric field

     Computed dipole along edir(3) :
        Dipole                1.2197 Ry au,          3.1002 Debye
        Dipole field          0.0023 Ry au,

        Potential amp.       -0.2134 Ry
        Total length         46.3494 bohr

     End of self-consistent calculation

          k = 0.0000 0.0000 0.0000 ( 18029 PWs)   bands (ev):

   -55.5397 -55.5029 -55.5026 -55.4665 -55.4631 -55.4187 -55.3824 -55.3153
   -55.3027 -55.2800 -55.2693 -55.2600 -55.2189 -55.2100 -54.5514 -54.5174
   -32.0582 -32.0100 -31.8965 -31.8541 -31.8518 -31.8339 -31.8136 -31.8052
   -31.7817 -31.7697 -31.7361 -31.7263 -31.6986 -31.6862 -31.6840 -31.6500
   -31.6466 -31.6403 -31.6354 -31.6319 -31.6033 -31.5981 -31.5905 -31.5863
   -31.5592 -31.5547 -31.5512 -31.5307 -31.5236 -31.5220 -31.4764 -31.4754
   -31.4496 -31.4474 -31.4340 -31.4284 -31.4229 -31.4085 -31.3968 -31.3958
   -31.3923 -31.3764 -30.9609 -30.8647 -30.8424 -30.7775 -30.6913 -30.5803
   -19.3649 -19.1614 -16.2552 -15.9926 -15.8210 -15.7098 -15.6628 -15.4606
   -15.3678 -15.2872 -15.2235 -15.1459 -15.1292 -15.0914 -15.0655 -15.0599
   -15.0548 -15.0062 -14.9968 -14.9574 -14.9456 -14.9443 -14.9256 -14.9068
   -14.8249 -14.7227 -14.6791 -14.6609 -14.6024 -14.5456 -14.5326 -13.0519
   -12.9339  -9.0171  -7.2023  -5.2216  -5.1824  -3.7653  -3.5746  -3.4588
    -3.4242  -3.3883  -3.3191  -3.1388  -3.1303  -3.0374  -2.8001  -2.7097
    -2.6765  -2.6186  -2.6084  -2.5092  -2.4681  -2.3617  -2.3528  -2.3487
    -2.3325  -2.3066  -2.2735  -2.2316  -2.2070  -2.1950  -2.0673  -2.0567
    -1.9282  -1.9220  -1.8986  -1.8438  -1.8390  -1.7970  -1.7841  -1.7805
    -1.7675  -1.7192  -1.7076  -1.5945  -1.5207  -1.4576  -1.3712  -1.2325
    -1.1704  -1.1024  -1.0446  -1.0097  -0.9471  -0.9440  -0.8897  -0.8492
    -0.7909  -0.7796  -0.7721  -0.6756  -0.5763  -0.5549  -0.5248  -0.4463
    -0.3683  -0.2815  -0.2624  -0.2602  -0.2589  -0.2377  -0.1007  -0.0167
     0.0404   0.0455   0.1418   0.1748   0.2100   0.2242   0.2564   0.2771
     0.3331   0.4079   0.4195   0.4329   0.4585   0.5043   0.5100   0.6225
     0.6986   0.7001   0.7364   0.7692   0.9443   0.9795   1.1066   1.2137
     1.3800   1.4732   1.5450   1.6461   2.0592   2.1168   3.6333   3.6751
     3.6900   3.7323   3.7820   3.8085   3.8762   4.0753   4.0920   4.1015
     4.1410

[...]

          k = 0.0380-0.0419 0.0000 ( 17876 PWs)   bands (ev):

[...]

          k =-0.0760-0.0000 0.0000 ( 17886 PWs)   bands (ev):

[...]

          k =-0.0760-0.0839 0.0000 ( 17948 PWs)   bands (ev):

   -55.5283 -55.5142 -55.4858 -55.4830 -55.4615 -55.4085 -55.3926 -55.3118
   -55.2874 -55.2849 -55.2745 -55.2615 -55.2241 -55.2128 -54.5349 -54.5338
   -31.8689 -31.8541 -31.8341 -31.8214 -31.8185 -31.7991 -31.7743 -31.7571
   -31.7439 -31.7389 -31.7384 -31.7308 -31.6973 -31.6632 -31.6570 -31.6531
   -31.6439 -31.6414 -31.6383 -31.6357 -31.6297 -31.6109 -31.6100 -31.6090
   -31.6041 -31.5895 -31.5687 -31.5535 -31.5404 -31.5387 -31.5319 -31.5146
   -31.4971 -31.4928 -31.4861 -31.4843 -31.4665 -31.4481 -31.4430 -31.4371
   -31.4066 -31.4007 -30.8557 -30.8543 -30.7743 -30.7734 -30.7349 -30.7339
   -19.3560 -19.1611 -15.7066 -15.5974 -15.5633 -15.4163 -15.4121 -15.3611
   -15.3527 -15.3170 -15.2370 -15.2336 -15.1837 -15.1647 -15.1300 -15.1064
   -15.0947 -15.0490 -15.0466 -15.0280 -15.0039 -14.9855 -14.9690 -14.9415
   -14.9175 -14.9103 -14.8724 -14.8640 -14.7994 -14.7459 -14.7238 -13.0363
   -13.0341  -9.0179  -7.1997  -5.1986  -5.1593  -3.7188  -3.1576  -2.9905
    -2.8034  -2.7870  -2.6554  -2.6206  -2.6025  -2.5121  -2.4789  -2.4451
    -2.3821  -2.3713  -2.3648  -2.3430  -2.3382  -2.3243  -2.3036  -2.2664
    -2.2564  -2.2249  -2.1949  -2.1810  -2.1604  -2.1506  -2.1221  -2.1027
    -2.0901  -2.0864  -2.0243  -1.9967  -1.9113  -1.8452  -1.7640  -1.7119
    -1.6803  -1.6779  -1.6418  -1.6032  -1.5955  -1.5802  -1.4344  -1.3851
    -1.2624  -1.2490  -1.2298  -1.1535  -1.1383  -1.1073  -1.0983  -1.0323
    -0.9454  -0.9411  -0.9185  -0.8900  -0.8024  -0.7343  -0.6932  -0.6569
    -0.6134  -0.5835  -0.5096  -0.4960  -0.4851  -0.4228  -0.3824  -0.2973
    -0.2836  -0.2644  -0.2134  -0.1843  -0.1497  -0.0807  -0.0627  -0.0400
     0.0409   0.1070   0.1135   0.3233   0.4858   0.5148   0.5313   0.6161
     0.6628   0.7717   0.7944   0.8040   0.8464   0.8918   0.9793   1.0053
     1.0071   1.0846   1.8335   1.8342   1.9216   1.9322   3.5649   3.8789
     3.9432   3.9665   3.9915   4.1069   4.1094   4.1287   4.1373   4.2805
     4.2933

     the Fermi energy is     3.6114 ev

!    total energy              =   -2964.99534372 Ry
     estimated scf accuracy    <       0.00000006 Ry
     smearing contrib. (-TS)   =      -0.03111311 Ry
     internal energy E=F+TS    =   -2964.96423061 Ry

     The total energy is F=E-TS. E is the sum of the following terms:
     one-electron contribution =  -24342.98420432 Ry
     hartree contribution      =   12264.53565563 Ry
     xc contribution           =    -490.10765549 Ry
     ewald contribution        =    9603.58916601 Ry
     electric field correction =       0.00280757 Ry

     convergence has been achieved in  66 iterations

     Forces acting on atoms (cartesian axes, Ry/au):

     atom    1 type  1   force =    -0.00009813    0.00006997    0.10408328
     atom    2 type  1   force =    -0.00009004    0.00006399    0.10409677
     atom    3 type  2   force =    -0.00029775   -0.00188546    0.10329914
     atom    4 type  2   force =    -0.00015862    0.00151616    0.11463324
     atom    5 type  2   force =    -0.00037708    0.00124096   -0.17934927
     atom    6 type  2   force =    -0.00017239   -0.00076725   -0.17973647
     atom    7 type  1   force =    -0.06942323    0.00065337   -0.02930403
     atom    8 type  1   force =    -0.06897066   -0.00122491   -0.02934803
     atom    9 type  1   force =     0.06906850    0.00114641   -0.02936743
     atom   10 type  1   force =     0.06869970   -0.00080548   -0.02941960
     atom   11 type  1   force =     0.00042079    0.00056948    0.04682828
     atom   12 type  1   force =     0.00063243    0.00080618    0.04853506
     atom   13 type  1   force =     0.00026681   -0.00568492   -0.03323399
     atom   14 type  1   force =     0.00033200    0.00339720   -0.02636278
     atom   15 type  2   force =    -0.00010651   -0.00002573    0.00041463
     atom   16 type  2   force =     0.00001664    0.00002562    0.00052614
     atom   17 type  2   force =    -0.00001830    0.00013592    0.00042536
     atom   18 type  2   force =    -0.00006717   -0.00033304    0.00008798
     atom   19 type  1   force =    -0.01806627   -0.00015850    0.00403964
     atom   20 type  1   force =    -0.01684322    0.00147812    0.00329356
     atom   21 type  1   force =     0.01933392   -0.00136933    0.00448796
     atom   22 type  1   force =     0.01790314    0.00116519    0.00356530
     atom   23 type  1   force =     0.00001918    0.00003474   -0.00014599
     atom   24 type  1   force =    -0.00005292   -0.00001514   -0.00009971
     atom   25 type  1   force =    -0.00004985    0.00000273   -0.00057882
     atom   26 type  1   force =    -0.00023116    0.00014543   -0.00065895
     atom   27 type  2   force =     0.00003698    0.00013957   -0.00044611
     atom   28 type  2   force =     0.00023537    0.00003586   -0.00010259
     atom   29 type  2   force =     0.00022354    0.00000124   -0.00022674
     atom   30 type  2   force =    -0.00008826    0.00019798    0.00018213
     atom   31 type  1   force =    -0.00066019   -0.00024670    0.00053214
     atom   32 type  1   force =    -0.00057213    0.00032839    0.00056041
     atom   33 type  1   force =     0.00041359   -0.00014716    0.00034898
     atom   34 type  1   force =     0.00033603    0.00019420    0.00037609
     atom   35 type  1   force =    -0.00015110    0.00001141    0.00023200
     atom   36 type  1   force =    -0.00009452    0.00000666   -0.00023467
     atom   37 type  1   force =    -0.00036133    0.00001052   -0.00017998
     atom   38 type  1   force =    -0.00050449    0.00026964   -0.00001904
     atom   39 type  2   force =    -0.00009943   -0.00007872    0.00130438
     atom   40 type  2   force =     0.00025357    0.00021438   -0.00123700
     atom   41 type  2   force =    -0.00036397   -0.00099385   -0.00065297
     atom   42 type  2   force =    -0.00033471    0.00099901   -0.00052673
     atom   43 type  1   force =    -0.00000905    0.00018211    0.00026248
     atom   44 type  1   force =    -0.00007092   -0.00005366    0.00006402
     atom   45 type  1   force =    -0.00042180   -0.00027212    0.00003012
     atom   46 type  1   force =    -0.00047580    0.00043997    0.00018159
     atom   47 type  1   force =     0.00000726   -0.00020039    0.00027859
     atom   48 type  1   force =    -0.00021330    0.00011787    0.00063321
     atom   49 type  3   force =     0.00019930   -0.00055448    0.00021077
     atom   50 type  4   force =     0.00048351   -0.00116636    0.00044346
     atom   51 type  4   force =     0.00037382   -0.00026365   -0.00062827
     atom   52 type  1   force =     0.00996279    0.00073484   -0.00832870
     atom   53 type  4   force =    -0.00070722   -0.00001092    0.00066794
     atom   54 type  4   force =    -0.00906734   -0.00007735    0.00556320

     Total force =     0.374888     Total SCF correction =     0.000734
  @ DRIVER MODE: Message from server: STATUS
  @ DRIVER MODE: Message from server: GETFORCE
  @ DRIVER MODE: Returning v,forces,stress,ensemble

     Writing output data file ./calc.save/
  @ DRIVER MODE: Message from server: EXIT
  @ DRIVE MODE: Exiting

     General routines

     Parallel routines

   This run was terminated on:   5:40:30  16Sep2021

   JOB DONE.