     Program PWSCF v.6.7GPU starts on 12Oct2021 at  9:41:48

     R & G space division:  proc/nbgrp/npool/nimage =       8
     Reading input from /storage/home/hcoda1/3/ntian30/research/carbon/ACS_vib/ads_slab/NH3/out_0003/pw.inp
Warning: card &CELL ignored
Warning: card   CELL_DYNAMICS='IPI', ignored
Warning: card / ignored

     Current dimensions of program PWSCF are:
     Max number of different atomic species (ntypx) = 10
     Max number of k-points (npk) =  40000
     Max angular momentum in pseudopotentials (lmaxx) =  3
     Presently no symmetry can be used with electric field

     Message from routine cell_base_init:
     DEPRECATED: use true lattice parameter, not A to a.u. conversion factor

     IMPORTANT: XC functional enforced from input :
     Exchange-correlation= BEEF-VDW
                           (   1   4  43  14   2   0   0)
     Any further DFT definition will be discarded
     Please, verify this is what you really want

  @ DRIVER MODE: Connecting to
 qe_1139763_3181317.sched-torque.pace.gatech.edu5datvby1_scratch
  using UNIX socket
  @ DRIVER MODE: Message from server: STATUS
  @ DRIVER MODE: Message from server: INIT
  @ DRIVER MODE: Receiving replica           0          -1
  @ DRIVER MODE: Receiving encoded integer          25
  @ DRIVER MODE:  SCF:  T  FORCE:  T  STRESS:  F  VC:  F  ENSEMBLE:  F
  @ DRIVER MODE:  SCF:  T  FORCE:  T  STRESS:  F  VC:  F  ENSEMBLE:  F

     Using Slab Decomposition

     bravais-lattice index     =            0
     lattice parameter (alat)  =       1.8897  a.u.
     unit-cell volume          =    6658.9804 (a.u.)^3
     number of atoms/cell      =           51
     number of atomic types    =            4
     number of electrons       =       386.00
     number of Kohn-Sham states=          203
     kinetic-energy cutoff     =      29.3995  Ry
     charge density cutoff     =     293.9946  Ry
     scf convergence threshold =      7.3E-08
     mixing beta               =       0.0500
     number of iterations used =            8  plain     mixing
     Exchange-correlation= BEEF-VDW
                           (   1   4  43  14   2   0   0)

     celldm(1)=   1.889726  celldm(2)=   0.000000  celldm(3)=   0.000000
     celldm(4)=   0.000000  celldm(5)=   0.000000  celldm(6)=   0.000000

     crystal axes: (cart. coord. in units of alat)
               a(1) = (   6.579727   0.000000   0.000000 )
               a(2) = (  -0.000775   5.961596   0.000000 )
               a(3) = (   0.000000   0.000000  25.155947 )

     reciprocal axes: (cart. coord. in units 2 pi/alat)
               b(1) = (  0.151982  0.000020  0.000000 )
               b(2) = (  0.000000  0.167740  0.000000 )
               b(3) = (  0.000000  0.000000  0.039752 )

     PseudoPot. # 1 for Ti read from file:
     /storage/coda1/p-amedford6/0/shared/rich_project_chbe-medford/medford-share/data/pseudos_module/espresso/nninc/pbe/van/Ti.UPF
     MD5 check sum: 8e4df49b7f0d34bbd5052bf3f5ea0213
     Pseudo is Ultrasoft, Zval = 12.0
     Generated by new atomic code, or converted to UPF format
     Using radial grid of  851 points,  6 beta functions with:
                l(1) =   0
                l(2) =   0
                l(3) =   1
                l(4) =   1
                l(5) =   2
                l(6) =   2
     Q(r) pseudized with  8 coefficients,  rinner =    1.000   1.000   1.000
                                                       1.000   1.000

     PseudoPot. # 2 for O  read from file:
     /storage/coda1/p-amedford6/0/shared/rich_project_chbe-medford/medford-share/data/pseudos_module/espresso/nninc/pbe/van/O.UPF
     MD5 check sum: 78c19812648e8988a0fe644b0f25305e
     Pseudo is Ultrasoft, Zval =  6.0
     Generated by new atomic code, or converted to UPF format
     Using radial grid of  737 points,  4 beta functions with:
                l(1) =   0
                l(2) =   0
                l(3) =   1
                l(4) =   1
     Q(r) pseudized with  8 coefficients,  rinner =    0.800   0.800   0.800

     PseudoPot. # 3 for N  read from file:
     /storage/coda1/p-amedford6/0/shared/rich_project_chbe-medford/medford-share/data/pseudos_module/espresso/nninc/pbe/van/N.UPF
     MD5 check sum: 90d10febe142ad51ac9d5be1deb811c4
     Pseudo is Ultrasoft, Zval =  5.0
     Generated by new atomic code, or converted to UPF format
     Using radial grid of  729 points,  4 beta functions with:
                l(1) =   0
                l(2) =   0
                l(3) =   1
                l(4) =   1
     Q(r) pseudized with  8 coefficients,  rinner =    0.800   0.800   0.800

     PseudoPot. # 4 for H  read from file:
     /storage/coda1/p-amedford6/0/shared/rich_project_chbe-medford/medford-share/data/pseudos_module/espresso/nninc/pbe/van/H.UPF
     MD5 check sum: b5ee9d7bfd3a09ee7748110bda690ff7
     Pseudo is Ultrasoft, Zval =  1.0
     Generated by new atomic code, or converted to UPF format
     Using radial grid of  615 points,  1 beta functions with:
                l(1) =   0
     Q(r) pseudized with  8 coefficients,  rinner =    0.800

     atomic species   valence    mass     pseudopotential
        Ti1           12.00    47.86700     Ti( 1.00)
        O1             6.00    15.99900     O ( 1.00)
        N1             5.00    14.00700     N ( 1.00)
        H1             1.00     1.00800     H ( 1.00)

     No symmetry found

   Cartesian axes

     site n.     atom                  positions (alat units)
         1           Ti1 tau(   1) = (   0.0004258   2.9801865   6.0000000  )
         2           Ti1 tau(   2) = (   3.2906075   1.4906267   6.0002472  )
         3           O1  tau(   3) = (   0.0006271   0.0005054   7.9858123  )
         4           O1  tau(   4) = (   3.2906025   0.0005020   7.3038282  )
         5           O1  tau(   5) = (   4.5942328   1.4918067   9.2879030  )
         6           O1  tau(   6) = (   1.9868534   1.4903216   9.2879459  )
         7           Ti1 tau(   7) = (   3.2905188   2.9817269   9.1608671  )
         8           Ti1 tau(   8) = (   0.0008727   1.4903491   9.2579811  )
         9           O1  tau(   9) = (   3.2954587   0.0012773  11.3746546  )
        10           O1  tau(  10) = (   0.0020290   0.0006084  10.6073296  )
        11           O1  tau(  11) = (   1.2942686   1.4887116  12.6629798  )
        12           O1  tau(  12) = (   5.2972733   1.4890718  12.6650130  )
        13           Ti1 tau(  13) = (   0.0067627   2.9786896  12.5148789  )
        14           Ti1 tau(  14) = (   3.2982433   1.4907855  12.5198723  )
        15           O1  tau(  15) = (   0.0088675   5.9288053  14.6873217  )
        16           O1  tau(  16) = (   3.2976659   5.9545549  13.9976866  )
        17           O1  tau(  17) = (   4.5618459   1.5065800  16.1616785  )
        18           O1  tau(  18) = (   2.0406978   1.5054917  16.1618958  )
        19           Ti1 tau(  19) = (   3.3003398   2.9801551  15.7464260  )
        20           Ti1 tau(  20) = (   0.0122322   1.3591711  15.8926631  )
        21           O1  tau(  21) = (   3.2904802   0.0005063   4.7018136  )
        22           O1  tau(  22) = (   0.0111396   0.0327255  17.2179391  )
        23           O1  tau(  23) = (   1.3043587   1.4918075   6.0039043  )
        24           O1  tau(  24) = (   5.2767064   1.4903225   6.0039473  )
        25           Ti1 tau(  25) = (   0.0000382   5.9609847   6.0000000  )
        26           Ti1 tau(  26) = (   3.2902200   4.4714249   6.0002472  )
        27           O1  tau(  27) = (   0.0002396   2.9813036   7.9858123  )
        28           O1  tau(  28) = (   3.2902150   2.9813002   7.3038282  )
        29           O1  tau(  29) = (   4.5938453   4.4726049   9.2879030  )
        30           O1  tau(  30) = (   1.9864658   4.4711199   9.2879459  )
        31           Ti1 tau(  31) = (   3.2908958   0.0009406   9.1591437  )
        32           Ti1 tau(  32) = (   0.0004876   4.4725358   9.2579169  )
        33           O1  tau(  33) = (   3.2950182   2.9773574  11.3676543  )
        34           O1  tau(  34) = (   0.0019984   2.9784031  10.6274637  )
        35           O1  tau(  35) = (   1.2946310   4.4674284  12.6500497  )
        36           O1  tau(  36) = (   5.2961322   4.4668132  12.6522398  )
        37           Ti1 tau(  37) = (   0.0072964   5.9565020  12.4821340  )
        38           Ti1 tau(  38) = (   3.2980713   4.4687862  12.5160290  )
        39           O1  tau(  39) = (   0.0098827   2.9916113  14.9005182  )
        40           O1  tau(  40) = (   3.2960480   2.9848727  13.9584560  )
        41           O1  tau(  41) = (   4.5591248   4.4529439  16.1935040  )
        42           O1  tau(  42) = (   2.0431063   4.4547719  16.1917947  )
        43           Ti1 tau(  43) = (   3.3030955   0.0010839  15.7925060  )
        44           Ti1 tau(  44) = (   0.0111621   4.5610188  15.9796684  )
        45           O1  tau(  45) = (   3.2900926   2.9813045   4.7018136  )
        46           O1  tau(  46) = (   1.3039711   4.4726057   6.0039043  )
        47           O1  tau(  47) = (   5.2763189   4.4711207   6.0039473  )
        48           N1  tau(  48) = (   0.0348475   3.0384350  18.0388005  )
        49           H1  tau(  49) = (   0.0344738   2.0763216  18.3478120  )
        50           H1  tau(  50) = (   0.8651728   3.4882926  18.4252144  )
        51           H1  tau(  51) = (   5.8033537   3.4985160  18.4509717  )

     number of k points=    10  Fermi-Dirac smearing, width (Ry)=  0.0073
                       cart. coord. in units 2pi/alat
        k(    1) = (   0.0000000   0.0000000   0.0000000), wk =   0.1250000
        k(    2) = (   0.0000000   0.0419351   0.0000000), wk =   0.2500000
        k(    3) = (   0.0000000  -0.0838702   0.0000000), wk =   0.1250000
        k(    4) = (   0.0379955   0.0000049   0.0000000), wk =   0.2500000
        k(    5) = (   0.0379955   0.0419400   0.0000000), wk =   0.2500000
        k(    6) = (   0.0379955  -0.0838652   0.0000000), wk =   0.2500000
        k(    7) = (   0.0379955  -0.0419301   0.0000000), wk =   0.2500000
        k(    8) = (  -0.0759910  -0.0000099   0.0000000), wk =   0.1250000
        k(    9) = (  -0.0759910   0.0419252   0.0000000), wk =   0.2500000
        k(   10) = (  -0.0759910  -0.0838800   0.0000000), wk =   0.1250000

     Initial potential from superposition of free atoms

     starting charge  369.99921, renormalised to  386.00000

     negative rho (up, down):  1.972E-02 0.000E+00

     %%%%%%%%%%%%%%%%%%%%%%%%%%%%%%%%%%%%%%%%%%%%%%%%%%%%%%%%%%%%%%%%%%%%%%%%
     %                                                                      %
     % You are using vdW-DF, which was implemented by the Thonhauser group. %
     % Please cite the following two papers that made this development      %
     % possible and the two reviews that describe the various versions:     %
     %                                                                      %
     %   T. Thonhauser et al., PRL 115, 136402 (2015).                      %
     %   T. Thonhauser et al., PRB 76, 125112 (2007).                       %
     %   K. Berland et al., Rep. Prog. Phys. 78, 066501 (2015).             %
     %   D.C. Langreth et al., J. Phys.: Condens. Matter 21, 084203 (2009). %
     %                                                                      %
     %                                                                      %
     % If you are calculating the stress with vdW-DF, please also cite:     %
     %                                                                      %
     %   R. Sabatini et al., J. Phys.: Condens. Matter 24, 424209 (2012).   %
     %                                                                      %
     %%%%%%%%%%%%%%%%%%%%%%%%%%%%%%%%%%%%%%%%%%%%%%%%%%%%%%%%%%%%%%%%%%%%%%%%

     Adding external electric field

     Computed dipole along edir(3) :
        Dipole               -3.5656 Ry au,         -9.0628 Debye
        Dipole field         -0.0067 Ry au,

        Potential amp.        0.6237 Ry
        Total length         46.3494 bohr

     Starting wfcs are  291 atomic wfcs
  @ DRIVER MODE: Message from server: STATUS
  @ DRIVER MODE: Message from server: POSDATA
  @ DRIVER MODE: Reading and sharing cell
  @ DRIVER MODE: Reading and sharing positions
  @ DRIVER MODE: Received positions

     Self-consistent Calculation

     iteration #  1     ecut=    29.40 Ry     beta= 0.05
     Davidson diagonalization with overlap
     c_bands:  1 eigenvalues not converged
     c_bands:  2 eigenvalues not converged
     c_bands:  1 eigenvalues not converged
     c_bands:  4 eigenvalues not converged
     c_bands:  1 eigenvalues not converged
     c_bands:  1 eigenvalues not converged
     c_bands:  3 eigenvalues not converged
     ethr =  1.00E-05,  avg # of iterations = 20.0

[...]

     total energy              =   -2896.15285468 Ry
     estimated scf accuracy    <     156.13788180 Ry

     iteration #  2     ecut=    29.40 Ry     beta= 0.05
     Davidson diagonalization with overlap
     ethr =  1.00E-02,  avg # of iterations = 15.1

[...]

     iteration # 68     ecut=    29.40 Ry     beta= 0.05
     Davidson diagonalization with overlap
     c_bands:  1 eigenvalues not converged
     ethr =  2.55E-10,  avg # of iterations = 12.6

[...]

     total energy              =   -2907.69368699 Ry
     estimated scf accuracy    <       0.00000013 Ry

     iteration # 72     ecut=    29.40 Ry     beta= 0.05
     Davidson diagonalization with overlap
     ethr =  3.34E-11,  avg # of iterations =  9.8

     negative rho (up, down):  1.929E-02 0.000E+00

     Adding external electric field

     Computed dipole along edir(3) :
        Dipole                1.2451 Ry au,          3.1648 Debye
        Dipole field          0.0023 Ry au,

        Potential amp.       -0.2178 Ry
        Total length         46.3494 bohr

     End of self-consistent calculation

          k = 0.0000 0.0000 0.0000 ( 18029 PWs)   bands (ev):

   -55.6693 -55.6331 -55.6267 -55.5925 -55.5797 -55.5510 -55.5414 -55.5038
   -55.4976 -55.4961 -55.4619 -55.4609 -55.4512 -55.4172 -54.7121 -54.6780
   -32.2385 -32.1741 -32.1250 -32.0276 -31.9861 -31.9708 -31.9694 -31.9634
   -31.9173 -31.9126 -31.8759 -31.8752 -31.8728 -31.8717 -31.8437 -31.8240
   -31.8226 -31.8137 -31.8045 -31.7975 -31.7799 -31.7749 -31.7532 -31.7498
   -31.7457 -31.7307 -31.7217 -31.7210 -31.6865 -31.6825 -31.6705 -31.6552
   -31.6550 -31.6430 -31.6355 -31.6304 -31.6284 -31.6015 -31.5952 -31.5852
   -31.5835 -31.5650 -31.1238 -31.0228 -31.0012 -30.9400 -30.8535 -30.7426
   -16.5055 -16.2646 -16.1392 -15.9984 -15.8893 -15.8577 -15.7576 -15.7246
   -15.6109 -15.5229 -15.3984 -15.3530 -15.3266 -15.3211 -15.3089 -15.2903
   -15.2810 -15.2178 -15.1789 -15.1703 -15.1499 -15.1485 -15.1061 -15.1052
   -15.0484 -15.0326 -14.8957 -14.8211 -14.7601 -14.5089 -13.2135 -13.0944
    -6.1332  -5.9081  -3.8332  -3.6737  -3.6462  -3.5963  -3.5856  -3.4295
    -3.2698  -3.1366  -3.0919  -2.9540  -2.9201  -2.8722  -2.8438  -2.6962
    -2.6620  -2.6320  -2.5746  -2.5451  -2.5437  -2.5354  -2.5220  -2.4407
    -2.4382  -2.4199  -2.3047  -2.2538  -2.1431  -2.1124  -2.0487  -2.0316
    -1.9943  -1.9933  -1.9832  -1.9324  -1.9313  -1.9072  -1.8738  -1.8033
    -1.7085  -1.6539  -1.5632  -1.5296  -1.4214  -1.4177  -1.2507  -1.2310
    -1.1655  -1.1216  -1.1115  -1.0783  -1.0689  -1.0188  -0.9092  -0.8247
    -0.7862  -0.7241  -0.6733  -0.6410  -0.6035  -0.5318  -0.4601  -0.4530
    -0.4214  -0.3057  -0.2639  -0.2088  -0.1559  -0.1472  -0.1119  -0.0128
    -0.0070   0.0914   0.0980   0.1304   0.1592   0.2654   0.2737   0.2829
     0.3032   0.3039   0.3914   0.4295   0.4910   0.5067   0.6521   0.8667
     0.9035   0.9344   1.2063   1.2814   1.3131   1.4766   1.8957   1.9479
     3.4298   3.4941   3.5289   3.5584   3.5725   3.6393   3.9191   3.9223
     3.9352   3.9502   3.9859

[...]

          k = 0.0380-0.0419 0.0000 ( 17876 PWs)   bands (ev):

[...]

          k =-0.0760-0.0000 0.0000 ( 17886 PWs)   bands (ev):

[...]

          k =-0.0760-0.0839 0.0000 ( 17948 PWs)   bands (ev):

   -55.6529 -55.6493 -55.6097 -55.6094 -55.5752 -55.5478 -55.5303 -55.5149
   -55.5017 -55.4798 -55.4778 -55.4642 -55.4356 -55.4329 -54.6951 -54.6949
   -32.0936 -32.0430 -32.0398 -31.9563 -31.9400 -31.9397 -31.9281 -31.9027
   -31.9025 -31.8724 -31.8702 -31.8656 -31.8620 -31.8394 -31.8301 -31.8194
   -31.7964 -31.7958 -31.7954 -31.7924 -31.7901 -31.7874 -31.7858 -31.7466
   -31.7450 -31.7433 -31.7370 -31.7326 -31.7279 -31.7277 -31.7276 -31.7258
   -31.7072 -31.7041 -31.6915 -31.6780 -31.6764 -31.6589 -31.6562 -31.6469
   -31.6215 -31.6189 -31.0138 -31.0136 -30.9365 -30.9363 -30.8969 -30.8967
   -16.0638 -15.9351 -15.9128 -15.8592 -15.6967 -15.6835 -15.6531 -15.6342
   -15.4928 -15.4758 -15.4603 -15.4538 -15.4099 -15.4003 -15.3926 -15.3836
   -15.2632 -15.2589 -15.2485 -15.2452 -15.1771 -15.1739 -15.1708 -15.1541
   -15.1286 -15.1157 -15.0798 -15.0754 -14.9989 -14.8433 -13.1955 -13.1955
    -6.0906  -5.9144  -3.1885  -3.1483  -3.1232  -2.9054  -2.8713  -2.8424
    -2.8306  -2.7480  -2.6862  -2.6826  -2.6686  -2.6299  -2.5759  -2.5606
    -2.5548  -2.5193  -2.5075  -2.4942  -2.4609  -2.4473  -2.3911  -2.3624
    -2.3496  -2.3480  -2.3357  -2.3289  -2.3136  -2.2950  -2.2728  -2.2673
    -2.1499  -2.0453  -1.9992  -1.9904  -1.8883  -1.8843  -1.8833  -1.7969
    -1.7765  -1.7239  -1.7186  -1.6973  -1.4830  -1.4651  -1.4478  -1.4438
    -1.4189  -1.3407  -1.2629  -1.2351  -1.2194  -1.1650  -1.0506  -1.0180
    -0.9981  -0.9237  -0.8816  -0.8665  -0.8167  -0.6825  -0.6694  -0.6654
    -0.6512  -0.6457  -0.5882  -0.5826  -0.5016  -0.4551  -0.4037  -0.3913
    -0.3709  -0.1791  -0.1448  -0.0783   0.0182   0.0227   0.1994   0.2455
     0.2523   0.3553   0.3774   0.4151   0.4708   0.5924   0.6058   0.6424
     0.7180   0.7744   0.7751   0.7773   1.6647   1.6661   1.7661   1.7662
     3.5765   3.6659   3.6829   3.7460   3.8390   3.9421   3.9435   3.9585
     3.9880   3.9896   4.0923

     the Fermi energy is     3.4896 ev

!    total energy              =   -2907.69369719 Ry
     estimated scf accuracy    <       0.00000007 Ry
     smearing contrib. (-TS)   =      -0.03697494 Ry
     internal energy E=F+TS    =   -2907.65672225 Ry

     The total energy is F=E-TS. E is the sum of the following terms:
     one-electron contribution =  -24675.91230152 Ry
     hartree contribution      =   12422.76140276 Ry
     xc contribution           =    -476.55050375 Ry
     ewald contribution        =    9822.04175461 Ry
     electric field correction =       0.00292565 Ry

     convergence has been achieved in  72 iterations

     Forces acting on atoms (cartesian axes, Ry/au):

     atom    1 type  1   force =    -0.00000688    0.00005275    0.09121073
     atom    2 type  1   force =    -0.00012883    0.00035065   -0.18252738
     atom    3 type  2   force =     0.00003419   -0.00041495   -0.02467733
     atom    4 type  2   force =     0.00001170    0.00000909    0.05210766
     atom    5 type  2   force =    -0.01338630   -0.00056871    0.00485200
     atom    6 type  2   force =     0.01363139   -0.00009088    0.00501070
     atom    7 type  1   force =    -0.00001178   -0.00034258   -0.00325232
     atom    8 type  1   force =    -0.00006936    0.00369205    0.00361315
     atom    9 type  2   force =     0.00000643    0.00016425   -0.00017583
     atom   10 type  2   force =     0.00003443    0.00004477   -0.00036594
     atom   11 type  2   force =    -0.00003834    0.00018839    0.00018364
     atom   12 type  2   force =     0.00008341    0.00014075    0.00014698
     atom   13 type  1   force =     0.00012773    0.00055153   -0.00016765
     atom   14 type  1   force =     0.00010610   -0.00015496   -0.00074641
     atom   15 type  2   force =     0.00011194   -0.00038768   -0.00008189
     atom   16 type  2   force =    -0.00004239    0.00005047    0.00026151
     atom   17 type  2   force =     0.00047321    0.00004960   -0.00006347
     atom   18 type  2   force =    -0.00047402    0.00012712    0.00001247
     atom   19 type  1   force =     0.00026818    0.00016355    0.00045420
     atom   20 type  1   force =    -0.00003432   -0.00121619   -0.00009814
     atom   21 type  2   force =     0.00001184    0.00011810    0.10477953
     atom   22 type  2   force =     0.00010574   -0.00006287    0.00138196
     atom   23 type  2   force =    -0.06846076   -0.00024128   -0.02641998
     atom   24 type  2   force =     0.06830406    0.00018729   -0.02647685
     atom   25 type  1   force =     0.00007165    0.00000807    0.09095918
     atom   26 type  1   force =    -0.00009946   -0.00043547   -0.18246064
     atom   27 type  2   force =     0.00002398    0.00005966   -0.02329286
     atom   28 type  2   force =     0.00000592    0.00001794    0.05199341
     atom   29 type  2   force =    -0.01322246   -0.00010613    0.00518751
     atom   30 type  2   force =     0.01345919    0.00041104    0.00533659
     atom   31 type  1   force =     0.00004516    0.00024140   -0.00292888
     atom   32 type  1   force =    -0.00008959   -0.00359694    0.00349812
     atom   33 type  2   force =     0.00001493   -0.00019795    0.00017896
     atom   34 type  2   force =     0.00001556   -0.00006510   -0.00063686
     atom   35 type  2   force =    -0.00009358   -0.00028071   -0.00002860
     atom   36 type  2   force =     0.00013072   -0.00023286   -0.00005415
     atom   37 type  1   force =     0.00009972   -0.00065057    0.00077756
     atom   38 type  1   force =     0.00008526    0.00015020   -0.00069008
     atom   39 type  2   force =     0.00006861   -0.00019680    0.00004845
     atom   40 type  2   force =     0.00008801   -0.00009969    0.00067455
     atom   41 type  2   force =     0.00048518   -0.00019926    0.00024992
     atom   42 type  2   force =    -0.00048233   -0.00031004    0.00045725
     atom   43 type  1   force =     0.00010445   -0.00025333    0.00003466
     atom   44 type  1   force =    -0.00010512    0.00077571   -0.00033851
     atom   45 type  2   force =     0.00001409    0.00009494    0.10476544
     atom   46 type  2   force =    -0.06844097   -0.00015631   -0.02640055
     atom   47 type  2   force =     0.06829092    0.00028060   -0.02644904
     atom   48 type  3   force =     0.00053004    0.02469116    0.00107059
     atom   49 type  4   force =    -0.00028902   -0.01432008    0.00477890
     atom   50 type  4   force =    -0.00486529   -0.00414808   -0.00321216
     atom   51 type  4   force =     0.00349705   -0.00389168   -0.00248012

     Total force =     0.367495     Total SCF correction =     0.000388
  @ DRIVER MODE: Message from server: STATUS
  @ DRIVER MODE: Message from server: GETFORCE
  @ DRIVER MODE: Returning v,forces,stress,ensemble

     Writing output data file ./calc.save/
  @ DRIVER MODE: Message from server: EXIT
  @ DRIVE MODE: Exiting

     General routines

     Parallel routines

   This run was terminated on:  10: 3:53  12Oct2021

   JOB DONE.