     Program PWSCF v.6.7GPU starts on 23Sep2021 at  8:35:24

     R & G space division:  proc/nbgrp/npool/nimage =       8
     Reading input from /storage/home/hcoda1/3/ntian30/research/carbon/CxH_vib/H2O_calc/ads_slab/CH2OHHO_a/out_0029/pw.inp
Warning: card &CELL ignored
Warning: card   CELL_DYNAMICS='IPI', ignored
Warning: card / ignored

     Current dimensions of program PWSCF are:
     Max number of different atomic species (ntypx) = 10
     Max number of k-points (npk) =  40000
     Max angular momentum in pseudopotentials (lmaxx) =  3
     Presently no symmetry can be used with electric field

     Message from routine cell_base_init:
     DEPRECATED: use true lattice parameter, not A to a.u. conversion factor

     IMPORTANT: XC functional enforced from input :
     Exchange-correlation= BEEF-VDW
                           (   1   4  43  14   2   0   0)
     Any further DFT definition will be discarded
     Please, verify this is what you really want

  @ DRIVER MODE: Connecting to
 qe_1139763_2941013.sched-torque.pace.gatech.edue7a8_y3t_scratch
  using UNIX socket
  @ DRIVER MODE: Message from server: STATUS
  @ DRIVER MODE: Message from server: INIT
  @ DRIVER MODE: Receiving replica           0          -1
  @ DRIVER MODE: Receiving encoded integer          25
  @ DRIVER MODE:  SCF:  T  FORCE:  T  STRESS:  F  VC:  F  ENSEMBLE:  F
  @ DRIVER MODE:  SCF:  T  FORCE:  T  STRESS:  F  VC:  F  ENSEMBLE:  F

     Using Slab Decomposition

     bravais-lattice index     =            0
     lattice parameter (alat)  =       1.8897  a.u.
     unit-cell volume          =    6658.9804 (a.u.)^3
     number of atoms/cell      =           54
     number of atomic types    =            4
     number of electrons       =       398.00
     number of Kohn-Sham states=          209
     kinetic-energy cutoff     =      29.3995  Ry
     charge density cutoff     =     293.9946  Ry
     scf convergence threshold =      7.3E-08
     mixing beta               =       0.0500
     number of iterations used =            8  plain     mixing
     Exchange-correlation= BEEF-VDW
                           (   1   4  43  14   2   0   0)

     celldm(1)=   1.889726  celldm(2)=   0.000000  celldm(3)=   0.000000
     celldm(4)=   0.000000  celldm(5)=   0.000000  celldm(6)=   0.000000

     crystal axes: (cart. coord. in units of alat)
               a(1) = (   6.579727   0.000000   0.000000 )
               a(2) = (  -0.000775   5.961596   0.000000 )
               a(3) = (   0.000000   0.000000  25.155947 )

     reciprocal axes: (cart. coord. in units 2 pi/alat)
               b(1) = (  0.151982  0.000020  0.000000 )
               b(2) = (  0.000000  0.167740  0.000000 )
               b(3) = (  0.000000  0.000000  0.039752 )

     PseudoPot. # 1 for Ti read from file:
     /storage/coda1/p-amedford6/0/shared/rich_project_chbe-medford/medford-share/data/pseudos_module/espresso/nninc/pbe/van/Ti.UPF
     MD5 check sum: 8e4df49b7f0d34bbd5052bf3f5ea0213
     Pseudo is Ultrasoft, Zval = 12.0
     Generated by new atomic code, or converted to UPF format
     Using radial grid of  851 points,  6 beta functions with:
                l(1) =   0
                l(2) =   0
                l(3) =   1
                l(4) =   1
                l(5) =   2
                l(6) =   2
     Q(r) pseudized with  8 coefficients,  rinner =    1.000   1.000   1.000
                                                       1.000   1.000

     PseudoPot. # 2 for O  read from file:
     /storage/coda1/p-amedford6/0/shared/rich_project_chbe-medford/medford-share/data/pseudos_module/espresso/nninc/pbe/van/O.UPF
     MD5 check sum: 78c19812648e8988a0fe644b0f25305e
     Pseudo is Ultrasoft, Zval =  6.0
     Generated by new atomic code, or converted to UPF format
     Using radial grid of  737 points,  4 beta functions with:
                l(1) =   0
                l(2) =   0
                l(3) =   1
                l(4) =   1
     Q(r) pseudized with  8 coefficients,  rinner =    0.800   0.800   0.800

     PseudoPot. # 3 for C  read from file:
     /storage/coda1/p-amedford6/0/shared/rich_project_chbe-medford/medford-share/data/pseudos_module/espresso/nninc/pbe/van/C.UPF
     MD5 check sum: 1a69bf6b8db32088f5b2163dbdb77a27
     Pseudo is Ultrasoft, Zval =  4.0
     Generated by new atomic code, or converted to UPF format
     Using radial grid of  721 points,  4 beta functions with:
                l(1) =   0
                l(2) =   0
                l(3) =   1
                l(4) =   1
     Q(r) pseudized with  8 coefficients,  rinner =    0.800   0.800   0.800

     PseudoPot. # 4 for H  read from file:
     /storage/coda1/p-amedford6/0/shared/rich_project_chbe-medford/medford-share/data/pseudos_module/espresso/nninc/pbe/van/H.UPF
     MD5 check sum: b5ee9d7bfd3a09ee7748110bda690ff7
     Pseudo is Ultrasoft, Zval =  1.0
     Generated by new atomic code, or converted to UPF format
     Using radial grid of  615 points,  1 beta functions with:
                l(1) =   0
     Q(r) pseudized with  8 coefficients,  rinner =    0.800

     atomic species   valence    mass     pseudopotential
        Ti1           12.00    47.86700     Ti( 1.00)
        O1             6.00    15.99900     O ( 1.00)
        C1             4.00    12.01100     C ( 1.00)
        H1             1.00     1.00800     H ( 1.00)

     No symmetry found

   Cartesian axes

     site n.     atom                  positions (alat units)
         1           Ti1 tau(   1) = (   0.0004258   2.9801865   6.0000000  )
         2           Ti1 tau(   2) = (   3.2906075   1.4906267   6.0002472  )
         3           O1  tau(   3) = (   0.0006271   0.0005054   7.9858123  )
         4           O1  tau(   4) = (   3.2906025   0.0005020   7.3038282  )
         5           O1  tau(   5) = (   4.5942328   1.4918067   9.2879030  )
         6           O1  tau(   6) = (   1.9868534   1.4903216   9.2879459  )
         7           Ti1 tau(   7) = (   3.2053781   3.0281819   9.2289109  )
         8           Ti1 tau(   8) = (   6.4789090   1.5422439   9.3246958  )
         9           O1  tau(   9) = (   3.3131828   0.0076525  11.3143355  )
        10           O1  tau(  10) = (   0.0036331   0.0073455  10.5537702  )
        11           O1  tau(  11) = (   1.2849538   1.5262321  12.5678262  )
        12           O1  tau(  12) = (   5.3289628   1.4687457  12.6164477  )
        13           Ti1 tau(  13) = (   0.0494698   3.0469090  12.7547230  )
        14           Ti1 tau(  14) = (   3.2845375   1.6334081  12.5308488  )
        15           O1  tau(  15) = (   0.1943872   0.0117586  14.6058021  )
        16           O1  tau(  16) = (   3.1943342   5.9422946  13.9142442  )
        17           O1  tau(  17) = (   4.6623408   1.4089460  15.7678261  )
        18           O1  tau(  18) = (   2.0428328   1.6351894  16.0888801  )
        19           Ti1 tau(  19) = (   3.4388860   2.9458104  15.8736401  )
        20           Ti1 tau(  20) = (   0.1295272   1.3814375  15.8666627  )
        21           O1  tau(  21) = (   3.2904802   0.0005063   4.7018136  )
        22           O1  tau(  22) = (   0.0846747   0.0144810  17.1090220  )
        23           O1  tau(  23) = (   1.3043587   1.4918075   6.0039043  )
        24           O1  tau(  24) = (   5.2767064   1.4903225   6.0039473  )
        25           Ti1 tau(  25) = (   0.0000382   5.9609847   6.0000000  )
        26           Ti1 tau(  26) = (   3.2902200   4.4714249   6.0002472  )
        27           O1  tau(  27) = (   0.0002396   2.9813036   7.9858123  )
        28           O1  tau(  28) = (   3.2902150   2.9813002   7.3038282  )
        29           O1  tau(  29) = (   4.5938453   4.4726049   9.2879030  )
        30           O1  tau(  30) = (   1.9864658   4.4711199   9.2879459  )
        31           Ti1 tau(  31) = (   3.2224821   0.0470802   9.2230333  )
        32           Ti1 tau(  32) = (   6.4759698   4.4664252   9.3127940  )
        33           O1  tau(  33) = (   3.3094535   2.9663607  11.2852029  )
        34           O1  tau(  34) = (   6.5591786   2.9896559  10.5312464  )
        35           O1  tau(  35) = (   1.2916819   4.4480478  12.5709280  )
        36           O1  tau(  36) = (   5.3369627   4.5124161  12.6303246  )
        37           Ti1 tau(  37) = (   6.5569224   0.0640291  12.4639877  )
        38           Ti1 tau(  38) = (   3.2972653   4.6387695  12.6472152  )
        39           O1  tau(  39) = (   0.0654804   2.9943531  14.6628162  )
        40           O1  tau(  40) = (   3.3673531   2.9793459  13.8791815  )
        41           O1  tau(  41) = (   4.6654837   4.5585741  15.7845026  )
        42           O1  tau(  42) = (   2.0434307   4.3527116  16.0649513  )
        43           Ti1 tau(  43) = (   3.4443475   5.9291804  16.0141943  )
        44           Ti1 tau(  44) = (   0.1552736   4.5966999  15.8683145  )
        45           O1  tau(  45) = (   3.2900926   2.9813045   4.7018136  )
        46           O1  tau(  46) = (   1.3039711   4.4726057   6.0039043  )
        47           O1  tau(  47) = (   5.2763189   4.4711207   6.0039473  )
        48           C1  tau(  48) = (   4.6056898   2.9812133  17.8228851  )
        49           O1  tau(  49) = (   6.0966523   2.9907575  17.4046881  )
        50           H1  tau(  50) = (   0.0599730   2.9907033  18.2108262  )
        51           H1  tau(  51) = (   4.4920754   2.0732530  18.4117920  )
        52           H1  tau(  52) = (   4.4771298   3.8877196  18.4006030  )
        53           O1  tau(  53) = (   3.3127961   5.9530928  17.8757943  )
        54           H1  tau(  54) = (   2.4287022   0.1083392  18.2542858  )

     number of k points=    10  Fermi-Dirac smearing, width (Ry)=  0.0073
                       cart. coord. in units 2pi/alat
        k(    1) = (   0.0000000   0.0000000   0.0000000), wk =   0.1250000
        k(    2) = (   0.0000000   0.0419351   0.0000000), wk =   0.2500000
        k(    3) = (   0.0000000  -0.0838702   0.0000000), wk =   0.1250000
        k(    4) = (   0.0379955   0.0000049   0.0000000), wk =   0.2500000
        k(    5) = (   0.0379955   0.0419400   0.0000000), wk =   0.2500000
        k(    6) = (   0.0379955  -0.0838652   0.0000000), wk =   0.2500000
        k(    7) = (   0.0379955  -0.0419301   0.0000000), wk =   0.2500000
        k(    8) = (  -0.0759910  -0.0000099   0.0000000), wk =   0.1250000
        k(    9) = (  -0.0759910   0.0419252   0.0000000), wk =   0.2500000
        k(   10) = (  -0.0759910  -0.0838800   0.0000000), wk =   0.1250000

     Initial potential from superposition of free atoms

     starting charge  381.99917, renormalised to  398.00000

     negative rho (up, down):  1.911E-02 0.000E+00

     %%%%%%%%%%%%%%%%%%%%%%%%%%%%%%%%%%%%%%%%%%%%%%%%%%%%%%%%%%%%%%%%%%%%%%%%
     %                                                                      %
     % You are using vdW-DF, which was implemented by the Thonhauser group. %
     % Please cite the following two papers that made this development      %
     % possible and the two reviews that describe the various versions:     %
     %                                                                      %
     %   T. Thonhauser et al., PRL 115, 136402 (2015).                      %
     %   T. Thonhauser et al., PRB 76, 125112 (2007).                       %
     %   K. Berland et al., Rep. Prog. Phys. 78, 066501 (2015).             %
     %   D.C. Langreth et al., J. Phys.: Condens. Matter 21, 084203 (2009). %
     %                                                                      %
     %                                                                      %
     % If you are calculating the stress with vdW-DF, please also cite:     %
     %                                                                      %
     %   R. Sabatini et al., J. Phys.: Condens. Matter 24, 424209 (2012).   %
     %                                                                      %
     %%%%%%%%%%%%%%%%%%%%%%%%%%%%%%%%%%%%%%%%%%%%%%%%%%%%%%%%%%%%%%%%%%%%%%%%

     Adding external electric field

     Computed dipole along edir(3) :
        Dipole               -7.9384 Ry au,        -20.1774 Debye
        Dipole field         -0.0150 Ry au,

        Potential amp.        1.3887 Ry
        Total length         46.3494 bohr

     Starting wfcs are  300 atomic wfcs
  @ DRIVER MODE: Message from server: STATUS
  @ DRIVER MODE: Message from server: POSDATA
  @ DRIVER MODE: Reading and sharing cell
  @ DRIVER MODE: Reading and sharing positions
  @ DRIVER MODE: Received positions

     Self-consistent Calculation

     iteration #  1     ecut=    29.40 Ry     beta= 0.05
     Davidson diagonalization with overlap
     c_bands:  1 eigenvalues not converged
     c_bands:  2 eigenvalues not converged
     c_bands:  2 eigenvalues not converged
     c_bands:  1 eigenvalues not converged
     c_bands:  1 eigenvalues not converged
     c_bands:  1 eigenvalues not converged
     ethr =  1.00E-05,  avg # of iterations = 18.8

[...]

     total energy              =   -2649.64734338 Ry
     estimated scf accuracy    <    3498.91856006 Ry

[...]

     iteration #  3     ecut=    29.40 Ry     beta= 0.05
     Davidson diagonalization with overlap
     ethr =  1.00E-02,  avg # of iterations = 13.9

[...]

     iteration # 37     ecut=    29.40 Ry     beta= 0.05
     Davidson diagonalization with overlap
     c_bands:  1 eigenvalues not converged
     c_bands:  1 eigenvalues not converged
     ethr =  8.68E-07,  avg # of iterations = 14.6

[...]

     total energy              =   -2964.91873024 Ry
     estimated scf accuracy    <       0.00000024 Ry

     iteration # 56     ecut=    29.40 Ry     beta= 0.05
     Davidson diagonalization with overlap
     ethr =  5.56E-11,  avg # of iterations =  5.0

     negative rho (up, down):  1.875E-02 0.000E+00

     Adding external electric field

     Computed dipole along edir(3) :
        Dipole                0.6455 Ry au,          1.6407 Debye
        Dipole field          0.0012 Ry au,

        Potential amp.       -0.1129 Ry
        Total length         46.3494 bohr

     End of self-consistent calculation

          k = 0.0000 0.0000 0.0000 ( 18029 PWs)   bands (ev):

   -56.4302 -56.3653 -55.7969 -55.7956 -55.7489 -55.7450 -55.7419 -55.7011
   -55.6939 -55.6464 -55.4592 -55.4436 -55.3797 -55.3601 -54.9560 -54.9221
   -32.8324 -32.7059 -32.6290 -32.6011 -32.4992 -32.4571 -32.4110 -32.3215
   -32.2148 -32.1828 -32.1046 -32.0610 -32.0405 -32.0046 -32.0033 -31.9950
   -31.9755 -31.9607 -31.9557 -31.9447 -31.9398 -31.9358 -31.9237 -31.9057
   -31.8930 -31.8913 -31.8728 -31.8637 -31.8513 -31.8336 -31.8235 -31.7986
   -31.7601 -31.7036 -31.6604 -31.6472 -31.6231 -31.5929 -31.5903 -31.5595
   -31.5489 -31.4179 -31.3488 -31.3030 -31.2785 -31.1646 -31.0785 -30.9695
   -19.3241 -16.5884 -16.4376 -16.3078 -16.1715 -15.9566 -15.9275 -15.8246
   -15.7228 -15.6821 -15.6005 -15.5721 -15.4340 -15.3844 -15.3562 -15.3351
   -15.3147 -15.2961 -15.2814 -15.2435 -15.2281 -15.1944 -15.1409 -15.0751
   -15.0538 -15.0021 -14.9701 -14.9540 -14.8694 -14.8048 -14.7242 -13.4633
   -13.3574  -9.1729  -6.1937  -4.0861  -3.9932  -3.9315  -3.8838  -3.7852
    -3.7197  -3.6860  -3.6215  -3.3065  -3.1745  -3.0809  -3.0266  -3.0029
    -2.9271  -2.9260  -2.9123  -2.7944  -2.7352  -2.7093  -2.6476  -2.6307
    -2.5876  -2.5531  -2.5477  -2.5343  -2.4916  -2.4516  -2.4115  -2.3923
    -2.3464  -2.2635  -2.2455  -2.1679  -2.1337  -2.1121  -2.0245  -1.9596
    -1.9497  -1.9126  -1.8896  -1.7830  -1.6051  -1.5191  -1.4616  -1.4079
    -1.3857  -1.3187  -1.3094  -1.2539  -1.1957  -1.1692  -1.1653  -1.0487
    -0.9960  -0.9636  -0.9173  -0.8829  -0.8187  -0.7716  -0.7557  -0.7254
    -0.7117  -0.6040  -0.5172  -0.4975  -0.4680  -0.4354  -0.3144  -0.2704
    -0.2361  -0.2085  -0.1913  -0.1500  -0.1062  -0.0381   0.0071   0.0627
     0.1017   0.1724   0.1829   0.2212   0.2561   0.2922   0.3553   0.3707
     0.4747   0.5038   0.5603   0.5967   0.7416   0.7703   0.9275   0.9917
     1.0547   1.1491   1.2750   1.3373   1.5850   1.6244   1.7871   2.8848
     3.0475   3.3152   3.3598   3.4950   3.5649   3.6228   3.7645   3.7912
     3.8453

[...]

          k = 0.0380-0.0419 0.0000 ( 17876 PWs)   bands (ev):

[...]

          k =-0.0760-0.0000 0.0000 ( 17886 PWs)   bands (ev):

[...]

          k =-0.0760-0.0839 0.0000 ( 17948 PWs)   bands (ev):

   -56.4255 -56.3699 -55.7891 -55.7891 -55.7564 -55.7482 -55.7377 -55.7084
   -55.6867 -55.6536 -55.4562 -55.4387 -55.3845 -55.3630 -54.9392 -54.9388
   -32.7028 -32.6714 -32.6310 -32.6256 -32.5727 -32.5248 -32.3334 -32.1606
   -32.1065 -32.0734 -32.0530 -32.0349 -32.0344 -32.0218 -32.0142 -32.0122
   -31.9970 -31.9817 -31.9760 -31.9561 -31.9554 -31.9525 -31.9492 -31.9364
   -31.9239 -31.9032 -31.8927 -31.8834 -31.8669 -31.8379 -31.7875 -31.7672
   -31.7576 -31.7221 -31.7143 -31.6807 -31.6615 -31.6488 -31.6346 -31.6028
   -31.5962 -31.4188 -31.2917 -31.2914 -31.1625 -31.1621 -31.1218 -31.1215
   -19.3166 -16.2425 -16.1286 -15.9398 -15.9043 -15.8277 -15.8260 -15.7767
   -15.7374 -15.6404 -15.5852 -15.5669 -15.4951 -15.4707 -15.4533 -15.4273
   -15.3772 -15.3520 -15.3285 -15.3173 -15.2737 -15.2499 -15.2454 -15.1983
   -15.1456 -15.1192 -15.1012 -15.0497 -14.9938 -14.9349 -14.8822 -13.4647
   -13.4589  -9.1810  -6.1755  -4.1004  -3.6725  -3.6355  -3.3386  -3.1550
    -2.9757  -2.9639  -2.9501  -2.9425  -2.8739  -2.8670  -2.8188  -2.7779
    -2.7224  -2.7020  -2.6746  -2.6696  -2.6634  -2.6221  -2.6115  -2.5854
    -2.5586  -2.5533  -2.5105  -2.5033  -2.4835  -2.4364  -2.4223  -2.3896
    -2.3598  -2.3335  -2.2814  -2.2237  -2.2043  -2.1911  -2.0647  -1.9973
    -1.9908  -1.9150  -1.9009  -1.8725  -1.8329  -1.7572  -1.6953  -1.6563
    -1.5242  -1.5042  -1.4487  -1.4112  -1.3362  -1.3247  -1.2410  -1.2117
    -1.1714  -1.1387  -1.1088  -1.0858  -1.0643  -1.0608  -0.9374  -0.9060
    -0.8547  -0.8389  -0.8058  -0.7732  -0.7492  -0.6932  -0.6250  -0.6161
    -0.5673  -0.5215  -0.4528  -0.4149  -0.3339  -0.2775  -0.2367  -0.1698
    -0.0635   0.0578   0.0957   0.2003   0.2982   0.3057   0.3718   0.4206
     0.4477   0.4927   0.5768   0.5890   0.6561   0.6673   0.7009   0.7584
     0.8074   0.8770   1.4251   1.4410   1.4626   1.4654   1.7255   3.4283
     3.4549   3.4751   3.5177   3.6632   3.7572   3.7838   3.8500   3.8954
     3.9212

     the Fermi energy is     2.4089 ev

!    total energy              =   -2964.91880009 Ry
     estimated scf accuracy    <       0.00000007 Ry
     smearing contrib. (-TS)   =      -0.00044377 Ry
     internal energy E=F+TS    =   -2964.91835632 Ry

     The total energy is F=E-TS. E is the sum of the following terms:
     one-electron contribution =  -24901.25914466 Ry
     hartree contribution      =   12541.01063608 Ry
     xc contribution           =    -490.07250867 Ry
     ewald contribution        =    9885.40187461 Ry
     electric field correction =       0.00078633 Ry

     convergence has been achieved in  56 iterations

     Forces acting on atoms (cartesian axes, Ry/au):

     atom    1 type  1   force =     0.00009301   -0.00023057    0.12242169
     atom    2 type  1   force =     0.00010377    0.00183163   -0.15178795
     atom    3 type  2   force =    -0.00068123   -0.00092440   -0.05775659
     atom    4 type  2   force =    -0.00119340    0.00052151    0.04762269
     atom    5 type  2   force =    -0.01071561   -0.00519355   -0.00143586
     atom    6 type  2   force =     0.01359267    0.00025369   -0.00014463
     atom    7 type  1   force =    -0.00027327    0.00015026    0.00008158
     atom    8 type  1   force =     0.00040301   -0.00014164   -0.00040575
     atom    9 type  2   force =     0.00001226   -0.00023782    0.00043428
     atom   10 type  2   force =    -0.00012238   -0.00005636    0.00015594
     atom   11 type  2   force =    -0.00046717   -0.00026766    0.00026884
     atom   12 type  2   force =     0.00018414    0.00007899   -0.00000884
     atom   13 type  1   force =     0.00041050   -0.00011064   -0.00007596
     atom   14 type  1   force =    -0.00011215   -0.00026451   -0.00001036
     atom   15 type  2   force =    -0.00029682   -0.00019378   -0.00020505
     atom   16 type  2   force =     0.00018934    0.00007641   -0.00006132
     atom   17 type  2   force =    -0.00018506   -0.00024324   -0.00002316
     atom   18 type  2   force =    -0.00002024   -0.00024207    0.00011875
     atom   19 type  1   force =    -0.00042021   -0.00016525   -0.00023468
     atom   20 type  1   force =    -0.00012740    0.00012385   -0.00045600
     atom   21 type  2   force =     0.00027203    0.00012995    0.09730006
     atom   22 type  2   force =    -0.00032485   -0.00035401   -0.00024049
     atom   23 type  2   force =    -0.08311049    0.00238617   -0.03357987
     atom   24 type  2   force =     0.08315648    0.00267293   -0.03364478
     atom   25 type  1   force =     0.00041626    0.00037843    0.13898513
     atom   26 type  1   force =     0.00005525   -0.00119341   -0.15161048
     atom   27 type  2   force =    -0.00070075    0.00143738   -0.05289722
     atom   28 type  2   force =    -0.00117896    0.00017591    0.04593441
     atom   29 type  2   force =    -0.01132589    0.00058758   -0.00073297
     atom   30 type  2   force =     0.01405974    0.00412773    0.00077100
     atom   31 type  1   force =    -0.00049244   -0.00017375    0.00014861
     atom   32 type  1   force =     0.00034747   -0.00004785   -0.00017561
     atom   33 type  2   force =    -0.00024785    0.00012255    0.00010249
     atom   34 type  2   force =     0.00013934    0.00008386    0.00014486
     atom   35 type  2   force =    -0.00020134    0.00054732    0.00035001
     atom   36 type  2   force =     0.00022725   -0.00000847   -0.00016921
     atom   37 type  1   force =    -0.00061665    0.00028142    0.00022187
     atom   38 type  1   force =    -0.00033399   -0.00041576   -0.00019023
     atom   39 type  2   force =     0.00006279   -0.00010013    0.00032188
     atom   40 type  2   force =    -0.00026466   -0.00010304    0.00026697
     atom   41 type  2   force =    -0.00010666   -0.00043396    0.00006133
     atom   42 type  2   force =    -0.00034046   -0.00018364    0.00032943
     atom   43 type  1   force =    -0.00013948    0.00008333   -0.00045388
     atom   44 type  1   force =    -0.00009422   -0.00005103    0.00002944
     atom   45 type  2   force =     0.00022910    0.00013666    0.09736515
     atom   46 type  2   force =    -0.08303011   -0.00265110   -0.03359740
     atom   47 type  2   force =     0.08306549   -0.00230011   -0.03369627
     atom   48 type  3   force =     0.00095724   -0.00502071   -0.00441822
     atom   49 type  2   force =     0.00011765   -0.00019992   -0.00033184
     atom   50 type  4   force =     0.00027460    0.00007742   -0.00025314
     atom   51 type  4   force =    -0.00004811    0.00043398    0.00060254
     atom   52 type  4   force =    -0.00119780    0.00491387    0.00429635
     atom   53 type  2   force =    -0.00067262    0.00052253    0.00088088
     atom   54 type  4   force =     0.00067289   -0.00062697   -0.00061841

     Total force =     0.377807     Total SCF correction =     0.000745
  @ DRIVER MODE: Message from server: STATUS
  @ DRIVER MODE: Message from server: GETFORCE
  @ DRIVER MODE: Returning v,forces,stress,ensemble

     Writing output data file ./calc.save/
  @ DRIVER MODE: Message from server: EXIT
  @ DRIVE MODE: Exiting

     General routines

     Parallel routines

   This run was terminated on:   8:53:38  23Sep2021

   JOB DONE.