     Program PWSCF v.6.7GPU starts on 22Sep2021 at  3:15:18

     R & G space division:  proc/nbgrp/npool/nimage =      10
     Reading input from /storage/home/hcoda1/3/ntian30/research/carbon/CxH_vib/CH_calc/ads_slab/CHNHNHH2O_b/out_0014/pw.inp
Warning: card &CELL ignored
Warning: card   CELL_DYNAMICS='IPI', ignored
Warning: card / ignored

     Current dimensions of program PWSCF are:
     Max number of different atomic species (ntypx) = 10
     Max number of k-points (npk) =  40000
     Max angular momentum in pseudopotentials (lmaxx) =  3
     Presently no symmetry can be used with electric field

     Message from routine cell_base_init:
     DEPRECATED: use true lattice parameter, not A to a.u. conversion factor

     IMPORTANT: XC functional enforced from input :
     Exchange-correlation= BEEF-VDW
                           (   1   4  43  14   2   0   0)
     Any further DFT definition will be discarded
     Please, verify this is what you really want

  @ DRIVER MODE: Connecting to
 qe_1139763_2927424.sched-torque.pace.gatech.edulc6_7baa_scratch
  using UNIX socket
  @ DRIVER MODE: Message from server: STATUS
  @ DRIVER MODE: Message from server: INIT
  @ DRIVER MODE: Receiving replica           0          -1
  @ DRIVER MODE: Receiving encoded integer          25
  @ DRIVER MODE:  SCF:  T  FORCE:  T  STRESS:  F  VC:  F  ENSEMBLE:  F
  @ DRIVER MODE:  SCF:  T  FORCE:  T  STRESS:  F  VC:  F  ENSEMBLE:  F

     Using Slab Decomposition

     bravais-lattice index     =            0
     lattice parameter (alat)  =       1.8897  a.u.
     unit-cell volume          =    6658.9804 (a.u.)^3
     number of atoms/cell      =           56
     number of atomic types    =            5
     number of electrons       =       403.00
     number of Kohn-Sham states=          211
     kinetic-energy cutoff     =      29.3995  Ry
     charge density cutoff     =     293.9946  Ry
     scf convergence threshold =      7.3E-08
     mixing beta               =       0.0500
     number of iterations used =            8  plain     mixing
     Exchange-correlation= BEEF-VDW
                           (   1   4  43  14   2   0   0)

     celldm(1)=   1.889726  celldm(2)=   0.000000  celldm(3)=   0.000000
     celldm(4)=   0.000000  celldm(5)=   0.000000  celldm(6)=   0.000000

     crystal axes: (cart. coord. in units of alat)
               a(1) = (   6.579727   0.000000   0.000000 )
               a(2) = (  -0.000775   5.961596   0.000000 )
               a(3) = (   0.000000   0.000000  25.155947 )

     reciprocal axes: (cart. coord. in units 2 pi/alat)
               b(1) = (  0.151982  0.000020  0.000000 )
               b(2) = (  0.000000  0.167740  0.000000 )
               b(3) = (  0.000000  0.000000  0.039752 )

     PseudoPot. # 1 for Ti read from file:
     /storage/coda1/p-amedford6/0/shared/rich_project_chbe-medford/medford-share/data/pseudos_module/espresso/nninc/pbe/van/Ti.UPF
     MD5 check sum: 8e4df49b7f0d34bbd5052bf3f5ea0213
     Pseudo is Ultrasoft, Zval = 12.0
     Generated by new atomic code, or converted to UPF format
     Using radial grid of  851 points,  6 beta functions with:
                l(1) =   0
                l(2) =   0
                l(3) =   1
                l(4) =   1
                l(5) =   2
                l(6) =   2
     Q(r) pseudized with  8 coefficients,  rinner =    1.000   1.000   1.000
                                                       1.000   1.000

     PseudoPot. # 2 for O  read from file:
     /storage/coda1/p-amedford6/0/shared/rich_project_chbe-medford/medford-share/data/pseudos_module/espresso/nninc/pbe/van/O.UPF
     MD5 check sum: 78c19812648e8988a0fe644b0f25305e
     Pseudo is Ultrasoft, Zval =  6.0
     Generated by new atomic code, or converted to UPF format
     Using radial grid of  737 points,  4 beta functions with:
                l(1) =   0
                l(2) =   0
                l(3) =   1
                l(4) =   1
     Q(r) pseudized with  8 coefficients,  rinner =    0.800   0.800   0.800

     PseudoPot. # 3 for N  read from file:
     /storage/coda1/p-amedford6/0/shared/rich_project_chbe-medford/medford-share/data/pseudos_module/espresso/nninc/pbe/van/N.UPF
     MD5 check sum: 90d10febe142ad51ac9d5be1deb811c4
     Pseudo is Ultrasoft, Zval =  5.0
     Generated by new atomic code, or converted to UPF format
     Using radial grid of  729 points,  4 beta functions with:
                l(1) =   0
                l(2) =   0
                l(3) =   1
                l(4) =   1
     Q(r) pseudized with  8 coefficients,  rinner =    0.800   0.800   0.800

     PseudoPot. # 4 for C  read from file:
     /storage/coda1/p-amedford6/0/shared/rich_project_chbe-medford/medford-share/data/pseudos_module/espresso/nninc/pbe/van/C.UPF
     MD5 check sum: 1a69bf6b8db32088f5b2163dbdb77a27
     Pseudo is Ultrasoft, Zval =  4.0
     Generated by new atomic code, or converted to UPF format
     Using radial grid of  721 points,  4 beta functions with:
                l(1) =   0
                l(2) =   0
                l(3) =   1
                l(4) =   1
     Q(r) pseudized with  8 coefficients,  rinner =    0.800   0.800   0.800

     PseudoPot. # 5 for H  read from file:
     /storage/coda1/p-amedford6/0/shared/rich_project_chbe-medford/medford-share/data/pseudos_module/espresso/nninc/pbe/van/H.UPF
     MD5 check sum: b5ee9d7bfd3a09ee7748110bda690ff7
     Pseudo is Ultrasoft, Zval =  1.0
     Generated by new atomic code, or converted to UPF format
     Using radial grid of  615 points,  1 beta functions with:
                l(1) =   0
     Q(r) pseudized with  8 coefficients,  rinner =    0.800

     atomic species   valence    mass     pseudopotential
        Ti1           12.00    47.86700     Ti( 1.00)
        O1             6.00    15.99900     O ( 1.00)
        N1             5.00    14.00700     N ( 1.00)
        C1             4.00    12.01100     C ( 1.00)
        H1             1.00     1.00800     H ( 1.00)

     No symmetry found

   Cartesian axes

     site n.     atom                  positions (alat units)
         1           Ti1 tau(   1) = (   0.0004258   2.9801865   6.0000000  )
         2           Ti1 tau(   2) = (   3.2906075   1.4906267   6.0002472  )
         3           O1  tau(   3) = (   0.0006271   0.0005054   7.9858123  )
         4           O1  tau(   4) = (   3.2906025   0.0005020   7.3038282  )
         5           O1  tau(   5) = (   4.5942328   1.4918067   9.2879030  )
         6           O1  tau(   6) = (   1.9868534   1.4903216   9.2879459  )
         7           Ti1 tau(   7) = (   3.2907910   2.8959150   9.1758416  )
         8           Ti1 tau(   8) = (   0.0015273   1.4827037   9.2680791  )
         9           O1  tau(   9) = (   3.2780774   5.9605562  11.3537357  )
        10           O1  tau(  10) = (   0.0116148   5.9584955  10.6183126  )
        11           O1  tau(  11) = (   1.2922713   1.4781662  12.6511241  )
        12           O1  tau(  12) = (   5.2965393   1.5043564  12.6031353  )
        13           Ti1 tau(  13) = (   6.5273184   3.0207086  12.5807821  )
        14           Ti1 tau(  14) = (   3.2344070   1.4559942  12.5004267  )
        15           O1  tau(  15) = (   6.4759410   0.0295824  14.6525783  )
        16           O1  tau(  16) = (   3.3604338   0.0238249  13.9383540  )
        17           O1  tau(  17) = (   4.5324113   1.5808541  16.1066768  )
        18           O1  tau(  18) = (   1.9684897   1.4712893  15.8817925  )
        19           Ti1 tau(  19) = (   3.2566353   3.0739815  15.8599551  )
        20           Ti1 tau(  20) = (   6.5466614   1.5318677  15.7800735  )
        21           O1  tau(  21) = (   3.2904802   0.0005063   4.7018136  )
        22           O1  tau(  22) = (   6.5744325   0.0155309  17.2227980  )
        23           O1  tau(  23) = (   1.3043587   1.4918075   6.0039043  )
        24           O1  tau(  24) = (   5.2767064   1.4903225   6.0039473  )
        25           Ti1 tau(  25) = (   0.0000382   5.9609847   6.0000000  )
        26           Ti1 tau(  26) = (   3.2902200   4.4714249   6.0002472  )
        27           O1  tau(  27) = (   0.0002396   2.9813036   7.9858123  )
        28           O1  tau(  28) = (   3.2902150   2.9813002   7.3038282  )
        29           O1  tau(  29) = (   4.5938453   4.4726049   9.2879030  )
        30           O1  tau(  30) = (   1.9864658   4.4711199   9.2879459  )
        31           Ti1 tau(  31) = (   3.2891106   5.8743827   9.1763621  )
        32           Ti1 tau(  32) = (   0.0006254   4.4649316   9.2693709  )
        33           O1  tau(  33) = (   3.2727763   2.9788165  11.3438337  )
        34           O1  tau(  34) = (   0.0092240   2.9805883  10.6323155  )
        35           O1  tau(  35) = (   1.2865780   4.4896361  12.6556599  )
        36           O1  tau(  36) = (   5.2967437   4.4749066  12.6066920  )
        37           Ti1 tau(  37) = (   6.5467059   0.0356701  12.5108493  )
        38           Ti1 tau(  38) = (   3.2305653   4.4019604  12.5605372  )
        39           O1  tau(  39) = (   6.5199767   2.9846217  14.6905747  )
        40           O1  tau(  40) = (   3.2851694   3.0254550  13.9321539  )
        41           O1  tau(  41) = (   4.5310495   4.4602642  16.1636806  )
        42           O1  tau(  42) = (   1.9842988   4.5744318  15.9411167  )
        43           Ti1 tau(  43) = (   3.2691225   0.1036042  15.7405456  )
        44           Ti1 tau(  44) = (   6.5697781   4.6877429  16.0360384  )
        45           O1  tau(  45) = (   3.2900926   2.9813045   4.7018136  )
        46           O1  tau(  46) = (   1.3039711   4.4726057   6.0039043  )
        47           O1  tau(  47) = (   5.2763189   4.4711207   6.0039473  )
        48           N1  tau(  48) = (   1.2792381   2.8578196  18.3696018  )
        49           N1  tau(  49) = (   0.1888888   2.9646215  17.5057353  )
        50           C1  tau(  50) = (   2.5452320   2.9081513  18.0382144  )
        51           H1  tau(  51) = (   3.1442446   2.7411670  18.9317345  )
        52           H1  tau(  52) = (   1.0014291   2.6635404  19.3302151  )
        53           H1  tau(  53) = (   5.9397212   2.8571719  18.0851170  )
        54           O1  tau(  54) = (   3.2630597   0.0341043  18.2348460  )
        55           H1  tau(  55) = (   4.0455299   5.4198958  18.2485053  )
        56           H1  tau(  56) = (   2.4923979   5.4091459  18.3156537  )

     number of k points=    10  Fermi-Dirac smearing, width (Ry)=  0.0073
                       cart. coord. in units 2pi/alat
        k(    1) = (   0.0000000   0.0000000   0.0000000), wk =   0.1250000
        k(    2) = (   0.0000000   0.0419351   0.0000000), wk =   0.2500000
        k(    3) = (   0.0000000  -0.0838702   0.0000000), wk =   0.1250000
        k(    4) = (   0.0379955   0.0000049   0.0000000), wk =   0.2500000
        k(    5) = (   0.0379955   0.0419400   0.0000000), wk =   0.2500000
        k(    6) = (   0.0379955  -0.0838652   0.0000000), wk =   0.2500000
        k(    7) = (   0.0379955  -0.0419301   0.0000000), wk =   0.2500000
        k(    8) = (  -0.0759910  -0.0000099   0.0000000), wk =   0.1250000
        k(    9) = (  -0.0759910   0.0419252   0.0000000), wk =   0.2500000
        k(   10) = (  -0.0759910  -0.0838800   0.0000000), wk =   0.1250000

     Initial potential from superposition of free atoms

     starting charge  386.99914, renormalised to  403.00000

     negative rho (up, down):  1.738E-02 0.000E+00

     %%%%%%%%%%%%%%%%%%%%%%%%%%%%%%%%%%%%%%%%%%%%%%%%%%%%%%%%%%%%%%%%%%%%%%%%
     %                                                                      %
     % You are using vdW-DF, which was implemented by the Thonhauser group. %
     % Please cite the following two papers that made this development      %
     % possible and the two reviews that describe the various versions:     %
     %                                                                      %
     %   T. Thonhauser et al., PRL 115, 136402 (2015).                      %
     %   T. Thonhauser et al., PRB 76, 125112 (2007).                       %
     %   K. Berland et al., Rep. Prog. Phys. 78, 066501 (2015).             %
     %   D.C. Langreth et al., J. Phys.: Condens. Matter 21, 084203 (2009). %
     %                                                                      %
     %                                                                      %
     % If you are calculating the stress with vdW-DF, please also cite:     %
     %                                                                      %
     %   R. Sabatini et al., J. Phys.: Condens. Matter 24, 424209 (2012).   %
     %                                                                      %
     %%%%%%%%%%%%%%%%%%%%%%%%%%%%%%%%%%%%%%%%%%%%%%%%%%%%%%%%%%%%%%%%%%%%%%%%

     Adding external electric field

     Computed dipole along edir(3) :
        Dipole              -12.3463 Ry au,        -31.3811 Debye
        Dipole field         -0.0233 Ry au,

        Potential amp.        2.1598 Ry
        Total length         46.3494 bohr

     Starting wfcs are  305 atomic wfcs
  @ DRIVER MODE: Message from server: STATUS
  @ DRIVER MODE: Message from server: POSDATA
  @ DRIVER MODE: Reading and sharing cell
  @ DRIVER MODE: Reading and sharing positions
  @ DRIVER MODE: Received positions

     Self-consistent Calculation

     iteration #  1     ecut=    29.40 Ry     beta= 0.05
     Davidson diagonalization with overlap
     c_bands:  5 eigenvalues not converged
     c_bands:  3 eigenvalues not converged
     c_bands:  3 eigenvalues not converged
     c_bands:  1 eigenvalues not converged
     c_bands:  2 eigenvalues not converged
     c_bands:  2 eigenvalues not converged
     c_bands:  5 eigenvalues not converged
     c_bands:  2 eigenvalues not converged
     c_bands:  4 eigenvalues not converged
     ethr =  1.00E-05,  avg # of iterations = 29.3

[...]

     total energy              =   -2358.73916123 Ry
     estimated scf accuracy    <    6971.38785975 Ry

     iteration #  2     ecut=    29.40 Ry     beta= 0.05
     Davidson diagonalization with overlap
     ethr =  1.00E-02,  avg # of iterations = 27.2

[...]

     iteration # 57     ecut=    29.40 Ry     beta= 0.05
     Davidson diagonalization with overlap
     c_bands:  1 eigenvalues not converged
     c_bands:  1 eigenvalues not converged
     ethr =  2.96E-11,  avg # of iterations = 14.7

[...]

     total energy              =   -2973.93985729 Ry
     estimated scf accuracy    <       0.00000011 Ry

     iteration # 58     ecut=    29.40 Ry     beta= 0.05
     Davidson diagonalization with overlap
     ethr =  2.75E-11,  avg # of iterations = 11.4

     negative rho (up, down):  1.726E-02 0.000E+00

     Adding external electric field

     Computed dipole along edir(3) :
        Dipole                1.3972 Ry au,          3.5515 Debye
        Dipole field          0.0026 Ry au,

        Potential amp.       -0.2444 Ry
        Total length         46.3494 bohr

     End of self-consistent calculation

          k = 0.0000 0.0000 0.0000 ( 18029 PWs)   bands (ev):

   -55.3215 -55.2874 -55.2119 -55.1874 -55.1691 -55.1577 -55.1424 -55.1205
   -55.1086 -55.1040 -55.0996 -55.0650 -54.9932 -54.8352 -54.3020 -54.2679
   -31.8056 -31.7328 -31.6577 -31.6520 -31.6422 -31.6135 -31.5892 -31.5667
   -31.5214 -31.5024 -31.4739 -31.4658 -31.4571 -31.4421 -31.4275 -31.4234
   -31.4001 -31.3820 -31.3787 -31.3667 -31.3358 -31.3351 -31.3308 -31.3277
   -31.3247 -31.3212 -31.3170 -31.2990 -31.2911 -31.2812 -31.2743 -31.2724
   -31.2631 -31.2608 -31.2540 -31.2502 -31.2413 -31.2158 -31.2121 -31.0915
   -31.0764 -31.0505 -30.7088 -30.6208 -30.5984 -30.5258 -30.4394 -30.3281
   -18.8730 -18.6062 -15.9795 -15.7955 -15.6142 -15.4758 -15.3937 -15.1622
   -15.1036 -15.0651 -14.9838 -14.9607 -14.8609 -14.8418 -14.8396 -14.8221
   -14.8192 -14.7643 -14.7488 -14.7446 -14.6960 -14.6892 -14.6640 -14.6485
   -14.5949 -14.5172 -14.5078 -14.4623 -14.4170 -14.3706 -14.0232 -13.3727
   -12.8027 -12.6862  -8.7866  -7.2690  -6.6138  -4.3216  -3.7601  -3.3625
    -3.2855  -3.2511  -3.2262  -3.0899  -2.9731  -2.8608  -2.7560  -2.6721
    -2.5859  -2.4819  -2.4250  -2.3797  -2.3187  -2.2590  -2.2329  -2.1471
    -2.1274  -2.1080  -2.0857  -2.0600  -2.0302  -1.9919  -1.8704  -1.8596
    -1.7775  -1.7214  -1.6818  -1.6650  -1.6409  -1.6356  -1.6033  -1.5826
    -1.5743  -1.5623  -1.5612  -1.5254  -1.3867  -1.3639  -1.3343  -1.3113
    -1.1637  -1.0266  -0.9381  -0.9363  -0.8269  -0.7617  -0.7591  -0.7206
    -0.7049  -0.6025  -0.5173  -0.4803  -0.4558  -0.3773  -0.3198  -0.2640
    -0.2122  -0.1757  -0.1100  -0.0869  -0.0703  -0.0533   0.0183   0.0789
     0.1402   0.2255   0.2684   0.2929   0.3838   0.3978   0.4212   0.4861
     0.5193   0.5627   0.5977   0.6271   0.6505   0.6809   0.7064   0.7493
     0.7854   0.9132   0.9319   0.9600   0.9822   1.1556   1.2055   1.2997
     1.3376   1.4459   1.4816   1.6607   1.7221   1.8014   1.9139   2.2921
     2.3379   3.7876   3.8990   3.9330   3.9584   3.9978   4.0486   4.2553
     4.3282   4.3698   4.4267

[...]

          k = 0.0380-0.0419 0.0000 ( 17876 PWs)   bands (ev):

[...]

          k =-0.0760-0.0000 0.0000 ( 17886 PWs)   bands (ev):

[...]

          k =-0.0760-0.0839 0.0000 ( 17948 PWs)   bands (ev):

   -55.3046 -55.3041 -55.2025 -55.1841 -55.1777 -55.1462 -55.1323 -55.1254
   -55.1249 -55.1075 -55.0864 -55.0784 -54.9914 -54.8368 -54.2849 -54.2849
   -31.6210 -31.6207 -31.5991 -31.5987 -31.5671 -31.5350 -31.5038 -31.4914
   -31.4847 -31.4695 -31.4509 -31.4440 -31.4417 -31.4320 -31.4273 -31.4250
   -31.4240 -31.4238 -31.4186 -31.4025 -31.3916 -31.3777 -31.3664 -31.3636
   -31.3598 -31.3553 -31.3462 -31.3337 -31.3278 -31.3264 -31.3111 -31.3020
   -31.2986 -31.2980 -31.2963 -31.2935 -31.2608 -31.2346 -31.2205 -31.1475
   -31.0938 -31.0794 -30.6111 -30.6110 -30.5217 -30.5216 -30.4826 -30.4826
   -18.8638 -18.6109 -15.3570 -15.3218 -15.2837 -15.2568 -15.2406 -15.1197
   -15.1053 -15.0698 -15.0287 -15.0154 -14.9847 -14.9562 -14.9077 -14.8988
   -14.8649 -14.8456 -14.8063 -14.7799 -14.7607 -14.7564 -14.7395 -14.7180
   -14.6737 -14.6521 -14.6402 -14.6358 -14.5838 -14.4892 -14.2084 -13.3953
   -12.7880 -12.7880  -8.7818  -7.1940  -6.6147  -4.5281  -3.5349  -2.8668
    -2.6695  -2.6325  -2.5801  -2.4900  -2.4429  -2.3207  -2.3141  -2.2915
    -2.2462  -2.2332  -2.1922  -2.1522  -2.1462  -2.1186  -2.1059  -2.0615
    -2.0500  -2.0465  -2.0325  -1.9986  -1.9937  -1.9729  -1.9485  -1.9457
    -1.9352  -1.9193  -1.8861  -1.8791  -1.8515  -1.8323  -1.6815  -1.6071
    -1.5645  -1.4874  -1.4644  -1.4475  -1.4283  -1.3938  -1.3735  -1.3478
    -1.3198  -1.1727  -1.0312  -0.9984  -0.9735  -0.8739  -0.8597  -0.8403
    -0.7936  -0.7507  -0.7161  -0.6574  -0.6521  -0.6023  -0.5810  -0.4614
    -0.4239  -0.3248  -0.2898  -0.2879  -0.2704  -0.2561  -0.2383  -0.2128
    -0.1637  -0.0919  -0.0761  -0.0276  -0.0039  -0.0011   0.0118   0.1588
     0.2286   0.2509   0.3538   0.3820   0.5562   0.7206   0.7318   0.8006
     0.8629   0.9188   0.9512   0.9917   1.0009   1.0677   1.0929   1.1942
     1.2068   1.2552   1.2570   1.3449   1.3529   2.0857   2.0875   2.1579
     2.1580   4.1521   4.1624   4.1954   4.2586   4.3014   4.3132   4.3510
     4.3547   4.4575   4.4724

     the Fermi energy is     3.8057 ev

!    total energy              =   -2973.93992433 Ry
     estimated scf accuracy    <       0.00000004 Ry
     smearing contrib. (-TS)   =      -0.02073224 Ry
     internal energy E=F+TS    =   -2973.91919209 Ry

     The total energy is F=E-TS. E is the sum of the following terms:
     one-electron contribution =  -24338.77461984 Ry
     hartree contribution      =   12267.08907605 Ry
     xc contribution           =    -494.11022072 Ry
     ewald contribution        =    9591.87288816 Ry
     electric field correction =       0.00368426 Ry

     convergence has been achieved in  58 iterations

     Forces acting on atoms (cartesian axes, Ry/au):

     atom    1 type  1   force =     0.00003514   -0.00009356    0.09507930
     atom    2 type  1   force =     0.00018060   -0.00070100   -0.17564213
     atom    3 type  2   force =     0.00008889   -0.00004453   -0.02295012
     atom    4 type  2   force =     0.00002090   -0.00143214    0.05288978
     atom    5 type  2   force =    -0.01000179   -0.00031119    0.00380885
     atom    6 type  2   force =     0.01112410    0.00020643    0.00206330
     atom    7 type  1   force =    -0.00021625    0.00179948   -0.00586862
     atom    8 type  1   force =     0.00080933    0.01008759    0.01604849
     atom    9 type  2   force =    -0.00015239    0.00087371    0.00030817
     atom   10 type  2   force =    -0.00227434    0.00218062   -0.01802595
     atom   11 type  2   force =     0.00022992   -0.00003493    0.00007403
     atom   12 type  2   force =    -0.00032917   -0.00019293    0.00055471
     atom   13 type  1   force =    -0.00002847    0.00125414    0.00020864
     atom   14 type  1   force =    -0.00011193    0.00013848    0.00002426
     atom   15 type  2   force =     0.00016328    0.00023389   -0.00000302
     atom   16 type  2   force =    -0.00038682    0.00044199   -0.00024719
     atom   17 type  2   force =    -0.00005166   -0.00036364   -0.00017136
     atom   18 type  2   force =    -0.00003922    0.00023972    0.00054943
     atom   19 type  1   force =     0.00006223    0.00042202   -0.00038575
     atom   20 type  1   force =    -0.00035367   -0.00024714    0.00007350
     atom   21 type  2   force =     0.00009565   -0.00008527    0.10317551
     atom   22 type  2   force =     0.00035142   -0.00002507    0.00042068
     atom   23 type  2   force =    -0.07160071   -0.00017008   -0.02758522
     atom   24 type  2   force =     0.07156245    0.00024329   -0.02763307
     atom   25 type  1   force =     0.00023054   -0.00039911    0.09520252
     atom   26 type  1   force =    -0.00003170   -0.00019723   -0.17580621
     atom   27 type  2   force =     0.00012137   -0.00012373   -0.02197262
     atom   28 type  2   force =     0.00001390   -0.00139545    0.05321839
     atom   29 type  2   force =    -0.01035081   -0.00022536    0.00364988
     atom   30 type  2   force =     0.01138687    0.00042677    0.00191641
     atom   31 type  1   force =    -0.00030400    0.00267395   -0.00006831
     atom   32 type  1   force =     0.00067454   -0.01114678    0.01692073
     atom   33 type  2   force =     0.00036926   -0.00027806   -0.00001980
     atom   34 type  2   force =    -0.00034042    0.00143910   -0.01895770
     atom   35 type  2   force =    -0.00001980   -0.00035025   -0.00016791
     atom   36 type  2   force =     0.00001876   -0.00024073    0.00043134
     atom   37 type  1   force =    -0.00004552   -0.00123115    0.00035841
     atom   38 type  1   force =    -0.00039656    0.00081447    0.00011636
     atom   39 type  2   force =     0.00010403    0.00007811    0.00008008
     atom   40 type  2   force =    -0.00046847   -0.00059852   -0.00033646
     atom   41 type  2   force =     0.00029421   -0.00003806    0.00011966
     atom   42 type  2   force =    -0.00020243   -0.00058627   -0.00003280
     atom   43 type  1   force =    -0.00013289   -0.00019069    0.00056417
     atom   44 type  1   force =    -0.00004199   -0.00017493    0.00017664
     atom   45 type  2   force =     0.00009950   -0.00010060    0.10318856
     atom   46 type  2   force =    -0.07158666   -0.00016184   -0.02757834
     atom   47 type  2   force =     0.07158648    0.00025116   -0.02759069
     atom   48 type  3   force =     0.01544686    0.00042428   -0.00402419
     atom   49 type  3   force =     0.00207532   -0.00003628    0.00057319
     atom   50 type  4   force =    -0.02252266   -0.00002441   -0.00043796
     atom   51 type  5   force =     0.00384920   -0.00155075    0.00512663
     atom   52 type  5   force =     0.00071540   -0.00100046   -0.00118444
     atom   53 type  5   force =     0.00020253   -0.00041600   -0.00055730
     atom   54 type  2   force =     0.00002098    0.00108464   -0.00010979
     atom   55 type  5   force =     0.00011979   -0.00025337   -0.00000567
     atom   56 type  5   force =    -0.00006312   -0.00089233    0.00044101

     Total force =     0.366302     Total SCF correction =     0.000627
  @ DRIVER MODE: Message from server: STATUS
  @ DRIVER MODE: Message from server: GETFORCE
  @ DRIVER MODE: Returning v,forces,stress,ensemble

     Writing output data file ./calc.save/
  @ DRIVER MODE: Message from server: EXIT
  @ DRIVE MODE: Exiting

     General routines

     Parallel routines

   This run was terminated on:   3:34: 5  22Sep2021

   JOB DONE.