     Program PWSCF v.6.7GPU starts on  2Aug2021 at 15:12: 6

     R & G space division:  proc/nbgrp/npool/nimage =      16
     Reading input from /storage/home/hcoda1/3/ntian30/research/carbon/02Aug_vib_paired/ads_slab/CH3NH_b/out_0010/pw.inp
Warning: card &CELL ignored
Warning: card   CELL_DYNAMICS='IPI', ignored
Warning: card / ignored

     Current dimensions of program PWSCF are:
     Max number of different atomic species (ntypx) = 10
     Max number of k-points (npk) =  40000
     Max angular momentum in pseudopotentials (lmaxx) =  3
     Presently no symmetry can be used with electric field

     Message from routine cell_base_init:
     DEPRECATED: use true lattice parameter, not A to a.u. conversion factor

     IMPORTANT: XC functional enforced from input :
     Exchange-correlation= BEEF-VDW
                           (   1   4  43  14   2   0   0)
     Any further DFT definition will be discarded
     Please, verify this is what you really want

  @ DRIVER MODE: Connecting to
 qe_1139763_2482541.sched-torque.pace.gatech.edudej9mqa9_scratch
  using UNIX socket
  @ DRIVER MODE: Message from server: STATUS
  @ DRIVER MODE: Message from server: INIT
  @ DRIVER MODE: Receiving replica           0          -1
  @ DRIVER MODE: Receiving encoded integer          25
  @ DRIVER MODE:  SCF:  T  FORCE:  T  STRESS:  F  VC:  F  ENSEMBLE:  F
  @ DRIVER MODE:  SCF:  T  FORCE:  T  STRESS:  F  VC:  F  ENSEMBLE:  F

     Using Slab Decomposition

     bravais-lattice index     =            0
     lattice parameter (alat)  =       1.8897  a.u.
     unit-cell volume          =    6658.9804 (a.u.)^3
     number of atoms/cell      =           53
     number of atomic types    =            5
     number of electrons       =       391.00
     number of Kohn-Sham states=          205
     kinetic-energy cutoff     =      29.3995  Ry
     charge density cutoff     =     293.9946  Ry
     scf convergence threshold =      7.3E-08
     mixing beta               =       0.0500
     number of iterations used =            8  plain     mixing
     Exchange-correlation= BEEF-VDW
                           (   1   4  43  14   2   0   0)

     celldm(1)=   1.889726  celldm(2)=   0.000000  celldm(3)=   0.000000
     celldm(4)=   0.000000  celldm(5)=   0.000000  celldm(6)=   0.000000

     crystal axes: (cart. coord. in units of alat)
               a(1) = (   6.579727   0.000000   0.000000 )
               a(2) = (  -0.000775   5.961596   0.000000 )
               a(3) = (   0.000000   0.000000  25.155947 )

     reciprocal axes: (cart. coord. in units 2 pi/alat)
               b(1) = (  0.151982  0.000020  0.000000 )
               b(2) = (  0.000000  0.167740  0.000000 )
               b(3) = (  0.000000  0.000000  0.039752 )

     PseudoPot. # 1 for Ti read from file:
     /storage/coda1/p-amedford6/0/shared/rich_project_chbe-medford/medford-share/data/pseudos_module/espresso/nninc/pbe/van/Ti.UPF
     MD5 check sum: 8e4df49b7f0d34bbd5052bf3f5ea0213
     Pseudo is Ultrasoft, Zval = 12.0
     Generated by new atomic code, or converted to UPF format
     Using radial grid of  851 points,  6 beta functions with:
                l(1) =   0
                l(2) =   0
                l(3) =   1
                l(4) =   1
                l(5) =   2
                l(6) =   2
     Q(r) pseudized with  8 coefficients,  rinner =    1.000   1.000   1.000
                                                       1.000   1.000

     PseudoPot. # 2 for O  read from file:
     /storage/coda1/p-amedford6/0/shared/rich_project_chbe-medford/medford-share/data/pseudos_module/espresso/nninc/pbe/van/O.UPF
     MD5 check sum: 78c19812648e8988a0fe644b0f25305e
     Pseudo is Ultrasoft, Zval =  6.0
     Generated by new atomic code, or converted to UPF format
     Using radial grid of  737 points,  4 beta functions with:
                l(1) =   0
                l(2) =   0
                l(3) =   1
                l(4) =   1
     Q(r) pseudized with  8 coefficients,  rinner =    0.800   0.800   0.800

     PseudoPot. # 3 for H  read from file:
     /storage/coda1/p-amedford6/0/shared/rich_project_chbe-medford/medford-share/data/pseudos_module/espresso/nninc/pbe/van/H.UPF
     MD5 check sum: b5ee9d7bfd3a09ee7748110bda690ff7
     Pseudo is Ultrasoft, Zval =  1.0
     Generated by new atomic code, or converted to UPF format
     Using radial grid of  615 points,  1 beta functions with:
                l(1) =   0
     Q(r) pseudized with  8 coefficients,  rinner =    0.800

     PseudoPot. # 4 for N  read from file:
     /storage/coda1/p-amedford6/0/shared/rich_project_chbe-medford/medford-share/data/pseudos_module/espresso/nninc/pbe/van/N.UPF
     MD5 check sum: 90d10febe142ad51ac9d5be1deb811c4
     Pseudo is Ultrasoft, Zval =  5.0
     Generated by new atomic code, or converted to UPF format
     Using radial grid of  729 points,  4 beta functions with:
                l(1) =   0
                l(2) =   0
                l(3) =   1
                l(4) =   1
     Q(r) pseudized with  8 coefficients,  rinner =    0.800   0.800   0.800

     PseudoPot. # 5 for C  read from file:
     /storage/coda1/p-amedford6/0/shared/rich_project_chbe-medford/medford-share/data/pseudos_module/espresso/nninc/pbe/van/C.UPF
     MD5 check sum: 1a69bf6b8db32088f5b2163dbdb77a27
     Pseudo is Ultrasoft, Zval =  4.0
     Generated by new atomic code, or converted to UPF format
     Using radial grid of  721 points,  4 beta functions with:
                l(1) =   0
                l(2) =   0
                l(3) =   1
                l(4) =   1
     Q(r) pseudized with  8 coefficients,  rinner =    0.800   0.800   0.800

     atomic species   valence    mass     pseudopotential
        Ti1           12.00    47.86700     Ti( 1.00)
        O1             6.00    15.99900     O ( 1.00)
        H1             1.00     1.00800     H ( 1.00)
        N1             5.00    14.00700     N ( 1.00)
        C1             4.00    12.01100     C ( 1.00)

     No symmetry found

   Cartesian axes

     site n.     atom                  positions (alat units)
         1           Ti1 tau(   1) = (   0.0004258   2.9801865   6.0000000  )
         2           Ti1 tau(   2) = (   3.2906075   1.4906267   6.0002472  )
         3           O1  tau(   3) = (   0.0006271   0.0005054   7.9858123  )
         4           O1  tau(   4) = (   3.2906025   0.0005020   7.3038282  )
         5           O1  tau(   5) = (   4.5942328   1.4918067   9.2879030  )
         6           O1  tau(   6) = (   1.9868534   1.4903216   9.2879459  )
         7           Ti1 tau(   7) = (   3.2907910   2.8959150   9.1758416  )
         8           Ti1 tau(   8) = (   0.0015273   1.4827037   9.2680791  )
         9           O1  tau(   9) = (   3.2906183   5.9580730  11.3246990  )
        10           O1  tau(  10) = (   0.0116148   5.9584955  10.6183126  )
        11           O1  tau(  11) = (   1.3160896   1.4863360  12.6200149  )
        12           O1  tau(  12) = (   5.2947061   1.4800608  12.6053981  )
        13           Ti1 tau(  13) = (   6.5224157   2.9421717  12.6196007  )
        14           Ti1 tau(  14) = (   3.2076970   1.4879367  12.4696142  )
        15           O1  tau(  15) = (   6.5517659   0.0158556  14.6493665  )
        16           O1  tau(  16) = (   3.3109316   0.0069331  13.9179417  )
        17           O1  tau(  17) = (   4.5083530   1.5297238  16.0872293  )
        18           O1  tau(  18) = (   2.0274073   1.5273405  16.0409094  )
        19           Ti1 tau(  19) = (   3.2920608   3.0081397  15.6838061  )
        20           Ti1 tau(  20) = (   0.0536170   1.5416865  15.8648894  )
        21           O1  tau(  21) = (   3.2904802   0.0005063   4.7018136  )
        22           O1  tau(  22) = (   0.0122827   0.0301012  17.2134340  )
        23           O1  tau(  23) = (   1.3043587   1.4918075   6.0039043  )
        24           O1  tau(  24) = (   5.2767064   1.4903225   6.0039473  )
        25           Ti1 tau(  25) = (   0.0000382   5.9609847   6.0000000  )
        26           Ti1 tau(  26) = (   3.2902200   4.4714249   6.0002472  )
        27           O1  tau(  27) = (   0.0002396   2.9813036   7.9858123  )
        28           O1  tau(  28) = (   3.2902150   2.9813002   7.3038282  )
        29           O1  tau(  29) = (   4.5938453   4.4726049   9.2879030  )
        30           O1  tau(  30) = (   1.9864658   4.4711199   9.2879459  )
        31           Ti1 tau(  31) = (   3.2891106   5.8743827   9.1763621  )
        32           Ti1 tau(  32) = (   0.0006254   4.4649316   9.2693709  )
        33           O1  tau(  33) = (   3.2866862   2.9837957  11.3234553  )
        34           O1  tau(  34) = (   0.0092240   2.9805883  10.6323155  )
        35           O1  tau(  35) = (   1.3095649   4.4762946  12.6335636  )
        36           O1  tau(  36) = (   5.2963019   4.4650584  12.6194355  )
        37           Ti1 tau(  37) = (   6.5192018   5.9199268  12.5733442  )
        38           Ti1 tau(  38) = (   3.2055211   4.4685508  12.4747853  )
        39           O1  tau(  39) = (   6.5624772   2.9349094  14.6472044  )
        40           O1  tau(  40) = (   3.3065106   2.9879112  13.8942307  )
        41           O1  tau(  41) = (   4.5199725   4.4841037  16.0899424  )
        42           O1  tau(  42) = (   2.0389375   4.4882992  16.0664246  )
        43           Ti1 tau(  43) = (   3.3279474   0.0221627  15.7114356  )
        44           Ti1 tau(  44) = (   0.0314192   4.6578676  16.1055029  )
        45           O1  tau(  45) = (   3.2900926   2.9813045   4.7018136  )
        46           O1  tau(  46) = (   1.3039711   4.4726057   6.0039043  )
        47           O1  tau(  47) = (   5.2763189   4.4711207   6.0039473  )
        48           H1  tau(  48) = (   5.5751926   2.9245997  17.7795037  )
        49           N1  tau(  49) = (   6.5345126   2.9809300  17.4463781  )
        50           C1  tau(  50) = (   0.8205834   2.9192471  18.6315588  )
        51           H1  tau(  51) = (   0.6379014   3.7726647  19.2931901  )
        52           H1  tau(  52) = (   0.6616828   1.9903841  19.1881566  )
        53           H1  tau(  53) = (   1.8691752   2.9530840  18.3388921  )

     number of k points=    10  Fermi-Dirac smearing, width (Ry)=  0.0073
                       cart. coord. in units 2pi/alat
        k(    1) = (   0.0000000   0.0000000   0.0000000), wk =   0.1250000
        k(    2) = (   0.0000000   0.0419351   0.0000000), wk =   0.2500000
        k(    3) = (   0.0000000  -0.0838702   0.0000000), wk =   0.1250000
        k(    4) = (   0.0379955   0.0000049   0.0000000), wk =   0.2500000
        k(    5) = (   0.0379955   0.0419400   0.0000000), wk =   0.2500000
        k(    6) = (   0.0379955  -0.0838652   0.0000000), wk =   0.2500000
        k(    7) = (   0.0379955  -0.0419301   0.0000000), wk =   0.2500000
        k(    8) = (  -0.0759910  -0.0000099   0.0000000), wk =   0.1250000
        k(    9) = (  -0.0759910   0.0419252   0.0000000), wk =   0.2500000
        k(   10) = (  -0.0759910  -0.0838800   0.0000000), wk =   0.1250000

     Initial potential from superposition of free atoms

     starting charge  374.99916, renormalised to  391.00000

     negative rho (up, down):  1.778E-02 0.000E+00

     %%%%%%%%%%%%%%%%%%%%%%%%%%%%%%%%%%%%%%%%%%%%%%%%%%%%%%%%%%%%%%%%%%%%%%%%
     %                                                                      %
     % You are using vdW-DF, which was implemented by the Thonhauser group. %
     % Please cite the following two papers that made this development      %
     % possible and the two reviews that describe the various versions:     %
     %                                                                      %
     %   T. Thonhauser et al., PRL 115, 136402 (2015).                      %
     %   T. Thonhauser et al., PRB 76, 125112 (2007).                       %
     %   K. Berland et al., Rep. Prog. Phys. 78, 066501 (2015).             %
     %   D.C. Langreth et al., J. Phys.: Condens. Matter 21, 084203 (2009). %
     %                                                                      %
     %                                                                      %
     % If you are calculating the stress with vdW-DF, please also cite:     %
     %                                                                      %
     %   R. Sabatini et al., J. Phys.: Condens. Matter 24, 424209 (2012).   %
     %                                                                      %
     %%%%%%%%%%%%%%%%%%%%%%%%%%%%%%%%%%%%%%%%%%%%%%%%%%%%%%%%%%%%%%%%%%%%%%%%

     Adding external electric field

     Computed dipole along edir(3) :
        Dipole               -5.8162 Ry au,        -14.7834 Debye
        Dipole field         -0.0110 Ry au,

        Potential amp.        1.0175 Ry
        Total length         46.3494 bohr

     Starting wfcs are  296 atomic wfcs
  @ DRIVER MODE: Message from server: STATUS
  @ DRIVER MODE: Message from server: POSDATA
  @ DRIVER MODE: Reading and sharing cell
  @ DRIVER MODE: Reading and sharing positions
  @ DRIVER MODE: Received positions

     Self-consistent Calculation

     iteration #  1     ecut=    29.40 Ry     beta= 0.05
     Davidson diagonalization with overlap
     c_bands:  3 eigenvalues not converged
     c_bands:  1 eigenvalues not converged
     c_bands:  1 eigenvalues not converged
     c_bands:  3 eigenvalues not converged
     c_bands:  4 eigenvalues not converged
     c_bands:  2 eigenvalues not converged
     c_bands:  1 eigenvalues not converged
     c_bands:  1 eigenvalues not converged
     c_bands:  2 eigenvalues not converged
     ethr =  1.00E-05,  avg # of iterations = 19.5

[...]

     total energy              =   -2770.78115191 Ry
     estimated scf accuracy    <    1640.25673236 Ry

     iteration #  2     ecut=    29.40 Ry     beta= 0.05
     Davidson diagonalization with overlap
     ethr =  1.00E-02,  avg # of iterations = 18.4

[...]

     iteration # 64     ecut=    29.40 Ry     beta= 0.05
     Davidson diagonalization with overlap
     c_bands:  1 eigenvalues not converged
     ethr =  5.05E-11,  avg # of iterations = 15.2

[...]

     total energy              =   -2920.42402479 Ry
     estimated scf accuracy    <       0.00000014 Ry

     iteration # 65     ecut=    29.40 Ry     beta= 0.05
     Davidson diagonalization with overlap
     ethr =  3.66E-11,  avg # of iterations =  7.7

     negative rho (up, down):  1.814E-02 0.000E+00

     Adding external electric field

     Computed dipole along edir(3) :
        Dipole                0.6827 Ry au,          1.7353 Debye
        Dipole field          0.0013 Ry au,

        Potential amp.       -0.1194 Ry
        Total length         46.3494 bohr

     End of self-consistent calculation

          k = 0.0000 0.0000 0.0000 ( 18029 PWs)   bands (ev):

   -55.9968 -55.9892 -55.9628 -55.9531 -55.9038 -55.8392 -55.8391 -55.8048
   -55.8001 -55.7662 -55.7606 -55.7269 -55.5459 -55.2689 -54.9690 -54.9349
   -32.5482 -32.4782 -32.3511 -32.3410 -32.3166 -32.2997 -32.2900 -32.2516
   -32.2378 -32.2371 -32.2130 -32.2056 -32.1719 -32.1489 -32.1412 -32.1353
   -32.1317 -32.1002 -32.0787 -32.0539 -32.0497 -32.0421 -32.0267 -31.9998
   -31.9933 -31.9923 -31.9865 -31.9788 -31.9639 -31.9585 -31.9550 -31.9463
   -31.9370 -31.9300 -31.9138 -31.9075 -31.8732 -31.8143 -31.7170 -31.5460
   -31.5393 -31.4649 -31.3759 -31.2881 -31.2657 -31.1926 -31.1062 -30.9951
   -16.7571 -16.4738 -16.2942 -16.1512 -16.1192 -16.0337 -15.8327 -15.7059
   -15.6938 -15.5901 -15.5571 -15.5307 -15.5241 -15.4974 -15.4927 -15.4318
   -15.4297 -15.4161 -15.4068 -15.3500 -15.3254 -15.2726 -15.1925 -15.1596
   -15.1543 -15.1266 -15.0447 -15.0396 -14.5855 -14.1712 -13.4716 -13.3553
    -8.9267  -4.3583  -4.1282  -3.9538  -3.9143  -3.8990  -3.8490  -3.5949
    -3.5800  -3.3260  -3.2305  -3.1936  -3.1793  -3.1697  -3.1502  -3.1391
    -2.8927  -2.8258  -2.8109  -2.7887  -2.7812  -2.7749  -2.7629  -2.7621
    -2.7227  -2.6599  -2.5343  -2.4990  -2.4212  -2.3841  -2.3524  -2.3061
    -2.2619  -2.2546  -2.2438  -2.2252  -2.2119  -2.1888  -2.1724  -2.0385
    -1.9726  -1.8370  -1.8024  -1.7829  -1.5971  -1.5374  -1.4729  -1.4349
    -1.4217  -1.4146  -1.3828  -1.3012  -1.2102  -1.1535  -1.1435  -1.0868
    -1.0096  -0.9984  -0.8903  -0.8852  -0.8582  -0.7673  -0.7573  -0.7459
    -0.7276  -0.6579  -0.5583  -0.4812  -0.4362  -0.4056  -0.3756  -0.3060
    -0.2759  -0.1734  -0.1578  -0.1112  -0.1047  -0.0631  -0.0179  -0.0085
     0.0004   0.0081   0.0330   0.1758   0.2869   0.3422   0.3813   0.3872
     0.5424   0.5703   0.6670   0.7556   0.9800   1.0529   1.1462   1.2458
     1.3259   1.6237   1.6691   3.1464   3.2253   3.2792   3.2879   3.3904
     3.3958   3.5961   3.6058   3.6186   3.6870

[...]

          k = 0.0380-0.0419 0.0000 ( 17876 PWs)   bands (ev):

[...]

          k =-0.0760-0.0000 0.0000 ( 17886 PWs)   bands (ev):

[...]

          k =-0.0760-0.0839 0.0000 ( 17948 PWs)   bands (ev):

   -55.9801 -55.9794 -55.9724 -55.9697 -55.8987 -55.8440 -55.8225 -55.8214
   -55.7839 -55.7820 -55.7444 -55.7433 -55.5449 -55.2697 -54.9520 -54.9518
   -32.3531 -32.3495 -32.2938 -32.2932 -32.2826 -32.2757 -32.2750 -32.2616
   -32.1998 -32.1987 -32.1937 -32.1894 -32.1659 -32.1347 -32.1200 -32.1158
   -32.1027 -32.1003 -32.0994 -32.0988 -32.0951 -32.0841 -32.0818 -32.0502
   -32.0426 -32.0412 -32.0115 -32.0009 -31.9809 -31.9805 -31.9771 -31.9761
   -31.9592 -31.9586 -31.9570 -31.9543 -31.8823 -31.8168 -31.7125 -31.6106
   -31.5412 -31.4884 -31.2784 -31.2783 -31.1887 -31.1886 -31.1495 -31.1494
   -16.2109 -16.1757 -15.9390 -15.9277 -15.9210 -15.9054 -15.7595 -15.7130
   -15.7012 -15.6939 -15.6714 -15.6474 -15.5908 -15.5611 -15.5327 -15.5239
   -15.5180 -15.5158 -15.4541 -15.4489 -15.4258 -15.4189 -15.3053 -15.3015
   -15.2919 -15.2157 -15.1619 -15.0232 -14.7464 -14.1945 -13.4571 -13.4570
    -8.9316  -4.3698  -3.5050  -3.4648  -3.2854  -3.2369  -3.1797  -3.1631
    -3.1390  -3.0702  -2.9064  -2.8896  -2.8784  -2.8629  -2.8209  -2.8146
    -2.8042  -2.7920  -2.7850  -2.7659  -2.7327  -2.7000  -2.6611  -2.6537
    -2.6452  -2.6203  -2.6093  -2.5876  -2.5759  -2.5448  -2.5358  -2.5179
    -2.4889  -2.2259  -2.2070  -2.1963  -2.1252  -2.1185  -2.0850  -2.0678
    -2.0575  -2.0443  -1.9875  -1.8833  -1.7264  -1.6950  -1.6852  -1.6698
    -1.5861  -1.5771  -1.4241  -1.4026  -1.3822  -1.3452  -1.2912  -1.2686
    -1.2282  -1.1691  -1.1523  -1.0882  -1.0705  -1.0121  -0.9570  -0.9551
    -0.9343  -0.8584  -0.7770  -0.7616  -0.7483  -0.7088  -0.6991  -0.6123
    -0.5890  -0.4953  -0.4813  -0.4231  -0.3939  -0.2951  -0.1418  -0.0120
     0.0417   0.0668   0.1244   0.2235   0.2666   0.2802   0.3234   0.3297
     0.3908   0.4323   0.5449   0.5507   0.6256   0.7166   1.2590   1.4173
     1.4179   1.4888   1.4889   3.4101   3.4147   3.4622   3.4915   3.6469
     3.6515   3.6732   3.6744   3.7991   3.8161

     the Fermi energy is     3.1396 ev

!    total energy              =   -2920.42404930 Ry
     estimated scf accuracy    <       0.00000003 Ry
     smearing contrib. (-TS)   =      -0.02203228 Ry
     internal energy E=F+TS    =   -2920.40201702 Ry

     The total energy is F=E-TS. E is the sum of the following terms:
     one-electron contribution =  -24701.71849970 Ry
     hartree contribution      =   12435.44594920 Ry
     xc contribution           =    -480.87032203 Ry
     ewald contribution        =    9826.73997592 Ry
     electric field correction =       0.00087960 Ry

     convergence has been achieved in  65 iterations

     Forces acting on atoms (cartesian axes, Ry/au):

     atom    1 type  1   force =     0.00012932   -0.00026576    0.09689359
     atom    2 type  1   force =     0.00001693   -0.00052879   -0.17505471
     atom    3 type  2   force =     0.00013424   -0.00007836   -0.02546008
     atom    4 type  2   force =    -0.00001053   -0.00136702    0.05231366
     atom    5 type  2   force =    -0.01236215   -0.00012949    0.00302472
     atom    6 type  2   force =     0.01378562    0.00023541    0.00238471
     atom    7 type  1   force =     0.00057727    0.00033483   -0.01263745
     atom    8 type  1   force =     0.00045718    0.00593963    0.03111053
     atom    9 type  2   force =    -0.00033615    0.00023649    0.00042482
     atom   10 type  2   force =    -0.00269618    0.00069678   -0.01626026
     atom   11 type  2   force =    -0.00041594    0.00014090    0.00015655
     atom   12 type  2   force =     0.00013889    0.00016337    0.00018253
     atom   13 type  1   force =    -0.00011896    0.00024328    0.00009488
     atom   14 type  1   force =    -0.00002934   -0.00022874   -0.00013493
     atom   15 type  2   force =     0.00017525    0.00091548    0.00004687
     atom   16 type  2   force =    -0.00006891    0.00028895    0.00020328
     atom   17 type  2   force =     0.00013228   -0.00014443   -0.00010377
     atom   18 type  2   force =     0.00018375   -0.00005557    0.00026941
     atom   19 type  1   force =    -0.00001229    0.00042304   -0.00002362
     atom   20 type  1   force =    -0.00006836   -0.00016175   -0.00033603
     atom   21 type  2   force =     0.00007143   -0.00006006    0.10308569
     atom   22 type  2   force =    -0.00010038    0.00143113    0.00020891
     atom   23 type  2   force =    -0.07164068   -0.00016047   -0.02782825
     atom   24 type  2   force =     0.07155560    0.00032414   -0.02788578
     atom   25 type  1   force =     0.00011531   -0.00023858    0.09670335
     atom   26 type  1   force =     0.00012182   -0.00027713   -0.17523014
     atom   27 type  2   force =     0.00013233   -0.00022988   -0.02453040
     atom   28 type  2   force =     0.00002808   -0.00112765    0.05223098
     atom   29 type  2   force =    -0.01248362    0.00014861    0.00267954
     atom   30 type  2   force =     0.01379594    0.00069539    0.00202095
     atom   31 type  1   force =     0.00052456    0.00291663   -0.01338260
     atom   32 type  1   force =     0.00027969   -0.00821822    0.03149197
     atom   33 type  2   force =    -0.00005979   -0.00006447   -0.00008758
     atom   34 type  2   force =    -0.00184313    0.00056198   -0.02453748
     atom   35 type  2   force =    -0.00013597    0.00009144    0.00003781
     atom   36 type  2   force =    -0.00024540    0.00018623    0.00011445
     atom   37 type  1   force =    -0.00005390    0.00033250    0.00028491
     atom   38 type  1   force =    -0.00023518   -0.00005324   -0.00014924
     atom   39 type  2   force =     0.00007280    0.00001040    0.00010456
     atom   40 type  2   force =    -0.00017190    0.00025703   -0.00016015
     atom   41 type  2   force =    -0.00018934    0.00014802    0.00000971
     atom   42 type  2   force =     0.00005812    0.00002816    0.00028321
     atom   43 type  1   force =    -0.00019311   -0.00043193    0.00049697
     atom   44 type  1   force =     0.00038975   -0.00005590    0.00022218
     atom   45 type  2   force =     0.00004993   -0.00006699    0.10309226
     atom   46 type  2   force =    -0.07164457   -0.00009064   -0.02782269
     atom   47 type  2   force =     0.07157389    0.00033689   -0.02790363
     atom   48 type  3   force =     0.00015735    0.00081493   -0.00035011
     atom   49 type  4   force =    -0.00025387   -0.00542987    0.00022287
     atom   50 type  5   force =     0.00139938    0.00255516   -0.00027334
     atom   51 type  3   force =     0.00001403   -0.00138302    0.00033846
     atom   52 type  3   force =    -0.00034228    0.00054849   -0.00088493
     atom   53 type  3   force =    -0.00035884   -0.00015734    0.00030286

     Total force =     0.368414     Total SCF correction =     0.000668
  @ DRIVER MODE: Message from server: STATUS
  @ DRIVER MODE: Message from server: GETFORCE
  @ DRIVER MODE: Returning v,forces,stress,ensemble

     Writing output data file ./calc.save/
  @ DRIVER MODE: Message from server: EXIT
  @ DRIVE MODE: Exiting

     General routines

     Parallel routines

   This run was terminated on:  15:42:37   2Aug2021

   JOB DONE.