     Program PWSCF v.6.7GPU starts on 23Sep2021 at 11: 1:54

     R & G space division:  proc/nbgrp/npool/nimage =       8
     Reading input from /storage/home/hcoda1/3/ntian30/research/carbon/CxH_vib/H2O_calc/ads_slab/CH3NNHHHHO_a/out_0001/pw.inp
Warning: card &CELL ignored
Warning: card   CELL_DYNAMICS='IPI', ignored
Warning: card / ignored

     Current dimensions of program PWSCF are:
     Max number of different atomic species (ntypx) = 10
     Max number of k-points (npk) =  40000
     Max angular momentum in pseudopotentials (lmaxx) =  3
     Presently no symmetry can be used with electric field

     Message from routine cell_base_init:
     DEPRECATED: use true lattice parameter, not A to a.u. conversion factor

     IMPORTANT: XC functional enforced from input :
     Exchange-correlation= BEEF-VDW
                           (   1   4  43  14   2   0   0)
     Any further DFT definition will be discarded
     Please, verify this is what you really want

  @ DRIVER MODE: Connecting to
 qe_1139763_2947308.sched-torque.pace.gatech.edu7ymc1u90_scratch
  using UNIX socket
  @ DRIVER MODE: Message from server: STATUS
  @ DRIVER MODE: Message from server: INIT
  @ DRIVER MODE: Receiving replica           0          -1
  @ DRIVER MODE: Receiving encoded integer          25
  @ DRIVER MODE:  SCF:  T  FORCE:  T  STRESS:  F  VC:  F  ENSEMBLE:  F
  @ DRIVER MODE:  SCF:  T  FORCE:  T  STRESS:  F  VC:  F  ENSEMBLE:  F

     Using Slab Decomposition

     bravais-lattice index     =            0
     lattice parameter (alat)  =       1.8897  a.u.
     unit-cell volume          =    6658.9804 (a.u.)^3
     number of atoms/cell      =           58
     number of atomic types    =            5
     number of electrons       =       405.00
     number of Kohn-Sham states=          212
     kinetic-energy cutoff     =      29.3995  Ry
     charge density cutoff     =     293.9946  Ry
     scf convergence threshold =      7.3E-08
     mixing beta               =       0.0500
     number of iterations used =            8  plain     mixing
     Exchange-correlation= BEEF-VDW
                           (   1   4  43  14   2   0   0)

     celldm(1)=   1.889726  celldm(2)=   0.000000  celldm(3)=   0.000000
     celldm(4)=   0.000000  celldm(5)=   0.000000  celldm(6)=   0.000000

     crystal axes: (cart. coord. in units of alat)
               a(1) = (   6.579727   0.000000   0.000000 )
               a(2) = (  -0.000775   5.961596   0.000000 )
               a(3) = (   0.000000   0.000000  25.155947 )

     reciprocal axes: (cart. coord. in units 2 pi/alat)
               b(1) = (  0.151982  0.000020  0.000000 )
               b(2) = (  0.000000  0.167740  0.000000 )
               b(3) = (  0.000000  0.000000  0.039752 )

     PseudoPot. # 1 for Ti read from file:
     /storage/coda1/p-amedford6/0/shared/rich_project_chbe-medford/medford-share/data/pseudos_module/espresso/nninc/pbe/van/Ti.UPF
     MD5 check sum: 8e4df49b7f0d34bbd5052bf3f5ea0213
     Pseudo is Ultrasoft, Zval = 12.0
     Generated by new atomic code, or converted to UPF format
     Using radial grid of  851 points,  6 beta functions with:
                l(1) =   0
                l(2) =   0
                l(3) =   1
                l(4) =   1
                l(5) =   2
                l(6) =   2
     Q(r) pseudized with  8 coefficients,  rinner =    1.000   1.000   1.000
                                                       1.000   1.000

     PseudoPot. # 2 for O  read from file:
     /storage/coda1/p-amedford6/0/shared/rich_project_chbe-medford/medford-share/data/pseudos_module/espresso/nninc/pbe/van/O.UPF
     MD5 check sum: 78c19812648e8988a0fe644b0f25305e
     Pseudo is Ultrasoft, Zval =  6.0
     Generated by new atomic code, or converted to UPF format
     Using radial grid of  737 points,  4 beta functions with:
                l(1) =   0
                l(2) =   0
                l(3) =   1
                l(4) =   1
     Q(r) pseudized with  8 coefficients,  rinner =    0.800   0.800   0.800

     PseudoPot. # 3 for N  read from file:
     /storage/coda1/p-amedford6/0/shared/rich_project_chbe-medford/medford-share/data/pseudos_module/espresso/nninc/pbe/van/N.UPF
     MD5 check sum: 90d10febe142ad51ac9d5be1deb811c4
     Pseudo is Ultrasoft, Zval =  5.0
     Generated by new atomic code, or converted to UPF format
     Using radial grid of  729 points,  4 beta functions with:
                l(1) =   0
                l(2) =   0
                l(3) =   1
                l(4) =   1
     Q(r) pseudized with  8 coefficients,  rinner =    0.800   0.800   0.800

     PseudoPot. # 4 for C  read from file:
     /storage/coda1/p-amedford6/0/shared/rich_project_chbe-medford/medford-share/data/pseudos_module/espresso/nninc/pbe/van/C.UPF
     MD5 check sum: 1a69bf6b8db32088f5b2163dbdb77a27
     Pseudo is Ultrasoft, Zval =  4.0
     Generated by new atomic code, or converted to UPF format
     Using radial grid of  721 points,  4 beta functions with:
                l(1) =   0
                l(2) =   0
                l(3) =   1
                l(4) =   1
     Q(r) pseudized with  8 coefficients,  rinner =    0.800   0.800   0.800

     PseudoPot. # 5 for H  read from file:
     /storage/coda1/p-amedford6/0/shared/rich_project_chbe-medford/medford-share/data/pseudos_module/espresso/nninc/pbe/van/H.UPF
     MD5 check sum: b5ee9d7bfd3a09ee7748110bda690ff7
     Pseudo is Ultrasoft, Zval =  1.0
     Generated by new atomic code, or converted to UPF format
     Using radial grid of  615 points,  1 beta functions with:
                l(1) =   0
     Q(r) pseudized with  8 coefficients,  rinner =    0.800

     atomic species   valence    mass     pseudopotential
        Ti1           12.00    47.86700     Ti( 1.00)
        O1             6.00    15.99900     O ( 1.00)
        N1             5.00    14.00700     N ( 1.00)
        C1             4.00    12.01100     C ( 1.00)
        H1             1.00     1.00800     H ( 1.00)

     No symmetry found

   Cartesian axes

     site n.     atom                  positions (alat units)
         1           Ti1 tau(   1) = (   0.0004258   2.9801865   6.0000000  )
         2           Ti1 tau(   2) = (   3.2906075   1.4906267   6.0002472  )
         3           O1  tau(   3) = (   0.0006271   0.0005054   7.9858123  )
         4           O1  tau(   4) = (   3.2906025   0.0005020   7.3038282  )
         5           O1  tau(   5) = (   4.5942328   1.4918067   9.2879030  )
         6           O1  tau(   6) = (   1.9868534   1.4903216   9.2879459  )
         7           Ti1 tau(   7) = (   3.2907910   2.8959150   9.1758416  )
         8           Ti1 tau(   8) = (   0.0015273   1.4827037   9.2680791  )
         9           O1  tau(   9) = (   3.3066316   0.0080679  11.3583267  )
        10           O1  tau(  10) = (   0.0116148   5.9584955  10.6183126  )
        11           O1  tau(  11) = (   1.3000076   1.5005770  12.6434233  )
        12           O1  tau(  12) = (   5.3281586   1.4930334  12.6431679  )
        13           Ti1 tau(  13) = (   0.0126194   3.0144704  12.5166071  )
        14           Ti1 tau(  14) = (   3.3185830   1.5708444  12.4374219  )
        15           O1  tau(  15) = (   0.0449490   0.0685618  14.6579901  )
        16           O1  tau(  16) = (   3.3164028   5.8986079  13.9921319  )
        17           O1  tau(  17) = (   4.5763498   1.4919541  16.1892649  )
        18           O1  tau(  18) = (   2.0390356   1.5007807  16.1677599  )
        19           Ti1 tau(  19) = (   3.3152479   2.9236451  15.6986563  )
        20           Ti1 tau(  20) = (   0.0808212   1.4292116  16.0039943  )
        21           O1  tau(  21) = (   3.2904802   0.0005063   4.7018136  )
        22           O1  tau(  22) = (   0.0303022   5.8046116  17.1736243  )
        23           O1  tau(  23) = (   1.3043587   1.4918075   6.0039043  )
        24           O1  tau(  24) = (   5.2767064   1.4903225   6.0039473  )
        25           Ti1 tau(  25) = (   0.0000382   5.9609847   6.0000000  )
        26           Ti1 tau(  26) = (   3.2902200   4.4714249   6.0002472  )
        27           O1  tau(  27) = (   0.0002396   2.9813036   7.9858123  )
        28           O1  tau(  28) = (   3.2902150   2.9813002   7.3038282  )
        29           O1  tau(  29) = (   4.5938453   4.4726049   9.2879030  )
        30           O1  tau(  30) = (   1.9864658   4.4711199   9.2879459  )
        31           Ti1 tau(  31) = (   3.2891106   5.8743827   9.1763621  )
        32           Ti1 tau(  32) = (   0.0006254   4.4649316   9.2693709  )
        33           O1  tau(  33) = (   3.3101163   2.9547251  11.3177968  )
        34           O1  tau(  34) = (   0.0092240   2.9805883  10.6323155  )
        35           O1  tau(  35) = (   1.2917786   4.4638488  12.6831265  )
        36           O1  tau(  36) = (   5.3332004   4.4701953  12.6833355  )
        37           Ti1 tau(  37) = (   0.0360484   0.0435164  12.5022323  )
        38           Ti1 tau(  38) = (   3.3166134   4.6596848  12.7231989  )
        39           O1  tau(  39) = (   6.5734590   2.9070644  14.8960501  )
        40           O1  tau(  40) = (   3.3256711   2.9499323  13.9293234  )
        41           O1  tau(  41) = (   4.5718193   4.3849529  16.1598725  )
        42           O1  tau(  42) = (   2.0293811   4.3548050  16.0908550  )
        43           Ti1 tau(  43) = (   3.3839698   5.9011270  16.3477160  )
        44           Ti1 tau(  44) = (   0.0762916   4.6312412  15.8077656  )
        45           O1  tau(  45) = (   3.2900926   2.9813045   4.7018136  )
        46           O1  tau(  46) = (   1.3039711   4.4726057   6.0039043  )
        47           O1  tau(  47) = (   5.2763189   4.4711207   6.0039473  )
        48           N1  tau(  48) = (   1.0238470   3.0145746  18.8549854  )
        49           N1  tau(  49) = (   6.4614719   2.5758313  18.0922931  )
        50           C1  tau(  50) = (   0.6385090   3.7489381  20.0602371  )
        51           H1  tau(  51) = (   6.5128770   4.5633600  19.8465500  )
        52           H1  tau(  52) = (   0.1876125   3.0656416  20.7809517  )
        53           H1  tau(  53) = (   1.5398112   4.1767214  20.4987412  )
        54           H1  tau(  54) = (   5.7034478   3.2665398  18.1448723  )
        55           H1  tau(  55) = (   6.1095767   1.7263867  18.5341855  )
        56           H1  tau(  56) = (   1.5400177   3.6533120  18.2466354  )
        57           O1  tau(  57) = (   3.2295176   5.8880611  18.1942677  )
        58           H1  tau(  58) = (   2.6769533   0.6239085  18.5854980  )

     number of k points=    10  Fermi-Dirac smearing, width (Ry)=  0.0073
                       cart. coord. in units 2pi/alat
        k(    1) = (   0.0000000   0.0000000   0.0000000), wk =   0.1250000
        k(    2) = (   0.0000000   0.0419351   0.0000000), wk =   0.2500000
        k(    3) = (   0.0000000  -0.0838702   0.0000000), wk =   0.1250000
        k(    4) = (   0.0379955   0.0000049   0.0000000), wk =   0.2500000
        k(    5) = (   0.0379955   0.0419400   0.0000000), wk =   0.2500000
        k(    6) = (   0.0379955  -0.0838652   0.0000000), wk =   0.2500000
        k(    7) = (   0.0379955  -0.0419301   0.0000000), wk =   0.2500000
        k(    8) = (  -0.0759910  -0.0000099   0.0000000), wk =   0.1250000
        k(    9) = (  -0.0759910   0.0419252   0.0000000), wk =   0.2500000
        k(   10) = (  -0.0759910  -0.0838800   0.0000000), wk =   0.1250000

     Initial potential from superposition of free atoms

     starting charge  388.99913, renormalised to  405.00000

     negative rho (up, down):  1.325E-02 0.000E+00

     %%%%%%%%%%%%%%%%%%%%%%%%%%%%%%%%%%%%%%%%%%%%%%%%%%%%%%%%%%%%%%%%%%%%%%%%
     %                                                                      %
     % You are using vdW-DF, which was implemented by the Thonhauser group. %
     % Please cite the following two papers that made this development      %
     % possible and the two reviews that describe the various versions:     %
     %                                                                      %
     %   T. Thonhauser et al., PRL 115, 136402 (2015).                      %
     %   T. Thonhauser et al., PRB 76, 125112 (2007).                       %
     %   K. Berland et al., Rep. Prog. Phys. 78, 066501 (2015).             %
     %   D.C. Langreth et al., J. Phys.: Condens. Matter 21, 084203 (2009). %
     %                                                                      %
     %                                                                      %
     % If you are calculating the stress with vdW-DF, please also cite:     %
     %                                                                      %
     %   R. Sabatini et al., J. Phys.: Condens. Matter 24, 424209 (2012).   %
     %                                                                      %
     %%%%%%%%%%%%%%%%%%%%%%%%%%%%%%%%%%%%%%%%%%%%%%%%%%%%%%%%%%%%%%%%%%%%%%%%

     Adding external electric field

     Computed dipole along edir(3) :
        Dipole              -14.7651 Ry au,        -37.5293 Debye
        Dipole field         -0.0279 Ry au,

        Potential amp.        2.5829 Ry
        Total length         46.3494 bohr

     Starting wfcs are  307 atomic wfcs
  @ DRIVER MODE: Message from server: STATUS
  @ DRIVER MODE: Message from server: POSDATA
  @ DRIVER MODE: Reading and sharing cell
  @ DRIVER MODE: Reading and sharing positions
  @ DRIVER MODE: Received positions

     Self-consistent Calculation

     iteration #  1     ecut=    29.40 Ry     beta= 0.05
     Davidson diagonalization with overlap
     c_bands:  3 eigenvalues not converged
     c_bands:  4 eigenvalues not converged
     c_bands:  2 eigenvalues not converged
     c_bands:  3 eigenvalues not converged
     c_bands:  3 eigenvalues not converged
     c_bands:  3 eigenvalues not converged
     ethr =  1.00E-05,  avg # of iterations = 23.2

[...]

     total energy              =   -2204.21643571 Ry
     estimated scf accuracy    <    8785.95914608 Ry

     iteration #  2     ecut=    29.40 Ry     beta= 0.05
     Davidson diagonalization with overlap
     ethr =  1.00E-02,  avg # of iterations = 29.3

[...]

     iteration # 57     ecut=    29.40 Ry     beta= 0.05
     Davidson diagonalization with overlap
     c_bands:  1 eigenvalues not converged
     c_bands:  1 eigenvalues not converged
     c_bands:  1 eigenvalues not converged
     ethr =  1.18E-07,  avg # of iterations = 18.5

[...]

     total energy              =   -2976.49812096 Ry
     estimated scf accuracy    <       0.00000013 Ry

     iteration # 81     ecut=    29.40 Ry     beta= 0.05
     Davidson diagonalization with overlap
     ethr =  3.22E-11,  avg # of iterations = 11.6

     negative rho (up, down):  1.443E-02 0.000E+00

     Adding external electric field

     Computed dipole along edir(3) :
        Dipole                0.9895 Ry au,          2.5151 Debye
        Dipole field          0.0019 Ry au,

        Potential amp.       -0.1731 Ry
        Total length         46.3494 bohr

     End of self-consistent calculation

          k = 0.0000 0.0000 0.0000 ( 18029 PWs)   bands (ev):

   -55.5834 -55.5003 -55.4662 -55.3663 -55.3441 -55.3281 -55.3141 -55.3076
   -55.2944 -55.2646 -55.2210 -55.0986 -55.0879 -55.0108 -54.4691 -54.4350
   -31.9848 -31.9199 -31.8798 -31.8317 -31.8301 -31.8108 -31.8003 -31.7912
   -31.7511 -31.7462 -31.7280 -31.6528 -31.6295 -31.6084 -31.6067 -31.6048
   -31.5994 -31.5873 -31.5849 -31.5578 -31.5516 -31.5262 -31.5256 -31.5140
   -31.4988 -31.4875 -31.4798 -31.4629 -31.4583 -31.4555 -31.4458 -31.4399
   -31.4360 -31.4166 -31.3747 -31.3728 -31.3024 -31.2952 -31.2814 -31.2604
   -31.2235 -31.2163 -30.8747 -30.7892 -30.7668 -30.6923 -30.6060 -30.4941
   -17.6400 -16.4016 -16.1411 -15.9786 -15.7628 -15.6773 -15.6488 -15.4562
   -15.3509 -15.2980 -15.1118 -15.0653 -15.0352 -15.0237 -15.0084 -14.9857
   -14.9660 -14.9278 -14.9195 -14.9090 -14.9034 -14.8648 -14.8425 -14.7920
   -14.7690 -14.7065 -14.6346 -14.5668 -14.5194 -14.2581 -14.2405 -12.9673
   -12.9574 -12.8510  -9.4495  -6.1710  -5.2205  -4.6606  -3.9630  -3.5056
    -3.4049  -3.3888  -3.3331  -3.2703  -3.1698  -2.9972  -2.8886  -2.8352
    -2.7340  -2.6268  -2.5718  -2.5079  -2.4736  -2.4310  -2.3989  -2.3858
    -2.3801  -2.2841  -2.2742  -2.2484  -2.2120  -2.1570  -2.1412  -2.0638
    -2.0272  -2.0187  -1.8942  -1.8817  -1.8159  -1.8117  -1.8053  -1.7715
    -1.7506  -1.7357  -1.7066  -1.6226  -1.5699  -1.4996  -1.4766  -1.4465
    -1.1879  -1.0955  -1.0580  -1.0301  -0.9325  -0.9141  -0.9030  -0.8991
    -0.8853  -0.8357  -0.7892  -0.7050  -0.5954  -0.5775  -0.5667  -0.5219
    -0.4564  -0.3744  -0.3012  -0.2719  -0.2345  -0.2212  -0.1547  -0.0776
    -0.0616  -0.0493   0.0590   0.0740   0.1562   0.2147   0.2288   0.2739
     0.3148   0.3473   0.4040   0.4403   0.4708   0.4764   0.5100   0.5546
     0.6102   0.6404   0.6685   0.7508   0.8064   0.8517   0.8794   1.0529
     1.0856   1.1670   1.1776   1.2659   1.5073   1.5576   1.5966   1.7519
     2.1238   2.1689   3.5845   3.7356   3.7507   3.8205   3.8454   3.9364
     4.0738   4.1415   4.2735   4.2818

[...]

          k = 0.0380-0.0419 0.0000 ( 17876 PWs)   bands (ev):

[...]

          k =-0.0760-0.0000 0.0000 ( 17886 PWs)   bands (ev):

[...]

          k =-0.0760-0.0839 0.0000 ( 17948 PWs)   bands (ev):

   -55.5827 -55.4833 -55.4830 -55.3650 -55.3309 -55.3206 -55.3147 -55.3113
   -55.3108 -55.2567 -55.2289 -55.0955 -55.0890 -55.0138 -54.4522 -54.4518
   -31.8672 -31.8093 -31.8053 -31.8002 -31.8000 -31.7854 -31.7768 -31.7764
   -31.7075 -31.6515 -31.6435 -31.6360 -31.6313 -31.6181 -31.6033 -31.6032
   -31.6012 -31.6008 -31.5863 -31.5761 -31.5684 -31.5603 -31.5388 -31.5206
   -31.5178 -31.5139 -31.5066 -31.5035 -31.4914 -31.4840 -31.4815 -31.4755
   -31.4704 -31.4518 -31.4461 -31.3688 -31.3571 -31.3427 -31.3043 -31.2993
   -31.2656 -31.2196 -30.7796 -30.7794 -30.6878 -30.6874 -30.6494 -30.6490
   -17.6343 -16.3874 -15.7495 -15.5711 -15.4750 -15.4685 -15.3376 -15.2719
   -15.2631 -15.2283 -15.2099 -15.1950 -15.1620 -15.1445 -15.1049 -15.0522
   -15.0189 -14.9963 -14.9846 -14.9476 -14.9351 -14.9131 -14.9057 -14.8971
   -14.8387 -14.8067 -14.7976 -14.7670 -14.5714 -14.5489 -14.3732 -12.9588
   -12.9530 -12.9528  -9.4470  -6.1562  -5.2226  -4.6706  -3.9592  -3.1695
    -2.9236  -2.7801  -2.7039  -2.5702  -2.5598  -2.5022  -2.4853  -2.4488
    -2.4400  -2.3999  -2.3458  -2.3287  -2.2866  -2.2809  -2.2510  -2.2384
    -2.2276  -2.2187  -2.1931  -2.1740  -2.1651  -2.1244  -2.1198  -2.1041
    -2.0830  -2.0679  -2.0404  -2.0291  -1.9891  -1.9493  -1.8841  -1.8105
    -1.7249  -1.6422  -1.6316  -1.6208  -1.5745  -1.5681  -1.5213  -1.5097
    -1.4621  -1.4108  -1.2970  -1.1745  -1.1335  -1.1076  -1.0756  -1.0424
    -0.9888  -0.9660  -0.9310  -0.8824  -0.8507  -0.7274  -0.7161  -0.6508
    -0.5673  -0.5335  -0.4572  -0.4441  -0.4295  -0.4132  -0.3912  -0.3746
    -0.3455  -0.3300  -0.2245  -0.2008  -0.1976  -0.1752  -0.1239  -0.0210
     0.0529   0.1356   0.2384   0.2886   0.3160   0.3498   0.4498   0.5679
     0.5926   0.6560   0.6881   0.7306   0.7980   0.8186   0.8665   0.9518
     1.0057   1.0374   1.0642   1.0691   1.1242   1.1886   1.9206   1.9291
     1.9892   1.9895   3.7981   4.0745   4.1000   4.1160   4.1533   4.1575
     4.1793   4.1938   4.2589   4.2751

     the Fermi energy is     3.6214 ev

!    total energy              =   -2976.49812889 Ry
     estimated scf accuracy    <       0.00000006 Ry
     smearing contrib. (-TS)   =      -0.01952733 Ry
     internal energy E=F+TS    =   -2976.47860156 Ry

     The total energy is F=E-TS. E is the sum of the following terms:
     one-electron contribution =  -23034.66368156 Ry
     hartree contribution      =   11613.67559026 Ry
     xc contribution           =    -495.71441508 Ry
     ewald contribution        =    8940.22205702 Ry
     electric field correction =       0.00184779 Ry

     convergence has been achieved in  81 iterations

     Forces acting on atoms (cartesian axes, Ry/au):

     atom    1 type  1   force =     0.00000784   -0.00021960    0.09404487
     atom    2 type  1   force =    -0.00016298    0.00026011   -0.17517541
     atom    3 type  2   force =     0.00007160   -0.00015980   -0.02114432
     atom    4 type  2   force =     0.00000059   -0.00104260    0.05356199
     atom    5 type  2   force =    -0.00455559   -0.00322725    0.00115200
     atom    6 type  2   force =     0.00660920   -0.00242698    0.00161465
     atom    7 type  1   force =     0.00036875    0.00456390    0.01037652
     atom    8 type  1   force =    -0.00056450    0.00199200    0.00314216
     atom    9 type  2   force =     0.00010086   -0.00050078   -0.00048258
     atom   10 type  2   force =    -0.00031268   -0.00003947   -0.01129601
     atom   11 type  2   force =    -0.00024103    0.00045364    0.00003864
     atom   12 type  2   force =    -0.00026375    0.00067102    0.00007744
     atom   13 type  1   force =     0.00059729   -0.00065070    0.00021380
     atom   14 type  1   force =    -0.00035163    0.00015823    0.00018148
     atom   15 type  2   force =    -0.00016182    0.00015610    0.00052283
     atom   16 type  2   force =     0.00004166   -0.00002110    0.00041701
     atom   17 type  2   force =    -0.00035012    0.00024513    0.00008505
     atom   18 type  2   force =     0.00001099    0.00011433    0.00027987
     atom   19 type  1   force =    -0.00005354    0.00057988   -0.00024781
     atom   20 type  1   force =     0.00000918   -0.00033650   -0.00024966
     atom   21 type  2   force =     0.00002595   -0.00001044    0.10314422
     atom   22 type  2   force =    -0.00007027   -0.00012369   -0.00043505
     atom   23 type  2   force =    -0.07212578   -0.00020950   -0.02726488
     atom   24 type  2   force =     0.07202517    0.00023409   -0.02734349
     atom   25 type  1   force =     0.00006547   -0.00035849    0.09401927
     atom   26 type  1   force =    -0.00001052   -0.00127968   -0.17521132
     atom   27 type  2   force =     0.00015043   -0.00021230   -0.01992352
     atom   28 type  2   force =     0.00008401   -0.00111060    0.04907758
     atom   29 type  2   force =    -0.00668852    0.00153151    0.00212424
     atom   30 type  2   force =     0.00855315    0.00170938    0.00249398
     atom   31 type  1   force =     0.00049345   -0.00020228    0.00053109
     atom   32 type  1   force =    -0.00020587   -0.00145761    0.00352814
     atom   33 type  2   force =    -0.00008016    0.00000434   -0.00003890
     atom   34 type  2   force =    -0.00088913    0.00246358   -0.01150716
     atom   35 type  2   force =     0.00002701   -0.00042454    0.00048701
     atom   36 type  2   force =    -0.00052900   -0.00040190    0.00034220
     atom   37 type  1   force =     0.00038863    0.00029520    0.00001217
     atom   38 type  1   force =    -0.00038514    0.00021255    0.00030242
     atom   39 type  2   force =    -0.00051079    0.00042349    0.00048358
     atom   40 type  2   force =    -0.00002164   -0.00007891   -0.00006155
     atom   41 type  2   force =    -0.00041788   -0.00024937    0.00021616
     atom   42 type  2   force =    -0.00022601   -0.00026218   -0.00024517
     atom   43 type  1   force =     0.00001228   -0.00041074    0.00079751
     atom   44 type  1   force =    -0.00019553    0.00021778    0.00020817
     atom   45 type  2   force =     0.00002066   -0.00001718    0.10301305
     atom   46 type  2   force =    -0.07213280   -0.00008408   -0.02726014
     atom   47 type  2   force =     0.07197992    0.00035203   -0.02730614
     atom   48 type  3   force =     0.01627915    0.00544046   -0.00451489
     atom   49 type  3   force =    -0.00620698   -0.00018900   -0.00018823
     atom   50 type  4   force =    -0.00332313   -0.00017524    0.00125991
     atom   51 type  5   force =    -0.00064228    0.00077446    0.00082282
     atom   52 type  5   force =    -0.00036593   -0.00041688    0.00070649
     atom   53 type  5   force =     0.00049033   -0.00107475   -0.00088775
     atom   54 type  5   force =    -0.00109382   -0.00019651   -0.00142053
     atom   55 type  5   force =    -0.00099603    0.00001748   -0.00011702
     atom   56 type  5   force =    -0.00380382   -0.00519502    0.00400997
     atom   57 type  2   force =    -0.00021478    0.00054136   -0.00078757
     atom   58 type  5   force =    -0.00026012   -0.00064635   -0.00017917

     Total force =     0.362333     Total SCF correction =     0.000684
  @ DRIVER MODE: Message from server: STATUS
  @ DRIVER MODE: Message from server: GETFORCE
  @ DRIVER MODE: Returning v,forces,stress,ensemble

     Writing output data file ./calc.save/
  @ DRIVER MODE: Message from server: EXIT
  @ DRIVE MODE: Exiting

     General routines

     Parallel routines

   This run was terminated on:  11:29: 2  23Sep2021

   JOB DONE.