     Program PWSCF v.6.7GPU starts on 21Sep2021 at 16:15:22

     R & G space division:  proc/nbgrp/npool/nimage =      10
     Reading input from /storage/home/hcoda1/3/ntian30/research/carbon/CxH_vib/CH3_calc/ads_slab/CH3ON2_a/out_0013/pw.inp
Warning: card &CELL ignored
Warning: card   CELL_DYNAMICS='IPI', ignored
Warning: card / ignored

     Current dimensions of program PWSCF are:
     Max number of different atomic species (ntypx) = 10
     Max number of k-points (npk) =  40000
     Max angular momentum in pseudopotentials (lmaxx) =  3
     Presently no symmetry can be used with electric field

     Message from routine cell_base_init:
     DEPRECATED: use true lattice parameter, not A to a.u. conversion factor

     IMPORTANT: XC functional enforced from input :
     Exchange-correlation= BEEF-VDW
                           (   1   4  43  14   2   0   0)
     Any further DFT definition will be discarded
     Please, verify this is what you really want

  @ DRIVER MODE: Connecting to
 qe_1139763_2922197.sched-torque.pace.gatech.eduly4xb52b_scratch
  using UNIX socket
  @ DRIVER MODE: Message from server: STATUS
  @ DRIVER MODE: Message from server: INIT
  @ DRIVER MODE: Receiving replica           0          -1
  @ DRIVER MODE: Receiving encoded integer          25
  @ DRIVER MODE:  SCF:  T  FORCE:  T  STRESS:  F  VC:  F  ENSEMBLE:  F
  @ DRIVER MODE:  SCF:  T  FORCE:  T  STRESS:  F  VC:  F  ENSEMBLE:  F

     Using Slab Decomposition

     bravais-lattice index     =            0
     lattice parameter (alat)  =       1.8897  a.u.
     unit-cell volume          =    6658.9804 (a.u.)^3
     number of atoms/cell      =           54
     number of atomic types    =            5
     number of electrons       =       401.00
     number of Kohn-Sham states=          210
     kinetic-energy cutoff     =      29.3995  Ry
     charge density cutoff     =     293.9946  Ry
     scf convergence threshold =      7.3E-08
     mixing beta               =       0.0500
     number of iterations used =            8  plain     mixing
     Exchange-correlation= BEEF-VDW
                           (   1   4  43  14   2   0   0)

     celldm(1)=   1.889726  celldm(2)=   0.000000  celldm(3)=   0.000000
     celldm(4)=   0.000000  celldm(5)=   0.000000  celldm(6)=   0.000000

     crystal axes: (cart. coord. in units of alat)
               a(1) = (   6.579727   0.000000   0.000000 )
               a(2) = (  -0.000775   5.961596   0.000000 )
               a(3) = (   0.000000   0.000000  25.155947 )

     reciprocal axes: (cart. coord. in units 2 pi/alat)
               b(1) = (  0.151982  0.000020  0.000000 )
               b(2) = (  0.000000  0.167740  0.000000 )
               b(3) = (  0.000000  0.000000  0.039752 )

     PseudoPot. # 1 for Ti read from file:
     /storage/coda1/p-amedford6/0/shared/rich_project_chbe-medford/medford-share/data/pseudos_module/espresso/nninc/pbe/van/Ti.UPF
     MD5 check sum: 8e4df49b7f0d34bbd5052bf3f5ea0213
     Pseudo is Ultrasoft, Zval = 12.0
     Generated by new atomic code, or converted to UPF format
     Using radial grid of  851 points,  6 beta functions with:
                l(1) =   0
                l(2) =   0
                l(3) =   1
                l(4) =   1
                l(5) =   2
                l(6) =   2
     Q(r) pseudized with  8 coefficients,  rinner =    1.000   1.000   1.000
                                                       1.000   1.000

     PseudoPot. # 2 for O  read from file:
     /storage/coda1/p-amedford6/0/shared/rich_project_chbe-medford/medford-share/data/pseudos_module/espresso/nninc/pbe/van/O.UPF
     MD5 check sum: 78c19812648e8988a0fe644b0f25305e
     Pseudo is Ultrasoft, Zval =  6.0
     Generated by new atomic code, or converted to UPF format
     Using radial grid of  737 points,  4 beta functions with:
                l(1) =   0
                l(2) =   0
                l(3) =   1
                l(4) =   1
     Q(r) pseudized with  8 coefficients,  rinner =    0.800   0.800   0.800

     PseudoPot. # 3 for C  read from file:
     /storage/coda1/p-amedford6/0/shared/rich_project_chbe-medford/medford-share/data/pseudos_module/espresso/nninc/pbe/van/C.UPF
     MD5 check sum: 1a69bf6b8db32088f5b2163dbdb77a27
     Pseudo is Ultrasoft, Zval =  4.0
     Generated by new atomic code, or converted to UPF format
     Using radial grid of  721 points,  4 beta functions with:
                l(1) =   0
                l(2) =   0
                l(3) =   1
                l(4) =   1
     Q(r) pseudized with  8 coefficients,  rinner =    0.800   0.800   0.800

     PseudoPot. # 4 for H  read from file:
     /storage/coda1/p-amedford6/0/shared/rich_project_chbe-medford/medford-share/data/pseudos_module/espresso/nninc/pbe/van/H.UPF
     MD5 check sum: b5ee9d7bfd3a09ee7748110bda690ff7
     Pseudo is Ultrasoft, Zval =  1.0
     Generated by new atomic code, or converted to UPF format
     Using radial grid of  615 points,  1 beta functions with:
                l(1) =   0
     Q(r) pseudized with  8 coefficients,  rinner =    0.800

     PseudoPot. # 5 for N  read from file:
     /storage/coda1/p-amedford6/0/shared/rich_project_chbe-medford/medford-share/data/pseudos_module/espresso/nninc/pbe/van/N.UPF
     MD5 check sum: 90d10febe142ad51ac9d5be1deb811c4
     Pseudo is Ultrasoft, Zval =  5.0
     Generated by new atomic code, or converted to UPF format
     Using radial grid of  729 points,  4 beta functions with:
                l(1) =   0
                l(2) =   0
                l(3) =   1
                l(4) =   1
     Q(r) pseudized with  8 coefficients,  rinner =    0.800   0.800   0.800

     atomic species   valence    mass     pseudopotential
        Ti1           12.00    47.86700     Ti( 1.00)
        O1             6.00    15.99900     O ( 1.00)
        C1             4.00    12.01100     C ( 1.00)
        H1             1.00     1.00800     H ( 1.00)
        N1             5.00    14.00700     N ( 1.00)

     No symmetry found

   Cartesian axes

     site n.     atom                  positions (alat units)
         1           Ti1 tau(   1) = (   0.0004258   2.9801865   6.0000000  )
         2           Ti1 tau(   2) = (   3.2906075   1.4906267   6.0002472  )
         3           O1  tau(   3) = (   0.0006271   0.0005054   7.9858123  )
         4           O1  tau(   4) = (   3.2906025   0.0005020   7.3038282  )
         5           O1  tau(   5) = (   4.5942328   1.4918067   9.2879030  )
         6           O1  tau(   6) = (   1.9868534   1.4903216   9.2879459  )
         7           Ti1 tau(   7) = (   3.3204934   3.0328528   9.1574130  )
         8           Ti1 tau(   8) = (   0.0292148   1.6159158   9.3632543  )
         9           O1  tau(   9) = (   3.3070435   0.0102262  11.3480939  )
        10           O1  tau(  10) = (   0.0088878   0.0096727  10.6115680  )
        11           O1  tau(  11) = (   1.3030819   1.4981340  12.6442205  )
        12           O1  tau(  12) = (   5.3040506   1.5010416  12.6455732  )
        13           Ti1 tau(  13) = (   0.0403577   3.0063940  12.8112948  )
        14           Ti1 tau(  14) = (   3.3464846   1.5065728  12.4912112  )
        15           O1  tau(  15) = (   0.0134291   0.0009660  14.7247257  )
        16           O1  tau(  16) = (   3.3093041   0.0058478  13.9373560  )
        17           O1  tau(  17) = (   4.5500255   1.4945122  16.1009386  )
        18           O1  tau(  18) = (   2.0583445   1.4942802  16.1012567  )
        19           Ti1 tau(  19) = (   3.3037885   2.9813703  15.7231771  )
        20           Ti1 tau(  20) = (   0.0263689   1.3683668  16.1009981  )
        21           O1  tau(  21) = (   3.2904802   0.0005063   4.7018136  )
        22           O1  tau(  22) = (   0.0160251   5.9515368  17.2504238  )
        23           O1  tau(  23) = (   1.3043587   1.4918075   6.0039043  )
        24           O1  tau(  24) = (   5.2767064   1.4903225   6.0039473  )
        25           Ti1 tau(  25) = (   0.0000382   5.9609847   6.0000000  )
        26           Ti1 tau(  26) = (   3.2902200   4.4714249   6.0002472  )
        27           O1  tau(  27) = (   0.0002396   2.9813036   7.9858123  )
        28           O1  tau(  28) = (   3.2902150   2.9813002   7.3038282  )
        29           O1  tau(  29) = (   4.5938453   4.4726049   9.2879030  )
        30           O1  tau(  30) = (   1.9864658   4.4711199   9.2879459  )
        31           Ti1 tau(  31) = (   3.3068128   0.0556959   9.1539818  )
        32           Ti1 tau(  32) = (   0.0329352   4.5395830   9.2719105  )
        33           O1  tau(  33) = (   3.3067668   2.9902038  11.3487497  )
        34           O1  tau(  34) = (   0.0086428   2.9933526  10.5732881  )
        35           O1  tau(  35) = (   1.3040514   4.4849883  12.6410176  )
        36           O1  tau(  36) = (   5.3019722   4.4792838  12.6433842  )
        37           Ti1 tau(  37) = (   0.0449501   0.0247790  12.5283380  )
        38           Ti1 tau(  38) = (   3.3452221   4.4882979  12.4886840  )
        39           O1  tau(  39) = (   0.0326844   3.0101588  14.7024583  )
        40           O1  tau(  40) = (   3.3056340   2.9839048  13.9300935  )
        41           O1  tau(  41) = (   4.5482541   4.4683137  16.0944903  )
        42           O1  tau(  42) = (   2.0564524   4.4684886  16.0889558  )
        43           Ti1 tau(  43) = (   3.3155465   0.0028818  15.7289974  )
        44           Ti1 tau(  44) = (   0.0293978   4.5260084  15.9878609  )
        45           O1  tau(  45) = (   3.2900926   2.9813045   4.7018136  )
        46           O1  tau(  46) = (   1.3039711   4.4726057   6.0039043  )
        47           O1  tau(  47) = (   5.2763189   4.4711207   6.0039473  )
        48           C1  tau(  48) = (   6.0941187   3.0165090  18.6783144  )
        49           O1  tau(  49) = (   6.5649259   2.9843894  17.3344459  )
        50           H1  tau(  50) = (   4.9984317   2.8724860  18.7083625  )
        51           H1  tau(  51) = (   6.5664557   2.2147430  19.2506469  )
        52           H1  tau(  52) = (   6.3318479   3.9831036  19.1258517  )
        53           N1  tau(  53) = (   6.0286935   3.0693532  22.8641725  )
        54           N1  tau(  54) = (   5.2900788   3.1330812  22.0463807  )

     number of k points=    10  Fermi-Dirac smearing, width (Ry)=  0.0073
                       cart. coord. in units 2pi/alat
        k(    1) = (   0.0000000   0.0000000   0.0000000), wk =   0.1250000
        k(    2) = (   0.0000000   0.0419351   0.0000000), wk =   0.2500000
        k(    3) = (   0.0000000  -0.0838702   0.0000000), wk =   0.1250000
        k(    4) = (   0.0379955   0.0000049   0.0000000), wk =   0.2500000
        k(    5) = (   0.0379955   0.0419400   0.0000000), wk =   0.2500000
        k(    6) = (   0.0379955  -0.0838652   0.0000000), wk =   0.2500000
        k(    7) = (   0.0379955  -0.0419301   0.0000000), wk =   0.2500000
        k(    8) = (  -0.0759910  -0.0000099   0.0000000), wk =   0.1250000
        k(    9) = (  -0.0759910   0.0419252   0.0000000), wk =   0.2500000
        k(   10) = (  -0.0759910  -0.0838800   0.0000000), wk =   0.1250000

     Initial potential from superposition of free atoms

     starting charge  384.99916, renormalised to  401.00000

     negative rho (up, down):  1.014E-02 0.000E+00

     %%%%%%%%%%%%%%%%%%%%%%%%%%%%%%%%%%%%%%%%%%%%%%%%%%%%%%%%%%%%%%%%%%%%%%%%
     %                                                                      %
     % You are using vdW-DF, which was implemented by the Thonhauser group. %
     % Please cite the following two papers that made this development      %
     % possible and the two reviews that describe the various versions:     %
     %                                                                      %
     %   T. Thonhauser et al., PRL 115, 136402 (2015).                      %
     %   T. Thonhauser et al., PRB 76, 125112 (2007).                       %
     %   K. Berland et al., Rep. Prog. Phys. 78, 066501 (2015).             %
     %   D.C. Langreth et al., J. Phys.: Condens. Matter 21, 084203 (2009). %
     %                                                                      %
     %                                                                      %
     % If you are calculating the stress with vdW-DF, please also cite:     %
     %                                                                      %
     %   R. Sabatini et al., J. Phys.: Condens. Matter 24, 424209 (2012).   %
     %                                                                      %
     %%%%%%%%%%%%%%%%%%%%%%%%%%%%%%%%%%%%%%%%%%%%%%%%%%%%%%%%%%%%%%%%%%%%%%%%

     Adding external electric field

     Computed dipole along edir(3) :
        Dipole              -14.4684 Ry au,        -36.7751 Debye
        Dipole field         -0.0273 Ry au,

        Potential amp.        2.5310 Ry
        Total length         46.3494 bohr

     Starting wfcs are  303 atomic wfcs
  @ DRIVER MODE: Message from server: STATUS
  @ DRIVER MODE: Message from server: POSDATA
  @ DRIVER MODE: Reading and sharing cell
  @ DRIVER MODE: Reading and sharing positions
  @ DRIVER MODE: Received positions

     Self-consistent Calculation

     iteration #  1     ecut=    29.40 Ry     beta= 0.05
     Davidson diagonalization with overlap
     c_bands:  3 eigenvalues not converged
     c_bands:  3 eigenvalues not converged
     c_bands:  4 eigenvalues not converged
     c_bands:  3 eigenvalues not converged
     c_bands:  5 eigenvalues not converged
     c_bands:  3 eigenvalues not converged
     c_bands:  5 eigenvalues not converged
     c_bands:  3 eigenvalues not converged
     c_bands:  3 eigenvalues not converged
     c_bands:  1 eigenvalues not converged
     ethr =  1.00E-05,  avg # of iterations = 24.0

[...]

     total energy              =   -2414.30089304 Ry
     estimated scf accuracy    <    6341.46399929 Ry

     iteration #  2     ecut=    29.40 Ry     beta= 0.05
     Davidson diagonalization with overlap
     ethr =  1.00E-02,  avg # of iterations = 24.5

[...]

     iteration # 74     ecut=    29.40 Ry     beta= 0.05
     Davidson diagonalization with overlap
     c_bands:  1 eigenvalues not converged
     ethr =  6.41E-11,  avg # of iterations = 15.3

[...]

     total energy              =   -2971.68362236 Ry
     estimated scf accuracy    <       0.00000016 Ry

     iteration # 75     ecut=    29.40 Ry     beta= 0.05
     Davidson diagonalization with overlap
     ethr =  4.04E-11,  avg # of iterations =  8.7

     negative rho (up, down):  1.202E-02 0.000E+00

     Adding external electric field

     Computed dipole along edir(3) :
        Dipole                0.7546 Ry au,          1.9179 Debye
        Dipole field          0.0014 Ry au,

        Potential amp.       -0.1320 Ry
        Total length         46.3494 bohr

     End of self-consistent calculation

          k = 0.0000 0.0000 0.0000 ( 18029 PWs)   bands (ev):

   -55.6092 -55.5943 -55.5725 -55.5580 -55.5036 -55.4931 -55.4696 -55.4417
   -55.4354 -55.3812 -55.3723 -55.3656 -55.3319 -55.2527 -54.6232 -54.5891
   -32.1603 -32.0772 -32.0125 -31.9581 -31.9283 -31.9087 -31.9005 -31.8777
   -31.8450 -31.8334 -31.8151 -31.8098 -31.8077 -31.7757 -31.7693 -31.7536
   -31.7474 -31.7397 -31.7280 -31.6995 -31.6981 -31.6741 -31.6713 -31.6584
   -31.6496 -31.6481 -31.6256 -31.6189 -31.6099 -31.5976 -31.5902 -31.5901
   -31.5844 -31.5677 -31.5472 -31.5398 -31.5356 -31.5098 -31.4766 -31.4694
   -31.4478 -31.4410 -31.0331 -30.9359 -30.9135 -30.8497 -30.7636 -30.6525
   -21.1851 -17.3511 -16.3465 -16.0540 -15.8915 -15.7576 -15.7271 -15.6228
   -15.4332 -15.2951 -15.2762 -15.2135 -15.1756 -15.1641 -15.1352 -15.1307
   -15.1179 -15.1148 -15.0653 -15.0336 -15.0300 -15.0123 -14.9884 -14.9268
   -14.8863 -14.8068 -14.7590 -14.7276 -14.6713 -14.6094 -14.5934 -13.1239
   -13.0057  -9.1552  -6.3516  -4.3268  -4.3077  -4.0551  -3.8205  -3.7060
    -3.5326  -3.5193  -3.4982  -3.4690  -3.4121  -3.1652  -3.1484  -3.0463
    -2.8307  -2.7724  -2.7486  -2.7337  -2.7285  -2.4855  -2.4663  -2.4361
    -2.4261  -2.4163  -2.3896  -2.3627  -2.3593  -2.3280  -2.3099  -2.2167
    -2.1381  -2.1267  -2.0208  -1.9844  -1.9581  -1.9105  -1.8800  -1.8644
    -1.8481  -1.8204  -1.8066  -1.7773  -1.7744  -1.6758  -1.5511  -1.4392
    -1.4095  -1.3717  -1.3089  -1.1034  -1.0546  -1.0230  -1.0103  -0.9522
    -0.9259  -0.9166  -0.8383  -0.8066  -0.7848  -0.6775  -0.6156  -0.5924
    -0.5658  -0.5032  -0.4708  -0.4251  -0.3479  -0.3326  -0.3194  -0.1011
    -0.0798  -0.0702  -0.0608   0.0533   0.1038   0.1621   0.1739   0.1827
     0.2131   0.2942   0.3458   0.3650   0.3852   0.4066   0.4443   0.5182
     0.5434   0.5712   0.5965   0.6246   0.7151   0.7664   0.9070   1.0370
     1.0617   1.1583   1.3044   1.4010   1.4752   1.5717   1.9900   2.0494
     3.5783   3.6061   3.6391   3.6688   3.7315   3.8453   3.9646   4.0139
     4.0368   4.0609

[...]

          k = 0.0380-0.0419 0.0000 ( 17876 PWs)   bands (ev):

[...]

          k =-0.0760-0.0000 0.0000 ( 17886 PWs)   bands (ev):

[...]

          k =-0.0760-0.0839 0.0000 ( 17948 PWs)   bands (ev):

   -55.5977 -55.5839 -55.5771 -55.5750 -55.5011 -55.4873 -55.4532 -55.4519
   -55.4474 -55.3784 -55.3745 -55.3511 -55.3467 -55.2550 -54.6067 -54.6055
   -31.9645 -31.9590 -31.9127 -31.9007 -31.8897 -31.8861 -31.8680 -31.8636
   -31.8600 -31.8184 -31.7957 -31.7900 -31.7887 -31.7503 -31.7398 -31.7341
   -31.7242 -31.7238 -31.7199 -31.7148 -31.7113 -31.6941 -31.6892 -31.6838
   -31.6793 -31.6732 -31.6666 -31.6556 -31.6553 -31.6508 -31.6270 -31.6035
   -31.6027 -31.5999 -31.5947 -31.5777 -31.5728 -31.5618 -31.5556 -31.5451
   -31.4851 -31.4493 -30.9269 -30.9255 -30.8465 -30.8456 -30.8072 -30.8062
   -21.1850 -17.3147 -15.7836 -15.7726 -15.5288 -15.5266 -15.5243 -15.4558
   -15.3644 -15.3473 -15.3290 -15.3245 -15.2665 -15.2592 -15.2447 -15.1846
   -15.1449 -15.1256 -15.1136 -15.1113 -15.0585 -15.0543 -15.0015 -14.9793
   -14.9643 -14.9572 -14.9398 -14.9332 -14.8437 -14.8401 -14.7680 -13.1081
   -13.1058  -9.1558  -6.3521  -4.3245  -4.3147  -3.9302  -3.7878  -3.5185
    -3.0759  -3.0618  -3.0371  -2.7703  -2.7457  -2.7439  -2.6501  -2.5630
    -2.5241  -2.4868  -2.4490  -2.4458  -2.4444  -2.4254  -2.4062  -2.3942
    -2.3720  -2.3576  -2.3464  -2.2869  -2.2502  -2.2422  -2.2374  -2.2292
    -2.2010  -2.1820  -2.1604  -2.1544  -2.1442  -2.1238  -2.0303  -1.8916
    -1.8576  -1.7483  -1.7383  -1.7083  -1.6941  -1.6625  -1.6552  -1.6359
    -1.5286  -1.4598  -1.3381  -1.3256  -1.3077  -1.2557  -1.1861  -1.1129
    -1.0550  -1.0246  -1.0062  -0.9149  -0.9036  -0.8251  -0.8134  -0.7607
    -0.7247  -0.7069  -0.6147  -0.5764  -0.5633  -0.5496  -0.4788  -0.4641
    -0.4382  -0.4056  -0.3467  -0.3370  -0.2625  -0.2310  -0.1827  -0.1218
    -0.1002  -0.0479   0.0399   0.2082   0.3017   0.4014   0.4374   0.4959
     0.5086   0.6052   0.6487   0.6670   0.6723   0.7564   0.8231   0.8497
     0.9166   0.9311   0.9537   1.0169   1.7609   1.7624   1.8527   1.8628
     3.7838   3.8120   3.8321   3.8786   4.0377   4.0424   4.0615   4.0649
     4.1403   4.2022

     the Fermi energy is     3.5461 ev

!    total energy              =   -2971.68363155 Ry
     estimated scf accuracy    <       0.00000005 Ry
     smearing contrib. (-TS)   =      -0.02320958 Ry
     internal energy E=F+TS    =   -2971.66042197 Ry

     The total energy is F=E-TS. E is the sum of the following terms:
     one-electron contribution =  -22785.36758569 Ry
     hartree contribution      =   11484.64874366 Ry
     xc contribution           =    -492.26225465 Ry
     ewald contribution        =    8821.31960025 Ry
     electric field correction =       0.00107446 Ry

     convergence has been achieved in  75 iterations

     Forces acting on atoms (cartesian axes, Ry/au):

     atom    1 type  1   force =    -0.00021068   -0.00154495    0.10613670
     atom    2 type  1   force =    -0.00045232    0.00047513   -0.17981917
     atom    3 type  2   force =     0.00026735   -0.00690257   -0.03318760
     atom    4 type  2   force =     0.00053958    0.00050884    0.04563129
     atom    5 type  2   force =    -0.01840331    0.00015660    0.00400578
     atom    6 type  2   force =     0.02061590   -0.00128013    0.00460001
     atom    7 type  1   force =    -0.00033776   -0.00019863    0.00006752
     atom    8 type  1   force =    -0.00018000   -0.00127298    0.00019039
     atom    9 type  2   force =     0.00001183    0.00011359   -0.00076184
     atom   10 type  2   force =    -0.00005660    0.00002304   -0.00043725
     atom   11 type  2   force =     0.00004894    0.00007831    0.00040503
     atom   12 type  2   force =    -0.00071616    0.00015238    0.00036616
     atom   13 type  1   force =     0.00000079    0.00042879    0.00051851
     atom   14 type  1   force =    -0.00014463    0.00088090    0.00019575
     atom   15 type  2   force =    -0.00043912   -0.00029549    0.00004325
     atom   16 type  2   force =    -0.00019244    0.00013335   -0.00073678
     atom   17 type  2   force =    -0.00036498    0.00006009    0.00010411
     atom   18 type  2   force =     0.00036284   -0.00008612   -0.00044641
     atom   19 type  1   force =    -0.00000186    0.00071316   -0.00049637
     atom   20 type  1   force =    -0.00031991   -0.00000421   -0.00043764
     atom   21 type  2   force =    -0.00006707    0.00009811    0.10416156
     atom   22 type  2   force =    -0.00007600   -0.00045239   -0.00072470
     atom   23 type  2   force =    -0.06901832    0.00067815   -0.02955246
     atom   24 type  2   force =     0.06867560    0.00115358   -0.02961210
     atom   25 type  1   force =    -0.00013062    0.00147152    0.11713258
     atom   26 type  1   force =    -0.00022366   -0.00000073   -0.17989203
     atom   27 type  2   force =     0.00042496    0.00389757   -0.02757756
     atom   28 type  2   force =     0.00072556    0.00077917    0.04708140
     atom   29 type  2   force =    -0.01718090    0.00151736    0.00338816
     atom   30 type  2   force =     0.01882772    0.00099470    0.00380745
     atom   31 type  1   force =    -0.00038584    0.00044194   -0.00029639
     atom   32 type  1   force =    -0.00022681    0.00076390    0.00039598
     atom   33 type  2   force =    -0.00028514   -0.00010190   -0.00017761
     atom   34 type  2   force =    -0.00003255    0.00047387    0.00027353
     atom   35 type  2   force =    -0.00005013    0.00005707    0.00053246
     atom   36 type  2   force =    -0.00067878   -0.00006186    0.00041193
     atom   37 type  1   force =    -0.00005261   -0.00016906    0.00008378
     atom   38 type  1   force =    -0.00007263   -0.00115230    0.00008556
     atom   39 type  2   force =    -0.00021672    0.00001930    0.00048447
     atom   40 type  2   force =    -0.00022677    0.00020180    0.00069838
     atom   41 type  2   force =    -0.00089984   -0.00039521   -0.00023182
     atom   42 type  2   force =     0.00078152   -0.00017046   -0.00001846
     atom   43 type  1   force =     0.00024476   -0.00086569    0.00030603
     atom   44 type  1   force =    -0.00001157    0.00125199   -0.00026803
     atom   45 type  2   force =    -0.00006431    0.00007380    0.10421706
     atom   46 type  2   force =    -0.06860440   -0.00128334   -0.02959806
     atom   47 type  2   force =     0.06836228   -0.00086029   -0.02968207
     atom   48 type  3   force =    -0.01010942   -0.00181305   -0.00067170
     atom   49 type  2   force =    -0.00041738    0.00040871    0.00076657
     atom   50 type  4   force =     0.01147747    0.00131823   -0.00042380
     atom   51 type  4   force =    -0.00052750   -0.00017120   -0.00036078
     atom   52 type  4   force =     0.00014644   -0.00013737   -0.00034328
     atom   53 type  5   force =     0.00057929    0.00001247    0.00079308
     atom   54 type  5   force =    -0.00071404   -0.00011751   -0.00113057

     Total force =     0.376479     Total SCF correction =     0.000481
  @ DRIVER MODE: Message from server: STATUS
  @ DRIVER MODE: Message from server: GETFORCE
  @ DRIVER MODE: Returning v,forces,stress,ensemble

     Writing output data file ./calc.save/
  @ DRIVER MODE: Message from server: EXIT
  @ DRIVE MODE: Exiting

     General routines

     Parallel routines

   This run was terminated on:  16:36:16  21Sep2021

   JOB DONE.