     Program PWSCF v.6.7GPU starts on 25Aug2021 at  0:37:17

     R & G space division:  proc/nbgrp/npool/nimage =      72
     Reading input from /storage/home/hcoda1/3/ntian30/research/carbon/CH2_vib/ads_slab/CH2NHHH_a/out_0038/pw.inp
Warning: card &CELL ignored
Warning: card   CELL_DYNAMICS='IPI', ignored
Warning: card / ignored

     Current dimensions of program PWSCF are:
     Max number of different atomic species (ntypx) = 10
     Max number of k-points (npk) =  40000
     Max angular momentum in pseudopotentials (lmaxx) =  3
     Presently no symmetry can be used with electric field

     Message from routine cell_base_init:
     DEPRECATED: use true lattice parameter, not A to a.u. conversion factor

     IMPORTANT: XC functional enforced from input :
     Exchange-correlation= BEEF-VDW
                           (   1   4  43  14   2   0   0)
     Any further DFT definition will be discarded
     Please, verify this is what you really want

  @ DRIVER MODE: Connecting to
 qe_1139763_2641440.sched-torque.pace.gatech.eduoumtzbsb_scratch
  using UNIX socket
  @ DRIVER MODE: Message from server: STATUS
  @ DRIVER MODE: Message from server: INIT
  @ DRIVER MODE: Receiving replica           0          -1
  @ DRIVER MODE: Receiving encoded integer          25
  @ DRIVER MODE:  SCF:  T  FORCE:  T  STRESS:  F  VC:  F  ENSEMBLE:  F
  @ DRIVER MODE:  SCF:  T  FORCE:  T  STRESS:  F  VC:  F  ENSEMBLE:  F

     Using Slab Decomposition

     bravais-lattice index     =            0
     lattice parameter (alat)  =       1.8897  a.u.
     unit-cell volume          =    6658.9804 (a.u.)^3
     number of atoms/cell      =           54
     number of atomic types    =            5
     number of electrons       =       392.00
     number of Kohn-Sham states=          206
     kinetic-energy cutoff     =      29.3995  Ry
     charge density cutoff     =     293.9946  Ry
     scf convergence threshold =      7.3E-08
     mixing beta               =       0.0500
     number of iterations used =            8  plain     mixing
     Exchange-correlation= BEEF-VDW
                           (   1   4  43  14   2   0   0)

     celldm(1)=   1.889726  celldm(2)=   0.000000  celldm(3)=   0.000000
     celldm(4)=   0.000000  celldm(5)=   0.000000  celldm(6)=   0.000000

     crystal axes: (cart. coord. in units of alat)
               a(1) = (   6.579727   0.000000   0.000000 )
               a(2) = (  -0.000775   5.961596   0.000000 )
               a(3) = (   0.000000   0.000000  25.155947 )

     reciprocal axes: (cart. coord. in units 2 pi/alat)
               b(1) = (  0.151982  0.000020  0.000000 )
               b(2) = (  0.000000  0.167740  0.000000 )
               b(3) = (  0.000000  0.000000  0.039752 )

     PseudoPot. # 1 for Ti read from file:
     /storage/coda1/p-amedford6/0/shared/rich_project_chbe-medford/medford-share/data/pseudos_module/espresso/nninc/pbe/van/Ti.UPF
     MD5 check sum: 8e4df49b7f0d34bbd5052bf3f5ea0213
     Pseudo is Ultrasoft, Zval = 12.0
     Generated by new atomic code, or converted to UPF format
     Using radial grid of  851 points,  6 beta functions with:
                l(1) =   0
                l(2) =   0
                l(3) =   1
                l(4) =   1
                l(5) =   2
                l(6) =   2
     Q(r) pseudized with  8 coefficients,  rinner =    1.000   1.000   1.000
                                                       1.000   1.000

     PseudoPot. # 2 for O  read from file:
     /storage/coda1/p-amedford6/0/shared/rich_project_chbe-medford/medford-share/data/pseudos_module/espresso/nninc/pbe/van/O.UPF
     MD5 check sum: 78c19812648e8988a0fe644b0f25305e
     Pseudo is Ultrasoft, Zval =  6.0
     Generated by new atomic code, or converted to UPF format
     Using radial grid of  737 points,  4 beta functions with:
                l(1) =   0
                l(2) =   0
                l(3) =   1
                l(4) =   1
     Q(r) pseudized with  8 coefficients,  rinner =    0.800   0.800   0.800

     PseudoPot. # 3 for N  read from file:
     /storage/coda1/p-amedford6/0/shared/rich_project_chbe-medford/medford-share/data/pseudos_module/espresso/nninc/pbe/van/N.UPF
     MD5 check sum: 90d10febe142ad51ac9d5be1deb811c4
     Pseudo is Ultrasoft, Zval =  5.0
     Generated by new atomic code, or converted to UPF format
     Using radial grid of  729 points,  4 beta functions with:
                l(1) =   0
                l(2) =   0
                l(3) =   1
                l(4) =   1
     Q(r) pseudized with  8 coefficients,  rinner =    0.800   0.800   0.800

     PseudoPot. # 4 for C  read from file:
     /storage/coda1/p-amedford6/0/shared/rich_project_chbe-medford/medford-share/data/pseudos_module/espresso/nninc/pbe/van/C.UPF
     MD5 check sum: 1a69bf6b8db32088f5b2163dbdb77a27
     Pseudo is Ultrasoft, Zval =  4.0
     Generated by new atomic code, or converted to UPF format
     Using radial grid of  721 points,  4 beta functions with:
                l(1) =   0
                l(2) =   0
                l(3) =   1
                l(4) =   1
     Q(r) pseudized with  8 coefficients,  rinner =    0.800   0.800   0.800

     PseudoPot. # 5 for H  read from file:
     /storage/coda1/p-amedford6/0/shared/rich_project_chbe-medford/medford-share/data/pseudos_module/espresso/nninc/pbe/van/H.UPF
     MD5 check sum: b5ee9d7bfd3a09ee7748110bda690ff7
     Pseudo is Ultrasoft, Zval =  1.0
     Generated by new atomic code, or converted to UPF format
     Using radial grid of  615 points,  1 beta functions with:
                l(1) =   0
     Q(r) pseudized with  8 coefficients,  rinner =    0.800

     atomic species   valence    mass     pseudopotential
        Ti1           12.00    47.86700     Ti( 1.00)
        O1             6.00    15.99900     O ( 1.00)
        N1             5.00    14.00700     N ( 1.00)
        C1             4.00    12.01100     C ( 1.00)
        H1             1.00     1.00800     H ( 1.00)

     No symmetry found

   Cartesian axes

     site n.     atom                  positions (alat units)
         1           Ti1 tau(   1) = (   0.0004258   2.9801865   6.0000000  )
         2           Ti1 tau(   2) = (   3.2906075   1.4906267   6.0002472  )
         3           O1  tau(   3) = (   0.0006271   0.0005054   7.9858123  )
         4           O1  tau(   4) = (   3.2906025   0.0005020   7.3038282  )
         5           O1  tau(   5) = (   4.5942328   1.4918067   9.2879030  )
         6           O1  tau(   6) = (   1.9868534   1.4903216   9.2879459  )
         7           Ti1 tau(   7) = (   3.2907910   2.8959150   9.1758416  )
         8           Ti1 tau(   8) = (   0.0015273   1.4827037   9.2680791  )
         9           O1  tau(   9) = (   3.2947057   0.0061428  11.3716447  )
        10           O1  tau(  10) = (   0.0116148   5.9584955  10.6183126  )
        11           O1  tau(  11) = (   1.2915649   1.4936813  12.6925814  )
        12           O1  tau(  12) = (   5.2970661   1.4944705  12.6810846  )
        13           Ti1 tau(  13) = (   0.0178387   2.9746902  12.5081746  )
        14           Ti1 tau(  14) = (   3.3154821   1.4870708  12.5273966  )
        15           O1  tau(  15) = (   6.5751158   5.8850184  14.6937530  )
        16           O1  tau(  16) = (   3.3021755   5.9482827  13.9948957  )
        17           O1  tau(  17) = (   4.5403780   1.5298489  16.1548813  )
        18           O1  tau(  18) = (   2.0255877   1.5226301  16.1187562  )
        19           Ti1 tau(  19) = (   3.2919084   3.0021400  15.7465462  )
        20           Ti1 tau(  20) = (   0.0121818   1.3098915  15.8601907  )
        21           O1  tau(  21) = (   3.2904802   0.0005063   4.7018136  )
        22           O1  tau(  22) = (   6.5726150   0.1553292  17.2405045  )
        23           O1  tau(  23) = (   1.3043587   1.4918075   6.0039043  )
        24           O1  tau(  24) = (   5.2767064   1.4903225   6.0039473  )
        25           Ti1 tau(  25) = (   0.0000382   5.9609847   6.0000000  )
        26           Ti1 tau(  26) = (   3.2902200   4.4714249   6.0002472  )
        27           O1  tau(  27) = (   0.0002396   2.9813036   7.9858123  )
        28           O1  tau(  28) = (   3.2902150   2.9813002   7.3038282  )
        29           O1  tau(  29) = (   4.5938453   4.4726049   9.2879030  )
        30           O1  tau(  30) = (   1.9864658   4.4711199   9.2879459  )
        31           Ti1 tau(  31) = (   3.2891106   5.8743827   9.1763621  )
        32           Ti1 tau(  32) = (   0.0006254   4.4649316   9.2693709  )
        33           O1  tau(  33) = (   3.2927311   2.9710310  11.3658552  )
        34           O1  tau(  34) = (   0.0092240   2.9805883  10.6323155  )
        35           O1  tau(  35) = (   1.2954064   4.4636889  12.6531092  )
        36           O1  tau(  36) = (   5.2951753   4.4642890  12.6444158  )
        37           Ti1 tau(  37) = (   0.0208150   5.9452171  12.5004641  )
        38           Ti1 tau(  38) = (   3.3163264   4.4646888  12.5160798  )
        39           O1  tau(  39) = (   6.5606049   3.0383603  14.9590055  )
        40           O1  tau(  40) = (   3.3003749   3.0012653  13.9593002  )
        41           O1  tau(  41) = (   4.5325621   4.4784225  16.2386555  )
        42           O1  tau(  42) = (   2.0180351   4.4745910  16.2101397  )
        43           Ti1 tau(  43) = (   3.2993765   0.0184524  15.7908042  )
        44           Ti1 tau(  44) = (   0.0223033   4.5207704  16.0490861  )
        45           O1  tau(  45) = (   3.2900926   2.9813045   4.7018136  )
        46           O1  tau(  46) = (   1.3039711   4.4726057   6.0039043  )
        47           O1  tau(  47) = (   5.2763189   4.4711207   6.0039473  )
        48           N1  tau(  48) = (   6.4337409   3.4053151  18.1409392  )
        49           C1  tau(  49) = (   1.0285230   3.1422446  19.0018829  )
        50           H1  tau(  50) = (   0.7475518   3.0234394  20.0507379  )
        51           H1  tau(  51) = (   1.7227964   3.9744885  18.9089305  )
        52           H1  tau(  52) = (   5.9280473   4.2150708  18.4935385  )
        53           H1  tau(  53) = (   5.7900178   2.6175148  18.1880975  )
        54           H1  tau(  54) = (   1.5259085   2.2300880  18.6641165  )

     number of k points=    10  Fermi-Dirac smearing, width (Ry)=  0.0073
                       cart. coord. in units 2pi/alat
        k(    1) = (   0.0000000   0.0000000   0.0000000), wk =   0.1250000
        k(    2) = (   0.0000000   0.0419351   0.0000000), wk =   0.2500000
        k(    3) = (   0.0000000  -0.0838702   0.0000000), wk =   0.1250000
        k(    4) = (   0.0379955   0.0000049   0.0000000), wk =   0.2500000
        k(    5) = (   0.0379955   0.0419400   0.0000000), wk =   0.2500000
        k(    6) = (   0.0379955  -0.0838652   0.0000000), wk =   0.2500000
        k(    7) = (   0.0379955  -0.0419301   0.0000000), wk =   0.2500000
        k(    8) = (  -0.0759910  -0.0000099   0.0000000), wk =   0.1250000
        k(    9) = (  -0.0759910   0.0419252   0.0000000), wk =   0.2500000
        k(   10) = (  -0.0759910  -0.0838800   0.0000000), wk =   0.1250000

     Initial potential from superposition of free atoms

     starting charge  375.99915, renormalised to  392.00000

     negative rho (up, down):  1.645E-02 0.000E+00

     %%%%%%%%%%%%%%%%%%%%%%%%%%%%%%%%%%%%%%%%%%%%%%%%%%%%%%%%%%%%%%%%%%%%%%%%
     %                                                                      %
     % You are using vdW-DF, which was implemented by the Thonhauser group. %
     % Please cite the following two papers that made this development      %
     % possible and the two reviews that describe the various versions:     %
     %                                                                      %
     %   T. Thonhauser et al., PRL 115, 136402 (2015).                      %
     %   T. Thonhauser et al., PRB 76, 125112 (2007).                       %
     %   K. Berland et al., Rep. Prog. Phys. 78, 066501 (2015).             %
     %   D.C. Langreth et al., J. Phys.: Condens. Matter 21, 084203 (2009). %
     %                                                                      %
     %                                                                      %
     % If you are calculating the stress with vdW-DF, please also cite:     %
     %                                                                      %
     %   R. Sabatini et al., J. Phys.: Condens. Matter 24, 424209 (2012).   %
     %                                                                      %
     %%%%%%%%%%%%%%%%%%%%%%%%%%%%%%%%%%%%%%%%%%%%%%%%%%%%%%%%%%%%%%%%%%%%%%%%

     Adding external electric field

     Computed dipole along edir(3) :
        Dipole               -7.5123 Ry au,        -19.0944 Debye
        Dipole field         -0.0142 Ry au,

        Potential amp.        1.3142 Ry
        Total length         46.3494 bohr

     Starting wfcs are  297 atomic wfcs
  @ DRIVER MODE: Message from server: STATUS
  @ DRIVER MODE: Message from server: POSDATA
  @ DRIVER MODE: Reading and sharing cell
  @ DRIVER MODE: Reading and sharing positions
  @ DRIVER MODE: Received positions

     Self-consistent Calculation

     iteration #  1     ecut=    29.40 Ry     beta= 0.05
     Davidson diagonalization with overlap
     c_bands:  1 eigenvalues not converged
     c_bands:  1 eigenvalues not converged
     c_bands:  2 eigenvalues not converged
     c_bands:  1 eigenvalues not converged
     c_bands:  1 eigenvalues not converged
     c_bands:  1 eigenvalues not converged
     ethr =  1.00E-05,  avg # of iterations = 19.3

[...]

     total energy              =   -2681.20519670 Ry
     estimated scf accuracy    <    2661.10095341 Ry

[...]

     iteration #  3     ecut=    29.40 Ry     beta= 0.05
     Davidson diagonalization with overlap
     ethr =  1.00E-02,  avg # of iterations = 14.1

[...]

     iteration # 71     ecut=    29.40 Ry     beta= 0.05
     Davidson diagonalization with overlap
     c_bands:  1 eigenvalues not converged
     ethr =  3.00E-11,  avg # of iterations = 16.3

[...]

     total energy              =   -2921.63250863 Ry
     estimated scf accuracy    <       0.00000016 Ry

     iteration # 72     ecut=    29.40 Ry     beta= 0.05
     Davidson diagonalization with overlap
     ethr =  3.00E-11,  avg # of iterations =  8.7

     negative rho (up, down):  1.722E-02 0.000E+00

     Adding external electric field

     Computed dipole along edir(3) :
        Dipole                1.3059 Ry au,          3.3192 Debye
        Dipole field          0.0025 Ry au,

        Potential amp.       -0.2284 Ry
        Total length         46.3494 bohr

     End of self-consistent calculation

          k = 0.0000 0.0000 0.0000 ( 18029 PWs)   bands (ev):

   -55.4314 -55.3944 -55.3814 -55.3565 -55.3473 -55.3139 -55.3090 -55.2746
   -55.2484 -55.2315 -55.2139 -55.2127 -55.1790 -55.0992 -54.4099 -54.3758
   -32.0008 -31.8860 -31.8739 -31.7977 -31.7485 -31.7383 -31.7357 -31.7187
   -31.6737 -31.6705 -31.6418 -31.6396 -31.6265 -31.6191 -31.6015 -31.5943
   -31.5869 -31.5746 -31.5695 -31.5462 -31.5341 -31.5305 -31.5024 -31.4953
   -31.4868 -31.4792 -31.4742 -31.4510 -31.4396 -31.4387 -31.4313 -31.4124
   -31.4117 -31.4054 -31.3994 -31.3962 -31.3624 -31.3530 -31.3411 -31.3240
   -31.3051 -31.2950 -30.8191 -30.7251 -30.7030 -30.6356 -30.5488 -30.4378
   -16.2942 -16.1622 -15.9761 -15.8314 -15.7489 -15.6295 -15.5182 -15.5043
   -15.3638 -15.2822 -15.1663 -15.1412 -15.1124 -15.0901 -15.0818 -15.0646
   -14.9737 -14.9688 -14.9565 -14.9240 -14.9229 -14.8786 -14.8681 -14.8261
   -14.8047 -14.8026 -14.6827 -14.5891 -14.5168 -14.2871 -12.9124 -12.7949
   -10.2100  -6.3052  -4.8153  -3.9621  -3.6102  -3.4520  -3.3691  -3.3350
    -3.3220  -3.1907  -3.0531  -2.8976  -2.8529  -2.8095  -2.7231  -2.6466
    -2.6386  -2.6199  -2.4658  -2.4310  -2.3862  -2.3377  -2.2995  -2.2414
    -2.2210  -2.2125  -2.1998  -2.1827  -2.1741  -2.0561  -2.0002  -1.9165
    -1.8574  -1.8346  -1.7844  -1.7642  -1.7441  -1.7203  -1.7110  -1.6701
    -1.6452  -1.6250  -1.5716  -1.4603  -1.3566  -1.3062  -1.1869  -1.0661
    -1.0290  -1.0170  -0.9658  -0.9381  -0.9164  -0.8592  -0.8074  -0.7783
    -0.7251  -0.6632  -0.6016  -0.5520  -0.4789  -0.4753  -0.4166  -0.3675
    -0.2465  -0.2142  -0.1972  -0.1693  -0.0788  -0.0407   0.0031   0.0832
     0.0944   0.1137   0.2077   0.2181   0.2919   0.3404   0.3573   0.4506
     0.4854   0.4978   0.5024   0.5247   0.5546   0.6046   0.6462   0.6727
     0.7396   0.8660   1.0792   1.1595   1.1834   1.5093   1.5192   1.6130
     1.7967   2.1888   2.2369   3.6665   3.7371   3.8128   3.8192   3.8320
     3.9048   4.1392   4.1629   4.1707   4.1774   4.1982

[...]

          k = 0.0380-0.0419 0.0000 ( 17876 PWs)   bands (ev):

[...]

          k =-0.0760-0.0000 0.0000 ( 17886 PWs)   bands (ev):

[...]

          k =-0.0760-0.0839 0.0000 ( 17948 PWs)   bands (ev):

   -55.4173 -55.4083 -55.3646 -55.3640 -55.3550 -55.3103 -55.2931 -55.2905
   -55.2350 -55.2328 -55.2290 -55.1963 -55.1956 -55.1005 -54.3931 -54.3924
   -31.8080 -31.8035 -31.8008 -31.7182 -31.6924 -31.6892 -31.6887 -31.6559
   -31.6556 -31.6402 -31.6337 -31.6310 -31.6243 -31.6020 -31.5868 -31.5703
   -31.5662 -31.5638 -31.5619 -31.5569 -31.5567 -31.5540 -31.5109 -31.5088
   -31.5059 -31.5020 -31.4993 -31.4863 -31.4843 -31.4839 -31.4821 -31.4659
   -31.4622 -31.4464 -31.4425 -31.4287 -31.4256 -31.4233 -31.3773 -31.3771
   -31.3707 -31.3098 -30.7160 -30.7154 -30.6318 -30.6314 -30.5924 -30.5920
   -16.1325 -15.7820 -15.6959 -15.6400 -15.4646 -15.4367 -15.4226 -15.4030
   -15.2739 -15.2483 -15.2226 -15.2001 -15.1791 -15.1415 -15.1338 -15.1291
   -15.0512 -15.0381 -15.0325 -15.0178 -14.9486 -14.9396 -14.9357 -14.9296
   -14.8791 -14.8754 -14.8323 -14.7818 -14.7786 -14.5630 -12.8964 -12.8964
   -10.2132  -6.2756  -4.8118  -3.9265  -2.9653  -2.9228  -2.8961  -2.8921
    -2.6807  -2.6428  -2.6077  -2.5836  -2.4920  -2.4497  -2.4309  -2.4302
    -2.3558  -2.3352  -2.3239  -2.2722  -2.2674  -2.2554  -2.2319  -2.1995
    -2.1743  -2.1598  -2.1500  -2.1317  -2.0879  -2.0741  -2.0543  -2.0339
    -2.0280  -2.0156  -1.9863  -1.9464  -1.8157  -1.8046  -1.7440  -1.6367
    -1.6317  -1.5566  -1.5461  -1.5012  -1.4877  -1.4630  -1.4286  -1.2487
    -1.2068  -1.1761  -1.1666  -1.1124  -1.0361  -1.0193  -0.9566  -0.9352
    -0.9172  -0.8125  -0.7694  -0.7544  -0.6644  -0.6558  -0.5728  -0.5236
    -0.4626  -0.4368  -0.4024  -0.3862  -0.3841  -0.3364  -0.3307  -0.2468
    -0.2010  -0.1649  -0.1514  -0.1191   0.0798   0.0867   0.1092   0.2549
     0.2748   0.4099   0.4371   0.4885   0.5681   0.6012   0.6819   0.7148
     0.8445   0.8750   0.8774   0.9471   0.9614   1.0234   1.0338   1.9697
     1.9704   2.0569   2.0571   3.8173   3.9090   3.9290   3.9715   4.0846
     4.1593   4.1837   4.2054   4.2525   4.2557   4.3172

     the Fermi energy is     3.7304 ev

!    total energy              =   -2921.63252574 Ry
     estimated scf accuracy    <       0.00000005 Ry
     smearing contrib. (-TS)   =      -0.03702962 Ry
     internal energy E=F+TS    =   -2921.59549612 Ry

     The total energy is F=E-TS. E is the sum of the following terms:
     one-electron contribution =  -24082.13482129 Ry
     hartree contribution      =   12130.20969210 Ry
     xc contribution           =    -481.75796400 Ry
     ewald contribution        =    9512.08437889 Ry
     electric field correction =       0.00321819 Ry

     convergence has been achieved in  72 iterations

     Forces acting on atoms (cartesian axes, Ry/au):

     atom    1 type  1   force =     0.00005820   -0.00023826    0.09319505
     atom    2 type  1   force =    -0.00012375   -0.00043820   -0.17823892
     atom    3 type  2   force =     0.00002100   -0.00040784   -0.02019531
     atom    4 type  2   force =    -0.00001269   -0.00188302    0.05855010
     atom    5 type  2   force =    -0.00994612   -0.00082539    0.00750357
     atom    6 type  2   force =     0.01146407   -0.00027362    0.00680217
     atom    7 type  1   force =    -0.00038578    0.00195096   -0.01464021
     atom    8 type  1   force =     0.00011337   -0.00011790   -0.00501595
     atom    9 type  2   force =    -0.00011566   -0.00005383    0.00001792
     atom   10 type  2   force =    -0.00117996    0.00218810   -0.00033601
     atom   11 type  2   force =    -0.00002184   -0.00019209    0.00006675
     atom   12 type  2   force =     0.00059475   -0.00051102    0.00012699
     atom   13 type  1   force =    -0.00071954    0.00034116   -0.00032215
     atom   14 type  1   force =    -0.00000683   -0.00059819    0.00005740
     atom   15 type  2   force =     0.00004023   -0.00056216   -0.00040384
     atom   16 type  2   force =     0.00023577    0.00059805    0.00050768
     atom   17 type  2   force =     0.00002371   -0.00054434    0.00034247
     atom   18 type  2   force =     0.00021275   -0.00010894    0.00030762
     atom   19 type  1   force =     0.00007050   -0.00033621    0.00174531
     atom   20 type  1   force =    -0.00020294    0.00043165    0.00031996
     atom   21 type  2   force =     0.00000920   -0.00009875    0.10388892
     atom   22 type  2   force =     0.00015242   -0.00018978    0.00046883
     atom   23 type  2   force =    -0.07047853   -0.00018166   -0.02694721
     atom   24 type  2   force =     0.07030342    0.00026065   -0.02698785
     atom   25 type  1   force =    -0.00001104   -0.00016591    0.09269450
     atom   26 type  1   force =    -0.00019930   -0.00049516   -0.17826086
     atom   27 type  2   force =     0.00007434   -0.00024284   -0.01925270
     atom   28 type  2   force =     0.00001709   -0.00165162    0.05789749
     atom   29 type  2   force =    -0.01051749   -0.00097510    0.00820141
     atom   30 type  2   force =     0.01192195   -0.00053244    0.00742845
     atom   31 type  1   force =    -0.00034064    0.00605001   -0.01543048
     atom   32 type  1   force =     0.00011725   -0.00039052   -0.00544076
     atom   33 type  2   force =     0.00030842   -0.00010383   -0.00031019
     atom   34 type  2   force =    -0.00063623   -0.00204606   -0.00051798
     atom   35 type  2   force =    -0.00040682   -0.00002479    0.00023855
     atom   36 type  2   force =     0.00067469   -0.00007233   -0.00004063
     atom   37 type  1   force =    -0.00035618   -0.00023877    0.00027663
     atom   38 type  1   force =     0.00001923    0.00041406   -0.00001628
     atom   39 type  2   force =     0.00022317   -0.00011041    0.00019528
     atom   40 type  2   force =     0.00017247    0.00026229    0.00010994
     atom   41 type  2   force =    -0.00045586    0.00026133   -0.00007703
     atom   42 type  2   force =     0.00049569    0.00084103   -0.00012596
     atom   43 type  1   force =     0.00045198    0.00060888    0.00025237
     atom   44 type  1   force =     0.00052607    0.00057125    0.00024909
     atom   45 type  2   force =     0.00002252   -0.00009516    0.10386181
     atom   46 type  2   force =    -0.07045085   -0.00012989   -0.02688975
     atom   47 type  2   force =     0.07028221    0.00029470   -0.02694209
     atom   48 type  3   force =     0.00060803   -0.00243888    0.00031884
     atom   49 type  4   force =     0.00425875   -0.00408552   -0.00144897
     atom   50 type  5   force =    -0.00038248   -0.00008936    0.00030271
     atom   51 type  5   force =    -0.00064935    0.00083555    0.00029267
     atom   52 type  5   force =    -0.00074127   -0.00037188    0.00028832
     atom   53 type  5   force =    -0.00086602    0.00049983   -0.00018218
     atom   54 type  5   force =    -0.00426610    0.00541220    0.00151454

     Total force =     0.366146     Total SCF correction =     0.000579
  @ DRIVER MODE: Message from server: STATUS
  @ DRIVER MODE: Message from server: GETFORCE
  @ DRIVER MODE: Returning v,forces,stress,ensemble

     Writing output data file ./calc.save/
  @ DRIVER MODE: Message from server: EXIT
  @ DRIVE MODE: Exiting

     General routines

     Parallel routines

   This run was terminated on:   0:59:13  25Aug2021

   JOB DONE.