     Program PWSCF v.6.7GPU starts on 15Sep2021 at 15:50:53

     R & G space division:  proc/nbgrp/npool/nimage =      10
     Reading input from /storage/home/hcoda1/3/ntian30/research/carbon/CxH_vib/H2O_calc/ads_slab/CHN2HH2O_a/out_0001/pw.inp
Warning: card &CELL ignored
Warning: card   CELL_DYNAMICS='IPI', ignored
Warning: card / ignored

     Current dimensions of program PWSCF are:
     Max number of different atomic species (ntypx) = 10
     Max number of k-points (npk) =  40000
     Max angular momentum in pseudopotentials (lmaxx) =  3
     Presently no symmetry can be used with electric field

     Message from routine cell_base_init:
     DEPRECATED: use true lattice parameter, not A to a.u. conversion factor

     IMPORTANT: XC functional enforced from input :
     Exchange-correlation= BEEF-VDW
                           (   1   4  43  14   2   0   0)
     Any further DFT definition will be discarded
     Please, verify this is what you really want

  @ DRIVER MODE: Connecting to
 qe_1139763_2852626.sched-torque.pace.gatech.eduy6v6tpv1_scratch
  using UNIX socket
  @ DRIVER MODE: Message from server: STATUS
  @ DRIVER MODE: Message from server: INIT
  @ DRIVER MODE: Receiving replica           0          -1
  @ DRIVER MODE: Receiving encoded integer          25
  @ DRIVER MODE:  SCF:  T  FORCE:  T  STRESS:  F  VC:  F  ENSEMBLE:  F
  @ DRIVER MODE:  SCF:  T  FORCE:  T  STRESS:  F  VC:  F  ENSEMBLE:  F

     Using Slab Decomposition

     bravais-lattice index     =            0
     lattice parameter (alat)  =       1.8897  a.u.
     unit-cell volume          =    6658.9804 (a.u.)^3
     number of atoms/cell      =           55
     number of atomic types    =            5
     number of electrons       =       402.00
     number of Kohn-Sham states=          211
     kinetic-energy cutoff     =      29.3995  Ry
     charge density cutoff     =     293.9946  Ry
     scf convergence threshold =      7.3E-08
     mixing beta               =       0.0500
     number of iterations used =            8  plain     mixing
     Exchange-correlation= BEEF-VDW
                           (   1   4  43  14   2   0   0)

     celldm(1)=   1.889726  celldm(2)=   0.000000  celldm(3)=   0.000000
     celldm(4)=   0.000000  celldm(5)=   0.000000  celldm(6)=   0.000000

     crystal axes: (cart. coord. in units of alat)
               a(1) = (   6.579727   0.000000   0.000000 )
               a(2) = (  -0.000775   5.961596   0.000000 )
               a(3) = (   0.000000   0.000000  25.155947 )

     reciprocal axes: (cart. coord. in units 2 pi/alat)
               b(1) = (  0.151982  0.000020  0.000000 )
               b(2) = (  0.000000  0.167740  0.000000 )
               b(3) = (  0.000000  0.000000  0.039752 )

     PseudoPot. # 1 for Ti read from file:
     /storage/coda1/p-amedford6/0/shared/rich_project_chbe-medford/medford-share/data/pseudos_module/espresso/nninc/pbe/van/Ti.UPF
     MD5 check sum: 8e4df49b7f0d34bbd5052bf3f5ea0213
     Pseudo is Ultrasoft, Zval = 12.0
     Generated by new atomic code, or converted to UPF format
     Using radial grid of  851 points,  6 beta functions with:
                l(1) =   0
                l(2) =   0
                l(3) =   1
                l(4) =   1
                l(5) =   2
                l(6) =   2
     Q(r) pseudized with  8 coefficients,  rinner =    1.000   1.000   1.000
                                                       1.000   1.000

     PseudoPot. # 2 for O  read from file:
     /storage/coda1/p-amedford6/0/shared/rich_project_chbe-medford/medford-share/data/pseudos_module/espresso/nninc/pbe/van/O.UPF
     MD5 check sum: 78c19812648e8988a0fe644b0f25305e
     Pseudo is Ultrasoft, Zval =  6.0
     Generated by new atomic code, or converted to UPF format
     Using radial grid of  737 points,  4 beta functions with:
                l(1) =   0
                l(2) =   0
                l(3) =   1
                l(4) =   1
     Q(r) pseudized with  8 coefficients,  rinner =    0.800   0.800   0.800

     PseudoPot. # 3 for N  read from file:
     /storage/coda1/p-amedford6/0/shared/rich_project_chbe-medford/medford-share/data/pseudos_module/espresso/nninc/pbe/van/N.UPF
     MD5 check sum: 90d10febe142ad51ac9d5be1deb811c4
     Pseudo is Ultrasoft, Zval =  5.0
     Generated by new atomic code, or converted to UPF format
     Using radial grid of  729 points,  4 beta functions with:
                l(1) =   0
                l(2) =   0
                l(3) =   1
                l(4) =   1
     Q(r) pseudized with  8 coefficients,  rinner =    0.800   0.800   0.800

     PseudoPot. # 4 for C  read from file:
     /storage/coda1/p-amedford6/0/shared/rich_project_chbe-medford/medford-share/data/pseudos_module/espresso/nninc/pbe/van/C.UPF
     MD5 check sum: 1a69bf6b8db32088f5b2163dbdb77a27
     Pseudo is Ultrasoft, Zval =  4.0
     Generated by new atomic code, or converted to UPF format
     Using radial grid of  721 points,  4 beta functions with:
                l(1) =   0
                l(2) =   0
                l(3) =   1
                l(4) =   1
     Q(r) pseudized with  8 coefficients,  rinner =    0.800   0.800   0.800

     PseudoPot. # 5 for H  read from file:
     /storage/coda1/p-amedford6/0/shared/rich_project_chbe-medford/medford-share/data/pseudos_module/espresso/nninc/pbe/van/H.UPF
     MD5 check sum: b5ee9d7bfd3a09ee7748110bda690ff7
     Pseudo is Ultrasoft, Zval =  1.0
     Generated by new atomic code, or converted to UPF format
     Using radial grid of  615 points,  1 beta functions with:
                l(1) =   0
     Q(r) pseudized with  8 coefficients,  rinner =    0.800

     atomic species   valence    mass     pseudopotential
        Ti1           12.00    47.86700     Ti( 1.00)
        O1             6.00    15.99900     O ( 1.00)
        N1             5.00    14.00700     N ( 1.00)
        C1             4.00    12.01100     C ( 1.00)
        H1             1.00     1.00800     H ( 1.00)

     No symmetry found

   Cartesian axes

     site n.     atom                  positions (alat units)
         1           Ti1 tau(   1) = (   0.0004258   2.9801865   6.0000000  )
         2           Ti1 tau(   2) = (   3.2906075   1.4906267   6.0002472  )
         3           O1  tau(   3) = (   0.0006271   0.0005054   7.9858123  )
         4           O1  tau(   4) = (   3.2906025   0.0005020   7.3038282  )
         5           O1  tau(   5) = (   4.5942328   1.4918067   9.2879030  )
         6           O1  tau(   6) = (   1.9868534   1.4903216   9.2879459  )
         7           Ti1 tau(   7) = (   3.2907910   2.8959150   9.1758416  )
         8           Ti1 tau(   8) = (   0.0015273   1.4827037   9.2680791  )
         9           O1  tau(   9) = (   3.2768631   0.0039008  11.3091060  )
        10           O1  tau(  10) = (   0.0116148   5.9584955  10.6183126  )
        11           O1  tau(  11) = (   1.2710838   1.4709840  12.6395574  )
        12           O1  tau(  12) = (   5.2772223   1.5075092  12.6020671  )
        13           Ti1 tau(  13) = (   0.0276258   2.9086511  12.7028215  )
        14           Ti1 tau(  14) = (   3.3492493   1.4375301  12.4845766  )
        15           O1  tau(  15) = (   6.5006329   5.9509897  14.6081112  )
        16           O1  tau(  16) = (   3.3450391   0.0041935  13.9069437  )
        17           O1  tau(  17) = (   4.5555219   1.5659029  16.0522165  )
        18           O1  tau(  18) = (   1.9836904   1.4119734  15.8927236  )
        19           Ti1 tau(  19) = (   3.2827818   2.9316656  15.8555152  )
        20           Ti1 tau(  20) = (   6.5629331   1.3437128  15.9803530  )
        21           O1  tau(  21) = (   3.2904802   0.0005063   4.7018136  )
        22           O1  tau(  22) = (   6.5074089   5.9525318  17.1494500  )
        23           O1  tau(  23) = (   1.3043587   1.4918075   6.0039043  )
        24           O1  tau(  24) = (   5.2767064   1.4903225   6.0039473  )
        25           Ti1 tau(  25) = (   0.0000382   5.9609847   6.0000000  )
        26           Ti1 tau(  26) = (   3.2902200   4.4714249   6.0002472  )
        27           O1  tau(  27) = (   0.0002396   2.9813036   7.9858123  )
        28           O1  tau(  28) = (   3.2902150   2.9813002   7.3038282  )
        29           O1  tau(  29) = (   4.5938453   4.4726049   9.2879030  )
        30           O1  tau(  30) = (   1.9864658   4.4711199   9.2879459  )
        31           Ti1 tau(  31) = (   3.2891106   5.8743827   9.1763621  )
        32           Ti1 tau(  32) = (   0.0006254   4.4649316   9.2693709  )
        33           O1  tau(  33) = (   3.2854303   2.9668816  11.2996989  )
        34           O1  tau(  34) = (   0.0092240   2.9805883  10.6323155  )
        35           O1  tau(  35) = (   1.2743094   4.4851408  12.6236879  )
        36           O1  tau(  36) = (   5.2782958   4.4707264  12.5946799  )
        37           Ti1 tau(  37) = (   0.0481499   5.8920156  12.5607908  )
        38           Ti1 tau(  38) = (   3.3544845   4.3749597  12.5572158  )
        39           O1  tau(  39) = (   6.5410016   3.0017514  14.6365314  )
        40           O1  tau(  40) = (   3.2441134   3.0029108  13.8718978  )
        41           O1  tau(  41) = (   4.5385932   4.4028810  16.0550583  )
        42           O1  tau(  42) = (   1.9619458   4.5383001  15.8611175  )
        43           Ti1 tau(  43) = (   3.2178196   5.9097812  15.7399460  )
        44           Ti1 tau(  44) = (   6.5330930   4.4908980  15.8705378  )
        45           O1  tau(  45) = (   3.2900926   2.9813045   4.7018136  )
        46           O1  tau(  46) = (   1.3039711   4.4726057   6.0039043  )
        47           O1  tau(  47) = (   5.2763189   4.4711207   6.0039473  )
        48           N1  tau(  48) = (   1.2767840   3.0293760  18.3347772  )
        49           C1  tau(  49) = (   2.5003166   3.0326976  17.9707196  )
        50           H1  tau(  50) = (   3.2053588   3.1791635  18.8000936  )
        51           N1  tau(  51) = (   0.2138509   2.9871109  17.4421441  )
        52           H1  tau(  52) = (   5.9621615   2.9869774  18.0311354  )
        53           O1  tau(  53) = (   3.4290693   5.9360351  18.0748810  )
        54           H1  tau(  54) = (   4.3780305   0.1327944  18.2306609  )
        55           H1  tau(  55) = (   2.9458904   0.7245148  18.4607207  )

     number of k points=    10  Fermi-Dirac smearing, width (Ry)=  0.0073
                       cart. coord. in units 2pi/alat
        k(    1) = (   0.0000000   0.0000000   0.0000000), wk =   0.1250000
        k(    2) = (   0.0000000   0.0419351   0.0000000), wk =   0.2500000
        k(    3) = (   0.0000000  -0.0838702   0.0000000), wk =   0.1250000
        k(    4) = (   0.0379955   0.0000049   0.0000000), wk =   0.2500000
        k(    5) = (   0.0379955   0.0419400   0.0000000), wk =   0.2500000
        k(    6) = (   0.0379955  -0.0838652   0.0000000), wk =   0.2500000
        k(    7) = (   0.0379955  -0.0419301   0.0000000), wk =   0.2500000
        k(    8) = (  -0.0759910  -0.0000099   0.0000000), wk =   0.1250000
        k(    9) = (  -0.0759910   0.0419252   0.0000000), wk =   0.2500000
        k(   10) = (  -0.0759910  -0.0838800   0.0000000), wk =   0.1250000

     Initial potential from superposition of free atoms

     starting charge  385.99915, renormalised to  402.00000

     negative rho (up, down):  1.831E-02 0.000E+00

     %%%%%%%%%%%%%%%%%%%%%%%%%%%%%%%%%%%%%%%%%%%%%%%%%%%%%%%%%%%%%%%%%%%%%%%%
     %                                                                      %
     % You are using vdW-DF, which was implemented by the Thonhauser group. %
     % Please cite the following two papers that made this development      %
     % possible and the two reviews that describe the various versions:     %
     %                                                                      %
     %   T. Thonhauser et al., PRL 115, 136402 (2015).                      %
     %   T. Thonhauser et al., PRB 76, 125112 (2007).                       %
     %   K. Berland et al., Rep. Prog. Phys. 78, 066501 (2015).             %
     %   D.C. Langreth et al., J. Phys.: Condens. Matter 21, 084203 (2009). %
     %                                                                      %
     %                                                                      %
     % If you are calculating the stress with vdW-DF, please also cite:     %
     %                                                                      %
     %   R. Sabatini et al., J. Phys.: Condens. Matter 24, 424209 (2012).   %
     %                                                                      %
     %%%%%%%%%%%%%%%%%%%%%%%%%%%%%%%%%%%%%%%%%%%%%%%%%%%%%%%%%%%%%%%%%%%%%%%%

     Adding external electric field

     Computed dipole along edir(3) :
        Dipole              -11.0899 Ry au,        -28.1877 Debye
        Dipole field         -0.0209 Ry au,

        Potential amp.        1.9400 Ry
        Total length         46.3494 bohr

     Starting wfcs are  304 atomic wfcs
  @ DRIVER MODE: Message from server: STATUS
  @ DRIVER MODE: Message from server: POSDATA
  @ DRIVER MODE: Reading and sharing cell
  @ DRIVER MODE: Reading and sharing positions
  @ DRIVER MODE: Received positions

     Self-consistent Calculation

     iteration #  1     ecut=    29.40 Ry     beta= 0.05
     Davidson diagonalization with overlap
     c_bands:  5 eigenvalues not converged
     c_bands:  4 eigenvalues not converged
     c_bands:  1 eigenvalues not converged
     c_bands:  1 eigenvalues not converged
     c_bands:  1 eigenvalues not converged
     c_bands:  2 eigenvalues not converged
     c_bands:  1 eigenvalues not converged
     ethr =  1.00E-05,  avg # of iterations = 30.9

[...]

     total energy              =   -2403.83454221 Ry
     estimated scf accuracy    <    6374.39165279 Ry

     iteration #  2     ecut=    29.40 Ry     beta= 0.05
     Davidson diagonalization with overlap
     ethr =  1.00E-02,  avg # of iterations = 26.2

[...]

     iteration # 53     ecut=    29.40 Ry     beta= 0.05
     Davidson diagonalization with overlap
     c_bands:  1 eigenvalues not converged
     ethr =  6.55E-08,  avg # of iterations =  8.4

[...]

     total energy              =   -2972.69091361 Ry
     estimated scf accuracy    <       0.00000013 Ry

     iteration # 72     ecut=    29.40 Ry     beta= 0.05
     Davidson diagonalization with overlap
     ethr =  3.18E-11,  avg # of iterations =  5.0

     negative rho (up, down):  1.793E-02 0.000E+00

     Adding external electric field

     Computed dipole along edir(3) :
        Dipole                0.3548 Ry au,          0.9018 Debye
        Dipole field          0.0007 Ry au,

        Potential amp.       -0.0621 Ry
        Total length         46.3494 bohr

     End of self-consistent calculation

          k = 0.0000 0.0000 0.0000 ( 18029 PWs)   bands (ev):

   -56.3494 -56.3156 -55.9464 -55.9127 -55.7579 -55.7214 -55.5642 -55.5566
   -55.5517 -55.5278 -55.5183 -55.4547 -55.2570 -55.2398 -55.1524 -55.1184
   -32.8028 -32.6419 -32.6150 -32.5076 -32.4266 -32.4216 -32.4147 -32.2468
   -32.1639 -32.1596 -32.1012 -32.0885 -32.0721 -32.0492 -32.0427 -31.9805
   -31.9787 -31.9723 -31.9389 -31.9152 -31.9129 -31.8718 -31.8554 -31.8450
   -31.8195 -31.7822 -31.7636 -31.7359 -31.7326 -31.7140 -31.7121 -31.7091
   -31.6924 -31.6736 -31.6570 -31.6426 -31.5525 -31.5510 -31.5127 -31.5009
   -31.4831 -31.4738 -31.4596 -31.4447 -31.3691 -31.3326 -31.2842 -31.1726
   -18.7362 -16.9728 -16.6656 -16.3529 -16.1498 -15.9678 -15.9020 -15.8464
   -15.7941 -15.6733 -15.6089 -15.5824 -15.5100 -15.4052 -15.3865 -15.3566
   -15.3075 -15.2865 -15.2711 -15.2424 -15.1887 -15.1518 -15.1377 -15.0608
   -15.0397 -15.0298 -14.9009 -14.8353 -14.8131 -14.7768 -14.5242 -13.6510
   -13.5380 -12.2176  -6.7372  -6.5190  -4.1676  -4.0997  -3.9118  -3.7697
    -3.6719  -3.6232  -3.4591  -3.4122  -3.3707  -3.2607  -3.1250  -3.0937
    -3.0216  -2.9707  -2.9256  -2.8690  -2.8105  -2.7647  -2.7198  -2.6410
    -2.6334  -2.6215  -2.6030  -2.5871  -2.5671  -2.4499  -2.3593  -2.3404
    -2.3192  -2.2771  -2.2575  -2.2445  -2.1955  -2.1650  -2.0808  -2.0721
    -2.0250  -1.9669  -1.9201  -1.8132  -1.7992  -1.7231  -1.7086  -1.6674
    -1.5339  -1.4108  -1.3805  -1.3249  -1.3072  -1.2271  -1.2099  -1.1798
    -1.0831  -1.0717  -1.0274  -1.0056  -0.8819  -0.8530  -0.8089  -0.7993
    -0.7632  -0.6638  -0.6353  -0.5231  -0.4785  -0.4346  -0.4243  -0.3487
    -0.3219  -0.2785  -0.2275  -0.1744  -0.1708  -0.1439  -0.0605  -0.0202
     0.0269   0.0759   0.1110   0.1980   0.2541   0.2946   0.3056   0.3922
     0.4344   0.4496   0.5153   0.5839   0.6356   0.7022   0.7450   0.8585
     0.8715   0.8891   0.9734   1.0936   1.4050   1.4245   1.4648   1.6932
     2.6412   2.8740   2.9951   3.1598   3.3042   3.3547   3.6283   3.6812
     3.7222   3.7550   3.8334

[...]

          k = 0.0380-0.0419 0.0000 ( 17876 PWs)   bands (ev):

[...]

          k =-0.0760-0.0000 0.0000 ( 17886 PWs)   bands (ev):

[...]

          k =-0.0760-0.0839 0.0000 ( 17948 PWs)   bands (ev):

   -56.3330 -56.3319 -55.9313 -55.9276 -55.7465 -55.7328 -55.5560 -55.5485
   -55.5418 -55.5375 -55.5334 -55.4532 -55.2583 -55.2407 -55.1354 -55.1353
   -32.6280 -32.6268 -32.6189 -32.6183 -32.4599 -32.4586 -32.2469 -32.2429
   -32.1365 -32.1331 -32.1237 -32.1165 -32.0468 -32.0367 -31.9744 -31.9647
   -31.9552 -31.9524 -31.9016 -31.8890 -31.8711 -31.8688 -31.8614 -31.8313
   -31.8145 -31.7828 -31.7780 -31.7624 -31.7595 -31.7504 -31.7503 -31.7348
   -31.7297 -31.7203 -31.7081 -31.6392 -31.6091 -31.5570 -31.5286 -31.5139
   -31.4787 -31.4725 -31.4724 -31.3653 -31.3652 -31.3341 -31.3268 -31.3268
   -18.7338 -16.9522 -16.0701 -16.0578 -15.9399 -15.9349 -15.7562 -15.7380
   -15.7031 -15.6774 -15.6401 -15.5531 -15.4889 -15.4819 -15.4752 -15.4103
   -15.3653 -15.3571 -15.3380 -15.3093 -15.2816 -15.2557 -15.1654 -15.1393
   -15.1346 -15.1056 -15.0243 -15.0107 -14.9513 -14.8157 -14.7424 -13.6411
   -13.6405 -12.2388  -6.7157  -6.4441  -4.0089  -3.8265  -3.2403  -3.1827
    -3.1798  -3.0710  -3.0444  -2.9699  -2.8722  -2.8539  -2.8416  -2.8073
    -2.7833  -2.7748  -2.7573  -2.7126  -2.6656  -2.6438  -2.6276  -2.6191
    -2.6139  -2.5979  -2.5695  -2.5405  -2.4826  -2.4726  -2.4393  -2.4212
    -2.3917  -2.3152  -2.3082  -2.2953  -2.2932  -2.2323  -2.1372  -2.1225
    -2.1137  -2.0700  -2.0062  -1.9340  -1.8446  -1.8034  -1.7357  -1.6810
    -1.6266  -1.5962  -1.5856  -1.4859  -1.4276  -1.4128  -1.3706  -1.3166
    -1.2360  -1.2018  -1.1647  -1.1540  -1.1418  -1.0981  -1.0445  -0.9886
    -0.8727  -0.8492  -0.8396  -0.7768  -0.7731  -0.7620  -0.6518  -0.6209
    -0.5702  -0.5451  -0.5261  -0.4878  -0.4594  -0.3819  -0.2922  -0.2448
    -0.1175  -0.0966  -0.0474  -0.0009   0.0107   0.1159   0.1897   0.2134
     0.3540   0.3684   0.4002   0.5357   0.6028   0.6540   0.6714   0.7947
     0.8130   0.8497   1.0153   1.2579   1.2624   1.2810   1.2822   1.6416
     2.6177   3.4134   3.4156   3.4458   3.4479   3.6581   3.6716   3.7503
     3.7895   3.8807   3.9028

     the Fermi energy is     2.8153 ev

!    total energy              =   -2972.69093267 Ry
     estimated scf accuracy    <       0.00000007 Ry
     smearing contrib. (-TS)   =      -0.01342941 Ry
     internal energy E=F+TS    =   -2972.67750327 Ry

     The total energy is F=E-TS. E is the sum of the following terms:
     one-electron contribution =  -24586.61595513 Ry
     hartree contribution      =   12385.28742249 Ry
     xc contribution           =    -493.16890695 Ry
     ewald contribution        =    9721.81969876 Ry
     electric field correction =       0.00023757 Ry

     convergence has been achieved in  72 iterations

     Forces acting on atoms (cartesian axes, Ry/au):

     atom    1 type  1   force =    -0.00000884   -0.00027942    0.10609236
     atom    2 type  1   force =    -0.00021920   -0.00076536   -0.16691767
     atom    3 type  2   force =    -0.00002493   -0.00013769   -0.03894718
     atom    4 type  2   force =    -0.00009812   -0.00037673    0.03644696
     atom    5 type  2   force =    -0.00754006   -0.00012904   -0.00579606
     atom    6 type  2   force =     0.00855627    0.00078112   -0.00748520
     atom    7 type  1   force =    -0.00079381   -0.00145873    0.01984047
     atom    8 type  1   force =     0.00110068    0.01827987    0.06318836
     atom    9 type  2   force =    -0.00008645   -0.00020557    0.00023894
     atom   10 type  2   force =    -0.00264933    0.00203538   -0.04770855
     atom   11 type  2   force =    -0.00026057   -0.00001540    0.00009464
     atom   12 type  2   force =     0.00041675   -0.00013478    0.00006744
     atom   13 type  1   force =     0.00005351   -0.00010718   -0.00031506
     atom   14 type  1   force =    -0.00048839   -0.00000954    0.00015283
     atom   15 type  2   force =     0.00034222    0.00010659   -0.00022635
     atom   16 type  2   force =    -0.00010888   -0.00028068    0.00040045
     atom   17 type  2   force =     0.00029441   -0.00026608    0.00029019
     atom   18 type  2   force =    -0.00010104   -0.00003560   -0.00042966
     atom   19 type  1   force =    -0.00042966    0.00001725    0.00234437
     atom   20 type  1   force =     0.00002117   -0.00019628   -0.00055723
     atom   21 type  2   force =     0.00004989   -0.00002037    0.10084075
     atom   22 type  2   force =     0.00036020    0.00026136    0.00053709
     atom   23 type  2   force =    -0.07580238   -0.00011623   -0.02988174
     atom   24 type  2   force =     0.07569606    0.00033787   -0.02989177
     atom   25 type  1   force =     0.00020205   -0.00055776    0.10644929
     atom   26 type  1   force =    -0.00007478   -0.00027616   -0.16734906
     atom   27 type  2   force =    -0.00006319   -0.00032022   -0.03759810
     atom   28 type  2   force =     0.00007190   -0.00045364    0.03690322
     atom   29 type  2   force =    -0.00851261    0.00126229   -0.00519113
     atom   30 type  2   force =     0.00947043    0.00122355   -0.00691001
     atom   31 type  1   force =    -0.00130285   -0.00008357    0.02616027
     atom   32 type  1   force =     0.00115960   -0.02138715    0.06376815
     atom   33 type  2   force =    -0.00002634    0.00024357   -0.00014125
     atom   34 type  2   force =    -0.00008277    0.00090963   -0.05949720
     atom   35 type  2   force =    -0.00011326    0.00009514   -0.00015044
     atom   36 type  2   force =    -0.00006355    0.00037534   -0.00016942
     atom   37 type  1   force =     0.00001826   -0.00032073    0.00010338
     atom   38 type  1   force =    -0.00043838   -0.00010077   -0.00000101
     atom   39 type  2   force =    -0.00023796    0.00037374    0.00052582
     atom   40 type  2   force =     0.00046709    0.00016484   -0.00060558
     atom   41 type  2   force =     0.00014387    0.00036801   -0.00015698
     atom   42 type  2   force =     0.00026031    0.00026420   -0.00000152
     atom   43 type  1   force =    -0.00047461    0.00005659    0.00031465
     atom   44 type  1   force =     0.00013970    0.00040704   -0.00088910
     atom   45 type  2   force =     0.00002575    0.00000086    0.10087907
     atom   46 type  2   force =    -0.07581129   -0.00010729   -0.02983649
     atom   47 type  2   force =     0.07568289    0.00032220   -0.02987389
     atom   48 type  3   force =     0.02627097    0.00041547   -0.00214533
     atom   49 type  4   force =    -0.01686428    0.00056887    0.00562369
     atom   50 type  5   force =    -0.00173627   -0.00120651    0.00008741
     atom   51 type  3   force =    -0.00455441    0.00021439   -0.00148097
     atom   52 type  5   force =    -0.00149170    0.00014728   -0.00107646
     atom   53 type  2   force =    -0.00040803   -0.00011359   -0.00104068
     atom   54 type  5   force =    -0.00032120    0.00012121    0.00049136
     atom   55 type  5   force =     0.00038514    0.00010840    0.00042992

     Total force =     0.384996     Total SCF correction =     0.000523
  @ DRIVER MODE: Message from server: STATUS
  @ DRIVER MODE: Message from server: GETFORCE
  @ DRIVER MODE: Returning v,forces,stress,ensemble

     Writing output data file ./calc.save/
  @ DRIVER MODE: Message from server: EXIT
  @ DRIVE MODE: Exiting

     General routines

     Parallel routines

   This run was terminated on:  16: 8:48  15Sep2021

   JOB DONE.