     Program PWSCF v.6.7GPU starts on 16Sep2021 at  2:28:10

     R & G space division:  proc/nbgrp/npool/nimage =      10
     Reading input from /storage/home/hcoda1/3/ntian30/research/carbon/CxH_vib/H2O_calc/ads_slab/CH2NNHHH2O_a/out_0032/pw.inp
Warning: card &CELL ignored
Warning: card   CELL_DYNAMICS='IPI', ignored
Warning: card / ignored

     Current dimensions of program PWSCF are:
     Max number of different atomic species (ntypx) = 10
     Max number of k-points (npk) =  40000
     Max angular momentum in pseudopotentials (lmaxx) =  3
     Presently no symmetry can be used with electric field

     Message from routine cell_base_init:
     DEPRECATED: use true lattice parameter, not A to a.u. conversion factor

     IMPORTANT: XC functional enforced from input :
     Exchange-correlation= BEEF-VDW
                           (   1   4  43  14   2   0   0)
     Any further DFT definition will be discarded
     Please, verify this is what you really want

  @ DRIVER MODE: Connecting to
 qe_1139763_2852611.sched-torque.pace.gatech.edujejcgshn_scratch
  using UNIX socket
  @ DRIVER MODE: Message from server: STATUS
  @ DRIVER MODE: Message from server: INIT
  @ DRIVER MODE: Receiving replica           0          -1
  @ DRIVER MODE: Receiving encoded integer          25
  @ DRIVER MODE:  SCF:  T  FORCE:  T  STRESS:  F  VC:  F  ENSEMBLE:  F
  @ DRIVER MODE:  SCF:  T  FORCE:  T  STRESS:  F  VC:  F  ENSEMBLE:  F

     Using Slab Decomposition

     bravais-lattice index     =            0
     lattice parameter (alat)  =       1.8897  a.u.
     unit-cell volume          =    6658.9804 (a.u.)^3
     number of atoms/cell      =           57
     number of atomic types    =            5
     number of electrons       =       404.00
     number of Kohn-Sham states=          212
     kinetic-energy cutoff     =      29.3995  Ry
     charge density cutoff     =     293.9946  Ry
     scf convergence threshold =      7.3E-08
     mixing beta               =       0.0500
     number of iterations used =            8  plain     mixing
     Exchange-correlation= BEEF-VDW
                           (   1   4  43  14   2   0   0)

     celldm(1)=   1.889726  celldm(2)=   0.000000  celldm(3)=   0.000000
     celldm(4)=   0.000000  celldm(5)=   0.000000  celldm(6)=   0.000000

     crystal axes: (cart. coord. in units of alat)
               a(1) = (   6.579727   0.000000   0.000000 )
               a(2) = (  -0.000775   5.961596   0.000000 )
               a(3) = (   0.000000   0.000000  25.155947 )

     reciprocal axes: (cart. coord. in units 2 pi/alat)
               b(1) = (  0.151982  0.000020  0.000000 )
               b(2) = (  0.000000  0.167740  0.000000 )
               b(3) = (  0.000000  0.000000  0.039752 )

     PseudoPot. # 1 for Ti read from file:
     /storage/coda1/p-amedford6/0/shared/rich_project_chbe-medford/medford-share/data/pseudos_module/espresso/nninc/pbe/van/Ti.UPF
     MD5 check sum: 8e4df49b7f0d34bbd5052bf3f5ea0213
     Pseudo is Ultrasoft, Zval = 12.0
     Generated by new atomic code, or converted to UPF format
     Using radial grid of  851 points,  6 beta functions with:
                l(1) =   0
                l(2) =   0
                l(3) =   1
                l(4) =   1
                l(5) =   2
                l(6) =   2
     Q(r) pseudized with  8 coefficients,  rinner =    1.000   1.000   1.000
                                                       1.000   1.000

     PseudoPot. # 2 for O  read from file:
     /storage/coda1/p-amedford6/0/shared/rich_project_chbe-medford/medford-share/data/pseudos_module/espresso/nninc/pbe/van/O.UPF
     MD5 check sum: 78c19812648e8988a0fe644b0f25305e
     Pseudo is Ultrasoft, Zval =  6.0
     Generated by new atomic code, or converted to UPF format
     Using radial grid of  737 points,  4 beta functions with:
                l(1) =   0
                l(2) =   0
                l(3) =   1
                l(4) =   1
     Q(r) pseudized with  8 coefficients,  rinner =    0.800   0.800   0.800

     PseudoPot. # 3 for N  read from file:
     /storage/coda1/p-amedford6/0/shared/rich_project_chbe-medford/medford-share/data/pseudos_module/espresso/nninc/pbe/van/N.UPF
     MD5 check sum: 90d10febe142ad51ac9d5be1deb811c4
     Pseudo is Ultrasoft, Zval =  5.0
     Generated by new atomic code, or converted to UPF format
     Using radial grid of  729 points,  4 beta functions with:
                l(1) =   0
                l(2) =   0
                l(3) =   1
                l(4) =   1
     Q(r) pseudized with  8 coefficients,  rinner =    0.800   0.800   0.800

     PseudoPot. # 4 for C  read from file:
     /storage/coda1/p-amedford6/0/shared/rich_project_chbe-medford/medford-share/data/pseudos_module/espresso/nninc/pbe/van/C.UPF
     MD5 check sum: 1a69bf6b8db32088f5b2163dbdb77a27
     Pseudo is Ultrasoft, Zval =  4.0
     Generated by new atomic code, or converted to UPF format
     Using radial grid of  721 points,  4 beta functions with:
                l(1) =   0
                l(2) =   0
                l(3) =   1
                l(4) =   1
     Q(r) pseudized with  8 coefficients,  rinner =    0.800   0.800   0.800

     PseudoPot. # 5 for H  read from file:
     /storage/coda1/p-amedford6/0/shared/rich_project_chbe-medford/medford-share/data/pseudos_module/espresso/nninc/pbe/van/H.UPF
     MD5 check sum: b5ee9d7bfd3a09ee7748110bda690ff7
     Pseudo is Ultrasoft, Zval =  1.0
     Generated by new atomic code, or converted to UPF format
     Using radial grid of  615 points,  1 beta functions with:
                l(1) =   0
     Q(r) pseudized with  8 coefficients,  rinner =    0.800

     atomic species   valence    mass     pseudopotential
        Ti1           12.00    47.86700     Ti( 1.00)
        O1             6.00    15.99900     O ( 1.00)
        N1             5.00    14.00700     N ( 1.00)
        C1             4.00    12.01100     C ( 1.00)
        H1             1.00     1.00800     H ( 1.00)

     No symmetry found

   Cartesian axes

     site n.     atom                  positions (alat units)
         1           Ti1 tau(   1) = (   0.0004258   2.9801865   6.0000000  )
         2           Ti1 tau(   2) = (   3.2906075   1.4906267   6.0002472  )
         3           O1  tau(   3) = (   0.0006271   0.0005054   7.9858123  )
         4           O1  tau(   4) = (   3.2906025   0.0005020   7.3038282  )
         5           O1  tau(   5) = (   4.5942328   1.4918067   9.2879030  )
         6           O1  tau(   6) = (   1.9868534   1.4903216   9.2879459  )
         7           Ti1 tau(   7) = (   3.2907910   2.8959150   9.1758416  )
         8           Ti1 tau(   8) = (   0.0015273   1.4827037   9.2680791  )
         9           O1  tau(   9) = (   3.3121314   5.9338840  11.3691909  )
        10           O1  tau(  10) = (   0.0116148   5.9584955  10.6183126  )
        11           O1  tau(  11) = (   1.3134021   1.4784130  12.6451072  )
        12           O1  tau(  12) = (   5.3172625   1.4801399  12.6491864  )
        13           Ti1 tau(  13) = (   0.0380378   2.9573341  12.5222382  )
        14           Ti1 tau(  14) = (   3.3404755   1.4532591  12.5245293  )
        15           O1  tau(  15) = (   0.0239237   0.0366503  14.6894071  )
        16           O1  tau(  16) = (   3.3255740   5.9570089  14.0129324  )
        17           O1  tau(  17) = (   4.5846449   1.4795273  16.1858442  )
        18           O1  tau(  18) = (   2.0539891   1.4908220  16.1938258  )
        19           Ti1 tau(  19) = (   3.3028508   2.9322526  15.7076921  )
        20           Ti1 tau(  20) = (   0.0088316   1.3655950  16.0522487  )
        21           O1  tau(  21) = (   3.2904802   0.0005063   4.7018136  )
        22           O1  tau(  22) = (   0.0586005   5.8320325  17.2288864  )
        23           O1  tau(  23) = (   1.3043587   1.4918075   6.0039043  )
        24           O1  tau(  24) = (   5.2767064   1.4903225   6.0039473  )
        25           Ti1 tau(  25) = (   0.0000382   5.9609847   6.0000000  )
        26           Ti1 tau(  26) = (   3.2902200   4.4714249   6.0002472  )
        27           O1  tau(  27) = (   0.0002396   2.9813036   7.9858123  )
        28           O1  tau(  28) = (   3.2902150   2.9813002   7.3038282  )
        29           O1  tau(  29) = (   4.5938453   4.4726049   9.2879030  )
        30           O1  tau(  30) = (   1.9864658   4.4711199   9.2879459  )
        31           Ti1 tau(  31) = (   3.2891106   5.8743827   9.1763621  )
        32           Ti1 tau(  32) = (   0.0006254   4.4649316   9.2693709  )
        33           O1  tau(  33) = (   3.3142679   2.9660735  11.3641874  )
        34           O1  tau(  34) = (   0.0092240   2.9805883  10.6323155  )
        35           O1  tau(  35) = (   1.3108675   4.4558178  12.6782323  )
        36           O1  tau(  36) = (   5.3175068   4.4537340  12.6790822  )
        37           Ti1 tau(  37) = (   0.0418451   5.9490355  12.4996082  )
        38           Ti1 tau(  38) = (   3.3402151   4.4429940  12.5219265  )
        39           O1  tau(  39) = (   0.0332256   2.9148708  14.9327709  )
        40           O1  tau(  40) = (   3.3156017   2.9437717  13.9283311  )
        41           O1  tau(  41) = (   4.5915719   4.3868214  16.1197993  )
        42           O1  tau(  42) = (   2.0539401   4.4017640  16.0846163  )
        43           Ti1 tau(  43) = (   3.3369130   5.9116756  15.8392261  )
        44           Ti1 tau(  44) = (   0.0533093   4.5818758  15.8415549  )
        45           O1  tau(  45) = (   3.2900926   2.9813045   4.7018136  )
        46           O1  tau(  46) = (   1.3039711   4.4726057   6.0039043  )
        47           O1  tau(  47) = (   5.2763189   4.4711207   6.0039473  )
        48           N1  tau(  48) = (   6.5287229   2.7802708  18.1865785  )
        49           C1  tau(  49) = (   0.9724842   2.7744648  18.9576868  )
        50           H1  tau(  50) = (   0.9153086   3.0669255  20.0057840  )
        51           H1  tau(  51) = (   1.9225290   2.4867234  18.5393133  )
        52           N1  tau(  52) = (   5.2958906   3.1014149  18.7352402  )
        53           H1  tau(  53) = (   5.4013054   3.6367428  19.5974321  )
        54           H1  tau(  54) = (   4.7863746   3.6605970  18.0522289  )
        55           O1  tau(  55) = (   3.2511457   5.8152340  18.3397965  )
        56           H1  tau(  56) = (   3.7467739   0.6636339  18.5518981  )
        57           H1  tau(  57) = (   2.3053106   0.0674530  18.4201010  )

     number of k points=    10  Fermi-Dirac smearing, width (Ry)=  0.0073
                       cart. coord. in units 2pi/alat
        k(    1) = (   0.0000000   0.0000000   0.0000000), wk =   0.1250000
        k(    2) = (   0.0000000   0.0419351   0.0000000), wk =   0.2500000
        k(    3) = (   0.0000000  -0.0838702   0.0000000), wk =   0.1250000
        k(    4) = (   0.0379955   0.0000049   0.0000000), wk =   0.2500000
        k(    5) = (   0.0379955   0.0419400   0.0000000), wk =   0.2500000
        k(    6) = (   0.0379955  -0.0838652   0.0000000), wk =   0.2500000
        k(    7) = (   0.0379955  -0.0419301   0.0000000), wk =   0.2500000
        k(    8) = (  -0.0759910  -0.0000099   0.0000000), wk =   0.1250000
        k(    9) = (  -0.0759910   0.0419252   0.0000000), wk =   0.2500000
        k(   10) = (  -0.0759910  -0.0838800   0.0000000), wk =   0.1250000

     Initial potential from superposition of free atoms

     starting charge  387.99913, renormalised to  404.00000

     negative rho (up, down):  1.527E-02 0.000E+00

     %%%%%%%%%%%%%%%%%%%%%%%%%%%%%%%%%%%%%%%%%%%%%%%%%%%%%%%%%%%%%%%%%%%%%%%%
     %                                                                      %
     % You are using vdW-DF, which was implemented by the Thonhauser group. %
     % Please cite the following two papers that made this development      %
     % possible and the two reviews that describe the various versions:     %
     %                                                                      %
     %   T. Thonhauser et al., PRL 115, 136402 (2015).                      %
     %   T. Thonhauser et al., PRB 76, 125112 (2007).                       %
     %   K. Berland et al., Rep. Prog. Phys. 78, 066501 (2015).             %
     %   D.C. Langreth et al., J. Phys.: Condens. Matter 21, 084203 (2009). %
     %                                                                      %
     %                                                                      %
     % If you are calculating the stress with vdW-DF, please also cite:     %
     %                                                                      %
     %   R. Sabatini et al., J. Phys.: Condens. Matter 24, 424209 (2012).   %
     %                                                                      %
     %%%%%%%%%%%%%%%%%%%%%%%%%%%%%%%%%%%%%%%%%%%%%%%%%%%%%%%%%%%%%%%%%%%%%%%%

     Adding external electric field

     Computed dipole along edir(3) :
        Dipole              -14.3244 Ry au,        -36.4090 Debye
        Dipole field         -0.0270 Ry au,

        Potential amp.        2.5058 Ry
        Total length         46.3494 bohr

     Starting wfcs are  306 atomic wfcs
  @ DRIVER MODE: Message from server: STATUS
  @ DRIVER MODE: Message from server: POSDATA
  @ DRIVER MODE: Reading and sharing cell
  @ DRIVER MODE: Reading and sharing positions
  @ DRIVER MODE: Received positions

     Self-consistent Calculation

     iteration #  1     ecut=    29.40 Ry     beta= 0.05
     Davidson diagonalization with overlap
     c_bands:  4 eigenvalues not converged
     c_bands:  3 eigenvalues not converged
     c_bands:  5 eigenvalues not converged
     c_bands:  1 eigenvalues not converged
     c_bands:  2 eigenvalues not converged
     c_bands:  1 eigenvalues not converged
     c_bands:  2 eigenvalues not converged
     c_bands:  4 eigenvalues not converged
     c_bands:  5 eigenvalues not converged
     ethr =  1.00E-05,  avg # of iterations = 24.6

[...]

     total energy              =   -2233.94492704 Ry
     estimated scf accuracy    <    8445.26628902 Ry

     iteration #  2     ecut=    29.40 Ry     beta= 0.05
     Davidson diagonalization with overlap
     ethr =  1.00E-02,  avg # of iterations = 25.4

[...]

     iteration # 63     ecut=    29.40 Ry     beta= 0.05
     Davidson diagonalization with overlap
     c_bands:  1 eigenvalues not converged
     ethr =  5.76E-11,  avg # of iterations = 13.8

[...]

     total energy              =   -2975.20593614 Ry
     estimated scf accuracy    <       0.00000009 Ry

     iteration # 66     ecut=    29.40 Ry     beta= 0.05
     Davidson diagonalization with overlap
     ethr =  2.18E-11,  avg # of iterations =  1.6

     negative rho (up, down):  1.520E-02 0.000E+00

     Adding external electric field

     Computed dipole along edir(3) :
        Dipole                1.4011 Ry au,          3.5611 Debye
        Dipole field          0.0026 Ry au,

        Potential amp.       -0.2451 Ry
        Total length         46.3494 bohr

     End of self-consistent calculation

          k = 0.0000 0.0000 0.0000 ( 18029 PWs)   bands (ev):

   -55.1891 -55.1532 -55.1495 -55.1153 -55.1015 -55.0699 -55.0358 -55.0319
   -55.0080 -54.9788 -54.9730 -54.9697 -54.9452 -54.8745 -54.1728 -54.1388
   -31.7545 -31.6410 -31.5996 -31.5585 -31.5078 -31.4974 -31.4904 -31.4833
   -31.4385 -31.4041 -31.4006 -31.3941 -31.3920 -31.3657 -31.3430 -31.3341
   -31.3332 -31.3268 -31.3074 -31.3014 -31.2819 -31.2775 -31.2624 -31.2489
   -31.2379 -31.2355 -31.2148 -31.2085 -31.2065 -31.2001 -31.1942 -31.1764
   -31.1718 -31.1612 -31.1563 -31.1433 -31.1222 -31.1182 -31.1069 -31.0900
   -31.0892 -31.0042 -30.5818 -30.4884 -30.4663 -30.3983 -30.3116 -30.2005
   -18.9157 -18.5487 -16.0150 -15.7498 -15.6139 -15.5039 -15.3880 -15.2583
   -15.2106 -15.0794 -15.0199 -14.9065 -14.8790 -14.8364 -14.8172 -14.8121
   -14.7540 -14.7264 -14.7197 -14.6945 -14.6841 -14.6627 -14.6233 -14.6170
   -14.5812 -14.5705 -14.5663 -14.4215 -14.3437 -14.2794 -13.9683 -13.6644
   -12.6750 -12.5577  -8.7911  -6.7040  -6.4749  -6.0520  -4.1455  -3.3581
    -3.2025  -3.1900  -3.1266  -3.0861  -3.0743  -3.0086  -2.9399  -2.7366
    -2.6020  -2.5748  -2.4559  -2.3898  -2.3853  -2.3322  -2.1893  -2.1848
    -2.1294  -2.0900  -2.0398  -2.0197  -1.9963  -1.9727  -1.9388  -1.9195
    -1.8924  -1.7577  -1.7377  -1.6638  -1.6016  -1.5911  -1.5328  -1.5090
    -1.4900  -1.4846  -1.4761  -1.4637  -1.4251  -1.4113  -1.3680  -1.3103
    -1.2080  -1.1171  -1.0267  -0.9486  -0.8852  -0.8238  -0.7620  -0.7531
    -0.6760  -0.6636  -0.5724  -0.5488  -0.5187  -0.4058  -0.3435  -0.3393
    -0.2759  -0.1740  -0.1455  -0.1294  -0.0580   0.0202   0.0391   0.0470
     0.0551   0.1784   0.2318   0.2636   0.2973   0.3682   0.3898   0.4389
     0.4861   0.4927   0.5718   0.6314   0.6856   0.7348   0.7525   0.7769
     0.7948   0.8042   0.8213   0.9026   0.9254   0.9582   1.0115   1.1672
     1.3263   1.4259   1.4420   1.7600   1.7733   1.8503   2.0347   2.4255
     2.4734   3.9069   3.9837   4.0426   4.0490   4.0581   4.1441   4.3885
     4.4042   4.4169   4.4291   4.4728

[...]

          k = 0.0380-0.0419 0.0000 ( 17876 PWs)   bands (ev):

[...]

          k =-0.0760-0.0000 0.0000 ( 17886 PWs)   bands (ev):

[...]

          k =-0.0760-0.0839 0.0000 ( 17948 PWs)   bands (ev):

   -55.1720 -55.1701 -55.1324 -55.1323 -55.0992 -55.0589 -55.0428 -55.0338
   -54.9935 -54.9870 -54.9718 -54.9625 -54.9617 -54.8765 -54.1558 -54.1557
   -31.5638 -31.5537 -31.5245 -31.4561 -31.4560 -31.4498 -31.4408 -31.4239
   -31.4238 -31.4027 -31.3920 -31.3893 -31.3768 -31.3508 -31.3266 -31.3211
   -31.3209 -31.3207 -31.3182 -31.3089 -31.3032 -31.2847 -31.2717 -31.2688
   -31.2549 -31.2519 -31.2518 -31.2511 -31.2412 -31.2371 -31.2270 -31.2255
   -31.2177 -31.2067 -31.2010 -31.1910 -31.1897 -31.1530 -31.1424 -31.1420
   -31.0982 -31.0905 -30.4790 -30.4790 -30.3944 -30.3942 -30.3550 -30.3550
   -18.9133 -18.5480 -15.5320 -15.4855 -15.3301 -15.1956 -15.1924 -15.1523
   -15.0968 -15.0254 -15.0042 -14.9611 -14.9502 -14.9317 -14.8949 -14.8875
   -14.8613 -14.7905 -14.7810 -14.7726 -14.7388 -14.6996 -14.6889 -14.6875
   -14.6707 -14.6409 -14.6377 -14.5404 -14.5382 -14.4461 -14.3080 -13.6796
   -12.6593 -12.6592  -8.7552  -6.7037  -6.4244  -6.0802  -4.1888  -3.2128
    -2.9341  -2.7497  -2.6441  -2.5421  -2.4151  -2.4094  -2.3240  -2.3156
    -2.2347  -2.2005  -2.1882  -2.1726  -2.0814  -2.0679  -2.0578  -2.0358
    -2.0194  -2.0014  -1.9696  -1.9636  -1.9399  -1.9131  -1.9027  -1.9013
    -1.8819  -1.8490  -1.8178  -1.7988  -1.7782  -1.7475  -1.7363  -1.6687
    -1.6284  -1.5405  -1.5056  -1.3906  -1.3887  -1.3657  -1.3112  -1.2917
    -1.2704  -1.2216  -1.2123  -1.1668  -1.0233  -0.9376  -0.9267  -0.8888
    -0.8395  -0.7911  -0.7440  -0.7285  -0.6625  -0.6416  -0.5480  -0.5334
    -0.4302  -0.3898  -0.3780  -0.3622  -0.2797  -0.2153  -0.1687  -0.1486
    -0.1441  -0.0938  -0.0793  -0.0659   0.0056   0.0530   0.0768   0.0914
     0.1328   0.3011   0.3614   0.3750   0.4942   0.5435   0.6467   0.7068
     0.7832   0.8034   0.8396   0.9300   0.9364   1.0131   1.1080   1.1219
     1.1580   1.2026   1.2514   1.2743   1.2792   2.2076   2.2090   2.2934
     2.2935   4.0507   4.1269   4.1849   4.2328   4.2413   4.3623   4.4241
     4.4667   4.4891   4.4922   4.5704

     the Fermi energy is     3.9649 ev

!    total energy              =   -2975.20597180 Ry
     estimated scf accuracy    <       0.00000007 Ry
     smearing contrib. (-TS)   =      -0.03732111 Ry
     internal energy E=F+TS    =   -2975.16865068 Ry

     The total energy is F=E-TS. E is the sum of the following terms:
     one-electron contribution =  -23538.18363931 Ry
     hartree contribution      =   11867.10325576 Ry
     xc contribution           =    -494.97152711 Ry
     ewald contribution        =    9190.87955561 Ry
     electric field correction =       0.00370436 Ry

     convergence has been achieved in  66 iterations

     Forces acting on atoms (cartesian axes, Ry/au):

     atom    1 type  1   force =     0.00005871   -0.00020203    0.09356670
     atom    2 type  1   force =    -0.00020462   -0.00021324   -0.17803094
     atom    3 type  2   force =     0.00010983   -0.00021237   -0.02065448
     atom    4 type  2   force =     0.00004825   -0.00197908    0.05807310
     atom    5 type  2   force =    -0.01002417   -0.00166966    0.00694386
     atom    6 type  2   force =     0.01217237   -0.00103773    0.00745700
     atom    7 type  1   force =     0.00022716    0.00248682   -0.01209498
     atom    8 type  1   force =    -0.00049664    0.00201719   -0.00194167
     atom    9 type  2   force =     0.00006750    0.00006266   -0.00003720
     atom   10 type  2   force =    -0.00044221   -0.00136245   -0.00316908
     atom   11 type  2   force =     0.00016146   -0.00007567   -0.00008041
     atom   12 type  2   force =    -0.00067095   -0.00011611    0.00007907
     atom   13 type  1   force =     0.00051350    0.00098565    0.00024989
     atom   14 type  1   force =    -0.00140344    0.00027177    0.00015976
     atom   15 type  2   force =    -0.00018746    0.00092818    0.00022819
     atom   16 type  2   force =    -0.00000882   -0.00043593    0.00015254
     atom   17 type  2   force =     0.00070703    0.00007219   -0.00020763
     atom   18 type  2   force =     0.00057018    0.00014992   -0.00037285
     atom   19 type  1   force =    -0.00123368    0.00091950    0.00044811
     atom   20 type  1   force =     0.00065122   -0.00001391   -0.00080748
     atom   21 type  2   force =     0.00001418   -0.00002255    0.10385662
     atom   22 type  2   force =     0.00006965    0.00086389   -0.00011408
     atom   23 type  2   force =    -0.07053006   -0.00011508   -0.02696405
     atom   24 type  2   force =     0.07046775    0.00031467   -0.02702494
     atom   25 type  1   force =     0.00001964   -0.00018515    0.09302746
     atom   26 type  1   force =    -0.00009541   -0.00048910   -0.17794771
     atom   27 type  2   force =     0.00017297   -0.00036064   -0.01953378
     atom   28 type  2   force =     0.00011034   -0.00160323    0.05715537
     atom   29 type  2   force =    -0.01007212   -0.00086124    0.00632001
     atom   30 type  2   force =     0.01213247   -0.00061567    0.00687927
     atom   31 type  1   force =     0.00031789    0.00503756   -0.01526701
     atom   32 type  1   force =    -0.00038987   -0.00267238   -0.00236440
     atom   33 type  2   force =    -0.00002952   -0.00025920   -0.00003541
     atom   34 type  2   force =     0.00046194    0.00032495   -0.00055622
     atom   35 type  2   force =    -0.00011691   -0.00037662   -0.00007894
     atom   36 type  2   force =    -0.00044810   -0.00036801    0.00023803
     atom   37 type  1   force =     0.00027110   -0.00103999    0.00051417
     atom   38 type  1   force =    -0.00122435    0.00025423    0.00127964
     atom   39 type  2   force =    -0.00012840   -0.00047307    0.00025072
     atom   40 type  2   force =     0.00003208   -0.00041766    0.00046042
     atom   41 type  2   force =    -0.00016299   -0.00006528    0.00013949
     atom   42 type  2   force =     0.00129489   -0.00026195    0.00004384
     atom   43 type  1   force =    -0.00126204   -0.00069447   -0.00006289
     atom   44 type  1   force =     0.00098209    0.00061400   -0.00002261
     atom   45 type  2   force =     0.00004059   -0.00002166    0.10379506
     atom   46 type  2   force =    -0.07056805   -0.00008193   -0.02697366
     atom   47 type  2   force =     0.07047764    0.00038526   -0.02700453
     atom   48 type  3   force =    -0.00018613   -0.00087284   -0.00052818
     atom   49 type  4   force =     0.00044258    0.00049754   -0.00056614
     atom   50 type  5   force =    -0.00044592    0.00008544   -0.00048147
     atom   51 type  5   force =    -0.00039625   -0.00005766    0.00000193
     atom   52 type  3   force =     0.00195666    0.00116073    0.00251340
     atom   53 type  5   force =    -0.00234579    0.00029436   -0.00177338
     atom   54 type  5   force =    -0.00054007    0.00134005    0.00065408
     atom   55 type  2   force =    -0.00057411    0.00079259   -0.00013305
     atom   56 type  5   force =    -0.00038181   -0.00038944    0.00083333
     atom   57 type  5   force =     0.00001822   -0.00023617   -0.00049190

     Total force =     0.365749     Total SCF correction =     0.000558
  @ DRIVER MODE: Message from server: STATUS
  @ DRIVER MODE: Message from server: GETFORCE
  @ DRIVER MODE: Returning v,forces,stress,ensemble

     Writing output data file ./calc.save/
  @ DRIVER MODE: Message from server: EXIT
  @ DRIVE MODE: Exiting

     General routines

     Parallel routines

   This run was terminated on:   2:46:36  16Sep2021

   JOB DONE.