     Program PWSCF v.6.7GPU starts on 23Sep2021 at  0:49: 0

     R & G space division:  proc/nbgrp/npool/nimage =      10
     Reading input from /storage/home/hcoda1/3/ntian30/research/carbon/CxH_vib/H2O_calc/ads_slab/CHON2HO_d/out_0026/pw.inp
Warning: card &CELL ignored
Warning: card   CELL_DYNAMICS='IPI', ignored
Warning: card / ignored

     Current dimensions of program PWSCF are:
     Max number of different atomic species (ntypx) = 10
     Max number of k-points (npk) =  40000
     Max angular momentum in pseudopotentials (lmaxx) =  3
     Presently no symmetry can be used with electric field

     Message from routine cell_base_init:
     DEPRECATED: use true lattice parameter, not A to a.u. conversion factor

     IMPORTANT: XC functional enforced from input :
     Exchange-correlation= BEEF-VDW
                           (   1   4  43  14   2   0   0)
     Any further DFT definition will be discarded
     Please, verify this is what you really want

  @ DRIVER MODE: Connecting to
 qe_1139763_2937317.sched-torque.pace.gatech.eduefen0fan_scratch
  using UNIX socket
  @ DRIVER MODE: Message from server: STATUS
  @ DRIVER MODE: Message from server: INIT
  @ DRIVER MODE: Receiving replica           0          -1
  @ DRIVER MODE: Receiving encoded integer          25
  @ DRIVER MODE:  SCF:  T  FORCE:  T  STRESS:  F  VC:  F  ENSEMBLE:  F
  @ DRIVER MODE:  SCF:  T  FORCE:  T  STRESS:  F  VC:  F  ENSEMBLE:  F

     Using Slab Decomposition

     bravais-lattice index     =            0
     lattice parameter (alat)  =       1.8897  a.u.
     unit-cell volume          =    6658.9804 (a.u.)^3
     number of atoms/cell      =           54
     number of atomic types    =            5
     number of electrons       =       406.00
     number of Kohn-Sham states=          213
     kinetic-energy cutoff     =      29.3995  Ry
     charge density cutoff     =     293.9946  Ry
     scf convergence threshold =      7.3E-08
     mixing beta               =       0.0500
     number of iterations used =            8  plain     mixing
     Exchange-correlation= BEEF-VDW
                           (   1   4  43  14   2   0   0)

     celldm(1)=   1.889726  celldm(2)=   0.000000  celldm(3)=   0.000000
     celldm(4)=   0.000000  celldm(5)=   0.000000  celldm(6)=   0.000000

     crystal axes: (cart. coord. in units of alat)
               a(1) = (   6.579727   0.000000   0.000000 )
               a(2) = (  -0.000775   5.961596   0.000000 )
               a(3) = (   0.000000   0.000000  25.155947 )

     reciprocal axes: (cart. coord. in units 2 pi/alat)
               b(1) = (  0.151982  0.000020  0.000000 )
               b(2) = (  0.000000  0.167740  0.000000 )
               b(3) = (  0.000000  0.000000  0.039752 )

     PseudoPot. # 1 for O  read from file:
     /storage/coda1/p-amedford6/0/shared/rich_project_chbe-medford/medford-share/data/pseudos_module/espresso/nninc/pbe/van/O.UPF
     MD5 check sum: 78c19812648e8988a0fe644b0f25305e
     Pseudo is Ultrasoft, Zval =  6.0
     Generated by new atomic code, or converted to UPF format
     Using radial grid of  737 points,  4 beta functions with:
                l(1) =   0
                l(2) =   0
                l(3) =   1
                l(4) =   1
     Q(r) pseudized with  8 coefficients,  rinner =    0.800   0.800   0.800

     PseudoPot. # 2 for Ti read from file:
     /storage/coda1/p-amedford6/0/shared/rich_project_chbe-medford/medford-share/data/pseudos_module/espresso/nninc/pbe/van/Ti.UPF
     MD5 check sum: 8e4df49b7f0d34bbd5052bf3f5ea0213
     Pseudo is Ultrasoft, Zval = 12.0
     Generated by new atomic code, or converted to UPF format
     Using radial grid of  851 points,  6 beta functions with:
                l(1) =   0
                l(2) =   0
                l(3) =   1
                l(4) =   1
                l(5) =   2
                l(6) =   2
     Q(r) pseudized with  8 coefficients,  rinner =    1.000   1.000   1.000
                                                       1.000   1.000

     PseudoPot. # 3 for C  read from file:
     /storage/coda1/p-amedford6/0/shared/rich_project_chbe-medford/medford-share/data/pseudos_module/espresso/nninc/pbe/van/C.UPF
     MD5 check sum: 1a69bf6b8db32088f5b2163dbdb77a27
     Pseudo is Ultrasoft, Zval =  4.0
     Generated by new atomic code, or converted to UPF format
     Using radial grid of  721 points,  4 beta functions with:
                l(1) =   0
                l(2) =   0
                l(3) =   1
                l(4) =   1
     Q(r) pseudized with  8 coefficients,  rinner =    0.800   0.800   0.800

     PseudoPot. # 4 for H  read from file:
     /storage/coda1/p-amedford6/0/shared/rich_project_chbe-medford/medford-share/data/pseudos_module/espresso/nninc/pbe/van/H.UPF
     MD5 check sum: b5ee9d7bfd3a09ee7748110bda690ff7
     Pseudo is Ultrasoft, Zval =  1.0
     Generated by new atomic code, or converted to UPF format
     Using radial grid of  615 points,  1 beta functions with:
                l(1) =   0
     Q(r) pseudized with  8 coefficients,  rinner =    0.800

     PseudoPot. # 5 for N  read from file:
     /storage/coda1/p-amedford6/0/shared/rich_project_chbe-medford/medford-share/data/pseudos_module/espresso/nninc/pbe/van/N.UPF
     MD5 check sum: 90d10febe142ad51ac9d5be1deb811c4
     Pseudo is Ultrasoft, Zval =  5.0
     Generated by new atomic code, or converted to UPF format
     Using radial grid of  729 points,  4 beta functions with:
                l(1) =   0
                l(2) =   0
                l(3) =   1
                l(4) =   1
     Q(r) pseudized with  8 coefficients,  rinner =    0.800   0.800   0.800

     atomic species   valence    mass     pseudopotential
        O1             6.00    15.99900     O ( 1.00)
        Ti1           12.00    47.86700     Ti( 1.00)
        C1             4.00    12.01100     C ( 1.00)
        H1             1.00     1.00800     H ( 1.00)
        N1             5.00    14.00700     N ( 1.00)

     No symmetry found

   Cartesian axes

     site n.     atom                  positions (alat units)
         1           O1  tau(   1) = (   3.2904802   0.0005063   4.7018136  )
         2           O1  tau(   2) = (   3.2900926   2.9813045   4.7018136  )
         3           Ti1 tau(   3) = (   0.0004258   2.9801865   6.0000000  )
         4           Ti1 tau(   4) = (   0.0000382   5.9609847   6.0000000  )
         5           Ti1 tau(   5) = (   3.2906075   1.4906267   6.0002472  )
         6           Ti1 tau(   6) = (   3.2902200   4.4714249   6.0002472  )
         7           O1  tau(   7) = (   1.3043587   1.4918075   6.0039043  )
         8           O1  tau(   8) = (   1.3039711   4.4726057   6.0039043  )
         9           O1  tau(   9) = (   5.2767064   1.4903225   6.0039473  )
        10           O1  tau(  10) = (   5.2763189   4.4711207   6.0039473  )
        11           O1  tau(  11) = (   3.2906025   0.0005020   7.3038282  )
        12           O1  tau(  12) = (   3.2902150   2.9813002   7.3038282  )
        13           O1  tau(  13) = (   0.0006271   0.0005054   7.9858123  )
        14           O1  tau(  14) = (   0.0002396   2.9813036   7.9858123  )
        15           Ti1 tau(  15) = (   3.2350752   0.0608747   9.1773017  )
        16           Ti1 tau(  16) = (   3.2297482   3.0449837   9.2258248  )
        17           Ti1 tau(  17) = (   6.5035314   4.4790947   9.3419400  )
        18           O1  tau(  18) = (   4.5942328   1.4918067   9.2879030  )
        19           O1  tau(  19) = (   4.5938453   4.4726049   9.2879030  )
        20           O1  tau(  20) = (   1.9868534   1.4903216   9.2879459  )
        21           O1  tau(  21) = (   1.9864658   4.4711199   9.2879459  )
        22           Ti1 tau(  22) = (   6.5047199   1.5482117   9.3251357  )
        23           O1  tau(  23) = (   6.5709586   2.9893791  10.5365161  )
        24           O1  tau(  24) = (   6.5791863   0.0068326  10.5847705  )
        25           O1  tau(  25) = (   3.2737170   2.9471243  11.2864913  )
        26           O1  tau(  26) = (   3.2757665   0.0160177  11.3056520  )
        27           Ti1 tau(  27) = (   3.3024496   1.5456137  12.4328335  )
        28           Ti1 tau(  28) = (   0.0381823   0.0558990  12.5328616  )
        29           Ti1 tau(  29) = (   3.2867454   4.6490159  12.6676011  )
        30           O1  tau(  30) = (   1.2579511   1.4933188  12.6274103  )
        31           O1  tau(  31) = (   5.2930440   1.4968169  12.6131059  )
        32           O1  tau(  32) = (   1.2503383   4.4760527  12.6363980  )
        33           O1  tau(  33) = (   5.2887019   4.4660859  12.6249461  )
        34           Ti1 tau(  34) = (   6.5320965   3.0346479  12.8073368  )
        35           O1  tau(  35) = (   3.2762579   2.9735537  13.8874883  )
        36           O1  tau(  36) = (   3.2793791   5.9387796  13.8789893  )
        37           O1  tau(  37) = (   6.5412754   2.9812497  14.6926498  )
        38           O1  tau(  38) = (   6.5531526   0.0082392  14.6823945  )
        39           Ti1 tau(  39) = (   3.2668636   2.9663550  15.6683660  )
        40           Ti1 tau(  40) = (   3.2982107   5.9440960  16.3508785  )
        41           Ti1 tau(  41) = (   0.0141158   4.5598071  15.9269461  )
        42           O1  tau(  42) = (   4.5124726   4.4172202  16.0573870  )
        43           O1  tau(  43) = (   1.9821766   4.4208814  16.0404589  )
        44           O1  tau(  44) = (   4.4954461   1.5000296  16.1066544  )
        45           O1  tau(  45) = (   1.9782815   1.5221889  16.0619205  )
        46           Ti1 tau(  46) = (   0.0269324   1.3869748  16.0447141  )
        47           O1  tau(  47) = (   6.5379229   5.9414530  17.1901000  )
        48           O1  tau(  48) = (   6.5175113   2.9840192  17.3772383  )
        49           C1  tau(  49) = (   5.9742390   3.1768082  18.5865123  )
        50           H1  tau(  50) = (   5.8341806   4.1706531  18.9840957  )
        51           N1  tau(  51) = (   5.5886240   2.1683037  19.3003467  )
        52           N1  tau(  52) = (   5.2498892   1.2394158  19.8970451  )
        53           O1  tau(  53) = (   3.2183551   5.8834210  18.1446619  )
        54           H1  tau(  54) = (   3.7026433   0.4006729  18.8445816  )

     number of k points=    10  Fermi-Dirac smearing, width (Ry)=  0.0073
                       cart. coord. in units 2pi/alat
        k(    1) = (   0.0000000   0.0000000   0.0000000), wk =   0.1250000
        k(    2) = (   0.0000000   0.0419351   0.0000000), wk =   0.2500000
        k(    3) = (   0.0000000  -0.0838702   0.0000000), wk =   0.1250000
        k(    4) = (   0.0379955   0.0000049   0.0000000), wk =   0.2500000
        k(    5) = (   0.0379955   0.0419400   0.0000000), wk =   0.2500000
        k(    6) = (   0.0379955  -0.0838652   0.0000000), wk =   0.2500000
        k(    7) = (   0.0379955  -0.0419301   0.0000000), wk =   0.2500000
        k(    8) = (  -0.0759910  -0.0000099   0.0000000), wk =   0.1250000
        k(    9) = (  -0.0759910   0.0419252   0.0000000), wk =   0.2500000
        k(   10) = (  -0.0759910  -0.0838800   0.0000000), wk =   0.1250000

     Initial potential from superposition of free atoms

     starting charge  389.99917, renormalised to  406.00000

     negative rho (up, down):  1.658E-02 0.000E+00

     %%%%%%%%%%%%%%%%%%%%%%%%%%%%%%%%%%%%%%%%%%%%%%%%%%%%%%%%%%%%%%%%%%%%%%%%
     %                                                                      %
     % You are using vdW-DF, which was implemented by the Thonhauser group. %
     % Please cite the following two papers that made this development      %
     % possible and the two reviews that describe the various versions:     %
     %                                                                      %
     %   T. Thonhauser et al., PRL 115, 136402 (2015).                      %
     %   T. Thonhauser et al., PRB 76, 125112 (2007).                       %
     %   K. Berland et al., Rep. Prog. Phys. 78, 066501 (2015).             %
     %   D.C. Langreth et al., J. Phys.: Condens. Matter 21, 084203 (2009). %
     %                                                                      %
     %                                                                      %
     % If you are calculating the stress with vdW-DF, please also cite:     %
     %                                                                      %
     %   R. Sabatini et al., J. Phys.: Condens. Matter 24, 424209 (2012).   %
     %                                                                      %
     %%%%%%%%%%%%%%%%%%%%%%%%%%%%%%%%%%%%%%%%%%%%%%%%%%%%%%%%%%%%%%%%%%%%%%%%

     Adding external electric field

     Computed dipole along edir(3) :
        Dipole              -13.7787 Ry au,        -35.0219 Debye
        Dipole field         -0.0260 Ry au,

        Potential amp.        2.4104 Ry
        Total length         46.3494 bohr

     Starting wfcs are  306 atomic wfcs
  @ DRIVER MODE: Message from server: STATUS
  @ DRIVER MODE: Message from server: POSDATA
  @ DRIVER MODE: Reading and sharing cell
  @ DRIVER MODE: Reading and sharing positions
  @ DRIVER MODE: Received positions

     Self-consistent Calculation

     iteration #  1     ecut=    29.40 Ry     beta= 0.05
     Davidson diagonalization with overlap
     c_bands:  1 eigenvalues not converged
     c_bands:  1 eigenvalues not converged
     c_bands:  5 eigenvalues not converged
     c_bands:  5 eigenvalues not converged
     ethr =  1.00E-05,  avg # of iterations = 30.9

[...]

     total energy              =   -2308.92417642 Ry
     estimated scf accuracy    <    7884.69275452 Ry

     iteration #  2     ecut=    29.40 Ry     beta= 0.05
     Davidson diagonalization with overlap
     ethr =  1.00E-02,  avg # of iterations = 26.2

[...]

     iteration # 63     ecut=    29.40 Ry     beta= 0.05
     Davidson diagonalization with overlap
     c_bands:  1 eigenvalues not converged
     ethr =  1.50E-07,  avg # of iterations =  9.8

[...]

     total energy              =   -3002.64638399 Ry
     estimated scf accuracy    <       0.00000010 Ry

     iteration # 93     ecut=    29.40 Ry     beta= 0.05
     Davidson diagonalization with overlap
     ethr =  2.13E-11,  avg # of iterations =  5.8

     negative rho (up, down):  1.647E-02 0.000E+00

     Adding external electric field

     Computed dipole along edir(3) :
        Dipole                0.4206 Ry au,          1.0690 Debye
        Dipole field          0.0008 Ry au,

        Potential amp.       -0.0736 Ry
        Total length         46.3494 bohr

     End of self-consistent calculation

          k = 0.0000 0.0000 0.0000 ( 18029 PWs)   bands (ev):

   -56.2474 -56.1906 -55.7614 -55.7110 -55.7022 -55.6872 -55.6546 -55.6477
   -55.6189 -55.6084 -55.5676 -55.5524 -55.4866 -55.3158 -54.8985 -54.8645
   -32.6623 -32.5235 -32.4581 -32.4175 -32.3190 -32.2870 -32.2432 -32.2131
   -32.1980 -32.0952 -32.0661 -32.0025 -31.9987 -31.9920 -31.9836 -31.9596
   -31.9531 -31.9453 -31.9251 -31.9180 -31.8653 -31.8603 -31.8564 -31.8550
   -31.8515 -31.8346 -31.8307 -31.8138 -31.8106 -31.8061 -31.7986 -31.7691
   -31.7666 -31.7656 -31.7418 -31.7294 -31.7232 -31.7153 -31.6883 -31.5757
   -31.5343 -31.5259 -31.2951 -31.2363 -31.2121 -31.1116 -31.0263 -30.9151
   -20.5975 -18.6886 -16.5076 -16.4623 -16.3054 -16.0999 -15.9413 -15.8676
   -15.6760 -15.5868 -15.5303 -15.4989 -15.4653 -15.3854 -15.3500 -15.2990
   -15.2531 -15.2384 -15.2171 -15.1983 -15.1886 -15.1843 -15.1798 -15.1512
   -15.1098 -15.0119 -14.9447 -14.9087 -14.8885 -14.8790 -14.8379 -14.5298
   -13.5503 -13.4002 -13.2906  -6.9362  -5.9030  -4.9371  -4.3765  -3.9558
    -3.7822  -3.6895  -3.6447  -3.5685  -3.5258  -3.3384  -3.3226  -3.1458
    -3.0238  -2.9417  -2.8701  -2.8538  -2.8268  -2.7903  -2.7326  -2.6966
    -2.6658  -2.6363  -2.5786  -2.5379  -2.5117  -2.4800  -2.4648  -2.4277
    -2.4097  -2.4030  -2.2642  -2.2177  -2.1740  -2.1695  -2.1451  -2.1238
    -2.1019  -2.0663  -2.0531  -2.0059  -1.9261  -1.8402  -1.8236  -1.7433
    -1.7083  -1.5339  -1.4697  -1.3953  -1.3648  -1.2013  -1.1736  -1.1650
    -1.1436  -1.1236  -1.0015  -0.9678  -0.9340  -0.9229  -0.8865  -0.8625
    -0.8393  -0.7313  -0.6676  -0.6285  -0.6126  -0.5470  -0.4507  -0.3807
    -0.3501  -0.3186  -0.2868  -0.1820  -0.1499  -0.1091  -0.1012  -0.0397
    -0.0071   0.0165   0.0739   0.1005   0.1537   0.1676   0.1891   0.2274
     0.2380   0.2845   0.3518   0.4166   0.5134   0.5331   0.5572   0.5958
     0.6755   0.7508   0.8320   1.0120   1.1197   1.1595   1.3229   1.3699
     1.6704   1.7180   2.5345   3.0434   3.1951   3.4577   3.5100   3.5450
     3.5838   3.6411   3.7716   3.8817   3.9377

[...]

          k = 0.0380-0.0419 0.0000 ( 17876 PWs)   bands (ev):

[...]

          k =-0.0760-0.0000 0.0000 ( 17886 PWs)   bands (ev):

[...]

          k =-0.0760-0.0839 0.0000 ( 17948 PWs)   bands (ev):

   -56.2418 -56.1961 -55.7589 -55.7096 -55.6946 -55.6827 -55.6620 -55.6501
   -55.6234 -55.5993 -55.5767 -55.5533 -55.4849 -55.3174 -54.8817 -54.8812
   -32.5199 -32.4979 -32.4606 -32.4590 -32.3857 -32.3477 -32.1469 -32.0633
   -32.0534 -32.0166 -32.0124 -31.9796 -31.9753 -31.9708 -31.9482 -31.9418
   -31.9343 -31.9307 -31.9269 -31.9174 -31.9080 -31.9015 -31.8777 -31.8721
   -31.8706 -31.8636 -31.8630 -31.8573 -31.8386 -31.8347 -31.8202 -31.8160
   -31.8124 -31.8023 -31.7965 -31.7704 -31.7567 -31.7210 -31.6920 -31.6498
   -31.5745 -31.5286 -31.2252 -31.2251 -31.1106 -31.1084 -31.0684 -31.0673
   -20.5961 -18.6769 -16.4873 -15.8278 -15.8193 -15.7852 -15.7452 -15.6976
   -15.6843 -15.6173 -15.6078 -15.5804 -15.4996 -15.4366 -15.3844 -15.3605
   -15.3566 -15.3336 -15.3059 -15.2647 -15.2436 -15.2338 -15.2246 -15.1686
   -15.1468 -15.1455 -15.1173 -15.0970 -15.0750 -15.0293 -14.8931 -14.6883
   -13.5576 -13.3951 -13.3932  -6.9084  -5.9182  -4.9361  -4.3643  -3.6184
    -3.3129  -3.0876  -3.0575  -2.9762  -2.9197  -2.8224  -2.8044  -2.7862
    -2.7686  -2.7561  -2.7293  -2.7008  -2.6518  -2.6223  -2.5882  -2.5766
    -2.5695  -2.5490  -2.5422  -2.5105  -2.4942  -2.4761  -2.4578  -2.4400
    -2.4274  -2.4122  -2.3412  -2.3092  -2.2762  -2.1089  -2.0950  -2.0919
    -2.0675  -2.0509  -2.0416  -1.9799  -1.9172  -1.9074  -1.8567  -1.8412
    -1.7650  -1.6967  -1.5360  -1.4972  -1.4687  -1.3936  -1.3336  -1.3014
    -1.2784  -1.2452  -1.2125  -1.2035  -1.1593  -1.1089  -1.0294  -1.0084
    -0.9559  -0.9489  -0.9395  -0.8603  -0.7863  -0.7696  -0.7237  -0.7050
    -0.6813  -0.6441  -0.5885  -0.5539  -0.5412  -0.5287  -0.4318  -0.3810
    -0.3268  -0.2269  -0.1881  -0.1289  -0.0195   0.0662   0.0764   0.1749
     0.2166   0.3168   0.3534   0.4070   0.4459   0.4736   0.5026   0.6201
     0.6390   0.6850   0.7630   0.7805   0.8079   0.8590   1.5086   1.5161
     1.5264   1.5281   2.4536   3.5653   3.5929   3.6116   3.6503   3.8467
     3.8772   3.8953   3.9240   3.9422   3.9945

     the Fermi energy is     2.8456 ev

!    total energy              =   -3002.64638601 Ry
     estimated scf accuracy    <       0.00000002 Ry
     smearing contrib. (-TS)   =      -0.00427582 Ry
     internal energy E=F+TS    =   -3002.64211020 Ry

     The total energy is F=E-TS. E is the sum of the following terms:
     one-electron contribution =  -23370.44371140 Ry
     hartree contribution      =   11779.10408163 Ry
     xc contribution           =    -498.79584338 Ry
     ewald contribution        =    9087.49302913 Ry
     electric field correction =       0.00033382 Ry

     convergence has been achieved in  93 iterations

     Forces acting on atoms (cartesian axes, Ry/au):

     atom    1 type  1   force =     0.00016490    0.00010391    0.09957431
     atom    2 type  1   force =     0.00014679    0.00020831    0.09907436
     atom    3 type  2   force =     0.00018506    0.00033902    0.12387112
     atom    4 type  2   force =     0.00044151    0.00004661    0.13845776
     atom    5 type  2   force =    -0.00009671    0.00964592   -0.16001357
     atom    6 type  2   force =     0.00009376   -0.00873750   -0.15978619
     atom    7 type  1   force =    -0.07909683    0.00145777   -0.03321994
     atom    8 type  1   force =    -0.07912741   -0.00181386   -0.03325815
     atom    9 type  1   force =     0.07905286    0.00178793   -0.03330001
     atom   10 type  1   force =     0.07908016   -0.00146761   -0.03327522
     atom   11 type  1   force =    -0.00114437    0.00063009    0.04297307
     atom   12 type  1   force =    -0.00115325    0.00003741    0.04563139
     atom   13 type  1   force =    -0.00039691   -0.00174057   -0.05058916
     atom   14 type  1   force =    -0.00086201    0.00123241   -0.04779800
     atom   15 type  2   force =    -0.00033922   -0.00004255    0.00003307
     atom   16 type  2   force =    -0.00033161    0.00005369   -0.00024022
     atom   17 type  2   force =     0.00024088   -0.00039295   -0.00020766
     atom   18 type  1   force =    -0.01155802   -0.00689674   -0.00022751
     atom   19 type  1   force =    -0.01368575    0.00098292    0.00212869
     atom   20 type  1   force =     0.01284568   -0.00248244   -0.00224380
     atom   21 type  1   force =     0.01410196    0.00576516    0.00038111
     atom   22 type  2   force =     0.00031133    0.00006301    0.00020305
     atom   23 type  1   force =    -0.00010010   -0.00008732   -0.00003241
     atom   24 type  1   force =    -0.00025608    0.00000304    0.00041470
     atom   25 type  1   force =     0.00023265    0.00031099   -0.00012013
     atom   26 type  1   force =     0.00034949    0.00011374   -0.00030131
     atom   27 type  2   force =    -0.00030794   -0.00044436    0.00029492
     atom   28 type  2   force =     0.00052617   -0.00028720   -0.00007542
     atom   29 type  2   force =    -0.00014758    0.00026102    0.00012318
     atom   30 type  1   force =    -0.00032503   -0.00035133   -0.00024325
     atom   31 type  1   force =     0.00048052   -0.00003690    0.00012315
     atom   32 type  1   force =    -0.00029022    0.00039209    0.00000898
     atom   33 type  1   force =     0.00022327    0.00033826    0.00010771
     atom   34 type  2   force =     0.00041102    0.00017412   -0.00034691
     atom   35 type  1   force =     0.00005327   -0.00011553   -0.00038038
     atom   36 type  1   force =     0.00008020   -0.00003930    0.00032961
     atom   37 type  1   force =     0.00001370   -0.00020791    0.00055409
     atom   38 type  1   force =     0.00003616    0.00044271   -0.00006686
     atom   39 type  2   force =    -0.00000075    0.00038368    0.00030239
     atom   40 type  2   force =    -0.00007989   -0.00021586   -0.00076163
     atom   41 type  2   force =    -0.00027502    0.00030747   -0.00013771
     atom   42 type  1   force =     0.00020088    0.00022773   -0.00006988
     atom   43 type  1   force =    -0.00035808    0.00016242   -0.00007941
     atom   44 type  1   force =     0.00039571   -0.00006633    0.00053903
     atom   45 type  1   force =    -0.00061073   -0.00001046    0.00041503
     atom   46 type  2   force =    -0.00010786    0.00044914   -0.00022548
     atom   47 type  1   force =    -0.00001771    0.00024342    0.00018842
     atom   48 type  1   force =     0.00029471   -0.00024941   -0.00088098
     atom   49 type  3   force =     0.00026310    0.00144690   -0.00024030
     atom   50 type  4   force =    -0.00028179    0.00019132    0.00052210
     atom   51 type  5   force =     0.00403922    0.00736705   -0.00506777
     atom   52 type  5   force =    -0.00373245   -0.00926821    0.00581879
     atom   53 type  1   force =     0.00065343    0.00064309    0.00128703
     atom   54 type  4   force =    -0.00023505   -0.00085804   -0.00016783

     Total force =     0.380547     Total SCF correction =     0.000283
  @ DRIVER MODE: Message from server: STATUS
  @ DRIVER MODE: Message from server: GETFORCE
  @ DRIVER MODE: Returning v,forces,stress,ensemble

     Writing output data file ./calc.save/
  @ DRIVER MODE: Message from server: EXIT
  @ DRIVE MODE: Exiting

     General routines

     Parallel routines

   This run was terminated on:   1:13: 6  23Sep2021

   JOB DONE.