     Program PWSCF v.6.7GPU starts on  3Aug2021 at 10:39:35

     R & G space division:  proc/nbgrp/npool/nimage =      16
     Reading input from /storage/home/hcoda1/3/ntian30/research/carbon/02Aug_vib_paired/ads_slab/CH3NN_b/out_0005/pw.inp
Warning: card &CELL ignored
Warning: card   CELL_DYNAMICS='IPI', ignored
Warning: card / ignored

     Current dimensions of program PWSCF are:
     Max number of different atomic species (ntypx) = 10
     Max number of k-points (npk) =  40000
     Max angular momentum in pseudopotentials (lmaxx) =  3
     Presently no symmetry can be used with electric field

     Message from routine cell_base_init:
     DEPRECATED: use true lattice parameter, not A to a.u. conversion factor

     IMPORTANT: XC functional enforced from input :
     Exchange-correlation= BEEF-VDW
                           (   1   4  43  14   2   0   0)
     Any further DFT definition will be discarded
     Please, verify this is what you really want

  @ DRIVER MODE: Connecting to
 qe_1139763_2490222.sched-torque.pace.gatech.edunh4uue_h_scratch
  using UNIX socket
  @ DRIVER MODE: Message from server: STATUS
  @ DRIVER MODE: Message from server: INIT
  @ DRIVER MODE: Receiving replica           0          -1
  @ DRIVER MODE: Receiving encoded integer          25
  @ DRIVER MODE:  SCF:  T  FORCE:  T  STRESS:  F  VC:  F  ENSEMBLE:  F
  @ DRIVER MODE:  SCF:  T  FORCE:  T  STRESS:  F  VC:  F  ENSEMBLE:  F

     Using Slab Decomposition

     bravais-lattice index     =            0
     lattice parameter (alat)  =       1.8897  a.u.
     unit-cell volume          =    6658.9804 (a.u.)^3
     number of atoms/cell      =           53
     number of atomic types    =            5
     number of electrons       =       395.00
     number of Kohn-Sham states=          207
     kinetic-energy cutoff     =      29.3995  Ry
     charge density cutoff     =     293.9946  Ry
     scf convergence threshold =      7.3E-08
     mixing beta               =       0.0500
     number of iterations used =            8  plain     mixing
     Exchange-correlation= BEEF-VDW
                           (   1   4  43  14   2   0   0)

     celldm(1)=   1.889726  celldm(2)=   0.000000  celldm(3)=   0.000000
     celldm(4)=   0.000000  celldm(5)=   0.000000  celldm(6)=   0.000000

     crystal axes: (cart. coord. in units of alat)
               a(1) = (   6.579727   0.000000   0.000000 )
               a(2) = (  -0.000775   5.961596   0.000000 )
               a(3) = (   0.000000   0.000000  25.155947 )

     reciprocal axes: (cart. coord. in units 2 pi/alat)
               b(1) = (  0.151982  0.000020  0.000000 )
               b(2) = (  0.000000  0.167740  0.000000 )
               b(3) = (  0.000000  0.000000  0.039752 )

     PseudoPot. # 1 for Ti read from file:
     /storage/coda1/p-amedford6/0/shared/rich_project_chbe-medford/medford-share/data/pseudos_module/espresso/nninc/pbe/van/Ti.UPF
     MD5 check sum: 8e4df49b7f0d34bbd5052bf3f5ea0213
     Pseudo is Ultrasoft, Zval = 12.0
     Generated by new atomic code, or converted to UPF format
     Using radial grid of  851 points,  6 beta functions with:
                l(1) =   0
                l(2) =   0
                l(3) =   1
                l(4) =   1
                l(5) =   2
                l(6) =   2
     Q(r) pseudized with  8 coefficients,  rinner =    1.000   1.000   1.000
                                                       1.000   1.000

     PseudoPot. # 2 for O  read from file:
     /storage/coda1/p-amedford6/0/shared/rich_project_chbe-medford/medford-share/data/pseudos_module/espresso/nninc/pbe/van/O.UPF
     MD5 check sum: 78c19812648e8988a0fe644b0f25305e
     Pseudo is Ultrasoft, Zval =  6.0
     Generated by new atomic code, or converted to UPF format
     Using radial grid of  737 points,  4 beta functions with:
                l(1) =   0
                l(2) =   0
                l(3) =   1
                l(4) =   1
     Q(r) pseudized with  8 coefficients,  rinner =    0.800   0.800   0.800

     PseudoPot. # 3 for N  read from file:
     /storage/coda1/p-amedford6/0/shared/rich_project_chbe-medford/medford-share/data/pseudos_module/espresso/nninc/pbe/van/N.UPF
     MD5 check sum: 90d10febe142ad51ac9d5be1deb811c4
     Pseudo is Ultrasoft, Zval =  5.0
     Generated by new atomic code, or converted to UPF format
     Using radial grid of  729 points,  4 beta functions with:
                l(1) =   0
                l(2) =   0
                l(3) =   1
                l(4) =   1
     Q(r) pseudized with  8 coefficients,  rinner =    0.800   0.800   0.800

     PseudoPot. # 4 for C  read from file:
     /storage/coda1/p-amedford6/0/shared/rich_project_chbe-medford/medford-share/data/pseudos_module/espresso/nninc/pbe/van/C.UPF
     MD5 check sum: 1a69bf6b8db32088f5b2163dbdb77a27
     Pseudo is Ultrasoft, Zval =  4.0
     Generated by new atomic code, or converted to UPF format
     Using radial grid of  721 points,  4 beta functions with:
                l(1) =   0
                l(2) =   0
                l(3) =   1
                l(4) =   1
     Q(r) pseudized with  8 coefficients,  rinner =    0.800   0.800   0.800

     PseudoPot. # 5 for H  read from file:
     /storage/coda1/p-amedford6/0/shared/rich_project_chbe-medford/medford-share/data/pseudos_module/espresso/nninc/pbe/van/H.UPF
     MD5 check sum: b5ee9d7bfd3a09ee7748110bda690ff7
     Pseudo is Ultrasoft, Zval =  1.0
     Generated by new atomic code, or converted to UPF format
     Using radial grid of  615 points,  1 beta functions with:
                l(1) =   0
     Q(r) pseudized with  8 coefficients,  rinner =    0.800

     atomic species   valence    mass     pseudopotential
        Ti1           12.00    47.86700     Ti( 1.00)
        O1             6.00    15.99900     O ( 1.00)
        N1             5.00    14.00700     N ( 1.00)
        C1             4.00    12.01100     C ( 1.00)
        H1             1.00     1.00800     H ( 1.00)

     No symmetry found

   Cartesian axes

     site n.     atom                  positions (alat units)
         1           Ti1 tau(   1) = (   0.0004258   2.9801865   6.0000000  )
         2           Ti1 tau(   2) = (   3.2906075   1.4906267   6.0002472  )
         3           O1  tau(   3) = (   0.0006271   0.0005054   7.9858123  )
         4           O1  tau(   4) = (   3.2906025   0.0005020   7.3038282  )
         5           O1  tau(   5) = (   4.5942328   1.4918067   9.2879030  )
         6           O1  tau(   6) = (   1.9868534   1.4903216   9.2879459  )
         7           Ti1 tau(   7) = (   3.2907910   2.8959150   9.1758416  )
         8           Ti1 tau(   8) = (   0.0015273   1.4827037   9.2680791  )
         9           O1  tau(   9) = (   3.2846693   5.9452209  11.3340492  )
        10           O1  tau(  10) = (   0.0116148   5.9584955  10.6183126  )
        11           O1  tau(  11) = (   1.2834543   1.4847615  12.6293855  )
        12           O1  tau(  12) = (   5.2674731   1.4768263  12.6150299  )
        13           Ti1 tau(  13) = (   0.0515077   3.0114797  12.6524288  )
        14           Ti1 tau(  14) = (   3.3730355   1.4714245  12.4820590  )
        15           O1  tau(  15) = (   6.5599962   0.0037305  14.6029173  )
        16           O1  tau(  16) = (   3.2800597   5.9387738  13.9271036  )
        17           O1  tau(  17) = (   4.5186125   1.4654914  16.0451899  )
        18           O1  tau(  18) = (   2.0258539   1.4687252  16.0523685  )
        19           Ti1 tau(  19) = (   3.2649076   2.9492218  15.6988400  )
        20           Ti1 tau(  20) = (   6.5508048   1.3556675  15.8025096  )
        21           O1  tau(  21) = (   3.2904802   0.0005063   4.7018136  )
        22           O1  tau(  22) = (   6.5741700   5.9536011  17.1303138  )
        23           O1  tau(  23) = (   1.3043587   1.4918075   6.0039043  )
        24           O1  tau(  24) = (   5.2767064   1.4903225   6.0039473  )
        25           Ti1 tau(  25) = (   0.0000382   5.9609847   6.0000000  )
        26           Ti1 tau(  26) = (   3.2902200   4.4714249   6.0002472  )
        27           O1  tau(  27) = (   0.0002396   2.9813036   7.9858123  )
        28           O1  tau(  28) = (   3.2902150   2.9813002   7.3038282  )
        29           O1  tau(  29) = (   4.5938453   4.4726049   9.2879030  )
        30           O1  tau(  30) = (   1.9864658   4.4711199   9.2879459  )
        31           Ti1 tau(  31) = (   3.2891106   5.8743827   9.1763621  )
        32           Ti1 tau(  32) = (   0.0006254   4.4649316   9.2693709  )
        33           O1  tau(  33) = (   3.2861826   2.9668924  11.3320306  )
        34           O1  tau(  34) = (   0.0092240   2.9805883  10.6323155  )
        35           O1  tau(  35) = (   1.2809698   4.4658153  12.6346578  )
        36           O1  tau(  36) = (   5.2715881   4.4563464  12.6201172  )
        37           Ti1 tau(  37) = (   0.0635592   0.0233401  12.5351680  )
        38           Ti1 tau(  38) = (   3.3726470   4.4512063  12.4842852  )
        39           O1  tau(  39) = (   6.5700678   2.9603531  14.7052597  )
        40           O1  tau(  40) = (   3.2800127   2.9650284  13.9044324  )
        41           O1  tau(  41) = (   4.5221929   4.4260918  16.0817388  )
        42           O1  tau(  42) = (   2.0277389   4.4301665  16.0727494  )
        43           Ti1 tau(  43) = (   3.2617617   5.9330256  15.7261539  )
        44           Ti1 tau(  44) = (   6.5423007   4.4542687  16.1498850  )
        45           O1  tau(  45) = (   3.2900926   2.9813045   4.7018136  )
        46           O1  tau(  46) = (   1.3039711   4.4726057   6.0039043  )
        47           O1  tau(  47) = (   5.2763189   4.4711207   6.0039473  )
        48           N1  tau(  48) = (   2.8794700   5.9070534  18.9583957  )
        49           C1  tau(  49) = (   6.5502552   3.0456858  17.8350167  )
        50           H1  tau(  50) = (   5.8927902   3.7356694  18.3776660  )
        51           H1  tau(  51) = (   6.1439290   2.0579341  18.0513002  )
        52           H1  tau(  52) = (   0.9604482   3.1013269  18.2919552  )
        53           N1  tau(  53) = (   2.0963344   5.7764004  19.7355773  )

     number of k points=    10  Fermi-Dirac smearing, width (Ry)=  0.0073
                       cart. coord. in units 2pi/alat
        k(    1) = (   0.0000000   0.0000000   0.0000000), wk =   0.1250000
        k(    2) = (   0.0000000   0.0419351   0.0000000), wk =   0.2500000
        k(    3) = (   0.0000000  -0.0838702   0.0000000), wk =   0.1250000
        k(    4) = (   0.0379955   0.0000049   0.0000000), wk =   0.2500000
        k(    5) = (   0.0379955   0.0419400   0.0000000), wk =   0.2500000
        k(    6) = (   0.0379955  -0.0838652   0.0000000), wk =   0.2500000
        k(    7) = (   0.0379955  -0.0419301   0.0000000), wk =   0.2500000
        k(    8) = (  -0.0759910  -0.0000099   0.0000000), wk =   0.1250000
        k(    9) = (  -0.0759910   0.0419252   0.0000000), wk =   0.2500000
        k(   10) = (  -0.0759910  -0.0838800   0.0000000), wk =   0.1250000

     Initial potential from superposition of free atoms

[...]
     Using radial grid of  729 points,  4 beta functions with:
                l(1) =   0
                l(2) =   0
                l(3) =   1
                l(4) =   1
     Q(r) pseudized with  8 coefficients,  rinner =    0.800   0.800   0.800

     PseudoPot. # 4 for C  read from file:
     /storage/coda1/p-amedford6/0/shared/rich_project_chbe-medford/medford-share/data/pseudos_module/espresso/nninc/pbe/van/C.UPF
     MD5 check sum: 1a69bf6b8db32088f5b2163dbdb77a27
     Pseudo is Ultrasoft, Zval =  4.0
     Generated by new atomic code, or converted to UPF format
     Using radial grid of  721 points,  4 beta functions with:
                l(1) =   0
                l(2) =   0
                l(3) =   1
                l(4) =   1
     Q(r) pseudized with  8 coefficients,  rinner =    0.800   0.800   0.800

     PseudoPot. # 5 for H  read from file:
     /storage/coda1/p-amedford6/0/shared/rich_project_chbe-medford/medford-share/data/pseudos_module/espresso/nninc/pbe/van/H.UPF
     MD5 check sum: b5ee9d7bfd3a09ee7748110bda690ff7
     Pseudo is Ultrasoft, Zval =  1.0
     Generated by new atomic code, or converted to UPF format
     Using radial grid of  615 points,  1 beta functions with:
                l(1) =   0
     Q(r) pseudized with  8 coefficients,  rinner =    0.800

     atomic species   valence    mass     pseudopotential
        Ti1           12.00    47.86700     Ti( 1.00)
        O1             6.00    15.99900     O ( 1.00)
        N1             5.00    14.00700     N ( 1.00)
        C1             4.00    12.01100     C ( 1.00)
        H1             1.00     1.00800     H ( 1.00)

     No symmetry found

   Cartesian axes

     site n.     atom                  positions (alat units)
         1           Ti1 tau(   1) = (   0.0004258   2.9801865   6.0000000  )
         2           Ti1 tau(   2) = (   3.2906075   1.4906267   6.0002472  )
         3           O1  tau(   3) = (   0.0006271   0.0005054   7.9858123  )
         4           O1  tau(   4) = (   3.2906025   0.0005020   7.3038282  )
         5           O1  tau(   5) = (   4.5942328   1.4918067   9.2879030  )
         6           O1  tau(   6) = (   1.9868534   1.4903216   9.2879459  )
         7           Ti1 tau(   7) = (   3.2907910   2.8959150   9.1758416  )
         8           Ti1 tau(   8) = (   0.0015273   1.4827037   9.2680791  )
         9           O1  tau(   9) = (   3.2846693   5.9452209  11.3340492  )
        10           O1  tau(  10) = (   0.0116148   5.9584955  10.6183126  )
        11           O1  tau(  11) = (   1.2834543   1.4847615  12.6293855  )
        12           O1  tau(  12) = (   5.2674731   1.4768263  12.6150299  )
        13           Ti1 tau(  13) = (   0.0515077   3.0114797  12.6524288  )
        14           Ti1 tau(  14) = (   3.3730355   1.4714245  12.4820590  )
        15           O1  tau(  15) = (   6.5599962   0.0037305  14.6029173  )
        16           O1  tau(  16) = (   3.2800597   5.9387738  13.9271036  )
        17           O1  tau(  17) = (   4.5186125   1.4654914  16.0451899  )
        18           O1  tau(  18) = (   2.0258539   1.4687252  16.0523685  )
        19           Ti1 tau(  19) = (   3.2649076   2.9492218  15.6988400  )
        20           Ti1 tau(  20) = (   6.5508048   1.3556675  15.8025096  )
        21           O1  tau(  21) = (   3.2904802   0.0005063   4.7018136  )
        22           O1  tau(  22) = (   6.5741700   5.9536011  17.1303138  )
        23           O1  tau(  23) = (   1.3043587   1.4918075   6.0039043  )
        24           O1  tau(  24) = (   5.2767064   1.4903225   6.0039473  )
        25           Ti1 tau(  25) = (   0.0000382   5.9609847   6.0000000  )
        26           Ti1 tau(  26) = (   3.2902200   4.4714249   6.0002472  )
        27           O1  tau(  27) = (   0.0002396   2.9813036   7.9858123  )
        28           O1  tau(  28) = (   3.2902150   2.9813002   7.3038282  )
        29           O1  tau(  29) = (   4.5938453   4.4726049   9.2879030  )
        30           O1  tau(  30) = (   1.9864658   4.4711199   9.2879459  )
        31           Ti1 tau(  31) = (   3.2891106   5.8743827   9.1763621  )
        32           Ti1 tau(  32) = (   0.0006254   4.4649316   9.2693709  )
        33           O1  tau(  33) = (   3.2861826   2.9668924  11.3320306  )
        34           O1  tau(  34) = (   0.0092240   2.9805883  10.6323155  )
        35           O1  tau(  35) = (   1.2809698   4.4658153  12.6346578  )
        36           O1  tau(  36) = (   5.2715881   4.4563464  12.6201172  )
        37           Ti1 tau(  37) = (   0.0635592   0.0233401  12.5351680  )
        38           Ti1 tau(  38) = (   3.3726470   4.4512063  12.4842852  )
        39           O1  tau(  39) = (   6.5700678   2.9603531  14.7052597  )
        40           O1  tau(  40) = (   3.2800127   2.9650284  13.9044324  )
        41           O1  tau(  41) = (   4.5221929   4.4260918  16.0817388  )
        42           O1  tau(  42) = (   2.0277389   4.4301665  16.0727494  )
        43           Ti1 tau(  43) = (   3.2617617   5.9330256  15.7261539  )
        44           Ti1 tau(  44) = (   6.5423007   4.4542687  16.1498850  )
        45           O1  tau(  45) = (   3.2900926   2.9813045   4.7018136  )
        46           O1  tau(  46) = (   1.3039711   4.4726057   6.0039043  )
        47           O1  tau(  47) = (   5.2763189   4.4711207   6.0039473  )
        48           N1  tau(  48) = (   2.8794700   5.9070534  18.9683957  )
        49           C1  tau(  49) = (   6.5502552   3.0456858  17.8350167  )
        50           H1  tau(  50) = (   5.8927902   3.7256694  18.3776660  )
        51           H1  tau(  51) = (   6.1439290   2.0579341  18.0513002  )
        52           H1  tau(  52) = (   0.9604482   3.1013269  18.2919552  )
        53           N1  tau(  53) = (   2.0963344   5.7764004  19.7355773  )

     number of k points=    10  Fermi-Dirac smearing, width (Ry)=  0.0073
                       cart. coord. in units 2pi/alat
        k(    1) = (   0.0000000   0.0000000   0.0000000), wk =   0.1250000
        k(    2) = (   0.0000000   0.0419351   0.0000000), wk =   0.2500000
        k(    3) = (   0.0000000  -0.0838702   0.0000000), wk =   0.1250000
        k(    4) = (   0.0379955   0.0000049   0.0000000), wk =   0.2500000
        k(    5) = (   0.0379955   0.0419400   0.0000000), wk =   0.2500000
        k(    6) = (   0.0379955  -0.0838652   0.0000000), wk =   0.2500000
        k(    7) = (   0.0379955  -0.0419301   0.0000000), wk =   0.2500000
        k(    8) = (  -0.0759910  -0.0000099   0.0000000), wk =   0.1250000
        k(    9) = (  -0.0759910   0.0419252   0.0000000), wk =   0.2500000
        k(   10) = (  -0.0759910  -0.0838800   0.0000000), wk =   0.1250000

     Initial potential from superposition of free atoms

     starting charge  378.99916, renormalised to  395.00000

[...]

     %%%%%%%%%%%%%%%%%%%%%%%%%%%%%%%%%%%%%%%%%%%%%%%%%%%%%%%%%%%%%%%%%%%%%%%%
     %                                                                      %
     % You are using vdW-DF, which was implemented by the Thonhauser group. %
     % Please cite the following two papers that made this development      %
     % possible and the two reviews that describe the various versions:     %
     %                                                                      %
     %   T. Thonhauser et al., PRL 115, 136402 (2015).                      %
     %   T. Thonhauser et al., PRB 76, 125112 (2007).                       %
     %   K. Berland et al., Rep. Prog. Phys. 78, 066501 (2015).             %
     %   D.C. Langreth et al., J. Phys.: Condens. Matter 21, 084203 (2009). %
     %                                                                      %
     %                                                                      %
     % If you are calculating the stress with vdW-DF, please also cite:     %
     %                                                                      %
     %   R. Sabatini et al., J. Phys.: Condens. Matter 24, 424209 (2012).   %
     %                                                                      %
     %%%%%%%%%%%%%%%%%%%%%%%%%%%%%%%%%%%%%%%%%%%%%%%%%%%%%%%%%%%%%%%%%%%%%%%%

[...]

     Starting wfcs are  299 atomic wfcs
  @ DRIVER MODE: Message from server: STATUS
  @ DRIVER MODE: Message from server: POSDATA
  @ DRIVER MODE: Reading and sharing cell
  @ DRIVER MODE: Reading and sharing positions
  @ DRIVER MODE: Received positions

     Self-consistent Calculation

[...]

     iteration # 55     ecut=    29.40 Ry     beta= 0.05
     Davidson diagonalization with overlap
     c_bands:  1 eigenvalues not converged
     c_bands:  3 eigenvalues not converged
     c_bands:  1 eigenvalues not converged
     c_bands:  1 eigenvalues not converged
     c_bands:  1 eigenvalues not converged
     ethr =  2.43E-06,  avg # of iterations = 16.4

[...]

     total energy              =   -2939.21026508 Ry
     estimated scf accuracy    <       0.00000011 Ry

     iteration # 80     ecut=    29.40 Ry     beta= 0.05
     Davidson diagonalization with overlap
     ethr =  2.79E-11,  avg # of iterations = 10.2

     negative rho (up, down):  1.664E-02 0.000E+00

     Adding external electric field

     Computed dipole along edir(3) :
        Dipole                0.4578 Ry au,          1.1636 Debye
        Dipole field          0.0009 Ry au,

        Potential amp.       -0.0801 Ry
        Total length         46.3494 bohr

     End of self-consistent calculation

[...]

          k = 0.0380-0.0419 0.0000 ( 17876 PWs)   bands (ev):

[...]

          k =-0.0760-0.0839 0.0000 ( 17948 PWs)   bands (ev):

   -56.0219 -56.0203 -56.0132 -56.0072 -55.9239 -55.8873 -55.8792 -55.8594
   -55.8288 -55.8258 -55.7958 -55.7929 -55.6050 -55.4884 -54.9983 -54.9981
   -32.3896 -32.3837 -32.3361 -32.3352 -32.3172 -32.3159 -32.3044 -32.2923
   -32.2472 -32.2310 -32.2288 -32.2266 -32.1930 -32.1706 -32.1683 -32.1569
   -32.1499 -32.1414 -32.1403 -32.1397 -32.1339 -32.1307 -32.1216 -32.1055
   -32.0772 -32.0763 -32.0737 -32.0474 -32.0287 -32.0275 -32.0261 -32.0244
   -32.0099 -32.0087 -32.0061 -31.9998 -31.9717 -31.8772 -31.8209 -31.7693
   -31.7416 -31.6445 -31.3245 -31.3243 -31.2352 -31.2350 -31.1960 -31.1959
   -20.9797 -16.2231 -16.1917 -16.0001 -15.9528 -15.9476 -15.9364 -15.8465
   -15.7387 -15.7332 -15.7319 -15.6619 -15.6392 -15.6313 -15.5786 -15.5759
   -15.5654 -15.5543 -15.5493 -15.5006 -15.4928 -15.4763 -15.4668 -15.4100
   -15.3544 -15.3502 -15.3414 -15.1434 -15.0285 -14.9630 -13.5032 -13.5029
    -9.1809  -6.2292  -4.1454  -4.1214  -3.5160  -3.4761  -3.2644  -3.1989
    -3.1849  -3.1126  -2.9794  -2.9653  -2.9371  -2.9309  -2.9161  -2.8853
    -2.8711  -2.8521  -2.8454  -2.8294  -2.8141  -2.7890  -2.7526  -2.7451
    -2.7376  -2.7076  -2.6904  -2.6672  -2.6579  -2.6386  -2.6313  -2.5979
    -2.5741  -2.5538  -2.5465  -2.4222  -2.2811  -2.2361  -2.1843  -2.1674
    -2.1654  -2.1308  -2.1004  -2.0901  -2.0664  -2.0213  -1.8691  -1.7661
    -1.7410  -1.7120  -1.6674  -1.6280  -1.5716  -1.4385  -1.4246  -1.3968
    -1.3413  -1.3270  -1.2795  -1.2646  -1.2490  -1.1688  -1.1367  -1.0823
    -1.0104  -0.9993  -0.9924  -0.9371  -0.8828  -0.8078  -0.7989  -0.7593
    -0.7177  -0.6788  -0.6467  -0.6186  -0.5505  -0.5148  -0.3992  -0.3458
    -0.1142  -0.0734   0.0097   0.0539   0.1072   0.1500   0.1613   0.2795
     0.2820   0.3021   0.3872   0.3970   0.4892   0.5082   0.5193   0.7189
     1.2139   1.3705   1.3714   1.4432   1.4437   3.3830   3.3960   3.4217
     3.4674   3.6017   3.6104   3.6292   3.6312   3.7568   3.7772

     the Fermi energy is     3.0968 ev

!    total energy              =   -2939.21027197 Ry
     estimated scf accuracy    <       0.00000004 Ry
     smearing contrib. (-TS)   =      -0.02183699 Ry
     internal energy E=F+TS    =   -2939.18843498 Ry

     The total energy is F=E-TS. E is the sum of the following terms:
     one-electron contribution =  -24056.72266093 Ry
     hartree contribution      =   12113.92219858 Ry
     xc contribution           =    -484.94459303 Ry
     ewald contribution        =    9488.55622493 Ry
     electric field correction =       0.00039547 Ry

     convergence has been achieved in  80 iterations

     Forces acting on atoms (cartesian axes, Ry/au):

     atom    1 type  1   force =     0.00024202   -0.00018779    0.09661838
     atom    2 type  1   force =    -0.00017233   -0.00055724   -0.17534298
     atom    3 type  2   force =    -0.00000901   -0.00005036   -0.02513935
     atom    4 type  2   force =     0.00006955   -0.00152373    0.05290584
     atom    5 type  2   force =    -0.01233407   -0.00155938    0.00380894
     atom    6 type  2   force =     0.01381343   -0.00083319    0.00223575
     atom    7 type  1   force =    -0.00114004    0.00042281   -0.01136262
     atom    8 type  1   force =     0.00079498    0.01677567    0.02865964
     atom    9 type  2   force =     0.00010912   -0.00021311   -0.00001232
     atom   10 type  2   force =    -0.00174138    0.00057260   -0.01856683
     atom   11 type  2   force =    -0.00017963   -0.00004843   -0.00013966
     atom   12 type  2   force =    -0.00000712   -0.00000242   -0.00001293
     atom   13 type  1   force =     0.00012218   -0.00028110   -0.00023726
     atom   14 type  1   force =    -0.00009977    0.00032664    0.00026163
     atom   15 type  2   force =    -0.00023998   -0.00001207   -0.00103233
     atom   16 type  2   force =     0.00000085   -0.00023172   -0.00032675
     atom   17 type  2   force =     0.00038267    0.00032612    0.00033783
     atom   18 type  2   force =    -0.00051212    0.00001939   -0.00008414
     atom   19 type  1   force =    -0.00043747   -0.00009869   -0.00012393
     atom   20 type  1   force =    -0.00005213    0.00080971    0.00028124
     atom   21 type  2   force =     0.00013417    0.00001332    0.10324715
     atom   22 type  2   force =     0.00002865   -0.00075530   -0.00010681
     atom   23 type  2   force =    -0.07147006   -0.00011638   -0.02774523
     atom   24 type  2   force =     0.07146354    0.00030881   -0.02772642
     atom   25 type  1   force =     0.00012014   -0.00017710    0.09642455
     atom   26 type  1   force =    -0.00007345   -0.00019915   -0.17542215
     atom   27 type  2   force =     0.00008869   -0.00016197   -0.02392629
     atom   28 type  2   force =     0.00008865   -0.00126215    0.05297439
     atom   29 type  2   force =    -0.01252167    0.00044158    0.00365015
     atom   30 type  2   force =     0.01395308    0.00084829    0.00205935
     atom   31 type  1   force =    -0.00128857    0.00339458   -0.01272421
     atom   32 type  1   force =     0.00074478   -0.01754551    0.02977325
     atom   33 type  2   force =     0.00017203    0.00017510   -0.00007595
     atom   34 type  2   force =    -0.00105220    0.00009355   -0.02242872
     atom   35 type  2   force =     0.00011273    0.00021804    0.00006266
     atom   36 type  2   force =     0.00008539    0.00009729    0.00020596
     atom   37 type  1   force =    -0.00012567    0.00038514   -0.00020485
     atom   38 type  1   force =    -0.00017941    0.00027019    0.00030083
     atom   39 type  2   force =     0.00007924    0.00021626    0.00050010
     atom   40 type  2   force =    -0.00002999   -0.00000439    0.00000639
     atom   41 type  2   force =     0.00036664   -0.00023383    0.00011060
     atom   42 type  2   force =     0.00012054   -0.00022564    0.00015171
     atom   43 type  1   force =    -0.00004657   -0.00025897    0.00018212
     atom   44 type  1   force =     0.00003670    0.00007588    0.00036005
     atom   45 type  2   force =     0.00011296   -0.00001303    0.10326425
     atom   46 type  2   force =    -0.07146317   -0.00011642   -0.02771345
     atom   47 type  2   force =     0.07147271    0.00036685   -0.02773762
     atom   48 type  3   force =    -0.00140405    0.00014884   -0.00081298
     atom   49 type  4   force =     0.00320037   -0.00525122   -0.00323931
     atom   50 type  5   force =    -0.00434369    0.00589667    0.00381328
     atom   51 type  5   force =     0.00051043   -0.00099374   -0.00048983
     atom   52 type  5   force =     0.00063125    0.00016434   -0.00009882
     atom   53 type  3   force =     0.00186602    0.00054637    0.00063772

     Total force =     0.368941     Total SCF correction =     0.000624
  @ DRIVER MODE: Message from server: STATUS
  @ DRIVER MODE: Message from server: GETFORCE
  @ DRIVER MODE: Returning v,forces,stress,ensemble

     Writing output data file ./calc.save/
  @ DRIVER MODE: Message from server: EXIT
  @ DRIVE MODE: Exiting

     General routines

     Parallel routines

   This run was terminated on:  23:39:24   3Aug2021

   JOB DONE.