     Program PWSCF v.6.7GPU starts on 28Sep2021 at 20:51:58

     R & G space division:  proc/nbgrp/npool/nimage =       8
     Reading input from /storage/home/hcoda1/3/ntian30/research/carbon/CxH_vib/H2O_calc/ads_slab/CH3OHN2H2O_a/out_0054/pw.inp
Warning: card &CELL ignored
Warning: card   CELL_DYNAMICS='IPI', ignored
Warning: card / ignored

     Current dimensions of program PWSCF are:
     Max number of different atomic species (ntypx) = 10
     Max number of k-points (npk) =  40000
     Max angular momentum in pseudopotentials (lmaxx) =  3
     Presently no symmetry can be used with electric field

     Message from routine cell_base_init:
     DEPRECATED: use true lattice parameter, not A to a.u. conversion factor

     IMPORTANT: XC functional enforced from input :
     Exchange-correlation= BEEF-VDW
                           (   1   4  43  14   2   0   0)
     Any further DFT definition will be discarded
     Please, verify this is what you really want

  @ DRIVER MODE: Connecting to
 qe_1139763_3000313.sched-torque.pace.gatech.eduedzsuk7f_scratch
  using UNIX socket
  @ DRIVER MODE: Message from server: STATUS
  @ DRIVER MODE: Message from server: INIT
  @ DRIVER MODE: Receiving replica           0          -1
  @ DRIVER MODE: Receiving encoded integer          25
  @ DRIVER MODE:  SCF:  T  FORCE:  T  STRESS:  F  VC:  F  ENSEMBLE:  F
  @ DRIVER MODE:  SCF:  T  FORCE:  T  STRESS:  F  VC:  F  ENSEMBLE:  F

     Using Slab Decomposition

     bravais-lattice index     =            0
     lattice parameter (alat)  =       1.8897  a.u.
     unit-cell volume          =    6658.9804 (a.u.)^3
     number of atoms/cell      =           58
     number of atomic types    =            5
     number of electrons       =       410.00
     number of Kohn-Sham states=          215
     kinetic-energy cutoff     =      29.3995  Ry
     charge density cutoff     =     293.9946  Ry
     scf convergence threshold =      7.3E-08
     mixing beta               =       0.0500
     number of iterations used =            8  plain     mixing
     Exchange-correlation= BEEF-VDW
                           (   1   4  43  14   2   0   0)

     celldm(1)=   1.889726  celldm(2)=   0.000000  celldm(3)=   0.000000
     celldm(4)=   0.000000  celldm(5)=   0.000000  celldm(6)=   0.000000

     crystal axes: (cart. coord. in units of alat)
               a(1) = (   6.579727   0.000000   0.000000 )
               a(2) = (  -0.000775   5.961596   0.000000 )
               a(3) = (   0.000000   0.000000  25.155947 )

     reciprocal axes: (cart. coord. in units 2 pi/alat)
               b(1) = (  0.151982  0.000020  0.000000 )
               b(2) = (  0.000000  0.167740  0.000000 )
               b(3) = (  0.000000  0.000000  0.039752 )

     PseudoPot. # 1 for Ti read from file:
     /storage/coda1/p-amedford6/0/shared/rich_project_chbe-medford/medford-share/data/pseudos_module/espresso/nninc/pbe/van/Ti.UPF
     MD5 check sum: 8e4df49b7f0d34bbd5052bf3f5ea0213
     Pseudo is Ultrasoft, Zval = 12.0
     Generated by new atomic code, or converted to UPF format
     Using radial grid of  851 points,  6 beta functions with:
                l(1) =   0
                l(2) =   0
                l(3) =   1
                l(4) =   1
                l(5) =   2
                l(6) =   2
     Q(r) pseudized with  8 coefficients,  rinner =    1.000   1.000   1.000
                                                       1.000   1.000

     PseudoPot. # 2 for O  read from file:
     /storage/coda1/p-amedford6/0/shared/rich_project_chbe-medford/medford-share/data/pseudos_module/espresso/nninc/pbe/van/O.UPF
     MD5 check sum: 78c19812648e8988a0fe644b0f25305e
     Pseudo is Ultrasoft, Zval =  6.0
     Generated by new atomic code, or converted to UPF format
     Using radial grid of  737 points,  4 beta functions with:
                l(1) =   0
                l(2) =   0
                l(3) =   1
                l(4) =   1
     Q(r) pseudized with  8 coefficients,  rinner =    0.800   0.800   0.800

     PseudoPot. # 3 for C  read from file:
     /storage/coda1/p-amedford6/0/shared/rich_project_chbe-medford/medford-share/data/pseudos_module/espresso/nninc/pbe/van/C.UPF
     MD5 check sum: 1a69bf6b8db32088f5b2163dbdb77a27
     Pseudo is Ultrasoft, Zval =  4.0
     Generated by new atomic code, or converted to UPF format
     Using radial grid of  721 points,  4 beta functions with:
                l(1) =   0
                l(2) =   0
                l(3) =   1
                l(4) =   1
     Q(r) pseudized with  8 coefficients,  rinner =    0.800   0.800   0.800

     PseudoPot. # 4 for H  read from file:
     /storage/coda1/p-amedford6/0/shared/rich_project_chbe-medford/medford-share/data/pseudos_module/espresso/nninc/pbe/van/H.UPF
     MD5 check sum: b5ee9d7bfd3a09ee7748110bda690ff7
     Pseudo is Ultrasoft, Zval =  1.0
     Generated by new atomic code, or converted to UPF format
     Using radial grid of  615 points,  1 beta functions with:
                l(1) =   0
     Q(r) pseudized with  8 coefficients,  rinner =    0.800

     PseudoPot. # 5 for N  read from file:
     /storage/coda1/p-amedford6/0/shared/rich_project_chbe-medford/medford-share/data/pseudos_module/espresso/nninc/pbe/van/N.UPF
     MD5 check sum: 90d10febe142ad51ac9d5be1deb811c4
     Pseudo is Ultrasoft, Zval =  5.0
     Generated by new atomic code, or converted to UPF format
     Using radial grid of  729 points,  4 beta functions with:
                l(1) =   0
                l(2) =   0
                l(3) =   1
                l(4) =   1
     Q(r) pseudized with  8 coefficients,  rinner =    0.800   0.800   0.800

     atomic species   valence    mass     pseudopotential
        Ti1           12.00    47.86700     Ti( 1.00)
        O1             6.00    15.99900     O ( 1.00)
        C1             4.00    12.01100     C ( 1.00)
        H1             1.00     1.00800     H ( 1.00)
        N1             5.00    14.00700     N ( 1.00)

     No symmetry found

   Cartesian axes

     site n.     atom                  positions (alat units)
         1           Ti1 tau(   1) = (   0.0004258   2.9801865   6.0000000  )
         2           Ti1 tau(   2) = (   3.2906075   1.4906267   6.0002472  )
         3           O1  tau(   3) = (   0.0006271   0.0005054   7.9858123  )
         4           O1  tau(   4) = (   3.2906025   0.0005020   7.3038282  )
         5           O1  tau(   5) = (   4.5942328   1.4918067   9.2879030  )
         6           O1  tau(   6) = (   1.9868534   1.4903216   9.2879459  )
         7           Ti1 tau(   7) = (   3.3250738   2.9918783   9.1599549  )
         8           Ti1 tau(   8) = (   0.0412716   1.4903975   9.2658274  )
         9           O1  tau(   9) = (   3.2852344   0.0116916  11.3753809  )
        10           O1  tau(  10) = (   6.5701620   0.0027176  10.6052010  )
        11           O1  tau(  11) = (   1.2758103   1.4969824  12.6410148  )
        12           O1  tau(  12) = (   5.2796941   1.4985041  12.6691897  )
        13           Ti1 tau(  13) = (   6.5531116   2.9870417  12.5348353  )
        14           Ti1 tau(  14) = (   3.2504356   1.4995581  12.5215122  )
        15           O1  tau(  15) = (   0.0383206   0.0046779  14.6787597  )
        16           O1  tau(  16) = (   3.2537876   0.0095675  14.0320577  )
        17           O1  tau(  17) = (   4.5855444   1.5609978  16.0639115  )
        18           O1  tau(  18) = (   2.0343745   1.5440679  16.2001998  )
        19           Ti1 tau(  19) = (   3.3058624   3.0043567  15.7064231  )
        20           Ti1 tau(  20) = (   6.5549511   1.4266458  15.8675638  )
        21           O1  tau(  21) = (   3.2904802   0.0005063   4.7018136  )
        22           O1  tau(  22) = (   6.4974171   0.0126247  17.2237355  )
        23           O1  tau(  23) = (   1.3043587   1.4918075   6.0039043  )
        24           O1  tau(  24) = (   5.2767064   1.4903225   6.0039473  )
        25           Ti1 tau(  25) = (   0.0000382   5.9609847   6.0000000  )
        26           Ti1 tau(  26) = (   3.2902200   4.4714249   6.0002472  )
        27           O1  tau(  27) = (   0.0002396   2.9813036   7.9858123  )
        28           O1  tau(  28) = (   3.2902150   2.9813002   7.3038282  )
        29           O1  tau(  29) = (   4.5938453   4.4726049   9.2879030  )
        30           O1  tau(  30) = (   1.9864658   4.4711199   9.2879459  )
        31           Ti1 tau(  31) = (   3.3194574   0.0113313   9.1541029  )
        32           Ti1 tau(  32) = (   0.0414074   4.4589881   9.2683624  )
        33           O1  tau(  33) = (   3.2821265   2.9896323  11.3676027  )
        34           O1  tau(  34) = (   6.5712111   2.9825298  10.6251173  )
        35           O1  tau(  35) = (   1.2751242   4.4805681  12.6359318  )
        36           O1  tau(  36) = (   5.2791817   4.4782367  12.6627471  )
        37           Ti1 tau(  37) = (   6.5506445   0.0032150  12.4806913  )
        38           Ti1 tau(  38) = (   3.2507345   4.4881811  12.5195668  )
        39           O1  tau(  39) = (   0.0469291   2.9928743  14.8464778  )
        40           O1  tau(  40) = (   3.2514374   2.9975957  13.9281162  )
        41           O1  tau(  41) = (   4.5866068   4.4203933  16.0984022  )
        42           O1  tau(  42) = (   2.0418857   4.4579080  16.2200674  )
        43           Ti1 tau(  43) = (   3.2648600   0.0292614  15.8571223  )
        44           Ti1 tau(  44) = (   6.5763064   4.6169283  15.9626260  )
        45           O1  tau(  45) = (   3.2900926   2.9813045   4.7018136  )
        46           O1  tau(  46) = (   1.3039711   4.4726057   6.0039043  )
        47           O1  tau(  47) = (   5.2763189   4.4711207   6.0039473  )
        48           C1  tau(  48) = (   6.0301898   2.9050411  18.9351799  )
        49           O1  tau(  49) = (   0.1575529   2.9516393  17.6723866  )
        50           H1  tau(  50) = (   4.9714676   2.8818909  18.6991823  )
        51           H1  tau(  51) = (   1.1132637   2.8218831  17.8130049  )
        52           H1  tau(  52) = (   6.2985093   1.9952365  19.4696065  )
        53           H1  tau(  53) = (   6.2732381   3.7939772  19.5169533  )
        54           N1  tau(  54) = (   4.8840950   3.1052494  22.6850861  )
        55           N1  tau(  55) = (   4.2680757   3.3403818  21.7970487  )
        56           O1  tau(  56) = (   3.8772584   0.1141246  18.3139653  )
        57           H1  tau(  57) = (   4.8407149   0.0692883  18.0716375  )
        58           H1  tau(  58) = (   3.6680196   5.2122673  18.6877519  )

     number of k points=    10  Fermi-Dirac smearing, width (Ry)=  0.0073
                       cart. coord. in units 2pi/alat
        k(    1) = (   0.0000000   0.0000000   0.0000000), wk =   0.1250000
        k(    2) = (   0.0000000   0.0419351   0.0000000), wk =   0.2500000
        k(    3) = (   0.0000000  -0.0838702   0.0000000), wk =   0.1250000
        k(    4) = (   0.0379955   0.0000049   0.0000000), wk =   0.2500000
        k(    5) = (   0.0379955   0.0419400   0.0000000), wk =   0.2500000
        k(    6) = (   0.0379955  -0.0838652   0.0000000), wk =   0.2500000
        k(    7) = (   0.0379955  -0.0419301   0.0000000), wk =   0.2500000
        k(    8) = (  -0.0759910  -0.0000099   0.0000000), wk =   0.1250000
        k(    9) = (  -0.0759910   0.0419252   0.0000000), wk =   0.2500000
        k(   10) = (  -0.0759910  -0.0838800   0.0000000), wk =   0.1250000

     Initial potential from superposition of free atoms

     starting charge  393.99913, renormalised to  410.00000

     negative rho (up, down):  9.553E-03 0.000E+00

     %%%%%%%%%%%%%%%%%%%%%%%%%%%%%%%%%%%%%%%%%%%%%%%%%%%%%%%%%%%%%%%%%%%%%%%%
     %                                                                      %
     % You are using vdW-DF, which was implemented by the Thonhauser group. %
     % Please cite the following two papers that made this development      %
     % possible and the two reviews that describe the various versions:     %
     %                                                                      %
     %   T. Thonhauser et al., PRL 115, 136402 (2015).                      %
     %   T. Thonhauser et al., PRB 76, 125112 (2007).                       %
     %   K. Berland et al., Rep. Prog. Phys. 78, 066501 (2015).             %
     %   D.C. Langreth et al., J. Phys.: Condens. Matter 21, 084203 (2009). %
     %                                                                      %
     %                                                                      %
     % If you are calculating the stress with vdW-DF, please also cite:     %
     %                                                                      %
     %   R. Sabatini et al., J. Phys.: Condens. Matter 24, 424209 (2012).   %
     %                                                                      %
     %%%%%%%%%%%%%%%%%%%%%%%%%%%%%%%%%%%%%%%%%%%%%%%%%%%%%%%%%%%%%%%%%%%%%%%%

     Adding external electric field

     Computed dipole along edir(3) :
        Dipole              -20.0830 Ry au,        -51.0459 Debye
        Dipole field         -0.0379 Ry au,

        Potential amp.        3.5132 Ry
        Total length         46.3494 bohr

     Starting wfcs are  310 atomic wfcs
  @ DRIVER MODE: Message from server: STATUS
  @ DRIVER MODE: Message from server: POSDATA
  @ DRIVER MODE: Reading and sharing cell
  @ DRIVER MODE: Reading and sharing positions
  @ DRIVER MODE: Received positions

     Self-consistent Calculation

     iteration #  1     ecut=    29.40 Ry     beta= 0.05
     Davidson diagonalization with overlap
     c_bands:  1 eigenvalues not converged
     c_bands:  1 eigenvalues not converged
     c_bands:  5 eigenvalues not converged
     c_bands:  1 eigenvalues not converged
     c_bands:  4 eigenvalues not converged
     c_bands:  3 eigenvalues not converged
     ethr =  1.00E-05,  avg # of iterations = 32.1

[...]

     total energy              =   -2098.59874610 Ry
     estimated scf accuracy    <   10668.80772261 Ry

     iteration #  2     ecut=    29.40 Ry     beta= 0.05
     Davidson diagonalization with overlap
     ethr =  1.00E-02,  avg # of iterations = 30.4

[...]

     iteration # 93     ecut=    29.40 Ry     beta= 0.05
     Davidson diagonalization with overlap
     c_bands:  1 eigenvalues not converged
     c_bands:  1 eigenvalues not converged
     ethr =  4.74E-11,  avg # of iterations = 15.5

[...]

     total energy              =   -3007.66315519 Ry
     estimated scf accuracy    <       0.00000038 Ry

     iteration # 94     ecut=    29.40 Ry     beta= 0.05
     Davidson diagonalization with overlap
     ethr =  4.74E-11,  avg # of iterations = 11.0

     negative rho (up, down):  1.050E-02 0.000E+00

     Adding external electric field

     Computed dipole along edir(3) :
        Dipole                1.2305 Ry au,          3.1275 Debye
        Dipole field          0.0023 Ry au,

        Potential amp.       -0.2152 Ry
        Total length         46.3494 bohr

     End of self-consistent calculation

          k = 0.0000 0.0000 0.0000 ( 18029 PWs)   bands (ev):

   -54.9379 -54.9139 -54.9019 -54.8795 -54.8650 -54.8595 -54.8322 -54.8128
   -54.7848 -54.7820 -54.7475 -54.7270 -54.6956 -54.6931 -54.0021 -53.9681
   -31.5037 -31.4775 -31.4096 -31.3168 -31.2577 -31.2521 -31.2403 -31.2380
   -31.2026 -31.1689 -31.1589 -31.1567 -31.1524 -31.1293 -31.1227 -31.1166
   -31.1001 -31.0816 -31.0757 -31.0740 -31.0672 -31.0594 -31.0366 -31.0305
   -31.0301 -31.0245 -31.0097 -31.0073 -31.0062 -30.9703 -30.9533 -30.9333
   -30.9318 -30.9308 -30.9226 -30.9214 -30.9115 -30.8812 -30.8670 -30.8627
   -30.8581 -30.8386 -30.4141 -30.3118 -30.2902 -30.2303 -30.1439 -30.0330
   -21.6244 -19.8071 -18.2702 -15.7711 -15.5250 -15.3858 -15.2884 -15.1646
   -15.0345 -14.9607 -14.8405 -14.7682 -14.6748 -14.6613 -14.6428 -14.6211
   -14.5883 -14.5622 -14.5056 -14.5000 -14.4456 -14.4421 -14.4314 -14.4207
   -14.3876 -14.3723 -14.3413 -14.3321 -14.1697 -14.1039 -14.0443 -13.8999
   -12.5028 -12.3835 -10.8199  -6.8742  -6.5522  -6.0324  -4.8535  -4.7812
    -4.7250  -4.6292  -3.5462  -3.1041  -2.9531  -2.9155  -2.8931  -2.8737
    -2.7467  -2.6512  -2.6197  -2.4626  -2.3751  -2.2394  -2.2120  -2.1802
    -2.1406  -2.0744  -2.0183  -1.9301  -1.9017  -1.8601  -1.8419  -1.8180
    -1.8031  -1.7765  -1.7462  -1.6725  -1.6363  -1.5514  -1.5347  -1.4465
    -1.3950  -1.3868  -1.3435  -1.2804  -1.2772  -1.2666  -1.2245  -1.2128
    -1.2046  -1.1942  -1.1877  -1.0249  -0.9813  -0.9471  -0.8247  -0.7141
    -0.6212  -0.6115  -0.5083  -0.4950  -0.4321  -0.4273  -0.3879  -0.3484
    -0.2862  -0.1898  -0.1301  -0.0831  -0.0722   0.0384   0.1044   0.1194
     0.1798   0.2555   0.2707   0.2920   0.3208   0.4080   0.4763   0.5179
     0.5525   0.6174   0.6269   0.6748   0.7035   0.7443   0.8301   0.8839
     0.8873   0.9745   0.9916   1.0050   1.0302   1.0358   1.1340   1.1676
     1.2122   1.2401   1.3910   1.4266   1.6177   1.6531   1.9133   2.0118
     2.0236   2.1850   2.6096   2.6642   4.1522   4.2200   4.2565   4.2638
     4.2784   4.3581   4.6404   4.6529   4.6607   4.6722   4.6801

[...]

          k = 0.0380-0.0419 0.0000 ( 17876 PWs)   bands (ev):

[...]

          k =-0.0760-0.0000 0.0000 ( 17886 PWs)   bands (ev):

[...]

          k =-0.0760-0.0839 0.0000 ( 17948 PWs)   bands (ev):

   -54.9208 -54.9187 -54.8984 -54.8949 -54.8603 -54.8547 -54.8250 -54.8203
   -54.7921 -54.7670 -54.7622 -54.7114 -54.7087 -54.6973 -53.9851 -53.9850
   -31.3902 -31.3126 -31.3024 -31.2263 -31.2228 -31.2013 -31.1932 -31.1913
   -31.1845 -31.1617 -31.1472 -31.1452 -31.1375 -31.1318 -31.1126 -31.0985
   -31.0830 -31.0811 -31.0721 -31.0709 -31.0692 -31.0681 -31.0625 -31.0573
   -31.0322 -31.0269 -31.0228 -31.0176 -31.0172 -31.0146 -31.0138 -31.0134
   -31.0132 -30.9844 -30.9759 -30.9651 -30.9639 -30.9366 -30.9343 -30.8984
   -30.8952 -30.8806 -30.3027 -30.3027 -30.2270 -30.2266 -30.1872 -30.1870
   -21.6243 -19.8035 -18.2691 -15.3459 -15.2328 -15.0670 -14.9583 -14.9485
   -14.9201 -14.8614 -14.8182 -14.7866 -14.7470 -14.7362 -14.7071 -14.6890
   -14.6837 -14.6265 -14.5421 -14.5364 -14.5227 -14.4877 -14.4602 -14.4462
   -14.4442 -14.4298 -14.3929 -14.3910 -14.3719 -14.3607 -14.3043 -14.2116
   -12.4848 -12.4842 -10.8225  -6.8734  -6.5543  -6.0350  -4.8507  -4.7880
    -4.7188  -4.6169  -3.5378  -2.7549  -2.5235  -2.4995  -2.4261  -2.2614
    -2.1816  -2.1608  -2.0849  -2.0610  -2.0256  -1.9473  -1.9434  -1.9095
    -1.8696  -1.8451  -1.8389  -1.8211  -1.8013  -1.7698  -1.7493  -1.7273
    -1.7142  -1.6980  -1.6524  -1.6436  -1.6077  -1.6041  -1.5891  -1.5775
    -1.5576  -1.5473  -1.4648  -1.4394  -1.3990  -1.3119  -1.2956  -1.1660
    -1.1603  -1.1128  -1.0780  -1.0388  -1.0206  -0.9963  -0.9749  -0.9433
    -0.9121  -0.7402  -0.7191  -0.6752  -0.6242  -0.6186  -0.5453  -0.5302
    -0.4756  -0.4425  -0.3536  -0.3133  -0.2732  -0.1646  -0.1380  -0.1258
     0.0134   0.0190   0.0639   0.0654   0.1076   0.1461   0.1571   0.1656
     0.2405   0.2729   0.3093   0.3353   0.3589   0.5370   0.5730   0.6319
     0.7223   0.7395   0.9180   0.9484   0.9917   1.0729   1.1345   1.1881
     1.2102   1.3184   1.3265   1.3498   1.4414   1.4898   1.4911   1.5210
     2.3749   2.3778   2.4787   2.4814   4.2763   4.4071   4.4133   4.4935
     4.5674   4.6599   4.6677   4.6758   4.7048   4.7148   4.7216

     the Fermi energy is     4.2082 ev

!    total energy              =   -3007.66315831 Ry
     estimated scf accuracy    <       0.00000007 Ry
     smearing contrib. (-TS)   =      -0.03681979 Ry
     internal energy E=F+TS    =   -3007.62633852 Ry

     The total energy is F=E-TS. E is the sum of the following terms:
     one-electron contribution =  -22336.11380317 Ry
     hartree contribution      =   11269.82592343 Ry
     xc contribution           =    -502.08148701 Ry
     ewald contribution        =    8560.74017107 Ry
     electric field correction =       0.00285716 Ry

     convergence has been achieved in  94 iterations

     Forces acting on atoms (cartesian axes, Ry/au):

     atom    1 type  1   force =    -0.00027533   -0.00001157    0.09250732
     atom    2 type  1   force =    -0.00012971    0.00114754   -0.18323186
     atom    3 type  2   force =     0.00054832   -0.00040193   -0.02388634
     atom    4 type  2   force =     0.00079651    0.00021161    0.05086271
     atom    5 type  2   force =    -0.01548670   -0.00014323    0.00437259
     atom    6 type  2   force =     0.01420037   -0.00032800    0.00505410
     atom    7 type  1   force =    -0.00011442    0.00020558    0.00004431
     atom    8 type  1   force =    -0.00007609    0.00016481   -0.00000555
     atom    9 type  2   force =     0.00007503    0.00004326    0.00012160
     atom   10 type  2   force =    -0.00000054    0.00001873   -0.00005741
     atom   11 type  2   force =     0.00016795    0.00001386   -0.00013063
     atom   12 type  2   force =     0.00003887    0.00002926   -0.00005370
     atom   13 type  1   force =     0.00016999    0.00011818   -0.00003171
     atom   14 type  1   force =     0.00027054    0.00020922   -0.00014240
     atom   15 type  2   force =     0.00027931    0.00038862   -0.00000388
     atom   16 type  2   force =     0.00013977   -0.00001323    0.00041625
     atom   17 type  2   force =    -0.00010234   -0.00007533    0.00034643
     atom   18 type  2   force =     0.00025450   -0.00003388    0.00028852
     atom   19 type  1   force =     0.00000226   -0.00019811    0.00009960
     atom   20 type  1   force =     0.00022065   -0.00006679   -0.00007953
     atom   21 type  2   force =     0.00002966    0.00001512    0.10486644
     atom   22 type  2   force =    -0.00044988   -0.00002005    0.00006531
     atom   23 type  2   force =    -0.06800879   -0.00011212   -0.02684263
     atom   24 type  2   force =     0.06787233    0.00034623   -0.02688415
     atom   25 type  1   force =    -0.00011566   -0.00002321    0.09595915
     atom   26 type  1   force =    -0.00010968   -0.00144312   -0.18314497
     atom   27 type  2   force =     0.00049893   -0.00019516   -0.02269451
     atom   28 type  2   force =     0.00086432    0.00017871    0.05125353
     atom   29 type  2   force =    -0.01540329    0.00050161    0.00454500
     atom   30 type  2   force =     0.01415485    0.00078177    0.00524345
     atom   31 type  1   force =    -0.00010547    0.00005177   -0.00000850
     atom   32 type  1   force =    -0.00007658    0.00016541   -0.00004183
     atom   33 type  2   force =     0.00012591   -0.00002771    0.00016424
     atom   34 type  2   force =    -0.00000210    0.00007327    0.00002529
     atom   35 type  2   force =     0.00012643    0.00000027   -0.00002761
     atom   36 type  2   force =     0.00008072   -0.00000141    0.00009934
     atom   37 type  1   force =     0.00016281    0.00006618   -0.00010597
     atom   38 type  1   force =     0.00015034   -0.00007415    0.00000094
     atom   39 type  2   force =     0.00014511   -0.00007363   -0.00020110
     atom   40 type  2   force =     0.00003165   -0.00018005    0.00005746
     atom   41 type  2   force =     0.00006074    0.00030536    0.00036196
     atom   42 type  2   force =     0.00000426    0.00006631    0.00014542
     atom   43 type  1   force =    -0.00016270   -0.00009085    0.00077734
     atom   44 type  1   force =     0.00015605    0.00011991    0.00044951
     atom   45 type  2   force =     0.00003435    0.00002007    0.10480059
     atom   46 type  2   force =    -0.06802218   -0.00051261   -0.02683194
     atom   47 type  2   force =     0.06788062   -0.00008927   -0.02690932
     atom   48 type  3   force =    -0.00013650   -0.00008179   -0.00012349
     atom   49 type  2   force =    -0.00022771   -0.00011546   -0.00003763
     atom   50 type  4   force =    -0.00009002   -0.00042342    0.00010030
     atom   51 type  4   force =     0.00008002   -0.00012518    0.00010539
     atom   52 type  4   force =     0.00028548   -0.00036493    0.00004230
     atom   53 type  4   force =     0.00008167    0.00017074   -0.00020697
     atom   54 type  5   force =    -0.00106413    0.00009690   -0.00128699
     atom   55 type  5   force =     0.00049990   -0.00013125    0.00039862
     atom   56 type  2   force =     0.00670504    0.00752627   -0.00594034
     atom   57 type  4   force =    -0.00455967   -0.00052854    0.00175119
     atom   58 type  4   force =    -0.00247580   -0.00715062    0.00358474

     Total force =     0.368419     Total SCF correction =     0.000709
  @ DRIVER MODE: Message from server: STATUS
  @ DRIVER MODE: Message from server: GETFORCE
  @ DRIVER MODE: Returning v,forces,stress,ensemble

     Writing output data file ./calc.save/
  @ DRIVER MODE: Message from server: EXIT
  @ DRIVE MODE: Exiting

     General routines

     Parallel routines

   This run was terminated on:  21:24:43  28Sep2021

   JOB DONE.