     Program PWSCF v.6.7GPU starts on 16Sep2021 at  3:46:55

     R & G space division:  proc/nbgrp/npool/nimage =      10
     Reading input from /storage/home/hcoda1/3/ntian30/research/carbon/CxH_vib/H2O_calc/ads_slab/CH2N2H2O_b/out_0037/pw.inp
Warning: card &CELL ignored
Warning: card   CELL_DYNAMICS='IPI', ignored
Warning: card / ignored

     Current dimensions of program PWSCF are:
     Max number of different atomic species (ntypx) = 10
     Max number of k-points (npk) =  40000
     Max angular momentum in pseudopotentials (lmaxx) =  3
     Presently no symmetry can be used with electric field

     Message from routine cell_base_init:
     DEPRECATED: use true lattice parameter, not A to a.u. conversion factor

     IMPORTANT: XC functional enforced from input :
     Exchange-correlation= BEEF-VDW
                           (   1   4  43  14   2   0   0)
     Any further DFT definition will be discarded
     Please, verify this is what you really want

  @ DRIVER MODE: Connecting to
 qe_1139763_2852605.sched-torque.pace.gatech.edunw_e5q_s_scratch
  using UNIX socket
  @ DRIVER MODE: Message from server: STATUS
  @ DRIVER MODE: Message from server: INIT
  @ DRIVER MODE: Receiving replica           0          -1
  @ DRIVER MODE: Receiving encoded integer          25
  @ DRIVER MODE:  SCF:  T  FORCE:  T  STRESS:  F  VC:  F  ENSEMBLE:  F
  @ DRIVER MODE:  SCF:  T  FORCE:  T  STRESS:  F  VC:  F  ENSEMBLE:  F

     Using Slab Decomposition

     bravais-lattice index     =            0
     lattice parameter (alat)  =       1.8897  a.u.
     unit-cell volume          =    6658.9804 (a.u.)^3
     number of atoms/cell      =           55
     number of atomic types    =            5
     number of electrons       =       402.00
     number of Kohn-Sham states=          211
     kinetic-energy cutoff     =      29.3995  Ry
     charge density cutoff     =     293.9946  Ry
     scf convergence threshold =      7.3E-08
     mixing beta               =       0.0500
     number of iterations used =            8  plain     mixing
     Exchange-correlation= BEEF-VDW
                           (   1   4  43  14   2   0   0)

     celldm(1)=   1.889726  celldm(2)=   0.000000  celldm(3)=   0.000000
     celldm(4)=   0.000000  celldm(5)=   0.000000  celldm(6)=   0.000000

     crystal axes: (cart. coord. in units of alat)
               a(1) = (   6.579727   0.000000   0.000000 )
               a(2) = (  -0.000775   5.961596   0.000000 )
               a(3) = (   0.000000   0.000000  25.155947 )

     reciprocal axes: (cart. coord. in units 2 pi/alat)
               b(1) = (  0.151982  0.000020  0.000000 )
               b(2) = (  0.000000  0.167740  0.000000 )
               b(3) = (  0.000000  0.000000  0.039752 )

     PseudoPot. # 1 for Ti read from file:
     /storage/coda1/p-amedford6/0/shared/rich_project_chbe-medford/medford-share/data/pseudos_module/espresso/nninc/pbe/van/Ti.UPF
     MD5 check sum: 8e4df49b7f0d34bbd5052bf3f5ea0213
     Pseudo is Ultrasoft, Zval = 12.0
     Generated by new atomic code, or converted to UPF format
     Using radial grid of  851 points,  6 beta functions with:
                l(1) =   0
                l(2) =   0
                l(3) =   1
                l(4) =   1
                l(5) =   2
                l(6) =   2
     Q(r) pseudized with  8 coefficients,  rinner =    1.000   1.000   1.000
                                                       1.000   1.000

     PseudoPot. # 2 for O  read from file:
     /storage/coda1/p-amedford6/0/shared/rich_project_chbe-medford/medford-share/data/pseudos_module/espresso/nninc/pbe/van/O.UPF
     MD5 check sum: 78c19812648e8988a0fe644b0f25305e
     Pseudo is Ultrasoft, Zval =  6.0
     Generated by new atomic code, or converted to UPF format
     Using radial grid of  737 points,  4 beta functions with:
                l(1) =   0
                l(2) =   0
                l(3) =   1
                l(4) =   1
     Q(r) pseudized with  8 coefficients,  rinner =    0.800   0.800   0.800

     PseudoPot. # 3 for N  read from file:
     /storage/coda1/p-amedford6/0/shared/rich_project_chbe-medford/medford-share/data/pseudos_module/espresso/nninc/pbe/van/N.UPF
     MD5 check sum: 90d10febe142ad51ac9d5be1deb811c4
     Pseudo is Ultrasoft, Zval =  5.0
     Generated by new atomic code, or converted to UPF format
     Using radial grid of  729 points,  4 beta functions with:
                l(1) =   0
                l(2) =   0
                l(3) =   1
                l(4) =   1
     Q(r) pseudized with  8 coefficients,  rinner =    0.800   0.800   0.800

     PseudoPot. # 4 for C  read from file:
     /storage/coda1/p-amedford6/0/shared/rich_project_chbe-medford/medford-share/data/pseudos_module/espresso/nninc/pbe/van/C.UPF
     MD5 check sum: 1a69bf6b8db32088f5b2163dbdb77a27
     Pseudo is Ultrasoft, Zval =  4.0
     Generated by new atomic code, or converted to UPF format
     Using radial grid of  721 points,  4 beta functions with:
                l(1) =   0
                l(2) =   0
                l(3) =   1
                l(4) =   1
     Q(r) pseudized with  8 coefficients,  rinner =    0.800   0.800   0.800

     PseudoPot. # 5 for H  read from file:
     /storage/coda1/p-amedford6/0/shared/rich_project_chbe-medford/medford-share/data/pseudos_module/espresso/nninc/pbe/van/H.UPF
     MD5 check sum: b5ee9d7bfd3a09ee7748110bda690ff7
     Pseudo is Ultrasoft, Zval =  1.0
     Generated by new atomic code, or converted to UPF format
     Using radial grid of  615 points,  1 beta functions with:
                l(1) =   0
     Q(r) pseudized with  8 coefficients,  rinner =    0.800

     atomic species   valence    mass     pseudopotential
        Ti1           12.00    47.86700     Ti( 1.00)
        O1             6.00    15.99900     O ( 1.00)
        N1             5.00    14.00700     N ( 1.00)
        C1             4.00    12.01100     C ( 1.00)
        H1             1.00     1.00800     H ( 1.00)

     No symmetry found

   Cartesian axes

     site n.     atom                  positions (alat units)
         1           Ti1 tau(   1) = (   0.0004258   2.9801865   6.0000000  )
         2           Ti1 tau(   2) = (   3.2906075   1.4906267   6.0002472  )
         3           O1  tau(   3) = (   0.0006271   0.0005054   7.9858123  )
         4           O1  tau(   4) = (   3.2906025   0.0005020   7.3038282  )
         5           O1  tau(   5) = (   4.5942328   1.4918067   9.2879030  )
         6           O1  tau(   6) = (   1.9868534   1.4903216   9.2879459  )
         7           Ti1 tau(   7) = (   3.2907910   2.8959150   9.1758416  )
         8           Ti1 tau(   8) = (   0.0015273   1.4827037   9.2680791  )
         9           O1  tau(   9) = (   3.2934429   5.9466490  11.3040654  )
        10           O1  tau(  10) = (   0.0116148   5.9584955  10.6183126  )
        11           O1  tau(  11) = (   1.2867109   1.4782735  12.6190062  )
        12           O1  tau(  12) = (   5.2776945   1.4764076  12.5976694  )
        13           Ti1 tau(  13) = (   0.0846880   2.9559742  12.7004455  )
        14           Ti1 tau(  14) = (   3.4192946   1.4610250  12.4797112  )
        15           O1  tau(  15) = (   0.0040618   5.9510889  14.6015872  )
        16           O1  tau(  16) = (   3.2972055   5.9566395  13.8969661  )
        17           O1  tau(  17) = (   4.5327346   1.5242580  16.0225792  )
        18           O1  tau(  18) = (   2.0474321   1.5095568  15.9818283  )
        19           Ti1 tau(  19) = (   3.2830006   2.9631064  15.6531525  )
        20           Ti1 tau(  20) = (   6.5418150   1.5417905  15.9635021  )
        21           O1  tau(  21) = (   3.2904802   0.0005063   4.7018136  )
        22           O1  tau(  22) = (   0.0063621   0.0138944  17.1794403  )
        23           O1  tau(  23) = (   1.3043587   1.4918075   6.0039043  )
        24           O1  tau(  24) = (   5.2767064   1.4903225   6.0039473  )
        25           Ti1 tau(  25) = (   0.0000382   5.9609847   6.0000000  )
        26           Ti1 tau(  26) = (   3.2902200   4.4714249   6.0002472  )
        27           O1  tau(  27) = (   0.0002396   2.9813036   7.9858123  )
        28           O1  tau(  28) = (   3.2902150   2.9813002   7.3038282  )
        29           O1  tau(  29) = (   4.5938453   4.4726049   9.2879030  )
        30           O1  tau(  30) = (   1.9864658   4.4711199   9.2879459  )
        31           Ti1 tau(  31) = (   3.2891106   5.8743827   9.1763621  )
        32           Ti1 tau(  32) = (   0.0006254   4.4649316   9.2693709  )
        33           O1  tau(  33) = (   3.2987291   2.9703105  11.3060640  )
        34           O1  tau(  34) = (   0.0092240   2.9805883  10.6323155  )
        35           O1  tau(  35) = (   1.2872851   4.4534926  12.6272766  )
        36           O1  tau(  36) = (   5.2800973   4.4624318  12.6062822  )
        37           Ti1 tau(  37) = (   0.1009857   5.9355968  12.6779778  )
        38           Ti1 tau(  38) = (   3.4194502   4.4581092  12.4739500  )
        39           O1  tau(  39) = (   6.5579784   2.9468049  14.6267102  )
        40           O1  tau(  40) = (   3.2950467   2.9662764  13.8528306  )
        41           O1  tau(  41) = (   4.5369278   4.4531499  15.9976687  )
        42           O1  tau(  42) = (   2.0426393   4.4597293  15.9709435  )
        43           Ti1 tau(  43) = (   3.2485613   5.9322867  15.7552632  )
        44           Ti1 tau(  44) = (   6.5504849   4.5932964  16.0494500  )
        45           O1  tau(  45) = (   3.2900926   2.9813045   4.7018136  )
        46           O1  tau(  46) = (   1.3039711   4.4726057   6.0039043  )
        47           O1  tau(  47) = (   5.2763189   4.4711207   6.0039473  )
        48           N1  tau(  48) = (   0.6156314   2.9572148  18.5116157  )
        49           N1  tau(  49) = (   0.0870375   2.9660652  17.3203775  )
        50           C1  tau(  50) = (   6.5561155   3.1780822  19.6039678  )
        51           H1  tau(  51) = (   5.4868456   3.3930584  19.6151425  )
        52           H1  tau(  52) = (   0.5344647   3.1546629  20.5288580  )
        53           O1  tau(  53) = (   3.2552377   5.9566958  18.1335742  )
        54           H1  tau(  54) = (   4.0111122   0.5273114  18.4085372  )
        55           H1  tau(  55) = (   2.4596908   0.4732500  18.4230009  )

     number of k points=    10  Fermi-Dirac smearing, width (Ry)=  0.0073
                       cart. coord. in units 2pi/alat
        k(    1) = (   0.0000000   0.0000000   0.0000000), wk =   0.1250000
        k(    2) = (   0.0000000   0.0419351   0.0000000), wk =   0.2500000
        k(    3) = (   0.0000000  -0.0838702   0.0000000), wk =   0.1250000
        k(    4) = (   0.0379955   0.0000049   0.0000000), wk =   0.2500000
        k(    5) = (   0.0379955   0.0419400   0.0000000), wk =   0.2500000
        k(    6) = (   0.0379955  -0.0838652   0.0000000), wk =   0.2500000
        k(    7) = (   0.0379955  -0.0419301   0.0000000), wk =   0.2500000
        k(    8) = (  -0.0759910  -0.0000099   0.0000000), wk =   0.1250000
        k(    9) = (  -0.0759910   0.0419252   0.0000000), wk =   0.2500000
        k(   10) = (  -0.0759910  -0.0838800   0.0000000), wk =   0.1250000

     Initial potential from superposition of free atoms

     starting charge  385.99915, renormalised to  402.00000

     negative rho (up, down):  1.463E-02 0.000E+00

     %%%%%%%%%%%%%%%%%%%%%%%%%%%%%%%%%%%%%%%%%%%%%%%%%%%%%%%%%%%%%%%%%%%%%%%%
     %                                                                      %
     % You are using vdW-DF, which was implemented by the Thonhauser group. %
     % Please cite the following two papers that made this development      %
     % possible and the two reviews that describe the various versions:     %
     %                                                                      %
     %   T. Thonhauser et al., PRL 115, 136402 (2015).                      %
     %   T. Thonhauser et al., PRB 76, 125112 (2007).                       %
     %   K. Berland et al., Rep. Prog. Phys. 78, 066501 (2015).             %
     %   D.C. Langreth et al., J. Phys.: Condens. Matter 21, 084203 (2009). %
     %                                                                      %
     %                                                                      %
     % If you are calculating the stress with vdW-DF, please also cite:     %
     %                                                                      %
     %   R. Sabatini et al., J. Phys.: Condens. Matter 24, 424209 (2012).   %
     %                                                                      %
     %%%%%%%%%%%%%%%%%%%%%%%%%%%%%%%%%%%%%%%%%%%%%%%%%%%%%%%%%%%%%%%%%%%%%%%%

     Adding external electric field

     Computed dipole along edir(3) :
        Dipole              -11.9608 Ry au,        -30.4013 Debye
        Dipole field         -0.0226 Ry au,

        Potential amp.        2.0924 Ry
        Total length         46.3494 bohr

     Starting wfcs are  304 atomic wfcs
  @ DRIVER MODE: Message from server: STATUS
  @ DRIVER MODE: Message from server: POSDATA
  @ DRIVER MODE: Reading and sharing cell
  @ DRIVER MODE: Reading and sharing positions
  @ DRIVER MODE: Received positions

     Self-consistent Calculation

     iteration #  1     ecut=    29.40 Ry     beta= 0.05
     Davidson diagonalization with overlap
     c_bands:  3 eigenvalues not converged
     c_bands:  1 eigenvalues not converged
     c_bands:  5 eigenvalues not converged
     c_bands:  3 eigenvalues not converged
     c_bands:  3 eigenvalues not converged
     c_bands:  2 eigenvalues not converged
     c_bands:  4 eigenvalues not converged
     c_bands:  4 eigenvalues not converged
     c_bands:  3 eigenvalues not converged
     ethr =  1.00E-05,  avg # of iterations = 21.6

[...]

     total energy              =   -2415.31685985 Ry
     estimated scf accuracy    <    6284.06428203 Ry

     iteration #  2     ecut=    29.40 Ry     beta= 0.05
     Davidson diagonalization with overlap
     ethr =  1.00E-02,  avg # of iterations = 23.5

[...]

     iteration # 42     ecut=    29.40 Ry     beta= 0.05
     Davidson diagonalization with overlap
     c_bands:  1 eigenvalues not converged
     ethr =  4.98E-07,  avg # of iterations =  7.4

[...]

     total energy              =   -2972.73808889 Ry
     estimated scf accuracy    <       0.00000008 Ry

     iteration # 64     ecut=    29.40 Ry     beta= 0.05
     Davidson diagonalization with overlap
     ethr =  1.96E-11,  avg # of iterations =  5.9

     negative rho (up, down):  1.529E-02 0.000E+00

     Adding external electric field

     Computed dipole along edir(3) :
        Dipole                0.6722 Ry au,          1.7085 Debye
        Dipole field          0.0013 Ry au,

        Potential amp.       -0.1176 Ry
        Total length         46.3494 bohr

     End of self-consistent calculation

          k = 0.0000 0.0000 0.0000 ( 18029 PWs)   bands (ev):

   -56.1193 -56.0854 -55.6565 -55.6227 -55.5643 -55.5399 -55.5300 -55.5044
   -55.4199 -55.3704 -55.3298 -55.2616 -54.9356 -54.9017 -54.8605 -54.8209
   -32.5710 -32.4104 -32.3829 -32.2794 -32.1948 -32.1865 -32.1238 -32.0727
   -32.0506 -31.8998 -31.8768 -31.8726 -31.8412 -31.8395 -31.8210 -31.7870
   -31.7771 -31.7741 -31.7603 -31.7587 -31.7536 -31.7193 -31.7174 -31.7102
   -31.6760 -31.6744 -31.6603 -31.6497 -31.6299 -31.5983 -31.5404 -31.5382
   -31.5086 -31.4820 -31.4543 -31.4218 -31.3914 -31.3357 -31.2647 -31.2413
   -31.1532 -31.1065 -31.0734 -31.0679 -31.0573 -31.0338 -30.9567 -30.9467
   -18.7360 -17.4854 -16.4399 -16.2209 -15.9857 -15.7470 -15.6960 -15.5797
   -15.5659 -15.5584 -15.4452 -15.4279 -15.3712 -15.2651 -15.1950 -15.1586
   -15.1053 -15.0969 -15.0731 -14.9798 -14.9657 -14.9491 -14.9377 -14.8631
   -14.8196 -14.7993 -14.6926 -14.6251 -14.5601 -14.5307 -14.2344 -13.4360
   -13.3227 -11.6629  -6.5508  -6.4644  -4.4130  -3.9407  -3.9310  -3.7208
    -3.5596  -3.4582  -3.3294  -3.3124  -3.1869  -3.0904  -2.9473  -2.8851
    -2.8775  -2.8061  -2.7837  -2.7747  -2.6393  -2.6004  -2.5582  -2.5350
    -2.5053  -2.4278  -2.4148  -2.3588  -2.3186  -2.2857  -2.1796  -2.1407
    -2.1010  -2.0859  -2.0618  -2.0167  -1.9804  -1.9586  -1.9497  -1.9351
    -1.8966  -1.8049  -1.7550  -1.6559  -1.6003  -1.4995  -1.4561  -1.4397
    -1.3736  -1.2865  -1.1637  -1.1509  -1.0800  -1.0429  -0.9934  -0.9661
    -0.8927  -0.8838  -0.8130  -0.7738  -0.6995  -0.6492  -0.6171  -0.5934
    -0.5707  -0.4748  -0.4254  -0.3475  -0.2889  -0.2325  -0.2115  -0.1183
    -0.0899  -0.0570  -0.0327   0.0248   0.0673   0.0845   0.1040   0.1299
     0.1625   0.1871   0.3072   0.3603   0.3736   0.4067   0.4312   0.5416
     0.6024   0.6777   0.7370   0.7781   0.8808   0.8967   0.9412   1.0668
     1.0796   1.0864   1.1450   1.3043   1.6189   1.6446   1.6856   1.7781
     2.9514   3.1092   3.2258   3.4475   3.5458   3.5806   3.8455   3.9524
     3.9901   4.0163   4.0261

[...]

          k = 0.0380-0.0419 0.0000 ( 17876 PWs)   bands (ev):

[...]

          k =-0.0760-0.0000 0.0000 ( 17886 PWs)   bands (ev):

[...]

          k =-0.0760-0.0839 0.0000 ( 17948 PWs)   bands (ev):

   -56.1023 -56.1022 -55.6417 -55.6372 -55.5502 -55.5441 -55.5235 -55.5205
   -55.4179 -55.3606 -55.3395 -55.2635 -54.9187 -54.9185 -54.8507 -54.8306
   -32.3961 -32.3958 -32.3869 -32.3868 -32.2311 -32.2310 -31.9485 -31.9432
   -31.8937 -31.8924 -31.8896 -31.8692 -31.8322 -31.8273 -31.8086 -31.8074
   -31.7913 -31.7877 -31.7650 -31.7592 -31.7561 -31.7506 -31.7502 -31.7443
   -31.7111 -31.6717 -31.6667 -31.6592 -31.6344 -31.6229 -31.5869 -31.5727
   -31.5657 -31.5295 -31.5145 -31.4625 -31.2723 -31.2542 -31.2541 -31.1582
   -31.1497 -31.1495 -31.1107 -31.1106 -31.0659 -31.0534 -31.0445 -31.0267
   -18.7350 -17.4797 -15.8150 -15.8096 -15.7429 -15.7390 -15.6699 -15.6073
   -15.5071 -15.5033 -15.4603 -15.3727 -15.2947 -15.2759 -15.2059 -15.1993
   -15.1976 -15.1888 -15.1202 -15.1098 -15.0749 -15.0520 -15.0266 -15.0231
   -14.9947 -14.9715 -14.7582 -14.7017 -14.6353 -14.5599 -14.4087 -13.4254
   -13.4253 -11.6680  -6.5340  -6.4711  -4.3673  -3.9228  -3.1515  -3.0174
    -2.9357  -2.9241  -2.9019  -2.8039  -2.7825  -2.7385  -2.7100  -2.6896
    -2.6143  -2.6028  -2.5509  -2.5453  -2.5121  -2.4948  -2.4413  -2.4314
    -2.4210  -2.4160  -2.3672  -2.3319  -2.3279  -2.3174  -2.2954  -2.2267
    -2.1646  -2.1266  -2.0885  -2.0726  -2.0702  -2.0133  -1.9880  -1.9546
    -1.9017  -1.8979  -1.8639  -1.8128  -1.6840  -1.6733  -1.5428  -1.4702
    -1.4517  -1.3730  -1.3226  -1.2895  -1.2198  -1.1659  -1.1366  -1.0293
    -1.0074  -0.9760  -0.9623  -0.9266  -0.9220  -0.8817  -0.7762  -0.7539
    -0.7156  -0.7118  -0.6337  -0.6033  -0.5501  -0.5294  -0.5173  -0.4747
    -0.4565  -0.3747  -0.3500  -0.2940  -0.2397  -0.1977  -0.1462  -0.0949
    -0.0128   0.0545   0.1085   0.1998   0.2029   0.2145   0.4202   0.4259
     0.5252   0.6082   0.7346   0.7602   0.7743   0.8781   0.9184   0.9418
     0.9694   1.1335   1.1752   1.4704   1.4720   1.5019   1.5023   1.7270
     2.8918   3.6429   3.6430   3.6790   3.6804   3.9123   3.9168   3.9646
     3.9707   4.0263   4.0504

     the Fermi energy is     3.0508 ev

!    total energy              =   -2972.73813547 Ry
     estimated scf accuracy    <       0.00000003 Ry
     smearing contrib. (-TS)   =      -0.01267564 Ry
     internal energy E=F+TS    =   -2972.72545983 Ry

     The total energy is F=E-TS. E is the sum of the following terms:
     one-electron contribution =  -24071.41475821 Ry
     hartree contribution      =   12129.30899605 Ry
     xc contribution           =    -493.18479693 Ry
     ewald contribution        =    9462.56424659 Ry
     electric field correction =       0.00085267 Ry

     convergence has been achieved in  64 iterations

     Forces acting on atoms (cartesian axes, Ry/au):

     atom    1 type  1   force =     0.00013260   -0.00030094    0.10882571
     atom    2 type  1   force =    -0.00011906   -0.00041297   -0.16771971
     atom    3 type  2   force =    -0.00015569   -0.00000947   -0.04385830
     atom    4 type  2   force =     0.00004951   -0.00075217    0.03932785
     atom    5 type  2   force =    -0.01329457    0.00016967   -0.00457968
     atom    6 type  2   force =     0.01489158    0.00104197   -0.00540302
     atom    7 type  1   force =    -0.00093881   -0.00250738    0.01167505
     atom    8 type  1   force =     0.00124724    0.00154071    0.07745062
     atom    9 type  2   force =    -0.00005215   -0.00014831   -0.00022888
     atom   10 type  2   force =    -0.00115053    0.00038899   -0.05118542
     atom   11 type  2   force =    -0.00007892    0.00036297    0.00009064
     atom   12 type  2   force =    -0.00001217    0.00024814    0.00005073
     atom   13 type  1   force =     0.00046599    0.00001733    0.00005042
     atom   14 type  1   force =    -0.00024182   -0.00007310    0.00013510
     atom   15 type  2   force =    -0.00020179   -0.00011558    0.00038588
     atom   16 type  2   force =     0.00013212    0.00001427   -0.00002668
     atom   17 type  2   force =    -0.00080487    0.00034113   -0.00012302
     atom   18 type  2   force =     0.00038506    0.00028901   -0.00007522
     atom   19 type  1   force =     0.00038731   -0.00011931    0.00006869
     atom   20 type  1   force =    -0.00018476    0.00040763   -0.00003494
     atom   21 type  2   force =     0.00007774    0.00005625    0.10126014
     atom   22 type  2   force =    -0.00003072   -0.00008638   -0.00003070
     atom   23 type  2   force =    -0.07509751   -0.00002691   -0.03017653
     atom   24 type  2   force =     0.07507039    0.00042748   -0.03017493
     atom   25 type  1   force =     0.00020963   -0.00029349    0.10846763
     atom   26 type  1   force =    -0.00010571   -0.00044650   -0.16774284
     atom   27 type  2   force =    -0.00002094   -0.00025324   -0.04286087
     atom   28 type  2   force =     0.00011501   -0.00047322    0.03868880
     atom   29 type  2   force =    -0.01361290    0.00094968   -0.00481050
     atom   30 type  2   force =     0.01514557    0.00121189   -0.00568683
     atom   31 type  1   force =    -0.00125706    0.00051173    0.00737309
     atom   32 type  1   force =     0.00133240   -0.00408941    0.07788676
     atom   33 type  2   force =    -0.00005647    0.00012440   -0.00025810
     atom   34 type  2   force =    -0.00138004    0.00034726   -0.05724241
     atom   35 type  2   force =    -0.00001361   -0.00049957   -0.00004938
     atom   36 type  2   force =    -0.00035802   -0.00022202   -0.00015039
     atom   37 type  1   force =    -0.00006750   -0.00001545   -0.00025402
     atom   38 type  1   force =    -0.00019696    0.00020756   -0.00013455
     atom   39 type  2   force =     0.00001193   -0.00002698   -0.00051623
     atom   40 type  2   force =    -0.00001266    0.00028778    0.00022798
     atom   41 type  2   force =    -0.00008346   -0.00011500    0.00003203
     atom   42 type  2   force =    -0.00026467    0.00005796   -0.00004471
     atom   43 type  1   force =     0.00033726    0.00075219   -0.00002209
     atom   44 type  1   force =    -0.00007420    0.00011931    0.00023581
     atom   45 type  2   force =     0.00006861    0.00003906    0.10122070
     atom   46 type  2   force =    -0.07508716    0.00004196   -0.03013624
     atom   47 type  2   force =     0.07506140    0.00047558   -0.03014823
     atom   48 type  3   force =     0.00010636   -0.00000059    0.00030390
     atom   49 type  3   force =     0.00020042    0.00019783    0.00002653
     atom   50 type  4   force =    -0.00017487    0.00009516   -0.00000713
     atom   51 type  5   force =     0.00022519    0.00051467   -0.00022179
     atom   52 type  5   force =    -0.00020454   -0.00017199    0.00004001
     atom   53 type  2   force =    -0.01198557   -0.00626423   -0.00299968
     atom   54 type  5   force =     0.01253299    0.00692181    0.00382223
     atom   55 type  5   force =    -0.00086657   -0.00073711   -0.00074328

     Total force =     0.391017     Total SCF correction =     0.000561
  @ DRIVER MODE: Message from server: STATUS
  @ DRIVER MODE: Message from server: GETFORCE
  @ DRIVER MODE: Returning v,forces,stress,ensemble

     Writing output data file ./calc.save/
  @ DRIVER MODE: Message from server: EXIT
  @ DRIVE MODE: Exiting

     General routines

     Parallel routines

   This run was terminated on:   4: 6:30  16Sep2021

   JOB DONE.