     Program PWSCF v.6.7GPU starts on 16Sep2021 at  3:53: 0

     R & G space division:  proc/nbgrp/npool/nimage =      10
     Reading input from /storage/home/hcoda1/3/ntian30/research/carbon/CxH_vib/H2O_calc/ads_slab/CHN2HH2O_a/out_0040/pw.inp
Warning: card &CELL ignored
Warning: card   CELL_DYNAMICS='IPI', ignored
Warning: card / ignored

     Current dimensions of program PWSCF are:
     Max number of different atomic species (ntypx) = 10
     Max number of k-points (npk) =  40000
     Max angular momentum in pseudopotentials (lmaxx) =  3
     Presently no symmetry can be used with electric field

     Message from routine cell_base_init:
     DEPRECATED: use true lattice parameter, not A to a.u. conversion factor

     IMPORTANT: XC functional enforced from input :
     Exchange-correlation= BEEF-VDW
                           (   1   4  43  14   2   0   0)
     Any further DFT definition will be discarded
     Please, verify this is what you really want

  @ DRIVER MODE: Connecting to
 qe_1139763_2852626.sched-torque.pace.gatech.eduyxhyr9fl_scratch
  using UNIX socket
  @ DRIVER MODE: Message from server: STATUS
  @ DRIVER MODE: Message from server: INIT
  @ DRIVER MODE: Receiving replica           0          -1
  @ DRIVER MODE: Receiving encoded integer          25
  @ DRIVER MODE:  SCF:  T  FORCE:  T  STRESS:  F  VC:  F  ENSEMBLE:  F
  @ DRIVER MODE:  SCF:  T  FORCE:  T  STRESS:  F  VC:  F  ENSEMBLE:  F

     Using Slab Decomposition

     bravais-lattice index     =            0
     lattice parameter (alat)  =       1.8897  a.u.
     unit-cell volume          =    6658.9804 (a.u.)^3
     number of atoms/cell      =           55
     number of atomic types    =            5
     number of electrons       =       402.00
     number of Kohn-Sham states=          211
     kinetic-energy cutoff     =      29.3995  Ry
     charge density cutoff     =     293.9946  Ry
     scf convergence threshold =      7.3E-08
     mixing beta               =       0.0500
     number of iterations used =            8  plain     mixing
     Exchange-correlation= BEEF-VDW
                           (   1   4  43  14   2   0   0)

     celldm(1)=   1.889726  celldm(2)=   0.000000  celldm(3)=   0.000000
     celldm(4)=   0.000000  celldm(5)=   0.000000  celldm(6)=   0.000000

     crystal axes: (cart. coord. in units of alat)
               a(1) = (   6.579727   0.000000   0.000000 )
               a(2) = (  -0.000775   5.961596   0.000000 )
               a(3) = (   0.000000   0.000000  25.155947 )

     reciprocal axes: (cart. coord. in units 2 pi/alat)
               b(1) = (  0.151982  0.000020  0.000000 )
               b(2) = (  0.000000  0.167740  0.000000 )
               b(3) = (  0.000000  0.000000  0.039752 )

     PseudoPot. # 1 for Ti read from file:
     /storage/coda1/p-amedford6/0/shared/rich_project_chbe-medford/medford-share/data/pseudos_module/espresso/nninc/pbe/van/Ti.UPF
     MD5 check sum: 8e4df49b7f0d34bbd5052bf3f5ea0213
     Pseudo is Ultrasoft, Zval = 12.0
     Generated by new atomic code, or converted to UPF format
     Using radial grid of  851 points,  6 beta functions with:
                l(1) =   0
                l(2) =   0
                l(3) =   1
                l(4) =   1
                l(5) =   2
                l(6) =   2
     Q(r) pseudized with  8 coefficients,  rinner =    1.000   1.000   1.000
                                                       1.000   1.000

     PseudoPot. # 2 for O  read from file:
     /storage/coda1/p-amedford6/0/shared/rich_project_chbe-medford/medford-share/data/pseudos_module/espresso/nninc/pbe/van/O.UPF
     MD5 check sum: 78c19812648e8988a0fe644b0f25305e
     Pseudo is Ultrasoft, Zval =  6.0
     Generated by new atomic code, or converted to UPF format
     Using radial grid of  737 points,  4 beta functions with:
                l(1) =   0
                l(2) =   0
                l(3) =   1
                l(4) =   1
     Q(r) pseudized with  8 coefficients,  rinner =    0.800   0.800   0.800

     PseudoPot. # 3 for N  read from file:
     /storage/coda1/p-amedford6/0/shared/rich_project_chbe-medford/medford-share/data/pseudos_module/espresso/nninc/pbe/van/N.UPF
     MD5 check sum: 90d10febe142ad51ac9d5be1deb811c4
     Pseudo is Ultrasoft, Zval =  5.0
     Generated by new atomic code, or converted to UPF format
     Using radial grid of  729 points,  4 beta functions with:
                l(1) =   0
                l(2) =   0
                l(3) =   1
                l(4) =   1
     Q(r) pseudized with  8 coefficients,  rinner =    0.800   0.800   0.800

     PseudoPot. # 4 for C  read from file:
     /storage/coda1/p-amedford6/0/shared/rich_project_chbe-medford/medford-share/data/pseudos_module/espresso/nninc/pbe/van/C.UPF
     MD5 check sum: 1a69bf6b8db32088f5b2163dbdb77a27
     Pseudo is Ultrasoft, Zval =  4.0
     Generated by new atomic code, or converted to UPF format
     Using radial grid of  721 points,  4 beta functions with:
                l(1) =   0
                l(2) =   0
                l(3) =   1
                l(4) =   1
     Q(r) pseudized with  8 coefficients,  rinner =    0.800   0.800   0.800

     PseudoPot. # 5 for H  read from file:
     /storage/coda1/p-amedford6/0/shared/rich_project_chbe-medford/medford-share/data/pseudos_module/espresso/nninc/pbe/van/H.UPF
     MD5 check sum: b5ee9d7bfd3a09ee7748110bda690ff7
     Pseudo is Ultrasoft, Zval =  1.0
     Generated by new atomic code, or converted to UPF format
     Using radial grid of  615 points,  1 beta functions with:
                l(1) =   0
     Q(r) pseudized with  8 coefficients,  rinner =    0.800

     atomic species   valence    mass     pseudopotential
        Ti1           12.00    47.86700     Ti( 1.00)
        O1             6.00    15.99900     O ( 1.00)
        N1             5.00    14.00700     N ( 1.00)
        C1             4.00    12.01100     C ( 1.00)
        H1             1.00     1.00800     H ( 1.00)

     No symmetry found

   Cartesian axes

     site n.     atom                  positions (alat units)
         1           Ti1 tau(   1) = (   0.0004258   2.9801865   6.0000000  )
         2           Ti1 tau(   2) = (   3.2906075   1.4906267   6.0002472  )
         3           O1  tau(   3) = (   0.0006271   0.0005054   7.9858123  )
         4           O1  tau(   4) = (   3.2906025   0.0005020   7.3038282  )
         5           O1  tau(   5) = (   4.5942328   1.4918067   9.2879030  )
         6           O1  tau(   6) = (   1.9868534   1.4903216   9.2879459  )
         7           Ti1 tau(   7) = (   3.2907910   2.8959150   9.1758416  )
         8           Ti1 tau(   8) = (   0.0015273   1.4827037   9.2680791  )
         9           O1  tau(   9) = (   3.2768631   0.0039008  11.3091060  )
        10           O1  tau(  10) = (   0.0116148   5.9584955  10.6183126  )
        11           O1  tau(  11) = (   1.2710838   1.4709840  12.6395574  )
        12           O1  tau(  12) = (   5.2772223   1.5075092  12.6020671  )
        13           Ti1 tau(  13) = (   0.0276258   2.9086511  12.7028215  )
        14           Ti1 tau(  14) = (   3.3492493   1.4375301  12.4845766  )
        15           O1  tau(  15) = (   6.5006329   5.9509897  14.6081112  )
        16           O1  tau(  16) = (   3.3450391   0.0041935  13.9069437  )
        17           O1  tau(  17) = (   4.5555219   1.5659029  16.0522165  )
        18           O1  tau(  18) = (   1.9836904   1.4119734  15.8927236  )
        19           Ti1 tau(  19) = (   3.2827818   2.9316656  15.8555152  )
        20           Ti1 tau(  20) = (   6.5629331   1.3437128  15.9803530  )
        21           O1  tau(  21) = (   3.2904802   0.0005063   4.7018136  )
        22           O1  tau(  22) = (   6.5074089   5.9525318  17.1494500  )
        23           O1  tau(  23) = (   1.3043587   1.4918075   6.0039043  )
        24           O1  tau(  24) = (   5.2767064   1.4903225   6.0039473  )
        25           Ti1 tau(  25) = (   0.0000382   5.9609847   6.0000000  )
        26           Ti1 tau(  26) = (   3.2902200   4.4714249   6.0002472  )
        27           O1  tau(  27) = (   0.0002396   2.9813036   7.9858123  )
        28           O1  tau(  28) = (   3.2902150   2.9813002   7.3038282  )
        29           O1  tau(  29) = (   4.5938453   4.4726049   9.2879030  )
        30           O1  tau(  30) = (   1.9864658   4.4711199   9.2879459  )
        31           Ti1 tau(  31) = (   3.2891106   5.8743827   9.1763621  )
        32           Ti1 tau(  32) = (   0.0006254   4.4649316   9.2693709  )
        33           O1  tau(  33) = (   3.2854303   2.9668816  11.2996989  )
        34           O1  tau(  34) = (   0.0092240   2.9805883  10.6323155  )
        35           O1  tau(  35) = (   1.2743094   4.4851408  12.6236879  )
        36           O1  tau(  36) = (   5.2782958   4.4707264  12.5946799  )
        37           Ti1 tau(  37) = (   0.0481499   5.8920156  12.5607908  )
        38           Ti1 tau(  38) = (   3.3544845   4.3749597  12.5572158  )
        39           O1  tau(  39) = (   6.5410016   3.0017514  14.6365314  )
        40           O1  tau(  40) = (   3.2441134   3.0029108  13.8718978  )
        41           O1  tau(  41) = (   4.5385932   4.4028810  16.0550583  )
        42           O1  tau(  42) = (   1.9619458   4.5383001  15.8611175  )
        43           Ti1 tau(  43) = (   3.2178196   5.9097812  15.7399460  )
        44           Ti1 tau(  44) = (   6.5330930   4.4908980  15.8705378  )
        45           O1  tau(  45) = (   3.2900926   2.9813045   4.7018136  )
        46           O1  tau(  46) = (   1.3039711   4.4726057   6.0039043  )
        47           O1  tau(  47) = (   5.2763189   4.4711207   6.0039473  )
        48           N1  tau(  48) = (   1.2867840   3.0293760  18.3347772  )
        49           C1  tau(  49) = (   2.5003166   3.0326976  17.9707196  )
        50           H1  tau(  50) = (   3.2053588   3.1791635  18.8000936  )
        51           N1  tau(  51) = (   0.2138509   2.9871109  17.4421441  )
        52           H1  tau(  52) = (   5.9621615   2.9869774  18.0311354  )
        53           O1  tau(  53) = (   3.4290693   5.9360351  18.0748810  )
        54           H1  tau(  54) = (   4.3780305   0.1427944  18.2306609  )
        55           H1  tau(  55) = (   2.9458904   0.7245148  18.4607207  )

     number of k points=    10  Fermi-Dirac smearing, width (Ry)=  0.0073
                       cart. coord. in units 2pi/alat
        k(    1) = (   0.0000000   0.0000000   0.0000000), wk =   0.1250000
        k(    2) = (   0.0000000   0.0419351   0.0000000), wk =   0.2500000
        k(    3) = (   0.0000000  -0.0838702   0.0000000), wk =   0.1250000
        k(    4) = (   0.0379955   0.0000049   0.0000000), wk =   0.2500000
        k(    5) = (   0.0379955   0.0419400   0.0000000), wk =   0.2500000
        k(    6) = (   0.0379955  -0.0838652   0.0000000), wk =   0.2500000
        k(    7) = (   0.0379955  -0.0419301   0.0000000), wk =   0.2500000
        k(    8) = (  -0.0759910  -0.0000099   0.0000000), wk =   0.1250000
        k(    9) = (  -0.0759910   0.0419252   0.0000000), wk =   0.2500000
        k(   10) = (  -0.0759910  -0.0838800   0.0000000), wk =   0.1250000

     Initial potential from superposition of free atoms

     starting charge  385.99915, renormalised to  402.00000

     negative rho (up, down):  1.831E-02 0.000E+00

     %%%%%%%%%%%%%%%%%%%%%%%%%%%%%%%%%%%%%%%%%%%%%%%%%%%%%%%%%%%%%%%%%%%%%%%%
     %                                                                      %
     % You are using vdW-DF, which was implemented by the Thonhauser group. %
     % Please cite the following two papers that made this development      %
     % possible and the two reviews that describe the various versions:     %
     %                                                                      %
     %   T. Thonhauser et al., PRL 115, 136402 (2015).                      %
     %   T. Thonhauser et al., PRB 76, 125112 (2007).                       %
     %   K. Berland et al., Rep. Prog. Phys. 78, 066501 (2015).             %
     %   D.C. Langreth et al., J. Phys.: Condens. Matter 21, 084203 (2009). %
     %                                                                      %
     %                                                                      %
     % If you are calculating the stress with vdW-DF, please also cite:     %
     %                                                                      %
     %   R. Sabatini et al., J. Phys.: Condens. Matter 24, 424209 (2012).   %
     %                                                                      %
     %%%%%%%%%%%%%%%%%%%%%%%%%%%%%%%%%%%%%%%%%%%%%%%%%%%%%%%%%%%%%%%%%%%%%%%%

     Adding external electric field

     Computed dipole along edir(3) :
        Dipole              -11.0899 Ry au,        -28.1877 Debye
        Dipole field         -0.0209 Ry au,

        Potential amp.        1.9400 Ry
        Total length         46.3494 bohr

     Starting wfcs are  304 atomic wfcs
  @ DRIVER MODE: Message from server: STATUS
  @ DRIVER MODE: Message from server: POSDATA
  @ DRIVER MODE: Reading and sharing cell
  @ DRIVER MODE: Reading and sharing positions
  @ DRIVER MODE: Received positions

     Self-consistent Calculation

     iteration #  1     ecut=    29.40 Ry     beta= 0.05
     Davidson diagonalization with overlap
     c_bands:  5 eigenvalues not converged
     c_bands:  1 eigenvalues not converged
     c_bands:  3 eigenvalues not converged
     c_bands:  4 eigenvalues not converged
     c_bands:  1 eigenvalues not converged
     c_bands:  1 eigenvalues not converged
     c_bands:  1 eigenvalues not converged
     c_bands:  1 eigenvalues not converged
     ethr =  1.00E-05,  avg # of iterations = 28.9

[...]

     total energy              =   -2403.82293765 Ry
     estimated scf accuracy    <    6374.28910902 Ry

     iteration #  2     ecut=    29.40 Ry     beta= 0.05
     Davidson diagonalization with overlap
     ethr =  1.00E-02,  avg # of iterations = 24.3

[...]

     iteration # 52     ecut=    29.40 Ry     beta= 0.05
     Davidson diagonalization with overlap
     c_bands:  1 eigenvalues not converged
     ethr =  1.19E-06,  avg # of iterations = 12.3

[...]

     total energy              =   -2972.69115867 Ry
     estimated scf accuracy    <       0.00000008 Ry

     iteration # 76     ecut=    29.40 Ry     beta= 0.05
     Davidson diagonalization with overlap
     ethr =  2.03E-11,  avg # of iterations =  5.3

     negative rho (up, down):  1.793E-02 0.000E+00

     Adding external electric field

     Computed dipole along edir(3) :
        Dipole                0.3624 Ry au,          0.9211 Debye
        Dipole field          0.0007 Ry au,

        Potential amp.       -0.0634 Ry
        Total length         46.3494 bohr

     End of self-consistent calculation

          k = 0.0000 0.0000 0.0000 ( 18029 PWs)   bands (ev):

   -56.3430 -56.3092 -55.9410 -55.9073 -55.7529 -55.7164 -55.5611 -55.5564
   -55.5481 -55.5246 -55.5147 -55.4519 -55.2537 -55.2402 -55.1467 -55.1128
   -32.7965 -32.6356 -32.6087 -32.5012 -32.4204 -32.4161 -32.4083 -32.2417
   -32.1585 -32.1543 -32.0958 -32.0831 -32.0689 -32.0441 -32.0386 -31.9789
   -31.9757 -31.9672 -31.9340 -31.9101 -31.9095 -31.8667 -31.8519 -31.8434
   -31.8187 -31.7810 -31.7599 -31.7325 -31.7294 -31.7104 -31.7086 -31.7057
   -31.6901 -31.6704 -31.6535 -31.6394 -31.5517 -31.5454 -31.5128 -31.4989
   -31.4773 -31.4703 -31.4539 -31.4412 -31.3635 -31.3336 -31.2785 -31.1669
   -18.7449 -16.9400 -16.6599 -16.3480 -16.1461 -15.9628 -15.8996 -15.8406
   -15.7882 -15.6674 -15.6055 -15.5771 -15.5051 -15.4000 -15.3806 -15.3535
   -15.3023 -15.2854 -15.2684 -15.2392 -15.1854 -15.1516 -15.1335 -15.0579
   -15.0364 -15.0246 -14.9003 -14.8326 -14.8084 -14.7733 -14.5209 -13.6454
   -13.5325 -12.2820  -6.7281  -6.4992  -4.1617  -4.0810  -3.9066  -3.7738
    -3.6673  -3.6190  -3.4647  -3.4146  -3.3655  -3.2758  -3.1205  -3.0885
    -3.0158  -2.9654  -2.9230  -2.8644  -2.8050  -2.7603  -2.7187  -2.6355
    -2.6302  -2.6179  -2.5997  -2.5811  -2.5641  -2.4480  -2.3565  -2.3386
    -2.3151  -2.2722  -2.2533  -2.2410  -2.1906  -2.1613  -2.0778  -2.0684
    -2.0213  -1.9633  -1.9168  -1.8086  -1.7967  -1.7228  -1.7032  -1.6615
    -1.5302  -1.4059  -1.3753  -1.3229  -1.3121  -1.2262  -1.2050  -1.1772
    -1.0795  -1.0672  -1.0233  -1.0015  -0.8771  -0.8513  -0.8035  -0.7958
    -0.7659  -0.6703  -0.6323  -0.5206  -0.4763  -0.4310  -0.4217  -0.3468
    -0.3182  -0.2739  -0.2236  -0.1705  -0.1685  -0.1406  -0.0580  -0.0162
     0.0295   0.0780   0.1138   0.2020   0.2556   0.2922   0.3065   0.3950
     0.4378   0.4530   0.5183   0.5870   0.6382   0.7047   0.7482   0.8622
     0.8769   0.8942   0.9763   1.0990   1.4085   1.4301   1.4704   1.6592
     2.6479   2.8803   3.0011   3.1653   3.3104   3.3600   3.6296   3.6847
     3.7276   3.7605   3.8363

[...]

          k = 0.0380-0.0419 0.0000 ( 17876 PWs)   bands (ev):

[...]

          k =-0.0760-0.0000 0.0000 ( 17886 PWs)   bands (ev):

[...]

          k =-0.0760-0.0839 0.0000 ( 17948 PWs)   bands (ev):

   -56.3266 -56.3255 -55.9259 -55.9222 -55.7415 -55.7277 -55.5561 -55.5453
   -55.5387 -55.5337 -55.5298 -55.4504 -55.2549 -55.2412 -55.1297 -55.1297
   -32.6216 -32.6205 -32.6126 -32.6122 -32.4535 -32.4523 -32.2415 -32.2374
   -32.1312 -32.1278 -32.1183 -32.1110 -32.0417 -32.0315 -31.9696 -31.9596
   -31.9501 -31.9474 -31.8988 -31.8885 -31.8675 -31.8655 -31.8590 -31.8283
   -31.8129 -31.7822 -31.7750 -31.7587 -31.7560 -31.7479 -31.7467 -31.7313
   -31.7264 -31.7169 -31.7056 -31.6361 -31.6091 -31.5559 -31.5262 -31.5112
   -31.4749 -31.4668 -31.4668 -31.3597 -31.3595 -31.3351 -31.3212 -31.3211
   -18.7425 -16.9186 -16.0643 -16.0520 -15.9342 -15.9292 -15.7506 -15.7322
   -15.6984 -15.6731 -15.6364 -15.5503 -15.4855 -15.4778 -15.4710 -15.4073
   -15.3621 -15.3530 -15.3339 -15.3060 -15.2796 -15.2540 -15.1619 -15.1358
   -15.1320 -15.1023 -15.0207 -15.0084 -14.9482 -14.8112 -14.7393 -13.6355
   -13.6350 -12.3033  -6.7028  -6.4280  -3.9950  -3.8342  -3.2348  -3.1939
    -3.1752  -3.0659  -3.0404  -2.9648  -2.8683  -2.8523  -2.8363  -2.8025
    -2.7776  -2.7693  -2.7533  -2.7085  -2.6613  -2.6392  -2.6234  -2.6149
    -2.6097  -2.5965  -2.5663  -2.5382  -2.4793  -2.4702  -2.4374  -2.4183
    -2.3899  -2.3135  -2.3055  -2.2896  -2.2882  -2.2322  -2.1330  -2.1175
    -2.1087  -2.0656  -2.0011  -1.9314  -1.8429  -1.8016  -1.7362  -1.6794
    -1.6227  -1.5944  -1.5818  -1.4827  -1.4234  -1.4130  -1.3657  -1.3130
    -1.2351  -1.1976  -1.1602  -1.1487  -1.1362  -1.0958  -1.0447  -0.9854
    -0.8704  -0.8463  -0.8359  -0.7728  -0.7686  -0.7585  -0.6489  -0.6185
    -0.5676  -0.5424  -0.5227  -0.4845  -0.4552  -0.3823  -0.2894  -0.2431
    -0.1150  -0.0988  -0.0445   0.0029   0.0149   0.1061   0.1946   0.2186
     0.3572   0.3715   0.4038   0.5364   0.6064   0.6574   0.6746   0.7974
     0.8168   0.8524   1.0192   1.2634   1.2678   1.2867   1.2879   1.6095
     2.6247   3.4195   3.4217   3.4517   3.4538   3.6638   3.6772   3.7554
     3.7930   3.8849   3.9060

     the Fermi energy is     2.8217 ev

!    total energy              =   -2972.69116919 Ry
     estimated scf accuracy    <       0.00000006 Ry
     smearing contrib. (-TS)   =      -0.01345623 Ry
     internal energy E=F+TS    =   -2972.67771296 Ry

     The total energy is F=E-TS. E is the sum of the following terms:
     one-electron contribution =  -24586.72051798 Ry
     hartree contribution      =   12385.37592563 Ry
     xc contribution           =    -493.17344018 Ry
     ewald contribution        =    9721.84007172 Ry
     electric field correction =       0.00024785 Ry

     convergence has been achieved in  76 iterations

     Forces acting on atoms (cartesian axes, Ry/au):

     atom    1 type  1   force =    -0.00000946   -0.00028471    0.10605559
     atom    2 type  1   force =    -0.00022080   -0.00076576   -0.16691954
     atom    3 type  2   force =    -0.00002382   -0.00013703   -0.03890753
     atom    4 type  2   force =    -0.00009851   -0.00037865    0.03645533
     atom    5 type  2   force =    -0.00755402   -0.00012850   -0.00578291
     atom    6 type  2   force =     0.00856856    0.00078069   -0.00747251
     atom    7 type  1   force =    -0.00079471   -0.00146412    0.01973656
     atom    8 type  1   force =     0.00110370    0.01828135    0.06310258
     atom    9 type  2   force =    -0.00008475   -0.00019760    0.00034748
     atom   10 type  2   force =    -0.00265032    0.00203228   -0.04761693
     atom   11 type  2   force =    -0.00023604   -0.00001423    0.00012273
     atom   12 type  2   force =     0.00037538   -0.00013157    0.00008885
     atom   13 type  1   force =     0.00006442   -0.00011306   -0.00043184
     atom   14 type  1   force =    -0.00049137    0.00001048    0.00002456
     atom   15 type  2   force =     0.00026631    0.00009283   -0.00028297
     atom   16 type  2   force =    -0.00012569   -0.00028646    0.00061952
     atom   17 type  2   force =     0.00006692   -0.00027217    0.00046305
     atom   18 type  2   force =     0.00013563    0.00008689   -0.00026499
     atom   19 type  1   force =     0.00003114    0.00016104    0.00119435
     atom   20 type  1   force =     0.00028459    0.00023636   -0.00004526
     atom   21 type  2   force =     0.00004991   -0.00001862    0.10088615
     atom   22 type  2   force =     0.00033478    0.00033853    0.00046823
     atom   23 type  2   force =    -0.07579804   -0.00011884   -0.02985678
     atom   24 type  2   force =     0.07568893    0.00033689   -0.02986445
     atom   25 type  1   force =     0.00020126   -0.00055979    0.10641130
     atom   26 type  1   force =    -0.00006660   -0.00026859   -0.16735937
     atom   27 type  2   force =    -0.00006234   -0.00032112   -0.03755821
     atom   28 type  2   force =     0.00007095   -0.00045663    0.03691320
     atom   29 type  2   force =    -0.00852589    0.00126306   -0.00517804
     atom   30 type  2   force =     0.00947943    0.00122387   -0.00689555
     atom   31 type  1   force =    -0.00129716   -0.00008665    0.02605806
     atom   32 type  1   force =     0.00115981   -0.02138272    0.06367646
     atom   33 type  2   force =    -0.00002395    0.00024806   -0.00003659
     atom   34 type  2   force =    -0.00008280    0.00090760   -0.05941284
     atom   35 type  2   force =    -0.00008717    0.00008919   -0.00012622
     atom   36 type  2   force =    -0.00010948    0.00036565   -0.00014659
     atom   37 type  1   force =     0.00002120   -0.00031684    0.00000691
     atom   38 type  1   force =    -0.00042452   -0.00010197   -0.00014436
     atom   39 type  2   force =    -0.00020850    0.00037935    0.00053856
     atom   40 type  2   force =     0.00045404    0.00012369   -0.00036993
     atom   41 type  2   force =    -0.00008609    0.00033010   -0.00014696
     atom   42 type  2   force =     0.00050281    0.00021316    0.00012489
     atom   43 type  1   force =    -0.00039835   -0.00006609   -0.00016877
     atom   44 type  1   force =     0.00033427    0.00005687   -0.00032086
     atom   45 type  2   force =     0.00002669   -0.00000245    0.10092324
     atom   46 type  2   force =    -0.07580918   -0.00010663   -0.02981131
     atom   47 type  2   force =     0.07567940    0.00032010   -0.02984853
     atom   48 type  3   force =    -0.00004719    0.00024807   -0.00001018
     atom   49 type  4   force =     0.00088837    0.00092306    0.00100101
     atom   50 type  5   force =    -0.00029779   -0.00132851   -0.00026306
     atom   51 type  3   force =     0.00019106    0.00003471   -0.00026379
     atom   52 type  5   force =     0.00000605    0.00033804    0.00026494
     atom   53 type  2   force =     0.00312856    0.00180206    0.00046560
     atom   54 type  5   force =    -0.00262424   -0.00161722   -0.00061840
     atom   55 type  5   force =    -0.00087539   -0.00029746    0.00017610

     Total force =     0.383593     Total SCF correction =     0.000585
  @ DRIVER MODE: Message from server: STATUS
  @ DRIVER MODE: Message from server: GETFORCE
  @ DRIVER MODE: Returning v,forces,stress,ensemble

     Writing output data file ./calc.save/
  @ DRIVER MODE: Message from server: EXIT
  @ DRIVE MODE: Exiting

     General routines

     Parallel routines

   This run was terminated on:   4:12: 9  16Sep2021

   JOB DONE.