     Program PWSCF v.6.8 starts on 30Aug2021 at 14:39:24

     R & G space division:  proc/nbgrp/npool/nimage =      24

     Reading input from /storage/home/hcoda1/3/ntian30/research/carbon/methanol/ads_slab/CH3OHN2_Q/methanol.log/pw.inp
Warning: card &CELL ignored
Warning: card   CELL_DYNAMICS='IPI', ignored
Warning: card / ignored

     Current dimensions of program PWSCF are:
     Max number of different atomic species (ntypx) = 10
     Max number of k-points (npk) =  40000
     Max angular momentum in pseudopotentials (lmaxx) =  4
     Presently no symmetry can be used with electric field

     Message from routine cell_base_init:
     DEPRECATED: use true lattice parameter, not A to a.u. conversion factor

     IMPORTANT: XC functional enforced from input :
     Exchange-correlation= BEEF-VDW
                           (   1   4  43  14   2   0   0)
     Any further DFT definition will be discarded
     Please, verify this is what you really want

  @ DRIVER MODE: Connecting to
 qe_1139763_2685201.sched-torque.pace.gatech.eduzt4gz3m2_scratch
  using UNIX socket
  @ DRIVER MODE: Message from server: STATUS
  @ DRIVER MODE: Message from server: INIT
  @ DRIVER MODE: Receiving replica           0          -1
  @ DRIVER MODE: Receiving encoded integer          25
  @ DRIVER MODE:  SCF:  T  FORCE:  T  STRESS:  F  VC:  F  ENSEMBLE:  F
  @ DRIVER MODE:  SCF:  T  FORCE:  T  STRESS:  F  VC:  F  ENSEMBLE:  F

     Using Slab Decomposition

     bravais-lattice index     =            0
     lattice parameter (alat)  =       1.8897  a.u.
     unit-cell volume          =    6658.9804 (a.u.)^3
     number of atoms/cell      =           55
     number of atomic types    =            5
     number of electrons       =       402.00
     number of Kohn-Sham states=          211
     kinetic-energy cutoff     =      29.3995  Ry
     charge density cutoff     =     293.9946  Ry
     scf convergence threshold =      7.3E-08
     mixing beta               =       0.0500
     number of iterations used =            8  plain     mixing
     Exchange-correlation= BEEF-VDW
                           (   1   4  43  14   2   0   0)

     celldm(1)=   1.889726  celldm(2)=   0.000000  celldm(3)=   0.000000
     celldm(4)=   0.000000  celldm(5)=   0.000000  celldm(6)=   0.000000

     crystal axes: (cart. coord. in units of alat)
               a(1) = (   6.579727   0.000000   0.000000 )
               a(2) = (  -0.000775   5.961596   0.000000 )
               a(3) = (   0.000000   0.000000  25.155947 )

     reciprocal axes: (cart. coord. in units 2 pi/alat)
               b(1) = (  0.151982  0.000020  0.000000 )
               b(2) = (  0.000000  0.167740  0.000000 )
               b(3) = (  0.000000  0.000000  0.039752 )

     PseudoPot. # 1 for Ti read from file:
     /storage/coda1/p-amedford6/0/shared/rich_project_chbe-medford/medford-share/data/pseudos_module/espresso/nninc/pbe/van/Ti.UPF
     MD5 check sum: 8e4df49b7f0d34bbd5052bf3f5ea0213
     Pseudo is Ultrasoft, Zval = 12.0
     Generated by new atomic code, or converted to UPF format
     Using radial grid of  851 points,  6 beta functions with:
                l(1) =   0
                l(2) =   0
                l(3) =   1
                l(4) =   1
                l(5) =   2
                l(6) =   2
     Q(r) pseudized with  8 coefficients,  rinner =    1.000   1.000   1.000
                                                       1.000   1.000

     PseudoPot. # 2 for O  read from file:
     /storage/coda1/p-amedford6/0/shared/rich_project_chbe-medford/medford-share/data/pseudos_module/espresso/nninc/pbe/van/O.UPF
     MD5 check sum: 78c19812648e8988a0fe644b0f25305e
     Pseudo is Ultrasoft, Zval =  6.0
     Generated by new atomic code, or converted to UPF format
     Using radial grid of  737 points,  4 beta functions with:
                l(1) =   0
                l(2) =   0
                l(3) =   1
                l(4) =   1
     Q(r) pseudized with  8 coefficients,  rinner =    0.800   0.800   0.800

     PseudoPot. # 3 for C  read from file:
     /storage/coda1/p-amedford6/0/shared/rich_project_chbe-medford/medford-share/data/pseudos_module/espresso/nninc/pbe/van/C.UPF
     MD5 check sum: 1a69bf6b8db32088f5b2163dbdb77a27
     Pseudo is Ultrasoft, Zval =  4.0
     Generated by new atomic code, or converted to UPF format
     Using radial grid of  721 points,  4 beta functions with:
                l(1) =   0
                l(2) =   0
                l(3) =   1
                l(4) =   1
     Q(r) pseudized with  8 coefficients,  rinner =    0.800   0.800   0.800

     PseudoPot. # 4 for H  read from file:
     /storage/coda1/p-amedford6/0/shared/rich_project_chbe-medford/medford-share/data/pseudos_module/espresso/nninc/pbe/van/H.UPF
     MD5 check sum: b5ee9d7bfd3a09ee7748110bda690ff7
     Pseudo is Ultrasoft, Zval =  1.0
     Generated by new atomic code, or converted to UPF format
     Using radial grid of  615 points,  1 beta functions with:
                l(1) =   0
     Q(r) pseudized with  8 coefficients,  rinner =    0.800

     PseudoPot. # 5 for N  read from file:
     /storage/coda1/p-amedford6/0/shared/rich_project_chbe-medford/medford-share/data/pseudos_module/espresso/nninc/pbe/van/N.UPF
     MD5 check sum: 90d10febe142ad51ac9d5be1deb811c4
     Pseudo is Ultrasoft, Zval =  5.0
     Generated by new atomic code, or converted to UPF format
     Using radial grid of  729 points,  4 beta functions with:
                l(1) =   0
                l(2) =   0
                l(3) =   1
                l(4) =   1
     Q(r) pseudized with  8 coefficients,  rinner =    0.800   0.800   0.800

     atomic species   valence    mass     pseudopotential
        Ti1           12.00    47.86700     Ti( 1.00)
        O1             6.00    15.99900     O ( 1.00)
        C1             4.00    12.01100     C ( 1.00)
        H1             1.00     1.00800     H ( 1.00)
        N1             5.00    14.00700     N ( 1.00)

     No symmetry found

   Cartesian axes

     site n.     atom                  positions (alat units)
         1           Ti1 tau(   1) = (   0.0004258   2.9801865   6.0000000  )
         2           Ti1 tau(   2) = (   3.2906075   1.4906267   6.0002472  )
         3           O1  tau(   3) = (   0.0006271   0.0005054   7.9858123  )
         4           O1  tau(   4) = (   3.2906025   0.0005020   7.3038282  )
         5           O1  tau(   5) = (   4.5942328   1.4918067   9.2879030  )
         6           O1  tau(   6) = (   1.9868534   1.4903216   9.2879459  )
         7           Ti1 tau(   7) = (   3.2744623   2.9602655   9.1583134  )
         8           Ti1 tau(   8) = (   6.5542510   1.4922676   9.2570483  )
         9           O1  tau(   9) = (   3.2955284   5.9542973  11.4036420  )
        10           O1  tau(  10) = (   0.0040843   5.9600894  10.6146631  )
        11           O1  tau(  11) = (   1.2923168   1.4866075  12.6848844  )
        12           O1  tau(  12) = (   5.3038965   1.4828099  12.6812989  )
        13           Ti1 tau(  13) = (   0.0117136   2.9668076  12.4887022  )
        14           Ti1 tau(  14) = (   3.3103317   1.4900331  12.5484786  )
        15           O1  tau(  15) = (   0.0164078   5.9216632  14.6920981  )
        16           O1  tau(  16) = (   3.2973989   5.9227913  14.0283617  )
        17           O1  tau(  17) = (   4.5490025   1.4631175  16.1705536  )
        18           O1  tau(  18) = (   2.0221940   1.4775419  16.1816751  )
        19           Ti1 tau(  19) = (   3.3107067   2.9474167  15.8028204  )
        20           Ti1 tau(  20) = (   0.0288186   1.3352231  15.9134295  )
        21           O1  tau(  21) = (   3.2904802   0.0005063   4.7018136  )
        22           O1  tau(  22) = (   6.5554730   0.0200307  17.2351763  )
        23           O1  tau(  23) = (   1.3043587   1.4918075   6.0039043  )
        24           O1  tau(  24) = (   5.2767064   1.4903225   6.0039473  )
        25           Ti1 tau(  25) = (   0.0000382   5.9609847   6.0000000  )
        26           Ti1 tau(  26) = (   3.2902200   4.4714249   6.0002472  )
        27           O1  tau(  27) = (   0.0002396   2.9813036   7.9858123  )
        28           O1  tau(  28) = (   3.2902150   2.9813002   7.3038282  )
        29           O1  tau(  29) = (   4.5938453   4.4726049   9.2879030  )
        30           O1  tau(  30) = (   1.9864658   4.4711199   9.2879459  )
        31           Ti1 tau(  31) = (   3.2682264   5.9422464   9.1569598  )
        32           Ti1 tau(  32) = (   6.5541751   4.4759067   9.2560502  )
        33           O1  tau(  33) = (   3.2986683   2.9663741  11.3977683  )
        34           O1  tau(  34) = (   0.0027399   2.9767344  10.6286243  )
        35           O1  tau(  35) = (   1.2926322   4.4497803  12.6725015  )
        36           O1  tau(  36) = (   5.3040462   4.4546620  12.6695683  )
        37           Ti1 tau(  37) = (   0.0191269   5.9426524  12.4841101  )
        38           Ti1 tau(  38) = (   3.3102059   4.4680493  12.5484152  )
        39           O1  tau(  39) = (   6.5547541   2.9789036  15.0188947  )
        40           O1  tau(  40) = (   3.3032946   2.9599518  14.0075836  )
        41           O1  tau(  41) = (   4.5496375   4.4348250  16.2219016  )
        42           O1  tau(  42) = (   2.0136599   4.4266630  16.2156650  )
        43           Ti1 tau(  43) = (   3.2958723   5.9268682  15.8311464  )
        44           Ti1 tau(  44) = (   0.0197688   4.5989514  15.9884716  )
        45           O1  tau(  45) = (   3.2900926   2.9813045   4.7018136  )
        46           O1  tau(  46) = (   1.3039711   4.4726057   6.0039043  )
        47           O1  tau(  47) = (   5.2763189   4.4711207   6.0039473  )
        48           C1  tau(  48) = (   6.2714212   2.8475035  19.1912783  )
        49           O1  tau(  49) = (   5.0447882   2.1494744  19.3187249  )
        50           H1  tau(  50) = (   6.1333351   3.8426015  19.6073941  )
        51           H1  tau(  51) = (   5.1769490   1.2529602  18.9724433  )
        52           H1  tau(  52) = (   0.5217872   2.3444334  19.6948963  )
        53           H1  tau(  53) = (   6.5688534   2.9768334  18.1312760  )
        54           N1  tau(  54) = (   3.3107067   2.9474167  19.1028204  )
        55           N1  tau(  55) = (   3.3107067   2.9474167  17.9728404  )

     number of k points=    10  Fermi-Dirac smearing, width (Ry)=  0.0073
                       cart. coord. in units 2pi/alat
        k(    1) = (   0.0000000   0.0000000   0.0000000), wk =   0.1250000
        k(    2) = (   0.0000000   0.0419351   0.0000000), wk =   0.2500000
        k(    3) = (   0.0000000  -0.0838702   0.0000000), wk =   0.1250000
        k(    4) = (   0.0379955   0.0000049   0.0000000), wk =   0.2500000
        k(    5) = (   0.0379955   0.0419400   0.0000000), wk =   0.2500000
        k(    6) = (   0.0379955  -0.0838652   0.0000000), wk =   0.2500000
        k(    7) = (   0.0379955  -0.0419301   0.0000000), wk =   0.2500000
        k(    8) = (  -0.0759910  -0.0000099   0.0000000), wk =   0.1250000
        k(    9) = (  -0.0759910   0.0419252   0.0000000), wk =   0.2500000
[...]
        43           Ti1 tau(  43) = (   3.2716423   0.0303968  15.8006210  )
        44           Ti1 tau(  44) = (   6.5571795   4.6339617  15.9355008  )
        45           O1  tau(  45) = (   3.2900926   2.9813045   4.7018136  )
        46           O1  tau(  46) = (   1.3039711   4.4726057   6.0039043  )
        47           O1  tau(  47) = (   5.2763189   4.4711207   6.0039473  )
        48           C1  tau(  48) = (   6.3155964   2.5599122  19.3593807  )
        49           O1  tau(  49) = (   5.4257796   1.4617018  19.4698870  )
        50           H1  tau(  50) = (   5.8612775   3.4259066  19.8438370  )
        51           H1  tau(  51) = (   5.7975935   0.7408248  18.9332099  )
        52           H1  tau(  52) = (   0.7029029   2.3600324  19.8306440  )
        53           H1  tau(  53) = (   6.5118227   2.8412898  18.3024987  )
        54           N1  tau(  54) = (   3.1021403   3.9474687  19.8834260  )
        55           N1  tau(  55) = (   3.1388530   3.5015201  18.8731974  )

     number of k points=    10  Fermi-Dirac smearing, width (Ry)=  0.0073
                       cart. coord. in units 2pi/alat
        k(    1) = (   0.0000000   0.0000000   0.0000000), wk =   0.1250000
        k(    2) = (   0.0000000   0.0419351   0.0000000), wk =   0.2500000
        k(    3) = (   0.0000000  -0.0838702   0.0000000), wk =   0.1250000
        k(    4) = (   0.0379955   0.0000049   0.0000000), wk =   0.2500000
        k(    5) = (   0.0379955   0.0419400   0.0000000), wk =   0.2500000
        k(    6) = (   0.0379955  -0.0838652   0.0000000), wk =   0.2500000
        k(    7) = (   0.0379955  -0.0419301   0.0000000), wk =   0.2500000
        k(    8) = (  -0.0759910  -0.0000099   0.0000000), wk =   0.1250000
        k(    9) = (  -0.0759910   0.0419252   0.0000000), wk =   0.2500000
        k(   10) = (  -0.0759910  -0.0838800   0.0000000), wk =   0.1250000

     Initial potential from superposition of free atoms

     starting charge  385.99915, renormalised to  402.00000

[...]

     %%%%%%%%%%%%%%%%%%%%%%%%%%%%%%%%%%%%%%%%%%%%%%%%%%%%%%%%%%%%%%%%%%%%%%%%
     %                                                                      %
     % You are using vdW-DF, which was implemented by the Thonhauser group. %
     % Please cite the following two papers that made this development      %
     % possible and the two reviews that describe the various versions:     %
     %                                                                      %
     %   T. Thonhauser et al., PRL 115, 136402 (2015).                      %
     %   T. Thonhauser et al., PRB 76, 125112 (2007).                       %
     %   K. Berland et al., Rep. Prog. Phys. 78, 066501 (2015).             %
     %   D.C. Langreth et al., J. Phys.: Condens. Matter 21, 084203 (2009). %
     %                                                                      %
     %                                                                      %
     % If you are calculating the stress with vdW-DF, please also cite:     %
     %                                                                      %
     %   R. Sabatini et al., J. Phys.: Condens. Matter 24, 424209 (2012).   %
     %                                                                      %
     %%%%%%%%%%%%%%%%%%%%%%%%%%%%%%%%%%%%%%%%%%%%%%%%%%%%%%%%%%%%%%%%%%%%%%%%

[...]

     Starting wfcs are  304 atomic wfcs
  @ DRIVER MODE: Message from server: STATUS
  @ DRIVER MODE: Message from server: POSDATA
  @ DRIVER MODE: Reading and sharing cell
  @ DRIVER MODE: Reading and sharing positions
  @ DRIVER MODE: Received positions

[...]

     Self-consistent Calculation

[...]

     iteration # 12     ecut=    29.40 Ry     beta= 0.05
     Davidson diagonalization with overlap
     ethr =  5.75E-10,  avg # of iterations =  8.4

[...]

     total energy              =   -2972.78674249 Ry
     estimated scf accuracy    <       0.00000025 Ry

     iteration # 17     ecut=    29.40 Ry     beta= 0.05
     Davidson diagonalization with overlap
     c_bands:  1 eigenvalues not converged
     ethr =  4.49E-11,  avg # of iterations = 13.1

[...]

     End of self-consistent calculation

[...]

          k = 0.0380-0.0419 0.0000 ( 17876 PWs)   bands (ev):

[...]

          k =-0.0760-0.0839 0.0000 ( 17948 PWs)   bands (ev):

   -55.8507 -55.8500 -55.8008 -55.8007 -55.7439 -55.7219 -55.7151 -55.6963
   -55.6946 -55.6925 -55.6889 -55.6385 -55.6275 -55.6267 -54.9105 -54.9105
   -32.3132 -32.2333 -32.2322 -32.1345 -32.1343 -32.1314 -32.1206 -32.0937
   -32.0930 -32.0672 -32.0619 -32.0604 -32.0572 -32.0167 -32.0121 -32.0115
   -32.0112 -32.0104 -31.9956 -31.9883 -31.9842 -31.9806 -31.9800 -31.9553
   -31.9525 -31.9455 -31.9421 -31.9408 -31.9190 -31.9189 -31.9152 -31.9079
   -31.8936 -31.8919 -31.8705 -31.8700 -31.8615 -31.8607 -31.8388 -31.8249
   -31.8123 -31.8111 -31.2274 -31.2274 -31.1530 -31.1530 -31.1132 -31.1131
   -20.7366 -17.7996 -16.4049 -16.0386 -16.0148 -15.9304 -15.9189 -15.8118
   -15.8002 -15.7140 -15.6692 -15.6421 -15.6407 -15.6029 -15.5643 -15.5590
   -15.5477 -15.4902 -15.4741 -15.4430 -15.4392 -15.3886 -15.3850 -15.3845
   -15.3835 -15.3505 -15.3458 -15.3042 -15.3025 -15.2253 -15.0818 -13.4102
   -13.4100  -9.3379  -5.9612  -4.8963  -3.8947  -3.8871  -3.4219  -3.3071
    -3.2689  -3.2450  -3.1541  -3.0743  -3.0360  -2.9914  -2.9862  -2.9126
    -2.8682  -2.8629  -2.8032  -2.7811  -2.7704  -2.7633  -2.7603  -2.7178
    -2.6807  -2.6587  -2.6475  -2.6306  -2.6197  -2.5827  -2.5786  -2.5687
    -2.5380  -2.5306  -2.5274  -2.5056  -2.4821  -2.4532  -2.4478  -2.4137
    -2.2683  -2.2590  -2.1517  -2.1099  -2.1065  -2.0251  -2.0203  -1.9789
    -1.9418  -1.8935  -1.8554  -1.6924  -1.6672  -1.6656  -1.6079  -1.5568
    -1.5054  -1.4385  -1.4279  -1.3887  -1.3321  -1.1899  -1.1823  -1.1511
    -1.0738  -1.0586  -0.9817  -0.9177  -0.8777  -0.8589  -0.8572  -0.8322
    -0.8232  -0.7974  -0.7063  -0.6597  -0.6230  -0.6102  -0.5891  -0.5333
    -0.3856  -0.3313  -0.3183  -0.2068  -0.1156   0.0307   0.0362   0.0832
     0.1967   0.2068   0.2210   0.2474   0.3746   0.3890   0.4478   0.4935
     0.4991   0.5451   0.5469   1.3036   1.4470   1.4478   1.5545   1.5553
     3.3993   3.4705   3.5031   3.5372   3.6757   3.6844   3.7346   3.7777
     3.7872   3.8006   3.8618

     the Fermi energy is     3.2947 ev

!    total energy              =   -2972.78674227 Ry
     estimated scf accuracy    <       0.00000005 Ry
     smearing contrib. (-TS)   =      -0.03675956 Ry
     internal energy E=F+TS    =   -2972.74998271 Ry

     The total energy is F=E-TS. E is the sum of the following terms:
     one-electron contribution =  -22442.87971877 Ry
     hartree contribution      =   11311.80091812 Ry
     xc contribution           =    -493.16441846 Ry
     ewald contribution        =    8651.49303775 Ry
     electric field correction =       0.00019865 Ry

     convergence has been achieved in  17 iterations

     Forces acting on atoms (cartesian axes, Ry/au):

     atom    1 type  1   force =     0.00034307    0.00000145    0.09018134
     atom    2 type  1   force =     0.00011070    0.00015320   -0.18411071
     atom    3 type  2   force =    -0.00036120    0.00005856   -0.02351053
     atom    4 type  2   force =    -0.00054658    0.00038317    0.05328611
     atom    5 type  2   force =    -0.01368324   -0.00044343    0.00601434
     atom    6 type  2   force =     0.01347467    0.00074430    0.00636864
     atom    7 type  1   force =    -0.00017049   -0.00046723   -0.00034346
     atom    8 type  1   force =     0.00000353    0.00031506   -0.00022102
     atom    9 type  2   force =     0.00017142   -0.00015274   -0.00004879
     atom   10 type  2   force =    -0.00002709   -0.00007864   -0.00075556
     atom   11 type  2   force =     0.00039079   -0.00002173   -0.00006797
     atom   12 type  2   force =    -0.00010250    0.00017430   -0.00011690
     atom   13 type  1   force =     0.00004344   -0.00028749    0.00021648
     atom   14 type  1   force =     0.00046295    0.00009825   -0.00028326
     atom   15 type  2   force =    -0.00016111    0.00003860   -0.00018836
     atom   16 type  2   force =     0.00006202    0.00004007    0.00015833
     atom   17 type  2   force =    -0.00013127    0.00000875    0.00044534
     atom   18 type  2   force =    -0.00033087   -0.00000635    0.00009079
     atom   19 type  1   force =     0.00063699   -0.00020616   -0.00011413
     atom   20 type  1   force =    -0.00048246   -0.00004494   -0.00005567
     atom   21 type  2   force =     0.00008629    0.00007200    0.10520726
     atom   22 type  2   force =     0.00039095   -0.00016669    0.00038773
     atom   23 type  2   force =    -0.06765239   -0.00036264   -0.02603954
     atom   24 type  2   force =     0.06762231    0.00011372   -0.02604771
     atom   25 type  1   force =     0.00041207   -0.00000100    0.08888386
     atom   26 type  1   force =     0.00008831   -0.00016007   -0.18418076
     atom   27 type  2   force =    -0.00030288    0.00012771   -0.02250081
     atom   28 type  2   force =    -0.00042020    0.00040079    0.05300552
     atom   29 type  2   force =    -0.01358461   -0.00021213    0.00605749
     atom   30 type  2   force =     0.01350866    0.00059694    0.00640390
     atom   31 type  1   force =    -0.00018590   -0.00000062   -0.00057763
     atom   32 type  1   force =     0.00001835   -0.00042641   -0.00025198
     atom   33 type  2   force =    -0.00006137    0.00004030    0.00024884
     atom   34 type  2   force =     0.00009160    0.00007762    0.00002954
     atom   35 type  2   force =     0.00017779    0.00004313    0.00021233
     atom   36 type  2   force =    -0.00024431   -0.00016596    0.00017112
     atom   37 type  1   force =    -0.00004699    0.00002461    0.00044409
     atom   38 type  1   force =     0.00040753   -0.00013360   -0.00009030
     atom   39 type  2   force =    -0.00003855   -0.00027720   -0.00020797
     atom   40 type  2   force =    -0.00010619   -0.00009600    0.00014638
     atom   41 type  2   force =     0.00009643   -0.00004216    0.00008467
     atom   42 type  2   force =    -0.00037861   -0.00006732    0.00003544
     atom   43 type  1   force =     0.00039326   -0.00003712   -0.00056940
     atom   44 type  1   force =    -0.00042233   -0.00003949   -0.00024893
     atom   45 type  2   force =     0.00009999    0.00007072    0.10517957
     atom   46 type  2   force =    -0.06765201   -0.00018437   -0.02604453
     atom   47 type  2   force =     0.06762020    0.00019886   -0.02604711
     atom   48 type  3   force =    -0.00019199   -0.00083199   -0.00107056
     atom   49 type  2   force =     0.00092742   -0.00066396   -0.00043825
     atom   50 type  4   force =    -0.00014352    0.00033262    0.00077970
     atom   51 type  4   force =    -0.00039863    0.00131014    0.00007440
     atom   52 type  4   force =    -0.00005905   -0.00019759    0.00004269
     atom   53 type  4   force =    -0.00037709    0.00050471    0.00001770
     atom   54 type  5   force =     0.00006857   -0.00050710   -0.00150206
     atom   55 type  5   force =     0.00055412    0.00035256    0.00146032

     Total force =     0.366898     Total SCF correction =     0.000779
  @ DRIVER MODE: Message from server: STATUS
  @ DRIVER MODE: Message from server: GETFORCE
  @ DRIVER MODE: Returning v,forces,stress,ensemble

     Writing config to output data dir ./calc.save/
  @ DRIVER MODE: Message from server: STATUS
  @ DRIVER MODE: Message from server: INIT
  @ DRIVER MODE: Receiving replica           0           0
  @ DRIVER MODE: Receiving encoded integer           2
  @ DRIVER MODE:  SCF:  T  FORCE:  T  STRESS:  F  VC:  F  ENSEMBLE:  F
  @ DRIVER MODE:  SCF:  F  FORCE:  F  STRESS:  F  VC:  F  ENSEMBLE:  T
  @ DRIVER MODE: Message from server: STATUS
  @ DRIVER MODE: Message from server: POSDATA
  @ DRIVER MODE: Reading and sharing positions
  @ DRIVER MODE: Received positions
     NEW-OLD atomic charge density approx. for the potential

[...]

     Adding external electric field

     Computed dipole along edir(3) :
        Dipole                0.3244 Ry au,          0.8247 Debye
        Dipole field          0.0006 Ry au,

        Potential amp.       -0.0568 Ry
        Total length         46.3494 bohr

  @ DRIVER MODE: BEEF-vdw

[...]

     negative rho (up, down):  1.383E-02 0.000E+00

     negative rho (up, down):  1.383E-02 0.000E+00
 BEEFens 2000 ensemble energies
             -0.354090401937170E+02
             -0.203411137987338E+01
             -0.731166295323754E+01
              0.245578642963350E+02
             -0.121768889603832E+02
             -0.941887213985714E+01
             -0.246140247043740E+02
             -0.514262003353848E+02
             -0.219606656221258E+02
             -0.230705203924907E+02
             -0.213582745933998E+02
              0.430877565159545E+01
              0.202964046294650E+01
             -0.107893735714669E+01
              0.178032576087060E+01
              0.270427608242273E+02
             -0.104784501129290E+02
             -0.738228671985883E+01
              0.119354646289973E+02
             -0.632440525459961E+02
              0.316547181245007E+02
             -0.135354272566394E+02
             -0.247963916106469E+01
             -0.572606284979619E+01
             -0.945271072617061E+00
             -0.222620913332989E+01
              0.490796775100201E+02
             -0.152423700321923E+02
             -0.416051659603249E+01
             -0.309833953564972E+02
              0.400865880865417E+02
             -0.445504891587989E+01
             -0.218132551120432E+02
              0.114715970599881E+02
             -0.208899673732643E+01
              0.132620675428041E+02
             -0.554369671482931E+00
              0.279361061623302E+01
              0.192880049207955E+02
             -0.558567132486505E+02
              0.311268444162616E+02
              0.828087862358407E+01
             -0.637432562788487E+01
             -0.178605920515551E+02
              0.703546807814337E+01
             -0.111488015021851E+02
              0.254257381157686E+02
              0.203010688182811E+02
             -0.130780432297946E+02
             -0.166914149132774E+02
             -0.175976209008003E+02
             -0.212387424756687E+02
              0.107725024847165E+02
             -0.277096116672151E+02
              0.849392217599279E+01
              0.353428501951468E+02
              0.407075019101604E+02
              0.189923255761664E+02
              0.854923700752687E+01
              0.177194710922319E+02
[...]
             -0.416430708811963E+02
              0.283199929386689E+01
             -0.141619985921061E+01
             -0.580934620159871E+01
              0.563221229811859E-01
             -0.370816315572100E+02
             -0.717363983168221E+01
              0.507002734714521E+01
              0.754395190944038E+01
              0.277783104810544E+02
             -0.242555702332006E+02
              0.317488515350043E+02
             -0.227030384551874E+02
              0.145951937461477E+02
              0.229754947061491E+02

 BEEF-vdW xc energy contributions
           1 :   -417.700603443175
           2 :    363.532279874072
           3 :   -276.535811806419
           4 :    186.206100212378
           5 :   -115.461606865750
           6 :    73.0783209999296
           7 :   -55.1313589543286
           8 :    51.5764363863582
           9 :   -53.0136202427392
          10 :    54.2005890442842
          11 :   -53.8438267221085
          12 :    52.4014609798235
          13 :   -50.2105114885741
          14 :    46.9957370651162
          15 :   -42.4296246177769
          16 :    36.7706490076562
          17 :   -30.9814383395307
          18 :    26.2799102619784
          19 :   -23.5164431071355
          20 :    22.8047876492820
          21 :   -23.6144626822312
          22 :    25.1535841873040
          23 :   -26.7131196700761
          24 :    27.7717783587677
          25 :   -27.9718745805690
          26 :    27.1230202141958
          27 :   -25.2485109974775
          28 :    22.6105078777887
          29 :   -19.6899838781709
          30 :    17.0896330324457
          31 :   -49.1571852850935
          32 :   -33.3108462796959
  @ DRIVER MODE: Message from server: STATUS
  @ DRIVER MODE: Message from server: GETFORCE
  @ DRIVER MODE: Returning v,forces,stress,ensemble
  @ DRIVE MODE: Returning Ensemble Energies

     Writing config to output data dir ./calc.save/
  @ DRIVER MODE: Message from server: EXIT
  @ DRIVE MODE: Exiting

     General routines

     Parallel routines

   This run was terminated on:  21:15:52  30Aug2021

   JOB DONE.