     Program PWSCF v.6.7GPU starts on 23Sep2021 at  7:31:42

     R & G space division:  proc/nbgrp/npool/nimage =       8
     Reading input from /storage/home/hcoda1/3/ntian30/research/carbon/CxH_vib/H2O_calc/ads_slab/CH3N2HO_c/out_0023/pw.inp
Warning: card &CELL ignored
Warning: card   CELL_DYNAMICS='IPI', ignored
Warning: card / ignored

     Current dimensions of program PWSCF are:
     Max number of different atomic species (ntypx) = 10
     Max number of k-points (npk) =  40000
     Max angular momentum in pseudopotentials (lmaxx) =  3
     Presently no symmetry can be used with electric field

     Message from routine cell_base_init:
     DEPRECATED: use true lattice parameter, not A to a.u. conversion factor

     IMPORTANT: XC functional enforced from input :
     Exchange-correlation= BEEF-VDW
                           (   1   4  43  14   2   0   0)
     Any further DFT definition will be discarded
     Please, verify this is what you really want

  @ DRIVER MODE: Connecting to
 qe_1139763_2941007.sched-torque.pace.gatech.edu5fh9qjhv_scratch
  using UNIX socket
  @ DRIVER MODE: Message from server: STATUS
  @ DRIVER MODE: Message from server: INIT
  @ DRIVER MODE: Receiving replica           0          -1
  @ DRIVER MODE: Receiving encoded integer          25
  @ DRIVER MODE:  SCF:  T  FORCE:  T  STRESS:  F  VC:  F  ENSEMBLE:  F
  @ DRIVER MODE:  SCF:  T  FORCE:  T  STRESS:  F  VC:  F  ENSEMBLE:  F

     Using Slab Decomposition

     bravais-lattice index     =            0
     lattice parameter (alat)  =       1.8897  a.u.
     unit-cell volume          =    6658.9804 (a.u.)^3
     number of atoms/cell      =           55
     number of atomic types    =            5
     number of electrons       =       402.00
     number of Kohn-Sham states=          211
     kinetic-energy cutoff     =      29.3995  Ry
     charge density cutoff     =     293.9946  Ry
     scf convergence threshold =      7.3E-08
     mixing beta               =       0.0500
     number of iterations used =            8  plain     mixing
     Exchange-correlation= BEEF-VDW
                           (   1   4  43  14   2   0   0)

     celldm(1)=   1.889726  celldm(2)=   0.000000  celldm(3)=   0.000000
     celldm(4)=   0.000000  celldm(5)=   0.000000  celldm(6)=   0.000000

     crystal axes: (cart. coord. in units of alat)
               a(1) = (   6.579727   0.000000   0.000000 )
               a(2) = (  -0.000775   5.961596   0.000000 )
               a(3) = (   0.000000   0.000000  25.155947 )

     reciprocal axes: (cart. coord. in units 2 pi/alat)
               b(1) = (  0.151982  0.000020  0.000000 )
               b(2) = (  0.000000  0.167740  0.000000 )
               b(3) = (  0.000000  0.000000  0.039752 )

     PseudoPot. # 1 for Ti read from file:
     /storage/coda1/p-amedford6/0/shared/rich_project_chbe-medford/medford-share/data/pseudos_module/espresso/nninc/pbe/van/Ti.UPF
     MD5 check sum: 8e4df49b7f0d34bbd5052bf3f5ea0213
     Pseudo is Ultrasoft, Zval = 12.0
     Generated by new atomic code, or converted to UPF format
     Using radial grid of  851 points,  6 beta functions with:
                l(1) =   0
                l(2) =   0
                l(3) =   1
                l(4) =   1
                l(5) =   2
                l(6) =   2
     Q(r) pseudized with  8 coefficients,  rinner =    1.000   1.000   1.000
                                                       1.000   1.000

     PseudoPot. # 2 for O  read from file:
     /storage/coda1/p-amedford6/0/shared/rich_project_chbe-medford/medford-share/data/pseudos_module/espresso/nninc/pbe/van/O.UPF
     MD5 check sum: 78c19812648e8988a0fe644b0f25305e
     Pseudo is Ultrasoft, Zval =  6.0
     Generated by new atomic code, or converted to UPF format
     Using radial grid of  737 points,  4 beta functions with:
                l(1) =   0
                l(2) =   0
                l(3) =   1
                l(4) =   1
     Q(r) pseudized with  8 coefficients,  rinner =    0.800   0.800   0.800

     PseudoPot. # 3 for N  read from file:
     /storage/coda1/p-amedford6/0/shared/rich_project_chbe-medford/medford-share/data/pseudos_module/espresso/nninc/pbe/van/N.UPF
     MD5 check sum: 90d10febe142ad51ac9d5be1deb811c4
     Pseudo is Ultrasoft, Zval =  5.0
     Generated by new atomic code, or converted to UPF format
     Using radial grid of  729 points,  4 beta functions with:
                l(1) =   0
                l(2) =   0
                l(3) =   1
                l(4) =   1
     Q(r) pseudized with  8 coefficients,  rinner =    0.800   0.800   0.800

     PseudoPot. # 4 for C  read from file:
     /storage/coda1/p-amedford6/0/shared/rich_project_chbe-medford/medford-share/data/pseudos_module/espresso/nninc/pbe/van/C.UPF
     MD5 check sum: 1a69bf6b8db32088f5b2163dbdb77a27
     Pseudo is Ultrasoft, Zval =  4.0
     Generated by new atomic code, or converted to UPF format
     Using radial grid of  721 points,  4 beta functions with:
                l(1) =   0
                l(2) =   0
                l(3) =   1
                l(4) =   1
     Q(r) pseudized with  8 coefficients,  rinner =    0.800   0.800   0.800

     PseudoPot. # 5 for H  read from file:
     /storage/coda1/p-amedford6/0/shared/rich_project_chbe-medford/medford-share/data/pseudos_module/espresso/nninc/pbe/van/H.UPF
     MD5 check sum: b5ee9d7bfd3a09ee7748110bda690ff7
     Pseudo is Ultrasoft, Zval =  1.0
     Generated by new atomic code, or converted to UPF format
     Using radial grid of  615 points,  1 beta functions with:
                l(1) =   0
     Q(r) pseudized with  8 coefficients,  rinner =    0.800

     atomic species   valence    mass     pseudopotential
        Ti1           12.00    47.86700     Ti( 1.00)
        O1             6.00    15.99900     O ( 1.00)
        N1             5.00    14.00700     N ( 1.00)
        C1             4.00    12.01100     C ( 1.00)
        H1             1.00     1.00800     H ( 1.00)

     No symmetry found

   Cartesian axes

     site n.     atom                  positions (alat units)
         1           Ti1 tau(   1) = (   0.0004258   2.9801865   6.0000000  )
         2           Ti1 tau(   2) = (   3.2906075   1.4906267   6.0002472  )
         3           O1  tau(   3) = (   0.0006271   0.0005054   7.9858123  )
         4           O1  tau(   4) = (   3.2906025   0.0005020   7.3038282  )
         5           O1  tau(   5) = (   4.5942328   1.4918067   9.2879030  )
         6           O1  tau(   6) = (   1.9868534   1.4903216   9.2879459  )
         7           Ti1 tau(   7) = (   3.2907910   2.8959150   9.1758416  )
         8           Ti1 tau(   8) = (   0.0015273   1.4827037   9.2680791  )
         9           O1  tau(   9) = (   3.2989311   0.0219330  11.3020621  )
        10           O1  tau(  10) = (   0.0116148   5.9584955  10.6183126  )
        11           O1  tau(  11) = (   1.3029919   1.4976758  12.6257209  )
        12           O1  tau(  12) = (   5.3026591   1.4951023  12.6306759  )
        13           Ti1 tau(  13) = (   0.0286689   2.8598525  12.6759356  )
        14           Ti1 tau(  14) = (   3.3054201   1.5706400  12.4108957  )
        15           O1  tau(  15) = (   0.0066217   5.9386728  14.6456674  )
        16           O1  tau(  16) = (   3.2936494   5.9217248  13.9190535  )
        17           O1  tau(  17) = (   4.5783085   1.5227378  16.0725395  )
        18           O1  tau(  18) = (   2.0661487   1.5008106  16.0935948  )
        19           Ti1 tau(  19) = (   3.3004316   2.9577776  15.6622982  )
        20           Ti1 tau(  20) = (   6.5114840   1.4532315  15.8500040  )
        21           O1  tau(  21) = (   3.2904802   0.0005063   4.7018136  )
        22           O1  tau(  22) = (   0.0101108   5.9483577  17.1703567  )
        23           O1  tau(  23) = (   1.3043587   1.4918075   6.0039043  )
        24           O1  tau(  24) = (   5.2767064   1.4903225   6.0039473  )
        25           Ti1 tau(  25) = (   0.0000382   5.9609847   6.0000000  )
        26           Ti1 tau(  26) = (   3.2902200   4.4714249   6.0002472  )
        27           O1  tau(  27) = (   0.0002396   2.9813036   7.9858123  )
        28           O1  tau(  28) = (   3.2902150   2.9813002   7.3038282  )
        29           O1  tau(  29) = (   4.5938453   4.4726049   9.2879030  )
        30           O1  tau(  30) = (   1.9864658   4.4711199   9.2879459  )
        31           Ti1 tau(  31) = (   3.2891106   5.8743827   9.1763621  )
        32           Ti1 tau(  32) = (   0.0006254   4.4649316   9.2693709  )
        33           O1  tau(  33) = (   3.2985377   2.9527140  11.2683515  )
        34           O1  tau(  34) = (   0.0092240   2.9805883  10.6323155  )
        35           O1  tau(  35) = (   1.2869011   4.4751273  12.6337776  )
        36           O1  tau(  36) = (   5.3033013   4.4751711  12.6363117  )
        37           Ti1 tau(  37) = (   6.5677423   5.8343599  12.5653580  )
        38           Ti1 tau(  38) = (   3.2861748   4.6640272  12.6826305  )
        39           O1  tau(  39) = (   0.0268303   2.9326313  14.6927244  )
        40           O1  tau(  40) = (   3.2973518   2.9805258  13.8830516  )
        41           O1  tau(  41) = (   4.5656241   4.3944478  16.1024780  )
        42           O1  tau(  42) = (   2.0389263   4.3990843  16.1000718  )
        43           Ti1 tau(  43) = (   3.2183859   5.9292641  16.3327267  )
        44           Ti1 tau(  44) = (   6.5399727   4.6159235  16.0325440  )
        45           O1  tau(  45) = (   3.2900926   2.9813045   4.7018136  )
        46           O1  tau(  46) = (   1.3039711   4.4726057   6.0039043  )
        47           O1  tau(  47) = (   5.2763189   4.4711207   6.0039473  )
        48           N1  tau(  48) = (   0.1383159   2.7169024  18.7005470  )
        49           N1  tau(  49) = (   0.0454196   2.8879789  17.5111406  )
        50           C1  tau(  50) = (   0.1807782   3.8735959  19.6428767  )
        51           H1  tau(  51) = (   6.4938760   4.8136915  19.1552781  )
        52           H1  tau(  52) = (   6.0945921   3.6282151  20.4682347  )
        53           H1  tau(  53) = (   1.2016282   3.9139503  20.0277151  )
        54           O1  tau(  54) = (   3.2907091   5.9158944  18.1602194  )
        55           H1  tau(  55) = (   3.1351319   0.7410148  18.7017648  )

     number of k points=    10  Fermi-Dirac smearing, width (Ry)=  0.0073
                       cart. coord. in units 2pi/alat
        k(    1) = (   0.0000000   0.0000000   0.0000000), wk =   0.1250000
        k(    2) = (   0.0000000   0.0419351   0.0000000), wk =   0.2500000
        k(    3) = (   0.0000000  -0.0838702   0.0000000), wk =   0.1250000
        k(    4) = (   0.0379955   0.0000049   0.0000000), wk =   0.2500000
        k(    5) = (   0.0379955   0.0419400   0.0000000), wk =   0.2500000
        k(    6) = (   0.0379955  -0.0838652   0.0000000), wk =   0.2500000
        k(    7) = (   0.0379955  -0.0419301   0.0000000), wk =   0.2500000
        k(    8) = (  -0.0759910  -0.0000099   0.0000000), wk =   0.1250000
        k(    9) = (  -0.0759910   0.0419252   0.0000000), wk =   0.2500000
        k(   10) = (  -0.0759910  -0.0838800   0.0000000), wk =   0.1250000

     Initial potential from superposition of free atoms

     starting charge  385.99915, renormalised to  402.00000

     negative rho (up, down):  1.430E-02 0.000E+00

     %%%%%%%%%%%%%%%%%%%%%%%%%%%%%%%%%%%%%%%%%%%%%%%%%%%%%%%%%%%%%%%%%%%%%%%%
     %                                                                      %
     % You are using vdW-DF, which was implemented by the Thonhauser group. %
     % Please cite the following two papers that made this development      %
     % possible and the two reviews that describe the various versions:     %
     %                                                                      %
     %   T. Thonhauser et al., PRL 115, 136402 (2015).                      %
     %   T. Thonhauser et al., PRB 76, 125112 (2007).                       %
     %   K. Berland et al., Rep. Prog. Phys. 78, 066501 (2015).             %
     %   D.C. Langreth et al., J. Phys.: Condens. Matter 21, 084203 (2009). %
     %                                                                      %
     %                                                                      %
     % If you are calculating the stress with vdW-DF, please also cite:     %
     %                                                                      %
     %   R. Sabatini et al., J. Phys.: Condens. Matter 24, 424209 (2012).   %
     %                                                                      %
     %%%%%%%%%%%%%%%%%%%%%%%%%%%%%%%%%%%%%%%%%%%%%%%%%%%%%%%%%%%%%%%%%%%%%%%%

     Adding external electric field

     Computed dipole along edir(3) :
        Dipole              -12.0454 Ry au,        -30.6164 Debye
        Dipole field         -0.0227 Ry au,

        Potential amp.        2.1072 Ry
        Total length         46.3494 bohr

     Starting wfcs are  304 atomic wfcs
  @ DRIVER MODE: Message from server: STATUS
  @ DRIVER MODE: Message from server: POSDATA
  @ DRIVER MODE: Reading and sharing cell
  @ DRIVER MODE: Reading and sharing positions
  @ DRIVER MODE: Received positions

     Self-consistent Calculation

     iteration #  1     ecut=    29.40 Ry     beta= 0.05
     Davidson diagonalization with overlap
     c_bands:  5 eigenvalues not converged
     c_bands:  3 eigenvalues not converged
     c_bands:  5 eigenvalues not converged
     c_bands:  3 eigenvalues not converged
     c_bands:  3 eigenvalues not converged
     c_bands:  2 eigenvalues not converged
     c_bands:  5 eigenvalues not converged
     c_bands:  5 eigenvalues not converged
     ethr =  1.00E-05,  avg # of iterations = 21.5

[...]

     total energy              =   -2397.71165568 Ry
     estimated scf accuracy    <    6480.64722878 Ry

     iteration #  2     ecut=    29.40 Ry     beta= 0.05
     Davidson diagonalization with overlap
     ethr =  1.00E-02,  avg # of iterations = 22.7

[...]

     iteration # 48     ecut=    29.40 Ry     beta= 0.05
     Davidson diagonalization with overlap
     c_bands:  1 eigenvalues not converged
     ethr =  1.90E-06,  avg # of iterations =  8.2

[...]

     total energy              =   -2972.75302749 Ry
     estimated scf accuracy    <       0.00000017 Ry

     iteration # 74     ecut=    29.40 Ry     beta= 0.05
     Davidson diagonalization with overlap
     ethr =  3.43E-11,  avg # of iterations =  5.7

     negative rho (up, down):  1.493E-02 0.000E+00

     Adding external electric field

     Computed dipole along edir(3) :
        Dipole                0.6546 Ry au,          1.6637 Debye
        Dipole field          0.0012 Ry au,

        Potential amp.       -0.1145 Ry
        Total length         46.3494 bohr

     End of self-consistent calculation

          k = 0.0000 0.0000 0.0000 ( 18029 PWs)   bands (ev):

   -56.2004 -56.1666 -55.7867 -55.7532 -55.5833 -55.5466 -55.4967 -55.3486
   -55.3148 -55.3130 -55.1683 -55.1556 -55.0287 -55.0057 -54.9720 -54.9381
   -32.6508 -32.4928 -32.4659 -32.3589 -32.2750 -32.2663 -32.2663 -32.0306
   -32.0055 -31.9860 -31.9340 -31.9286 -31.9264 -31.8938 -31.8462 -31.8202
   -31.7926 -31.7690 -31.7672 -31.7253 -31.7103 -31.6968 -31.6857 -31.6545
   -31.6378 -31.6248 -31.5543 -31.5337 -31.5251 -31.5209 -31.4989 -31.4652
   -31.4347 -31.4028 -31.3686 -31.3631 -31.3586 -31.3051 -31.2854 -31.2815
   -31.2576 -31.2414 -31.2406 -31.2377 -31.2168 -31.1873 -31.1028 -30.9908
   -18.8072 -16.4942 -16.4423 -16.1599 -15.9538 -15.7782 -15.6950 -15.6819
   -15.6320 -15.5109 -15.5005 -15.3875 -15.3000 -15.2241 -15.1973 -15.1956
   -15.1005 -15.0573 -15.0147 -14.9901 -14.9781 -14.9709 -14.9387 -14.8312
   -14.8227 -14.7950 -14.6965 -14.6862 -14.5819 -14.2872 -14.2701 -13.4700
   -13.3578 -11.4371  -6.8818  -4.3436  -4.1587  -4.0035  -3.9799  -3.9426
    -3.7079  -3.4954  -3.4107  -3.2485  -3.1934  -3.1150  -2.9169  -2.9071
    -2.8522  -2.7817  -2.7071  -2.6483  -2.6014  -2.5847  -2.4905  -2.4517
    -2.4311  -2.4273  -2.3951  -2.3793  -2.2548  -2.2521  -2.2210  -2.1712
    -2.1114  -2.0972  -2.0305  -2.0213  -2.0043  -1.9566  -1.9222  -1.8748
    -1.8031  -1.7881  -1.6523  -1.6293  -1.6226  -1.5407  -1.5148  -1.5056
    -1.4569  -1.2957  -1.2247  -1.1774  -1.1738  -1.0353  -1.0219  -0.9850
    -0.9036  -0.8686  -0.7795  -0.7690  -0.7590  -0.7506  -0.6664  -0.6300
    -0.6149  -0.5890  -0.4062  -0.3781  -0.3169  -0.2631  -0.1639  -0.1200
    -0.1137  -0.1045  -0.0655  -0.0089   0.0122   0.0272   0.1255   0.1500
     0.2040   0.2728   0.3077   0.3800   0.4003   0.4031   0.4141   0.4695
     0.5613   0.6538   0.6968   0.7118   0.7804   0.7942   0.9312   0.9446
     1.0521   1.0934   1.1012   1.1619   1.2831   1.5653   1.6004   1.6397
     2.7586   3.0259   3.1532   3.3098   3.4577   3.5537   3.8446   3.8913
     3.9303   4.0117   4.0251

[...]

          k = 0.0380-0.0419 0.0000 ( 17876 PWs)   bands (ev):

[...]

          k =-0.0760-0.0000 0.0000 ( 17886 PWs)   bands (ev):

[...]

          k =-0.0760-0.0839 0.0000 ( 17948 PWs)   bands (ev):

   -56.1836 -56.1833 -55.7706 -55.7691 -55.5825 -55.5399 -55.5032 -55.3358
   -55.3256 -55.3154 -55.1664 -55.1537 -55.0306 -55.0076 -54.9551 -54.9549
   -32.4784 -32.4782 -32.4669 -32.4667 -32.3111 -32.3105 -32.0909 -32.0873
   -31.9647 -31.9620 -31.9594 -31.9585 -31.8702 -31.8458 -31.8213 -31.8194
   -31.7831 -31.7620 -31.7614 -31.7280 -31.7199 -31.6915 -31.6696 -31.6581
   -31.6052 -31.5988 -31.5746 -31.5583 -31.5422 -31.5419 -31.5267 -31.5059
   -31.4269 -31.4073 -31.3731 -31.3689 -31.3567 -31.3019 -31.2945 -31.2944
   -31.2902 -31.2506 -31.2462 -31.2419 -31.1835 -31.1831 -31.1454 -31.1450
   -18.8043 -16.4332 -15.9029 -15.8938 -15.7673 -15.7622 -15.5880 -15.5753
   -15.5740 -15.4906 -15.4521 -15.4281 -15.2858 -15.2724 -15.2122 -15.1873
   -15.1708 -15.1477 -15.1372 -15.1048 -15.0946 -15.0427 -14.9858 -14.9785
   -14.9195 -14.9119 -14.7547 -14.6922 -14.6463 -14.5009 -14.4050 -13.4611
   -13.4605 -11.4350  -6.8956  -4.2836  -4.1794  -3.9684  -3.9368  -3.0683
    -3.0196  -2.9172  -2.8797  -2.7992  -2.7869  -2.6757  -2.6594  -2.6125
    -2.5964  -2.5880  -2.5432  -2.4969  -2.4874  -2.4646  -2.4383  -2.4233
    -2.4109  -2.3733  -2.3241  -2.3073  -2.3020  -2.2767  -2.1744  -2.1444
    -2.1312  -2.1233  -2.0971  -2.0726  -2.0293  -1.9584  -1.9249  -1.8867
    -1.8749  -1.8059  -1.7438  -1.6945  -1.6796  -1.6114  -1.5536  -1.5297
    -1.4501  -1.4043  -1.2905  -1.2780  -1.2598  -1.1969  -1.1748  -1.1206
    -1.1006  -1.0391  -0.9886  -0.9655  -0.9614  -0.9478  -0.8807  -0.8190
    -0.7094  -0.6635  -0.6477  -0.6125  -0.6084  -0.5790  -0.5451  -0.5084
    -0.4079  -0.3940  -0.3825  -0.3301  -0.3208  -0.2469  -0.1707  -0.0552
     0.0652   0.1418   0.1525   0.1718   0.2122   0.2939   0.3726   0.4132
     0.4580   0.5180   0.5606   0.5999   0.6654   0.8079   0.8592   0.8804
     0.9660   1.0029   1.0735   1.1611   1.4403   1.4511   1.4557   1.4566
     2.8112   3.5749   3.5774   3.6067   3.6176   3.7302   3.8124   3.8300
     3.9544   4.0122   4.0708

     the Fermi energy is     2.9622 ev

!    total energy              =   -2972.75304142 Ry
     estimated scf accuracy    <       0.00000007 Ry
     smearing contrib. (-TS)   =      -0.01284874 Ry
     internal energy E=F+TS    =   -2972.74019268 Ry

     The total energy is F=E-TS. E is the sum of the following terms:
     one-electron contribution =  -23539.03521655 Ry
     hartree contribution      =   11863.13288833 Ry
     xc contribution           =    -493.06768403 Ry
     ewald contribution        =    9196.22901102 Ry
     electric field correction =       0.00080855 Ry

     convergence has been achieved in  74 iterations

     Forces acting on atoms (cartesian axes, Ry/au):

     atom    1 type  1   force =     0.00008022   -0.00036941    0.10678717
     atom    2 type  1   force =    -0.00012834    0.00016423   -0.16547706
     atom    3 type  2   force =     0.00006805   -0.00044728   -0.03887401
     atom    4 type  2   force =     0.00000270    0.00016089    0.03537842
     atom    5 type  2   force =    -0.00263191   -0.00318184   -0.00912969
     atom    6 type  2   force =     0.00445150   -0.00251700   -0.00941442
     atom    7 type  1   force =    -0.00001133    0.00132779    0.03443937
     atom    8 type  1   force =     0.00023805    0.01555780    0.06076913
     atom    9 type  2   force =    -0.00018084   -0.00044137    0.00008207
     atom   10 type  2   force =    -0.00255711    0.00088079   -0.04250863
     atom   11 type  2   force =    -0.00099058    0.00035145    0.00040253
     atom   12 type  2   force =     0.00048564    0.00024939    0.00029912
     atom   13 type  1   force =     0.00045456    0.00065718   -0.00050073
     atom   14 type  1   force =     0.00025880   -0.00016217    0.00037953
     atom   15 type  2   force =     0.00023229    0.00063984    0.00012554
     atom   16 type  2   force =    -0.00009432   -0.00037797   -0.00074632
     atom   17 type  2   force =    -0.00014189    0.00019978    0.00008222
     atom   18 type  2   force =     0.00017030   -0.00004046   -0.00013336
     atom   19 type  1   force =     0.00019785   -0.00096408    0.00008453
     atom   20 type  1   force =     0.00016695    0.00026696   -0.00043925
     atom   21 type  2   force =     0.00003194    0.00013430    0.10040327
     atom   22 type  2   force =     0.00014721    0.00071665    0.00001862
     atom   23 type  2   force =    -0.07679596   -0.00000548   -0.03009387
     atom   24 type  2   force =     0.07666649    0.00046556   -0.03013976
     atom   25 type  1   force =    -0.00008505   -0.00045457    0.10716728
     atom   26 type  1   force =    -0.00020966   -0.00131185   -0.16552317
     atom   27 type  2   force =     0.00010110   -0.00031909   -0.03716940
     atom   28 type  2   force =     0.00004595   -0.00000562    0.03054205
     atom   29 type  2   force =    -0.00566598    0.00366107   -0.00700465
     atom   30 type  2   force =     0.00730082    0.00400934   -0.00727655
     atom   31 type  1   force =    -0.00011471   -0.00228352    0.02263459
     atom   32 type  1   force =     0.00032853   -0.01776062    0.06123620
     atom   33 type  2   force =    -0.00017069    0.00018108   -0.00014026
     atom   34 type  2   force =    -0.00143568    0.00001035   -0.05423126
     atom   35 type  2   force =    -0.00002369   -0.00017363   -0.00019379
     atom   36 type  2   force =    -0.00029680    0.00005297   -0.00004206
     atom   37 type  1   force =     0.00013022   -0.00004736    0.00048365
     atom   38 type  1   force =     0.00033851    0.00003558    0.00008879
     atom   39 type  2   force =    -0.00012319    0.00027923   -0.00028453
     atom   40 type  2   force =     0.00000998    0.00028903    0.00052631
     atom   41 type  2   force =    -0.00022578    0.00023011   -0.00008975
     atom   42 type  2   force =     0.00021952    0.00001559   -0.00000297
     atom   43 type  1   force =     0.00021326    0.00049135    0.00034340
     atom   44 type  1   force =     0.00031922    0.00010978   -0.00050440
     atom   45 type  2   force =     0.00003473    0.00013465    0.10024480
     atom   46 type  2   force =    -0.07677105    0.00003413   -0.03008135
     atom   47 type  2   force =     0.07663057    0.00047082   -0.03010037
     atom   48 type  3   force =     0.00049144   -0.00008272   -0.00110689
     atom   49 type  3   force =     0.00038012   -0.00052063   -0.00008697
     atom   50 type  4   force =    -0.00100298    0.00391183   -0.00419789
     atom   51 type  5   force =     0.00102978   -0.00457415    0.00355076
     atom   52 type  5   force =    -0.00048900    0.00020951   -0.00046705
     atom   53 type  5   force =     0.00017966    0.00039730   -0.00062866
     atom   54 type  2   force =     0.00016777   -0.00015901    0.00166921
     atom   55 type  5   force =    -0.00142720   -0.00009648   -0.00114947

     Total force =     0.380823     Total SCF correction =     0.000841
  @ DRIVER MODE: Message from server: STATUS
  @ DRIVER MODE: Message from server: GETFORCE
  @ DRIVER MODE: Returning v,forces,stress,ensemble

     Writing output data file ./calc.save/
  @ DRIVER MODE: Message from server: EXIT
  @ DRIVE MODE: Exiting

     General routines

     Parallel routines

   This run was terminated on:   7:55:19  23Sep2021

   JOB DONE.