     Program PWSCF v.6.7GPU starts on 15Sep2021 at 19: 0:31

     R & G space division:  proc/nbgrp/npool/nimage =      10
     Reading input from /storage/home/hcoda1/3/ntian30/research/carbon/CxH_vib/H2O_calc/ads_slab/CH2H2O_a/out_0011/pw.inp
Warning: card &CELL ignored
Warning: card   CELL_DYNAMICS='IPI', ignored
Warning: card / ignored

     Current dimensions of program PWSCF are:
     Max number of different atomic species (ntypx) = 10
     Max number of k-points (npk) =  40000
     Max angular momentum in pseudopotentials (lmaxx) =  3
     Presently no symmetry can be used with electric field

     Message from routine cell_base_init:
     DEPRECATED: use true lattice parameter, not A to a.u. conversion factor

     IMPORTANT: XC functional enforced from input :
     Exchange-correlation= BEEF-VDW
                           (   1   4  43  14   2   0   0)
     Any further DFT definition will be discarded
     Please, verify this is what you really want

  @ DRIVER MODE: Connecting to
 qe_1139763_2852604.sched-torque.pace.gatech.edu4coek5nc_scratch
  using UNIX socket
  @ DRIVER MODE: Message from server: STATUS
  @ DRIVER MODE: Message from server: INIT
  @ DRIVER MODE: Receiving replica           0          -1
  @ DRIVER MODE: Receiving encoded integer          25
  @ DRIVER MODE:  SCF:  T  FORCE:  T  STRESS:  F  VC:  F  ENSEMBLE:  F
  @ DRIVER MODE:  SCF:  T  FORCE:  T  STRESS:  F  VC:  F  ENSEMBLE:  F

     Using Slab Decomposition

     bravais-lattice index     =            0
     lattice parameter (alat)  =       1.8897  a.u.
     unit-cell volume          =    6658.9804 (a.u.)^3
     number of atoms/cell      =           53
     number of atomic types    =            4
     number of electrons       =       392.00
     number of Kohn-Sham states=          206
     kinetic-energy cutoff     =      29.3995  Ry
     charge density cutoff     =     293.9946  Ry
     scf convergence threshold =      7.3E-08
     mixing beta               =       0.0500
     number of iterations used =            8  plain     mixing
     Exchange-correlation= BEEF-VDW
                           (   1   4  43  14   2   0   0)

     celldm(1)=   1.889726  celldm(2)=   0.000000  celldm(3)=   0.000000
     celldm(4)=   0.000000  celldm(5)=   0.000000  celldm(6)=   0.000000

     crystal axes: (cart. coord. in units of alat)
               a(1) = (   6.579727   0.000000   0.000000 )
               a(2) = (  -0.000775   5.961596   0.000000 )
               a(3) = (   0.000000   0.000000  25.155947 )

     reciprocal axes: (cart. coord. in units 2 pi/alat)
               b(1) = (  0.151982  0.000020  0.000000 )
               b(2) = (  0.000000  0.167740  0.000000 )
               b(3) = (  0.000000  0.000000  0.039752 )

     PseudoPot. # 1 for Ti read from file:
     /storage/coda1/p-amedford6/0/shared/rich_project_chbe-medford/medford-share/data/pseudos_module/espresso/nninc/pbe/van/Ti.UPF
     MD5 check sum: 8e4df49b7f0d34bbd5052bf3f5ea0213
     Pseudo is Ultrasoft, Zval = 12.0
     Generated by new atomic code, or converted to UPF format
     Using radial grid of  851 points,  6 beta functions with:
                l(1) =   0
                l(2) =   0
                l(3) =   1
                l(4) =   1
                l(5) =   2
                l(6) =   2
     Q(r) pseudized with  8 coefficients,  rinner =    1.000   1.000   1.000
                                                       1.000   1.000

     PseudoPot. # 2 for O  read from file:
     /storage/coda1/p-amedford6/0/shared/rich_project_chbe-medford/medford-share/data/pseudos_module/espresso/nninc/pbe/van/O.UPF
     MD5 check sum: 78c19812648e8988a0fe644b0f25305e
     Pseudo is Ultrasoft, Zval =  6.0
     Generated by new atomic code, or converted to UPF format
     Using radial grid of  737 points,  4 beta functions with:
                l(1) =   0
                l(2) =   0
                l(3) =   1
                l(4) =   1
     Q(r) pseudized with  8 coefficients,  rinner =    0.800   0.800   0.800

     PseudoPot. # 3 for C  read from file:
     /storage/coda1/p-amedford6/0/shared/rich_project_chbe-medford/medford-share/data/pseudos_module/espresso/nninc/pbe/van/C.UPF
     MD5 check sum: 1a69bf6b8db32088f5b2163dbdb77a27
     Pseudo is Ultrasoft, Zval =  4.0
     Generated by new atomic code, or converted to UPF format
     Using radial grid of  721 points,  4 beta functions with:
                l(1) =   0
                l(2) =   0
                l(3) =   1
                l(4) =   1
     Q(r) pseudized with  8 coefficients,  rinner =    0.800   0.800   0.800

     PseudoPot. # 4 for H  read from file:
     /storage/coda1/p-amedford6/0/shared/rich_project_chbe-medford/medford-share/data/pseudos_module/espresso/nninc/pbe/van/H.UPF
     MD5 check sum: b5ee9d7bfd3a09ee7748110bda690ff7
     Pseudo is Ultrasoft, Zval =  1.0
     Generated by new atomic code, or converted to UPF format
     Using radial grid of  615 points,  1 beta functions with:
                l(1) =   0
     Q(r) pseudized with  8 coefficients,  rinner =    0.800

     atomic species   valence    mass     pseudopotential
        Ti1           12.00    47.86700     Ti( 1.00)
        O1             6.00    15.99900     O ( 1.00)
        C1             4.00    12.01100     C ( 1.00)
        H1             1.00     1.00800     H ( 1.00)

     No symmetry found

   Cartesian axes

     site n.     atom                  positions (alat units)
         1           Ti1 tau(   1) = (   0.0004258   2.9801865   6.0000000  )
         2           Ti1 tau(   2) = (   3.2906075   1.4906267   6.0002472  )
         3           O1  tau(   3) = (   0.0006271   0.0005054   7.9858123  )
         4           O1  tau(   4) = (   3.2906025   0.0005020   7.3038282  )
         5           O1  tau(   5) = (   4.5942328   1.4918067   9.2879030  )
         6           O1  tau(   6) = (   1.9868534   1.4903216   9.2879459  )
         7           Ti1 tau(   7) = (   3.2791254   2.8632543   9.1696858  )
         8           Ti1 tau(   8) = (   6.5716288   1.4291880   9.3745659  )
         9           O1  tau(   9) = (   3.2719631   5.9564768  11.3413791  )
        10           O1  tau(  10) = (   6.5766582   5.9454684  10.5603319  )
        11           O1  tau(  11) = (   1.2606928   1.4857163  12.6338655  )
        12           O1  tau(  12) = (   5.2561023   1.4877827  12.6114660  )
        13           Ti1 tau(  13) = (   0.0646731   2.9540699  12.8218634  )
        14           Ti1 tau(  14) = (   3.3836270   1.4660460  12.4955168  )
        15           O1  tau(  15) = (   6.5457659   5.9184216  14.5915085  )
        16           O1  tau(  16) = (   3.2744135   0.0171945  13.9516778  )
        17           O1  tau(  17) = (   4.5159629   1.5536209  16.0418326  )
        18           O1  tau(  18) = (   1.9981799   1.5541948  16.0447984  )
        19           Ti1 tau(  19) = (   3.2528476   3.0136947  15.6822407  )
        20           Ti1 tau(  20) = (   6.5571992   1.6159626  16.1493948  )
        21           O1  tau(  21) = (   3.2904802   0.0005063   4.7018136  )
        22           O1  tau(  22) = (   6.5499432   0.0285508  17.2403840  )
        23           O1  tau(  23) = (   1.3043587   1.4918075   6.0039043  )
        24           O1  tau(  24) = (   5.2767064   1.4903225   6.0039473  )
        25           Ti1 tau(  25) = (   0.0000382   5.9609847   6.0000000  )
        26           Ti1 tau(  26) = (   3.2902200   4.4714249   6.0002472  )
        27           O1  tau(  27) = (   0.0002396   2.9813036   7.9858123  )
        28           O1  tau(  28) = (   3.2902150   2.9813002   7.3038282  )
        29           O1  tau(  29) = (   4.5938453   4.4726049   9.2879030  )
        30           O1  tau(  30) = (   1.9864658   4.4711199   9.2879459  )
        31           Ti1 tau(  31) = (   3.2865685   5.8444178   9.1628351  )
        32           Ti1 tau(  32) = (   6.5743218   4.4049426   9.3738558  )
        33           O1  tau(  33) = (   3.2769956   2.9705820  11.3381082  )
        34           O1  tau(  34) = (   6.5775985   2.9640992  10.5572898  )
        35           O1  tau(  35) = (   1.2629977   4.4457513  12.6272354  )
        36           O1  tau(  36) = (   5.2537740   4.4534837  12.6036699  )
        37           Ti1 tau(  37) = (   0.0534783   5.9329931  12.7718795  )
        38           Ti1 tau(  38) = (   3.3808541   4.4548706  12.4760825  )
        39           O1  tau(  39) = (   6.5578179   2.9671967  14.6759119  )
        40           O1  tau(  40) = (   3.2646438   2.9894133  13.8927730  )
        41           O1  tau(  41) = (   4.5094683   4.4833613  16.0328582  )
        42           O1  tau(  42) = (   2.0033084   4.4836886  16.0339364  )
        43           Ti1 tau(  43) = (   3.2772676   0.0291193  15.7865657  )
        44           Ti1 tau(  44) = (   6.5620481   4.6241259  16.1080240  )
        45           O1  tau(  45) = (   3.2900926   2.9813045   4.7018136  )
        46           O1  tau(  46) = (   1.3039711   4.4726057   6.0039043  )
        47           O1  tau(  47) = (   5.2763189   4.4711207   6.0039473  )
        48           C1  tau(  48) = (   6.5362552   2.9989010  17.5868729  )
        49           H1  tau(  49) = (   0.8535040   3.1223538  18.1893289  )
        50           H1  tau(  50) = (   5.6240823   3.1149880  18.1772116  )
        51           O1  tau(  51) = (   3.2614802   0.0224742  18.1496266  )
        52           H1  tau(  52) = (   4.0528939   5.9570843  18.7024920  )
        53           H1  tau(  53) = (   2.4635753   0.0005096  18.6943540  )

     number of k points=    10  Fermi-Dirac smearing, width (Ry)=  0.0073
                       cart. coord. in units 2pi/alat
        k(    1) = (   0.0000000   0.0000000   0.0000000), wk =   0.1250000
        k(    2) = (   0.0000000   0.0419351   0.0000000), wk =   0.2500000
        k(    3) = (   0.0000000  -0.0838702   0.0000000), wk =   0.1250000
        k(    4) = (   0.0379955   0.0000049   0.0000000), wk =   0.2500000
        k(    5) = (   0.0379955   0.0419400   0.0000000), wk =   0.2500000
        k(    6) = (   0.0379955  -0.0838652   0.0000000), wk =   0.2500000
        k(    7) = (   0.0379955  -0.0419301   0.0000000), wk =   0.2500000
        k(    8) = (  -0.0759910  -0.0000099   0.0000000), wk =   0.1250000
        k(    9) = (  -0.0759910   0.0419252   0.0000000), wk =   0.2500000
        k(   10) = (  -0.0759910  -0.0838800   0.0000000), wk =   0.1250000

     Initial potential from superposition of free atoms

     starting charge  375.99917, renormalised to  392.00000

     negative rho (up, down):  1.852E-02 0.000E+00

     %%%%%%%%%%%%%%%%%%%%%%%%%%%%%%%%%%%%%%%%%%%%%%%%%%%%%%%%%%%%%%%%%%%%%%%%
     %                                                                      %
     % You are using vdW-DF, which was implemented by the Thonhauser group. %
     % Please cite the following two papers that made this development      %
     % possible and the two reviews that describe the various versions:     %
     %                                                                      %
     %   T. Thonhauser et al., PRL 115, 136402 (2015).                      %
     %   T. Thonhauser et al., PRB 76, 125112 (2007).                       %
     %   K. Berland et al., Rep. Prog. Phys. 78, 066501 (2015).             %
     %   D.C. Langreth et al., J. Phys.: Condens. Matter 21, 084203 (2009). %
     %                                                                      %
     %                                                                      %
     % If you are calculating the stress with vdW-DF, please also cite:     %
     %                                                                      %
     %   R. Sabatini et al., J. Phys.: Condens. Matter 24, 424209 (2012).   %
     %                                                                      %
     %%%%%%%%%%%%%%%%%%%%%%%%%%%%%%%%%%%%%%%%%%%%%%%%%%%%%%%%%%%%%%%%%%%%%%%%

     Adding external electric field

     Computed dipole along edir(3) :
        Dipole               -5.1797 Ry au,        -13.1654 Debye
        Dipole field         -0.0098 Ry au,

        Potential amp.        0.9061 Ry
        Total length         46.3494 bohr

     Starting wfcs are  296 atomic wfcs
  @ DRIVER MODE: Message from server: STATUS
  @ DRIVER MODE: Message from server: POSDATA
  @ DRIVER MODE: Reading and sharing cell
  @ DRIVER MODE: Reading and sharing positions
  @ DRIVER MODE: Received positions

     Self-consistent Calculation

     iteration #  1     ecut=    29.40 Ry     beta= 0.05
     Davidson diagonalization with overlap
     c_bands:  5 eigenvalues not converged
     c_bands:  3 eigenvalues not converged
     c_bands:  4 eigenvalues not converged
     c_bands:  1 eigenvalues not converged
     c_bands:  2 eigenvalues not converged
     c_bands:  1 eigenvalues not converged
     c_bands:  3 eigenvalues not converged
     c_bands:  1 eigenvalues not converged
     ethr =  1.00E-05,  avg # of iterations = 19.5

[...]

     total energy              =   -2834.33460270 Ry
     estimated scf accuracy    <    1086.86319690 Ry

     iteration #  2     ecut=    29.40 Ry     beta= 0.05
     Davidson diagonalization with overlap
     ethr =  1.00E-02,  avg # of iterations = 15.9

[...]

     iteration # 43     ecut=    29.40 Ry     beta= 0.05
     Davidson diagonalization with overlap
     c_bands:  1 eigenvalues not converged
     c_bands:  1 eigenvalues not converged
     ethr =  3.29E-07,  avg # of iterations =  8.9

[...]

     total energy              =   -2932.56447760 Ry
     estimated scf accuracy    <       0.00000013 Ry

     iteration # 62     ecut=    29.40 Ry     beta= 0.05
     Davidson diagonalization with overlap
     ethr =  3.41E-11,  avg # of iterations =  5.1

     negative rho (up, down):  1.823E-02 0.000E+00

     Adding external electric field

     Computed dipole along edir(3) :
        Dipole                0.9007 Ry au,          2.2892 Debye
        Dipole field          0.0017 Ry au,

        Potential amp.       -0.1576 Ry
        Total length         46.3494 bohr

     End of self-consistent calculation

          k = 0.0000 0.0000 0.0000 ( 18029 PWs)   bands (ev):

   -56.1844 -56.1502 -55.8904 -55.8408 -55.8028 -55.6985 -55.5891 -55.5616
   -55.5275 -55.5080 -55.4913 -55.4555 -55.1233 -54.9909 -54.9690 -54.9351
   -32.6122 -32.4354 -32.4065 -32.3812 -32.3736 -32.2902 -32.2823 -32.2388
   -32.1766 -32.1098 -32.1035 -32.0677 -32.0570 -32.0538 -32.0474 -32.0222
   -31.9976 -31.9961 -31.9654 -31.8944 -31.8707 -31.8386 -31.8212 -31.8086
   -31.8064 -31.7779 -31.7479 -31.7313 -31.7238 -31.7204 -31.6784 -31.6708
   -31.6701 -31.6636 -31.6491 -31.5950 -31.5714 -31.4197 -31.3709 -31.3689
   -31.3214 -31.2954 -31.2716 -31.1873 -31.1661 -31.1024 -31.0356 -30.9904
   -19.2301 -16.5186 -16.3490 -16.1132 -15.9784 -15.8967 -15.7367 -15.5559
   -15.5471 -15.4584 -15.4352 -15.3594 -15.3501 -15.3157 -15.3034 -15.2954
   -15.2809 -15.2567 -15.2110 -15.1996 -15.1991 -15.1506 -15.0957 -15.0023
   -14.9910 -14.9428 -14.8247 -14.8174 -14.7829 -14.6370 -13.4629 -13.3492
    -8.0834  -7.2721  -3.9971  -3.9288  -3.8113  -3.7191  -3.6942  -3.5790
    -3.3395  -3.2692  -3.0121  -2.9811  -2.9389  -2.8920  -2.8775  -2.7973
    -2.7140  -2.6896  -2.6619  -2.6365  -2.6015  -2.5940  -2.5310  -2.5232
    -2.4988  -2.4934  -2.4289  -2.4142  -2.3719  -2.2356  -2.1855  -2.1619
    -2.1486  -2.1088  -2.0766  -2.0114  -1.9882  -1.9637  -1.9024  -1.7566
    -1.7295  -1.6487  -1.6208  -1.5494  -1.4598  -1.4460  -1.2995  -1.2814
    -1.2458  -1.2340  -1.2065  -1.1543  -1.1342  -1.0277  -0.8973  -0.8175
    -0.7856  -0.7643  -0.7503  -0.7036  -0.6673  -0.6136  -0.6055  -0.5624
    -0.4884  -0.4794  -0.4027  -0.2177  -0.2036  -0.1929  -0.1755  -0.1338
    -0.1041  -0.0815  -0.0386   0.0067   0.0313   0.0899   0.0998   0.1313
     0.1490   0.2261   0.2767   0.3305   0.3366   0.4497   0.5607   0.6273
     0.6430   0.6712   0.7721   0.7839   0.9898   1.0082   1.0587   1.2703
     1.3159   1.6442   1.7159   2.1717   3.0844   3.2597   3.4627   3.5613
     3.5814   3.6765   3.6894   3.8211   3.8785   3.9264

[...]

          k = 0.0380-0.0419 0.0000 ( 17876 PWs)   bands (ev):

[...]

          k =-0.0760-0.0000 0.0000 ( 17886 PWs)   bands (ev):

[...]

          k =-0.0760-0.0839 0.0000 ( 17948 PWs)   bands (ev):

   -56.1703 -56.1641 -55.8888 -55.8281 -55.8153 -55.6999 -55.5852 -55.5454
   -55.5433 -55.5117 -55.4772 -55.4697 -55.1211 -54.9930 -54.9520 -54.9520
   -32.4322 -32.4270 -32.4242 -32.4167 -32.3288 -32.3236 -32.1956 -32.1831
   -32.1689 -32.1579 -32.1057 -32.0914 -32.0519 -32.0318 -32.0280 -32.0161
   -31.9983 -31.9020 -31.9015 -31.8756 -31.8750 -31.8389 -31.8165 -31.8067
   -31.8037 -31.7966 -31.7897 -31.7868 -31.7579 -31.7560 -31.7541 -31.7384
   -31.6925 -31.6853 -31.6823 -31.6754 -31.4815 -31.4184 -31.3748 -31.2936
   -31.2845 -31.2845 -31.2769 -31.1833 -31.1829 -31.1450 -31.1448 -31.0487
   -19.2294 -16.0082 -15.8980 -15.7453 -15.7053 -15.6617 -15.6613 -15.6310
   -15.5976 -15.5618 -15.5554 -15.4661 -15.4344 -15.4205 -15.4088 -15.3434
   -15.3376 -15.3328 -15.3293 -15.2682 -15.2615 -15.1475 -15.1397 -15.0596
   -15.0491 -15.0195 -14.9975 -14.9541 -14.9476 -14.7878 -13.4515 -13.4515
    -8.0879  -7.2652  -3.9182  -3.3087  -3.0904  -2.9690  -2.9303  -2.8048
    -2.7932  -2.7929  -2.7801  -2.7740  -2.7277  -2.6726  -2.6524  -2.6409
    -2.6155  -2.6023  -2.5748  -2.5666  -2.5396  -2.5378  -2.5322  -2.5279
    -2.5100  -2.4923  -2.4355  -2.4269  -2.4108  -2.3816  -2.3022  -2.2870
    -2.1964  -2.1178  -2.0777  -2.0762  -2.0155  -1.9806  -1.8986  -1.8901
    -1.8737  -1.8683  -1.8048  -1.6130  -1.5563  -1.5510  -1.5137  -1.4787
    -1.3181  -1.2801  -1.2178  -1.1766  -1.1469  -1.1342  -1.0574  -1.0468
    -1.0216  -0.9673  -0.9628  -0.9556  -0.9398  -0.8592  -0.8427  -0.8156
    -0.7412  -0.6999  -0.6836  -0.6580  -0.6274  -0.5743  -0.4899  -0.4669
    -0.4548  -0.4398  -0.3111  -0.2734  -0.2464  -0.2058  -0.1574   0.1076
     0.1174   0.2031   0.3000   0.3945   0.4342   0.5362   0.5541   0.5606
     0.6873   0.7002   0.7057   0.7147   0.8152   0.8220   0.8621   1.4438
     1.4461   1.4986   1.4999   2.4412   3.6077   3.6148   3.6263   3.6316
     3.6544   3.6844   3.7039   3.7353   4.0259   4.0514

     the Fermi energy is     2.7915 ev

!    total energy              =   -2932.56455250 Ry
     estimated scf accuracy    <       0.00000007 Ry
     smearing contrib. (-TS)   =      -0.00166958 Ry
     internal energy E=F+TS    =   -2932.56288291 Ry

     The total energy is F=E-TS. E is the sum of the following terms:
     one-electron contribution =  -24523.66054950 Ry
     hartree contribution      =   12349.42669585 Ry
     xc contribution           =    -482.74863625 Ry
     ewald contribution        =    9724.41807620 Ry
     electric field correction =       0.00153079 Ry

     convergence has been achieved in  62 iterations

     Forces acting on atoms (cartesian axes, Ry/au):

     atom    1 type  1   force =     0.00029991   -0.00016190    0.14556823
     atom    2 type  1   force =     0.00005080    0.00071550   -0.16926230
     atom    3 type  2   force =     0.00003671    0.00234843   -0.06021842
     atom    4 type  2   force =    -0.00017239   -0.00141759    0.03907824
     atom    5 type  2   force =    -0.02195638   -0.00032511    0.00361119
     atom    6 type  2   force =     0.01964647   -0.00081613    0.00222619
     atom    7 type  1   force =     0.00013986   -0.00000512    0.00042134
     atom    8 type  1   force =     0.00006445    0.00008297    0.00108475
     atom    9 type  2   force =    -0.00007968   -0.00028601    0.00032123
     atom   10 type  2   force =     0.00010428    0.00014513   -0.00059321
     atom   11 type  2   force =     0.00009113    0.00001427    0.00100409
     atom   12 type  2   force =     0.00069955    0.00009466    0.00105396
     atom   13 type  1   force =    -0.00072419   -0.00015234   -0.00043213
     atom   14 type  1   force =     0.00037916   -0.00104216   -0.00001333
     atom   15 type  2   force =     0.00018862   -0.00018065    0.00092948
     atom   16 type  2   force =    -0.00005888   -0.00028371    0.00145693
     atom   17 type  2   force =     0.00007983   -0.00057362    0.00022081
     atom   18 type  2   force =    -0.00010981   -0.00065445    0.00026499
     atom   19 type  1   force =     0.00089738   -0.00065675   -0.00037367
     atom   20 type  1   force =    -0.00046515    0.00050841   -0.00030248
     atom   21 type  2   force =     0.00012700   -0.00007728    0.10214435
     atom   22 type  2   force =     0.00015580   -0.00000149    0.00002171
     atom   23 type  2   force =    -0.07476337    0.00031847   -0.03449792
     atom   24 type  2   force =     0.07483622    0.00076482   -0.03456967
     atom   25 type  1   force =     0.00008952   -0.00007098    0.14714299
     atom   26 type  1   force =     0.00001051   -0.00209228   -0.16943722
     atom   27 type  2   force =     0.00001623    0.00192907   -0.05937323
     atom   28 type  2   force =    -0.00028669   -0.00139789    0.03996532
     atom   29 type  2   force =    -0.02159813    0.00107333    0.00383204
     atom   30 type  2   force =     0.02034679   -0.00011304    0.00245001
     atom   31 type  1   force =     0.00013687    0.00017366    0.00131170
     atom   32 type  1   force =     0.00006296   -0.00024424    0.00118634
     atom   33 type  2   force =    -0.00010620   -0.00006563   -0.00057702
     atom   34 type  2   force =     0.00010723    0.00010056   -0.00066100
     atom   35 type  2   force =     0.00028815   -0.00037431    0.00076765
     atom   36 type  2   force =     0.00033034   -0.00045040    0.00083466
     atom   37 type  1   force =    -0.00058283   -0.00014473   -0.00054568
     atom   38 type  1   force =     0.00048916    0.00060593   -0.00035472
     atom   39 type  2   force =     0.00032054   -0.00001018   -0.00030326
     atom   40 type  2   force =    -0.00010024   -0.00013941    0.00178382
     atom   41 type  2   force =     0.00005003    0.00050682    0.00032573
     atom   42 type  2   force =    -0.00016848    0.00048867    0.00042971
     atom   43 type  1   force =     0.00047906    0.00057108   -0.00027760
     atom   44 type  1   force =    -0.00051956    0.00010792   -0.00028593
     atom   45 type  2   force =     0.00012073   -0.00010697    0.10206334
     atom   46 type  2   force =    -0.07475119   -0.00001537   -0.03446424
     atom   47 type  2   force =     0.07484153    0.00044053   -0.03456380
     atom   48 type  3   force =    -0.00530627   -0.00108903   -0.00424796
     atom   49 type  4   force =     0.00508351    0.00059589    0.00404607
     atom   50 type  4   force =     0.00097258   -0.00002944   -0.00006902
     atom   51 type  2   force =     0.00022092    0.00100663   -0.00091647
     atom   52 type  4   force =     0.00057678    0.00018155    0.00036764
     atom   53 type  4   force =    -0.00059119    0.00020390    0.00042578

     Total force =     0.400500     Total SCF correction =     0.000531
  @ DRIVER MODE: Message from server: STATUS
  @ DRIVER MODE: Message from server: GETFORCE
  @ DRIVER MODE: Returning v,forces,stress,ensemble

     Writing output data file ./calc.save/
  @ DRIVER MODE: Message from server: EXIT
  @ DRIVE MODE: Exiting

     General routines

     Parallel routines

   This run was terminated on:  19:15:35  15Sep2021

   JOB DONE.