     Program PWSCF v.6.7GPU starts on 23Sep2021 at 13:42: 2

     R & G space division:  proc/nbgrp/npool/nimage =       8
     Reading input from /storage/home/hcoda1/3/ntian30/research/carbon/CxH_vib/H2O_calc/ads_slab/CH3NH2NHHO_c/out_0007/pw.inp
Warning: card &CELL ignored
Warning: card   CELL_DYNAMICS='IPI', ignored
Warning: card / ignored

     Current dimensions of program PWSCF are:
     Max number of different atomic species (ntypx) = 10
     Max number of k-points (npk) =  40000
     Max angular momentum in pseudopotentials (lmaxx) =  3
     Presently no symmetry can be used with electric field

     Message from routine cell_base_init:
     DEPRECATED: use true lattice parameter, not A to a.u. conversion factor

     IMPORTANT: XC functional enforced from input :
     Exchange-correlation= BEEF-VDW
                           (   1   4  43  14   2   0   0)
     Any further DFT definition will be discarded
     Please, verify this is what you really want

  @ DRIVER MODE: Connecting to
 qe_1139763_2947310.sched-torque.pace.gatech.eduymzb7q21_scratch
  using UNIX socket
  @ DRIVER MODE: Message from server: STATUS
  @ DRIVER MODE: Message from server: INIT
  @ DRIVER MODE: Receiving replica           0          -1
  @ DRIVER MODE: Receiving encoded integer          25
  @ DRIVER MODE:  SCF:  T  FORCE:  T  STRESS:  F  VC:  F  ENSEMBLE:  F
  @ DRIVER MODE:  SCF:  T  FORCE:  T  STRESS:  F  VC:  F  ENSEMBLE:  F

     Using Slab Decomposition

     bravais-lattice index     =            0
     lattice parameter (alat)  =       1.8897  a.u.
     unit-cell volume          =    6658.9804 (a.u.)^3
     number of atoms/cell      =           58
     number of atomic types    =            5
     number of electrons       =       405.00
     number of Kohn-Sham states=          212
     kinetic-energy cutoff     =      29.3995  Ry
     charge density cutoff     =     293.9946  Ry
     scf convergence threshold =      7.3E-08
     mixing beta               =       0.0500
     number of iterations used =            8  plain     mixing
     Exchange-correlation= BEEF-VDW
                           (   1   4  43  14   2   0   0)

     celldm(1)=   1.889726  celldm(2)=   0.000000  celldm(3)=   0.000000
     celldm(4)=   0.000000  celldm(5)=   0.000000  celldm(6)=   0.000000

     crystal axes: (cart. coord. in units of alat)
               a(1) = (   6.579727   0.000000   0.000000 )
               a(2) = (  -0.000775   5.961596   0.000000 )
               a(3) = (   0.000000   0.000000  25.155947 )

     reciprocal axes: (cart. coord. in units 2 pi/alat)
               b(1) = (  0.151982  0.000020  0.000000 )
               b(2) = (  0.000000  0.167740  0.000000 )
               b(3) = (  0.000000  0.000000  0.039752 )

     PseudoPot. # 1 for Ti read from file:
     /storage/coda1/p-amedford6/0/shared/rich_project_chbe-medford/medford-share/data/pseudos_module/espresso/nninc/pbe/van/Ti.UPF
     MD5 check sum: 8e4df49b7f0d34bbd5052bf3f5ea0213
     Pseudo is Ultrasoft, Zval = 12.0
     Generated by new atomic code, or converted to UPF format
     Using radial grid of  851 points,  6 beta functions with:
                l(1) =   0
                l(2) =   0
                l(3) =   1
                l(4) =   1
                l(5) =   2
                l(6) =   2
     Q(r) pseudized with  8 coefficients,  rinner =    1.000   1.000   1.000
                                                       1.000   1.000

     PseudoPot. # 2 for O  read from file:
     /storage/coda1/p-amedford6/0/shared/rich_project_chbe-medford/medford-share/data/pseudos_module/espresso/nninc/pbe/van/O.UPF
     MD5 check sum: 78c19812648e8988a0fe644b0f25305e
     Pseudo is Ultrasoft, Zval =  6.0
     Generated by new atomic code, or converted to UPF format
     Using radial grid of  737 points,  4 beta functions with:
                l(1) =   0
                l(2) =   0
                l(3) =   1
                l(4) =   1
     Q(r) pseudized with  8 coefficients,  rinner =    0.800   0.800   0.800

     PseudoPot. # 3 for N  read from file:
     /storage/coda1/p-amedford6/0/shared/rich_project_chbe-medford/medford-share/data/pseudos_module/espresso/nninc/pbe/van/N.UPF
     MD5 check sum: 90d10febe142ad51ac9d5be1deb811c4
     Pseudo is Ultrasoft, Zval =  5.0
     Generated by new atomic code, or converted to UPF format
     Using radial grid of  729 points,  4 beta functions with:
                l(1) =   0
                l(2) =   0
                l(3) =   1
                l(4) =   1
     Q(r) pseudized with  8 coefficients,  rinner =    0.800   0.800   0.800

     PseudoPot. # 4 for C  read from file:
     /storage/coda1/p-amedford6/0/shared/rich_project_chbe-medford/medford-share/data/pseudos_module/espresso/nninc/pbe/van/C.UPF
     MD5 check sum: 1a69bf6b8db32088f5b2163dbdb77a27
     Pseudo is Ultrasoft, Zval =  4.0
     Generated by new atomic code, or converted to UPF format
     Using radial grid of  721 points,  4 beta functions with:
                l(1) =   0
                l(2) =   0
                l(3) =   1
                l(4) =   1
     Q(r) pseudized with  8 coefficients,  rinner =    0.800   0.800   0.800

     PseudoPot. # 5 for H  read from file:
     /storage/coda1/p-amedford6/0/shared/rich_project_chbe-medford/medford-share/data/pseudos_module/espresso/nninc/pbe/van/H.UPF
     MD5 check sum: b5ee9d7bfd3a09ee7748110bda690ff7
     Pseudo is Ultrasoft, Zval =  1.0
     Generated by new atomic code, or converted to UPF format
     Using radial grid of  615 points,  1 beta functions with:
                l(1) =   0
     Q(r) pseudized with  8 coefficients,  rinner =    0.800

     atomic species   valence    mass     pseudopotential
        Ti1           12.00    47.86700     Ti( 1.00)
        O1             6.00    15.99900     O ( 1.00)
        N1             5.00    14.00700     N ( 1.00)
        C1             4.00    12.01100     C ( 1.00)
        H1             1.00     1.00800     H ( 1.00)

     No symmetry found

   Cartesian axes

     site n.     atom                  positions (alat units)
         1           Ti1 tau(   1) = (   0.0004258   2.9801865   6.0000000  )
         2           Ti1 tau(   2) = (   3.2906075   1.4906267   6.0002472  )
         3           O1  tau(   3) = (   0.0006271   0.0005054   7.9858123  )
         4           O1  tau(   4) = (   3.2906025   0.0005020   7.3038282  )
         5           O1  tau(   5) = (   4.5942328   1.4918067   9.2879030  )
         6           O1  tau(   6) = (   1.9868534   1.4903216   9.2879459  )
         7           Ti1 tau(   7) = (   3.2907910   2.8959150   9.1758416  )
         8           Ti1 tau(   8) = (   0.0015273   1.4827037   9.2680791  )
         9           O1  tau(   9) = (   3.2766908   5.9368450  11.3531397  )
        10           O1  tau(  10) = (   0.0116148   5.9584955  10.6183126  )
        11           O1  tau(  11) = (   1.2656210   1.4746568  12.6519442  )
        12           O1  tau(  12) = (   5.2821112   1.4671822  12.6528637  )
        13           Ti1 tau(  13) = (   0.0097886   3.0246942  12.5604876  )
        14           Ti1 tau(  14) = (   3.2716845   1.2919425  12.6923688  )
        15           O1  tau(  15) = (   6.5701288   5.9533353  14.7096902  )
        16           O1  tau(  16) = (   3.2612835   0.0684280  14.0222998  )
        17           O1  tau(  17) = (   4.5366247   1.5847279  16.0182572  )
        18           O1  tau(  18) = (   1.9973522   1.5932486  16.1410213  )
        19           Ti1 tau(  19) = (   3.3011230   3.0369928  15.6528835  )
        20           Ti1 tau(  20) = (   6.4616919   1.5442775  15.7581475  )
        21           O1  tau(  21) = (   3.2904802   0.0005063   4.7018136  )
        22           O1  tau(  22) = (   6.5264998   0.0144113  17.2942622  )
        23           O1  tau(  23) = (   1.3043587   1.4918075   6.0039043  )
        24           O1  tau(  24) = (   5.2767064   1.4903225   6.0039473  )
        25           Ti1 tau(  25) = (   0.0000382   5.9609847   6.0000000  )
        26           Ti1 tau(  26) = (   3.2902200   4.4714249   6.0002472  )
        27           O1  tau(  27) = (   0.0002396   2.9813036   7.9858123  )
        28           O1  tau(  28) = (   3.2902150   2.9813002   7.3038282  )
        29           O1  tau(  29) = (   4.5938453   4.4726049   9.2879030  )
        30           O1  tau(  30) = (   1.9864658   4.4711199   9.2879459  )
        31           Ti1 tau(  31) = (   3.2891106   5.8743827   9.1763621  )
        32           Ti1 tau(  32) = (   0.0006254   4.4649316   9.2693709  )
        33           O1  tau(  33) = (   3.2807216   2.9716845  11.3098041  )
        34           O1  tau(  34) = (   0.0092240   2.9805883  10.6323155  )
        35           O1  tau(  35) = (   1.2724369   4.4570745  12.6376724  )
        36           O1  tau(  36) = (   5.2808598   4.4590940  12.6336130  )
        37           Ti1 tau(  37) = (   6.5522345   0.0346224  12.5198063  )
        38           Ti1 tau(  38) = (   3.2841791   4.3624788  12.4156291  )
        39           O1  tau(  39) = (   6.5678423   2.9906399  14.7075790  )
        40           O1  tau(  40) = (   3.2630306   2.9991211  13.8878987  )
        41           O1  tau(  41) = (   4.5399391   4.4365880  16.1202346  )
        42           O1  tau(  42) = (   1.9952260   4.4486394  16.1468368  )
        43           Ti1 tau(  43) = (   3.1909378   0.0332154  16.1742435  )
        44           Ti1 tau(  44) = (   6.5525253   4.6749982  16.1158565  )
        45           O1  tau(  45) = (   3.2900926   2.9813045   4.7018136  )
        46           O1  tau(  46) = (   1.3039711   4.4726057   6.0039043  )
        47           O1  tau(  47) = (   5.2763189   4.4711207   6.0039473  )
        48           N1  tau(  48) = (   0.9351815   2.3805788  18.4294677  )
        49           N1  tau(  49) = (   6.4901775   2.8750743  17.5309975  )
        50           C1  tau(  50) = (   1.3386797   3.2909482  19.5301671  )
        51           H1  tau(  51) = (   0.4734699   3.4817333  20.1622224  )
        52           H1  tau(  52) = (   2.1262835   2.8019037  20.1042238  )
        53           H1  tau(  53) = (   1.7016266   4.2178517  19.0939426  )
        54           H1  tau(  54) = (   0.6429753   1.4474929  18.7566963  )
        55           H1  tau(  55) = (   5.6191021   2.8022447  18.0351622  )
        56           H1  tau(  56) = (   1.7303324   2.1440475  17.7969061  )
        57           O1  tau(  57) = (   3.3671931   0.1367260  18.0860582  )
        58           H1  tau(  58) = (   4.3009782   5.9598238  18.3144400  )

     number of k points=    10  Fermi-Dirac smearing, width (Ry)=  0.0073
                       cart. coord. in units 2pi/alat
        k(    1) = (   0.0000000   0.0000000   0.0000000), wk =   0.1250000
        k(    2) = (   0.0000000   0.0419351   0.0000000), wk =   0.2500000
        k(    3) = (   0.0000000  -0.0838702   0.0000000), wk =   0.1250000
        k(    4) = (   0.0379955   0.0000049   0.0000000), wk =   0.2500000
        k(    5) = (   0.0379955   0.0419400   0.0000000), wk =   0.2500000
        k(    6) = (   0.0379955  -0.0838652   0.0000000), wk =   0.2500000
        k(    7) = (   0.0379955  -0.0419301   0.0000000), wk =   0.2500000
        k(    8) = (  -0.0759910  -0.0000099   0.0000000), wk =   0.1250000
        k(    9) = (  -0.0759910   0.0419252   0.0000000), wk =   0.2500000
        k(   10) = (  -0.0759910  -0.0838800   0.0000000), wk =   0.1250000

     Initial potential from superposition of free atoms

     starting charge  388.99913, renormalised to  405.00000

     negative rho (up, down):  1.470E-02 0.000E+00

     %%%%%%%%%%%%%%%%%%%%%%%%%%%%%%%%%%%%%%%%%%%%%%%%%%%%%%%%%%%%%%%%%%%%%%%%
     %                                                                      %
     % You are using vdW-DF, which was implemented by the Thonhauser group. %
     % Please cite the following two papers that made this development      %
     % possible and the two reviews that describe the various versions:     %
     %                                                                      %
     %   T. Thonhauser et al., PRL 115, 136402 (2015).                      %
     %   T. Thonhauser et al., PRB 76, 125112 (2007).                       %
     %   K. Berland et al., Rep. Prog. Phys. 78, 066501 (2015).             %
     %   D.C. Langreth et al., J. Phys.: Condens. Matter 21, 084203 (2009). %
     %                                                                      %
     %                                                                      %
     % If you are calculating the stress with vdW-DF, please also cite:     %
     %                                                                      %
     %   R. Sabatini et al., J. Phys.: Condens. Matter 24, 424209 (2012).   %
     %                                                                      %
     %%%%%%%%%%%%%%%%%%%%%%%%%%%%%%%%%%%%%%%%%%%%%%%%%%%%%%%%%%%%%%%%%%%%%%%%

     Adding external electric field

     Computed dipole along edir(3) :
        Dipole              -13.9957 Ry au,        -35.5736 Debye
        Dipole field         -0.0264 Ry au,

        Potential amp.        2.4483 Ry
        Total length         46.3494 bohr

     Starting wfcs are  307 atomic wfcs
  @ DRIVER MODE: Message from server: STATUS
  @ DRIVER MODE: Message from server: POSDATA
  @ DRIVER MODE: Reading and sharing cell
  @ DRIVER MODE: Reading and sharing positions
  @ DRIVER MODE: Received positions

     Self-consistent Calculation

     iteration #  1     ecut=    29.40 Ry     beta= 0.05
     Davidson diagonalization with overlap
     c_bands:  5 eigenvalues not converged
     c_bands:  5 eigenvalues not converged
     c_bands:  1 eigenvalues not converged
     c_bands:  2 eigenvalues not converged
     c_bands:  3 eigenvalues not converged
     ethr =  1.00E-05,  avg # of iterations = 28.5

[...]

     total energy              =   -2225.13003587 Ry
     estimated scf accuracy    <    8520.62378276 Ry

     iteration #  2     ecut=    29.40 Ry     beta= 0.05
     Davidson diagonalization with overlap
     ethr =  1.00E-02,  avg # of iterations = 25.2

[...]

     iteration # 74     ecut=    29.40 Ry     beta= 0.05
     Davidson diagonalization with overlap
     c_bands:  1 eigenvalues not converged
     ethr =  2.91E-11,  avg # of iterations =  7.2

[...]

     total energy              =   -2976.49305366 Ry
     estimated scf accuracy    <       0.00000012 Ry

     iteration # 75     ecut=    29.40 Ry     beta= 0.05
     Davidson diagonalization with overlap
     ethr =  2.91E-11,  avg # of iterations = 10.6

     negative rho (up, down):  1.566E-02 0.000E+00

     Adding external electric field

     Computed dipole along edir(3) :
        Dipole                1.5006 Ry au,          3.8141 Debye
        Dipole field          0.0028 Ry au,

        Potential amp.       -0.2625 Ry
        Total length         46.3494 bohr

     End of self-consistent calculation

          k = 0.0000 0.0000 0.0000 ( 18029 PWs)   bands (ev):

   -55.2982 -55.1738 -55.1397 -55.0039 -54.9947 -54.9901 -54.9690 -54.9611
   -54.9310 -54.8822 -54.8498 -54.8136 -54.7910 -54.7507 -54.1372 -54.1032
   -31.6565 -31.6257 -31.5446 -31.4960 -31.4934 -31.4890 -31.4658 -31.4466
   -31.4193 -31.4150 -31.3700 -31.3339 -31.3260 -31.2785 -31.2659 -31.2582
   -31.2516 -31.2311 -31.2155 -31.1985 -31.1850 -31.1825 -31.1722 -31.1685
   -31.1496 -31.1268 -31.1246 -31.1210 -31.1110 -31.1033 -31.0972 -31.0769
   -31.0675 -31.0548 -31.0377 -31.0244 -31.0231 -31.0114 -31.0083 -31.0060
   -30.9800 -30.9405 -30.5430 -30.4577 -30.4351 -30.3605 -30.2741 -30.1624
   -18.8223 -16.0447 -15.8062 -15.6552 -15.4869 -15.3414 -15.2549 -15.0555
   -14.9396 -14.9011 -14.8815 -14.8072 -14.7055 -14.7048 -14.6610 -14.6337
   -14.6294 -14.6007 -14.5894 -14.5874 -14.5692 -14.5206 -14.5057 -14.4607
   -14.4545 -14.4152 -14.3030 -14.2336 -14.1890 -14.1164 -13.9981 -13.1028
   -12.6363 -12.5202 -10.7987  -7.5541  -6.2326  -5.5826  -3.7423  -3.6268
    -3.4431  -3.1668  -3.1009  -3.0716  -3.0445  -2.8915  -2.7660  -2.5860
    -2.4802  -2.4315  -2.3131  -2.2958  -2.2144  -2.1652  -2.1210  -2.0731
    -2.0427  -1.9770  -1.9604  -1.9557  -1.9279  -1.8611  -1.8333  -1.7181
    -1.6885  -1.6254  -1.5680  -1.4988  -1.4818  -1.4753  -1.4685  -1.4569
    -1.4285  -1.4130  -1.3821  -1.3427  -1.2609  -1.2069  -1.2004  -1.1601
    -1.0767  -0.8920  -0.7681  -0.7441  -0.6860  -0.6428  -0.5912  -0.5791
    -0.5557  -0.5174  -0.4117  -0.3975  -0.3344  -0.3056  -0.2423  -0.1921
    -0.1650  -0.1005  -0.0393   0.0482   0.0689   0.0866   0.1282   0.1746
     0.2459   0.2822   0.3222   0.3510   0.4406   0.4938   0.5539   0.5608
     0.5928   0.6656   0.7219   0.7691   0.7897   0.8089   0.8600   0.8760
     0.9194   0.9744   1.0152   1.0311   1.1013   1.1599   1.2073   1.2405
     1.3384   1.3552   1.5131   1.5685   1.8360   1.8885   1.9562   2.0821
     2.4550   2.4998   3.9347   4.0553   4.0665   4.0889   4.1679   4.2308
     4.3980   4.4048   4.5170   4.6177

[...]

          k = 0.0380-0.0419 0.0000 ( 17876 PWs)   bands (ev):

[...]

          k =-0.0760-0.0000 0.0000 ( 17886 PWs)   bands (ev):

[...]

          k =-0.0760-0.0839 0.0000 ( 17948 PWs)   bands (ev):

   -55.2974 -55.1571 -55.1562 -54.9907 -54.9878 -54.9850 -54.9787 -54.9767
   -54.9242 -54.8890 -54.8395 -54.8238 -54.7838 -54.7578 -54.1206 -54.1197
   -31.5589 -31.5360 -31.4903 -31.4721 -31.4715 -31.4516 -31.4508 -31.4134
   -31.3142 -31.3075 -31.3015 -31.3005 -31.2954 -31.2768 -31.2758 -31.2669
   -31.2666 -31.2457 -31.2432 -31.2146 -31.2017 -31.1978 -31.1967 -31.1907
   -31.1765 -31.1662 -31.1577 -31.1528 -31.1502 -31.1453 -31.1411 -31.1216
   -31.1103 -31.0884 -31.0726 -31.0671 -31.0316 -31.0301 -31.0182 -31.0158
   -31.0096 -30.9926 -30.4482 -30.4475 -30.3564 -30.3553 -30.3177 -30.3170
   -18.8180 -16.0105 -15.3738 -15.1697 -15.1073 -15.0837 -15.0690 -15.0327
   -15.0064 -14.9519 -14.9329 -14.8745 -14.8443 -14.8312 -14.7596 -14.7441
   -14.6886 -14.6593 -14.6466 -14.6070 -14.6025 -14.5801 -14.5478 -14.5393
   -14.4740 -14.4601 -14.4566 -14.3643 -14.3548 -14.2340 -14.1842 -13.1141
   -12.6224 -12.6218 -10.8008  -7.5649  -6.2182  -5.5725  -3.6844  -3.6445
    -3.3982  -2.5856  -2.4542  -2.4433  -2.3023  -2.2905  -2.1931  -2.1462
    -2.0937  -2.0747  -2.0513  -2.0338  -2.0031  -1.9703  -1.9543  -1.9465
    -1.9175  -1.8960  -1.8710  -1.8653  -1.8298  -1.8250  -1.8035  -1.7803
    -1.7700  -1.7357  -1.7217  -1.7174  -1.7035  -1.6537  -1.6313  -1.4695
    -1.4376  -1.3468  -1.3131  -1.2901  -1.2807  -1.2550  -1.2377  -1.2169
    -1.1618  -1.1078  -1.0482  -0.9210  -0.8757  -0.8117  -0.7760  -0.6987
    -0.6571  -0.6238  -0.5955  -0.5720  -0.5383  -0.4812  -0.4045  -0.3495
    -0.3045  -0.2626  -0.1648  -0.1457  -0.1233  -0.1118  -0.0782  -0.0200
    -0.0124   0.0434   0.0624   0.1255   0.1403   0.1559   0.1739   0.2565
     0.3519   0.4326   0.4563   0.5478   0.5656   0.6552   0.7019   0.8025
     0.9148   0.9602   1.0003   1.0095   1.0934   1.0990   1.1547   1.1776
     1.2606   1.3493   1.4132   1.4216   1.4416   1.4953   2.2514   2.2600
     2.3200   2.3203   4.1842   4.3482   4.4282   4.4397   4.4717   4.4826
     4.5150   4.5175   4.6038   4.6131

     the Fermi energy is     3.9539 ev

!    total energy              =   -2976.49307754 Ry
     estimated scf accuracy    <       0.00000003 Ry
     smearing contrib. (-TS)   =      -0.02056933 Ry
     internal energy E=F+TS    =   -2976.47250820 Ry

     The total energy is F=E-TS. E is the sum of the following terms:
     one-electron contribution =  -23616.93099287 Ry
     hartree contribution      =   11908.19985840 Ry
     xc contribution           =    -495.76779224 Ry
     ewald contribution        =    9228.02216923 Ry
     electric field correction =       0.00424927 Ry

     convergence has been achieved in  75 iterations

     Forces acting on atoms (cartesian axes, Ry/au):

     atom    1 type  1   force =     0.00013923   -0.00013325    0.09534302
     atom    2 type  1   force =    -0.00002625    0.00040283   -0.17476633
     atom    3 type  2   force =     0.00004180   -0.00018578   -0.02255593
     atom    4 type  2   force =     0.00001507   -0.00200589    0.05318407
     atom    5 type  2   force =    -0.00813857   -0.00302486    0.00227397
     atom    6 type  2   force =     0.00923575   -0.00231983    0.00056791
     atom    7 type  1   force =    -0.00078137   -0.00509088    0.00572947
     atom    8 type  1   force =     0.00083890    0.00656944    0.01468638
     atom    9 type  2   force =     0.00011581    0.00043104    0.00073396
     atom   10 type  2   force =    -0.00346558    0.00091582   -0.01237930
     atom   11 type  2   force =    -0.00001121   -0.00056083    0.00027899
     atom   12 type  2   force =     0.00007261   -0.00042745    0.00022495
     atom   13 type  1   force =     0.00094099    0.00087509    0.00013873
     atom   14 type  1   force =    -0.00018571    0.00011975   -0.00041184
     atom   15 type  2   force =     0.00003905   -0.00074065   -0.00080880
     atom   16 type  2   force =     0.00010272   -0.00013435    0.00092144
     atom   17 type  2   force =    -0.00035180   -0.00002637   -0.00029718
     atom   18 type  2   force =    -0.00022652    0.00035674    0.00000703
     atom   19 type  1   force =     0.00032977   -0.00007946   -0.00008820
     atom   20 type  1   force =    -0.00024581    0.00004480   -0.00016603
     atom   21 type  2   force =     0.00009442    0.00000095    0.10305063
     atom   22 type  2   force =     0.00019706    0.00013439    0.00065214
     atom   23 type  2   force =    -0.07212766   -0.00022260   -0.02758310
     atom   24 type  2   force =     0.07208365    0.00026273   -0.02760453
     atom   25 type  1   force =     0.00015821   -0.00028784    0.09519993
     atom   26 type  1   force =     0.00000410   -0.00123945   -0.17523950
     atom   27 type  2   force =    -0.00000556    0.00008715   -0.02151822
     atom   28 type  2   force =     0.00005437   -0.00043807    0.04875855
     atom   29 type  2   force =    -0.00785699    0.00198395    0.00251685
     atom   30 type  2   force =     0.00888327    0.00234237    0.00069468
     atom   31 type  1   force =    -0.00070232    0.00834054   -0.00445768
     atom   32 type  1   force =     0.00106056   -0.00751334    0.01445698
     atom   33 type  2   force =     0.00012477    0.00022615   -0.00001016
     atom   34 type  2   force =    -0.00269668   -0.00027415   -0.01825590
     atom   35 type  2   force =    -0.00056145    0.00026812    0.00008005
     atom   36 type  2   force =     0.00072701    0.00039258    0.00023011
     atom   37 type  1   force =     0.00016937   -0.00036700    0.00028561
     atom   38 type  1   force =    -0.00005808   -0.00007481   -0.00073772
     atom   39 type  2   force =     0.00038784    0.00029966   -0.00014866
     atom   40 type  2   force =     0.00022784    0.00001046    0.00065951
     atom   41 type  2   force =    -0.00042866   -0.00022858   -0.00012668
     atom   42 type  2   force =     0.00015720   -0.00032762    0.00066100
     atom   43 type  1   force =     0.00014267    0.00026855   -0.00043611
     atom   44 type  1   force =    -0.00002256   -0.00022423    0.00003372
     atom   45 type  2   force =     0.00009125   -0.00009847    0.10285891
     atom   46 type  2   force =    -0.07217089   -0.00003774   -0.02761234
     atom   47 type  2   force =     0.07211717    0.00036183   -0.02761806
     atom   48 type  3   force =    -0.00466503    0.00148407   -0.00149061
     atom   49 type  3   force =     0.01894350   -0.00008172   -0.00455636
     atom   50 type  4   force =    -0.00032667    0.00073148   -0.00017283
     atom   51 type  5   force =     0.00031247    0.00045268   -0.00019122
     atom   52 type  5   force =    -0.00023132   -0.00024283   -0.00055329
     atom   53 type  5   force =     0.00044845    0.00019307   -0.00019554
     atom   54 type  5   force =    -0.00014779   -0.00012278   -0.00013948
     atom   55 type  5   force =    -0.01208098   -0.00176788    0.00721575
     atom   56 type  5   force =    -0.00124070    0.00067789   -0.00130580
     atom   57 type  2   force =     0.00013606   -0.00050611   -0.00012898
     atom   58 type  5   force =     0.00036323    0.00055070    0.00011200

     Total force =     0.364389     Total SCF correction =     0.000426
  @ DRIVER MODE: Message from server: STATUS
  @ DRIVER MODE: Message from server: GETFORCE
  @ DRIVER MODE: Returning v,forces,stress,ensemble

     Writing output data file ./calc.save/
  @ DRIVER MODE: Message from server: EXIT
  @ DRIVE MODE: Exiting

     General routines

     Parallel routines

   This run was terminated on:  14: 7:56  23Sep2021

   JOB DONE.