     Program PWSCF v.6.7GPU starts on  9Sep2021 at 11:30:47

     R & G space division:  proc/nbgrp/npool/nimage =      10
     Reading input from /storage/home/hcoda1/3/ntian30/research/carbon/CxH_vib/CH3_calc/ads_slab/CH3NHNH_a/out_0043/pw.inp
Warning: card &CELL ignored
Warning: card   CELL_DYNAMICS='IPI', ignored
Warning: card / ignored

     Current dimensions of program PWSCF are:
     Max number of different atomic species (ntypx) = 10
     Max number of k-points (npk) =  40000
     Max angular momentum in pseudopotentials (lmaxx) =  3
     Presently no symmetry can be used with electric field

     Message from routine cell_base_init:
     DEPRECATED: use true lattice parameter, not A to a.u. conversion factor

     IMPORTANT: XC functional enforced from input :
     Exchange-correlation= BEEF-VDW
                           (   1   4  43  14   2   0   0)
     Any further DFT definition will be discarded
     Please, verify this is what you really want

  @ DRIVER MODE: Connecting to
 qe_1139763_2767401.sched-torque.pace.gatech.edu8g3b9zhk_scratch
  using UNIX socket
  @ DRIVER MODE: Message from server: STATUS
  @ DRIVER MODE: Message from server: INIT
  @ DRIVER MODE: Receiving replica           0          -1
  @ DRIVER MODE: Receiving encoded integer          25
  @ DRIVER MODE:  SCF:  T  FORCE:  T  STRESS:  F  VC:  F  ENSEMBLE:  F
  @ DRIVER MODE:  SCF:  T  FORCE:  T  STRESS:  F  VC:  F  ENSEMBLE:  F

     Using Slab Decomposition

     bravais-lattice index     =            0
     lattice parameter (alat)  =       1.8897  a.u.
     unit-cell volume          =    6658.9804 (a.u.)^3
     number of atoms/cell      =           55
     number of atomic types    =            5
     number of electrons       =       397.00
     number of Kohn-Sham states=          208
     kinetic-energy cutoff     =      29.3995  Ry
     charge density cutoff     =     293.9946  Ry
     scf convergence threshold =      7.3E-08
     mixing beta               =       0.0500
     number of iterations used =            8  plain     mixing
     Exchange-correlation= BEEF-VDW
                           (   1   4  43  14   2   0   0)

     celldm(1)=   1.889726  celldm(2)=   0.000000  celldm(3)=   0.000000
     celldm(4)=   0.000000  celldm(5)=   0.000000  celldm(6)=   0.000000

     crystal axes: (cart. coord. in units of alat)
               a(1) = (   6.579727   0.000000   0.000000 )
               a(2) = (  -0.000775   5.961596   0.000000 )
               a(3) = (   0.000000   0.000000  25.155947 )

     reciprocal axes: (cart. coord. in units 2 pi/alat)
               b(1) = (  0.151982  0.000020  0.000000 )
               b(2) = (  0.000000  0.167740  0.000000 )
               b(3) = (  0.000000  0.000000  0.039752 )

     PseudoPot. # 1 for Ti read from file:
     /storage/coda1/p-amedford6/0/shared/rich_project_chbe-medford/medford-share/data/pseudos_module/espresso/nninc/pbe/van/Ti.UPF
     MD5 check sum: 8e4df49b7f0d34bbd5052bf3f5ea0213
     Pseudo is Ultrasoft, Zval = 12.0
     Generated by new atomic code, or converted to UPF format
     Using radial grid of  851 points,  6 beta functions with:
                l(1) =   0
                l(2) =   0
                l(3) =   1
                l(4) =   1
                l(5) =   2
                l(6) =   2
     Q(r) pseudized with  8 coefficients,  rinner =    1.000   1.000   1.000
                                                       1.000   1.000

     PseudoPot. # 2 for O  read from file:
     /storage/coda1/p-amedford6/0/shared/rich_project_chbe-medford/medford-share/data/pseudos_module/espresso/nninc/pbe/van/O.UPF
     MD5 check sum: 78c19812648e8988a0fe644b0f25305e
     Pseudo is Ultrasoft, Zval =  6.0
     Generated by new atomic code, or converted to UPF format
     Using radial grid of  737 points,  4 beta functions with:
                l(1) =   0
                l(2) =   0
                l(3) =   1
                l(4) =   1
     Q(r) pseudized with  8 coefficients,  rinner =    0.800   0.800   0.800

     PseudoPot. # 3 for N  read from file:
     /storage/coda1/p-amedford6/0/shared/rich_project_chbe-medford/medford-share/data/pseudos_module/espresso/nninc/pbe/van/N.UPF
     MD5 check sum: 90d10febe142ad51ac9d5be1deb811c4
     Pseudo is Ultrasoft, Zval =  5.0
     Generated by new atomic code, or converted to UPF format
     Using radial grid of  729 points,  4 beta functions with:
                l(1) =   0
                l(2) =   0
                l(3) =   1
                l(4) =   1
     Q(r) pseudized with  8 coefficients,  rinner =    0.800   0.800   0.800

     PseudoPot. # 4 for C  read from file:
     /storage/coda1/p-amedford6/0/shared/rich_project_chbe-medford/medford-share/data/pseudos_module/espresso/nninc/pbe/van/C.UPF
     MD5 check sum: 1a69bf6b8db32088f5b2163dbdb77a27
     Pseudo is Ultrasoft, Zval =  4.0
     Generated by new atomic code, or converted to UPF format
     Using radial grid of  721 points,  4 beta functions with:
                l(1) =   0
                l(2) =   0
                l(3) =   1
                l(4) =   1
     Q(r) pseudized with  8 coefficients,  rinner =    0.800   0.800   0.800

     PseudoPot. # 5 for H  read from file:
     /storage/coda1/p-amedford6/0/shared/rich_project_chbe-medford/medford-share/data/pseudos_module/espresso/nninc/pbe/van/H.UPF
     MD5 check sum: b5ee9d7bfd3a09ee7748110bda690ff7
     Pseudo is Ultrasoft, Zval =  1.0
     Generated by new atomic code, or converted to UPF format
     Using radial grid of  615 points,  1 beta functions with:
                l(1) =   0
     Q(r) pseudized with  8 coefficients,  rinner =    0.800

     atomic species   valence    mass     pseudopotential
        Ti1           12.00    47.86700     Ti( 1.00)
        O1             6.00    15.99900     O ( 1.00)
        N1             5.00    14.00700     N ( 1.00)
        C1             4.00    12.01100     C ( 1.00)
        H1             1.00     1.00800     H ( 1.00)

     No symmetry found

   Cartesian axes

     site n.     atom                  positions (alat units)
         1           Ti1 tau(   1) = (   0.0004258   2.9801865   6.0000000  )
         2           Ti1 tau(   2) = (   3.2906075   1.4906267   6.0002472  )
         3           O1  tau(   3) = (   0.0006271   0.0005054   7.9858123  )
         4           O1  tau(   4) = (   3.2906025   0.0005020   7.3038282  )
         5           O1  tau(   5) = (   4.5942328   1.4918067   9.2879030  )
         6           O1  tau(   6) = (   1.9868534   1.4903216   9.2879459  )
         7           Ti1 tau(   7) = (   3.2907910   2.8959150   9.1758416  )
         8           Ti1 tau(   8) = (   0.0015273   1.4827037   9.2680791  )
         9           O1  tau(   9) = (   3.2830128   5.9597860  11.3344455  )
        10           O1  tau(  10) = (   0.0116148   5.9584955  10.6183126  )
        11           O1  tau(  11) = (   1.2885291   1.4855062  12.6376555  )
        12           O1  tau(  12) = (   5.2724004   1.4911608  12.5936499  )
        13           Ti1 tau(  13) = (   0.0410009   3.0319447  12.6084003  )
        14           Ti1 tau(  14) = (   3.3739341   1.4916561  12.4823474  )
        15           O1  tau(  15) = (   6.4862162   0.0153916  14.6455093  )
        16           O1  tau(  16) = (   3.3439542   5.9611638  13.9051029  )
        17           O1  tau(  17) = (   4.4933269   1.5483200  16.1231154  )
        18           O1  tau(  18) = (   1.9964937   1.4536654  15.9127221  )
        19           Ti1 tau(  19) = (   3.1412959   3.0017366  15.7441667  )
        20           Ti1 tau(  20) = (   6.4823597   1.5369342  15.8006069  )
        21           O1  tau(  21) = (   3.2904802   0.0005063   4.7018136  )
        22           O1  tau(  22) = (   6.5709111   0.0522475  17.2082838  )
        23           O1  tau(  23) = (   1.3043587   1.4918075   6.0039043  )
        24           O1  tau(  24) = (   5.2767064   1.4903225   6.0039473  )
        25           Ti1 tau(  25) = (   0.0000382   5.9609847   6.0000000  )
        26           Ti1 tau(  26) = (   3.2902200   4.4714249   6.0002472  )
        27           O1  tau(  27) = (   0.0002396   2.9813036   7.9858123  )
        28           O1  tau(  28) = (   3.2902150   2.9813002   7.3038282  )
        29           O1  tau(  29) = (   4.5938453   4.4726049   9.2879030  )
        30           O1  tau(  30) = (   1.9864658   4.4711199   9.2879459  )
        31           Ti1 tau(  31) = (   3.2891106   5.8743827   9.1763621  )
        32           Ti1 tau(  32) = (   0.0006254   4.4649316   9.2693709  )
        33           O1  tau(  33) = (   3.2833609   2.9822938  11.3349093  )
        34           O1  tau(  34) = (   0.0092240   2.9805883  10.6323155  )
        35           O1  tau(  35) = (   1.2838611   4.4860338  12.6468719  )
        36           O1  tau(  36) = (   5.2760156   4.4607002  12.6015494  )
        37           Ti1 tau(  37) = (   0.0673138   0.0440259  12.5461749  )
        38           Ti1 tau(  38) = (   3.3712377   4.4654930  12.4933830  )
        39           O1  tau(  39) = (   6.5217465   2.9589972  14.6412948  )
        40           O1  tau(  40) = (   3.2809526   2.9956502  13.9333893  )
        41           O1  tau(  41) = (   4.4911989   4.4583117  16.1637052  )
        42           O1  tau(  42) = (   1.9937212   4.5427850  15.9740970  )
        43           Ti1 tau(  43) = (   3.2955853   0.0167752  15.6963065  )
        44           Ti1 tau(  44) = (   6.5082246   4.6715011  16.1069148  )
        45           O1  tau(  45) = (   3.2900926   2.9813045   4.7018136  )
        46           O1  tau(  46) = (   1.3039711   4.4726057   6.0039043  )
        47           O1  tau(  47) = (   5.2763189   4.4711207   6.0039473  )
        48           N1  tau(  48) = (   1.3945086   2.8365607  18.1849301  )
        49           N1  tau(  49) = (   0.1777896   2.9650562  17.4211889  )
        50           C1  tau(  50) = (   1.4118813   3.7128676  19.3556819  )
        51           H1  tau(  51) = (   0.5171711   3.5996102  19.9880000  )
        52           H1  tau(  52) = (   2.2935099   3.4681107  19.9517681  )
        53           H1  tau(  53) = (   1.4703795   4.7520035  19.0319817  )
        54           H1  tau(  54) = (   1.4579882   1.8621926  18.4823179  )
        55           H1  tau(  55) = (   5.9458665   2.8747675  18.0551794  )

     number of k points=    10  Fermi-Dirac smearing, width (Ry)=  0.0073
                       cart. coord. in units 2pi/alat
        k(    1) = (   0.0000000   0.0000000   0.0000000), wk =   0.1250000
        k(    2) = (   0.0000000   0.0419351   0.0000000), wk =   0.2500000
        k(    3) = (   0.0000000  -0.0838702   0.0000000), wk =   0.1250000
        k(    4) = (   0.0379955   0.0000049   0.0000000), wk =   0.2500000
        k(    5) = (   0.0379955   0.0419400   0.0000000), wk =   0.2500000
        k(    6) = (   0.0379955  -0.0838652   0.0000000), wk =   0.2500000
        k(    7) = (   0.0379955  -0.0419301   0.0000000), wk =   0.2500000
        k(    8) = (  -0.0759910  -0.0000099   0.0000000), wk =   0.1250000
        k(    9) = (  -0.0759910   0.0419252   0.0000000), wk =   0.2500000
        k(   10) = (  -0.0759910  -0.0838800   0.0000000), wk =   0.1250000

     Initial potential from superposition of free atoms

     starting charge  380.99914, renormalised to  397.00000

     negative rho (up, down):  1.540E-02 0.000E+00

     %%%%%%%%%%%%%%%%%%%%%%%%%%%%%%%%%%%%%%%%%%%%%%%%%%%%%%%%%%%%%%%%%%%%%%%%
     %                                                                      %
     % You are using vdW-DF, which was implemented by the Thonhauser group. %
     % Please cite the following two papers that made this development      %
     % possible and the two reviews that describe the various versions:     %
     %                                                                      %
     %   T. Thonhauser et al., PRL 115, 136402 (2015).                      %
     %   T. Thonhauser et al., PRB 76, 125112 (2007).                       %
     %   K. Berland et al., Rep. Prog. Phys. 78, 066501 (2015).             %
     %   D.C. Langreth et al., J. Phys.: Condens. Matter 21, 084203 (2009). %
     %                                                                      %
     %                                                                      %
     % If you are calculating the stress with vdW-DF, please also cite:     %
     %                                                                      %
     %   R. Sabatini et al., J. Phys.: Condens. Matter 24, 424209 (2012).   %
     %                                                                      %
     %%%%%%%%%%%%%%%%%%%%%%%%%%%%%%%%%%%%%%%%%%%%%%%%%%%%%%%%%%%%%%%%%%%%%%%%

     Adding external electric field

     Computed dipole along edir(3) :
        Dipole               -9.6180 Ry au,        -24.4465 Debye
        Dipole field         -0.0182 Ry au,

        Potential amp.        1.6825 Ry
        Total length         46.3494 bohr

     Starting wfcs are  301 atomic wfcs
  @ DRIVER MODE: Message from server: STATUS
  @ DRIVER MODE: Message from server: POSDATA
  @ DRIVER MODE: Reading and sharing cell
  @ DRIVER MODE: Reading and sharing positions
  @ DRIVER MODE: Received positions

     Self-consistent Calculation

     iteration #  1     ecut=    29.40 Ry     beta= 0.05
     Davidson diagonalization with overlap
     c_bands:  1 eigenvalues not converged
     c_bands:  1 eigenvalues not converged
     c_bands:  1 eigenvalues not converged
     c_bands:  1 eigenvalues not converged
     c_bands:  1 eigenvalues not converged
     c_bands:  1 eigenvalues not converged
     c_bands:  2 eigenvalues not converged
     ethr =  1.00E-05,  avg # of iterations = 18.8

[...]

     total energy              =   -2533.10392249 Ry
     estimated scf accuracy    <    4544.38504481 Ry

     iteration #  2     ecut=    29.40 Ry     beta= 0.05
     Davidson diagonalization with overlap
     ethr =  1.00E-02,  avg # of iterations = 24.0

[...]

     iteration # 60     ecut=    29.40 Ry     beta= 0.05
     Davidson diagonalization with overlap
     c_bands:  1 eigenvalues not converged
     ethr =  1.23E-10,  avg # of iterations = 11.8

[...]

     total energy              =   -2941.66146506 Ry
     estimated scf accuracy    <       0.00000012 Ry

     iteration # 62     ecut=    29.40 Ry     beta= 0.05
     Davidson diagonalization with overlap
     ethr =  3.08E-11,  avg # of iterations = 10.2

     negative rho (up, down):  1.606E-02 0.000E+00

     Adding external electric field

     Computed dipole along edir(3) :
        Dipole                0.9412 Ry au,          2.3924 Debye
        Dipole field          0.0018 Ry au,

        Potential amp.       -0.1647 Ry
        Total length         46.3494 bohr

     End of self-consistent calculation

          k = 0.0000 0.0000 0.0000 ( 18029 PWs)   bands (ev):

   -55.6871 -55.6701 -55.6531 -55.6335 -55.5928 -55.5385 -55.5316 -55.5016
   -55.4956 -55.4676 -55.4654 -55.4313 -55.2583 -55.0342 -54.6674 -54.6333
   -32.2211 -32.1702 -32.0430 -32.0331 -31.9999 -31.9852 -31.9798 -31.9558
   -31.9311 -31.8992 -31.8969 -31.8906 -31.8476 -31.8393 -31.8254 -31.8238
   -31.8072 -31.7920 -31.7832 -31.7480 -31.7442 -31.7373 -31.7215 -31.7177
   -31.6951 -31.6907 -31.6881 -31.6803 -31.6660 -31.6638 -31.6562 -31.6472
   -31.6415 -31.6320 -31.6184 -31.6091 -31.5776 -31.5087 -31.4647 -31.3004
   -31.2911 -31.2367 -31.0745 -30.9860 -30.9636 -30.8913 -30.8048 -30.6937
   -16.7637 -16.4176 -16.1628 -15.9332 -15.8423 -15.8121 -15.6597 -15.5281
   -15.4188 -15.3370 -15.2520 -15.2330 -15.2255 -15.2149 -15.1889 -15.1828
   -15.1360 -15.1313 -15.1118 -15.0989 -15.0489 -15.0322 -15.0289 -14.9340
   -14.8702 -14.8348 -14.8200 -14.7854 -14.7482 -14.3332 -13.1695 -13.0530
   -11.7892  -8.9736  -5.4245  -4.3613  -3.8404  -3.7891  -3.6451  -3.5944
    -3.5343  -3.4956  -3.3178  -3.2153  -2.9425  -2.8851  -2.8560  -2.8469
    -2.7894  -2.7576  -2.6018  -2.5756  -2.5047  -2.4954  -2.4806  -2.4517
    -2.4430  -2.4360  -2.3980  -2.3763  -2.3477  -2.2435  -2.1039  -2.0947
    -2.0718  -2.0384  -2.0007  -1.9522  -1.9360  -1.9157  -1.8974  -1.8847
    -1.8720  -1.7372  -1.7018  -1.5853  -1.4964  -1.4491  -1.3679  -1.2990
    -1.2659  -1.1584  -1.1186  -1.1045  -1.0918  -1.0810  -0.9816  -0.8758
    -0.8584  -0.8207  -0.7642  -0.7097  -0.6392  -0.5942  -0.5432  -0.4908
    -0.4652  -0.4514  -0.4486  -0.4135  -0.3216  -0.1807  -0.1288  -0.0946
    -0.0724   0.0044   0.0395   0.0956   0.1203   0.1436   0.1793   0.2322
     0.2759   0.2825   0.2959   0.3103   0.3150   0.4894   0.5390   0.5806
     0.6141   0.6600   0.8212   0.8437   0.9651   1.0396   1.2023   1.2805
     1.3551   1.4329   1.5468   1.6186   1.9263   1.9720   3.4435   3.5311
     3.5758   3.5897   3.6850   3.7270   3.8962   3.9270   3.9415   4.0017

[...]

          k = 0.0380-0.0419 0.0000 ( 17876 PWs)   bands (ev):

[...]

          k =-0.0760-0.0000 0.0000 ( 17886 PWs)   bands (ev):

[...]

          k =-0.0760-0.0839 0.0000 ( 17948 PWs)   bands (ev):

   -55.6704 -55.6696 -55.6554 -55.6480 -55.5867 -55.5443 -55.5190 -55.5082
   -55.4851 -55.4835 -55.4513 -55.4456 -55.2572 -55.0352 -54.6504 -54.6502
   -32.0302 -32.0205 -31.9858 -31.9851 -31.9656 -31.9648 -31.9447 -31.9384
   -31.8854 -31.8848 -31.8746 -31.8694 -31.8524 -31.8343 -31.8099 -31.8051
   -31.8008 -31.7972 -31.7905 -31.7903 -31.7892 -31.7888 -31.7849 -31.7452
   -31.7371 -31.7255 -31.7173 -31.7061 -31.6854 -31.6844 -31.6824 -31.6756
   -31.6657 -31.6616 -31.6584 -31.6560 -31.6144 -31.5112 -31.4614 -31.3626
   -31.2932 -31.2627 -30.9764 -30.9762 -30.8874 -30.8872 -30.8482 -30.8480
   -16.7371 -15.8649 -15.8039 -15.6460 -15.6107 -15.5912 -15.5562 -15.4953
   -15.4123 -15.3850 -15.3804 -15.3334 -15.3076 -15.2748 -15.2367 -15.2224
   -15.2151 -15.1964 -15.1840 -15.1502 -15.1408 -15.1291 -15.1219 -15.0464
   -15.0088 -15.0044 -14.9988 -14.8953 -14.7686 -14.5009 -13.1549 -13.1547
   -11.7956  -8.9880  -5.4385  -4.3487  -3.7646  -3.1577  -3.0707  -2.8958
    -2.8404  -2.8116  -2.7956  -2.6294  -2.6179  -2.6038  -2.5558  -2.5363
    -2.5261  -2.5176  -2.5088  -2.4878  -2.4750  -2.4401  -2.4304  -2.3952
    -2.3808  -2.3633  -2.3464  -2.3293  -2.3094  -2.2954  -2.2790  -2.2378
    -2.2183  -2.2075  -2.1865  -2.1419  -1.9327  -1.8826  -1.8355  -1.8312
    -1.8223  -1.8025  -1.7475  -1.7426  -1.7089  -1.6572  -1.5789  -1.4341
    -1.3890  -1.3725  -1.2794  -1.2576  -1.2048  -1.1330  -1.0873  -1.0703
    -1.0353  -0.9713  -0.9345  -0.8977  -0.8313  -0.8066  -0.8006  -0.7069
    -0.6861  -0.6499  -0.6432  -0.5648  -0.5139  -0.4512  -0.4359  -0.4195
    -0.3875  -0.3544  -0.3362  -0.2653  -0.1763  -0.1752  -0.1519  -0.0430
     0.0480   0.2760   0.3387   0.3758   0.4205   0.5143   0.5827   0.6074
     0.6232   0.6448   0.6642   0.7126   0.8392   0.8493   0.8836   0.9964
     1.1013   1.6352   1.7186   1.7194   1.7918   1.7919   3.7453   3.7637
     3.7841   3.8305   3.9497   3.9566   3.9787   3.9808   4.1038   4.1167

     the Fermi energy is     3.4452 ev

!    total energy              =   -2941.66151611 Ry
     estimated scf accuracy    <       0.00000007 Ry
     smearing contrib. (-TS)   =      -0.02151524 Ry
     internal energy E=F+TS    =   -2941.64000087 Ry

     The total energy is F=E-TS. E is the sum of the following terms:
     one-electron contribution =  -24275.94254716 Ry
     hartree contribution      =   12228.42840864 Ry
     xc contribution           =    -486.86661509 Ry
     ewald contribution        =    9592.73908088 Ry
     electric field correction =       0.00167186 Ry

     convergence has been achieved in  62 iterations

     Forces acting on atoms (cartesian axes, Ry/au):

     atom    1 type  1   force =     0.00018076   -0.00011400    0.09638245
     atom    2 type  1   force =    -0.00021808   -0.00062856   -0.17552309
     atom    3 type  2   force =    -0.00004380   -0.00003576   -0.02418617
     atom    4 type  2   force =     0.00005137   -0.00144368    0.05289136
     atom    5 type  2   force =    -0.01182088   -0.00048916    0.00394971
     atom    6 type  2   force =     0.01313307    0.00023824    0.00228744
     atom    7 type  1   force =    -0.00140704    0.00080740   -0.01150269
     atom    8 type  1   force =     0.00053415    0.00920658    0.02520506
     atom    9 type  2   force =    -0.00010745    0.00017476    0.00039451
     atom   10 type  2   force =    -0.00086546    0.00148387   -0.01582354
     atom   11 type  2   force =    -0.00019997   -0.00049853    0.00038829
     atom   12 type  2   force =    -0.00014147   -0.00025964    0.00002197
     atom   13 type  1   force =     0.00055003   -0.00090860    0.00010978
     atom   14 type  1   force =    -0.00008040   -0.00040813    0.00025504
     atom   15 type  2   force =     0.00018521    0.00004001   -0.00031759
     atom   16 type  2   force =     0.00006733    0.00024698    0.00004403
     atom   17 type  2   force =    -0.00059632    0.00034724    0.00048245
     atom   18 type  2   force =     0.00016176    0.00011086    0.00030008
     atom   19 type  1   force =     0.00009766   -0.00054627    0.00013635
     atom   20 type  1   force =     0.00017837    0.00036490    0.00068612
     atom   21 type  2   force =     0.00007366   -0.00008302    0.10323842
     atom   22 type  2   force =    -0.00041771   -0.00026763    0.00020062
     atom   23 type  2   force =    -0.07148406   -0.00017651   -0.02771843
     atom   24 type  2   force =     0.07140438    0.00025797   -0.02771636
     atom   25 type  1   force =     0.00003169   -0.00026953    0.09584790
     atom   26 type  1   force =    -0.00014707   -0.00023444   -0.17569033
     atom   27 type  2   force =     0.00009287   -0.00012372   -0.02329671
     atom   28 type  2   force =     0.00007784   -0.00128976    0.05331595
     atom   29 type  2   force =    -0.01195188   -0.00005429    0.00374534
     atom   30 type  2   force =     0.01320169    0.00043407    0.00212508
     atom   31 type  1   force =    -0.00141706    0.00344548   -0.01083699
     atom   32 type  1   force =     0.00064475   -0.01010072    0.02561951
     atom   33 type  2   force =    -0.00038870    0.00005189    0.00005626
     atom   34 type  2   force =     0.00074891    0.00090057   -0.02309475
     atom   35 type  2   force =    -0.00011716    0.00029478   -0.00002958
     atom   36 type  2   force =    -0.00022777    0.00059707   -0.00029581
     atom   37 type  1   force =    -0.00081917   -0.00102487   -0.00011181
     atom   38 type  1   force =    -0.00002772   -0.00010367   -0.00002219
     atom   39 type  2   force =    -0.00036304    0.00004292    0.00053084
     atom   40 type  2   force =     0.00048960    0.00025112    0.00028225
     atom   41 type  2   force =    -0.00000938    0.00049515    0.00026744
     atom   42 type  2   force =     0.00012588    0.00028356   -0.00018524
     atom   43 type  1   force =     0.00020678    0.00008342   -0.00019516
     atom   44 type  1   force =    -0.00023851   -0.00065617    0.00011944
     atom   45 type  2   force =     0.00007043   -0.00008694    0.10326981
     atom   46 type  2   force =    -0.07148441   -0.00017392   -0.02771581
     atom   47 type  2   force =     0.07140954    0.00029800   -0.02772618
     atom   48 type  3   force =    -0.00217479   -0.00017709    0.00016812
     atom   49 type  3   force =    -0.00769426   -0.00097186    0.00578466
     atom   50 type  4   force =     0.00072163    0.00004686    0.00105119
     atom   51 type  5   force =     0.00114038    0.00034224   -0.00068965
     atom   52 type  5   force =    -0.00024710    0.00073166   -0.00066766
     atom   53 type  5   force =    -0.00023884   -0.00166546    0.00053077
     atom   54 type  5   force =     0.00001263    0.00065666   -0.00043334
     atom   55 type  5   force =     0.00933713    0.00055766   -0.00590917

     Total force =     0.367667     Total SCF correction =     0.000636
  @ DRIVER MODE: Message from server: STATUS
  @ DRIVER MODE: Message from server: GETFORCE
  @ DRIVER MODE: Returning v,forces,stress,ensemble

     Writing output data file ./calc.save/
  @ DRIVER MODE: Message from server: EXIT
  @ DRIVE MODE: Exiting

     General routines

     Parallel routines

   This run was terminated on:  11:47:25   9Sep2021

   JOB DONE.