     Program PWSCF v.6.7GPU starts on  9Sep2021 at 10:16:30

     R & G space division:  proc/nbgrp/npool/nimage =      10
     Reading input from /storage/home/hcoda1/3/ntian30/research/carbon/CxH_vib/CH2_calc/ads_slab/CH2NNHH_a/out_0037/pw.inp
Warning: card &CELL ignored
Warning: card   CELL_DYNAMICS='IPI', ignored
Warning: card / ignored

     Current dimensions of program PWSCF are:
     Max number of different atomic species (ntypx) = 10
     Max number of k-points (npk) =  40000
     Max angular momentum in pseudopotentials (lmaxx) =  3
     Presently no symmetry can be used with electric field

     Message from routine cell_base_init:
     DEPRECATED: use true lattice parameter, not A to a.u. conversion factor

     IMPORTANT: XC functional enforced from input :
     Exchange-correlation= BEEF-VDW
                           (   1   4  43  14   2   0   0)
     Any further DFT definition will be discarded
     Please, verify this is what you really want

  @ DRIVER MODE: Connecting to
 qe_1139763_2767391.sched-torque.pace.gatech.edu_0so2jnj_scratch
  using UNIX socket
  @ DRIVER MODE: Message from server: STATUS
  @ DRIVER MODE: Message from server: INIT
  @ DRIVER MODE: Receiving replica           0          -1
  @ DRIVER MODE: Receiving encoded integer          25
  @ DRIVER MODE:  SCF:  T  FORCE:  T  STRESS:  F  VC:  F  ENSEMBLE:  F
  @ DRIVER MODE:  SCF:  T  FORCE:  T  STRESS:  F  VC:  F  ENSEMBLE:  F

     Using Slab Decomposition

     bravais-lattice index     =            0
     lattice parameter (alat)  =       1.8897  a.u.
     unit-cell volume          =    6658.9804 (a.u.)^3
     number of atoms/cell      =           54
     number of atomic types    =            5
     number of electrons       =       396.00
     number of Kohn-Sham states=          208
     kinetic-energy cutoff     =      29.3995  Ry
     charge density cutoff     =     293.9946  Ry
     scf convergence threshold =      7.3E-08
     mixing beta               =       0.0500
     number of iterations used =            8  plain     mixing
     Exchange-correlation= BEEF-VDW
                           (   1   4  43  14   2   0   0)

     celldm(1)=   1.889726  celldm(2)=   0.000000  celldm(3)=   0.000000
     celldm(4)=   0.000000  celldm(5)=   0.000000  celldm(6)=   0.000000

     crystal axes: (cart. coord. in units of alat)
               a(1) = (   6.579727   0.000000   0.000000 )
               a(2) = (  -0.000775   5.961596   0.000000 )
               a(3) = (   0.000000   0.000000  25.155947 )

     reciprocal axes: (cart. coord. in units 2 pi/alat)
               b(1) = (  0.151982  0.000020  0.000000 )
               b(2) = (  0.000000  0.167740  0.000000 )
               b(3) = (  0.000000  0.000000  0.039752 )

     PseudoPot. # 1 for Ti read from file:
     /storage/coda1/p-amedford6/0/shared/rich_project_chbe-medford/medford-share/data/pseudos_module/espresso/nninc/pbe/van/Ti.UPF
     MD5 check sum: 8e4df49b7f0d34bbd5052bf3f5ea0213
     Pseudo is Ultrasoft, Zval = 12.0
     Generated by new atomic code, or converted to UPF format
     Using radial grid of  851 points,  6 beta functions with:
                l(1) =   0
                l(2) =   0
                l(3) =   1
                l(4) =   1
                l(5) =   2
                l(6) =   2
     Q(r) pseudized with  8 coefficients,  rinner =    1.000   1.000   1.000
                                                       1.000   1.000

     PseudoPot. # 2 for O  read from file:
     /storage/coda1/p-amedford6/0/shared/rich_project_chbe-medford/medford-share/data/pseudos_module/espresso/nninc/pbe/van/O.UPF
     MD5 check sum: 78c19812648e8988a0fe644b0f25305e
     Pseudo is Ultrasoft, Zval =  6.0
     Generated by new atomic code, or converted to UPF format
     Using radial grid of  737 points,  4 beta functions with:
                l(1) =   0
                l(2) =   0
                l(3) =   1
                l(4) =   1
     Q(r) pseudized with  8 coefficients,  rinner =    0.800   0.800   0.800

     PseudoPot. # 3 for N  read from file:
     /storage/coda1/p-amedford6/0/shared/rich_project_chbe-medford/medford-share/data/pseudos_module/espresso/nninc/pbe/van/N.UPF
     MD5 check sum: 90d10febe142ad51ac9d5be1deb811c4
     Pseudo is Ultrasoft, Zval =  5.0
     Generated by new atomic code, or converted to UPF format
     Using radial grid of  729 points,  4 beta functions with:
                l(1) =   0
                l(2) =   0
                l(3) =   1
                l(4) =   1
     Q(r) pseudized with  8 coefficients,  rinner =    0.800   0.800   0.800

     PseudoPot. # 4 for C  read from file:
     /storage/coda1/p-amedford6/0/shared/rich_project_chbe-medford/medford-share/data/pseudos_module/espresso/nninc/pbe/van/C.UPF
     MD5 check sum: 1a69bf6b8db32088f5b2163dbdb77a27
     Pseudo is Ultrasoft, Zval =  4.0
     Generated by new atomic code, or converted to UPF format
     Using radial grid of  721 points,  4 beta functions with:
                l(1) =   0
                l(2) =   0
                l(3) =   1
                l(4) =   1
     Q(r) pseudized with  8 coefficients,  rinner =    0.800   0.800   0.800

     PseudoPot. # 5 for H  read from file:
     /storage/coda1/p-amedford6/0/shared/rich_project_chbe-medford/medford-share/data/pseudos_module/espresso/nninc/pbe/van/H.UPF
     MD5 check sum: b5ee9d7bfd3a09ee7748110bda690ff7
     Pseudo is Ultrasoft, Zval =  1.0
     Generated by new atomic code, or converted to UPF format
     Using radial grid of  615 points,  1 beta functions with:
                l(1) =   0
     Q(r) pseudized with  8 coefficients,  rinner =    0.800

     atomic species   valence    mass     pseudopotential
        Ti1           12.00    47.86700     Ti( 1.00)
        O1             6.00    15.99900     O ( 1.00)
        N1             5.00    14.00700     N ( 1.00)
        C1             4.00    12.01100     C ( 1.00)
        H1             1.00     1.00800     H ( 1.00)

     No symmetry found

   Cartesian axes

     site n.     atom                  positions (alat units)
         1           Ti1 tau(   1) = (   0.0004258   2.9801865   6.0000000  )
         2           Ti1 tau(   2) = (   3.2906075   1.4906267   6.0002472  )
         3           O1  tau(   3) = (   0.0006271   0.0005054   7.9858123  )
         4           O1  tau(   4) = (   3.2906025   0.0005020   7.3038282  )
         5           O1  tau(   5) = (   4.5942328   1.4918067   9.2879030  )
         6           O1  tau(   6) = (   1.9868534   1.4903216   9.2879459  )
         7           Ti1 tau(   7) = (   3.2907910   2.8959150   9.1758416  )
         8           Ti1 tau(   8) = (   0.0015273   1.4827037   9.2680791  )
         9           O1  tau(   9) = (   3.2741875   5.9357071  11.3735532  )
        10           O1  tau(  10) = (   0.0116148   5.9584955  10.6183126  )
        11           O1  tau(  11) = (   1.2759687   1.4857368  12.6615302  )
        12           O1  tau(  12) = (   5.2764777   1.4850508  12.6403612  )
        13           Ti1 tau(  13) = (   6.5724762   2.9646551  12.5117882  )
        14           Ti1 tau(  14) = (   3.2886223   1.4652571  12.5194246  )
        15           O1  tau(  15) = (   6.5416971   0.0664024  14.6986244  )
        16           O1  tau(  16) = (   3.2828258   5.9593040  13.9967703  )
        17           O1  tau(  17) = (   4.5136565   1.4796660  16.2299008  )
        18           O1  tau(  18) = (   2.0038615   1.4742267  16.2123189  )
        19           Ti1 tau(  19) = (   3.2480181   2.9445974  15.7466143  )
        20           Ti1 tau(  20) = (   6.5118905   1.3801257  16.1190456  )
        21           O1  tau(  21) = (   3.2904802   0.0005063   4.7018136  )
        22           O1  tau(  22) = (   6.5538845   5.8109167  17.2256470  )
        23           O1  tau(  23) = (   1.3043587   1.4918075   6.0039043  )
        24           O1  tau(  24) = (   5.2767064   1.4903225   6.0039473  )
        25           Ti1 tau(  25) = (   0.0000382   5.9609847   6.0000000  )
        26           Ti1 tau(  26) = (   3.2902200   4.4714249   6.0002472  )
        27           O1  tau(  27) = (   0.0002396   2.9813036   7.9858123  )
        28           O1  tau(  28) = (   3.2902150   2.9813002   7.3038282  )
        29           O1  tau(  29) = (   4.5938453   4.4726049   9.2879030  )
        30           O1  tau(  30) = (   1.9864658   4.4711199   9.2879459  )
        31           Ti1 tau(  31) = (   3.2891106   5.8743827   9.1763621  )
        32           Ti1 tau(  32) = (   0.0006254   4.4649316   9.2693709  )
        33           O1  tau(  33) = (   3.2754078   2.9701464  11.3677572  )
        34           O1  tau(  34) = (   0.0092240   2.9805883  10.6323155  )
        35           O1  tau(  35) = (   1.2711598   4.4556272  12.7031535  )
        36           O1  tau(  36) = (   5.2783420   4.4558858  12.6781970  )
        37           Ti1 tau(  37) = (   0.0002938   5.9583472  12.5066983  )
        38           Ti1 tau(  38) = (   3.2916940   4.4447674  12.5292973  )
        39           O1  tau(  39) = (   6.5347695   2.9176514  14.9891124  )
        40           O1  tau(  40) = (   3.2818703   2.9467213  13.9608579  )
        41           O1  tau(  41) = (   4.5039121   4.4250859  16.1805084  )
        42           O1  tau(  42) = (   2.0002864   4.4376668  16.1101511  )
        43           Ti1 tau(  43) = (   3.2613398   5.9375382  15.7939200  )
        44           Ti1 tau(  44) = (   0.0097882   4.6113729  15.8292928  )
        45           O1  tau(  45) = (   3.2900926   2.9813045   4.7018136  )
        46           O1  tau(  46) = (   1.3039711   4.4726057   6.0039043  )
        47           O1  tau(  47) = (   5.2763189   4.4711207   6.0039473  )
        48           N1  tau(  48) = (   6.5527080   2.6566917  18.2311642  )
        49           C1  tau(  49) = (   0.9950107   2.5313988  18.9921798  )
        50           H1  tau(  50) = (   0.9966315   2.9146593  20.0110098  )
        51           H1  tau(  51) = (   1.8622571   2.0164067  18.6108951  )
        52           N1  tau(  52) = (   5.4094651   3.2293427  18.7544413  )
        53           H1  tau(  53) = (   5.6216840   3.8708726  19.5154782  )
        54           H1  tau(  54) = (   4.9068071   3.7283298  18.0160565  )

     number of k points=    10  Fermi-Dirac smearing, width (Ry)=  0.0073
                       cart. coord. in units 2pi/alat
        k(    1) = (   0.0000000   0.0000000   0.0000000), wk =   0.1250000
        k(    2) = (   0.0000000   0.0419351   0.0000000), wk =   0.2500000
        k(    3) = (   0.0000000  -0.0838702   0.0000000), wk =   0.1250000
        k(    4) = (   0.0379955   0.0000049   0.0000000), wk =   0.2500000
        k(    5) = (   0.0379955   0.0419400   0.0000000), wk =   0.2500000
        k(    6) = (   0.0379955  -0.0838652   0.0000000), wk =   0.2500000
        k(    7) = (   0.0379955  -0.0419301   0.0000000), wk =   0.2500000
        k(    8) = (  -0.0759910  -0.0000099   0.0000000), wk =   0.1250000
        k(    9) = (  -0.0759910   0.0419252   0.0000000), wk =   0.2500000
        k(   10) = (  -0.0759910  -0.0838800   0.0000000), wk =   0.1250000

     Initial potential from superposition of free atoms

     starting charge  379.99915, renormalised to  396.00000

     negative rho (up, down):  1.580E-02 0.000E+00

     %%%%%%%%%%%%%%%%%%%%%%%%%%%%%%%%%%%%%%%%%%%%%%%%%%%%%%%%%%%%%%%%%%%%%%%%
     %                                                                      %
     % You are using vdW-DF, which was implemented by the Thonhauser group. %
     % Please cite the following two papers that made this development      %
     % possible and the two reviews that describe the various versions:     %
     %                                                                      %
     %   T. Thonhauser et al., PRL 115, 136402 (2015).                      %
     %   T. Thonhauser et al., PRB 76, 125112 (2007).                       %
     %   K. Berland et al., Rep. Prog. Phys. 78, 066501 (2015).             %
     %   D.C. Langreth et al., J. Phys.: Condens. Matter 21, 084203 (2009). %
     %                                                                      %
     %                                                                      %
     % If you are calculating the stress with vdW-DF, please also cite:     %
     %                                                                      %
     %   R. Sabatini et al., J. Phys.: Condens. Matter 24, 424209 (2012).   %
     %                                                                      %
     %%%%%%%%%%%%%%%%%%%%%%%%%%%%%%%%%%%%%%%%%%%%%%%%%%%%%%%%%%%%%%%%%%%%%%%%

     Adding external electric field

     Computed dipole along edir(3) :
        Dipole               -9.9798 Ry au,        -25.3661 Debye
        Dipole field         -0.0188 Ry au,

        Potential amp.        1.7458 Ry
        Total length         46.3494 bohr

     Starting wfcs are  300 atomic wfcs
  @ DRIVER MODE: Message from server: STATUS
  @ DRIVER MODE: Message from server: POSDATA
  @ DRIVER MODE: Reading and sharing cell
  @ DRIVER MODE: Reading and sharing positions
  @ DRIVER MODE: Received positions

     Self-consistent Calculation

     iteration #  1     ecut=    29.40 Ry     beta= 0.05
     Davidson diagonalization with overlap
     c_bands:  1 eigenvalues not converged
     c_bands:  2 eigenvalues not converged
     c_bands:  2 eigenvalues not converged
     c_bands:  1 eigenvalues not converged
     c_bands:  3 eigenvalues not converged
     c_bands:  2 eigenvalues not converged
     c_bands:  3 eigenvalues not converged
     c_bands:  2 eigenvalues not converged
     c_bands:  1 eigenvalues not converged
     c_bands:  1 eigenvalues not converged
     ethr =  1.00E-05,  avg # of iterations = 20.0

[...]

     total energy              =   -2515.79354218 Ry
     estimated scf accuracy    <    4741.22634245 Ry

     iteration #  2     ecut=    29.40 Ry     beta= 0.05
     Davidson diagonalization with overlap
     ethr =  1.00E-02,  avg # of iterations = 23.7

[...]

     iteration # 69     ecut=    29.40 Ry     beta= 0.05
     Davidson diagonalization with overlap
     c_bands:  1 eigenvalues not converged
     ethr =  3.79E-11,  avg # of iterations = 11.7

[...]

     total energy              =   -2940.36664631 Ry
     estimated scf accuracy    <       0.00000010 Ry

     iteration # 70     ecut=    29.40 Ry     beta= 0.05
     Davidson diagonalization with overlap
     ethr =  2.57E-11,  avg # of iterations =  4.7

     negative rho (up, down):  1.644E-02 0.000E+00

     Adding external electric field

     Computed dipole along edir(3) :
        Dipole                1.2651 Ry au,          3.2156 Debye
        Dipole field          0.0024 Ry au,

        Potential amp.       -0.2213 Ry
        Total length         46.3494 bohr

     End of self-consistent calculation

          k = 0.0000 0.0000 0.0000 ( 18029 PWs)   bands (ev):

   -55.4185 -55.3818 -55.3706 -55.3365 -55.2977 -55.2941 -55.2883 -55.2632
   -55.2364 -55.2202 -55.2021 -55.2018 -55.1683 -55.0516 -54.3984 -54.3643
   -31.9876 -31.8631 -31.8201 -31.7859 -31.7320 -31.7260 -31.7213 -31.7074
   -31.6596 -31.6522 -31.6289 -31.6277 -31.6155 -31.5886 -31.5736 -31.5686
   -31.5562 -31.5552 -31.5341 -31.5286 -31.5230 -31.5129 -31.4845 -31.4751
   -31.4672 -31.4646 -31.4389 -31.4287 -31.4277 -31.4216 -31.4194 -31.4006
   -31.3997 -31.3944 -31.3870 -31.3845 -31.3504 -31.3372 -31.3302 -31.3132
   -31.2731 -31.2160 -30.8077 -30.7137 -30.6917 -30.6241 -30.5374 -30.4264
   -18.5824 -16.2505 -15.9818 -15.8394 -15.7150 -15.6159 -15.4913 -15.4693
   -15.3417 -15.2568 -15.1434 -15.0998 -15.0877 -15.0844 -15.0513 -15.0245
   -14.9603 -14.9556 -14.9378 -14.9116 -14.9008 -14.8578 -14.8546 -14.8133
   -14.7927 -14.7909 -14.6642 -14.5754 -14.5050 -14.1814 -13.6587 -12.9009
   -12.7835  -8.7480  -6.4682  -6.0540  -3.9886  -3.5913  -3.4352  -3.3794
    -3.3374  -3.3105  -3.2025  -3.1637  -3.0241  -2.8270  -2.7783  -2.6883
    -2.6263  -2.6177  -2.5987  -2.4177  -2.4102  -2.3538  -2.3037  -2.2615
    -2.2395  -2.2251  -2.2060  -2.1808  -2.1702  -2.1599  -1.9866  -1.9707
    -1.9000  -1.8262  -1.8162  -1.7659  -1.7451  -1.7145  -1.7064  -1.6985
    -1.6531  -1.6340  -1.6035  -1.5554  -1.4299  -1.3390  -1.3075  -1.2261
    -1.0987  -1.0542  -1.0018  -0.9987  -0.9061  -0.9024  -0.8813  -0.7961
    -0.7628  -0.7125  -0.6407  -0.5723  -0.5158  -0.4572  -0.4098  -0.3996
    -0.3445  -0.2275  -0.2020  -0.1832  -0.1609  -0.0411  -0.0221   0.0180
     0.0926   0.1229   0.1238   0.2404   0.2670   0.3244   0.3289   0.4056
     0.4663   0.5109   0.5201   0.5390   0.5678   0.5709   0.6461   0.6587
     0.6890   0.7593   0.8361   0.9173   1.1472   1.1830   1.1961   1.5291
     1.5311   1.6245   1.8081   2.2003   2.2484   3.6805   3.7505   3.8251
     3.8314   3.8496   3.9181   4.1547   4.1729   4.1809   4.1863   4.2292

[...]

          k = 0.0380-0.0419 0.0000 ( 17876 PWs)   bands (ev):

[...]

          k =-0.0760-0.0000 0.0000 ( 17886 PWs)   bands (ev):

[...]

          k =-0.0760-0.0839 0.0000 ( 17948 PWs)   bands (ev):

   -55.4038 -55.3963 -55.3536 -55.3534 -55.2889 -55.2879 -55.2821 -55.2787
   -55.2243 -55.2208 -55.2170 -55.1854 -55.1850 -55.0528 -54.3813 -54.3813
   -31.7939 -31.7884 -31.7473 -31.6947 -31.6811 -31.6782 -31.6781 -31.6450
   -31.6449 -31.6286 -31.6196 -31.6149 -31.6104 -31.5637 -31.5562 -31.5540
   -31.5518 -31.5498 -31.5444 -31.5391 -31.5241 -31.5113 -31.4945 -31.4941
   -31.4901 -31.4757 -31.4743 -31.4733 -31.4730 -31.4709 -31.4541 -31.4500
   -31.4440 -31.4339 -31.4305 -31.4158 -31.4148 -31.4112 -31.3662 -31.3658
   -31.2942 -31.2768 -30.7043 -30.7043 -30.6203 -30.6202 -30.5808 -30.5807
   -18.5799 -15.7126 -15.6797 -15.6223 -15.4418 -15.4142 -15.4077 -15.3885
   -15.2585 -15.2419 -15.2109 -15.1817 -15.1508 -15.1251 -15.1210 -15.1029
   -15.0330 -15.0221 -15.0140 -14.9965 -14.9311 -14.9271 -14.9183 -14.9135
   -14.8667 -14.8639 -14.7687 -14.7672 -14.6666 -14.5501 -13.6645 -12.8850
   -12.8849  -8.7295  -6.4412  -6.0687  -3.9990  -3.2638  -2.9458  -2.8791
    -2.8505  -2.6536  -2.6301  -2.5873  -2.5319  -2.4519  -2.4259  -2.4192
    -2.4104  -2.3396  -2.3278  -2.2781  -2.2690  -2.2500  -2.2346  -2.2242
    -2.1946  -2.1688  -2.1447  -2.1358  -2.1244  -2.0706  -2.0601  -2.0422
    -2.0119  -1.9923  -1.9828  -1.9663  -1.8670  -1.7829  -1.7532  -1.7263
    -1.6222  -1.6178  -1.5376  -1.5217  -1.4905  -1.4495  -1.4368  -1.4161
    -1.2342  -1.2050  -1.1733  -1.1604  -1.1520  -1.0127  -0.9989  -0.9426
    -0.9017  -0.8958  -0.7872  -0.7627  -0.7379  -0.6615  -0.6258  -0.5922
    -0.5403  -0.4351  -0.4180  -0.4072  -0.3737  -0.3697  -0.3136  -0.3016
    -0.2264  -0.1843  -0.1514  -0.1375  -0.0947   0.0935   0.1168   0.1318
     0.2750   0.3307   0.4241   0.5237   0.5338   0.5899   0.6287   0.6952
     0.7563   0.8251   0.8727   0.8913   0.8921   0.9707   0.9884   1.0418
     1.0437   1.9813   1.9820   2.0683   2.0686   3.8231   3.9318   3.9429
     3.9835   4.0662   4.1240   4.1969   4.2251   4.2641   4.2664   4.3330

     the Fermi energy is     3.7425 ev

!    total energy              =   -2940.36666311 Ry
     estimated scf accuracy    <       0.00000007 Ry
     smearing contrib. (-TS)   =      -0.03728163 Ry
     internal energy E=F+TS    =   -2940.32938148 Ry

     The total energy is F=E-TS. E is the sum of the following terms:
     one-electron contribution =  -23758.95865942 Ry
     hartree contribution      =   11970.81925831 Ry
     xc contribution           =    -486.11271407 Ry
     ewald contribution        =    9333.91971326 Ry
     electric field correction =       0.00302044 Ry

     convergence has been achieved in  70 iterations

     Forces acting on atoms (cartesian axes, Ry/au):

     atom    1 type  1   force =     0.00006635   -0.00012852    0.09325219
     atom    2 type  1   force =    -0.00006011   -0.00025999   -0.17807824
     atom    3 type  2   force =     0.00002138   -0.00015369   -0.02025397
     atom    4 type  2   force =     0.00001071   -0.00195708    0.05850180
     atom    5 type  2   force =    -0.01065678   -0.00127817    0.00871279
     atom    6 type  2   force =     0.01175262   -0.00062360    0.00683554
     atom    7 type  1   force =    -0.00091770    0.00299221   -0.01442910
     atom    8 type  1   force =     0.00063504   -0.00049867   -0.00371685
     atom    9 type  2   force =     0.00014451    0.00010597    0.00008873
     atom   10 type  2   force =    -0.00209515   -0.00121300    0.00064612
     atom   11 type  2   force =     0.00008585    0.00021747   -0.00011240
     atom   12 type  2   force =     0.00056725    0.00028881   -0.00006096
     atom   13 type  1   force =    -0.00013905    0.00029148    0.00009550
     atom   14 type  1   force =     0.00013257    0.00046126   -0.00039618
     atom   15 type  2   force =     0.00000714    0.00040953   -0.00006366
     atom   16 type  2   force =     0.00042437    0.00016520   -0.00031699
     atom   17 type  2   force =     0.00025289   -0.00033433   -0.00035824
     atom   18 type  2   force =     0.00019897   -0.00053132    0.00008747
     atom   19 type  1   force =    -0.00102809   -0.00019720    0.00006361
     atom   20 type  1   force =     0.00022123   -0.00003514   -0.00008577
     atom   21 type  2   force =     0.00009934    0.00000169    0.10389920
     atom   22 type  2   force =    -0.00018720    0.00014121    0.00005334
     atom   23 type  2   force =    -0.07040050   -0.00012316   -0.02690374
     atom   24 type  2   force =     0.07033540    0.00033336   -0.02694180
     atom   25 type  1   force =     0.00008640   -0.00022886    0.09280452
     atom   26 type  1   force =    -0.00005023   -0.00034504   -0.17807041
     atom   27 type  2   force =     0.00011082   -0.00036930   -0.01931806
     atom   28 type  2   force =     0.00004137   -0.00165176    0.05792238
     atom   29 type  2   force =    -0.01064553   -0.00128356    0.00804006
     atom   30 type  2   force =     0.01164854   -0.00089173    0.00609969
     atom   31 type  1   force =    -0.00090036    0.00489486   -0.01541380
     atom   32 type  1   force =     0.00083239    0.00019612   -0.00391895
     atom   33 type  2   force =     0.00010284    0.00046269    0.00021710
     atom   34 type  2   force =    -0.00177066    0.00109034    0.00070011
     atom   35 type  2   force =     0.00032031    0.00006545    0.00008805
     atom   36 type  2   force =     0.00025841   -0.00024775    0.00020034
     atom   37 type  1   force =    -0.00035719    0.00002276   -0.00010371
     atom   38 type  1   force =    -0.00023921    0.00050558   -0.00016235
     atom   39 type  2   force =     0.00048704   -0.00072077   -0.00006452
     atom   40 type  2   force =    -0.00015258    0.00007494    0.00000055
     atom   41 type  2   force =     0.00000046   -0.00014604   -0.00004608
     atom   42 type  2   force =     0.00019845    0.00010440   -0.00000881
     atom   43 type  1   force =    -0.00031229   -0.00002253    0.00008886
     atom   44 type  1   force =     0.00013222    0.00006985    0.00003124
     atom   45 type  2   force =     0.00010797   -0.00003260    0.10387583
     atom   46 type  2   force =    -0.07040929   -0.00005577   -0.02690557
     atom   47 type  2   force =     0.07036044    0.00037197   -0.02691303
     atom   48 type  3   force =    -0.00219480    0.00088729   -0.00136973
     atom   49 type  4   force =     0.00118724   -0.00022397    0.00026592
     atom   50 type  5   force =     0.00055039   -0.00016189    0.00042604
     atom   51 type  5   force =    -0.00042010   -0.00006903   -0.00038941
     atom   52 type  3   force =    -0.00311094    0.00378367   -0.00375361
     atom   53 type  5   force =    -0.00039442   -0.00028308    0.00084397
     atom   54 type  5   force =     0.00506128   -0.00387056    0.00431501

     Total force =     0.366002     Total SCF correction =     0.000778
  @ DRIVER MODE: Message from server: STATUS
  @ DRIVER MODE: Message from server: GETFORCE
  @ DRIVER MODE: Returning v,forces,stress,ensemble

     Writing output data file ./calc.save/
  @ DRIVER MODE: Message from server: EXIT
  @ DRIVE MODE: Exiting

     General routines

     Parallel routines

   This run was terminated on:  10:35:32   9Sep2021

   JOB DONE.