     Program PWSCF v.6.7GPU starts on 23Aug2021 at 15: 9:11

     R & G space division:  proc/nbgrp/npool/nimage =       6
     Reading input from /storage/home/hcoda1/3/ntian30/research/carbon/CH_vib/ads_slab/CHN2_b/out_0005/pw.inp
Warning: card &CELL ignored
Warning: card   CELL_DYNAMICS='IPI', ignored
Warning: card / ignored

     Current dimensions of program PWSCF are:
     Max number of different atomic species (ntypx) = 10
     Max number of k-points (npk) =  40000
     Max angular momentum in pseudopotentials (lmaxx) =  3
     Presently no symmetry can be used with electric field

     Message from routine cell_base_init:
     DEPRECATED: use true lattice parameter, not A to a.u. conversion factor

     IMPORTANT: XC functional enforced from input :
     Exchange-correlation= BEEF-VDW
                           (   1   4  43  14   2   0   0)
     Any further DFT definition will be discarded
     Please, verify this is what you really want

  @ DRIVER MODE: Connecting to
 qe_1139763_2632794.sched-torque.pace.gatech.edu33c17rld_scratch
  using UNIX socket
  @ DRIVER MODE: Message from server: STATUS
  @ DRIVER MODE: Message from server: INIT
  @ DRIVER MODE: Receiving replica           0          -1
  @ DRIVER MODE: Receiving encoded integer          25
  @ DRIVER MODE:  SCF:  T  FORCE:  T  STRESS:  F  VC:  F  ENSEMBLE:  F
  @ DRIVER MODE:  SCF:  T  FORCE:  T  STRESS:  F  VC:  F  ENSEMBLE:  F

     Using Slab Decomposition

     bravais-lattice index     =            0
     lattice parameter (alat)  =       1.8897  a.u.
     unit-cell volume          =    6658.9804 (a.u.)^3
     number of atoms/cell      =           51
     number of atomic types    =            5
     number of electrons       =       393.00
     number of Kohn-Sham states=          206
     kinetic-energy cutoff     =      29.3995  Ry
     charge density cutoff     =     293.9946  Ry
     scf convergence threshold =      7.3E-08
     mixing beta               =       0.0500
     number of iterations used =            8  plain     mixing
     Exchange-correlation= BEEF-VDW
                           (   1   4  43  14   2   0   0)

     celldm(1)=   1.889726  celldm(2)=   0.000000  celldm(3)=   0.000000
     celldm(4)=   0.000000  celldm(5)=   0.000000  celldm(6)=   0.000000

     crystal axes: (cart. coord. in units of alat)
               a(1) = (   6.579727   0.000000   0.000000 )
               a(2) = (  -0.000775   5.961596   0.000000 )
               a(3) = (   0.000000   0.000000  25.155947 )

     reciprocal axes: (cart. coord. in units 2 pi/alat)
               b(1) = (  0.151982  0.000020  0.000000 )
               b(2) = (  0.000000  0.167740  0.000000 )
               b(3) = (  0.000000  0.000000  0.039752 )

     PseudoPot. # 1 for Ti read from file:
     /storage/coda1/p-amedford6/0/shared/rich_project_chbe-medford/medford-share/data/pseudos_module/espresso/nninc/pbe/van/Ti.UPF
     MD5 check sum: 8e4df49b7f0d34bbd5052bf3f5ea0213
     Pseudo is Ultrasoft, Zval = 12.0
     Generated by new atomic code, or converted to UPF format
     Using radial grid of  851 points,  6 beta functions with:
                l(1) =   0
                l(2) =   0
                l(3) =   1
                l(4) =   1
                l(5) =   2
                l(6) =   2
     Q(r) pseudized with  8 coefficients,  rinner =    1.000   1.000   1.000
                                                       1.000   1.000

     PseudoPot. # 2 for O  read from file:
     /storage/coda1/p-amedford6/0/shared/rich_project_chbe-medford/medford-share/data/pseudos_module/espresso/nninc/pbe/van/O.UPF
     MD5 check sum: 78c19812648e8988a0fe644b0f25305e
     Pseudo is Ultrasoft, Zval =  6.0
     Generated by new atomic code, or converted to UPF format
     Using radial grid of  737 points,  4 beta functions with:
                l(1) =   0
                l(2) =   0
                l(3) =   1
                l(4) =   1
     Q(r) pseudized with  8 coefficients,  rinner =    0.800   0.800   0.800

     PseudoPot. # 3 for N  read from file:
     /storage/coda1/p-amedford6/0/shared/rich_project_chbe-medford/medford-share/data/pseudos_module/espresso/nninc/pbe/van/N.UPF
     MD5 check sum: 90d10febe142ad51ac9d5be1deb811c4
     Pseudo is Ultrasoft, Zval =  5.0
     Generated by new atomic code, or converted to UPF format
     Using radial grid of  729 points,  4 beta functions with:
                l(1) =   0
                l(2) =   0
                l(3) =   1
                l(4) =   1
     Q(r) pseudized with  8 coefficients,  rinner =    0.800   0.800   0.800

     PseudoPot. # 4 for C  read from file:
     /storage/coda1/p-amedford6/0/shared/rich_project_chbe-medford/medford-share/data/pseudos_module/espresso/nninc/pbe/van/C.UPF
     MD5 check sum: 1a69bf6b8db32088f5b2163dbdb77a27
     Pseudo is Ultrasoft, Zval =  4.0
     Generated by new atomic code, or converted to UPF format
     Using radial grid of  721 points,  4 beta functions with:
                l(1) =   0
                l(2) =   0
                l(3) =   1
                l(4) =   1
     Q(r) pseudized with  8 coefficients,  rinner =    0.800   0.800   0.800

     PseudoPot. # 5 for H  read from file:
     /storage/coda1/p-amedford6/0/shared/rich_project_chbe-medford/medford-share/data/pseudos_module/espresso/nninc/pbe/van/H.UPF
     MD5 check sum: b5ee9d7bfd3a09ee7748110bda690ff7
     Pseudo is Ultrasoft, Zval =  1.0
     Generated by new atomic code, or converted to UPF format
     Using radial grid of  615 points,  1 beta functions with:
                l(1) =   0
     Q(r) pseudized with  8 coefficients,  rinner =    0.800

     atomic species   valence    mass     pseudopotential
        Ti1           12.00    47.86700     Ti( 1.00)
        O1             6.00    15.99900     O ( 1.00)
        N1             5.00    14.00700     N ( 1.00)
        C1             4.00    12.01100     C ( 1.00)
        H1             1.00     1.00800     H ( 1.00)

     No symmetry found

   Cartesian axes

     site n.     atom                  positions (alat units)
         1           Ti1 tau(   1) = (   0.0004258   2.9801865   6.0000000  )
         2           Ti1 tau(   2) = (   3.2906075   1.4906267   6.0002472  )
         3           O1  tau(   3) = (   0.0006271   0.0005054   7.9858123  )
         4           O1  tau(   4) = (   3.2906025   0.0005020   7.3038282  )
         5           O1  tau(   5) = (   4.5942328   1.4918067   9.2879030  )
         6           O1  tau(   6) = (   1.9868534   1.4903216   9.2879459  )
         7           Ti1 tau(   7) = (   3.2907910   2.8959150   9.1758416  )
         8           Ti1 tau(   8) = (   0.0015273   1.4827037   9.2680791  )
         9           O1  tau(   9) = (   3.2950996   0.0139504  11.3317891  )
        10           O1  tau(  10) = (   0.0116148   5.9584955  10.6183126  )
        11           O1  tau(  11) = (   1.2919129   1.4990403  12.6236220  )
        12           O1  tau(  12) = (   5.2764399   1.5074276  12.6212280  )
        13           Ti1 tau(  13) = (   0.0528816   2.9532107  12.6238214  )
        14           Ti1 tau(  14) = (   3.3640876   1.5054642  12.4823551  )
        15           O1  tau(  15) = (   0.0126464   0.0517330  14.6735668  )
        16           O1  tau(  16) = (   3.2893787   0.0313947  13.9162352  )
        17           O1  tau(  17) = (   4.5455072   1.5470193  16.0571763  )
        18           O1  tau(  18) = (   2.0683839   1.5479149  16.0688871  )
        19           Ti1 tau(  19) = (   3.3004933   3.0285056  15.7062229  )
        20           Ti1 tau(  20) = (   6.5748692   1.5544668  15.8636821  )
        21           O1  tau(  21) = (   3.2904802   0.0005063   4.7018136  )
        22           O1  tau(  22) = (   0.0156978   0.0568370  17.2307755  )
        23           O1  tau(  23) = (   1.3043587   1.4918075   6.0039043  )
        24           O1  tau(  24) = (   5.2767064   1.4903225   6.0039473  )
        25           Ti1 tau(  25) = (   0.0000382   5.9609847   6.0000000  )
        26           Ti1 tau(  26) = (   3.2902200   4.4714249   6.0002472  )
        27           O1  tau(  27) = (   0.0002396   2.9813036   7.9858123  )
        28           O1  tau(  28) = (   3.2902150   2.9813002   7.3038282  )
        29           O1  tau(  29) = (   4.5938453   4.4726049   9.2879030  )
        30           O1  tau(  30) = (   1.9864658   4.4711199   9.2879459  )
        31           Ti1 tau(  31) = (   3.2891106   5.8743827   9.1763621  )
        32           Ti1 tau(  32) = (   0.0006254   4.4649316   9.2693709  )
        33           O1  tau(  33) = (   3.2930415   3.0011583  11.3325650  )
        34           O1  tau(  34) = (   0.0092240   2.9805883  10.6323155  )
        35           O1  tau(  35) = (   1.2898468   4.4882246  12.6384491  )
        36           O1  tau(  36) = (   5.2806636   4.4975927  12.6358184  )
        37           Ti1 tau(  37) = (   0.0525728   5.9296047  12.5528222  )
        38           Ti1 tau(  38) = (   3.3636738   4.4864912  12.4891182  )
        39           O1  tau(  39) = (   0.0107234   2.9627607  14.6747216  )
        40           O1  tau(  40) = (   3.2927234   3.0099296  13.9079960  )
        41           O1  tau(  41) = (   4.5395255   4.5218754  16.0742521  )
        42           O1  tau(  42) = (   2.0629885   4.5199598  16.0715304  )
        43           Ti1 tau(  43) = (   3.2878121   0.0461507  15.7166771  )
        44           Ti1 tau(  44) = (   0.0020781   4.6962996  16.1098215  )
        45           O1  tau(  45) = (   3.2900926   2.9813045   4.7018136  )
        46           O1  tau(  46) = (   1.3039711   4.4726057   6.0039043  )
        47           O1  tau(  47) = (   5.2763189   4.4711207   6.0039473  )
        48           N1  tau(  48) = (   0.1203982   2.9607606  18.6052809  )
        49           N1  tau(  49) = (   0.0157770   3.0106383  17.4001577  )
        50           C1  tau(  50) = (   0.0651646   2.9076078  19.8026698  )
        51           H1  tau(  51) = (   0.7310076   2.8879977  20.6380856  )

     number of k points=    10  Fermi-Dirac smearing, width (Ry)=  0.0073
                       cart. coord. in units 2pi/alat
        k(    1) = (   0.0000000   0.0000000   0.0000000), wk =   0.1250000
        k(    2) = (   0.0000000   0.0419351   0.0000000), wk =   0.2500000
        k(    3) = (   0.0000000  -0.0838702   0.0000000), wk =   0.1250000
        k(    4) = (   0.0379955   0.0000049   0.0000000), wk =   0.2500000
        k(    5) = (   0.0379955   0.0419400   0.0000000), wk =   0.2500000
        k(    6) = (   0.0379955  -0.0838652   0.0000000), wk =   0.2500000
        k(    7) = (   0.0379955  -0.0419301   0.0000000), wk =   0.2500000
        k(    8) = (  -0.0759910  -0.0000099   0.0000000), wk =   0.1250000
        k(    9) = (  -0.0759910   0.0419252   0.0000000), wk =   0.2500000
        k(   10) = (  -0.0759910  -0.0838800   0.0000000), wk =   0.1250000

     Initial potential from superposition of free atoms

     starting charge  376.99918, renormalised to  393.00000

     negative rho (up, down):  1.565E-02 0.000E+00

     %%%%%%%%%%%%%%%%%%%%%%%%%%%%%%%%%%%%%%%%%%%%%%%%%%%%%%%%%%%%%%%%%%%%%%%%
     %                                                                      %
     % You are using vdW-DF, which was implemented by the Thonhauser group. %
     % Please cite the following two papers that made this development      %
     % possible and the two reviews that describe the various versions:     %
     %                                                                      %
     %   T. Thonhauser et al., PRL 115, 136402 (2015).                      %
     %   T. Thonhauser et al., PRB 76, 125112 (2007).                       %
     %   K. Berland et al., Rep. Prog. Phys. 78, 066501 (2015).             %
     %   D.C. Langreth et al., J. Phys.: Condens. Matter 21, 084203 (2009). %
     %                                                                      %
     %                                                                      %
     % If you are calculating the stress with vdW-DF, please also cite:     %
     %                                                                      %
     %   R. Sabatini et al., J. Phys.: Condens. Matter 24, 424209 (2012).   %
     %                                                                      %
     %%%%%%%%%%%%%%%%%%%%%%%%%%%%%%%%%%%%%%%%%%%%%%%%%%%%%%%%%%%%%%%%%%%%%%%%

     Adding external electric field

     Computed dipole along edir(3) :
        Dipole               -7.5461 Ry au,        -19.1802 Debye
        Dipole field         -0.0142 Ry au,

        Potential amp.        1.3201 Ry
        Total length         46.3494 bohr

     Starting wfcs are  297 atomic wfcs
  @ DRIVER MODE: Message from server: STATUS
  @ DRIVER MODE: Message from server: POSDATA
  @ DRIVER MODE: Reading and sharing cell
  @ DRIVER MODE: Reading and sharing positions
  @ DRIVER MODE: Received positions

     Self-consistent Calculation

     iteration #  1     ecut=    29.40 Ry     beta= 0.05
     Davidson diagonalization with overlap
     c_bands:  1 eigenvalues not converged
     c_bands:  1 eigenvalues not converged
     c_bands:  1 eigenvalues not converged
     ethr =  1.00E-05,  avg # of iterations = 18.5

[...]

     total energy              =   -2707.54360719 Ry
     estimated scf accuracy    <    2541.14935114 Ry

[...]

     iteration #  3     ecut=    29.40 Ry     beta= 0.05
     Davidson diagonalization with overlap
     ethr =  1.00E-02,  avg # of iterations = 15.7

[...]

     iteration # 59     ecut=    29.40 Ry     beta= 0.05
     Davidson diagonalization with overlap
     c_bands:  1 eigenvalues not converged
     ethr =  7.76E-11,  avg # of iterations = 14.1

[...]

     total energy              =   -2936.63899317 Ry
     estimated scf accuracy    <       0.00000009 Ry

     iteration # 63     ecut=    29.40 Ry     beta= 0.05
     Davidson diagonalization with overlap
     ethr =  2.41E-11,  avg # of iterations =  8.4

     negative rho (up, down):  1.604E-02 0.000E+00

     Adding external electric field

     Computed dipole along edir(3) :
        Dipole                0.7208 Ry au,          1.8320 Debye
        Dipole field          0.0014 Ry au,

        Potential amp.       -0.1261 Ry
        Total length         46.3494 bohr

     End of self-consistent calculation

          k = 0.0000 0.0000 0.0000 ( 18029 PWs)   bands (ev):

   -55.9280 -55.9265 -55.8939 -55.8898 -55.7866 -55.7739 -55.7514 -55.7371
   -55.7361 -55.7031 -55.7028 -55.6691 -55.4844 -55.2409 -54.9067 -54.8727
   -32.4805 -32.4107 -32.2838 -32.2362 -32.2343 -32.2276 -32.2206 -32.1934
   -32.1706 -32.1452 -32.1147 -32.1049 -32.1001 -32.0803 -32.0727 -32.0663
   -32.0326 -32.0196 -32.0124 -31.9907 -31.9884 -31.9852 -31.9650 -31.9405
   -31.9338 -31.9262 -31.9232 -31.9139 -31.9127 -31.9048 -31.8993 -31.8780
   -31.8680 -31.8560 -31.8438 -31.8414 -31.8149 -31.7058 -31.6990 -31.5184
   -31.4710 -31.4709 -31.3139 -31.2255 -31.2030 -31.1306 -31.0441 -30.9331
   -19.3685 -16.6674 -16.4024 -16.1569 -16.0756 -16.0463 -15.9308 -15.7688
   -15.6516 -15.5907 -15.4904 -15.4844 -15.4647 -15.4315 -15.4009 -15.3769
   -15.3718 -15.3617 -15.3454 -15.3136 -15.2891 -15.2675 -15.2433 -15.1543
   -15.0974 -15.0624 -15.0028 -14.9942 -14.9848 -14.5219 -13.8662 -13.4091
   -13.2926  -6.6181  -5.3344  -4.2528  -4.0418  -3.9482  -3.8829  -3.8345
    -3.7793  -3.6761  -3.5383  -3.4691  -3.1554  -3.1032  -3.0913  -3.0666
    -3.0422  -2.8289  -2.7629  -2.7407  -2.7069  -2.7016  -2.6990  -2.6905
    -2.6736  -2.6411  -2.5200  -2.4635  -2.3908  -2.3501  -2.3223  -2.3147
    -2.2404  -2.2011  -2.1895  -2.1649  -2.1635  -2.1404  -2.1305  -2.1132
    -1.9753  -1.9090  -1.7864  -1.7221  -1.6881  -1.5368  -1.5064  -1.4054
    -1.3800  -1.3567  -1.3207  -1.2900  -1.2306  -1.0964  -1.0883  -1.0777
    -1.0442  -0.9470  -0.8946  -0.8210  -0.7659  -0.7426  -0.6958  -0.6847
    -0.6809  -0.6352  -0.4720  -0.4024  -0.3426  -0.3335  -0.2891  -0.2279
    -0.1983  -0.1193  -0.0776  -0.0477  -0.0301   0.0090   0.0461   0.0699
     0.0803   0.0901   0.1039   0.2893   0.3322   0.3502   0.4080   0.4269
     0.5980   0.6448   0.7276   0.8236   1.0409   1.1155   1.1997   1.3077
     1.3587   1.5929   1.6868   1.7325   3.2035   3.2931   3.3298   3.3385
     3.4457   3.5176   3.6602   3.6723   3.6929   3.7358

[...]

          k = 0.0380-0.0419 0.0000 ( 17876 PWs)   bands (ev):

[...]

          k =-0.0760-0.0000 0.0000 ( 17886 PWs)   bands (ev):

[...]

          k =-0.0760-0.0839 0.0000 ( 17948 PWs)   bands (ev):

   -55.9118 -55.9114 -55.9103 -55.9044 -55.7732 -55.7647 -55.7626 -55.7472
   -55.7210 -55.7187 -55.6877 -55.6845 -55.4832 -55.2420 -54.8897 -54.8896
   -32.2866 -32.2796 -32.2263 -32.2256 -32.2064 -32.2055 -32.1779 -32.1734
   -32.1334 -32.1258 -32.1002 -32.0979 -32.0584 -32.0510 -32.0433 -32.0406
   -32.0333 -32.0330 -32.0310 -32.0299 -32.0259 -32.0228 -31.9894 -31.9785
   -31.9704 -31.9638 -31.9497 -31.9465 -31.9212 -31.9205 -31.9187 -31.9161
   -31.9022 -31.9003 -31.8968 -31.8945 -31.8620 -31.7085 -31.6946 -31.5886
   -31.4931 -31.4728 -31.2158 -31.2157 -31.1267 -31.1266 -31.0874 -31.0874
   -19.3659 -16.0955 -16.0821 -15.8781 -15.8444 -15.8320 -15.8247 -15.7084
   -15.6290 -15.6211 -15.6199 -15.5187 -15.5068 -15.4981 -15.4659 -15.4560
   -15.4365 -15.4352 -15.3967 -15.3897 -15.3837 -15.3665 -15.3588 -15.2729
   -15.2467 -15.2425 -15.2114 -15.0975 -14.9625 -14.7021 -13.8713 -13.3946
   -13.3943  -6.6169  -5.3033  -4.2143  -3.9490  -3.3850  -3.3687  -3.1135
    -3.0822  -3.0731  -3.0178  -2.8454  -2.8282  -2.8045  -2.7825  -2.7520
    -2.7455  -2.7378  -2.7311  -2.7123  -2.6680  -2.6437  -2.6131  -2.5989
    -2.5844  -2.5840  -2.5534  -2.5407  -2.4991  -2.4831  -2.4746  -2.4519
    -2.4270  -2.4165  -2.2646  -2.1708  -2.1395  -2.0670  -2.0604  -2.0190
    -1.9930  -1.9779  -1.9548  -1.9189  -1.7769  -1.6621  -1.6266  -1.6118
    -1.5317  -1.4877  -1.4105  -1.3519  -1.3081  -1.3017  -1.2453  -1.1945
    -1.1346  -1.1242  -1.0602  -1.0278  -0.9879  -0.9575  -0.9169  -0.8869
    -0.8816  -0.7951  -0.7434  -0.7355  -0.6860  -0.6819  -0.6521  -0.5951
    -0.5760  -0.5471  -0.4252  -0.4052  -0.2951  -0.2141  -0.1477   0.0399
     0.1214   0.1460   0.1997   0.2700   0.3620   0.3741   0.3888   0.3947
     0.4433   0.4955   0.6011   0.6124   0.6506   0.7809   1.2777   1.4779
     1.4794   1.4814   1.5521   1.5525   3.5169   3.5263   3.5446   3.5609
     3.7165   3.7192   3.7389   3.7403   3.8746   3.8867

     the Fermi energy is     3.2050 ev

!    total energy              =   -2936.63902934 Ry
     estimated scf accuracy    <       0.00000006 Ry
     smearing contrib. (-TS)   =      -0.02146780 Ry
     internal energy E=F+TS    =   -2936.61756154 Ry

     The total energy is F=E-TS. E is the sum of the following terms:
     one-electron contribution =  -24293.90825887 Ry
     hartree contribution      =   12232.34779336 Ry
     xc contribution           =    -483.56494585 Ry
     ewald contribution        =    9608.50686943 Ry
     electric field correction =       0.00098038 Ry

     convergence has been achieved in  63 iterations

     Forces acting on atoms (cartesian axes, Ry/au):

     atom    1 type  1   force =     0.00009085   -0.00015433    0.09654416
     atom    2 type  1   force =    -0.00014956   -0.00055583   -0.17548643
     atom    3 type  2   force =    -0.00000332    0.00006245   -0.02460401
     atom    4 type  2   force =     0.00005506   -0.00129989    0.05298914
     atom    5 type  2   force =    -0.01198393    0.00009807    0.00366665
     atom    6 type  2   force =     0.01363293    0.00068751    0.00267633
     atom    7 type  1   force =    -0.00091266    0.00090135   -0.01119842
     atom    8 type  1   force =     0.00035817    0.00993131    0.02720822
     atom    9 type  2   force =    -0.00018489   -0.00023638    0.00014852
     atom   10 type  2   force =    -0.00143252    0.00227418   -0.01252484
     atom   11 type  2   force =    -0.00012526    0.00024660   -0.00026456
     atom   12 type  2   force =     0.00033559   -0.00000343   -0.00056973
     atom   13 type  1   force =     0.00034880   -0.00123436   -0.00052628
     atom   14 type  1   force =     0.00042178    0.00001912   -0.00000806
     atom   15 type  2   force =    -0.00003943   -0.00087416   -0.00038075
     atom   16 type  2   force =     0.00009619   -0.00047933    0.00006671
     atom   17 type  2   force =    -0.00033645   -0.00045258    0.00011814
     atom   18 type  2   force =    -0.00048876   -0.00054043   -0.00011032
     atom   19 type  1   force =     0.00004937   -0.00032936    0.00008605
     atom   20 type  1   force =     0.00007274   -0.00061864   -0.00112776
     atom   21 type  2   force =     0.00003680   -0.00003966    0.10319953
     atom   22 type  2   force =    -0.00033421   -0.00079077   -0.00119737
     atom   23 type  2   force =    -0.07148903   -0.00009889   -0.02767981
     atom   24 type  2   force =     0.07140770    0.00032611   -0.02768666
     atom   25 type  1   force =     0.00006202   -0.00012519    0.09605188
     atom   26 type  1   force =    -0.00023210   -0.00024465   -0.17565502
     atom   27 type  2   force =     0.00006043   -0.00012926   -0.02362569
     atom   28 type  2   force =     0.00006017   -0.00109284    0.05316712
     atom   29 type  2   force =    -0.01210897    0.00086883    0.00327621
     atom   30 type  2   force =     0.01366673    0.00133539    0.00233426
     atom   31 type  1   force =    -0.00082661    0.00332593   -0.01191764
     atom   32 type  1   force =     0.00043860   -0.01207746    0.02753234
     atom   33 type  2   force =     0.00022113    0.00015677    0.00010343
     atom   34 type  2   force =    -0.00107173    0.00252696   -0.02035704
     atom   35 type  2   force =     0.00016419   -0.00087165   -0.00029707
     atom   36 type  2   force =     0.00039209   -0.00059299   -0.00059318
     atom   37 type  1   force =     0.00005429    0.00116811   -0.00029315
     atom   38 type  1   force =     0.00032783    0.00031777   -0.00013733
     atom   39 type  2   force =    -0.00001978    0.00044021   -0.00093472
     atom   40 type  2   force =    -0.00001611    0.00005658   -0.00055319
     atom   41 type  2   force =     0.00058445   -0.00017375   -0.00005758
     atom   42 type  2   force =    -0.00072568   -0.00003224    0.00091837
     atom   43 type  1   force =    -0.00007125   -0.00035087    0.00043374
     atom   44 type  1   force =    -0.00016091    0.00055724   -0.00102147
     atom   45 type  2   force =     0.00005039   -0.00005815    0.10322478
     atom   46 type  2   force =    -0.07148889   -0.00007187   -0.02768176
     atom   47 type  2   force =     0.07141912    0.00033712   -0.02768916
     atom   48 type  3   force =     0.00354658   -0.00295773    0.05836245
     atom   49 type  3   force =    -0.00252235    0.00023006   -0.02423317
     atom   50 type  4   force =    -0.00307377    0.00097584   -0.03254808
     atom   51 type  5   force =     0.00184416   -0.00035682   -0.00114779

     Total force =     0.374455     Total SCF correction =     0.000468
  @ DRIVER MODE: Message from server: STATUS
  @ DRIVER MODE: Message from server: GETFORCE
  @ DRIVER MODE: Returning v,forces,stress,ensemble

     Writing output data file ./calc.save/
  @ DRIVER MODE: Message from server: EXIT
  @ DRIVE MODE: Exiting

     General routines

     Parallel routines

   This run was terminated on:  15:38:15  23Aug2021

   JOB DONE.