     Program PWSCF v.6.7GPU starts on 23Sep2021 at  6:39:43

     R & G space division:  proc/nbgrp/npool/nimage =       8
     Reading input from /storage/home/hcoda1/3/ntian30/research/carbon/CxH_vib/H2O_calc/ads_slab/CH3OHHO_e/out_0022/pw.inp
Warning: card &CELL ignored
Warning: card   CELL_DYNAMICS='IPI', ignored
Warning: card / ignored

     Current dimensions of program PWSCF are:
     Max number of different atomic species (ntypx) = 10
     Max number of k-points (npk) =  40000
     Max angular momentum in pseudopotentials (lmaxx) =  3
     Presently no symmetry can be used with electric field

     Message from routine cell_base_init:
     DEPRECATED: use true lattice parameter, not A to a.u. conversion factor

     IMPORTANT: XC functional enforced from input :
     Exchange-correlation= BEEF-VDW
                           (   1   4  43  14   2   0   0)
     Any further DFT definition will be discarded
     Please, verify this is what you really want

  @ DRIVER MODE: Connecting to
 qe_1139763_2941008.sched-torque.pace.gatech.edu7cladwmy_scratch
  using UNIX socket
  @ DRIVER MODE: Message from server: STATUS
  @ DRIVER MODE: Message from server: INIT
  @ DRIVER MODE: Receiving replica           0          -1
  @ DRIVER MODE: Receiving encoded integer          25
  @ DRIVER MODE:  SCF:  T  FORCE:  T  STRESS:  F  VC:  F  ENSEMBLE:  F
  @ DRIVER MODE:  SCF:  T  FORCE:  T  STRESS:  F  VC:  F  ENSEMBLE:  F

     Using Slab Decomposition

     bravais-lattice index     =            0
     lattice parameter (alat)  =       1.8897  a.u.
     unit-cell volume          =    6658.9804 (a.u.)^3
     number of atoms/cell      =           55
     number of atomic types    =            4
     number of electrons       =       399.00
     number of Kohn-Sham states=          209
     kinetic-energy cutoff     =      29.3995  Ry
     charge density cutoff     =     293.9946  Ry
     scf convergence threshold =      7.3E-08
     mixing beta               =       0.0500
     number of iterations used =            8  plain     mixing
     Exchange-correlation= BEEF-VDW
                           (   1   4  43  14   2   0   0)

     celldm(1)=   1.889726  celldm(2)=   0.000000  celldm(3)=   0.000000
     celldm(4)=   0.000000  celldm(5)=   0.000000  celldm(6)=   0.000000

     crystal axes: (cart. coord. in units of alat)
               a(1) = (   6.579727   0.000000   0.000000 )
               a(2) = (  -0.000775   5.961596   0.000000 )
               a(3) = (   0.000000   0.000000  25.155947 )

     reciprocal axes: (cart. coord. in units 2 pi/alat)
               b(1) = (  0.151982  0.000020  0.000000 )
               b(2) = (  0.000000  0.167740  0.000000 )
               b(3) = (  0.000000  0.000000  0.039752 )

     PseudoPot. # 1 for Ti read from file:
     /storage/coda1/p-amedford6/0/shared/rich_project_chbe-medford/medford-share/data/pseudos_module/espresso/nninc/pbe/van/Ti.UPF
     MD5 check sum: 8e4df49b7f0d34bbd5052bf3f5ea0213
     Pseudo is Ultrasoft, Zval = 12.0
     Generated by new atomic code, or converted to UPF format
     Using radial grid of  851 points,  6 beta functions with:
                l(1) =   0
                l(2) =   0
                l(3) =   1
                l(4) =   1
                l(5) =   2
                l(6) =   2
     Q(r) pseudized with  8 coefficients,  rinner =    1.000   1.000   1.000
                                                       1.000   1.000

     PseudoPot. # 2 for O  read from file:
     /storage/coda1/p-amedford6/0/shared/rich_project_chbe-medford/medford-share/data/pseudos_module/espresso/nninc/pbe/van/O.UPF
     MD5 check sum: 78c19812648e8988a0fe644b0f25305e
     Pseudo is Ultrasoft, Zval =  6.0
     Generated by new atomic code, or converted to UPF format
     Using radial grid of  737 points,  4 beta functions with:
                l(1) =   0
                l(2) =   0
                l(3) =   1
                l(4) =   1
     Q(r) pseudized with  8 coefficients,  rinner =    0.800   0.800   0.800

     PseudoPot. # 3 for C  read from file:
     /storage/coda1/p-amedford6/0/shared/rich_project_chbe-medford/medford-share/data/pseudos_module/espresso/nninc/pbe/van/C.UPF
     MD5 check sum: 1a69bf6b8db32088f5b2163dbdb77a27
     Pseudo is Ultrasoft, Zval =  4.0
     Generated by new atomic code, or converted to UPF format
     Using radial grid of  721 points,  4 beta functions with:
                l(1) =   0
                l(2) =   0
                l(3) =   1
                l(4) =   1
     Q(r) pseudized with  8 coefficients,  rinner =    0.800   0.800   0.800

     PseudoPot. # 4 for H  read from file:
     /storage/coda1/p-amedford6/0/shared/rich_project_chbe-medford/medford-share/data/pseudos_module/espresso/nninc/pbe/van/H.UPF
     MD5 check sum: b5ee9d7bfd3a09ee7748110bda690ff7
     Pseudo is Ultrasoft, Zval =  1.0
     Generated by new atomic code, or converted to UPF format
     Using radial grid of  615 points,  1 beta functions with:
                l(1) =   0
     Q(r) pseudized with  8 coefficients,  rinner =    0.800

     atomic species   valence    mass     pseudopotential
        Ti1           12.00    47.86700     Ti( 1.00)
        O1             6.00    15.99900     O ( 1.00)
        C1             4.00    12.01100     C ( 1.00)
        H1             1.00     1.00800     H ( 1.00)

     No symmetry found

   Cartesian axes

     site n.     atom                  positions (alat units)
         1           Ti1 tau(   1) = (   0.0004258   2.9801865   6.0000000  )
         2           Ti1 tau(   2) = (   3.2906075   1.4906267   6.0002472  )
         3           O1  tau(   3) = (   0.0006271   0.0005054   7.9858123  )
         4           O1  tau(   4) = (   3.2906025   0.0005020   7.3038282  )
         5           O1  tau(   5) = (   4.5942328   1.4918067   9.2879030  )
         6           O1  tau(   6) = (   1.9868534   1.4903216   9.2879459  )
         7           Ti1 tau(   7) = (   3.3364693   3.0244086   9.1899460  )
         8           Ti1 tau(   8) = (   0.0614121   1.5180315   9.2736979  )
         9           O1  tau(   9) = (   3.3192415   0.0109611  11.3574448  )
        10           O1  tau(  10) = (   0.0135824   0.0030625  10.5923660  )
        11           O1  tau(  11) = (   1.3113730   1.4888140  12.6397483  )
        12           O1  tau(  12) = (   5.3365169   1.4868518  12.6422516  )
        13           Ti1 tau(  13) = (   0.0249591   3.0356721  12.5595363  )
        14           Ti1 tau(  14) = (   3.3216347   1.5719315  12.4302660  )
        15           O1  tau(  15) = (   0.0475996   5.9320359  14.6592625  )
        16           O1  tau(  16) = (   3.3253441   5.8716044  14.0084122  )
        17           O1  tau(  17) = (   4.6294077   1.4993822  16.1384749  )
        18           O1  tau(  18) = (   2.0712093   1.5368213  16.0656395  )
        19           Ti1 tau(  19) = (   3.3420502   2.9337026  15.6791356  )
        20           Ti1 tau(  20) = (   0.0819182   1.3209985  15.9439250  )
        21           O1  tau(  21) = (   3.2904802   0.0005063   4.7018136  )
        22           O1  tau(  22) = (   0.1121901   0.0005398  17.1797988  )
        23           O1  tau(  23) = (   1.3043587   1.4918075   6.0039043  )
        24           O1  tau(  24) = (   5.2767064   1.4903225   6.0039473  )
        25           Ti1 tau(  25) = (   0.0000382   5.9609847   6.0000000  )
        26           Ti1 tau(  26) = (   3.2902200   4.4714249   6.0002472  )
        27           O1  tau(  27) = (   0.0002396   2.9813036   7.9858123  )
        28           O1  tau(  28) = (   3.2902150   2.9813002   7.3038282  )
        29           O1  tau(  29) = (   4.5938453   4.4726049   9.2879030  )
        30           O1  tau(  30) = (   1.9864658   4.4711199   9.2879459  )
        31           Ti1 tau(  31) = (   3.3365859   0.0383882   9.1683042  )
        32           Ti1 tau(  32) = (   0.0607984   4.4756772   9.2727477  )
        33           O1  tau(  33) = (   3.3154497   2.9528697  11.3100477  )
        34           O1  tau(  34) = (   0.0130381   2.9821538  10.6068333  )
        35           O1  tau(  35) = (   1.3079814   4.4632751  12.6339740  )
        36           O1  tau(  36) = (   5.3374838   4.4678533  12.6371107  )
        37           Ti1 tau(  37) = (   0.0367351   0.0553833  12.4739561  )
        38           Ti1 tau(  38) = (   3.3178111   4.6524667  12.7070490  )
        39           O1  tau(  39) = (   0.0226182   2.9861015  14.7894940  )
        40           O1  tau(  40) = (   3.3464301   2.9603322  13.9061577  )
        41           O1  tau(  41) = (   4.6320376   4.4053937  16.1659747  )
        42           O1  tau(  42) = (   2.0651706   4.3480327  16.1155179  )
        43           Ti1 tau(  43) = (   3.4032537   5.9185344  16.2710929  )
        44           Ti1 tau(  44) = (   0.0646745   4.5145260  15.8553686  )
        45           O1  tau(  45) = (   3.2900926   2.9813045   4.7018136  )
        46           O1  tau(  46) = (   1.3039711   4.4726057   6.0039043  )
        47           O1  tau(  47) = (   5.2763189   4.4711207   6.0039473  )
        48           C1  tau(  48) = (   5.9353497   3.0583042  18.8699169  )
        49           O1  tau(  49) = (   0.1856485   3.0014673  17.6677584  )
        50           H1  tau(  50) = (   4.9577780   2.6849493  18.5881267  )
        51           H1  tau(  51) = (   1.1185258   3.1566834  17.9024234  )
        52           H1  tau(  52) = (   6.3707541   2.4080388  19.6265123  )
        53           H1  tau(  53) = (   5.8722695   4.0904670  19.2075282  )
        54           O1  tau(  54) = (   3.1419305   5.9539177  18.1124628  )
        55           H1  tau(  55) = (   2.2021640   0.0520986  18.3490109  )

     number of k points=    10  Fermi-Dirac smearing, width (Ry)=  0.0073
                       cart. coord. in units 2pi/alat
        k(    1) = (   0.0000000   0.0000000   0.0000000), wk =   0.1250000
        k(    2) = (   0.0000000   0.0419351   0.0000000), wk =   0.2500000
        k(    3) = (   0.0000000  -0.0838702   0.0000000), wk =   0.1250000
        k(    4) = (   0.0379955   0.0000049   0.0000000), wk =   0.2500000
        k(    5) = (   0.0379955   0.0419400   0.0000000), wk =   0.2500000
        k(    6) = (   0.0379955  -0.0838652   0.0000000), wk =   0.2500000
        k(    7) = (   0.0379955  -0.0419301   0.0000000), wk =   0.2500000
        k(    8) = (  -0.0759910  -0.0000099   0.0000000), wk =   0.1250000
        k(    9) = (  -0.0759910   0.0419252   0.0000000), wk =   0.2500000
        k(   10) = (  -0.0759910  -0.0838800   0.0000000), wk =   0.1250000

     Initial potential from superposition of free atoms

     starting charge  382.99916, renormalised to  399.00000

     negative rho (up, down):  1.653E-02 0.000E+00

     %%%%%%%%%%%%%%%%%%%%%%%%%%%%%%%%%%%%%%%%%%%%%%%%%%%%%%%%%%%%%%%%%%%%%%%%
     %                                                                      %
     % You are using vdW-DF, which was implemented by the Thonhauser group. %
     % Please cite the following two papers that made this development      %
     % possible and the two reviews that describe the various versions:     %
     %                                                                      %
     %   T. Thonhauser et al., PRL 115, 136402 (2015).                      %
     %   T. Thonhauser et al., PRB 76, 125112 (2007).                       %
     %   K. Berland et al., Rep. Prog. Phys. 78, 066501 (2015).             %
     %   D.C. Langreth et al., J. Phys.: Condens. Matter 21, 084203 (2009). %
     %                                                                      %
     %                                                                      %
     % If you are calculating the stress with vdW-DF, please also cite:     %
     %                                                                      %
     %   R. Sabatini et al., J. Phys.: Condens. Matter 24, 424209 (2012).   %
     %                                                                      %
     %%%%%%%%%%%%%%%%%%%%%%%%%%%%%%%%%%%%%%%%%%%%%%%%%%%%%%%%%%%%%%%%%%%%%%%%

     Adding external electric field

     Computed dipole along edir(3) :
        Dipole              -10.2322 Ry au,        -26.0076 Debye
        Dipole field         -0.0193 Ry au,

        Potential amp.        1.7900 Ry
        Total length         46.3494 bohr

     Starting wfcs are  301 atomic wfcs
  @ DRIVER MODE: Message from server: STATUS
  @ DRIVER MODE: Message from server: POSDATA
  @ DRIVER MODE: Reading and sharing cell
  @ DRIVER MODE: Reading and sharing positions
  @ DRIVER MODE: Received positions

     Self-consistent Calculation

     iteration #  1     ecut=    29.40 Ry     beta= 0.05
     Davidson diagonalization with overlap
     c_bands:  3 eigenvalues not converged
     c_bands:  3 eigenvalues not converged
     c_bands:  4 eigenvalues not converged
     c_bands:  1 eigenvalues not converged
     c_bands:  5 eigenvalues not converged
     c_bands:  5 eigenvalues not converged
     c_bands:  4 eigenvalues not converged
     c_bands:  4 eigenvalues not converged
     c_bands:  4 eigenvalues not converged
     ethr =  1.00E-05,  avg # of iterations = 21.1

[...]

     total energy              =   -2463.85818064 Ry
     estimated scf accuracy    <    5598.08217241 Ry

     iteration #  2     ecut=    29.40 Ry     beta= 0.05
     Davidson diagonalization with overlap
     ethr =  1.00E-02,  avg # of iterations = 25.2

[...]

     iteration # 71     ecut=    29.40 Ry     beta= 0.05
     Davidson diagonalization with overlap
     c_bands:  1 eigenvalues not converged
     ethr =  4.97E-11,  avg # of iterations = 14.2

[...]

     total energy              =   -2966.27815116 Ry
     estimated scf accuracy    <       0.00000017 Ry

     iteration # 73     ecut=    29.40 Ry     beta= 0.05
     Davidson diagonalization with overlap
     ethr =  4.24E-11,  avg # of iterations =  9.0

     negative rho (up, down):  1.671E-02 0.000E+00

     Adding external electric field

     Computed dipole along edir(3) :
        Dipole                1.0456 Ry au,          2.6578 Debye
        Dipole field          0.0020 Ry au,

        Potential amp.       -0.1829 Ry
        Total length         46.3494 bohr

     End of self-consistent calculation

          k = 0.0000 0.0000 0.0000 ( 18029 PWs)   bands (ev):

   -55.7016 -55.6321 -55.5972 -55.5177 -55.4946 -55.4667 -55.4346 -55.4274
   -55.4237 -55.4102 -55.3982 -55.3707 -55.2848 -55.2127 -54.5903 -54.5563
   -32.1111 -32.0939 -32.0128 -32.0022 -31.9586 -31.9500 -31.9220 -31.9194
   -31.8922 -31.8757 -31.8666 -31.7944 -31.7915 -31.7855 -31.7582 -31.7406
   -31.7332 -31.7213 -31.7118 -31.6989 -31.6949 -31.6906 -31.6464 -31.6457
   -31.6443 -31.6366 -31.6321 -31.6247 -31.6126 -31.5969 -31.5915 -31.5817
   -31.5759 -31.5605 -31.5563 -31.5469 -31.5371 -31.5124 -31.4734 -31.4568
   -31.4245 -31.4172 -30.9964 -30.9105 -30.8880 -30.8134 -30.7270 -30.6154
   -20.0534 -16.5164 -16.2851 -16.1055 -15.9042 -15.8408 -15.7823 -15.5940
   -15.5185 -15.3778 -15.2330 -15.2209 -15.1665 -15.1657 -15.1569 -15.1338
   -15.1029 -15.0587 -15.0494 -15.0433 -15.0378 -14.9822 -14.9403 -14.9325
   -14.9257 -14.8847 -14.7565 -14.7161 -14.6599 -14.4891 -14.4467 -13.0901
   -12.9740 -10.9246  -6.7648  -4.9645  -4.7692  -4.0105  -3.6371  -3.5366
    -3.5187  -3.4562  -3.4000  -3.1875  -3.0670  -3.0158  -2.9032  -2.7767
    -2.7379  -2.6810  -2.6577  -2.5660  -2.5443  -2.5136  -2.4888  -2.4316
    -2.4019  -2.3936  -2.3814  -2.3092  -2.2998  -2.1697  -2.1655  -2.0930
    -2.0241  -2.0033  -1.9845  -1.9661  -1.9347  -1.9340  -1.8879  -1.8673
    -1.8457  -1.8125  -1.7420  -1.7213  -1.6602  -1.6206  -1.3861  -1.2252
    -1.2025  -1.1330  -1.1154  -1.0829  -1.0465  -1.0314  -1.0255  -0.9875
    -0.9709  -0.8624  -0.7659  -0.7537  -0.6935  -0.6542  -0.6529  -0.5191
    -0.4711  -0.3974  -0.3715  -0.3462  -0.3234  -0.2309  -0.1880  -0.1703
    -0.1075  -0.0770   0.0345   0.0742   0.0920   0.1305   0.1862   0.2544
     0.2845   0.3214   0.3293   0.3615   0.4105   0.4352   0.4680   0.4948
     0.5338   0.6386   0.6779   0.6934   0.8374   0.8385   0.9261   1.0536
     1.1016   1.3826   1.4346   1.4728   1.6277   2.0023   2.0485   3.4868
     3.6036   3.6144   3.6328   3.7032   3.7934   3.9489   3.9774   4.0487
     4.1485

[...]

          k = 0.0380-0.0419 0.0000 ( 17876 PWs)   bands (ev):

[...]

          k =-0.0760-0.0000 0.0000 ( 17886 PWs)   bands (ev):

[...]

          k =-0.0760-0.0839 0.0000 ( 17948 PWs)   bands (ev):

   -55.7008 -55.6186 -55.6106 -55.5108 -55.4899 -55.4733 -55.4286 -55.4278
   -55.4219 -55.4103 -55.4011 -55.3801 -55.2808 -55.2166 -54.5734 -54.5730
   -32.0133 -31.9536 -31.9447 -31.9303 -31.9226 -31.9186 -31.9147 -31.9008
   -31.8337 -31.8327 -31.7971 -31.7679 -31.7628 -31.7553 -31.7390 -31.7384
   -31.7333 -31.7302 -31.7282 -31.7176 -31.7151 -31.7127 -31.7006 -31.6990
   -31.6721 -31.6691 -31.6361 -31.6305 -31.6301 -31.6291 -31.6189 -31.6152
   -31.6086 -31.6065 -31.5997 -31.5984 -31.5965 -31.5600 -31.5402 -31.4778
   -31.4638 -31.4212 -30.9008 -30.9006 -30.8101 -30.8086 -30.7704 -30.7695
   -20.0497 -16.4915 -15.9010 -15.7567 -15.5941 -15.5759 -15.4982 -15.4027
   -15.3860 -15.3571 -15.3475 -15.3271 -15.3016 -15.2993 -15.2523 -15.1962
   -15.1544 -15.1314 -15.1271 -15.0810 -15.0717 -15.0681 -15.0124 -14.9997
   -14.9905 -14.9518 -14.8920 -14.8637 -14.7853 -14.7583 -14.6042 -13.0763
   -13.0756 -10.9267  -6.7659  -4.9457  -4.7619  -3.9734  -3.0507  -2.9772
    -2.9022  -2.8171  -2.7360  -2.6784  -2.6279  -2.6090  -2.5659  -2.5457
    -2.4752  -2.4413  -2.4339  -2.4123  -2.4101  -2.3835  -2.3678  -2.3552
    -2.3326  -2.3025  -2.2883  -2.2745  -2.2559  -2.2355  -2.2148  -2.1953
    -2.1824  -2.1719  -2.1522  -2.0445  -2.0209  -1.9848  -1.8308  -1.8191
    -1.7539  -1.7214  -1.6910  -1.6857  -1.6529  -1.6450  -1.6019  -1.4921
    -1.4648  -1.4171  -1.3591  -1.2691  -1.2639  -1.2171  -1.1649  -1.1253
    -1.0960  -1.0488  -1.0461  -1.0004  -0.8592  -0.8326  -0.7937  -0.6697
    -0.5975  -0.5822  -0.5682  -0.5512  -0.5251  -0.4780  -0.4726  -0.4160
    -0.3945  -0.3226  -0.3204  -0.2961  -0.2717  -0.1650  -0.0502   0.0410
     0.0754   0.1317   0.1717   0.2049   0.2874   0.3616   0.4450   0.5309
     0.5574   0.5682   0.6895   0.7164   0.7673   0.8203   0.8360   0.8960
     0.9289   0.9717   1.0000   1.7958   1.8091   1.8649   1.8697   3.6747
     3.9240   3.9760   3.9945   4.0069   4.0404   4.0604   4.1074   4.1256
     4.1509

     the Fermi energy is     3.5002 ev

!    total energy              =   -2966.27816823 Ry
     estimated scf accuracy    <       0.00000005 Ry
     smearing contrib. (-TS)   =      -0.02072839 Ry
     internal energy E=F+TS    =   -2966.25743983 Ry

     The total energy is F=E-TS. E is the sum of the following terms:
     one-electron contribution =  -24038.91847404 Ry
     hartree contribution      =   12111.96692369 Ry
     xc contribution           =    -490.94256983 Ry
     ewald contribution        =    9451.63461699 Ry
     electric field correction =       0.00206335 Ry

     convergence has been achieved in  73 iterations

     Forces acting on atoms (cartesian axes, Ry/au):

     atom    1 type  1   force =    -0.00039548    0.00005692    0.09455092
     atom    2 type  1   force =    -0.00032116    0.00499787   -0.17464543
     atom    3 type  2   force =     0.00082418   -0.00023679   -0.02592962
     atom    4 type  2   force =     0.00125524    0.00074833    0.05284105
     atom    5 type  2   force =    -0.01097666   -0.00285317    0.00049141
     atom    6 type  2   force =     0.01164333   -0.00410172    0.00186911
     atom    7 type  1   force =     0.00052372    0.00038848   -0.00013778
     atom    8 type  1   force =    -0.00044914    0.00019657    0.00078128
     atom    9 type  2   force =    -0.00044418    0.00028141   -0.00024436
     atom   10 type  2   force =     0.00031721   -0.00035364   -0.00045111
     atom   11 type  2   force =     0.00061646    0.00031801   -0.00023430
     atom   12 type  2   force =    -0.00038530   -0.00046291   -0.00038459
     atom   13 type  1   force =    -0.00129475   -0.00079783    0.00031424
     atom   14 type  1   force =     0.00028992    0.00010979    0.00056912
     atom   15 type  2   force =     0.00048585    0.00067443    0.00020032
     atom   16 type  2   force =    -0.00048994    0.00049046    0.00053695
     atom   17 type  2   force =     0.00007712    0.00032218    0.00007693
     atom   18 type  2   force =    -0.00021990   -0.00007675    0.00024374
     atom   19 type  1   force =    -0.00041938    0.00098391   -0.00020334
     atom   20 type  1   force =     0.00002409   -0.00016733   -0.00058432
     atom   21 type  2   force =    -0.00001434    0.00005384    0.10307533
     atom   22 type  2   force =    -0.00036314   -0.00068660   -0.00049501
     atom   23 type  2   force =    -0.07204964    0.00004660   -0.02787701
     atom   24 type  2   force =     0.07190810    0.00053686   -0.02798421
     atom   25 type  1   force =    -0.00043676   -0.00000088    0.10114149
     atom   26 type  1   force =    -0.00006664   -0.00461346   -0.17489635
     atom   27 type  2   force =     0.00089787    0.00114492   -0.02441728
     atom   28 type  2   force =     0.00113650    0.00015203    0.05240902
     atom   29 type  2   force =    -0.01186348    0.00306187    0.00195987
     atom   30 type  2   force =     0.01326587    0.00116124    0.00309490
     atom   31 type  1   force =     0.00058774    0.00002849   -0.00053105
     atom   32 type  1   force =    -0.00036352    0.00070855    0.00048263
     atom   33 type  2   force =    -0.00020201    0.00091613    0.00018547
     atom   34 type  2   force =     0.00013912   -0.00012661   -0.00095817
     atom   35 type  2   force =     0.00034169    0.00007530    0.00053733
     atom   36 type  2   force =     0.00009460    0.00016490    0.00047430
     atom   37 type  1   force =    -0.00145359   -0.00060031    0.00029146
     atom   38 type  1   force =     0.00078101   -0.00026334   -0.00013095
     atom   39 type  2   force =     0.00045305   -0.00019525    0.00123642
     atom   40 type  2   force =    -0.00010935    0.00035159    0.00051512
     atom   41 type  2   force =    -0.00053838    0.00003937   -0.00069663
     atom   42 type  2   force =    -0.00014469   -0.00020740   -0.00039896
     atom   43 type  1   force =    -0.00003252   -0.00015261   -0.00056741
     atom   44 type  1   force =    -0.00046214   -0.00044372   -0.00137359
     atom   45 type  2   force =    -0.00001304    0.00012925    0.10264491
     atom   46 type  2   force =    -0.07202045   -0.00056177   -0.02785894
     atom   47 type  2   force =     0.07187481   -0.00007234   -0.02794297
     atom   48 type  3   force =     0.00003459   -0.00092403   -0.00132217
     atom   49 type  2   force =     0.00189816    0.00037527   -0.00004199
     atom   50 type  4   force =     0.00012727   -0.00011896   -0.00005988
     atom   51 type  4   force =    -0.00261859   -0.00087949   -0.00111129
     atom   52 type  4   force =    -0.00003961   -0.00000947   -0.00000182
     atom   53 type  4   force =    -0.00085412    0.00055770   -0.00004527
     atom   54 type  2   force =     0.00102788    0.00000036    0.00065103
     atom   55 type  4   force =    -0.00158352   -0.00016622    0.00035143

     Total force =     0.364393     Total SCF correction =     0.000726
  @ DRIVER MODE: Message from server: STATUS
  @ DRIVER MODE: Message from server: GETFORCE
  @ DRIVER MODE: Returning v,forces,stress,ensemble

     Writing output data file ./calc.save/
  @ DRIVER MODE: Message from server: EXIT
  @ DRIVE MODE: Exiting

     General routines

     Parallel routines

   This run was terminated on:   7: 3:23  23Sep2021

   JOB DONE.