     Program PWSCF v.6.7GPU starts on 22Sep2021 at  7:26:48

     R & G space division:  proc/nbgrp/npool/nimage =      10
     Reading input from /storage/home/hcoda1/3/ntian30/research/carbon/CxH_vib/CH_calc/ads_slab/CHNHNHH2O_b/out_0026/pw.inp
Warning: card &CELL ignored
Warning: card   CELL_DYNAMICS='IPI', ignored
Warning: card / ignored

     Current dimensions of program PWSCF are:
     Max number of different atomic species (ntypx) = 10
     Max number of k-points (npk) =  40000
     Max angular momentum in pseudopotentials (lmaxx) =  3
     Presently no symmetry can be used with electric field

     Message from routine cell_base_init:
     DEPRECATED: use true lattice parameter, not A to a.u. conversion factor

     IMPORTANT: XC functional enforced from input :
     Exchange-correlation= BEEF-VDW
                           (   1   4  43  14   2   0   0)
     Any further DFT definition will be discarded
     Please, verify this is what you really want

  @ DRIVER MODE: Connecting to
 qe_1139763_2927424.sched-torque.pace.gatech.edut3ylppfd_scratch
  using UNIX socket
  @ DRIVER MODE: Message from server: STATUS
  @ DRIVER MODE: Message from server: INIT
  @ DRIVER MODE: Receiving replica           0          -1
  @ DRIVER MODE: Receiving encoded integer          25
  @ DRIVER MODE:  SCF:  T  FORCE:  T  STRESS:  F  VC:  F  ENSEMBLE:  F
  @ DRIVER MODE:  SCF:  T  FORCE:  T  STRESS:  F  VC:  F  ENSEMBLE:  F

     Using Slab Decomposition

     bravais-lattice index     =            0
     lattice parameter (alat)  =       1.8897  a.u.
     unit-cell volume          =    6658.9804 (a.u.)^3
     number of atoms/cell      =           56
     number of atomic types    =            5
     number of electrons       =       403.00
     number of Kohn-Sham states=          211
     kinetic-energy cutoff     =      29.3995  Ry
     charge density cutoff     =     293.9946  Ry
     scf convergence threshold =      7.3E-08
     mixing beta               =       0.0500
     number of iterations used =            8  plain     mixing
     Exchange-correlation= BEEF-VDW
                           (   1   4  43  14   2   0   0)

     celldm(1)=   1.889726  celldm(2)=   0.000000  celldm(3)=   0.000000
     celldm(4)=   0.000000  celldm(5)=   0.000000  celldm(6)=   0.000000

     crystal axes: (cart. coord. in units of alat)
               a(1) = (   6.579727   0.000000   0.000000 )
               a(2) = (  -0.000775   5.961596   0.000000 )
               a(3) = (   0.000000   0.000000  25.155947 )

     reciprocal axes: (cart. coord. in units 2 pi/alat)
               b(1) = (  0.151982  0.000020  0.000000 )
               b(2) = (  0.000000  0.167740  0.000000 )
               b(3) = (  0.000000  0.000000  0.039752 )

     PseudoPot. # 1 for Ti read from file:
     /storage/coda1/p-amedford6/0/shared/rich_project_chbe-medford/medford-share/data/pseudos_module/espresso/nninc/pbe/van/Ti.UPF
     MD5 check sum: 8e4df49b7f0d34bbd5052bf3f5ea0213
     Pseudo is Ultrasoft, Zval = 12.0
     Generated by new atomic code, or converted to UPF format
     Using radial grid of  851 points,  6 beta functions with:
                l(1) =   0
                l(2) =   0
                l(3) =   1
                l(4) =   1
                l(5) =   2
                l(6) =   2
     Q(r) pseudized with  8 coefficients,  rinner =    1.000   1.000   1.000
                                                       1.000   1.000

     PseudoPot. # 2 for O  read from file:
     /storage/coda1/p-amedford6/0/shared/rich_project_chbe-medford/medford-share/data/pseudos_module/espresso/nninc/pbe/van/O.UPF
     MD5 check sum: 78c19812648e8988a0fe644b0f25305e
     Pseudo is Ultrasoft, Zval =  6.0
     Generated by new atomic code, or converted to UPF format
     Using radial grid of  737 points,  4 beta functions with:
                l(1) =   0
                l(2) =   0
                l(3) =   1
                l(4) =   1
     Q(r) pseudized with  8 coefficients,  rinner =    0.800   0.800   0.800

     PseudoPot. # 3 for N  read from file:
     /storage/coda1/p-amedford6/0/shared/rich_project_chbe-medford/medford-share/data/pseudos_module/espresso/nninc/pbe/van/N.UPF
     MD5 check sum: 90d10febe142ad51ac9d5be1deb811c4
     Pseudo is Ultrasoft, Zval =  5.0
     Generated by new atomic code, or converted to UPF format
     Using radial grid of  729 points,  4 beta functions with:
                l(1) =   0
                l(2) =   0
                l(3) =   1
                l(4) =   1
     Q(r) pseudized with  8 coefficients,  rinner =    0.800   0.800   0.800

     PseudoPot. # 4 for C  read from file:
     /storage/coda1/p-amedford6/0/shared/rich_project_chbe-medford/medford-share/data/pseudos_module/espresso/nninc/pbe/van/C.UPF
     MD5 check sum: 1a69bf6b8db32088f5b2163dbdb77a27
     Pseudo is Ultrasoft, Zval =  4.0
     Generated by new atomic code, or converted to UPF format
     Using radial grid of  721 points,  4 beta functions with:
                l(1) =   0
                l(2) =   0
                l(3) =   1
                l(4) =   1
     Q(r) pseudized with  8 coefficients,  rinner =    0.800   0.800   0.800

     PseudoPot. # 5 for H  read from file:
     /storage/coda1/p-amedford6/0/shared/rich_project_chbe-medford/medford-share/data/pseudos_module/espresso/nninc/pbe/van/H.UPF
     MD5 check sum: b5ee9d7bfd3a09ee7748110bda690ff7
     Pseudo is Ultrasoft, Zval =  1.0
     Generated by new atomic code, or converted to UPF format
     Using radial grid of  615 points,  1 beta functions with:
                l(1) =   0
     Q(r) pseudized with  8 coefficients,  rinner =    0.800

     atomic species   valence    mass     pseudopotential
        Ti1           12.00    47.86700     Ti( 1.00)
        O1             6.00    15.99900     O ( 1.00)
        N1             5.00    14.00700     N ( 1.00)
        C1             4.00    12.01100     C ( 1.00)
        H1             1.00     1.00800     H ( 1.00)

     No symmetry found

   Cartesian axes

     site n.     atom                  positions (alat units)
         1           Ti1 tau(   1) = (   0.0004258   2.9801865   6.0000000  )
         2           Ti1 tau(   2) = (   3.2906075   1.4906267   6.0002472  )
         3           O1  tau(   3) = (   0.0006271   0.0005054   7.9858123  )
         4           O1  tau(   4) = (   3.2906025   0.0005020   7.3038282  )
         5           O1  tau(   5) = (   4.5942328   1.4918067   9.2879030  )
         6           O1  tau(   6) = (   1.9868534   1.4903216   9.2879459  )
         7           Ti1 tau(   7) = (   3.2907910   2.8959150   9.1758416  )
         8           Ti1 tau(   8) = (   0.0015273   1.4827037   9.2680791  )
         9           O1  tau(   9) = (   3.2780774   5.9605562  11.3537357  )
        10           O1  tau(  10) = (   0.0116148   5.9584955  10.6183126  )
        11           O1  tau(  11) = (   1.2922713   1.4781662  12.6511241  )
        12           O1  tau(  12) = (   5.2965393   1.5043564  12.6031353  )
        13           Ti1 tau(  13) = (   6.5273184   3.0207086  12.5807821  )
        14           Ti1 tau(  14) = (   3.2344070   1.4559942  12.5004267  )
        15           O1  tau(  15) = (   6.4759410   0.0295824  14.6525783  )
        16           O1  tau(  16) = (   3.3604338   0.0238249  13.9383540  )
        17           O1  tau(  17) = (   4.5324113   1.5808541  16.1066768  )
        18           O1  tau(  18) = (   1.9684897   1.4712893  15.8817925  )
        19           Ti1 tau(  19) = (   3.2566353   3.0739815  15.8599551  )
        20           Ti1 tau(  20) = (   6.5466614   1.5318677  15.7800735  )
        21           O1  tau(  21) = (   3.2904802   0.0005063   4.7018136  )
        22           O1  tau(  22) = (   6.5744325   0.0155309  17.2227980  )
        23           O1  tau(  23) = (   1.3043587   1.4918075   6.0039043  )
        24           O1  tau(  24) = (   5.2767064   1.4903225   6.0039473  )
        25           Ti1 tau(  25) = (   0.0000382   5.9609847   6.0000000  )
        26           Ti1 tau(  26) = (   3.2902200   4.4714249   6.0002472  )
        27           O1  tau(  27) = (   0.0002396   2.9813036   7.9858123  )
        28           O1  tau(  28) = (   3.2902150   2.9813002   7.3038282  )
        29           O1  tau(  29) = (   4.5938453   4.4726049   9.2879030  )
        30           O1  tau(  30) = (   1.9864658   4.4711199   9.2879459  )
        31           Ti1 tau(  31) = (   3.2891106   5.8743827   9.1763621  )
        32           Ti1 tau(  32) = (   0.0006254   4.4649316   9.2693709  )
        33           O1  tau(  33) = (   3.2727763   2.9788165  11.3438337  )
        34           O1  tau(  34) = (   0.0092240   2.9805883  10.6323155  )
        35           O1  tau(  35) = (   1.2865780   4.4896361  12.6556599  )
        36           O1  tau(  36) = (   5.2967437   4.4749066  12.6066920  )
        37           Ti1 tau(  37) = (   6.5467059   0.0356701  12.5108493  )
        38           Ti1 tau(  38) = (   3.2305653   4.4019604  12.5605372  )
        39           O1  tau(  39) = (   6.5199767   2.9846217  14.6905747  )
        40           O1  tau(  40) = (   3.2851694   3.0254550  13.9321539  )
        41           O1  tau(  41) = (   4.5310495   4.4602642  16.1636806  )
        42           O1  tau(  42) = (   1.9842988   4.5744318  15.9411167  )
        43           Ti1 tau(  43) = (   3.2691225   0.1036042  15.7405456  )
        44           Ti1 tau(  44) = (   6.5697781   4.6877429  16.0360384  )
        45           O1  tau(  45) = (   3.2900926   2.9813045   4.7018136  )
        46           O1  tau(  46) = (   1.3039711   4.4726057   6.0039043  )
        47           O1  tau(  47) = (   5.2763189   4.4711207   6.0039473  )
        48           N1  tau(  48) = (   1.2792381   2.8578196  18.3696018  )
        49           N1  tau(  49) = (   0.1888888   2.9646215  17.5057353  )
        50           C1  tau(  50) = (   2.5352320   2.9081513  18.0382144  )
        51           H1  tau(  51) = (   3.1442446   2.7411670  18.9317345  )
        52           H1  tau(  52) = (   1.0114291   2.6635404  19.3302151  )
        53           H1  tau(  53) = (   5.9397212   2.8571719  18.0851170  )
        54           O1  tau(  54) = (   3.2630597   0.0341043  18.2348460  )
        55           H1  tau(  55) = (   4.0455299   5.4198958  18.2485053  )
        56           H1  tau(  56) = (   2.4923979   5.4091459  18.3156537  )

     number of k points=    10  Fermi-Dirac smearing, width (Ry)=  0.0073
                       cart. coord. in units 2pi/alat
        k(    1) = (   0.0000000   0.0000000   0.0000000), wk =   0.1250000
        k(    2) = (   0.0000000   0.0419351   0.0000000), wk =   0.2500000
        k(    3) = (   0.0000000  -0.0838702   0.0000000), wk =   0.1250000
        k(    4) = (   0.0379955   0.0000049   0.0000000), wk =   0.2500000
        k(    5) = (   0.0379955   0.0419400   0.0000000), wk =   0.2500000
        k(    6) = (   0.0379955  -0.0838652   0.0000000), wk =   0.2500000
        k(    7) = (   0.0379955  -0.0419301   0.0000000), wk =   0.2500000
        k(    8) = (  -0.0759910  -0.0000099   0.0000000), wk =   0.1250000
        k(    9) = (  -0.0759910   0.0419252   0.0000000), wk =   0.2500000
        k(   10) = (  -0.0759910  -0.0838800   0.0000000), wk =   0.1250000

     Initial potential from superposition of free atoms

     starting charge  386.99914, renormalised to  403.00000

     negative rho (up, down):  1.738E-02 0.000E+00

     %%%%%%%%%%%%%%%%%%%%%%%%%%%%%%%%%%%%%%%%%%%%%%%%%%%%%%%%%%%%%%%%%%%%%%%%
     %                                                                      %
     % You are using vdW-DF, which was implemented by the Thonhauser group. %
     % Please cite the following two papers that made this development      %
     % possible and the two reviews that describe the various versions:     %
     %                                                                      %
     %   T. Thonhauser et al., PRL 115, 136402 (2015).                      %
     %   T. Thonhauser et al., PRB 76, 125112 (2007).                       %
     %   K. Berland et al., Rep. Prog. Phys. 78, 066501 (2015).             %
     %   D.C. Langreth et al., J. Phys.: Condens. Matter 21, 084203 (2009). %
     %                                                                      %
     %                                                                      %
     % If you are calculating the stress with vdW-DF, please also cite:     %
     %                                                                      %
     %   R. Sabatini et al., J. Phys.: Condens. Matter 24, 424209 (2012).   %
     %                                                                      %
     %%%%%%%%%%%%%%%%%%%%%%%%%%%%%%%%%%%%%%%%%%%%%%%%%%%%%%%%%%%%%%%%%%%%%%%%

     Adding external electric field

     Computed dipole along edir(3) :
        Dipole              -12.3463 Ry au,        -31.3811 Debye
        Dipole field         -0.0233 Ry au,

        Potential amp.        2.1598 Ry
        Total length         46.3494 bohr

     Starting wfcs are  305 atomic wfcs
  @ DRIVER MODE: Message from server: STATUS
  @ DRIVER MODE: Message from server: POSDATA
  @ DRIVER MODE: Reading and sharing cell
  @ DRIVER MODE: Reading and sharing positions
  @ DRIVER MODE: Received positions

     Self-consistent Calculation

     iteration #  1     ecut=    29.40 Ry     beta= 0.05
     Davidson diagonalization with overlap
     c_bands:  5 eigenvalues not converged
     c_bands:  3 eigenvalues not converged
     c_bands:  3 eigenvalues not converged
     c_bands:  1 eigenvalues not converged
     c_bands:  2 eigenvalues not converged
     c_bands:  2 eigenvalues not converged
     c_bands:  5 eigenvalues not converged
     c_bands:  2 eigenvalues not converged
     c_bands:  4 eigenvalues not converged
     ethr =  1.00E-05,  avg # of iterations = 29.3

[...]

     total energy              =   -2358.72111693 Ry
     estimated scf accuracy    <    6971.28431339 Ry

     iteration #  2     ecut=    29.40 Ry     beta= 0.05
     Davidson diagonalization with overlap
     ethr =  1.00E-02,  avg # of iterations = 27.1

[...]

     iteration # 76     ecut=    29.40 Ry     beta= 0.05
     Davidson diagonalization with overlap
     ethr =  8.73E-11,  avg # of iterations =  6.1

[...]

     total energy              =   -2973.94009021 Ry
     estimated scf accuracy    <       0.00000008 Ry

     iteration # 79     ecut=    29.40 Ry     beta= 0.05
     Davidson diagonalization with overlap
     c_bands:  1 eigenvalues not converged
     ethr =  1.89E-11,  avg # of iterations = 14.7

     negative rho (up, down):  1.726E-02 0.000E+00

     Adding external electric field

     Computed dipole along edir(3) :
        Dipole                1.4004 Ry au,          3.5595 Debye
        Dipole field          0.0026 Ry au,

        Potential amp.       -0.2450 Ry
        Total length         46.3494 bohr

     End of self-consistent calculation

          k = 0.0000 0.0000 0.0000 ( 18029 PWs)   bands (ev):

   -55.3193 -55.2852 -55.2096 -55.1856 -55.1667 -55.1555 -55.1399 -55.1183
   -55.1061 -55.1032 -55.0972 -55.0626 -54.9924 -54.8343 -54.2994 -54.2654
   -31.8035 -31.7306 -31.6563 -31.6499 -31.6398 -31.6112 -31.5868 -31.5644
   -31.5195 -31.5015 -31.4717 -31.4636 -31.4551 -31.4404 -31.4253 -31.4210
   -31.3979 -31.3796 -31.3766 -31.3645 -31.3346 -31.3326 -31.3286 -31.3255
   -31.3224 -31.3189 -31.3148 -31.2968 -31.2887 -31.2787 -31.2719 -31.2712
   -31.2611 -31.2596 -31.2516 -31.2478 -31.2404 -31.2149 -31.2097 -31.0906
   -31.0755 -31.0498 -30.7063 -30.6182 -30.5958 -30.5232 -30.4368 -30.3255
   -18.8792 -18.6565 -15.9774 -15.7936 -15.6126 -15.4735 -15.3915 -15.1599
   -15.1016 -15.0631 -14.9818 -14.9592 -14.8586 -14.8397 -14.8383 -14.8199
   -14.8170 -14.7619 -14.7469 -14.7424 -14.6938 -14.6870 -14.6617 -14.6462
   -14.5936 -14.5150 -14.5061 -14.4600 -14.4147 -14.3682 -14.0226 -13.4227
   -12.8004 -12.6839  -8.8067  -7.2784  -6.6183  -4.3232  -3.7914  -3.3606
    -3.2843  -3.2489  -3.2239  -3.0884  -2.9714  -2.8668  -2.7580  -2.6709
    -2.5843  -2.4798  -2.4234  -2.3778  -2.3173  -2.2572  -2.2310  -2.1454
    -2.1256  -2.1060  -2.0842  -2.0575  -2.0281  -1.9913  -1.8687  -1.8581
    -1.7756  -1.7197  -1.6809  -1.6630  -1.6400  -1.6335  -1.6017  -1.5805
    -1.5718  -1.5605  -1.5588  -1.5238  -1.3846  -1.3607  -1.3320  -1.3110
    -1.1632  -1.0255  -0.9366  -0.9341  -0.8247  -0.7598  -0.7567  -0.7184
    -0.7027  -0.6006  -0.5149  -0.4784  -0.4538  -0.3744  -0.3171  -0.2623
    -0.2106  -0.1751  -0.1084  -0.0847  -0.0681  -0.0511   0.0178   0.0805
     0.1416   0.2269   0.2704   0.2948   0.3857   0.3998   0.4230   0.4876
     0.5195   0.5646   0.6000   0.6293   0.6527   0.6831   0.7084   0.7515
     0.7900   0.9153   0.9335   0.9621   0.9831   1.1576   1.2071   1.3115
     1.3403   1.4408   1.4843   1.6632   1.7243   1.8038   1.9163   2.2944
     2.3402   3.7900   3.9013   3.9355   3.9604   3.9997   4.0510   4.2576
     4.3305   4.3721   4.4315

[...]

          k = 0.0380-0.0419 0.0000 ( 17876 PWs)   bands (ev):

[...]

          k =-0.0760-0.0000 0.0000 ( 17886 PWs)   bands (ev):

[...]

          k =-0.0760-0.0839 0.0000 ( 17948 PWs)   bands (ev):

   -55.3025 -55.3019 -55.2002 -55.1822 -55.1753 -55.1441 -55.1301 -55.1231
   -55.1223 -55.1067 -55.0839 -55.0760 -54.9907 -54.8360 -54.2824 -54.2823
   -31.6190 -31.6186 -31.5969 -31.5964 -31.5648 -31.5330 -31.5020 -31.4894
   -31.4826 -31.4673 -31.4485 -31.4429 -31.4393 -31.4298 -31.4249 -31.4238
   -31.4219 -31.4215 -31.4162 -31.4004 -31.3898 -31.3755 -31.3646 -31.3623
   -31.3577 -31.3530 -31.3440 -31.3314 -31.3254 -31.3240 -31.3087 -31.2995
   -31.2963 -31.2956 -31.2938 -31.2911 -31.2598 -31.2337 -31.2197 -31.1467
   -31.0929 -31.0785 -30.6085 -30.6085 -30.5191 -30.5190 -30.4801 -30.4800
   -18.8683 -18.6631 -15.3549 -15.3197 -15.2815 -15.2544 -15.2385 -15.1174
   -15.1037 -15.0683 -15.0266 -15.0134 -14.9831 -14.9545 -14.9057 -14.8970
   -14.8628 -14.8433 -14.8042 -14.7777 -14.7583 -14.7540 -14.7372 -14.7156
   -14.6719 -14.6501 -14.6377 -14.6334 -14.5816 -14.4876 -14.2078 -13.4453
   -12.7857 -12.7857  -8.8028  -7.2037  -6.6193  -4.5308  -3.5740  -2.8667
    -2.6735  -2.6306  -2.5782  -2.4876  -2.4409  -2.3187  -2.3122  -2.2895
    -2.2443  -2.2312  -2.1905  -2.1503  -2.1442  -2.1164  -2.1040  -2.0593
    -2.0480  -2.0450  -2.0307  -1.9970  -1.9914  -1.9709  -1.9468  -1.9437
    -1.9334  -1.9171  -1.8843  -1.8771  -1.8499  -1.8312  -1.6799  -1.6062
    -1.5627  -1.4852  -1.4620  -1.4452  -1.4263  -1.3916  -1.3714  -1.3456
    -1.3172  -1.1716  -1.0310  -0.9961  -0.9712  -0.8725  -0.8578  -0.8384
    -0.7908  -0.7497  -0.7147  -0.6561  -0.6466  -0.6011  -0.5802  -0.4602
    -0.4224  -0.3232  -0.2876  -0.2859  -0.2682  -0.2536  -0.2364  -0.2105
    -0.1611  -0.0896  -0.0742  -0.0255  -0.0017   0.0009   0.0140   0.1597
     0.2307   0.2510   0.3533   0.3836   0.5583   0.7224   0.7342   0.8022
     0.8650   0.9200   0.9540   0.9939   1.0042   1.0700   1.0949   1.1995
     1.2096   1.2583   1.2643   1.3413   1.3546   2.0880   2.0897   2.1602
     2.1603   4.1538   4.1696   4.1978   4.2609   4.3043   4.3160   4.3534
     4.3571   4.4600   4.4752

     the Fermi energy is     3.8082 ev

!    total energy              =   -2973.94009999 Ry
     estimated scf accuracy    <       0.00000004 Ry
     smearing contrib. (-TS)   =      -0.02072107 Ry
     internal energy E=F+TS    =   -2973.91937892 Ry

     The total energy is F=E-TS. E is the sum of the following terms:
     one-electron contribution =  -24339.02465060 Ry
     hartree contribution      =   12267.22639277 Ry
     xc contribution           =    -494.12007892 Ry
     ewald contribution        =    9591.99525688 Ry
     electric field correction =       0.00370095 Ry

     convergence has been achieved in  79 iterations

     Forces acting on atoms (cartesian axes, Ry/au):

     atom    1 type  1   force =     0.00002406   -0.00009956    0.09507176
     atom    2 type  1   force =     0.00018036   -0.00068664   -0.17563587
     atom    3 type  2   force =     0.00008845   -0.00004810   -0.02295110
     atom    4 type  2   force =     0.00002125   -0.00143243    0.05288676
     atom    5 type  2   force =    -0.01000005   -0.00031434    0.00380477
     atom    6 type  2   force =     0.01112376    0.00020186    0.00205892
     atom    7 type  1   force =    -0.00021179    0.00177779   -0.00588385
     atom    8 type  1   force =     0.00081045    0.01008620    0.01604465
     atom    9 type  2   force =    -0.00015982    0.00086681    0.00031779
     atom   10 type  2   force =    -0.00227178    0.00217788   -0.01800606
     atom   11 type  2   force =     0.00023392   -0.00003535    0.00008446
     atom   12 type  2   force =    -0.00034846   -0.00018546    0.00056400
     atom   13 type  1   force =    -0.00002414    0.00125689    0.00015642
     atom   14 type  1   force =    -0.00011866    0.00011399    0.00001336
     atom   15 type  2   force =     0.00011822    0.00022578    0.00002341
     atom   16 type  2   force =    -0.00037558    0.00044316   -0.00021752
     atom   17 type  2   force =    -0.00014753   -0.00025387   -0.00001798
     atom   18 type  2   force =    -0.00005515    0.00001900    0.00042753
     atom   19 type  1   force =    -0.00049123    0.00033332   -0.00011588
     atom   20 type  1   force =    -0.00026459   -0.00021457    0.00011877
     atom   21 type  2   force =     0.00009052   -0.00008480    0.10318333
     atom   22 type  2   force =     0.00039406   -0.00000539    0.00053080
     atom   23 type  2   force =    -0.07160670   -0.00016698   -0.02757143
     atom   24 type  2   force =     0.07156486    0.00024799   -0.02761945
     atom   25 type  1   force =     0.00024000   -0.00039432    0.09517145
     atom   26 type  1   force =    -0.00004281   -0.00020190   -0.17580353
     atom   27 type  2   force =     0.00012214   -0.00012306   -0.02197881
     atom   28 type  2   force =     0.00001537   -0.00139643    0.05321659
     atom   29 type  2   force =    -0.01034428   -0.00022827    0.00364729
     atom   30 type  2   force =     0.01138223    0.00042401    0.00191586
     atom   31 type  1   force =    -0.00029936    0.00266004   -0.00008456
     atom   32 type  1   force =     0.00067678   -0.01114314    0.01692149
     atom   33 type  2   force =     0.00037509   -0.00027303   -0.00000827
     atom   34 type  2   force =    -0.00033866    0.00144119   -0.01893374
     atom   35 type  2   force =    -0.00001412   -0.00035069   -0.00015886
     atom   36 type  2   force =     0.00000148   -0.00024311    0.00044110
     atom   37 type  1   force =    -0.00005243   -0.00121926    0.00031825
     atom   38 type  1   force =    -0.00039099    0.00086962    0.00008357
     atom   39 type  2   force =     0.00010069    0.00007488    0.00014257
     atom   40 type  2   force =    -0.00050156   -0.00060085   -0.00008807
     atom   41 type  2   force =     0.00022038   -0.00011957    0.00030747
     atom   42 type  2   force =    -0.00022054   -0.00033020   -0.00019022
     atom   43 type  1   force =    -0.00023858   -0.00019184    0.00040802
     atom   44 type  1   force =     0.00006432   -0.00022223    0.00017830
     atom   45 type  2   force =     0.00010029   -0.00010235    0.10320071
     atom   46 type  2   force =    -0.07159349   -0.00016934   -0.02756322
     atom   47 type  2   force =     0.07159430    0.00024315   -0.02757563
     atom   48 type  3   force =     0.00308501    0.00017927   -0.00290353
     atom   49 type  3   force =     0.00014302   -0.00013260    0.00113864
     atom   50 type  4   force =     0.00109094   -0.00000130   -0.00098584
     atom   51 type  5   force =    -0.00018595   -0.00050203   -0.00020627
     atom   52 type  5   force =    -0.00375949   -0.00172910    0.00234871
     atom   53 type  5   force =     0.00013645   -0.00042909   -0.00051727
     atom   54 type  2   force =    -0.00008031    0.00103624   -0.00005466
     atom   55 type  5   force =     0.00015925   -0.00023948   -0.00002402
     atom   56 type  5   force =    -0.00001959   -0.00080840    0.00036894

     Total force =     0.365238     Total SCF correction =     0.000414
  @ DRIVER MODE: Message from server: STATUS
  @ DRIVER MODE: Message from server: GETFORCE
  @ DRIVER MODE: Returning v,forces,stress,ensemble

     Writing output data file ./calc.save/
  @ DRIVER MODE: Message from server: EXIT
  @ DRIVE MODE: Exiting

     General routines

     Parallel routines

   This run was terminated on:   7:51:32  22Sep2021

   JOB DONE.