     Program PWSCF v.6.7GPU starts on 15Sep2021 at 18:38:14

     R & G space division:  proc/nbgrp/npool/nimage =      10
     Reading input from /storage/home/hcoda1/3/ntian30/research/carbon/CxH_vib/H2O_calc/ads_slab/CHN2HH2O_a/out_0010/pw.inp
Warning: card &CELL ignored
Warning: card   CELL_DYNAMICS='IPI', ignored
Warning: card / ignored

     Current dimensions of program PWSCF are:
     Max number of different atomic species (ntypx) = 10
     Max number of k-points (npk) =  40000
     Max angular momentum in pseudopotentials (lmaxx) =  3
     Presently no symmetry can be used with electric field

     Message from routine cell_base_init:
     DEPRECATED: use true lattice parameter, not A to a.u. conversion factor

     IMPORTANT: XC functional enforced from input :
     Exchange-correlation= BEEF-VDW
                           (   1   4  43  14   2   0   0)
     Any further DFT definition will be discarded
     Please, verify this is what you really want

  @ DRIVER MODE: Connecting to
 qe_1139763_2852626.sched-torque.pace.gatech.eduwvqwntob_scratch
  using UNIX socket
  @ DRIVER MODE: Message from server: STATUS
  @ DRIVER MODE: Message from server: INIT
  @ DRIVER MODE: Receiving replica           0          -1
  @ DRIVER MODE: Receiving encoded integer          25
  @ DRIVER MODE:  SCF:  T  FORCE:  T  STRESS:  F  VC:  F  ENSEMBLE:  F
  @ DRIVER MODE:  SCF:  T  FORCE:  T  STRESS:  F  VC:  F  ENSEMBLE:  F

     Using Slab Decomposition

     bravais-lattice index     =            0
     lattice parameter (alat)  =       1.8897  a.u.
     unit-cell volume          =    6658.9804 (a.u.)^3
     number of atoms/cell      =           55
     number of atomic types    =            5
     number of electrons       =       402.00
     number of Kohn-Sham states=          211
     kinetic-energy cutoff     =      29.3995  Ry
     charge density cutoff     =     293.9946  Ry
     scf convergence threshold =      7.3E-08
     mixing beta               =       0.0500
     number of iterations used =            8  plain     mixing
     Exchange-correlation= BEEF-VDW
                           (   1   4  43  14   2   0   0)

     celldm(1)=   1.889726  celldm(2)=   0.000000  celldm(3)=   0.000000
     celldm(4)=   0.000000  celldm(5)=   0.000000  celldm(6)=   0.000000

     crystal axes: (cart. coord. in units of alat)
               a(1) = (   6.579727   0.000000   0.000000 )
               a(2) = (  -0.000775   5.961596   0.000000 )
               a(3) = (   0.000000   0.000000  25.155947 )

     reciprocal axes: (cart. coord. in units 2 pi/alat)
               b(1) = (  0.151982  0.000020  0.000000 )
               b(2) = (  0.000000  0.167740  0.000000 )
               b(3) = (  0.000000  0.000000  0.039752 )

     PseudoPot. # 1 for Ti read from file:
     /storage/coda1/p-amedford6/0/shared/rich_project_chbe-medford/medford-share/data/pseudos_module/espresso/nninc/pbe/van/Ti.UPF
     MD5 check sum: 8e4df49b7f0d34bbd5052bf3f5ea0213
     Pseudo is Ultrasoft, Zval = 12.0
     Generated by new atomic code, or converted to UPF format
     Using radial grid of  851 points,  6 beta functions with:
                l(1) =   0
                l(2) =   0
                l(3) =   1
                l(4) =   1
                l(5) =   2
                l(6) =   2
     Q(r) pseudized with  8 coefficients,  rinner =    1.000   1.000   1.000
                                                       1.000   1.000

     PseudoPot. # 2 for O  read from file:
     /storage/coda1/p-amedford6/0/shared/rich_project_chbe-medford/medford-share/data/pseudos_module/espresso/nninc/pbe/van/O.UPF
     MD5 check sum: 78c19812648e8988a0fe644b0f25305e
     Pseudo is Ultrasoft, Zval =  6.0
     Generated by new atomic code, or converted to UPF format
     Using radial grid of  737 points,  4 beta functions with:
                l(1) =   0
                l(2) =   0
                l(3) =   1
                l(4) =   1
     Q(r) pseudized with  8 coefficients,  rinner =    0.800   0.800   0.800

     PseudoPot. # 3 for N  read from file:
     /storage/coda1/p-amedford6/0/shared/rich_project_chbe-medford/medford-share/data/pseudos_module/espresso/nninc/pbe/van/N.UPF
     MD5 check sum: 90d10febe142ad51ac9d5be1deb811c4
     Pseudo is Ultrasoft, Zval =  5.0
     Generated by new atomic code, or converted to UPF format
     Using radial grid of  729 points,  4 beta functions with:
                l(1) =   0
                l(2) =   0
                l(3) =   1
                l(4) =   1
     Q(r) pseudized with  8 coefficients,  rinner =    0.800   0.800   0.800

     PseudoPot. # 4 for C  read from file:
     /storage/coda1/p-amedford6/0/shared/rich_project_chbe-medford/medford-share/data/pseudos_module/espresso/nninc/pbe/van/C.UPF
     MD5 check sum: 1a69bf6b8db32088f5b2163dbdb77a27
     Pseudo is Ultrasoft, Zval =  4.0
     Generated by new atomic code, or converted to UPF format
     Using radial grid of  721 points,  4 beta functions with:
                l(1) =   0
                l(2) =   0
                l(3) =   1
                l(4) =   1
     Q(r) pseudized with  8 coefficients,  rinner =    0.800   0.800   0.800

     PseudoPot. # 5 for H  read from file:
     /storage/coda1/p-amedford6/0/shared/rich_project_chbe-medford/medford-share/data/pseudos_module/espresso/nninc/pbe/van/H.UPF
     MD5 check sum: b5ee9d7bfd3a09ee7748110bda690ff7
     Pseudo is Ultrasoft, Zval =  1.0
     Generated by new atomic code, or converted to UPF format
     Using radial grid of  615 points,  1 beta functions with:
                l(1) =   0
     Q(r) pseudized with  8 coefficients,  rinner =    0.800

     atomic species   valence    mass     pseudopotential
        Ti1           12.00    47.86700     Ti( 1.00)
        O1             6.00    15.99900     O ( 1.00)
        N1             5.00    14.00700     N ( 1.00)
        C1             4.00    12.01100     C ( 1.00)
        H1             1.00     1.00800     H ( 1.00)

     No symmetry found

   Cartesian axes

     site n.     atom                  positions (alat units)
         1           Ti1 tau(   1) = (   0.0004258   2.9801865   6.0000000  )
         2           Ti1 tau(   2) = (   3.2906075   1.4906267   6.0002472  )
         3           O1  tau(   3) = (   0.0006271   0.0005054   7.9858123  )
         4           O1  tau(   4) = (   3.2906025   0.0005020   7.3038282  )
         5           O1  tau(   5) = (   4.5942328   1.4918067   9.2879030  )
         6           O1  tau(   6) = (   1.9868534   1.4903216   9.2879459  )
         7           Ti1 tau(   7) = (   3.2907910   2.8959150   9.1758416  )
         8           Ti1 tau(   8) = (   0.0015273   1.4827037   9.2680791  )
         9           O1  tau(   9) = (   3.2768631   0.0039008  11.3091060  )
        10           O1  tau(  10) = (   0.0116148   5.9584955  10.6183126  )
        11           O1  tau(  11) = (   1.2710838   1.4709840  12.6395574  )
        12           O1  tau(  12) = (   5.2772223   1.5075092  12.6020671  )
        13           Ti1 tau(  13) = (   0.0276258   2.9086511  12.7028215  )
        14           Ti1 tau(  14) = (   3.3492493   1.4375301  12.4845766  )
        15           O1  tau(  15) = (   6.5006329   5.9509897  14.6081112  )
        16           O1  tau(  16) = (   3.3450391   0.0041935  13.9069437  )
        17           O1  tau(  17) = (   4.5555219   1.5659029  16.0522165  )
        18           O1  tau(  18) = (   1.9836904   1.4119734  15.8927236  )
        19           Ti1 tau(  19) = (   3.2827818   2.9316656  15.8555152  )
        20           Ti1 tau(  20) = (   6.5629331   1.3437128  15.9803530  )
        21           O1  tau(  21) = (   3.2904802   0.0005063   4.7018136  )
        22           O1  tau(  22) = (   6.5074089   5.9525318  17.1494500  )
        23           O1  tau(  23) = (   1.3043587   1.4918075   6.0039043  )
        24           O1  tau(  24) = (   5.2767064   1.4903225   6.0039473  )
        25           Ti1 tau(  25) = (   0.0000382   5.9609847   6.0000000  )
        26           Ti1 tau(  26) = (   3.2902200   4.4714249   6.0002472  )
        27           O1  tau(  27) = (   0.0002396   2.9813036   7.9858123  )
        28           O1  tau(  28) = (   3.2902150   2.9813002   7.3038282  )
        29           O1  tau(  29) = (   4.5938453   4.4726049   9.2879030  )
        30           O1  tau(  30) = (   1.9864658   4.4711199   9.2879459  )
        31           Ti1 tau(  31) = (   3.2891106   5.8743827   9.1763621  )
        32           Ti1 tau(  32) = (   0.0006254   4.4649316   9.2693709  )
        33           O1  tau(  33) = (   3.2854303   2.9668816  11.2996989  )
        34           O1  tau(  34) = (   0.0092240   2.9805883  10.6323155  )
        35           O1  tau(  35) = (   1.2743094   4.4851408  12.6236879  )
        36           O1  tau(  36) = (   5.2782958   4.4707264  12.5946799  )
        37           Ti1 tau(  37) = (   0.0481499   5.8920156  12.5607908  )
        38           Ti1 tau(  38) = (   3.3544845   4.3749597  12.5572158  )
        39           O1  tau(  39) = (   6.5410016   3.0017514  14.6365314  )
        40           O1  tau(  40) = (   3.2441134   3.0029108  13.8718978  )
        41           O1  tau(  41) = (   4.5385932   4.4028810  16.0550583  )
        42           O1  tau(  42) = (   1.9619458   4.5383001  15.8611175  )
        43           Ti1 tau(  43) = (   3.2178196   5.9097812  15.7399460  )
        44           Ti1 tau(  44) = (   6.5330930   4.4908980  15.8705378  )
        45           O1  tau(  45) = (   3.2900926   2.9813045   4.7018136  )
        46           O1  tau(  46) = (   1.3039711   4.4726057   6.0039043  )
        47           O1  tau(  47) = (   5.2763189   4.4711207   6.0039473  )
        48           N1  tau(  48) = (   1.2867840   3.0293760  18.3347772  )
        49           C1  tau(  49) = (   2.5003166   3.0426976  17.9707196  )
        50           H1  tau(  50) = (   3.2053588   3.1791635  18.8000936  )
        51           N1  tau(  51) = (   0.2138509   2.9871109  17.4421441  )
        52           H1  tau(  52) = (   5.9621615   2.9869774  18.0311354  )
        53           O1  tau(  53) = (   3.4290693   5.9360351  18.0748810  )
        54           H1  tau(  54) = (   4.3780305   0.1327944  18.2306609  )
        55           H1  tau(  55) = (   2.9458904   0.7245148  18.4607207  )

     number of k points=    10  Fermi-Dirac smearing, width (Ry)=  0.0073
                       cart. coord. in units 2pi/alat
        k(    1) = (   0.0000000   0.0000000   0.0000000), wk =   0.1250000
        k(    2) = (   0.0000000   0.0419351   0.0000000), wk =   0.2500000
        k(    3) = (   0.0000000  -0.0838702   0.0000000), wk =   0.1250000
        k(    4) = (   0.0379955   0.0000049   0.0000000), wk =   0.2500000
        k(    5) = (   0.0379955   0.0419400   0.0000000), wk =   0.2500000
        k(    6) = (   0.0379955  -0.0838652   0.0000000), wk =   0.2500000
        k(    7) = (   0.0379955  -0.0419301   0.0000000), wk =   0.2500000
        k(    8) = (  -0.0759910  -0.0000099   0.0000000), wk =   0.1250000
        k(    9) = (  -0.0759910   0.0419252   0.0000000), wk =   0.2500000
        k(   10) = (  -0.0759910  -0.0838800   0.0000000), wk =   0.1250000

     Initial potential from superposition of free atoms

     starting charge  385.99915, renormalised to  402.00000

     negative rho (up, down):  1.831E-02 0.000E+00

     %%%%%%%%%%%%%%%%%%%%%%%%%%%%%%%%%%%%%%%%%%%%%%%%%%%%%%%%%%%%%%%%%%%%%%%%
     %                                                                      %
     % You are using vdW-DF, which was implemented by the Thonhauser group. %
     % Please cite the following two papers that made this development      %
     % possible and the two reviews that describe the various versions:     %
     %                                                                      %
     %   T. Thonhauser et al., PRL 115, 136402 (2015).                      %
     %   T. Thonhauser et al., PRB 76, 125112 (2007).                       %
     %   K. Berland et al., Rep. Prog. Phys. 78, 066501 (2015).             %
     %   D.C. Langreth et al., J. Phys.: Condens. Matter 21, 084203 (2009). %
     %                                                                      %
     %                                                                      %
     % If you are calculating the stress with vdW-DF, please also cite:     %
     %                                                                      %
     %   R. Sabatini et al., J. Phys.: Condens. Matter 24, 424209 (2012).   %
     %                                                                      %
     %%%%%%%%%%%%%%%%%%%%%%%%%%%%%%%%%%%%%%%%%%%%%%%%%%%%%%%%%%%%%%%%%%%%%%%%

     Adding external electric field

     Computed dipole along edir(3) :
        Dipole              -11.0899 Ry au,        -28.1877 Debye
        Dipole field         -0.0209 Ry au,

        Potential amp.        1.9400 Ry
        Total length         46.3494 bohr

     Starting wfcs are  304 atomic wfcs
  @ DRIVER MODE: Message from server: STATUS
  @ DRIVER MODE: Message from server: POSDATA
  @ DRIVER MODE: Reading and sharing cell
  @ DRIVER MODE: Reading and sharing positions
  @ DRIVER MODE: Received positions

     Self-consistent Calculation

     iteration #  1     ecut=    29.40 Ry     beta= 0.05
     Davidson diagonalization with overlap
     c_bands:  5 eigenvalues not converged
     c_bands:  1 eigenvalues not converged
     c_bands:  3 eigenvalues not converged
     c_bands:  4 eigenvalues not converged
     c_bands:  1 eigenvalues not converged
     c_bands:  1 eigenvalues not converged
     c_bands:  1 eigenvalues not converged
     c_bands:  1 eigenvalues not converged
     ethr =  1.00E-05,  avg # of iterations = 28.9

[...]

     total energy              =   -2403.81619557 Ry
     estimated scf accuracy    <    6374.29912514 Ry

     iteration #  2     ecut=    29.40 Ry     beta= 0.05
     Davidson diagonalization with overlap
     ethr =  1.00E-02,  avg # of iterations = 24.8

[...]

     iteration # 46     ecut=    29.40 Ry     beta= 0.05
     Davidson diagonalization with overlap
     c_bands:  1 eigenvalues not converged
     c_bands:  1 eigenvalues not converged
     c_bands:  2 eigenvalues not converged
     ethr =  7.77E-07,  avg # of iterations = 12.6

[...]

     total energy              =   -2972.69114148 Ry
     estimated scf accuracy    <       0.00000022 Ry

     iteration # 67     ecut=    29.40 Ry     beta= 0.05
     Davidson diagonalization with overlap
     ethr =  5.35E-11,  avg # of iterations =  5.3

     negative rho (up, down):  1.793E-02 0.000E+00

     Adding external electric field

     Computed dipole along edir(3) :
        Dipole                0.3640 Ry au,          0.9253 Debye
        Dipole field          0.0007 Ry au,

        Potential amp.       -0.0637 Ry
        Total length         46.3494 bohr

     End of self-consistent calculation

          k = 0.0000 0.0000 0.0000 ( 18029 PWs)   bands (ev):

   -56.3416 -56.3077 -55.9399 -55.9062 -55.7518 -55.7153 -55.5606 -55.5559
   -55.5472 -55.5241 -55.5137 -55.4507 -55.2536 -55.2391 -55.1453 -55.1113
   -32.7951 -32.6341 -32.6072 -32.4997 -32.4189 -32.4150 -32.4068 -32.2406
   -32.1574 -32.1532 -32.0947 -32.0820 -32.0683 -32.0431 -32.0376 -31.9783
   -31.9745 -31.9661 -31.9329 -31.9090 -31.9088 -31.8656 -31.8511 -31.8429
   -31.8182 -31.7805 -31.7590 -31.7319 -31.7289 -31.7097 -31.7076 -31.7046
   -31.6890 -31.6697 -31.6526 -31.6383 -31.5509 -31.5439 -31.5121 -31.4984
   -31.4758 -31.4701 -31.4524 -31.4408 -31.3621 -31.3326 -31.2771 -31.1655
   -18.7499 -16.9382 -16.6587 -16.3469 -16.1453 -15.9618 -15.8989 -15.8395
   -15.7868 -15.6660 -15.6047 -15.5759 -15.5040 -15.3989 -15.3792 -15.3527
   -15.3012 -15.2850 -15.2677 -15.2384 -15.1847 -15.1511 -15.1326 -15.0572
   -15.0357 -15.0235 -14.8998 -14.8320 -14.8074 -14.7725 -14.5206 -13.6439
   -13.5309 -12.2810  -6.7337  -6.5319  -4.1603  -4.0802  -3.9055  -3.7748
    -3.6664  -3.6181  -3.4668  -3.4120  -3.3643  -3.2671  -3.1193  -3.0874
    -3.0144  -2.9643  -2.9219  -2.8634  -2.8040  -2.7590  -2.7183  -2.6345
    -2.6293  -2.6167  -2.5988  -2.5797  -2.5629  -2.4472  -2.3557  -2.3376
    -2.3146  -2.2713  -2.2522  -2.2402  -2.1896  -2.1601  -2.0771  -2.0675
    -2.0206  -1.9624  -1.9160  -1.8078  -1.7958  -1.7208  -1.7019  -1.6601
    -1.5291  -1.4048  -1.3743  -1.3220  -1.3113  -1.2255  -1.2038  -1.1765
    -1.0787  -1.0661  -1.0224  -1.0006  -0.8760  -0.8512  -0.8022  -0.7950
    -0.7655  -0.6699  -0.6316  -0.5200  -0.4755  -0.4304  -0.4208  -0.3459
    -0.3173  -0.2727  -0.2223  -0.1697  -0.1675  -0.1395  -0.0569  -0.0154
     0.0303   0.0787   0.1147   0.2031   0.2566   0.2919   0.3079   0.3957
     0.4388   0.4539   0.5191   0.5878   0.6389   0.7055   0.7491   0.8631
     0.8785   0.8955   0.9770   1.1005   1.4094   1.4316   1.4719   1.6628
     2.6494   2.8816   3.0024   3.1664   3.3117   3.3610   3.6302   3.6854
     3.7285   3.7617   3.8398

[...]

          k = 0.0380-0.0419 0.0000 ( 17876 PWs)   bands (ev):

[...]

          k =-0.0760-0.0000 0.0000 ( 17886 PWs)   bands (ev):

[...]

          k =-0.0760-0.0839 0.0000 ( 17948 PWs)   bands (ev):

   -56.3252 -56.3240 -55.9248 -55.9211 -55.7404 -55.7266 -55.5556 -55.5448
   -55.5381 -55.5330 -55.5286 -55.4492 -55.2548 -55.2401 -55.1282 -55.1282
   -32.6202 -32.6189 -32.6112 -32.6106 -32.4520 -32.4507 -32.2404 -32.2363
   -32.1301 -32.1267 -32.1172 -32.1099 -32.0405 -32.0304 -31.9685 -31.9585
   -31.9490 -31.9463 -31.8982 -31.8880 -31.8667 -31.8646 -31.8583 -31.8275
   -31.8124 -31.7817 -31.7744 -31.7581 -31.7550 -31.7473 -31.7459 -31.7307
   -31.7257 -31.7157 -31.7044 -31.6350 -31.6080 -31.5552 -31.5257 -31.5109
   -31.4747 -31.4653 -31.4652 -31.3582 -31.3581 -31.3340 -31.3197 -31.3196
   -18.7475 -16.9166 -16.0631 -16.0507 -15.9329 -15.9279 -15.7493 -15.7309
   -15.6974 -15.6721 -15.6355 -15.5495 -15.4848 -15.4769 -15.4701 -15.4065
   -15.3614 -15.3520 -15.3330 -15.3051 -15.2791 -15.2532 -15.1610 -15.1351
   -15.1313 -15.1016 -15.0200 -15.0078 -14.9473 -14.8101 -14.7392 -13.6339
   -13.6336 -12.3023  -6.7159  -6.4530  -3.9936  -3.8357  -3.2337  -3.1887
    -3.1739  -3.0646  -3.0386  -2.9637  -2.8672  -2.8504  -2.8352  -2.8015
    -2.7763  -2.7680  -2.7521  -2.7076  -2.6599  -2.6381  -2.6225  -2.6139
    -2.6085  -2.5953  -2.5655  -2.5373  -2.4785  -2.4687  -2.4357  -2.4176
    -2.3890  -2.3127  -2.3037  -2.2882  -2.2868  -2.2320  -2.1320  -2.1164
    -2.1076  -2.0647  -2.0010  -1.9308  -1.8422  -1.8005  -1.7353  -1.6787
    -1.6217  -1.5936  -1.5807  -1.4817  -1.4220  -1.4121  -1.3646  -1.3121
    -1.2348  -1.1967  -1.1591  -1.1475  -1.1348  -1.0951  -1.0455  -0.9847
    -0.8690  -0.8457  -0.8350  -0.7718  -0.7675  -0.7575  -0.6480  -0.6175
    -0.5666  -0.5423  -0.5216  -0.4842  -0.4542  -0.3814  -0.2886  -0.2420
    -0.1141  -0.0981  -0.0437   0.0041   0.0161   0.1066   0.1958   0.2198
     0.3580   0.3725   0.4046   0.5370   0.6072   0.6580   0.6756   0.7982
     0.8177   0.8532   1.0202   1.2649   1.2693   1.2883   1.2893   1.6127
     2.6260   3.4207   3.4230   3.4529   3.4550   3.6648   3.6783   3.7562
     3.7938   3.8847   3.9068

     the Fermi energy is     2.8230 ev

!    total energy              =   -2972.69117225 Ry
     estimated scf accuracy    <       0.00000004 Ry
     smearing contrib. (-TS)   =      -0.01346154 Ry
     internal energy E=F+TS    =   -2972.67771072 Ry

     The total energy is F=E-TS. E is the sum of the following terms:
     one-electron contribution =  -24586.75784126 Ry
     hartree contribution      =   12385.40659635 Ry
     xc contribution           =    -493.17540650 Ry
     ewald contribution        =    9721.84869060 Ry
     electric field correction =       0.00025010 Ry

     convergence has been achieved in  67 iterations

     Forces acting on atoms (cartesian axes, Ry/au):

     atom    1 type  1   force =    -0.00001084   -0.00027867    0.10604952
     atom    2 type  1   force =    -0.00022385   -0.00077591   -0.16695007
     atom    3 type  2   force =    -0.00002392   -0.00013763   -0.03887106
     atom    4 type  2   force =    -0.00009939   -0.00037910    0.03647865
     atom    5 type  2   force =    -0.00756245   -0.00012857   -0.00576468
     atom    6 type  2   force =     0.00857534    0.00077985   -0.00745130
     atom    7 type  1   force =    -0.00079498   -0.00145452    0.01970366
     atom    8 type  1   force =     0.00110447    0.01828746    0.06308133
     atom    9 type  2   force =    -0.00008285   -0.00018511    0.00036912
     atom   10 type  2   force =    -0.00265121    0.00203094   -0.04759200
     atom   11 type  2   force =    -0.00023307   -0.00000603    0.00012702
     atom   12 type  2   force =     0.00037640   -0.00012411    0.00008544
     atom   13 type  1   force =     0.00006451   -0.00010602   -0.00043639
     atom   14 type  1   force =    -0.00048372    0.00000289    0.00001108
     atom   15 type  2   force =     0.00027658    0.00018550   -0.00028697
     atom   16 type  2   force =    -0.00013185   -0.00029858    0.00063249
     atom   17 type  2   force =     0.00004527   -0.00024245    0.00050956
     atom   18 type  2   force =     0.00036243    0.00043834    0.00017589
     atom   19 type  1   force =    -0.00006438    0.00042121    0.00116472
     atom   20 type  1   force =     0.00012347    0.00030340   -0.00002353
     atom   21 type  2   force =     0.00004728   -0.00002100    0.10088686
     atom   22 type  2   force =     0.00031147    0.00025868    0.00058540
     atom   23 type  2   force =    -0.07579279   -0.00011927   -0.02987104
     atom   24 type  2   force =     0.07568557    0.00033587   -0.02988287
     atom   25 type  1   force =     0.00020125   -0.00056064    0.10641525
     atom   26 type  1   force =    -0.00006615   -0.00025796   -0.16739442
     atom   27 type  2   force =    -0.00006236   -0.00032037   -0.03752620
     atom   28 type  2   force =     0.00007062   -0.00045753    0.03693997
     atom   29 type  2   force =    -0.00853343    0.00126234   -0.00515970
     atom   30 type  2   force =     0.00948945    0.00122470   -0.00687506
     atom   31 type  1   force =    -0.00129883   -0.00008166    0.02602610
     atom   32 type  1   force =     0.00116238   -0.02138370    0.06365982
     atom   33 type  2   force =    -0.00002731    0.00024780   -0.00000905
     atom   34 type  2   force =    -0.00008380    0.00090674   -0.05937782
     atom   35 type  2   force =    -0.00009006    0.00008282   -0.00013031
     atom   36 type  2   force =    -0.00010737    0.00035838   -0.00014077
     atom   37 type  1   force =     0.00002414   -0.00032668    0.00000040
     atom   38 type  1   force =    -0.00042674   -0.00009298   -0.00017611
     atom   39 type  2   force =    -0.00020749    0.00036234    0.00053618
     atom   40 type  2   force =     0.00046972    0.00022426   -0.00030338
     atom   41 type  2   force =    -0.00002442    0.00040622   -0.00014378
     atom   42 type  2   force =     0.00028386    0.00053615   -0.00025320
     atom   43 type  1   force =    -0.00040967   -0.00015886   -0.00024381
     atom   44 type  1   force =     0.00046286   -0.00003442   -0.00039554
     atom   45 type  2   force =     0.00002506   -0.00000181    0.10091307
     atom   46 type  2   force =    -0.07580401   -0.00010535   -0.02982630
     atom   47 type  2   force =     0.07567449    0.00032341   -0.02986534
     atom   48 type  3   force =     0.00038103    0.00100471    0.00020499
     atom   49 type  4   force =    -0.00025609   -0.00208526   -0.00016734
     atom   50 type  5   force =     0.00047606   -0.00047827    0.00073951
     atom   51 type  3   force =     0.00016776    0.00024513   -0.00047278
     atom   52 type  5   force =     0.00003819    0.00017607    0.00024907
     atom   53 type  2   force =    -0.00062722    0.00036012   -0.00079776
     atom   54 type  5   force =    -0.00022407    0.00010867    0.00043203
     atom   55 type  5   force =     0.00050470   -0.00027153    0.00041142

     Total force =     0.383574     Total SCF correction =     0.000296
  @ DRIVER MODE: Message from server: STATUS
  @ DRIVER MODE: Message from server: GETFORCE
  @ DRIVER MODE: Returning v,forces,stress,ensemble

     Writing output data file ./calc.save/
  @ DRIVER MODE: Message from server: EXIT
  @ DRIVE MODE: Exiting

     General routines

     Parallel routines

   This run was terminated on:  18:55:36  15Sep2021

   JOB DONE.