     Program PWSCF v.6.7GPU starts on 22Sep2021 at 18:58:15

     R & G space division:  proc/nbgrp/npool/nimage =      10
     Reading input from /storage/home/hcoda1/3/ntian30/research/carbon/CxH_vib/CH_calc/ads_slab/CHN2OH_a/out_0025/pw.inp
Warning: card &CELL ignored
Warning: card   CELL_DYNAMICS='IPI', ignored
Warning: card / ignored

     Current dimensions of program PWSCF are:
     Max number of different atomic species (ntypx) = 10
     Max number of k-points (npk) =  40000
     Max angular momentum in pseudopotentials (lmaxx) =  3
     Presently no symmetry can be used with electric field

     Message from routine cell_base_init:
     DEPRECATED: use true lattice parameter, not A to a.u. conversion factor

     IMPORTANT: XC functional enforced from input :
     Exchange-correlation= BEEF-VDW
                           (   1   4  43  14   2   0   0)
     Any further DFT definition will be discarded
     Please, verify this is what you really want

  @ DRIVER MODE: Connecting to
 qe_1139763_2934093.sched-torque.pace.gatech.edur62h2ssh_scratch
  using UNIX socket
  @ DRIVER MODE: Message from server: STATUS
  @ DRIVER MODE: Message from server: INIT
  @ DRIVER MODE: Receiving replica           0          -1
  @ DRIVER MODE: Receiving encoded integer          25
  @ DRIVER MODE:  SCF:  T  FORCE:  T  STRESS:  F  VC:  F  ENSEMBLE:  F
  @ DRIVER MODE:  SCF:  T  FORCE:  T  STRESS:  F  VC:  F  ENSEMBLE:  F

     Using Slab Decomposition

     bravais-lattice index     =            0
     lattice parameter (alat)  =       1.8897  a.u.
     unit-cell volume          =    6658.9804 (a.u.)^3
     number of atoms/cell      =           53
     number of atomic types    =            5
     number of electrons       =       400.00
     number of Kohn-Sham states=          210
     kinetic-energy cutoff     =      29.3995  Ry
     charge density cutoff     =     293.9946  Ry
     scf convergence threshold =      7.3E-08
     mixing beta               =       0.0500
     number of iterations used =            8  plain     mixing
     Exchange-correlation= BEEF-VDW
                           (   1   4  43  14   2   0   0)

     celldm(1)=   1.889726  celldm(2)=   0.000000  celldm(3)=   0.000000
     celldm(4)=   0.000000  celldm(5)=   0.000000  celldm(6)=   0.000000

     crystal axes: (cart. coord. in units of alat)
               a(1) = (   6.579727   0.000000   0.000000 )
               a(2) = (  -0.000775   5.961596   0.000000 )
               a(3) = (   0.000000   0.000000  25.155947 )

     reciprocal axes: (cart. coord. in units 2 pi/alat)
               b(1) = (  0.151982  0.000020  0.000000 )
               b(2) = (  0.000000  0.167740  0.000000 )
               b(3) = (  0.000000  0.000000  0.039752 )

     PseudoPot. # 1 for Ti read from file:
     /storage/coda1/p-amedford6/0/shared/rich_project_chbe-medford/medford-share/data/pseudos_module/espresso/nninc/pbe/van/Ti.UPF
     MD5 check sum: 8e4df49b7f0d34bbd5052bf3f5ea0213
     Pseudo is Ultrasoft, Zval = 12.0
     Generated by new atomic code, or converted to UPF format
     Using radial grid of  851 points,  6 beta functions with:
                l(1) =   0
                l(2) =   0
                l(3) =   1
                l(4) =   1
                l(5) =   2
                l(6) =   2
     Q(r) pseudized with  8 coefficients,  rinner =    1.000   1.000   1.000
                                                       1.000   1.000

     PseudoPot. # 2 for O  read from file:
     /storage/coda1/p-amedford6/0/shared/rich_project_chbe-medford/medford-share/data/pseudos_module/espresso/nninc/pbe/van/O.UPF
     MD5 check sum: 78c19812648e8988a0fe644b0f25305e
     Pseudo is Ultrasoft, Zval =  6.0
     Generated by new atomic code, or converted to UPF format
     Using radial grid of  737 points,  4 beta functions with:
                l(1) =   0
                l(2) =   0
                l(3) =   1
                l(4) =   1
     Q(r) pseudized with  8 coefficients,  rinner =    0.800   0.800   0.800

     PseudoPot. # 3 for N  read from file:
     /storage/coda1/p-amedford6/0/shared/rich_project_chbe-medford/medford-share/data/pseudos_module/espresso/nninc/pbe/van/N.UPF
     MD5 check sum: 90d10febe142ad51ac9d5be1deb811c4
     Pseudo is Ultrasoft, Zval =  5.0
     Generated by new atomic code, or converted to UPF format
     Using radial grid of  729 points,  4 beta functions with:
                l(1) =   0
                l(2) =   0
                l(3) =   1
                l(4) =   1
     Q(r) pseudized with  8 coefficients,  rinner =    0.800   0.800   0.800

     PseudoPot. # 4 for C  read from file:
     /storage/coda1/p-amedford6/0/shared/rich_project_chbe-medford/medford-share/data/pseudos_module/espresso/nninc/pbe/van/C.UPF
     MD5 check sum: 1a69bf6b8db32088f5b2163dbdb77a27
     Pseudo is Ultrasoft, Zval =  4.0
     Generated by new atomic code, or converted to UPF format
     Using radial grid of  721 points,  4 beta functions with:
                l(1) =   0
                l(2) =   0
                l(3) =   1
                l(4) =   1
     Q(r) pseudized with  8 coefficients,  rinner =    0.800   0.800   0.800

     PseudoPot. # 5 for H  read from file:
     /storage/coda1/p-amedford6/0/shared/rich_project_chbe-medford/medford-share/data/pseudos_module/espresso/nninc/pbe/van/H.UPF
     MD5 check sum: b5ee9d7bfd3a09ee7748110bda690ff7
     Pseudo is Ultrasoft, Zval =  1.0
     Generated by new atomic code, or converted to UPF format
     Using radial grid of  615 points,  1 beta functions with:
                l(1) =   0
     Q(r) pseudized with  8 coefficients,  rinner =    0.800

     atomic species   valence    mass     pseudopotential
        Ti1           12.00    47.86700     Ti( 1.00)
        O1             6.00    15.99900     O ( 1.00)
        N1             5.00    14.00700     N ( 1.00)
        C1             4.00    12.01100     C ( 1.00)
        H1             1.00     1.00800     H ( 1.00)

     No symmetry found

   Cartesian axes

     site n.     atom                  positions (alat units)
         1           Ti1 tau(   1) = (   0.0004258   2.9801865   6.0000000  )
         2           Ti1 tau(   2) = (   3.2906075   1.4906267   6.0002472  )
         3           O1  tau(   3) = (   0.0006271   0.0005054   7.9858123  )
         4           O1  tau(   4) = (   3.2906025   0.0005020   7.3038282  )
         5           O1  tau(   5) = (   4.5942328   1.4918067   9.2879030  )
         6           O1  tau(   6) = (   1.9868534   1.4903216   9.2879459  )
         7           Ti1 tau(   7) = (   3.2907910   2.8959150   9.1758416  )
         8           Ti1 tau(   8) = (   0.0015273   1.4827037   9.2680791  )
         9           O1  tau(   9) = (   3.2947431   5.9554071  11.2675382  )
        10           O1  tau(  10) = (   0.0116148   5.9584955  10.6183126  )
        11           O1  tau(  11) = (   1.2939190   1.5012022  12.6324650  )
        12           O1  tau(  12) = (   5.3075194   1.4952059  12.6199201  )
        13           Ti1 tau(  13) = (   0.0106221   2.8553259  12.7114016  )
        14           Ti1 tau(  14) = (   3.3038960   1.3182849  12.6556579  )
        15           O1  tau(  15) = (   6.5780848   0.0092190  14.6493773  )
        16           O1  tau(  16) = (   3.3025004   0.0387551  13.8658611  )
        17           O1  tau(  17) = (   4.5583283   1.5306594  16.0644060  )
        18           O1  tau(  18) = (   2.0361898   1.5392772  16.0217891  )
        19           Ti1 tau(  19) = (   3.3091865   3.0111069  15.6373089  )
        20           Ti1 tau(  20) = (   0.0377650   1.3505479  16.0707495  )
        21           O1  tau(  21) = (   3.2904802   0.0005063   4.7018136  )
        22           O1  tau(  22) = (   0.0439016   5.9493915  17.1867805  )
        23           O1  tau(  23) = (   1.3043587   1.4918075   6.0039043  )
        24           O1  tau(  24) = (   5.2767064   1.4903225   6.0039473  )
        25           Ti1 tau(  25) = (   0.0000382   5.9609847   6.0000000  )
        26           Ti1 tau(  26) = (   3.2902200   4.4714249   6.0002472  )
        27           O1  tau(  27) = (   0.0002396   2.9813036   7.9858123  )
        28           O1  tau(  28) = (   3.2902150   2.9813002   7.3038282  )
        29           O1  tau(  29) = (   4.5938453   4.4726049   9.2879030  )
        30           O1  tau(  30) = (   1.9864658   4.4711199   9.2879459  )
        31           Ti1 tau(  31) = (   3.2891106   5.8743827   9.1763621  )
        32           Ti1 tau(  32) = (   0.0006254   4.4649316   9.2693709  )
        33           O1  tau(  33) = (   3.2958776   3.0336607  11.2353185  )
        34           O1  tau(  34) = (   0.0092240   2.9805883  10.6323155  )
        35           O1  tau(  35) = (   1.3000586   4.4853303  12.6229424  )
        36           O1  tau(  36) = (   5.2993189   4.4901910  12.6110906  )
        37           Ti1 tau(  37) = (   0.0093010   5.8444503  12.6145921  )
        38           Ti1 tau(  38) = (   3.2999333   4.4129019  12.4053696  )
        39           O1  tau(  39) = (   6.5685983   3.0141634  14.6646344  )
        40           O1  tau(  40) = (   3.3157979   2.9893391  13.8470085  )
        41           O1  tau(  41) = (   4.5469136   4.4558096  16.0384726  )
        42           O1  tau(  42) = (   2.0285042   4.4377151  15.9822253  )
        43           Ti1 tau(  43) = (   3.3362675   0.0317196  16.2890182  )
        44           Ti1 tau(  44) = (   0.0499865   4.4862307  15.8577502  )
        45           O1  tau(  45) = (   3.2900926   2.9813045   4.7018136  )
        46           O1  tau(  46) = (   1.3039711   4.4726057   6.0039043  )
        47           O1  tau(  47) = (   5.2763189   4.4711207   6.0039473  )
        48           N1  tau(  48) = (   0.0045878   3.1533891  18.5964175  )
        49           N1  tau(  49) = (   0.0147781   3.0160983  17.3860304  )
        50           C1  tau(  50) = (   0.1535999   3.3096653  19.7680592  )
        51           H1  tau(  51) = (   6.1193577   3.4501394  20.6313668  )
        52           O1  tau(  52) = (   3.1601150   5.9596689  18.1025665  )
        53           H1  tau(  53) = (   2.2867615   0.0439400  18.5018857  )

     number of k points=    10  Fermi-Dirac smearing, width (Ry)=  0.0073
                       cart. coord. in units 2pi/alat
        k(    1) = (   0.0000000   0.0000000   0.0000000), wk =   0.1250000
        k(    2) = (   0.0000000   0.0419351   0.0000000), wk =   0.2500000
        k(    3) = (   0.0000000  -0.0838702   0.0000000), wk =   0.1250000
        k(    4) = (   0.0379955   0.0000049   0.0000000), wk =   0.2500000
        k(    5) = (   0.0379955   0.0419400   0.0000000), wk =   0.2500000
        k(    6) = (   0.0379955  -0.0838652   0.0000000), wk =   0.2500000
        k(    7) = (   0.0379955  -0.0419301   0.0000000), wk =   0.2500000
        k(    8) = (  -0.0759910  -0.0000099   0.0000000), wk =   0.1250000
        k(    9) = (  -0.0759910   0.0419252   0.0000000), wk =   0.2500000
        k(   10) = (  -0.0759910  -0.0838800   0.0000000), wk =   0.1250000

     Initial potential from superposition of free atoms

     starting charge  383.99917, renormalised to  400.00000

     negative rho (up, down):  1.461E-02 0.000E+00

     %%%%%%%%%%%%%%%%%%%%%%%%%%%%%%%%%%%%%%%%%%%%%%%%%%%%%%%%%%%%%%%%%%%%%%%%
     %                                                                      %
     % You are using vdW-DF, which was implemented by the Thonhauser group. %
     % Please cite the following two papers that made this development      %
     % possible and the two reviews that describe the various versions:     %
     %                                                                      %
     %   T. Thonhauser et al., PRL 115, 136402 (2015).                      %
     %   T. Thonhauser et al., PRB 76, 125112 (2007).                       %
     %   K. Berland et al., Rep. Prog. Phys. 78, 066501 (2015).             %
     %   D.C. Langreth et al., J. Phys.: Condens. Matter 21, 084203 (2009). %
     %                                                                      %
     %                                                                      %
     % If you are calculating the stress with vdW-DF, please also cite:     %
     %                                                                      %
     %   R. Sabatini et al., J. Phys.: Condens. Matter 24, 424209 (2012).   %
     %                                                                      %
     %%%%%%%%%%%%%%%%%%%%%%%%%%%%%%%%%%%%%%%%%%%%%%%%%%%%%%%%%%%%%%%%%%%%%%%%

     Adding external electric field

     Computed dipole along edir(3) :
        Dipole              -10.4151 Ry au,        -26.4725 Debye
        Dipole field         -0.0197 Ry au,

        Potential amp.        1.8220 Ry
        Total length         46.3494 bohr

     Starting wfcs are  302 atomic wfcs
  @ DRIVER MODE: Message from server: STATUS
  @ DRIVER MODE: Message from server: POSDATA
  @ DRIVER MODE: Reading and sharing cell
  @ DRIVER MODE: Reading and sharing positions
  @ DRIVER MODE: Received positions

     Self-consistent Calculation

     iteration #  1     ecut=    29.40 Ry     beta= 0.05
     Davidson diagonalization with overlap
     c_bands:  1 eigenvalues not converged
     c_bands:  1 eigenvalues not converged
     c_bands:  1 eigenvalues not converged
     c_bands:  1 eigenvalues not converged
     c_bands:  3 eigenvalues not converged
     c_bands:  2 eigenvalues not converged
     c_bands:  3 eigenvalues not converged
     c_bands:  2 eigenvalues not converged
     c_bands:  4 eigenvalues not converged
     c_bands:  2 eigenvalues not converged
     ethr =  1.00E-05,  avg # of iterations = 20.0

[...]

     total energy              =   -2482.20172044 Ry
     estimated scf accuracy    <    5431.16977314 Ry

     iteration #  2     ecut=    29.40 Ry     beta= 0.05
     Davidson diagonalization with overlap
     ethr =  1.00E-02,  avg # of iterations = 23.0

[...]

     iteration # 44     ecut=    29.40 Ry     beta= 0.05
     Davidson diagonalization with overlap
     c_bands:  1 eigenvalues not converged
     ethr =  6.52E-07,  avg # of iterations =  7.4

[...]

     total energy              =   -2970.22387335 Ry
     estimated scf accuracy    <       0.00000036 Ry

     iteration # 69     ecut=    29.40 Ry     beta= 0.05
     Davidson diagonalization with overlap
     ethr =  2.46E-11,  avg # of iterations =  6.4

     negative rho (up, down):  1.522E-02 0.000E+00

     Adding external electric field

     Computed dipole along edir(3) :
        Dipole                0.3078 Ry au,          0.7824 Debye
        Dipole field          0.0006 Ry au,

        Potential amp.       -0.0538 Ry
        Total length         46.3494 bohr

     End of self-consistent calculation

          k = 0.0000 0.0000 0.0000 ( 18029 PWs)   bands (ev):

   -56.8430 -56.8094 -56.0028 -55.9676 -55.7434 -55.6790 -55.4124 -55.3883
   -55.3785 -55.3764 -55.3085 -55.2567 -55.2536 -55.2445 -55.0642 -55.0552
   -33.2645 -33.1184 -33.0903 -33.0186 -32.9282 -32.8913 -32.4871 -32.2234
   -32.2213 -32.1927 -32.1437 -32.1417 -32.1130 -31.9750 -31.9629 -31.9105
   -31.8840 -31.8692 -31.8433 -31.7936 -31.7585 -31.7419 -31.7375 -31.7340
   -31.7229 -31.6587 -31.6518 -31.6226 -31.6174 -31.6093 -31.5990 -31.5368
   -31.5252 -31.5071 -31.5053 -31.4803 -31.4763 -31.4586 -31.4475 -31.4251
   -31.4188 -31.4002 -31.3246 -31.3074 -31.3059 -31.2738 -31.2732 -31.2600
   -19.0030 -16.9642 -16.4405 -16.2314 -16.1708 -16.0792 -16.0484 -16.0370
   -15.9585 -15.7619 -15.7003 -15.6286 -15.6086 -15.5128 -15.3878 -15.2913
   -15.1621 -15.0868 -15.0236 -15.0139 -15.0037 -14.9841 -14.8704 -14.8657
   -14.8620 -14.8187 -14.7725 -14.6145 -14.5269 -14.3650 -14.3332 -13.9100
   -13.8025 -13.6276  -6.2848  -5.0476  -4.5336  -3.9455  -3.9132  -3.8715
    -3.7398  -3.5771  -3.5690  -3.4411  -3.3733  -3.2505  -3.2393  -3.2233
    -3.1564  -3.1375  -2.9906  -2.9422  -2.9266  -2.8223  -2.7915  -2.6379
    -2.6118  -2.5171  -2.4677  -2.4340  -2.3776  -2.3511  -2.2764  -2.2695
    -2.2506  -2.1633  -2.1628  -2.1305  -2.0506  -2.0390  -1.9701  -1.9230
    -1.8832  -1.8247  -1.8003  -1.7262  -1.7227  -1.6006  -1.5190  -1.4778
    -1.4341  -1.4252  -1.3650  -1.3097  -1.1996  -1.1741  -1.0837  -1.0388
    -1.0263  -0.9754  -0.8871  -0.8598  -0.7906  -0.7177  -0.6990  -0.6142
    -0.5838  -0.5613  -0.4549  -0.4359  -0.3812  -0.3554  -0.3244  -0.3119
    -0.2343  -0.1163  -0.1029  -0.0351   0.0115   0.0387   0.1310   0.2232
     0.2697   0.3205   0.3500   0.3682   0.4442   0.4725   0.4944   0.5464
     0.5756   0.6092   0.6143   0.7182   0.7491   0.8122   0.8712   0.8910
     0.9993   1.0376   1.0968   1.1462   1.1871   1.5294   1.6338   1.8773
     2.4445   2.6110   2.8870   3.0194   3.3440   3.4311   3.4394   3.4453
     3.6826   3.8194

[...]

          k = 0.0380-0.0419 0.0000 ( 17876 PWs)   bands (ev):

[...]

          k =-0.0760-0.0000 0.0000 ( 17886 PWs)   bands (ev):

[...]

          k =-0.0760-0.0839 0.0000 ( 17948 PWs)   bands (ev):

   -56.8267 -56.8256 -55.9904 -55.9798 -55.7385 -55.6837 -55.3959 -55.3947
   -55.3844 -55.3749 -55.3123 -55.2553 -55.2519 -55.2460 -55.0656 -55.0566
   -33.1047 -33.1035 -33.0823 -33.0810 -32.9724 -32.9716 -32.3118 -32.3033
   -32.1854 -32.1733 -32.1705 -32.1635 -32.0457 -32.0020 -31.9684 -31.9591
   -31.9115 -31.9063 -31.7475 -31.7466 -31.7158 -31.6645 -31.6610 -31.6528
   -31.6460 -31.6321 -31.6167 -31.6151 -31.6123 -31.6035 -31.5893 -31.5797
   -31.5778 -31.5768 -31.5481 -31.5228 -31.5080 -31.4967 -31.4614 -31.4549
   -31.4502 -31.4437 -31.4129 -31.3795 -31.3293 -31.2950 -31.2771 -31.2626
   -19.0004 -16.3304 -16.3277 -16.2723 -16.2707 -16.2152 -16.0312 -16.0255
   -15.7780 -15.7481 -15.5533 -15.5127 -15.4636 -15.4100 -15.3717 -15.3694
   -15.2312 -15.2200 -15.1156 -15.0370 -15.0162 -14.9829 -14.9718 -14.9503
   -14.9446 -14.8726 -14.7882 -14.7257 -14.7121 -14.5426 -14.4669 -13.9071
   -13.9064 -13.6321  -6.2834  -5.0156  -3.9542  -3.7942  -3.5983  -3.3956
    -3.3931  -3.3881  -3.3803  -3.1513  -3.1407  -2.9673  -2.9606  -2.9350
    -2.8739  -2.8624  -2.7560  -2.6877  -2.6820  -2.6727  -2.6481  -2.6218
    -2.6161  -2.5527  -2.4956  -2.3887  -2.3655  -2.3303  -2.3099  -2.2959
    -2.1768  -2.1498  -2.1387  -2.1095  -2.0942  -2.0814  -2.0448  -2.0207
    -1.8677  -1.8287  -1.7200  -1.7054  -1.6850  -1.6415  -1.6246  -1.6032
    -1.5775  -1.5427  -1.5382  -1.4515  -1.4280  -1.3710  -1.2882  -1.2106
    -1.1617  -1.1499  -1.0878  -1.0361  -0.9263  -0.9020  -0.8665  -0.8460
    -0.8183  -0.7599  -0.7301  -0.6251  -0.5390  -0.5078  -0.4871  -0.4814
    -0.4467  -0.4128  -0.3909  -0.2770  -0.2648  -0.2496  -0.1511  -0.0567
     0.0280   0.0881   0.1033   0.1809   0.2777   0.3222   0.3876   0.4530
     0.4949   0.5086   0.6817   0.7293   0.8532   0.8777   0.9089   0.9716
     0.9856   0.9901   1.0122   1.0209   1.0503   1.1291   1.5534   1.7927
     3.0317   3.0345   3.0908   3.0969   3.4005   3.4040   3.5093   3.5119
     3.7939   3.8054

     the Fermi energy is     2.2207 ev

!    total energy              =   -2970.22390767 Ry
     estimated scf accuracy    <       0.00000002 Ry
     smearing contrib. (-TS)   =      -0.00328696 Ry
     internal energy E=F+TS    =   -2970.22062071 Ry

     The total energy is F=E-TS. E is the sum of the following terms:
     one-electron contribution =  -23874.98780299 Ry
     hartree contribution      =   12028.66173194 Ry
     xc contribution           =    -491.46704882 Ry
     ewald contribution        =    9367.57232036 Ry
     electric field correction =       0.00017881 Ry

     convergence has been achieved in  69 iterations

     Forces acting on atoms (cartesian axes, Ry/au):

     atom    1 type  1   force =     0.00006238   -0.00042110    0.12340756
     atom    2 type  1   force =    -0.00004201    0.00025066   -0.15536592
     atom    3 type  2   force =     0.00000978   -0.00007071   -0.06314437
     atom    4 type  2   force =     0.00001007    0.00024015    0.01793371
     atom    5 type  2   force =    -0.00301000   -0.00167521   -0.01288965
     atom    6 type  2   force =     0.00469206   -0.00105512   -0.01336153
     atom    7 type  1   force =    -0.00007360   -0.00671212    0.05744586
     atom    8 type  1   force =     0.00033026    0.01202350    0.09288247
     atom    9 type  2   force =    -0.00005227   -0.00006210   -0.00009160
     atom   10 type  2   force =    -0.00146469    0.00206418   -0.05862919
     atom   11 type  2   force =    -0.00000525    0.00036457   -0.00011067
     atom   12 type  2   force =    -0.00009331    0.00058370   -0.00004644
     atom   13 type  1   force =    -0.00016947    0.00092951   -0.00018110
     atom   14 type  1   force =    -0.00007451    0.00072487   -0.00050668
     atom   15 type  2   force =    -0.00000186   -0.00066490   -0.00060466
     atom   16 type  2   force =    -0.00013850    0.00006139   -0.00084372
     atom   17 type  2   force =    -0.00018602   -0.00065469   -0.00008131
     atom   18 type  2   force =    -0.00003384    0.00053866   -0.00070524
     atom   19 type  1   force =     0.00016038   -0.00023125    0.00119024
     atom   20 type  1   force =    -0.00024305    0.00064894    0.00040667
     atom   21 type  2   force =     0.00003575    0.00021316    0.09798563
     atom   22 type  2   force =     0.00025254   -0.00009384    0.00074287
     atom   23 type  2   force =    -0.08219741    0.00004300   -0.03275549
     atom   24 type  2   force =     0.08207999    0.00048144   -0.03282798
     atom   25 type  1   force =     0.00008940   -0.00059741    0.12341978
     atom   26 type  1   force =    -0.00015719   -0.00150356   -0.15593307
     atom   27 type  2   force =     0.00007149   -0.00069313   -0.06136545
     atom   28 type  2   force =     0.00002088    0.00205706    0.01319542
     atom   29 type  2   force =    -0.00129234    0.00547104   -0.01606432
     atom   30 type  2   force =     0.00296310    0.00580275   -0.01651130
     atom   31 type  1   force =    -0.00011394    0.00211132    0.04127647
     atom   32 type  1   force =     0.00053285   -0.01544428    0.09257044
     atom   33 type  2   force =    -0.00020997   -0.00073791   -0.00054831
     atom   34 type  2   force =    -0.00140982    0.00202802   -0.07249226
     atom   35 type  2   force =     0.00020879   -0.00081161    0.00004311
     atom   36 type  2   force =    -0.00025160   -0.00092324    0.00009312
     atom   37 type  1   force =    -0.00022707   -0.00111502   -0.00024731
     atom   38 type  1   force =    -0.00008611   -0.00156384    0.00067019
     atom   39 type  2   force =     0.00032823   -0.00049955   -0.00000067
     atom   40 type  2   force =    -0.00002120   -0.00068760   -0.00130864
     atom   41 type  2   force =     0.00020643    0.00038838    0.00035559
     atom   42 type  2   force =    -0.00000658    0.00021021    0.00035471
     atom   43 type  1   force =    -0.00077402   -0.00005369    0.00185185
     atom   44 type  1   force =    -0.00010204    0.00023734   -0.00071643
     atom   45 type  2   force =     0.00002720    0.00002601    0.09775470
     atom   46 type  2   force =    -0.08226477   -0.00001198   -0.03278871
     atom   47 type  2   force =     0.08211793    0.00043830   -0.03280319
     atom   48 type  3   force =    -0.00043622   -0.00048917    0.00041795
     atom   49 type  3   force =     0.00032772    0.00053778    0.00040939
     atom   50 type  4   force =     0.00108139    0.00018172   -0.00138958
     atom   51 type  5   force =    -0.00120150   -0.00053306    0.00107342
     atom   52 type  2   force =     0.01676798   -0.00124895   -0.00853339
     atom   53 type  5   force =    -0.01603644   -0.00010261    0.00736702

     Total force =     0.413104     Total SCF correction =     0.000453
  @ DRIVER MODE: Message from server: STATUS
  @ DRIVER MODE: Message from server: GETFORCE
  @ DRIVER MODE: Returning v,forces,stress,ensemble

     Writing output data file ./calc.save/
  @ DRIVER MODE: Message from server: EXIT
  @ DRIVE MODE: Exiting

     General routines

     Parallel routines

   This run was terminated on:  19:19:57  22Sep2021

   JOB DONE.