     Program PWSCF v.6.7GPU starts on 23Sep2021 at 11:35:43

     R & G space division:  proc/nbgrp/npool/nimage =       8
     Reading input from /storage/home/hcoda1/3/ntian30/research/carbon/CxH_vib/H2O_calc/ads_slab/CH3ON2HO_a/out_0002/pw.inp
Warning: card &CELL ignored
Warning: card   CELL_DYNAMICS='IPI', ignored
Warning: card / ignored

     Current dimensions of program PWSCF are:
     Max number of different atomic species (ntypx) = 10
     Max number of k-points (npk) =  40000
     Max angular momentum in pseudopotentials (lmaxx) =  3
     Presently no symmetry can be used with electric field

     Message from routine cell_base_init:
     DEPRECATED: use true lattice parameter, not A to a.u. conversion factor

     IMPORTANT: XC functional enforced from input :
     Exchange-correlation= BEEF-VDW
                           (   1   4  43  14   2   0   0)
     Any further DFT definition will be discarded
     Please, verify this is what you really want

  @ DRIVER MODE: Connecting to
 qe_1139763_2947306.sched-torque.pace.gatech.edub7jtf7dk_scratch
  using UNIX socket
  @ DRIVER MODE: Message from server: STATUS
  @ DRIVER MODE: Message from server: INIT
  @ DRIVER MODE: Receiving replica           0          -1
  @ DRIVER MODE: Receiving encoded integer          25
  @ DRIVER MODE:  SCF:  T  FORCE:  T  STRESS:  F  VC:  F  ENSEMBLE:  F
  @ DRIVER MODE:  SCF:  T  FORCE:  T  STRESS:  F  VC:  F  ENSEMBLE:  F

     Using Slab Decomposition

     bravais-lattice index     =            0
     lattice parameter (alat)  =       1.8897  a.u.
     unit-cell volume          =    6658.9804 (a.u.)^3
     number of atoms/cell      =           56
     number of atomic types    =            5
     number of electrons       =       408.00
     number of Kohn-Sham states=          214
     kinetic-energy cutoff     =      29.3995  Ry
     charge density cutoff     =     293.9946  Ry
     scf convergence threshold =      7.3E-08
     mixing beta               =       0.0500
     number of iterations used =            8  plain     mixing
     Exchange-correlation= BEEF-VDW
                           (   1   4  43  14   2   0   0)

     celldm(1)=   1.889726  celldm(2)=   0.000000  celldm(3)=   0.000000
     celldm(4)=   0.000000  celldm(5)=   0.000000  celldm(6)=   0.000000

     crystal axes: (cart. coord. in units of alat)
               a(1) = (   6.579727   0.000000   0.000000 )
               a(2) = (  -0.000775   5.961596   0.000000 )
               a(3) = (   0.000000   0.000000  25.155947 )

     reciprocal axes: (cart. coord. in units 2 pi/alat)
               b(1) = (  0.151982  0.000020  0.000000 )
               b(2) = (  0.000000  0.167740  0.000000 )
               b(3) = (  0.000000  0.000000  0.039752 )

     PseudoPot. # 1 for Ti read from file:
     /storage/coda1/p-amedford6/0/shared/rich_project_chbe-medford/medford-share/data/pseudos_module/espresso/nninc/pbe/van/Ti.UPF
     MD5 check sum: 8e4df49b7f0d34bbd5052bf3f5ea0213
     Pseudo is Ultrasoft, Zval = 12.0
     Generated by new atomic code, or converted to UPF format
     Using radial grid of  851 points,  6 beta functions with:
                l(1) =   0
                l(2) =   0
                l(3) =   1
                l(4) =   1
                l(5) =   2
                l(6) =   2
     Q(r) pseudized with  8 coefficients,  rinner =    1.000   1.000   1.000
                                                       1.000   1.000

     PseudoPot. # 2 for O  read from file:
     /storage/coda1/p-amedford6/0/shared/rich_project_chbe-medford/medford-share/data/pseudos_module/espresso/nninc/pbe/van/O.UPF
     MD5 check sum: 78c19812648e8988a0fe644b0f25305e
     Pseudo is Ultrasoft, Zval =  6.0
     Generated by new atomic code, or converted to UPF format
     Using radial grid of  737 points,  4 beta functions with:
                l(1) =   0
                l(2) =   0
                l(3) =   1
                l(4) =   1
     Q(r) pseudized with  8 coefficients,  rinner =    0.800   0.800   0.800

     PseudoPot. # 3 for C  read from file:
     /storage/coda1/p-amedford6/0/shared/rich_project_chbe-medford/medford-share/data/pseudos_module/espresso/nninc/pbe/van/C.UPF
     MD5 check sum: 1a69bf6b8db32088f5b2163dbdb77a27
     Pseudo is Ultrasoft, Zval =  4.0
     Generated by new atomic code, or converted to UPF format
     Using radial grid of  721 points,  4 beta functions with:
                l(1) =   0
                l(2) =   0
                l(3) =   1
                l(4) =   1
     Q(r) pseudized with  8 coefficients,  rinner =    0.800   0.800   0.800

     PseudoPot. # 4 for H  read from file:
     /storage/coda1/p-amedford6/0/shared/rich_project_chbe-medford/medford-share/data/pseudos_module/espresso/nninc/pbe/van/H.UPF
     MD5 check sum: b5ee9d7bfd3a09ee7748110bda690ff7
     Pseudo is Ultrasoft, Zval =  1.0
     Generated by new atomic code, or converted to UPF format
     Using radial grid of  615 points,  1 beta functions with:
                l(1) =   0
     Q(r) pseudized with  8 coefficients,  rinner =    0.800

     PseudoPot. # 5 for N  read from file:
     /storage/coda1/p-amedford6/0/shared/rich_project_chbe-medford/medford-share/data/pseudos_module/espresso/nninc/pbe/van/N.UPF
     MD5 check sum: 90d10febe142ad51ac9d5be1deb811c4
     Pseudo is Ultrasoft, Zval =  5.0
     Generated by new atomic code, or converted to UPF format
     Using radial grid of  729 points,  4 beta functions with:
                l(1) =   0
                l(2) =   0
                l(3) =   1
                l(4) =   1
     Q(r) pseudized with  8 coefficients,  rinner =    0.800   0.800   0.800

     atomic species   valence    mass     pseudopotential
        Ti1           12.00    47.86700     Ti( 1.00)
        O1             6.00    15.99900     O ( 1.00)
        C1             4.00    12.01100     C ( 1.00)
        H1             1.00     1.00800     H ( 1.00)
        N1             5.00    14.00700     N ( 1.00)

     No symmetry found

   Cartesian axes

     site n.     atom                  positions (alat units)
         1           Ti1 tau(   1) = (   0.0004258   2.9801865   6.0000000  )
         2           Ti1 tau(   2) = (   3.2906075   1.4906267   6.0002472  )
         3           O1  tau(   3) = (   0.0006271   0.0005054   7.9858123  )
         4           O1  tau(   4) = (   3.2906025   0.0005020   7.3038282  )
         5           O1  tau(   5) = (   4.5942328   1.4918067   9.2879030  )
         6           O1  tau(   6) = (   1.9868534   1.4903216   9.2879459  )
         7           Ti1 tau(   7) = (   3.3138730   3.1023225   9.2183157  )
         8           Ti1 tau(   8) = (   0.0392070   1.5780841   9.3433077  )
         9           O1  tau(   9) = (   3.2868017   0.0212601  11.3135411  )
        10           O1  tau(  10) = (   0.0022550   0.0140515  10.5858881  )
        11           O1  tau(  11) = (   1.2767464   1.5002397  12.6205121  )
        12           O1  tau(  12) = (   5.2993684   1.4943797  12.6172415  )
        13           Ti1 tau(  13) = (   0.0200588   3.0780815  12.7918821  )
        14           Ti1 tau(  14) = (   3.2574684   1.5637424  12.4212484  )
        15           O1  tau(  15) = (   6.5768379   0.0158506  14.6682411  )
        16           O1  tau(  16) = (   3.2886937   5.9311801  13.9109749  )
        17           O1  tau(  17) = (   4.5620935   1.5260772  16.0398494  )
        18           O1  tau(  18) = (   2.0292830   1.5431627  16.0187044  )
        19           Ti1 tau(  19) = (   3.3027642   2.9567202  15.6520962  )
        20           Ti1 tau(  20) = (   0.0552782   1.4362356  15.9688716  )
        21           O1  tau(  21) = (   3.2904802   0.0005063   4.7018136  )
        22           O1  tau(  22) = (   0.0488089   0.0211857  17.1900833  )
        23           O1  tau(  23) = (   1.3043587   1.4918075   6.0039043  )
        24           O1  tau(  24) = (   5.2767064   1.4903225   6.0039473  )
        25           Ti1 tau(  25) = (   0.0000382   5.9609847   6.0000000  )
        26           Ti1 tau(  26) = (   3.2902200   4.4714249   6.0002472  )
        27           O1  tau(  27) = (   0.0002396   2.9813036   7.9858123  )
        28           O1  tau(  28) = (   3.2902150   2.9813002   7.3038282  )
        29           O1  tau(  29) = (   4.5938453   4.4726049   9.2879030  )
        30           O1  tau(  30) = (   1.9864658   4.4711199   9.2879459  )
        31           Ti1 tau(  31) = (   3.3219941   0.1169887   9.1790125  )
        32           Ti1 tau(  32) = (   0.0373256   4.5280481   9.3594506  )
        33           O1  tau(  33) = (   3.2887547   2.9594671  11.2851190  )
        34           O1  tau(  34) = (   0.0046902   2.9985155  10.5475055  )
        35           O1  tau(  35) = (   1.2817606   4.4707209  12.6310527  )
        36           O1  tau(  36) = (   5.3098963   4.4869072  12.6241852  )
        37           Ti1 tau(  37) = (   6.5328698   0.0937101  12.6083326  )
        38           Ti1 tau(  38) = (   3.2790761   4.6595539  12.6693962  )
        39           O1  tau(  39) = (   0.0062896   2.9920245  14.6683812  )
        40           O1  tau(  40) = (   3.3079832   2.9813091  13.8732900  )
        41           O1  tau(  41) = (   4.5514670   4.4448635  16.0695425  )
        42           O1  tau(  42) = (   2.0242163   4.4286948  16.0089506  )
        43           Ti1 tau(  43) = (   3.3772342   5.9382356  16.2476532  )
        44           Ti1 tau(  44) = (   0.0845355   4.5653432  16.0322982  )
        45           O1  tau(  45) = (   3.2900926   2.9813045   4.7018136  )
        46           O1  tau(  46) = (   1.3039711   4.4726057   6.0039043  )
        47           O1  tau(  47) = (   5.2763189   4.4711207   6.0039473  )
        48           C1  tau(  48) = (   6.0201766   2.9784267  18.6088694  )
        49           O1  tau(  49) = (   6.5649008   2.9952511  17.2928482  )
        50           H1  tau(  50) = (   4.9185495   2.9407445  18.5675634  )
        51           H1  tau(  51) = (   6.3703738   2.0936667  19.1370987  )
        52           H1  tau(  52) = (   6.3118891   3.8824302  19.1399426  )
        53           N1  tau(  53) = (   6.0262039   3.1690275  22.5535725  )
        54           N1  tau(  54) = (   5.1417247   3.1052473  21.8962875  )
        55           O1  tau(  55) = (   3.2068502   5.9581871  18.0710493  )
        56           H1  tau(  56) = (   2.3500504   0.2277792  18.4614507  )

     number of k points=    10  Fermi-Dirac smearing, width (Ry)=  0.0073
                       cart. coord. in units 2pi/alat
        k(    1) = (   0.0000000   0.0000000   0.0000000), wk =   0.1250000
        k(    2) = (   0.0000000   0.0419351   0.0000000), wk =   0.2500000
        k(    3) = (   0.0000000  -0.0838702   0.0000000), wk =   0.1250000
        k(    4) = (   0.0379955   0.0000049   0.0000000), wk =   0.2500000
        k(    5) = (   0.0379955   0.0419400   0.0000000), wk =   0.2500000
        k(    6) = (   0.0379955  -0.0838652   0.0000000), wk =   0.2500000
        k(    7) = (   0.0379955  -0.0419301   0.0000000), wk =   0.2500000
        k(    8) = (  -0.0759910  -0.0000099   0.0000000), wk =   0.1250000
        k(    9) = (  -0.0759910   0.0419252   0.0000000), wk =   0.2500000
        k(   10) = (  -0.0759910  -0.0838800   0.0000000), wk =   0.1250000

     Initial potential from superposition of free atoms

     starting charge  391.99915, renormalised to  408.00000

     negative rho (up, down):  9.976E-03 0.000E+00

     %%%%%%%%%%%%%%%%%%%%%%%%%%%%%%%%%%%%%%%%%%%%%%%%%%%%%%%%%%%%%%%%%%%%%%%%
     %                                                                      %
     % You are using vdW-DF, which was implemented by the Thonhauser group. %
     % Please cite the following two papers that made this development      %
     % possible and the two reviews that describe the various versions:     %
     %                                                                      %
     %   T. Thonhauser et al., PRL 115, 136402 (2015).                      %
     %   T. Thonhauser et al., PRB 76, 125112 (2007).                       %
     %   K. Berland et al., Rep. Prog. Phys. 78, 066501 (2015).             %
     %   D.C. Langreth et al., J. Phys.: Condens. Matter 21, 084203 (2009). %
     %                                                                      %
     %                                                                      %
     % If you are calculating the stress with vdW-DF, please also cite:     %
     %                                                                      %
     %   R. Sabatini et al., J. Phys.: Condens. Matter 24, 424209 (2012).   %
     %                                                                      %
     %%%%%%%%%%%%%%%%%%%%%%%%%%%%%%%%%%%%%%%%%%%%%%%%%%%%%%%%%%%%%%%%%%%%%%%%

     Adding external electric field

     Computed dipole along edir(3) :
        Dipole              -16.8152 Ry au,        -42.7399 Debye
        Dipole field         -0.0317 Ry au,

        Potential amp.        2.9416 Ry
        Total length         46.3494 bohr

     Starting wfcs are  308 atomic wfcs
  @ DRIVER MODE: Message from server: STATUS
  @ DRIVER MODE: Message from server: POSDATA
  @ DRIVER MODE: Reading and sharing cell
  @ DRIVER MODE: Reading and sharing positions
  @ DRIVER MODE: Received positions

     Self-consistent Calculation

     iteration #  1     ecut=    29.40 Ry     beta= 0.05
     Davidson diagonalization with overlap
     c_bands:  4 eigenvalues not converged
     c_bands:  1 eigenvalues not converged
     c_bands:  5 eigenvalues not converged
     c_bands:  1 eigenvalues not converged
     c_bands:  2 eigenvalues not converged
     c_bands:  2 eigenvalues not converged
     c_bands:  1 eigenvalues not converged
     c_bands:  5 eigenvalues not converged
     ethr =  1.00E-05,  avg # of iterations = 27.4

[...]

     total energy              =   -2248.47792037 Ry
     estimated scf accuracy    <    8688.90984819 Ry

     iteration #  2     ecut=    29.40 Ry     beta= 0.05
     Davidson diagonalization with overlap
     ethr =  1.00E-02,  avg # of iterations = 31.2

[...]

     iteration # 61     ecut=    29.40 Ry     beta= 0.05
     Davidson diagonalization with overlap
     c_bands:  1 eigenvalues not converged
     ethr =  1.89E-07,  avg # of iterations =  6.5

[...]

     total energy              =   -3005.28900505 Ry
     estimated scf accuracy    <       0.00000031 Ry

     iteration # 78     ecut=    29.40 Ry     beta= 0.05
     Davidson diagonalization with overlap
     ethr =  7.53E-11,  avg # of iterations =  5.2

     negative rho (up, down):  1.141E-02 0.000E+00

     Adding external electric field

     Computed dipole along edir(3) :
        Dipole                0.5452 Ry au,          1.3858 Debye
        Dipole field          0.0010 Ry au,

        Potential amp.       -0.0954 Ry
        Total length         46.3494 bohr

     End of self-consistent calculation

          k = 0.0000 0.0000 0.0000 ( 18029 PWs)   bands (ev):

   -56.1316 -56.0841 -55.5741 -55.5554 -55.5393 -55.5163 -55.4841 -55.4591
   -55.4250 -55.3977 -55.3645 -55.3228 -55.3217 -55.1856 -54.7447 -54.7107
   -32.5446 -32.3958 -32.3455 -32.3111 -32.2164 -32.1709 -32.0786 -32.0207
   -32.0127 -31.9050 -31.8620 -31.8442 -31.8386 -31.8183 -31.8152 -31.7771
   -31.7739 -31.7599 -31.7403 -31.7337 -31.7298 -31.6890 -31.6801 -31.6637
   -31.6605 -31.6433 -31.6401 -31.6318 -31.6226 -31.6129 -31.6065 -31.5880
   -31.5740 -31.5684 -31.5618 -31.5276 -31.5187 -31.5158 -31.4854 -31.4402
   -31.4023 -31.3908 -31.1391 -31.0848 -31.0604 -30.9560 -30.8711 -30.7602
   -20.8539 -17.3688 -16.3420 -16.2882 -16.1472 -15.9106 -15.7660 -15.6887
   -15.4592 -15.4489 -15.3345 -15.3271 -15.2923 -15.1612 -15.1443 -15.1361
   -15.0838 -15.0703 -15.0472 -15.0442 -15.0415 -15.0328 -14.9754 -14.9563
   -14.9167 -14.8578 -14.7819 -14.7605 -14.7122 -14.7023 -14.6596 -14.4340
   -13.2462 -13.1376  -9.0755  -6.0142  -4.1190  -3.9899  -3.9782  -3.9306
    -3.8152  -3.7914  -3.5902  -3.4912  -3.4601  -3.3712  -3.2935  -3.1879
    -2.9737  -2.8228  -2.7590  -2.7206  -2.7135  -2.6783  -2.6367  -2.5754
    -2.5208  -2.4789  -2.4444  -2.4107  -2.3506  -2.3359  -2.3221  -2.2915
    -2.2723  -2.2512  -2.2171  -2.2009  -2.0726  -2.0353  -2.0052  -1.9942
    -1.9412  -1.9227  -1.9040  -1.8934  -1.8488  -1.7527  -1.6546  -1.6393
    -1.5965  -1.4117  -1.3351  -1.2898  -1.2109  -1.1450  -1.0656  -1.0461
    -1.0358  -0.9822  -0.9446  -0.8427  -0.8092  -0.7701  -0.7023  -0.6970
    -0.6578  -0.6004  -0.5739  -0.5112  -0.4841  -0.4504  -0.3117  -0.2744
    -0.2566  -0.1961  -0.1953  -0.1032  -0.0445   0.0087   0.0278   0.0836
     0.1228   0.1456   0.1966   0.2275   0.2410   0.3249   0.3736   0.3806
     0.4172   0.4542   0.4730   0.5032   0.5931   0.6419   0.6675   0.6943
     0.8379   0.8524   0.9064   1.0124   1.0290   1.2051   1.2727   1.3085
     1.4953   1.5332   1.8244   1.8702   3.1686   3.3319   3.6111   3.7238
     3.7676   3.8076   3.8830   3.9101   4.0632   4.0869

[...]

          k = 0.0380-0.0419 0.0000 ( 17876 PWs)   bands (ev):

[...]

          k =-0.0760-0.0000 0.0000 ( 17886 PWs)   bands (ev):

[...]

          k =-0.0760-0.0839 0.0000 ( 17948 PWs)   bands (ev):

   -56.1246 -56.0910 -55.5720 -55.5506 -55.5382 -55.5103 -55.4886 -55.4648
   -55.4269 -55.3989 -55.3559 -55.3310 -55.3199 -55.1876 -54.7279 -54.7274
   -32.3913 -32.3757 -32.3495 -32.3471 -32.2766 -32.2480 -31.9670 -31.8858
   -31.8567 -31.8384 -31.8168 -31.8060 -31.7939 -31.7889 -31.7777 -31.7644
   -31.7584 -31.7490 -31.7489 -31.7403 -31.7311 -31.7224 -31.7091 -31.7088
   -31.7056 -31.6890 -31.6837 -31.6581 -31.6504 -31.6491 -31.6322 -31.6251
   -31.6015 -31.5954 -31.5799 -31.5680 -31.5653 -31.5378 -31.5228 -31.5049
   -31.4408 -31.3943 -31.0736 -31.0734 -30.9547 -30.9529 -30.9132 -30.9123
   -20.8538 -17.3322 -16.3153 -15.6946 -15.6055 -15.5961 -15.5887 -15.5559
   -15.5201 -15.4551 -15.4409 -15.3726 -15.3007 -15.2696 -15.2283 -15.2033
   -15.1880 -15.1509 -15.1465 -15.0848 -15.0411 -15.0323 -15.0176 -15.0038
   -14.9594 -14.9513 -14.9424 -14.9263 -14.9179 -14.8565 -14.7566 -14.5786
   -13.2419 -13.2408  -9.0755  -6.0158  -4.0509  -3.9976  -3.9732  -3.8632
    -3.7296  -3.4408  -2.9276  -2.8482  -2.7688  -2.7669  -2.6996  -2.6781
    -2.6301  -2.6071  -2.5705  -2.5555  -2.5340  -2.4681  -2.4432  -2.4288
    -2.4253  -2.4161  -2.4004  -2.3816  -2.3390  -2.3297  -2.3160  -2.3069
    -2.2881  -2.2837  -2.2715  -2.2494  -2.2098  -2.1478  -2.0868  -1.9502
    -1.9420  -1.9139  -1.8966  -1.8721  -1.8473  -1.7965  -1.7149  -1.6948
    -1.6762  -1.6014  -1.5417  -1.3368  -1.3137  -1.2977  -1.2282  -1.1597
    -1.0935  -1.0758  -1.0411  -1.0068  -0.9836  -0.9431  -0.8855  -0.8526
    -0.8096  -0.7965  -0.7584  -0.7203  -0.6796  -0.6106  -0.6025  -0.5695
    -0.5194  -0.4957  -0.4062  -0.3978  -0.3736  -0.3558  -0.3235  -0.2309
    -0.1785  -0.1328  -0.0430  -0.0057   0.0358   0.1681   0.2362   0.2706
     0.3434   0.3882   0.4917   0.5141   0.5929   0.6148   0.6448   0.6692
     0.7393   0.8053   0.8568   0.9074   0.9467   0.9613   1.0124   1.0668
     1.6662   1.6687   1.6763   1.6826   3.7115   3.7378   3.7455   3.7789
     3.9830   4.0129   4.0861   4.1026   4.1231   4.1793

     the Fermi energy is     2.5767 ev

!    total energy              =   -3005.28902077 Ry
     estimated scf accuracy    <       0.00000007 Ry
     smearing contrib. (-TS)   =      -0.00015421 Ry
     internal energy E=F+TS    =   -3005.28886656 Ry

     The total energy is F=E-TS. E is the sum of the following terms:
     one-electron contribution =  -22581.88564765 Ry
     hartree contribution      =   11387.21762015 Ry
     xc contribution           =    -500.24178361 Ry
     ewald contribution        =    8689.62038355 Ry
     electric field correction =       0.00056100 Ry

     convergence has been achieved in  78 iterations

     Forces acting on atoms (cartesian axes, Ry/au):

     atom    1 type  1   force =     0.00011879    0.00010389    0.13282810
     atom    2 type  1   force =    -0.00011424    0.00820056   -0.15821488
     atom    3 type  2   force =     0.00029874   -0.00362596   -0.05306885
     atom    4 type  2   force =     0.00059177    0.00105038    0.04009766
     atom    5 type  2   force =    -0.00786409   -0.00195605   -0.00033877
     atom    6 type  2   force =     0.00845807   -0.00490742   -0.00004425
     atom    7 type  1   force =    -0.00017343   -0.00031368   -0.00002906
     atom    8 type  1   force =    -0.00000746   -0.00027052    0.00021251
     atom    9 type  2   force =     0.00013229    0.00010123    0.00001735
     atom   10 type  2   force =    -0.00003369    0.00020346    0.00008026
     atom   11 type  2   force =    -0.00005807    0.00013052   -0.00002407
     atom   12 type  2   force =     0.00038562   -0.00011394   -0.00006721
     atom   13 type  1   force =    -0.00017552    0.00003956    0.00010445
     atom   14 type  1   force =     0.00011251    0.00058971    0.00009755
     atom   15 type  2   force =    -0.00005601    0.00013038    0.00004887
     atom   16 type  2   force =     0.00002372    0.00004177   -0.00048062
     atom   17 type  2   force =     0.00020991   -0.00043503    0.00016294
     atom   18 type  2   force =    -0.00011359   -0.00056094    0.00009856
     atom   19 type  1   force =    -0.00030317    0.00031406    0.00011776
     atom   20 type  1   force =     0.00039909   -0.00010858   -0.00025351
     atom   21 type  2   force =    -0.00006504    0.00009547    0.09921018
     atom   22 type  2   force =    -0.00022302    0.00012802    0.00000906
     atom   23 type  2   force =    -0.08060064    0.00057683   -0.03415176
     atom   24 type  2   force =     0.08037413    0.00109859   -0.03419262
     atom   25 type  1   force =    -0.00021328   -0.00017776    0.14173377
     atom   26 type  1   force =    -0.00018877   -0.00685960   -0.15773052
     atom   27 type  2   force =     0.00043887    0.00017835   -0.05211082
     atom   28 type  2   force =     0.00043936    0.00035732    0.04188765
     atom   29 type  2   force =    -0.00940350    0.00597843    0.00165333
     atom   30 type  2   force =     0.00930987    0.00235091    0.00176307
     atom   31 type  1   force =    -0.00003094    0.00010225    0.00016169
     atom   32 type  1   force =     0.00002235   -0.00012151   -0.00010897
     atom   33 type  2   force =    -0.00006526   -0.00033247    0.00026277
     atom   34 type  2   force =    -0.00009760   -0.00005733    0.00001507
     atom   35 type  2   force =     0.00060415    0.00025449   -0.00008466
     atom   36 type  2   force =    -0.00017116    0.00015115    0.00004014
     atom   37 type  1   force =    -0.00038921    0.00047177   -0.00067513
     atom   38 type  1   force =     0.00023960   -0.00034004   -0.00010350
     atom   39 type  2   force =    -0.00006383   -0.00000611    0.00044207
     atom   40 type  2   force =     0.00012491   -0.00008455   -0.00041952
     atom   41 type  2   force =     0.00080497    0.00013003    0.00012673
     atom   42 type  2   force =    -0.00041814    0.00036497   -0.00001211
     atom   43 type  1   force =    -0.00058020   -0.00033821    0.00020090
     atom   44 type  1   force =    -0.00001518   -0.00020817   -0.00060133
     atom   45 type  2   force =    -0.00007801    0.00018422    0.09876299
     atom   46 type  2   force =    -0.08056525   -0.00155959   -0.03410378
     atom   47 type  2   force =     0.08036855   -0.00102595   -0.03418995
     atom   48 type  3   force =    -0.01875074   -0.00005411   -0.00159253
     atom   49 type  2   force =     0.00253957   -0.00029303   -0.00124465
     atom   50 type  4   force =     0.01015318    0.00047165    0.00066993
     atom   51 type  4   force =     0.00284358   -0.00286025    0.00166052
     atom   52 type  4   force =     0.00284241    0.00273145    0.00103881
     atom   53 type  5   force =     0.00102617    0.00011205    0.00074987
     atom   54 type  5   force =    -0.00132708    0.00000022   -0.00087463
     atom   55 type  2   force =    -0.00113157    0.00081765    0.00014130
     atom   56 type  4   force =     0.00041550   -0.00085056    0.00032183

     Total force =     0.384371     Total SCF correction =     0.000803
  @ DRIVER MODE: Message from server: STATUS
  @ DRIVER MODE: Message from server: GETFORCE
  @ DRIVER MODE: Returning v,forces,stress,ensemble

     Writing output data file ./calc.save/
  @ DRIVER MODE: Message from server: EXIT
  @ DRIVE MODE: Exiting

     General routines

     Parallel routines

   This run was terminated on:  12: 5: 6  23Sep2021

   JOB DONE.