     Program PWSCF v.6.7GPU starts on 22Sep2021 at  9: 7:13

     R & G space division:  proc/nbgrp/npool/nimage =      10
     Reading input from /storage/home/hcoda1/3/ntian30/research/carbon/CxH_vib/CH_calc/ads_slab/CHNHNH2H2O_b/out_0031/pw.inp
Warning: card &CELL ignored
Warning: card   CELL_DYNAMICS='IPI', ignored
Warning: card / ignored

     Current dimensions of program PWSCF are:
     Max number of different atomic species (ntypx) = 10
     Max number of k-points (npk) =  40000
     Max angular momentum in pseudopotentials (lmaxx) =  3
     Presently no symmetry can be used with electric field

     Message from routine cell_base_init:
     DEPRECATED: use true lattice parameter, not A to a.u. conversion factor

     IMPORTANT: XC functional enforced from input :
     Exchange-correlation= BEEF-VDW
                           (   1   4  43  14   2   0   0)
     Any further DFT definition will be discarded
     Please, verify this is what you really want

  @ DRIVER MODE: Connecting to
 qe_1139763_2927425.sched-torque.pace.gatech.edul2mu4nbc_scratch
  using UNIX socket
  @ DRIVER MODE: Message from server: STATUS
  @ DRIVER MODE: Message from server: INIT
  @ DRIVER MODE: Receiving replica           0          -1
  @ DRIVER MODE: Receiving encoded integer          25
  @ DRIVER MODE:  SCF:  T  FORCE:  T  STRESS:  F  VC:  F  ENSEMBLE:  F
  @ DRIVER MODE:  SCF:  T  FORCE:  T  STRESS:  F  VC:  F  ENSEMBLE:  F

     Using Slab Decomposition

     bravais-lattice index     =            0
     lattice parameter (alat)  =       1.8897  a.u.
     unit-cell volume          =    6658.9804 (a.u.)^3
     number of atoms/cell      =           57
     number of atomic types    =            5
     number of electrons       =       404.00
     number of Kohn-Sham states=          212
     kinetic-energy cutoff     =      29.3995  Ry
     charge density cutoff     =     293.9946  Ry
     scf convergence threshold =      7.3E-08
     mixing beta               =       0.0500
     number of iterations used =            8  plain     mixing
     Exchange-correlation= BEEF-VDW
                           (   1   4  43  14   2   0   0)

     celldm(1)=   1.889726  celldm(2)=   0.000000  celldm(3)=   0.000000
     celldm(4)=   0.000000  celldm(5)=   0.000000  celldm(6)=   0.000000

     crystal axes: (cart. coord. in units of alat)
               a(1) = (   6.579727   0.000000   0.000000 )
               a(2) = (  -0.000775   5.961596   0.000000 )
               a(3) = (   0.000000   0.000000  25.155947 )

     reciprocal axes: (cart. coord. in units 2 pi/alat)
               b(1) = (  0.151982  0.000020  0.000000 )
               b(2) = (  0.000000  0.167740  0.000000 )
               b(3) = (  0.000000  0.000000  0.039752 )

     PseudoPot. # 1 for Ti read from file:
     /storage/coda1/p-amedford6/0/shared/rich_project_chbe-medford/medford-share/data/pseudos_module/espresso/nninc/pbe/van/Ti.UPF
     MD5 check sum: 8e4df49b7f0d34bbd5052bf3f5ea0213
     Pseudo is Ultrasoft, Zval = 12.0
     Generated by new atomic code, or converted to UPF format
     Using radial grid of  851 points,  6 beta functions with:
                l(1) =   0
                l(2) =   0
                l(3) =   1
                l(4) =   1
                l(5) =   2
                l(6) =   2
     Q(r) pseudized with  8 coefficients,  rinner =    1.000   1.000   1.000
                                                       1.000   1.000

     PseudoPot. # 2 for O  read from file:
     /storage/coda1/p-amedford6/0/shared/rich_project_chbe-medford/medford-share/data/pseudos_module/espresso/nninc/pbe/van/O.UPF
     MD5 check sum: 78c19812648e8988a0fe644b0f25305e
     Pseudo is Ultrasoft, Zval =  6.0
     Generated by new atomic code, or converted to UPF format
     Using radial grid of  737 points,  4 beta functions with:
                l(1) =   0
                l(2) =   0
                l(3) =   1
                l(4) =   1
     Q(r) pseudized with  8 coefficients,  rinner =    0.800   0.800   0.800

     PseudoPot. # 3 for N  read from file:
     /storage/coda1/p-amedford6/0/shared/rich_project_chbe-medford/medford-share/data/pseudos_module/espresso/nninc/pbe/van/N.UPF
     MD5 check sum: 90d10febe142ad51ac9d5be1deb811c4
     Pseudo is Ultrasoft, Zval =  5.0
     Generated by new atomic code, or converted to UPF format
     Using radial grid of  729 points,  4 beta functions with:
                l(1) =   0
                l(2) =   0
                l(3) =   1
                l(4) =   1
     Q(r) pseudized with  8 coefficients,  rinner =    0.800   0.800   0.800

     PseudoPot. # 4 for C  read from file:
     /storage/coda1/p-amedford6/0/shared/rich_project_chbe-medford/medford-share/data/pseudos_module/espresso/nninc/pbe/van/C.UPF
     MD5 check sum: 1a69bf6b8db32088f5b2163dbdb77a27
     Pseudo is Ultrasoft, Zval =  4.0
     Generated by new atomic code, or converted to UPF format
     Using radial grid of  721 points,  4 beta functions with:
                l(1) =   0
                l(2) =   0
                l(3) =   1
                l(4) =   1
     Q(r) pseudized with  8 coefficients,  rinner =    0.800   0.800   0.800

     PseudoPot. # 5 for H  read from file:
     /storage/coda1/p-amedford6/0/shared/rich_project_chbe-medford/medford-share/data/pseudos_module/espresso/nninc/pbe/van/H.UPF
     MD5 check sum: b5ee9d7bfd3a09ee7748110bda690ff7
     Pseudo is Ultrasoft, Zval =  1.0
     Generated by new atomic code, or converted to UPF format
     Using radial grid of  615 points,  1 beta functions with:
                l(1) =   0
     Q(r) pseudized with  8 coefficients,  rinner =    0.800

     atomic species   valence    mass     pseudopotential
        Ti1           12.00    47.86700     Ti( 1.00)
        O1             6.00    15.99900     O ( 1.00)
        N1             5.00    14.00700     N ( 1.00)
        C1             4.00    12.01100     C ( 1.00)
        H1             1.00     1.00800     H ( 1.00)

     No symmetry found

   Cartesian axes

     site n.     atom                  positions (alat units)
         1           Ti1 tau(   1) = (   0.0004258   2.9801865   6.0000000  )
         2           Ti1 tau(   2) = (   3.2906075   1.4906267   6.0002472  )
         3           O1  tau(   3) = (   0.0006271   0.0005054   7.9858123  )
         4           O1  tau(   4) = (   3.2906025   0.0005020   7.3038282  )
         5           O1  tau(   5) = (   4.5942328   1.4918067   9.2879030  )
         6           O1  tau(   6) = (   1.9868534   1.4903216   9.2879459  )
         7           Ti1 tau(   7) = (   3.2907910   2.8959150   9.1758416  )
         8           Ti1 tau(   8) = (   0.0015273   1.4827037   9.2680791  )
         9           O1  tau(   9) = (   3.3066417   5.9496923  11.3845403  )
        10           O1  tau(  10) = (   0.0116148   5.9584955  10.6183126  )
        11           O1  tau(  11) = (   1.3010148   1.4986442  12.6442229  )
        12           O1  tau(  12) = (   5.3085967   1.5001388  12.6592367  )
        13           Ti1 tau(  13) = (   0.0282779   2.9853959  12.5065338  )
        14           Ti1 tau(  14) = (   3.3279724   1.4707331  12.5413945  )
        15           O1  tau(  15) = (   0.0378505   0.0859181  14.6860672  )
        16           O1  tau(  16) = (   3.3018867   0.0259462  14.0338077  )
        17           O1  tau(  17) = (   4.5998927   1.5484098  16.1661054  )
        18           O1  tau(  18) = (   2.0454451   1.5021798  16.2221046  )
        19           Ti1 tau(  19) = (   3.3206312   2.9825829  15.7321521  )
        20           Ti1 tau(  20) = (   0.0140791   1.4435866  15.9983415  )
        21           O1  tau(  21) = (   3.2904802   0.0005063   4.7018136  )
        22           O1  tau(  22) = (   6.5273045   5.8164216  17.2577718  )
        23           O1  tau(  23) = (   1.3043587   1.4918075   6.0039043  )
        24           O1  tau(  24) = (   5.2767064   1.4903225   6.0039473  )
        25           Ti1 tau(  25) = (   0.0000382   5.9609847   6.0000000  )
        26           Ti1 tau(  26) = (   3.2902200   4.4714249   6.0002472  )
        27           O1  tau(  27) = (   0.0002396   2.9813036   7.9858123  )
        28           O1  tau(  28) = (   3.2902150   2.9813002   7.3038282  )
        29           O1  tau(  29) = (   4.5938453   4.4726049   9.2879030  )
        30           O1  tau(  30) = (   1.9864658   4.4711199   9.2879459  )
        31           Ti1 tau(  31) = (   3.2891106   5.8743827   9.1763621  )
        32           Ti1 tau(  32) = (   0.0006254   4.4649316   9.2693709  )
        33           O1  tau(  33) = (   3.3068470   2.9864458  11.3814114  )
        34           O1  tau(  34) = (   0.0092240   2.9805883  10.6323155  )
        35           O1  tau(  35) = (   1.2982948   4.4740332  12.6840172  )
        36           O1  tau(  36) = (   5.3097620   4.4704985  12.6972095  )
        37           Ti1 tau(  37) = (   0.0348817   0.0130325  12.4954113  )
        38           Ti1 tau(  38) = (   3.3270268   4.4633798  12.5435021  )
        39           O1  tau(  39) = (   0.0563025   2.9439880  14.9425960  )
        40           O1  tau(  40) = (   3.2900316   2.9661073  13.9503945  )
        41           O1  tau(  41) = (   4.5967999   4.4093095  16.0633277  )
        42           O1  tau(  42) = (   2.0412097   4.4536800  16.1303113  )
        43           Ti1 tau(  43) = (   3.2964201   5.9600488  15.8742613  )
        44           Ti1 tau(  44) = (   0.0241369   4.6516137  15.8518307  )
        45           O1  tau(  45) = (   3.2900926   2.9813045   4.7018136  )
        46           O1  tau(  46) = (   1.3039711   4.4726057   6.0039043  )
        47           O1  tau(  47) = (   5.2763189   4.4711207   6.0039473  )
        48           N1  tau(  48) = (   1.4509408   2.7109095  18.7602185  )
        49           N1  tau(  49) = (   0.0917387   2.5303350  18.2207845  )
        50           C1  tau(  50) = (   1.9503960   3.7723240  19.2784661  )
        51           H1  tau(  51) = (   1.1612915   4.5273475  19.4152495  )
        52           H1  tau(  52) = (   2.0208952   1.9183395  18.4664618  )
        53           H1  tau(  53) = (   6.1277449   3.3539424  18.4987646  )
        54           H1  tau(  54) = (   6.2616785   1.7135167  18.6767212  )
        55           O1  tau(  55) = (   3.7012217   5.9496235  18.2853534  )
        56           H1  tau(  56) = (   4.6684668   5.8470116  18.1670174  )
        57           H1  tau(  57) = (   3.3852657   5.1278045  18.7338684  )

     number of k points=    10  Fermi-Dirac smearing, width (Ry)=  0.0073
                       cart. coord. in units 2pi/alat
        k(    1) = (   0.0000000   0.0000000   0.0000000), wk =   0.1250000
        k(    2) = (   0.0000000   0.0419351   0.0000000), wk =   0.2500000
        k(    3) = (   0.0000000  -0.0838702   0.0000000), wk =   0.1250000
        k(    4) = (   0.0379955   0.0000049   0.0000000), wk =   0.2500000
        k(    5) = (   0.0379955   0.0419400   0.0000000), wk =   0.2500000
        k(    6) = (   0.0379955  -0.0838652   0.0000000), wk =   0.2500000
        k(    7) = (   0.0379955  -0.0419301   0.0000000), wk =   0.2500000
        k(    8) = (  -0.0759910  -0.0000099   0.0000000), wk =   0.1250000
        k(    9) = (  -0.0759910   0.0419252   0.0000000), wk =   0.2500000
        k(   10) = (  -0.0759910  -0.0838800   0.0000000), wk =   0.1250000

     Initial potential from superposition of free atoms

     starting charge  387.99913, renormalised to  404.00000

     negative rho (up, down):  1.598E-02 0.000E+00

     %%%%%%%%%%%%%%%%%%%%%%%%%%%%%%%%%%%%%%%%%%%%%%%%%%%%%%%%%%%%%%%%%%%%%%%%
     %                                                                      %
     % You are using vdW-DF, which was implemented by the Thonhauser group. %
     % Please cite the following two papers that made this development      %
     % possible and the two reviews that describe the various versions:     %
     %                                                                      %
     %   T. Thonhauser et al., PRL 115, 136402 (2015).                      %
     %   T. Thonhauser et al., PRB 76, 125112 (2007).                       %
     %   K. Berland et al., Rep. Prog. Phys. 78, 066501 (2015).             %
     %   D.C. Langreth et al., J. Phys.: Condens. Matter 21, 084203 (2009). %
     %                                                                      %
     %                                                                      %
     % If you are calculating the stress with vdW-DF, please also cite:     %
     %                                                                      %
     %   R. Sabatini et al., J. Phys.: Condens. Matter 24, 424209 (2012).   %
     %                                                                      %
     %%%%%%%%%%%%%%%%%%%%%%%%%%%%%%%%%%%%%%%%%%%%%%%%%%%%%%%%%%%%%%%%%%%%%%%%

     Adding external electric field

     Computed dipole along edir(3) :
        Dipole              -14.3585 Ry au,        -36.4957 Debye
        Dipole field         -0.0271 Ry au,

        Potential amp.        2.5118 Ry
        Total length         46.3494 bohr

     Starting wfcs are  306 atomic wfcs
  @ DRIVER MODE: Message from server: STATUS
  @ DRIVER MODE: Message from server: POSDATA
  @ DRIVER MODE: Reading and sharing cell
  @ DRIVER MODE: Reading and sharing positions
  @ DRIVER MODE: Received positions

     Self-consistent Calculation

     iteration #  1     ecut=    29.40 Ry     beta= 0.05
     Davidson diagonalization with overlap
     c_bands:  3 eigenvalues not converged
     c_bands:  4 eigenvalues not converged
     c_bands:  4 eigenvalues not converged
     c_bands:  4 eigenvalues not converged
     c_bands:  5 eigenvalues not converged
     c_bands:  3 eigenvalues not converged
     c_bands:  2 eigenvalues not converged
     c_bands:  4 eigenvalues not converged
     ethr =  1.00E-05,  avg # of iterations = 21.9

[...]

     total energy              =   -2220.95593720 Ry
     estimated scf accuracy    <    8587.34703046 Ry

     iteration #  2     ecut=    29.40 Ry     beta= 0.05
     Davidson diagonalization with overlap
     ethr =  1.00E-02,  avg # of iterations = 28.8

[...]

     iteration # 71     ecut=    29.40 Ry     beta= 0.05
     Davidson diagonalization with overlap
     ethr =  4.13E-11,  avg # of iterations =  9.9

[...]

     total energy              =   -2975.10524035 Ry
     estimated scf accuracy    <       0.00000008 Ry

     iteration # 72     ecut=    29.40 Ry     beta= 0.05
     Davidson diagonalization with overlap
     c_bands:  2 eigenvalues not converged
     ethr =  1.93E-11,  avg # of iterations = 12.1

     negative rho (up, down):  1.579E-02 0.000E+00

     Adding external electric field

     Computed dipole along edir(3) :
        Dipole                1.0232 Ry au,          2.6008 Debye
        Dipole field          0.0019 Ry au,

        Potential amp.       -0.1790 Ry
        Total length         46.3494 bohr

     End of self-consistent calculation

          k = 0.0000 0.0000 0.0000 ( 18029 PWs)   bands (ev):

   -55.3847 -55.3489 -55.3448 -55.3107 -55.3077 -55.3020 -55.2669 -55.2316
   -55.2164 -55.1816 -55.1747 -55.1595 -55.1410 -55.1116 -54.3759 -54.3419
   -31.9438 -31.8797 -31.8375 -31.7566 -31.7076 -31.7050 -31.6806 -31.6778
   -31.6336 -31.5979 -31.5909 -31.5894 -31.5825 -31.5791 -31.5609 -31.5588
   -31.5342 -31.5261 -31.5232 -31.5119 -31.4975 -31.4911 -31.4722 -31.4672
   -31.4588 -31.4460 -31.4454 -31.4166 -31.4021 -31.3985 -31.3953 -31.3731
   -31.3694 -31.3652 -31.3617 -31.3404 -31.3295 -31.3174 -31.3024 -31.3024
   -31.2921 -31.2858 -30.7854 -30.6909 -30.6689 -30.6017 -30.5150 -30.4041
   -18.8716 -18.4569 -16.2197 -15.9723 -15.8363 -15.7319 -15.5943 -15.4963
   -15.3871 -15.2739 -15.2508 -15.1568 -15.0828 -15.0789 -15.0419 -15.0160
   -14.9532 -14.9319 -14.9081 -14.9022 -14.8875 -14.8774 -14.8409 -14.8299
   -14.7959 -14.7859 -14.7686 -14.6417 -14.6256 -14.5514 -14.4807 -14.3426
   -12.8785 -12.7611  -9.8308  -6.9942  -6.3779  -6.0699  -4.4278  -3.7274
    -3.5432  -3.4099  -3.3317  -3.3024  -3.2850  -3.1537  -3.0614  -2.9018
    -2.8629  -2.8066  -2.6733  -2.5975  -2.5910  -2.5032  -2.4306  -2.4073
    -2.3743  -2.2653  -2.2588  -2.2093  -2.1916  -2.1685  -2.1593  -2.1126
    -2.0665  -2.0395  -1.9543  -1.8529  -1.8092  -1.7895  -1.7530  -1.7303
    -1.7255  -1.6818  -1.6755  -1.6522  -1.6133  -1.5890  -1.5434  -1.4314
    -1.3905  -1.2314  -1.1940  -1.0395  -1.0192  -0.9800  -0.9596  -0.9225
    -0.8931  -0.8768  -0.8611  -0.7716  -0.7135  -0.6473  -0.5833  -0.4923
    -0.4818  -0.4080  -0.3821  -0.3171  -0.2296  -0.1848  -0.1752  -0.1505
    -0.1471  -0.0335   0.0115   0.0715   0.0902   0.1477   0.1635   0.1857
     0.2558   0.3092   0.3787   0.4096   0.4887   0.5068   0.5419   0.5511
     0.5834   0.5940   0.6702   0.6849   0.7131   0.8158   0.9132   1.0065
     1.2166   1.2189   1.2529   1.5514   1.5536   1.6469   1.8303   2.2232
     2.2716   3.7050   3.7834   3.8329   3.8506   3.8551   3.9400   4.1945
     4.2089   4.2215   4.2277   4.2686

[...]

          k = 0.0380-0.0419 0.0000 ( 17876 PWs)   bands (ev):

[...]

          k =-0.0760-0.0000 0.0000 ( 17886 PWs)   bands (ev):

[...]

          k =-0.0760-0.0839 0.0000 ( 17948 PWs)   bands (ev):

   -55.3679 -55.3656 -55.3279 -55.3275 -55.3048 -55.3011 -55.2532 -55.2452
   -55.2021 -55.1956 -55.1613 -55.1588 -55.1571 -55.1134 -54.3588 -54.3588
   -31.7944 -31.7562 -31.7421 -31.6527 -31.6524 -31.6382 -31.6263 -31.6190
   -31.6187 -31.5981 -31.5931 -31.5899 -31.5670 -31.5592 -31.5473 -31.5334
   -31.5303 -31.5277 -31.5237 -31.5156 -31.5110 -31.5088 -31.5079 -31.4999
   -31.4682 -31.4668 -31.4477 -31.4473 -31.4472 -31.4422 -31.4395 -31.4349
   -31.4257 -31.4141 -31.4086 -31.3916 -31.3899 -31.3798 -31.3387 -31.3376
   -31.3371 -31.3181 -30.6815 -30.6815 -30.5980 -30.5978 -30.5584 -30.5583
   -18.8657 -18.4594 -15.8392 -15.6526 -15.5012 -15.4294 -15.4090 -15.3259
   -15.2706 -15.2673 -15.1942 -15.1761 -15.1637 -15.1421 -15.1325 -15.0850
   -15.0480 -15.0113 -14.9926 -14.9699 -14.9268 -14.9040 -14.9024 -14.8956
   -14.8879 -14.8476 -14.8423 -14.8390 -14.7472 -14.7453 -14.7021 -14.5549
   -12.8625 -12.8625  -9.8402  -6.9834  -6.3528  -6.0454  -4.4413  -3.6543
    -3.0239  -2.9107  -2.9001  -2.6713  -2.6528  -2.5918  -2.5792  -2.4913
    -2.4755  -2.4149  -2.3914  -2.3414  -2.3184  -2.2806  -2.2667  -2.2449
    -2.2238  -2.2101  -2.1838  -2.1675  -2.1508  -2.1311  -2.1198  -2.1085
    -2.0533  -2.0475  -2.0386  -2.0133  -1.9903  -1.9542  -1.9441  -1.9281
    -1.7725  -1.7569  -1.7355  -1.5999  -1.5956  -1.5616  -1.5214  -1.4938
    -1.4361  -1.4272  -1.3992  -1.3407  -1.1466  -1.1362  -1.1239  -1.1061
    -1.0350  -0.9795  -0.9656  -0.9477  -0.8940  -0.8159  -0.7817  -0.7297
    -0.6406  -0.5887  -0.5791  -0.5533  -0.4320  -0.4092  -0.3667  -0.3484
    -0.3323  -0.2979  -0.2963  -0.2391  -0.1864  -0.1507  -0.1277  -0.1135
    -0.0766   0.0781   0.1303   0.1465   0.2612   0.2902   0.4682   0.5110
     0.5326   0.6377   0.7212   0.7489   0.7636   0.8893   0.9113   0.9137
     0.9819   1.0041   1.0643   1.0700   1.2096   2.0030   2.0043   2.0914
     2.0916   3.8301   3.9530   3.9971   4.0330   4.1092   4.1617   4.2188
     4.2778   4.2901   4.2932   4.3625

     the Fermi energy is     3.7671 ev

!    total energy              =   -2975.10525670 Ry
     estimated scf accuracy    <       0.00000005 Ry
     smearing contrib. (-TS)   =      -0.03671855 Ry
     internal energy E=F+TS    =   -2975.06853815 Ry

     The total energy is F=E-TS. E is the sum of the following terms:
     one-electron contribution =  -23505.38105814 Ry
     hartree contribution      =   11848.71667695 Ry
     xc contribution           =    -494.91348874 Ry
     ewald contribution        =    9176.50735601 Ry
     electric field correction =       0.00197577 Ry

     convergence has been achieved in  72 iterations

     Forces acting on atoms (cartesian axes, Ry/au):

     atom    1 type  1   force =     0.00002999   -0.00025584    0.09308304
     atom    2 type  1   force =    -0.00018770   -0.00032696   -0.17838074
     atom    3 type  2   force =     0.00006138   -0.00016906   -0.02025247
     atom    4 type  2   force =     0.00001723   -0.00203803    0.05924254
     atom    5 type  2   force =    -0.01032646   -0.00110566    0.00808250
     atom    6 type  2   force =     0.01216905   -0.00054919    0.00816203
     atom    7 type  1   force =     0.00015188    0.00329274   -0.01112547
     atom    8 type  1   force =    -0.00030288    0.00052671   -0.00562385
     atom    9 type  2   force =     0.00004117    0.00017733   -0.00014841
     atom   10 type  2   force =    -0.00146433   -0.00003402   -0.00171849
     atom   11 type  2   force =     0.00038620   -0.00003469   -0.00006322
     atom   12 type  2   force =    -0.00010233    0.00010651   -0.00009207
     atom   13 type  1   force =    -0.00009280   -0.00017050   -0.00023617
     atom   14 type  1   force =    -0.00021355   -0.00036293    0.00035099
     atom   15 type  2   force =     0.00006756   -0.00049558    0.00006325
     atom   16 type  2   force =     0.00022119    0.00008945    0.00024923
     atom   17 type  2   force =     0.00036920   -0.00015075    0.00020964
     atom   18 type  2   force =    -0.00004956   -0.00012856   -0.00012010
     atom   19 type  1   force =    -0.00032404   -0.00045846   -0.00002923
     atom   20 type  1   force =     0.00014866    0.00028171    0.00061843
     atom   21 type  2   force =    -0.00000353   -0.00007669    0.10404528
     atom   22 type  2   force =    -0.00012522   -0.00007538   -0.00017109
     atom   23 type  2   force =    -0.07033942   -0.00016595   -0.02683903
     atom   24 type  2   force =     0.07020735    0.00028165   -0.02691487
     atom   25 type  1   force =     0.00002107   -0.00015705    0.09275119
     atom   26 type  1   force =    -0.00015675   -0.00039511   -0.17832445
     atom   27 type  2   force =     0.00011140   -0.00031175   -0.01918498
     atom   28 type  2   force =     0.00004685   -0.00163447    0.05839748
     atom   29 type  2   force =    -0.01027853   -0.00064364    0.00729007
     atom   30 type  2   force =     0.01201316   -0.00031055    0.00742408
     atom   31 type  1   force =     0.00007861    0.00515099   -0.01466609
     atom   32 type  1   force =    -0.00013861   -0.00051546   -0.00596870
     atom   33 type  2   force =     0.00012679   -0.00039598   -0.00023279
     atom   34 type  2   force =    -0.00078828    0.00260580   -0.00104016
     atom   35 type  2   force =    -0.00006582   -0.00011566   -0.00012423
     atom   36 type  2   force =     0.00023283    0.00000143   -0.00014971
     atom   37 type  1   force =    -0.00044127    0.00007931    0.00002825
     atom   38 type  1   force =    -0.00002845   -0.00024181   -0.00023497
     atom   39 type  2   force =    -0.00031040   -0.00021022   -0.00018874
     atom   40 type  2   force =    -0.00013289   -0.00005850   -0.00003951
     atom   41 type  2   force =    -0.00012756   -0.00016839    0.00040725
     atom   42 type  2   force =    -0.00005530   -0.00025532    0.00013218
     atom   43 type  1   force =    -0.00002201   -0.00030289    0.00008279
     atom   44 type  1   force =     0.00004889   -0.00000955    0.00025829
     atom   45 type  2   force =     0.00001047   -0.00010950    0.10401118
     atom   46 type  2   force =    -0.07036489   -0.00011415   -0.02686268
     atom   47 type  2   force =     0.07021149    0.00032125   -0.02692216
     atom   48 type  3   force =    -0.00090958    0.00218857    0.00083212
     atom   49 type  3   force =    -0.00611740    0.00421717    0.00179039
     atom   50 type  4   force =     0.00049700    0.00115633    0.00062163
     atom   51 type  5   force =     0.00005578   -0.00072899   -0.00042877
     atom   52 type  5   force =    -0.00023355   -0.00112743   -0.00039910
     atom   53 type  5   force =     0.00584743   -0.00554596   -0.00176300
     atom   54 type  5   force =     0.00062200    0.00004125   -0.00018679
     atom   55 type  2   force =     0.00011359   -0.00009807    0.00058596
     atom   56 type  5   force =     0.00025679   -0.00033863   -0.00042720
     atom   57 type  5   force =    -0.00046194   -0.00013086    0.00013943

     Total force =     0.366376     Total SCF correction =     0.000641
  @ DRIVER MODE: Message from server: STATUS
  @ DRIVER MODE: Message from server: GETFORCE
  @ DRIVER MODE: Returning v,forces,stress,ensemble

     Writing output data file ./calc.save/
  @ DRIVER MODE: Message from server: EXIT
  @ DRIVE MODE: Exiting

     General routines

     Parallel routines

   This run was terminated on:   9:27:11  22Sep2021

   JOB DONE.