     Program PWSCF v.6.7GPU starts on 18Oct2021 at 22:20:22

     R & G space division:  proc/nbgrp/npool/nimage =       8
     Reading input from /storage/home/hcoda1/3/ntian30/research/carbon/CxH_vib/Thiel_calc/ads_slab/NH2HNH_perslab/out_0023/pw.inp
Warning: card &CELL ignored
Warning: card   CELL_DYNAMICS='IPI', ignored
Warning: card / ignored

     Current dimensions of program PWSCF are:
     Max number of different atomic species (ntypx) = 10
     Max number of k-points (npk) =  40000
     Max angular momentum in pseudopotentials (lmaxx) =  3
     Presently no symmetry can be used with electric field

     Message from routine cell_base_init:
     DEPRECATED: use true lattice parameter, not A to a.u. conversion factor

     IMPORTANT: XC functional enforced from input :
     Exchange-correlation= BEEF-VDW
                           (   1   4  43  14   2   0   0)
     Any further DFT definition will be discarded
     Please, verify this is what you really want

  @ DRIVER MODE: Connecting to
 qe_1139763_3255135.sched-torque.pace.gatech.edulffgtgfd_scratch
  using UNIX socket
  @ DRIVER MODE: Message from server: STATUS
  @ DRIVER MODE: Message from server: INIT
  @ DRIVER MODE: Receiving replica           0          -1
  @ DRIVER MODE: Receiving encoded integer          25
  @ DRIVER MODE:  SCF:  T  FORCE:  T  STRESS:  F  VC:  F  ENSEMBLE:  F
  @ DRIVER MODE:  SCF:  T  FORCE:  T  STRESS:  F  VC:  F  ENSEMBLE:  F

     Using Slab Decomposition

     bravais-lattice index     =            0
     lattice parameter (alat)  =       1.8897  a.u.
     unit-cell volume          =    9988.4706 (a.u.)^3
     number of atoms/cell      =           59
     number of atomic types    =            4
     number of electrons       =       440.00
     number of Kohn-Sham states=          230
     kinetic-energy cutoff     =      29.3995  Ry
     charge density cutoff     =     293.9946  Ry
     scf convergence threshold =      7.3E-08
     mixing beta               =       0.0500
     number of iterations used =            8  plain     mixing
     Exchange-correlation= BEEF-VDW
                           (   1   4  43  14   2   0   0)

     celldm(1)=   1.889726  celldm(2)=   0.000000  celldm(3)=   0.000000
     celldm(4)=   0.000000  celldm(5)=   0.000000  celldm(6)=   0.000000

     crystal axes: (cart. coord. in units of alat)
               a(1) = (   6.579727   0.000000   0.000000 )
               a(2) = (  -0.001163   8.942395   0.000000 )
               a(3) = (   0.000000   0.000000  25.155947 )

     reciprocal axes: (cart. coord. in units 2 pi/alat)
               b(1) = (  0.151982  0.000020  0.000000 )
               b(2) = (  0.000000  0.111827  0.000000 )
               b(3) = (  0.000000  0.000000  0.039752 )

     PseudoPot. # 1 for O  read from file:
     /storage/coda1/p-amedford6/0/shared/rich_project_chbe-medford/medford-share/data/pseudos_module/espresso/nninc/pbe/van/O.UPF
     MD5 check sum: 78c19812648e8988a0fe644b0f25305e
     Pseudo is Ultrasoft, Zval =  6.0
     Generated by new atomic code, or converted to UPF format
     Using radial grid of  737 points,  4 beta functions with:
                l(1) =   0
                l(2) =   0
                l(3) =   1
                l(4) =   1
     Q(r) pseudized with  8 coefficients,  rinner =    0.800   0.800   0.800

     PseudoPot. # 2 for Ti read from file:
     /storage/coda1/p-amedford6/0/shared/rich_project_chbe-medford/medford-share/data/pseudos_module/espresso/nninc/pbe/van/Ti.UPF
     MD5 check sum: 8e4df49b7f0d34bbd5052bf3f5ea0213
     Pseudo is Ultrasoft, Zval = 12.0
     Generated by new atomic code, or converted to UPF format
     Using radial grid of  851 points,  6 beta functions with:
                l(1) =   0
                l(2) =   0
                l(3) =   1
                l(4) =   1
                l(5) =   2
                l(6) =   2
     Q(r) pseudized with  8 coefficients,  rinner =    1.000   1.000   1.000
                                                       1.000   1.000

     PseudoPot. # 3 for H  read from file:
     /storage/coda1/p-amedford6/0/shared/rich_project_chbe-medford/medford-share/data/pseudos_module/espresso/nninc/pbe/van/H.UPF
     MD5 check sum: b5ee9d7bfd3a09ee7748110bda690ff7
     Pseudo is Ultrasoft, Zval =  1.0
     Generated by new atomic code, or converted to UPF format
     Using radial grid of  615 points,  1 beta functions with:
                l(1) =   0
     Q(r) pseudized with  8 coefficients,  rinner =    0.800

     PseudoPot. # 4 for N  read from file:
     /storage/coda1/p-amedford6/0/shared/rich_project_chbe-medford/medford-share/data/pseudos_module/espresso/nninc/pbe/van/N.UPF
     MD5 check sum: 90d10febe142ad51ac9d5be1deb811c4
     Pseudo is Ultrasoft, Zval =  5.0
     Generated by new atomic code, or converted to UPF format
     Using radial grid of  729 points,  4 beta functions with:
                l(1) =   0
                l(2) =   0
                l(3) =   1
                l(4) =   1
     Q(r) pseudized with  8 coefficients,  rinner =    0.800   0.800   0.800

     atomic species   valence    mass     pseudopotential
        O1             6.00    15.99900     O ( 1.00)
        Ti1           12.00    47.86700     Ti( 1.00)
        H1             1.00     1.00800     H ( 1.00)
        N1             5.00    14.00700     N ( 1.00)

     No symmetry found

   Cartesian axes

     site n.     atom                  positions (alat units)
         1           O1  tau(   1) = (   0.0007354   0.0005023  10.5931620  )
         2           O1  tau(   2) = (   3.2891522   8.9193323  13.7813865  )
         3           O1  tau(   3) = (  -0.0003195   8.9357148  17.1597790  )
         4           O1  tau(   4) = (   0.0006271   0.0005054   7.9858123  )
         5           O1  tau(   5) = (   3.2896276   8.9330874  11.1456747  )
         6           O1  tau(   6) = (   0.0000757   8.8957392  14.5326415  )
         7           O1  tau(   7) = (   1.9868534   1.4903216   9.2879459  )
         8           O1  tau(   8) = (   5.2085136   1.5567490  12.5272226  )
         9           O1  tau(   9) = (   2.0368910   1.4086519  15.9478609  )
        10           Ti1 tau(  10) = (   0.0007404   1.4906270   9.2895810  )
        11           Ti1 tau(  11) = (   3.2920048   1.2896434  12.4335303  )
        12           Ti1 tau(  12) = (   0.0003947   1.7483972  15.9485354  )
        13           O1  tau(  13) = (   4.5942328   1.4918067   9.2879030  )
        14           O1  tau(  14) = (   1.3734151   1.5562871  12.5269411  )
        15           O1  tau(  15) = (   4.5446063   1.4075665  15.9467422  )
        16           Ti1 tau(  16) = (   3.2902859   2.9801868   9.2893338  )
        17           Ti1 tau(  17) = (   0.0022843   2.7629733  12.5422407  )
        18           Ti1 tau(  18) = (   3.2887740   3.1097933  15.6402895  )
        19           O1  tau(  19) = (   0.0003479   2.9813005  10.5931620  )
        20           O1  tau(  20) = (   3.2903674   2.9527630  13.7969158  )
        21           O1  tau(  21) = (   0.0002396   2.9813036   7.9858123  )
        22           O1  tau(  22) = (   3.2906228   2.9775883  11.1663003  )
        23           O1  tau(  23) = (   0.0006598   2.9368866  14.5305733  )
        24           O1  tau(  24) = (   1.9864658   4.4711199   9.2879459  )
        25           O1  tau(  25) = (   5.2231876   4.5386380  12.5467233  )
        26           O1  tau(  26) = (   2.0248981   4.3679406  15.9930346  )
        27           Ti1 tau(  27) = (   0.0003529   4.4714252   9.2895810  )
        28           Ti1 tau(  28) = (   3.2918124   4.3135021  12.5344809  )
        29           Ti1 tau(  29) = (   6.5788423   4.6929592  16.0739603  )
        30           O1  tau(  30) = (   4.5938453   4.4726049   9.2879030  )
        31           O1  tau(  31) = (   1.3570704   4.5373869  12.5465102  )
        32           O1  tau(  32) = (   4.5538814   4.3671241  15.9936543  )
        33           Ti1 tau(  33) = (   3.2898983   5.9609850   9.2893338  )
        34           Ti1 tau(  34) = (   0.0013264   5.7428985  12.5110789  )
        35           Ti1 tau(  35) = (   3.2898306   6.0937744  16.2866611  )
        36           O1  tau(  36) = (  -0.0000397   5.9620987  10.5931620  )
        37           O1  tau(  37) = (   3.2897329   5.8964334  13.7986068  )
        38           O1  tau(  38) = (  -0.0007474   6.0119579  17.1634496  )
        39           O1  tau(  39) = (  -0.0001480   5.9621018   7.9858123  )
        40           O1  tau(  40) = (   3.2898370   5.9388437  11.1687384  )
        41           O1  tau(  41) = (  -0.0001539   5.9931028  14.5676369  )
        42           O1  tau(  42) = (   1.9860782   7.4519181   9.2879459  )
        43           O1  tau(  43) = (   5.2258842   7.5046952  12.5406166  )
        44           O1  tau(  44) = (   2.0242945   7.4351242  16.0034066  )
        45           Ti1 tau(  45) = (  -0.0000347   7.4522234   9.2895810  )
        46           Ti1 tau(  46) = (   3.2896699   7.1866417  12.6007890  )
        47           Ti1 tau(  47) = (   0.0000787   7.5542351  15.7482610  )
        48           O1  tau(  48) = (   4.5934577   7.4534031   9.2879030  )
        49           O1  tau(  49) = (   1.3527639   7.5038087  12.5404143  )
        50           O1  tau(  50) = (   4.5545665   7.4356877  16.0029592  )
        51           Ti1 tau(  51) = (   3.2895107   8.9417832   9.2893338  )
        52           Ti1 tau(  52) = (  -0.0005703   8.7121504  12.4856418  )
        53           Ti1 tau(  53) = (   3.2909615   0.1005107  15.6284087  )
        54           H1  tau(  54) = (   6.5785809   3.1351568  18.2688824  )
        55           H1  tau(  55) = (   6.5783155   8.7923607  18.1116139  )
        56           N1  tau(  56) = (  -0.0001347   2.9716693  17.2674093  )
        57           N1  tau(  57) = (   3.2897564   5.9921341  18.1700631  )
        58           H1  tau(  58) = (   3.2887465   5.1266479  18.7045293  )
        59           H1  tau(  59) = (   3.2892443   6.7858760  18.8071070  )

     number of k points=    10  Fermi-Dirac smearing, width (Ry)=  0.0073
                       cart. coord. in units 2pi/alat
        k(    1) = (   0.0000000   0.0000000   0.0000000), wk =   0.1250000
        k(    2) = (   0.0000000   0.0279567   0.0000000), wk =   0.2500000
        k(    3) = (   0.0000000  -0.0559134   0.0000000), wk =   0.1250000
        k(    4) = (   0.0379955   0.0000049   0.0000000), wk =   0.2500000
        k(    5) = (   0.0379955   0.0279617   0.0000000), wk =   0.2500000
        k(    6) = (   0.0379955  -0.0559085   0.0000000), wk =   0.2500000
        k(    7) = (   0.0379955  -0.0279518   0.0000000), wk =   0.2500000
        k(    8) = (  -0.0759910  -0.0000099   0.0000000), wk =   0.1250000
        k(    9) = (  -0.0759910   0.0279468   0.0000000), wk =   0.2500000
        k(   10) = (  -0.0759910  -0.0559233   0.0000000), wk =   0.1250000

     Initial potential from superposition of free atoms

     starting charge  421.99910, renormalised to  440.00000

     negative rho (up, down):  3.701E-02 0.000E+00

     %%%%%%%%%%%%%%%%%%%%%%%%%%%%%%%%%%%%%%%%%%%%%%%%%%%%%%%%%%%%%%%%%%%%%%%%
     %                                                                      %
     % You are using vdW-DF, which was implemented by the Thonhauser group. %
     % Please cite the following two papers that made this development      %
     % possible and the two reviews that describe the various versions:     %
     %                                                                      %
     %   T. Thonhauser et al., PRL 115, 136402 (2015).                      %
     %   T. Thonhauser et al., PRB 76, 125112 (2007).                       %
     %   K. Berland et al., Rep. Prog. Phys. 78, 066501 (2015).             %
     %   D.C. Langreth et al., J. Phys.: Condens. Matter 21, 084203 (2009). %
     %                                                                      %
     %                                                                      %
     % If you are calculating the stress with vdW-DF, please also cite:     %
     %                                                                      %
     %   R. Sabatini et al., J. Phys.: Condens. Matter 24, 424209 (2012).   %
     %                                                                      %
     %%%%%%%%%%%%%%%%%%%%%%%%%%%%%%%%%%%%%%%%%%%%%%%%%%%%%%%%%%%%%%%%%%%%%%%%

     Adding external electric field

     Computed dipole along edir(3) :
        Dipole               -3.9384 Ry au,        -10.0104 Debye
        Dipole field         -0.0050 Ry au,

        Potential amp.        0.4593 Ry
        Total length         46.3494 bohr

     Starting wfcs are  332 atomic wfcs
  @ DRIVER MODE: Message from server: STATUS
  @ DRIVER MODE: Message from server: POSDATA
  @ DRIVER MODE: Reading and sharing cell
  @ DRIVER MODE: Reading and sharing positions
  @ DRIVER MODE: Received positions

     Self-consistent Calculation

     iteration #  1     ecut=    29.40 Ry     beta= 0.05
     Davidson diagonalization with overlap
     c_bands:  1 eigenvalues not converged
     c_bands:  2 eigenvalues not converged
     c_bands:  4 eigenvalues not converged
     c_bands:  3 eigenvalues not converged
     c_bands:  3 eigenvalues not converged
     c_bands:  4 eigenvalues not converged
     c_bands:  3 eigenvalues not converged
     c_bands:  2 eigenvalues not converged
     ethr =  1.00E-05,  avg # of iterations = 20.0

[...]

     total energy              =   -3294.67258782 Ry
     estimated scf accuracy    <      19.61709788 Ry

     iteration #  2     ecut=    29.40 Ry     beta= 0.05
     Davidson diagonalization with overlap
     ethr =  4.46E-03,  avg # of iterations =  1.0

[...]

     iteration # 35     ecut=    29.40 Ry     beta= 0.05
     Davidson diagonalization with overlap
     c_bands:  1 eigenvalues not converged
     ethr =  5.17E-07,  avg # of iterations =  8.5

[...]

     total energy              =   -3293.29214583 Ry
     estimated scf accuracy    <       0.00000049 Ry

     iteration # 60     ecut=    29.40 Ry     beta= 0.05
     Davidson diagonalization with overlap
     ethr =  4.74E-11,  avg # of iterations =  5.0

     negative rho (up, down):  3.604E-02 0.000E+00

     Adding external electric field

     Computed dipole along edir(3) :
        Dipole                1.3087 Ry au,          3.3264 Debye
        Dipole field          0.0016 Ry au,

        Potential amp.       -0.1526 Ry
        Total length         46.3494 bohr

     End of self-consistent calculation

          k = 0.0000 0.0000 0.0000 ( 26871 PWs)   bands (ev):

   -58.2898 -58.2659 -58.2621 -58.2024 -58.1539 -57.7856 -57.7653 -57.7492
   -57.6147 -57.5846 -57.5640 -57.4970 -57.4815 -56.8936 -56.8701 -56.8442
   -56.8365 -56.8292 -34.6808 -34.6538 -34.6237 -34.6120 -34.6064 -34.6012
   -34.5381 -34.4749 -34.4650 -34.4020 -34.3983 -34.3954 -34.3814 -34.3510
   -34.3265 -34.1880 -34.1419 -34.1369 -34.1162 -34.0890 -34.0745 -34.0709
   -34.0482 -34.0129 -34.0008 -33.9551 -33.9117 -33.8670 -33.8527 -33.8431
   -33.8217 -33.8197 -33.7730 -33.7500 -33.7369 -33.7359 -33.6895 -33.6830
   -33.6652 -33.3551 -33.2148 -33.2066 -33.1948 -33.1804 -33.1737 -33.1687
   -33.1554 -33.1117 -33.0778 -33.0737 -33.0207 -33.0183 -33.0010 -32.8778
   -18.9077 -18.8197 -18.3643 -18.2885 -18.1673 -18.1119 -18.1056 -18.0395
   -17.9372 -17.7164 -17.6762 -17.6675 -17.6390 -17.5316 -17.5234 -17.5180
   -17.4854 -17.4790 -17.4665 -17.3778 -17.3189 -17.3054 -17.3012 -17.3011
   -17.1925 -17.1680 -17.1162 -17.0486 -17.0380 -16.9421 -16.7579 -16.4267
   -15.3462 -15.3056 -15.2958 -15.1467 -13.5966  -6.9741  -6.5799  -6.1716
    -5.9782  -5.7679  -5.6289  -5.5147  -5.4618  -5.3694  -5.3034  -5.2785
    -5.2610  -5.2218  -5.1882  -5.1603  -5.0576  -5.0476  -4.9665  -4.9122
    -4.8666  -4.8198  -4.7780  -4.7318  -4.7295  -4.6898  -4.6208  -4.6107
    -4.5759  -4.5285  -4.4988  -4.4914  -4.4361  -4.4071  -4.3892  -4.2657
    -4.2519  -4.1844  -4.1786  -4.1674  -4.0613  -4.0536  -4.0165  -4.0106
    -3.9739  -3.9542  -3.9084  -3.8237  -3.7970  -3.6365  -3.6176  -3.6045
    -3.5177  -3.3755  -3.3603  -3.3170  -3.1963  -3.1298  -3.1050  -3.0696
    -3.0496  -3.0325  -3.0109  -2.9979  -2.9640  -2.8697  -2.8687  -2.8076
    -2.8043  -2.7905  -2.7694  -2.7631  -2.7228  -2.6511  -2.5913  -2.5800
    -2.5582  -2.5405  -2.4539  -2.4387  -2.3488  -2.3342  -2.2773  -2.2349
    -2.2293  -2.1635  -2.0890  -2.0812  -2.0168  -1.9928  -1.8212  -1.7940
    -1.7160  -1.7105  -1.6443  -1.6174  -1.5955  -1.5420  -1.4176  -1.3870
    -1.2922  -1.1808  -1.0181  -0.7752  -0.6118  -0.5630  -0.5539  -0.5217
    -0.4297  -0.3751  -0.3592  -0.2641   0.9885   1.1347   1.2875   1.3091
     1.5029   1.6126   1.6250   1.6804   1.7590   1.8576

[...]

          k = 0.0380-0.0280 0.0000 ( 26873 PWs)   bands (ev):

[...]

          k =-0.0760-0.0000 0.0000 ( 26902 PWs)   bands (ev):

[...]

          k =-0.0760-0.0559 0.0000 ( 26868 PWs)   bands (ev):

   -58.2832 -58.2791 -58.2555 -58.2022 -58.1540 -57.7856 -57.7649 -57.7496
   -57.6132 -57.5880 -57.5622 -57.4968 -57.4817 -56.8937 -56.8672 -56.8501
   -56.8365 -56.8262 -34.7060 -34.7024 -34.6561 -34.6315 -34.5986 -34.4901
   -34.4754 -34.4416 -34.4384 -34.4259 -34.4194 -34.3991 -34.3772 -34.3740
   -34.3530 -34.2224 -34.1646 -34.1600 -34.1313 -34.1137 -34.0706 -33.9946
   -33.9908 -33.9905 -33.9564 -33.9202 -33.9133 -33.8991 -33.8911 -33.8602
   -33.8586 -33.8426 -33.7679 -33.7595 -33.7319 -33.7050 -33.6979 -33.6863
   -33.6812 -33.3307 -33.2564 -33.2158 -33.2128 -33.2005 -33.1774 -33.1708
   -33.1187 -33.0746 -33.0647 -33.0458 -33.0250 -32.9888 -32.9823 -32.9653
   -18.8866 -18.6143 -18.4668 -18.2309 -18.1307 -17.9669 -17.8842 -17.8715
   -17.8535 -17.8528 -17.7535 -17.7425 -17.6898 -17.6661 -17.6238 -17.6142
   -17.6017 -17.5633 -17.5583 -17.4439 -17.3537 -17.3453 -17.2502 -17.2354
   -17.2080 -17.1464 -17.1268 -17.0387 -17.0192 -16.9468 -16.7660 -16.4114
   -15.3573 -15.3455 -15.2351 -15.1474 -13.5936  -6.9463  -6.5811  -5.9422
    -5.7474  -5.7131  -5.6624  -5.3421  -5.3049  -5.2229  -5.1945  -5.1557
    -5.1296  -5.1163  -5.0862  -5.0748  -4.9995  -4.9629  -4.9535  -4.9496
    -4.9069  -4.8881  -4.8397  -4.8170  -4.7688  -4.7476  -4.7399  -4.7054
    -4.6610  -4.6451  -4.5683  -4.5632  -4.4896  -4.4503  -4.3115  -4.2259
    -4.2022  -4.1727  -4.0913  -4.0766  -4.0295  -3.9520  -3.9181  -3.8976
    -3.7698  -3.7448  -3.6256  -3.6088  -3.5602  -3.5374  -3.5093  -3.4831
    -3.4172  -3.3753  -3.3596  -3.3561  -3.3204  -3.2519  -3.2224  -3.2049
    -3.1745  -3.1557  -3.1454  -3.1348  -3.0685  -3.0519  -3.0219  -2.9819
    -2.9207  -2.8975  -2.8409  -2.8399  -2.7806  -2.7399  -2.6860  -2.6794
    -2.6066  -2.5851  -2.5795  -2.5713  -2.4730  -2.4463  -2.4365  -2.2968
    -2.1572  -2.1058  -2.0633  -1.9602  -1.9016  -1.8975  -1.8738  -1.8061
    -1.7827  -1.6981  -1.6433  -1.6197  -1.6122  -1.5874  -1.3677  -1.3377
    -1.3258  -1.2830  -1.2189  -1.1272  -0.8052  -0.6130  -0.5741  -0.4923
    -0.4697  -0.4169  -0.3950  -0.3805   1.0376   1.2126   1.2843   1.3776
     1.3782   1.4107   1.4605   1.6264   1.6598   1.7134

     the Fermi energy is     0.3949 ev

!    total energy              =   -3293.29218395 Ry
     estimated scf accuracy    <       0.00000007 Ry
     smearing contrib. (-TS)   =      -0.00047476 Ry
     internal energy E=F+TS    =   -3293.29170920 Ry

     The total energy is F=E-TS. E is the sum of the following terms:
     one-electron contribution =  -34641.78886498 Ry
     hartree contribution      =   17385.28241203 Ry
     xc contribution           =    -542.08366432 Ry
     ewald contribution        =   14505.29625336 Ry
     electric field correction =       0.00215471 Ry

     convergence has been achieved in  60 iterations

     Forces acting on atoms (cartesian axes, Ry/au):

     atom    1 type  1   force =     0.00000956    0.00245444    0.04674369
     atom    2 type  1   force =     0.00000851   -0.00338342   -0.00288853
     atom    3 type  1   force =    -0.00001034    0.00329297   -0.00080674
     atom    4 type  1   force =     0.00005095   -0.00098079    0.10169676
     atom    5 type  1   force =    -0.00000889   -0.00072255    0.00562801
     atom    6 type  1   force =    -0.00001392    0.00369070    0.00086437
     atom    7 type  1   force =     0.07817729    0.00086347   -0.03540117
     atom    8 type  1   force =     0.00835076   -0.02587173    0.00019708
     atom    9 type  1   force =     0.00842653    0.02073934    0.00131014
     atom   10 type  2   force =    -0.00006112    0.00866929   -0.15835342
     atom   11 type  2   force =    -0.00003523    0.02308459   -0.00227189
     atom   12 type  2   force =     0.00005571   -0.02565905   -0.00448325
     atom   13 type  1   force =    -0.07827008    0.00040790   -0.03538908
     atom   14 type  1   force =    -0.00839589   -0.02578468    0.00020419
     atom   15 type  1   force =    -0.00837632    0.02084953    0.00134337
     atom   16 type  2   force =     0.00012598    0.00086076    0.07318278
     atom   17 type  2   force =     0.00006299    0.03072459    0.00236495
     atom   18 type  2   force =    -0.00005992   -0.02679724    0.00058069
     atom   19 type  1   force =     0.00004067    0.00299788    0.05013276
     atom   20 type  1   force =    -0.00002042   -0.00128734   -0.00143791
     atom   21 type  1   force =     0.00005214   -0.00064698    0.10018123
     atom   22 type  1   force =    -0.00001548   -0.00181012    0.00545604
     atom   23 type  1   force =    -0.00002094    0.00234053    0.00391469
     atom   24 type  1   force =     0.07912613    0.00064399   -0.03605457
     atom   25 type  1   force =     0.00926456   -0.02949218    0.00063770
     atom   26 type  1   force =     0.00836245    0.02138894    0.00314295
     atom   27 type  2   force =    -0.00006971   -0.00813973   -0.15491990
     atom   28 type  2   force =    -0.00001039    0.02635239   -0.00218922
     atom   29 type  2   force =     0.00004118   -0.02443980   -0.00360407
     atom   30 type  1   force =    -0.07921492    0.00023530   -0.03604935
     atom   31 type  1   force =    -0.00927037   -0.02942320    0.00064350
     atom   32 type  1   force =    -0.00831714    0.02146584    0.00317487
     atom   33 type  2   force =     0.00013584   -0.00256321    0.07885789
     atom   34 type  2   force =     0.00004095    0.03586266    0.00270341
     atom   35 type  2   force =    -0.00006288   -0.02923842   -0.00378609
     atom   36 type  1   force =     0.00004166    0.00306760    0.05241165
     atom   37 type  1   force =    -0.00000353   -0.00188509   -0.00301874
     atom   38 type  1   force =    -0.00002093    0.00202497    0.00105502
     atom   39 type  1   force =     0.00004633    0.00287063    0.10110196
     atom   40 type  1   force =    -0.00000960   -0.00171701    0.00617792
     atom   41 type  1   force =    -0.00002782    0.00296078    0.00396339
     atom   42 type  1   force =     0.07823662    0.00076572   -0.03487842
     atom   43 type  1   force =     0.00663433   -0.02303961   -0.00019537
     atom   44 type  1   force =     0.01081711    0.02255461   -0.00729691
     atom   45 type  2   force =    -0.00006559   -0.00549955   -0.16463140
     atom   46 type  2   force =    -0.00008090    0.01952537    0.00109748
     atom   47 type  2   force =     0.00003114   -0.01853074    0.00717867
     atom   48 type  1   force =    -0.07833204    0.00031582   -0.03486062
     atom   49 type  1   force =    -0.00667478   -0.02300677   -0.00019196
     atom   50 type  1   force =    -0.01078724    0.02253780   -0.00725129
     atom   51 type  2   force =     0.00012551   -0.00437510    0.06096178
     atom   52 type  2   force =     0.00012449    0.02962723    0.00358321
     atom   53 type  2   force =    -0.00008012   -0.02529262    0.00083818
     atom   54 type  3   force =    -0.00000664    0.00074731   -0.00016420
     atom   55 type  3   force =    -0.00001680   -0.00007313    0.00007612
     atom   56 type  4   force =    -0.00002079    0.00706749    0.00073588
     atom   57 type  4   force =    -0.00002450   -0.00025516    0.02096349
     atom   58 type  3   force =     0.00000414    0.00556855   -0.00580740
     atom   59 type  3   force =    -0.00000826   -0.00664378   -0.00717432

     Total force =     0.437980     Total SCF correction =     0.000776
  @ DRIVER MODE: Message from server: STATUS
  @ DRIVER MODE: Message from server: GETFORCE
  @ DRIVER MODE: Returning v,forces,stress,ensemble

     Writing output data file ./calc.save/
  @ DRIVER MODE: Message from server: EXIT
  @ DRIVE MODE: Exiting

     General routines

     Parallel routines

   This run was terminated on:  22:50:28  18Oct2021

   JOB DONE.