     Program PWSCF v.6.7GPU starts on 23Sep2021 at 17:33:54

     R & G space division:  proc/nbgrp/npool/nimage =       8
     Reading input from /storage/home/hcoda1/3/ntian30/research/carbon/CxH_vib/H2O_calc/ads_slab/CH3ON2HO_a/out_0014/pw.inp
Warning: card &CELL ignored
Warning: card   CELL_DYNAMICS='IPI', ignored
Warning: card / ignored

     Current dimensions of program PWSCF are:
     Max number of different atomic species (ntypx) = 10
     Max number of k-points (npk) =  40000
     Max angular momentum in pseudopotentials (lmaxx) =  3
     Presently no symmetry can be used with electric field

     Message from routine cell_base_init:
     DEPRECATED: use true lattice parameter, not A to a.u. conversion factor

     IMPORTANT: XC functional enforced from input :
     Exchange-correlation= BEEF-VDW
                           (   1   4  43  14   2   0   0)
     Any further DFT definition will be discarded
     Please, verify this is what you really want

  @ DRIVER MODE: Connecting to
 qe_1139763_2947306.sched-torque.pace.gatech.edu8un5jcw0_scratch
  using UNIX socket
  @ DRIVER MODE: Message from server: STATUS
  @ DRIVER MODE: Message from server: INIT
  @ DRIVER MODE: Receiving replica           0          -1
  @ DRIVER MODE: Receiving encoded integer          25
  @ DRIVER MODE:  SCF:  T  FORCE:  T  STRESS:  F  VC:  F  ENSEMBLE:  F
  @ DRIVER MODE:  SCF:  T  FORCE:  T  STRESS:  F  VC:  F  ENSEMBLE:  F

     Using Slab Decomposition

     bravais-lattice index     =            0
     lattice parameter (alat)  =       1.8897  a.u.
     unit-cell volume          =    6658.9804 (a.u.)^3
     number of atoms/cell      =           56
     number of atomic types    =            5
     number of electrons       =       408.00
     number of Kohn-Sham states=          214
     kinetic-energy cutoff     =      29.3995  Ry
     charge density cutoff     =     293.9946  Ry
     scf convergence threshold =      7.3E-08
     mixing beta               =       0.0500
     number of iterations used =            8  plain     mixing
     Exchange-correlation= BEEF-VDW
                           (   1   4  43  14   2   0   0)

     celldm(1)=   1.889726  celldm(2)=   0.000000  celldm(3)=   0.000000
     celldm(4)=   0.000000  celldm(5)=   0.000000  celldm(6)=   0.000000

     crystal axes: (cart. coord. in units of alat)
               a(1) = (   6.579727   0.000000   0.000000 )
               a(2) = (  -0.000775   5.961596   0.000000 )
               a(3) = (   0.000000   0.000000  25.155947 )

     reciprocal axes: (cart. coord. in units 2 pi/alat)
               b(1) = (  0.151982  0.000020  0.000000 )
               b(2) = (  0.000000  0.167740  0.000000 )
               b(3) = (  0.000000  0.000000  0.039752 )

     PseudoPot. # 1 for Ti read from file:
     /storage/coda1/p-amedford6/0/shared/rich_project_chbe-medford/medford-share/data/pseudos_module/espresso/nninc/pbe/van/Ti.UPF
     MD5 check sum: 8e4df49b7f0d34bbd5052bf3f5ea0213
     Pseudo is Ultrasoft, Zval = 12.0
     Generated by new atomic code, or converted to UPF format
     Using radial grid of  851 points,  6 beta functions with:
                l(1) =   0
                l(2) =   0
                l(3) =   1
                l(4) =   1
                l(5) =   2
                l(6) =   2
     Q(r) pseudized with  8 coefficients,  rinner =    1.000   1.000   1.000
                                                       1.000   1.000

     PseudoPot. # 2 for O  read from file:
     /storage/coda1/p-amedford6/0/shared/rich_project_chbe-medford/medford-share/data/pseudos_module/espresso/nninc/pbe/van/O.UPF
     MD5 check sum: 78c19812648e8988a0fe644b0f25305e
     Pseudo is Ultrasoft, Zval =  6.0
     Generated by new atomic code, or converted to UPF format
     Using radial grid of  737 points,  4 beta functions with:
                l(1) =   0
                l(2) =   0
                l(3) =   1
                l(4) =   1
     Q(r) pseudized with  8 coefficients,  rinner =    0.800   0.800   0.800

     PseudoPot. # 3 for C  read from file:
     /storage/coda1/p-amedford6/0/shared/rich_project_chbe-medford/medford-share/data/pseudos_module/espresso/nninc/pbe/van/C.UPF
     MD5 check sum: 1a69bf6b8db32088f5b2163dbdb77a27
     Pseudo is Ultrasoft, Zval =  4.0
     Generated by new atomic code, or converted to UPF format
     Using radial grid of  721 points,  4 beta functions with:
                l(1) =   0
                l(2) =   0
                l(3) =   1
                l(4) =   1
     Q(r) pseudized with  8 coefficients,  rinner =    0.800   0.800   0.800

     PseudoPot. # 4 for H  read from file:
     /storage/coda1/p-amedford6/0/shared/rich_project_chbe-medford/medford-share/data/pseudos_module/espresso/nninc/pbe/van/H.UPF
     MD5 check sum: b5ee9d7bfd3a09ee7748110bda690ff7
     Pseudo is Ultrasoft, Zval =  1.0
     Generated by new atomic code, or converted to UPF format
     Using radial grid of  615 points,  1 beta functions with:
                l(1) =   0
     Q(r) pseudized with  8 coefficients,  rinner =    0.800

     PseudoPot. # 5 for N  read from file:
     /storage/coda1/p-amedford6/0/shared/rich_project_chbe-medford/medford-share/data/pseudos_module/espresso/nninc/pbe/van/N.UPF
     MD5 check sum: 90d10febe142ad51ac9d5be1deb811c4
     Pseudo is Ultrasoft, Zval =  5.0
     Generated by new atomic code, or converted to UPF format
     Using radial grid of  729 points,  4 beta functions with:
                l(1) =   0
                l(2) =   0
                l(3) =   1
                l(4) =   1
     Q(r) pseudized with  8 coefficients,  rinner =    0.800   0.800   0.800

     atomic species   valence    mass     pseudopotential
        Ti1           12.00    47.86700     Ti( 1.00)
        O1             6.00    15.99900     O ( 1.00)
        C1             4.00    12.01100     C ( 1.00)
        H1             1.00     1.00800     H ( 1.00)
        N1             5.00    14.00700     N ( 1.00)

     No symmetry found

   Cartesian axes

     site n.     atom                  positions (alat units)
         1           Ti1 tau(   1) = (   0.0004258   2.9801865   6.0000000  )
         2           Ti1 tau(   2) = (   3.2906075   1.4906267   6.0002472  )
         3           O1  tau(   3) = (   0.0006271   0.0005054   7.9858123  )
         4           O1  tau(   4) = (   3.2906025   0.0005020   7.3038282  )
         5           O1  tau(   5) = (   4.5942328   1.4918067   9.2879030  )
         6           O1  tau(   6) = (   1.9868534   1.4903216   9.2879459  )
         7           Ti1 tau(   7) = (   3.3138730   3.1023225   9.2183157  )
         8           Ti1 tau(   8) = (   0.0392070   1.5780841   9.3433077  )
         9           O1  tau(   9) = (   3.2868017   0.0212601  11.3135411  )
        10           O1  tau(  10) = (   0.0022550   0.0140515  10.5858881  )
        11           O1  tau(  11) = (   1.2767464   1.5002397  12.6205121  )
        12           O1  tau(  12) = (   5.2993684   1.4943797  12.6172415  )
        13           Ti1 tau(  13) = (   0.0200588   3.0780815  12.7918821  )
        14           Ti1 tau(  14) = (   3.2574684   1.5637424  12.4212484  )
        15           O1  tau(  15) = (   6.5768379   0.0158506  14.6682411  )
        16           O1  tau(  16) = (   3.2886937   5.9311801  13.9109749  )
        17           O1  tau(  17) = (   4.5620935   1.5260772  16.0398494  )
        18           O1  tau(  18) = (   2.0292830   1.5431627  16.0187044  )
        19           Ti1 tau(  19) = (   3.3027642   2.9567202  15.6520962  )
        20           Ti1 tau(  20) = (   0.0552782   1.4362356  15.9688716  )
        21           O1  tau(  21) = (   3.2904802   0.0005063   4.7018136  )
        22           O1  tau(  22) = (   0.0488089   0.0211857  17.1900833  )
        23           O1  tau(  23) = (   1.3043587   1.4918075   6.0039043  )
        24           O1  tau(  24) = (   5.2767064   1.4903225   6.0039473  )
        25           Ti1 tau(  25) = (   0.0000382   5.9609847   6.0000000  )
        26           Ti1 tau(  26) = (   3.2902200   4.4714249   6.0002472  )
        27           O1  tau(  27) = (   0.0002396   2.9813036   7.9858123  )
        28           O1  tau(  28) = (   3.2902150   2.9813002   7.3038282  )
        29           O1  tau(  29) = (   4.5938453   4.4726049   9.2879030  )
        30           O1  tau(  30) = (   1.9864658   4.4711199   9.2879459  )
        31           Ti1 tau(  31) = (   3.3219941   0.1169887   9.1790125  )
        32           Ti1 tau(  32) = (   0.0373256   4.5280481   9.3594506  )
        33           O1  tau(  33) = (   3.2887547   2.9594671  11.2851190  )
        34           O1  tau(  34) = (   0.0046902   2.9985155  10.5475055  )
        35           O1  tau(  35) = (   1.2817606   4.4707209  12.6310527  )
        36           O1  tau(  36) = (   5.3098963   4.4869072  12.6241852  )
        37           Ti1 tau(  37) = (   6.5328698   0.0937101  12.6083326  )
        38           Ti1 tau(  38) = (   3.2790761   4.6595539  12.6693962  )
        39           O1  tau(  39) = (   0.0062896   2.9920245  14.6683812  )
        40           O1  tau(  40) = (   3.3079832   2.9813091  13.8732900  )
        41           O1  tau(  41) = (   4.5514670   4.4448635  16.0695425  )
        42           O1  tau(  42) = (   2.0242163   4.4286948  16.0089506  )
        43           Ti1 tau(  43) = (   3.3772342   5.9382356  16.2476532  )
        44           Ti1 tau(  44) = (   0.0845355   4.5653432  16.0322982  )
        45           O1  tau(  45) = (   3.2900926   2.9813045   4.7018136  )
        46           O1  tau(  46) = (   1.3039711   4.4726057   6.0039043  )
        47           O1  tau(  47) = (   5.2763189   4.4711207   6.0039473  )
        48           C1  tau(  48) = (   6.0101766   2.9784267  18.6088694  )
        49           O1  tau(  49) = (   6.5649008   2.9952511  17.2928482  )
        50           H1  tau(  50) = (   4.9285495   2.9407445  18.5675634  )
        51           H1  tau(  51) = (   6.3703738   2.0936667  19.1370987  )
        52           H1  tau(  52) = (   6.3118891   3.8824302  19.1399426  )
        53           N1  tau(  53) = (   6.0262039   3.1690275  22.5535725  )
        54           N1  tau(  54) = (   5.1417247   3.1052473  21.8962875  )
        55           O1  tau(  55) = (   3.2068502   5.9581871  18.0710493  )
        56           H1  tau(  56) = (   2.3500504   0.2277792  18.4614507  )

     number of k points=    10  Fermi-Dirac smearing, width (Ry)=  0.0073
                       cart. coord. in units 2pi/alat
        k(    1) = (   0.0000000   0.0000000   0.0000000), wk =   0.1250000
        k(    2) = (   0.0000000   0.0419351   0.0000000), wk =   0.2500000
        k(    3) = (   0.0000000  -0.0838702   0.0000000), wk =   0.1250000
        k(    4) = (   0.0379955   0.0000049   0.0000000), wk =   0.2500000
        k(    5) = (   0.0379955   0.0419400   0.0000000), wk =   0.2500000
        k(    6) = (   0.0379955  -0.0838652   0.0000000), wk =   0.2500000
        k(    7) = (   0.0379955  -0.0419301   0.0000000), wk =   0.2500000
        k(    8) = (  -0.0759910  -0.0000099   0.0000000), wk =   0.1250000
        k(    9) = (  -0.0759910   0.0419252   0.0000000), wk =   0.2500000
        k(   10) = (  -0.0759910  -0.0838800   0.0000000), wk =   0.1250000

     Initial potential from superposition of free atoms

     starting charge  391.99915, renormalised to  408.00000

     negative rho (up, down):  9.976E-03 0.000E+00

     %%%%%%%%%%%%%%%%%%%%%%%%%%%%%%%%%%%%%%%%%%%%%%%%%%%%%%%%%%%%%%%%%%%%%%%%
     %                                                                      %
     % You are using vdW-DF, which was implemented by the Thonhauser group. %
     % Please cite the following two papers that made this development      %
     % possible and the two reviews that describe the various versions:     %
     %                                                                      %
     %   T. Thonhauser et al., PRL 115, 136402 (2015).                      %
     %   T. Thonhauser et al., PRB 76, 125112 (2007).                       %
     %   K. Berland et al., Rep. Prog. Phys. 78, 066501 (2015).             %
     %   D.C. Langreth et al., J. Phys.: Condens. Matter 21, 084203 (2009). %
     %                                                                      %
     %                                                                      %
     % If you are calculating the stress with vdW-DF, please also cite:     %
     %                                                                      %
     %   R. Sabatini et al., J. Phys.: Condens. Matter 24, 424209 (2012).   %
     %                                                                      %
     %%%%%%%%%%%%%%%%%%%%%%%%%%%%%%%%%%%%%%%%%%%%%%%%%%%%%%%%%%%%%%%%%%%%%%%%

     Adding external electric field

     Computed dipole along edir(3) :
        Dipole              -16.8152 Ry au,        -42.7399 Debye
        Dipole field         -0.0317 Ry au,

        Potential amp.        2.9416 Ry
        Total length         46.3494 bohr

     Starting wfcs are  308 atomic wfcs
  @ DRIVER MODE: Message from server: STATUS
  @ DRIVER MODE: Message from server: POSDATA
  @ DRIVER MODE: Reading and sharing cell
  @ DRIVER MODE: Reading and sharing positions
  @ DRIVER MODE: Received positions

     Self-consistent Calculation

     iteration #  1     ecut=    29.40 Ry     beta= 0.05
     Davidson diagonalization with overlap
     c_bands:  4 eigenvalues not converged
     c_bands:  1 eigenvalues not converged
     c_bands:  5 eigenvalues not converged
     c_bands:  1 eigenvalues not converged
     c_bands:  2 eigenvalues not converged
     c_bands:  2 eigenvalues not converged
     c_bands:  1 eigenvalues not converged
     c_bands:  5 eigenvalues not converged
     ethr =  1.00E-05,  avg # of iterations = 27.4

[...]

     total energy              =   -2248.44959371 Ry
     estimated scf accuracy    <    8688.99359390 Ry

     iteration #  2     ecut=    29.40 Ry     beta= 0.05
     Davidson diagonalization with overlap
     ethr =  1.00E-02,  avg # of iterations = 29.1

[...]

     iteration # 47     ecut=    29.40 Ry     beta= 0.05
     Davidson diagonalization with overlap
     c_bands:  1 eigenvalues not converged
     ethr =  2.39E-07,  avg # of iterations = 12.4

[...]

     total energy              =   -3005.28904301 Ry
     estimated scf accuracy    <       0.00000014 Ry

     iteration # 67     ecut=    29.40 Ry     beta= 0.05
     Davidson diagonalization with overlap
     ethr =  3.48E-11,  avg # of iterations =  2.6

     negative rho (up, down):  1.141E-02 0.000E+00

     Adding external electric field

     Computed dipole along edir(3) :
        Dipole                0.5485 Ry au,          1.3941 Debye
        Dipole field          0.0010 Ry au,

        Potential amp.       -0.0959 Ry
        Total length         46.3494 bohr

     End of self-consistent calculation

          k = 0.0000 0.0000 0.0000 ( 18029 PWs)   bands (ev):

   -56.1291 -56.0816 -55.5714 -55.5520 -55.5381 -55.5140 -55.4803 -55.4567
   -55.4220 -55.3960 -55.3620 -55.3204 -55.3193 -55.1833 -54.7419 -54.7079
   -32.5420 -32.3934 -32.3429 -32.3086 -32.2139 -32.1684 -32.0746 -32.0184
   -32.0099 -31.9037 -31.8596 -31.8421 -31.8370 -31.8149 -31.8126 -31.7745
   -31.7719 -31.7584 -31.7379 -31.7310 -31.7273 -31.6857 -31.6764 -31.6614
   -31.6582 -31.6402 -31.6372 -31.6278 -31.6203 -31.6106 -31.6036 -31.5863
   -31.5716 -31.5662 -31.5601 -31.5251 -31.5163 -31.5133 -31.4829 -31.4380
   -31.3999 -31.3884 -31.1362 -31.0820 -31.0577 -30.9531 -30.8683 -30.7573
   -20.8596 -17.3348 -16.3418 -16.2860 -16.1448 -15.9081 -15.7636 -15.6862
   -15.4567 -15.4464 -15.3313 -15.3246 -15.2896 -15.1585 -15.1411 -15.1336
   -15.0822 -15.0678 -15.0448 -15.0425 -15.0390 -15.0305 -14.9730 -14.9538
   -14.9143 -14.8553 -14.7791 -14.7588 -14.7098 -14.6987 -14.6572 -14.4317
   -13.2434 -13.1348  -9.1079  -6.0202  -4.1134  -3.9933  -3.9834  -3.9349
    -3.8127  -3.7609  -3.5878  -3.4890  -3.4697  -3.3968  -3.2909  -3.1855
    -2.9712  -2.8198  -2.7569  -2.7201  -2.7171  -2.6758  -2.6346  -2.5728
    -2.5181  -2.4760  -2.4423  -2.4083  -2.3481  -2.3369  -2.3197  -2.2893
    -2.2697  -2.2487  -2.2127  -2.2022  -2.0696  -2.0330  -2.0033  -1.9919
    -1.9386  -1.9200  -1.9011  -1.8915  -1.8466  -1.7501  -1.6520  -1.6388
    -1.5943  -1.4081  -1.3325  -1.2865  -1.2080  -1.1425  -1.0662  -1.0451
    -1.0352  -0.9800  -0.9421  -0.8407  -0.8067  -0.7675  -0.7000  -0.6949
    -0.6555  -0.5956  -0.5706  -0.5093  -0.4813  -0.4479  -0.3093  -0.2737
    -0.2565  -0.1938  -0.1931  -0.1007  -0.0416   0.0113   0.0303   0.0858
     0.1259   0.1480   0.1991   0.2297   0.2437   0.3270   0.3762   0.3832
     0.4168   0.4566   0.4753   0.5074   0.5953   0.6436   0.6699   0.6954
     0.8396   0.8539   0.9082   1.0147   1.0240   1.2060   1.2756   1.3112
     1.4977   1.5360   1.8272   1.8729   3.1711   3.3343   3.6136   3.7261
     3.7701   3.8101   3.8856   3.9126   4.0670   4.0946

[...]

          k = 0.0380-0.0419 0.0000 ( 17876 PWs)   bands (ev):

[...]

          k =-0.0760-0.0000 0.0000 ( 17886 PWs)   bands (ev):

[...]

          k =-0.0760-0.0839 0.0000 ( 17948 PWs)   bands (ev):

   -56.1221 -56.0884 -55.5693 -55.5471 -55.5370 -55.5080 -55.4848 -55.4625
   -55.4239 -55.3973 -55.3535 -55.3285 -55.3176 -55.1853 -54.7251 -54.7245
   -32.3888 -32.3732 -32.3469 -32.3445 -32.2741 -32.2454 -31.9631 -31.8832
   -31.8543 -31.8370 -31.8143 -31.8047 -31.7912 -31.7857 -31.7762 -31.7613
   -31.7559 -31.7461 -31.7459 -31.7381 -31.7287 -31.7199 -31.7067 -31.7049
   -31.7032 -31.6862 -31.6812 -31.6561 -31.6478 -31.6465 -31.6290 -31.6228
   -31.5998 -31.5930 -31.5774 -31.5656 -31.5629 -31.5354 -31.5204 -31.5025
   -31.4385 -31.3920 -31.0709 -31.0705 -30.9519 -30.9501 -30.9105 -30.9094
   -20.8594 -17.2973 -16.3157 -15.6925 -15.6029 -15.5937 -15.5862 -15.5534
   -15.5175 -15.4527 -15.4381 -15.3700 -15.2979 -15.2673 -15.2264 -15.2015
   -15.1855 -15.1487 -15.1442 -15.0823 -15.0386 -15.0297 -15.0151 -15.0013
   -14.9566 -14.9488 -14.9400 -14.9239 -14.9145 -14.8539 -14.7542 -14.5763
   -13.2391 -13.2379  -9.1081  -6.0217  -4.0485  -3.9981  -3.9751  -3.8676
    -3.7009  -3.4751  -2.9255  -2.8452  -2.7665  -2.7644  -2.7053  -2.6756
    -2.6277  -2.6047  -2.5683  -2.5530  -2.5309  -2.4653  -2.4407  -2.4263
    -2.4227  -2.4141  -2.3981  -2.3790  -2.3366  -2.3274  -2.3150  -2.3051
    -2.2862  -2.2817  -2.2690  -2.2484  -2.2075  -2.1454  -2.0895  -1.9477
    -1.9395  -1.9145  -1.8943  -1.8700  -1.8451  -1.7941  -1.7124  -1.6924
    -1.6738  -1.5981  -1.5392  -1.3346  -1.3143  -1.2956  -1.2258  -1.1574
    -1.0909  -1.0731  -1.0385  -1.0043  -0.9810  -0.9411  -0.8849  -0.8503
    -0.8071  -0.7943  -0.7561  -0.7187  -0.6715  -0.6084  -0.6002  -0.5672
    -0.5174  -0.4935  -0.4035  -0.3953  -0.3712  -0.3537  -0.3200  -0.2286
    -0.1761  -0.1304  -0.0418  -0.0019   0.0383   0.1714   0.2373   0.2734
     0.3461   0.3873   0.4942   0.5159   0.5951   0.6169   0.6459   0.6716
     0.7363   0.8078   0.8593   0.9081   0.9489   0.9637   1.0147   1.0644
     1.6690   1.6715   1.6790   1.6854   3.7140   3.7402   3.7480   3.7813
     3.9854   4.0154   4.0887   4.1052   4.1258   4.1823

     the Fermi energy is     2.5793 ev

!    total energy              =   -3005.28907299 Ry
     estimated scf accuracy    <       0.00000004 Ry
     smearing contrib. (-TS)   =      -0.00015438 Ry
     internal energy E=F+TS    =   -3005.28891861 Ry

     The total energy is F=E-TS. E is the sum of the following terms:
     one-electron contribution =  -22581.95520565 Ry
     hartree contribution      =   11387.27667888 Ry
     xc contribution           =    -500.24855642 Ry
     ewald contribution        =    8689.63759688 Ry
     electric field correction =       0.00056770 Ry

     convergence has been achieved in  67 iterations

     Forces acting on atoms (cartesian axes, Ry/au):

     atom    1 type  1   force =     0.00011910    0.00009863    0.13279392
     atom    2 type  1   force =    -0.00011553    0.00820170   -0.15823693
     atom    3 type  2   force =     0.00029978   -0.00362378   -0.05307969
     atom    4 type  2   force =     0.00059221    0.00105589    0.04009863
     atom    5 type  2   force =    -0.00787142   -0.00195573   -0.00034617
     atom    6 type  2   force =     0.00846874   -0.00490746   -0.00005041
     atom    7 type  1   force =    -0.00017228   -0.00031526   -0.00006248
     atom    8 type  1   force =    -0.00000570   -0.00026873    0.00020698
     atom    9 type  2   force =     0.00013349    0.00010246    0.00003076
     atom   10 type  2   force =    -0.00003230    0.00020322    0.00008065
     atom   11 type  2   force =    -0.00004279    0.00012941   -0.00000520
     atom   12 type  2   force =     0.00036954   -0.00011182   -0.00005101
     atom   13 type  1   force =    -0.00018099    0.00002765    0.00019336
     atom   14 type  1   force =     0.00011347    0.00058337    0.00009695
     atom   15 type  2   force =    -0.00011451    0.00012261   -0.00004706
     atom   16 type  2   force =     0.00002585    0.00004362   -0.00044870
     atom   17 type  2   force =     0.00008836   -0.00045059    0.00025996
     atom   18 type  2   force =    -0.00005123   -0.00056332    0.00012267
     atom   19 type  1   force =    -0.00042881    0.00032538   -0.00003797
     atom   20 type  1   force =     0.00047286    0.00012541    0.00001442
     atom   21 type  2   force =    -0.00006445    0.00009730    0.09918064
     atom   22 type  2   force =    -0.00023800    0.00014110    0.00001795
     atom   23 type  2   force =    -0.08059621    0.00058121   -0.03417617
     atom   24 type  2   force =     0.08036942    0.00110354   -0.03421789
     atom   25 type  1   force =    -0.00021417   -0.00018071    0.14170720
     atom   26 type  1   force =    -0.00019415   -0.00685834   -0.15775260
     atom   27 type  2   force =     0.00044030    0.00017841   -0.05212182
     atom   28 type  2   force =     0.00044011    0.00035469    0.04187514
     atom   29 type  2   force =    -0.00940853    0.00598072    0.00164437
     atom   30 type  2   force =     0.00931872    0.00235411    0.00175593
     atom   31 type  1   force =    -0.00003294    0.00010391    0.00012513
     atom   32 type  1   force =     0.00002311   -0.00012195   -0.00011315
     atom   33 type  2   force =    -0.00006467   -0.00032893    0.00028131
     atom   34 type  2   force =    -0.00009734   -0.00005566    0.00001501
     atom   35 type  2   force =     0.00062079    0.00026050   -0.00006576
     atom   36 type  2   force =    -0.00018768    0.00015334    0.00005944
     atom   37 type  1   force =    -0.00039034    0.00046894   -0.00061451
     atom   38 type  1   force =     0.00024240   -0.00033990   -0.00011008
     atom   39 type  2   force =    -0.00002756    0.00000016    0.00025183
     atom   40 type  2   force =     0.00012943   -0.00008331   -0.00033722
     atom   41 type  2   force =     0.00069314    0.00014243    0.00022511
     atom   42 type  2   force =    -0.00035583    0.00037093    0.00001402
     atom   43 type  1   force =    -0.00061053   -0.00034707    0.00000170
     atom   44 type  1   force =     0.00006562   -0.00047840   -0.00031622
     atom   45 type  2   force =    -0.00007777    0.00017897    0.09874823
     atom   46 type  2   force =    -0.08055919   -0.00156396   -0.03412925
     atom   47 type  2   force =     0.08036659   -0.00102970   -0.03421295
     atom   48 type  3   force =     0.01160941    0.00023819    0.00130081
     atom   49 type  2   force =     0.00021452   -0.00029274   -0.00006862
     atom   50 type  4   force =    -0.01280561   -0.00020492   -0.00093218
     atom   51 type  4   force =     0.00024709   -0.00004700    0.00019010
     atom   52 type  4   force =     0.00049815    0.00031724   -0.00022859
     atom   53 type  5   force =     0.00100348    0.00011228    0.00074649
     atom   54 type  5   force =    -0.00130655   -0.00000196   -0.00087091
     atom   55 type  2   force =    -0.00112650    0.00084318    0.00032218
     atom   56 type  4   force =     0.00040789   -0.00086929    0.00027264

     Total force =     0.384103     Total SCF correction =     0.000706
  @ DRIVER MODE: Message from server: STATUS
  @ DRIVER MODE: Message from server: GETFORCE
  @ DRIVER MODE: Returning v,forces,stress,ensemble

     Writing output data file ./calc.save/
  @ DRIVER MODE: Message from server: EXIT
  @ DRIVE MODE: Exiting

     General routines

     Parallel routines

   This run was terminated on:  17:58:22  23Sep2021

   JOB DONE.