     Program PWSCF v.6.7GPU starts on 22Sep2021 at 23:51:57

     R & G space division:  proc/nbgrp/npool/nimage =       8
     Reading input from /storage/home/hcoda1/3/ntian30/research/carbon/CxH_vib/H2O_calc/ads_slab/CH3OHHO_e/out_0005/pw.inp
Warning: card &CELL ignored
Warning: card   CELL_DYNAMICS='IPI', ignored
Warning: card / ignored

     Current dimensions of program PWSCF are:
     Max number of different atomic species (ntypx) = 10
     Max number of k-points (npk) =  40000
     Max angular momentum in pseudopotentials (lmaxx) =  3
     Presently no symmetry can be used with electric field

     Message from routine cell_base_init:
     DEPRECATED: use true lattice parameter, not A to a.u. conversion factor

     IMPORTANT: XC functional enforced from input :
     Exchange-correlation= BEEF-VDW
                           (   1   4  43  14   2   0   0)
     Any further DFT definition will be discarded
     Please, verify this is what you really want

  @ DRIVER MODE: Connecting to
 qe_1139763_2941008.sched-torque.pace.gatech.edu6c_d3lja_scratch
  using UNIX socket
  @ DRIVER MODE: Message from server: STATUS
  @ DRIVER MODE: Message from server: INIT
  @ DRIVER MODE: Receiving replica           0          -1
  @ DRIVER MODE: Receiving encoded integer          25
  @ DRIVER MODE:  SCF:  T  FORCE:  T  STRESS:  F  VC:  F  ENSEMBLE:  F
  @ DRIVER MODE:  SCF:  T  FORCE:  T  STRESS:  F  VC:  F  ENSEMBLE:  F

     Using Slab Decomposition

     bravais-lattice index     =            0
     lattice parameter (alat)  =       1.8897  a.u.
     unit-cell volume          =    6658.9804 (a.u.)^3
     number of atoms/cell      =           55
     number of atomic types    =            4
     number of electrons       =       399.00
     number of Kohn-Sham states=          209
     kinetic-energy cutoff     =      29.3995  Ry
     charge density cutoff     =     293.9946  Ry
     scf convergence threshold =      7.3E-08
     mixing beta               =       0.0500
     number of iterations used =            8  plain     mixing
     Exchange-correlation= BEEF-VDW
                           (   1   4  43  14   2   0   0)

     celldm(1)=   1.889726  celldm(2)=   0.000000  celldm(3)=   0.000000
     celldm(4)=   0.000000  celldm(5)=   0.000000  celldm(6)=   0.000000

     crystal axes: (cart. coord. in units of alat)
               a(1) = (   6.579727   0.000000   0.000000 )
               a(2) = (  -0.000775   5.961596   0.000000 )
               a(3) = (   0.000000   0.000000  25.155947 )

     reciprocal axes: (cart. coord. in units 2 pi/alat)
               b(1) = (  0.151982  0.000020  0.000000 )
               b(2) = (  0.000000  0.167740  0.000000 )
               b(3) = (  0.000000  0.000000  0.039752 )

     PseudoPot. # 1 for Ti read from file:
     /storage/coda1/p-amedford6/0/shared/rich_project_chbe-medford/medford-share/data/pseudos_module/espresso/nninc/pbe/van/Ti.UPF
     MD5 check sum: 8e4df49b7f0d34bbd5052bf3f5ea0213
     Pseudo is Ultrasoft, Zval = 12.0
     Generated by new atomic code, or converted to UPF format
     Using radial grid of  851 points,  6 beta functions with:
                l(1) =   0
                l(2) =   0
                l(3) =   1
                l(4) =   1
                l(5) =   2
                l(6) =   2
     Q(r) pseudized with  8 coefficients,  rinner =    1.000   1.000   1.000
                                                       1.000   1.000

     PseudoPot. # 2 for O  read from file:
     /storage/coda1/p-amedford6/0/shared/rich_project_chbe-medford/medford-share/data/pseudos_module/espresso/nninc/pbe/van/O.UPF
     MD5 check sum: 78c19812648e8988a0fe644b0f25305e
     Pseudo is Ultrasoft, Zval =  6.0
     Generated by new atomic code, or converted to UPF format
     Using radial grid of  737 points,  4 beta functions with:
                l(1) =   0
                l(2) =   0
                l(3) =   1
                l(4) =   1
     Q(r) pseudized with  8 coefficients,  rinner =    0.800   0.800   0.800

     PseudoPot. # 3 for C  read from file:
     /storage/coda1/p-amedford6/0/shared/rich_project_chbe-medford/medford-share/data/pseudos_module/espresso/nninc/pbe/van/C.UPF
     MD5 check sum: 1a69bf6b8db32088f5b2163dbdb77a27
     Pseudo is Ultrasoft, Zval =  4.0
     Generated by new atomic code, or converted to UPF format
     Using radial grid of  721 points,  4 beta functions with:
                l(1) =   0
                l(2) =   0
                l(3) =   1
                l(4) =   1
     Q(r) pseudized with  8 coefficients,  rinner =    0.800   0.800   0.800

     PseudoPot. # 4 for H  read from file:
     /storage/coda1/p-amedford6/0/shared/rich_project_chbe-medford/medford-share/data/pseudos_module/espresso/nninc/pbe/van/H.UPF
     MD5 check sum: b5ee9d7bfd3a09ee7748110bda690ff7
     Pseudo is Ultrasoft, Zval =  1.0
     Generated by new atomic code, or converted to UPF format
     Using radial grid of  615 points,  1 beta functions with:
                l(1) =   0
     Q(r) pseudized with  8 coefficients,  rinner =    0.800

     atomic species   valence    mass     pseudopotential
        Ti1           12.00    47.86700     Ti( 1.00)
        O1             6.00    15.99900     O ( 1.00)
        C1             4.00    12.01100     C ( 1.00)
        H1             1.00     1.00800     H ( 1.00)

     No symmetry found

   Cartesian axes

     site n.     atom                  positions (alat units)
         1           Ti1 tau(   1) = (   0.0004258   2.9801865   6.0000000  )
         2           Ti1 tau(   2) = (   3.2906075   1.4906267   6.0002472  )
         3           O1  tau(   3) = (   0.0006271   0.0005054   7.9858123  )
         4           O1  tau(   4) = (   3.2906025   0.0005020   7.3038282  )
         5           O1  tau(   5) = (   4.5942328   1.4918067   9.2879030  )
         6           O1  tau(   6) = (   1.9868534   1.4903216   9.2879459  )
         7           Ti1 tau(   7) = (   3.3364693   3.0244086   9.1899460  )
         8           Ti1 tau(   8) = (   0.0614121   1.5180315   9.2736979  )
         9           O1  tau(   9) = (   3.3192415   0.0109611  11.3574448  )
        10           O1  tau(  10) = (   0.0135824   0.0030625  10.5923660  )
        11           O1  tau(  11) = (   1.3113730   1.4888140  12.6397483  )
        12           O1  tau(  12) = (   5.3365169   1.4868518  12.6422516  )
        13           Ti1 tau(  13) = (   0.0249591   3.0356721  12.5595363  )
        14           Ti1 tau(  14) = (   3.3216347   1.5719315  12.4302660  )
        15           O1  tau(  15) = (   0.0475996   5.9320359  14.6592625  )
        16           O1  tau(  16) = (   3.3253441   5.8716044  14.0084122  )
        17           O1  tau(  17) = (   4.6294077   1.4993822  16.1384749  )
        18           O1  tau(  18) = (   2.0712093   1.5368213  16.0656395  )
        19           Ti1 tau(  19) = (   3.3420502   2.9337026  15.6791356  )
        20           Ti1 tau(  20) = (   0.0819182   1.3209985  15.9439250  )
        21           O1  tau(  21) = (   3.2904802   0.0005063   4.7018136  )
        22           O1  tau(  22) = (   0.1121901   0.0005398  17.1797988  )
        23           O1  tau(  23) = (   1.3043587   1.4918075   6.0039043  )
        24           O1  tau(  24) = (   5.2767064   1.4903225   6.0039473  )
        25           Ti1 tau(  25) = (   0.0000382   5.9609847   6.0000000  )
        26           Ti1 tau(  26) = (   3.2902200   4.4714249   6.0002472  )
        27           O1  tau(  27) = (   0.0002396   2.9813036   7.9858123  )
        28           O1  tau(  28) = (   3.2902150   2.9813002   7.3038282  )
        29           O1  tau(  29) = (   4.5938453   4.4726049   9.2879030  )
        30           O1  tau(  30) = (   1.9864658   4.4711199   9.2879459  )
        31           Ti1 tau(  31) = (   3.3365859   0.0383882   9.1683042  )
        32           Ti1 tau(  32) = (   0.0607984   4.4756772   9.2727477  )
        33           O1  tau(  33) = (   3.3154497   2.9528697  11.3100477  )
        34           O1  tau(  34) = (   0.0130381   2.9821538  10.6068333  )
        35           O1  tau(  35) = (   1.3079814   4.4632751  12.6339740  )
        36           O1  tau(  36) = (   5.3374838   4.4678533  12.6371107  )
        37           Ti1 tau(  37) = (   0.0367351   0.0553833  12.4739561  )
        38           Ti1 tau(  38) = (   3.3178111   4.6524667  12.7070490  )
        39           O1  tau(  39) = (   0.0226182   2.9861015  14.7894940  )
        40           O1  tau(  40) = (   3.3464301   2.9603322  13.9061577  )
        41           O1  tau(  41) = (   4.6320376   4.4053937  16.1659747  )
        42           O1  tau(  42) = (   2.0651706   4.3480327  16.1155179  )
        43           Ti1 tau(  43) = (   3.4032537   5.9185344  16.2710929  )
        44           Ti1 tau(  44) = (   0.0646745   4.5145260  15.8553686  )
        45           O1  tau(  45) = (   3.2900926   2.9813045   4.7018136  )
        46           O1  tau(  46) = (   1.3039711   4.4726057   6.0039043  )
        47           O1  tau(  47) = (   5.2763189   4.4711207   6.0039473  )
        48           C1  tau(  48) = (   5.9353497   3.0583042  18.8599169  )
        49           O1  tau(  49) = (   0.1856485   3.0014673  17.6677584  )
        50           H1  tau(  50) = (   4.9577780   2.6849493  18.5881267  )
        51           H1  tau(  51) = (   1.1185258   3.1466834  17.9024234  )
        52           H1  tau(  52) = (   6.3707541   2.4080388  19.6265123  )
        53           H1  tau(  53) = (   5.8722695   4.0904670  19.2075282  )
        54           O1  tau(  54) = (   3.1419305   5.9539177  18.1124628  )
        55           H1  tau(  55) = (   2.2021640   0.0520986  18.3490109  )

     number of k points=    10  Fermi-Dirac smearing, width (Ry)=  0.0073
                       cart. coord. in units 2pi/alat
        k(    1) = (   0.0000000   0.0000000   0.0000000), wk =   0.1250000
        k(    2) = (   0.0000000   0.0419351   0.0000000), wk =   0.2500000
        k(    3) = (   0.0000000  -0.0838702   0.0000000), wk =   0.1250000
        k(    4) = (   0.0379955   0.0000049   0.0000000), wk =   0.2500000
        k(    5) = (   0.0379955   0.0419400   0.0000000), wk =   0.2500000
        k(    6) = (   0.0379955  -0.0838652   0.0000000), wk =   0.2500000
        k(    7) = (   0.0379955  -0.0419301   0.0000000), wk =   0.2500000
        k(    8) = (  -0.0759910  -0.0000099   0.0000000), wk =   0.1250000
        k(    9) = (  -0.0759910   0.0419252   0.0000000), wk =   0.2500000
        k(   10) = (  -0.0759910  -0.0838800   0.0000000), wk =   0.1250000

     Initial potential from superposition of free atoms

     starting charge  382.99916, renormalised to  399.00000

     negative rho (up, down):  1.653E-02 0.000E+00

     %%%%%%%%%%%%%%%%%%%%%%%%%%%%%%%%%%%%%%%%%%%%%%%%%%%%%%%%%%%%%%%%%%%%%%%%
     %                                                                      %
     % You are using vdW-DF, which was implemented by the Thonhauser group. %
     % Please cite the following two papers that made this development      %
     % possible and the two reviews that describe the various versions:     %
     %                                                                      %
     %   T. Thonhauser et al., PRL 115, 136402 (2015).                      %
     %   T. Thonhauser et al., PRB 76, 125112 (2007).                       %
     %   K. Berland et al., Rep. Prog. Phys. 78, 066501 (2015).             %
     %   D.C. Langreth et al., J. Phys.: Condens. Matter 21, 084203 (2009). %
     %                                                                      %
     %                                                                      %
     % If you are calculating the stress with vdW-DF, please also cite:     %
     %                                                                      %
     %   R. Sabatini et al., J. Phys.: Condens. Matter 24, 424209 (2012).   %
     %                                                                      %
     %%%%%%%%%%%%%%%%%%%%%%%%%%%%%%%%%%%%%%%%%%%%%%%%%%%%%%%%%%%%%%%%%%%%%%%%

     Adding external electric field

     Computed dipole along edir(3) :
        Dipole              -10.2290 Ry au,        -25.9995 Debye
        Dipole field         -0.0193 Ry au,

        Potential amp.        1.7894 Ry
        Total length         46.3494 bohr

     Starting wfcs are  301 atomic wfcs
  @ DRIVER MODE: Message from server: STATUS
  @ DRIVER MODE: Message from server: POSDATA
  @ DRIVER MODE: Reading and sharing cell
  @ DRIVER MODE: Reading and sharing positions
  @ DRIVER MODE: Received positions

     Self-consistent Calculation

     iteration #  1     ecut=    29.40 Ry     beta= 0.05
     Davidson diagonalization with overlap
     c_bands:  3 eigenvalues not converged
     c_bands:  3 eigenvalues not converged
     c_bands:  4 eigenvalues not converged
     c_bands:  1 eigenvalues not converged
     c_bands:  5 eigenvalues not converged
     c_bands:  5 eigenvalues not converged
     c_bands:  4 eigenvalues not converged
     c_bands:  4 eigenvalues not converged
     c_bands:  4 eigenvalues not converged
     ethr =  1.00E-05,  avg # of iterations = 21.1

[...]

     total energy              =   -2463.86088189 Ry
     estimated scf accuracy    <    5597.93720955 Ry

     iteration #  2     ecut=    29.40 Ry     beta= 0.05
     Davidson diagonalization with overlap
     ethr =  1.00E-02,  avg # of iterations = 25.8

[...]

     iteration # 61     ecut=    29.40 Ry     beta= 0.05
     Davidson diagonalization with overlap
     c_bands:  1 eigenvalues not converged
     ethr =  8.83E-11,  avg # of iterations =  9.8

[...]

     total energy              =   -2966.27800947 Ry
     estimated scf accuracy    <       0.00000010 Ry

     iteration # 66     ecut=    29.40 Ry     beta= 0.05
     Davidson diagonalization with overlap
     ethr =  2.10E-11,  avg # of iterations =  9.3

     negative rho (up, down):  1.670E-02 0.000E+00

     Adding external electric field

     Computed dipole along edir(3) :
        Dipole                1.0370 Ry au,          2.6357 Debye
        Dipole field          0.0020 Ry au,

        Potential amp.       -0.1814 Ry
        Total length         46.3494 bohr

     End of self-consistent calculation

          k = 0.0000 0.0000 0.0000 ( 18029 PWs)   bands (ev):

   -55.7051 -55.6360 -55.6011 -55.5216 -55.4981 -55.4707 -55.4386 -55.4314
   -55.4272 -55.4144 -55.4021 -55.3748 -55.2886 -55.2166 -54.5941 -54.5601
   -32.1150 -32.0975 -32.0165 -32.0062 -31.9623 -31.9539 -31.9259 -31.9227
   -31.8963 -31.8797 -31.8706 -31.7981 -31.7953 -31.7895 -31.7622 -31.7444
   -31.7371 -31.7254 -31.7156 -31.7024 -31.6988 -31.6946 -31.6504 -31.6497
   -31.6482 -31.6406 -31.6358 -31.6287 -31.6166 -31.6008 -31.5956 -31.5858
   -31.5798 -31.5646 -31.5602 -31.5509 -31.5405 -31.5165 -31.4773 -31.4606
   -31.4284 -31.4211 -31.0002 -30.9143 -30.8918 -30.8173 -30.7309 -30.6193
   -20.1228 -16.5182 -16.2890 -16.1095 -15.9082 -15.8447 -15.7862 -15.5979
   -15.5225 -15.3818 -15.2369 -15.2246 -15.1707 -15.1698 -15.1608 -15.1377
   -15.1069 -15.0627 -15.0534 -15.0473 -15.0417 -14.9862 -14.9444 -14.9365
   -14.9297 -14.8887 -14.7604 -14.7201 -14.6639 -14.4931 -14.4502 -13.0939
   -12.9778 -10.9219  -6.8026  -5.0114  -4.7601  -4.0121  -3.6411  -3.5405
    -3.5226  -3.4602  -3.4036  -3.1915  -3.0617  -3.0195  -2.9064  -2.7807
    -2.7409  -2.6737  -2.6608  -2.5696  -2.5467  -2.5176  -2.4901  -2.4352
    -2.4058  -2.3976  -2.3844  -2.3119  -2.3037  -2.1733  -2.1693  -2.0969
    -2.0276  -2.0072  -1.9882  -1.9687  -1.9385  -1.9366  -1.8917  -1.8711
    -1.8493  -1.8119  -1.7442  -1.7236  -1.6628  -1.6245  -1.3868  -1.2285
    -1.2063  -1.1365  -1.1181  -1.0830  -1.0503  -1.0352  -1.0291  -0.9909
    -0.9747  -0.8662  -0.7696  -0.7573  -0.6973  -0.6581  -0.6567  -0.5230
    -0.4743  -0.4012  -0.3755  -0.3501  -0.3272  -0.2350  -0.1920  -0.1742
    -0.1111  -0.0807   0.0306   0.0703   0.0881   0.1268   0.1827   0.2505
     0.2804   0.3174   0.3253   0.3576   0.4067   0.4316   0.4641   0.4910
     0.5300   0.6346   0.6741   0.6895   0.8342   0.8346   0.9224   1.0498
     1.0977   1.3788   1.4309   1.4689   1.6239   1.9985   2.0446   3.4828
     3.5998   3.6104   3.6287   3.6992   3.7894   3.9450   3.9733   4.0446
     4.1387

[...]

          k = 0.0380-0.0419 0.0000 ( 17876 PWs)   bands (ev):

[...]

          k =-0.0760-0.0000 0.0000 ( 17886 PWs)   bands (ev):

[...]

          k =-0.0760-0.0839 0.0000 ( 17948 PWs)   bands (ev):

   -55.7043 -55.6225 -55.6145 -55.5148 -55.4933 -55.4773 -55.4322 -55.4317
   -55.4259 -55.4143 -55.4052 -55.3842 -55.2847 -55.2204 -54.5773 -54.5768
   -32.0169 -31.9573 -31.9482 -31.9343 -31.9265 -31.9219 -31.9186 -31.9047
   -31.8377 -31.8367 -31.8011 -31.7716 -31.7667 -31.7592 -31.7429 -31.7423
   -31.7373 -31.7343 -31.7320 -31.7216 -31.7190 -31.7167 -31.7045 -31.7029
   -31.6757 -31.6731 -31.6399 -31.6345 -31.6337 -31.6331 -31.6229 -31.6191
   -31.6126 -31.6106 -31.6036 -31.6025 -31.6006 -31.5638 -31.5441 -31.4816
   -31.4676 -31.4250 -30.9046 -30.9044 -30.8140 -30.8125 -30.7742 -30.7733
   -20.1192 -16.4930 -15.9047 -15.7607 -15.5981 -15.5799 -15.5022 -15.4067
   -15.3902 -15.3610 -15.3516 -15.3312 -15.3056 -15.3036 -15.2557 -15.2001
   -15.1584 -15.1354 -15.1310 -15.0850 -15.0756 -15.0720 -15.0164 -15.0037
   -14.9945 -14.9558 -14.8960 -14.8675 -14.7894 -14.7619 -14.6082 -13.0800
   -13.0794 -10.9241  -6.8033  -4.9938  -4.7517  -3.9743  -3.0544  -2.9804
    -2.8836  -2.8205  -2.7400  -2.6804  -2.6313  -2.6125  -2.5698  -2.5494
    -2.4791  -2.4455  -2.4379  -2.4163  -2.4140  -2.3874  -2.3719  -2.3597
    -2.3363  -2.3065  -2.2923  -2.2784  -2.2598  -2.2394  -2.2185  -2.1992
    -2.1864  -2.1757  -2.1559  -2.0483  -2.0241  -1.9883  -1.8335  -1.8205
    -1.7576  -1.7253  -1.6944  -1.6892  -1.6565  -1.6479  -1.6037  -1.4935
    -1.4681  -1.4210  -1.3513  -1.2729  -1.2670  -1.2211  -1.1688  -1.1290
    -1.0999  -1.0527  -1.0496  -1.0037  -0.8630  -0.8364  -0.7973  -0.6735
    -0.6014  -0.5861  -0.5721  -0.5552  -0.5289  -0.4820  -0.4764  -0.4200
    -0.3983  -0.3265  -0.3242  -0.3000  -0.2755  -0.1689  -0.0541   0.0373
     0.0714   0.1281   0.1679   0.2012   0.2841   0.3575   0.4411   0.5273
     0.5535   0.5642   0.6856   0.7126   0.7635   0.8165   0.8323   0.8921
     0.9249   0.9679   0.9961   1.7920   1.8053   1.8611   1.8659   3.6707
     3.9201   3.9720   3.9901   4.0029   4.0364   4.0563   4.1030   4.1208
     4.1469

     the Fermi energy is     3.4962 ev

!    total energy              =   -2966.27803938 Ry
     estimated scf accuracy    <       0.00000002 Ry
     smearing contrib. (-TS)   =      -0.02072893 Ry
     internal energy E=F+TS    =   -2966.25731045 Ry

     The total energy is F=E-TS. E is the sum of the following terms:
     one-electron contribution =  -24040.85205385 Ry
     hartree contribution      =   12112.88761003 Ry
     xc contribution           =    -490.94525473 Ry
     ewald contribution        =    9452.65035891 Ry
     electric field correction =       0.00202919 Ry

     convergence has been achieved in  66 iterations

     Forces acting on atoms (cartesian axes, Ry/au):

     atom    1 type  1   force =    -0.00039650    0.00005319    0.09456022
     atom    2 type  1   force =    -0.00032030    0.00499088   -0.17464608
     atom    3 type  2   force =     0.00082424   -0.00023515   -0.02593093
     atom    4 type  2   force =     0.00125430    0.00074967    0.05284260
     atom    5 type  2   force =    -0.01098224   -0.00285537    0.00048728
     atom    6 type  2   force =     0.01164552   -0.00410282    0.00186419
     atom    7 type  1   force =     0.00052278    0.00038780   -0.00014710
     atom    8 type  1   force =    -0.00044454    0.00020117    0.00078439
     atom    9 type  2   force =    -0.00044568    0.00028371   -0.00025025
     atom   10 type  2   force =     0.00031747   -0.00035208   -0.00045731
     atom   11 type  2   force =     0.00061058    0.00032063   -0.00023313
     atom   12 type  2   force =    -0.00037730   -0.00046232   -0.00038582
     atom   13 type  1   force =    -0.00130261   -0.00079881    0.00033009
     atom   14 type  1   force =     0.00029094    0.00009587    0.00058285
     atom   15 type  2   force =     0.00048420    0.00067926    0.00019631
     atom   16 type  2   force =    -0.00049773    0.00051733    0.00054154
     atom   17 type  2   force =     0.00009224    0.00034309    0.00001872
     atom   18 type  2   force =    -0.00034518    0.00004431    0.00040323
     atom   19 type  1   force =    -0.00036809    0.00112690   -0.00020986
     atom   20 type  1   force =    -0.00017117   -0.00046647   -0.00094297
     atom   21 type  2   force =    -0.00001567    0.00005507    0.10310460
     atom   22 type  2   force =    -0.00034240   -0.00058339   -0.00057880
     atom   23 type  2   force =    -0.07205865    0.00005016   -0.02790008
     atom   24 type  2   force =     0.07191662    0.00053798   -0.02800644
     atom   25 type  1   force =    -0.00043945    0.00000062    0.10114142
     atom   26 type  1   force =    -0.00006082   -0.00461079   -0.17489868
     atom   27 type  2   force =     0.00089742    0.00114634   -0.02441980
     atom   28 type  2   force =     0.00113697    0.00015069    0.05240808
     atom   29 type  2   force =    -0.01186904    0.00306320    0.00195528
     atom   30 type  2   force =     0.01326675    0.00116348    0.00308943
     atom   31 type  1   force =     0.00057909    0.00002262   -0.00053600
     atom   32 type  1   force =    -0.00035546    0.00070095    0.00049118
     atom   33 type  2   force =    -0.00020197    0.00092658    0.00018078
     atom   34 type  2   force =     0.00013955   -0.00012750   -0.00096544
     atom   35 type  2   force =     0.00033742    0.00007640    0.00053999
     atom   36 type  2   force =     0.00009668    0.00016596    0.00047440
     atom   37 type  1   force =    -0.00146074   -0.00061078    0.00030964
     atom   38 type  1   force =     0.00078363   -0.00025992   -0.00011437
     atom   39 type  2   force =     0.00045572   -0.00020535    0.00123222
     atom   40 type  2   force =    -0.00011231    0.00034658    0.00052321
     atom   41 type  2   force =    -0.00045859   -0.00001952   -0.00071018
     atom   42 type  2   force =    -0.00009410   -0.00025816   -0.00049635
     atom   43 type  1   force =    -0.00001561   -0.00027132   -0.00036709
     atom   44 type  1   force =    -0.00022612   -0.00027594   -0.00146718
     atom   45 type  2   force =    -0.00001223    0.00013107    0.10268088
     atom   46 type  2   force =    -0.07202889   -0.00056199   -0.02788146
     atom   47 type  2   force =     0.07188120   -0.00007284   -0.02796359
     atom   48 type  3   force =     0.00356987   -0.00089496    0.01580372
     atom   49 type  2   force =     0.00137870   -0.00061960   -0.00650173
     atom   50 type  4   force =    -0.00237923   -0.00110895   -0.00267757
     atom   51 type  4   force =    -0.00022614   -0.00007572   -0.00012374
     atom   52 type  4   force =    -0.00305117    0.00388843   -0.00600133
     atom   53 type  4   force =    -0.00088856   -0.00221878   -0.00258085
     atom   54 type  2   force =     0.00106054    0.00007628    0.00043597
     atom   55 type  4   force =    -0.00159392   -0.00024771    0.00041191

     Total force =     0.364949     Total SCF correction =     0.000471
  @ DRIVER MODE: Message from server: STATUS
  @ DRIVER MODE: Message from server: GETFORCE
  @ DRIVER MODE: Returning v,forces,stress,ensemble

     Writing output data file ./calc.save/
  @ DRIVER MODE: Message from server: EXIT
  @ DRIVE MODE: Exiting

     General routines

     Parallel routines

   This run was terminated on:   0:14:22  23Sep2021

   JOB DONE.