     Program PWSCF v.6.7GPU starts on 22Sep2021 at  9:53:42

     R & G space division:  proc/nbgrp/npool/nimage =      10
     Reading input from /storage/home/hcoda1/3/ntian30/research/carbon/CxH_vib/CH_calc/ads_slab/CHNHNH2H2O_b/out_0033/pw.inp
Warning: card &CELL ignored
Warning: card   CELL_DYNAMICS='IPI', ignored
Warning: card / ignored

     Current dimensions of program PWSCF are:
     Max number of different atomic species (ntypx) = 10
     Max number of k-points (npk) =  40000
     Max angular momentum in pseudopotentials (lmaxx) =  3
     Presently no symmetry can be used with electric field

     Message from routine cell_base_init:
     DEPRECATED: use true lattice parameter, not A to a.u. conversion factor

     IMPORTANT: XC functional enforced from input :
     Exchange-correlation= BEEF-VDW
                           (   1   4  43  14   2   0   0)
     Any further DFT definition will be discarded
     Please, verify this is what you really want

  @ DRIVER MODE: Connecting to
 qe_1139763_2927425.sched-torque.pace.gatech.edu8ouj4lpu_scratch
  using UNIX socket
  @ DRIVER MODE: Message from server: STATUS
  @ DRIVER MODE: Message from server: INIT
  @ DRIVER MODE: Receiving replica           0          -1
  @ DRIVER MODE: Receiving encoded integer          25
  @ DRIVER MODE:  SCF:  T  FORCE:  T  STRESS:  F  VC:  F  ENSEMBLE:  F
  @ DRIVER MODE:  SCF:  T  FORCE:  T  STRESS:  F  VC:  F  ENSEMBLE:  F

     Using Slab Decomposition

     bravais-lattice index     =            0
     lattice parameter (alat)  =       1.8897  a.u.
     unit-cell volume          =    6658.9804 (a.u.)^3
     number of atoms/cell      =           57
     number of atomic types    =            5
     number of electrons       =       404.00
     number of Kohn-Sham states=          212
     kinetic-energy cutoff     =      29.3995  Ry
     charge density cutoff     =     293.9946  Ry
     scf convergence threshold =      7.3E-08
     mixing beta               =       0.0500
     number of iterations used =            8  plain     mixing
     Exchange-correlation= BEEF-VDW
                           (   1   4  43  14   2   0   0)

     celldm(1)=   1.889726  celldm(2)=   0.000000  celldm(3)=   0.000000
     celldm(4)=   0.000000  celldm(5)=   0.000000  celldm(6)=   0.000000

     crystal axes: (cart. coord. in units of alat)
               a(1) = (   6.579727   0.000000   0.000000 )
               a(2) = (  -0.000775   5.961596   0.000000 )
               a(3) = (   0.000000   0.000000  25.155947 )

     reciprocal axes: (cart. coord. in units 2 pi/alat)
               b(1) = (  0.151982  0.000020  0.000000 )
               b(2) = (  0.000000  0.167740  0.000000 )
               b(3) = (  0.000000  0.000000  0.039752 )

     PseudoPot. # 1 for Ti read from file:
     /storage/coda1/p-amedford6/0/shared/rich_project_chbe-medford/medford-share/data/pseudos_module/espresso/nninc/pbe/van/Ti.UPF
     MD5 check sum: 8e4df49b7f0d34bbd5052bf3f5ea0213
     Pseudo is Ultrasoft, Zval = 12.0
     Generated by new atomic code, or converted to UPF format
     Using radial grid of  851 points,  6 beta functions with:
                l(1) =   0
                l(2) =   0
                l(3) =   1
                l(4) =   1
                l(5) =   2
                l(6) =   2
     Q(r) pseudized with  8 coefficients,  rinner =    1.000   1.000   1.000
                                                       1.000   1.000

     PseudoPot. # 2 for O  read from file:
     /storage/coda1/p-amedford6/0/shared/rich_project_chbe-medford/medford-share/data/pseudos_module/espresso/nninc/pbe/van/O.UPF
     MD5 check sum: 78c19812648e8988a0fe644b0f25305e
     Pseudo is Ultrasoft, Zval =  6.0
     Generated by new atomic code, or converted to UPF format
     Using radial grid of  737 points,  4 beta functions with:
                l(1) =   0
                l(2) =   0
                l(3) =   1
                l(4) =   1
     Q(r) pseudized with  8 coefficients,  rinner =    0.800   0.800   0.800

     PseudoPot. # 3 for N  read from file:
     /storage/coda1/p-amedford6/0/shared/rich_project_chbe-medford/medford-share/data/pseudos_module/espresso/nninc/pbe/van/N.UPF
     MD5 check sum: 90d10febe142ad51ac9d5be1deb811c4
     Pseudo is Ultrasoft, Zval =  5.0
     Generated by new atomic code, or converted to UPF format
     Using radial grid of  729 points,  4 beta functions with:
                l(1) =   0
                l(2) =   0
                l(3) =   1
                l(4) =   1
     Q(r) pseudized with  8 coefficients,  rinner =    0.800   0.800   0.800

     PseudoPot. # 4 for C  read from file:
     /storage/coda1/p-amedford6/0/shared/rich_project_chbe-medford/medford-share/data/pseudos_module/espresso/nninc/pbe/van/C.UPF
     MD5 check sum: 1a69bf6b8db32088f5b2163dbdb77a27
     Pseudo is Ultrasoft, Zval =  4.0
     Generated by new atomic code, or converted to UPF format
     Using radial grid of  721 points,  4 beta functions with:
                l(1) =   0
                l(2) =   0
                l(3) =   1
                l(4) =   1
     Q(r) pseudized with  8 coefficients,  rinner =    0.800   0.800   0.800

     PseudoPot. # 5 for H  read from file:
     /storage/coda1/p-amedford6/0/shared/rich_project_chbe-medford/medford-share/data/pseudos_module/espresso/nninc/pbe/van/H.UPF
     MD5 check sum: b5ee9d7bfd3a09ee7748110bda690ff7
     Pseudo is Ultrasoft, Zval =  1.0
     Generated by new atomic code, or converted to UPF format
     Using radial grid of  615 points,  1 beta functions with:
                l(1) =   0
     Q(r) pseudized with  8 coefficients,  rinner =    0.800

     atomic species   valence    mass     pseudopotential
        Ti1           12.00    47.86700     Ti( 1.00)
        O1             6.00    15.99900     O ( 1.00)
        N1             5.00    14.00700     N ( 1.00)
        C1             4.00    12.01100     C ( 1.00)
        H1             1.00     1.00800     H ( 1.00)

     No symmetry found

   Cartesian axes

     site n.     atom                  positions (alat units)
         1           Ti1 tau(   1) = (   0.0004258   2.9801865   6.0000000  )
         2           Ti1 tau(   2) = (   3.2906075   1.4906267   6.0002472  )
         3           O1  tau(   3) = (   0.0006271   0.0005054   7.9858123  )
         4           O1  tau(   4) = (   3.2906025   0.0005020   7.3038282  )
         5           O1  tau(   5) = (   4.5942328   1.4918067   9.2879030  )
         6           O1  tau(   6) = (   1.9868534   1.4903216   9.2879459  )
         7           Ti1 tau(   7) = (   3.2907910   2.8959150   9.1758416  )
         8           Ti1 tau(   8) = (   0.0015273   1.4827037   9.2680791  )
         9           O1  tau(   9) = (   3.3066417   5.9496923  11.3845403  )
        10           O1  tau(  10) = (   0.0116148   5.9584955  10.6183126  )
        11           O1  tau(  11) = (   1.3010148   1.4986442  12.6442229  )
        12           O1  tau(  12) = (   5.3085967   1.5001388  12.6592367  )
        13           Ti1 tau(  13) = (   0.0282779   2.9853959  12.5065338  )
        14           Ti1 tau(  14) = (   3.3279724   1.4707331  12.5413945  )
        15           O1  tau(  15) = (   0.0378505   0.0859181  14.6860672  )
        16           O1  tau(  16) = (   3.3018867   0.0259462  14.0338077  )
        17           O1  tau(  17) = (   4.5998927   1.5484098  16.1661054  )
        18           O1  tau(  18) = (   2.0454451   1.5021798  16.2221046  )
        19           Ti1 tau(  19) = (   3.3206312   2.9825829  15.7321521  )
        20           Ti1 tau(  20) = (   0.0140791   1.4435866  15.9983415  )
        21           O1  tau(  21) = (   3.2904802   0.0005063   4.7018136  )
        22           O1  tau(  22) = (   6.5273045   5.8164216  17.2577718  )
        23           O1  tau(  23) = (   1.3043587   1.4918075   6.0039043  )
        24           O1  tau(  24) = (   5.2767064   1.4903225   6.0039473  )
        25           Ti1 tau(  25) = (   0.0000382   5.9609847   6.0000000  )
        26           Ti1 tau(  26) = (   3.2902200   4.4714249   6.0002472  )
        27           O1  tau(  27) = (   0.0002396   2.9813036   7.9858123  )
        28           O1  tau(  28) = (   3.2902150   2.9813002   7.3038282  )
        29           O1  tau(  29) = (   4.5938453   4.4726049   9.2879030  )
        30           O1  tau(  30) = (   1.9864658   4.4711199   9.2879459  )
        31           Ti1 tau(  31) = (   3.2891106   5.8743827   9.1763621  )
        32           Ti1 tau(  32) = (   0.0006254   4.4649316   9.2693709  )
        33           O1  tau(  33) = (   3.3068470   2.9864458  11.3814114  )
        34           O1  tau(  34) = (   0.0092240   2.9805883  10.6323155  )
        35           O1  tau(  35) = (   1.2982948   4.4740332  12.6840172  )
        36           O1  tau(  36) = (   5.3097620   4.4704985  12.6972095  )
        37           Ti1 tau(  37) = (   0.0348817   0.0130325  12.4954113  )
        38           Ti1 tau(  38) = (   3.3270268   4.4633798  12.5435021  )
        39           O1  tau(  39) = (   0.0563025   2.9439880  14.9425960  )
        40           O1  tau(  40) = (   3.2900316   2.9661073  13.9503945  )
        41           O1  tau(  41) = (   4.5967999   4.4093095  16.0633277  )
        42           O1  tau(  42) = (   2.0412097   4.4536800  16.1303113  )
        43           Ti1 tau(  43) = (   3.2964201   5.9600488  15.8742613  )
        44           Ti1 tau(  44) = (   0.0241369   4.6516137  15.8518307  )
        45           O1  tau(  45) = (   3.2900926   2.9813045   4.7018136  )
        46           O1  tau(  46) = (   1.3039711   4.4726057   6.0039043  )
        47           O1  tau(  47) = (   5.2763189   4.4711207   6.0039473  )
        48           N1  tau(  48) = (   1.4509408   2.7109095  18.7602185  )
        49           N1  tau(  49) = (   0.0917387   2.5303350  18.2207845  )
        50           C1  tau(  50) = (   1.9503960   3.7723240  19.2784661  )
        51           H1  tau(  51) = (   1.1612915   4.5273475  19.4152495  )
        52           H1  tau(  52) = (   2.0208952   1.9183395  18.4664618  )
        53           H1  tau(  53) = (   6.1377449   3.3439424  18.4987646  )
        54           H1  tau(  54) = (   6.2616785   1.7135167  18.6767212  )
        55           O1  tau(  55) = (   3.7012217   5.9496235  18.2853534  )
        56           H1  tau(  56) = (   4.6684668   5.8470116  18.1670174  )
        57           H1  tau(  57) = (   3.3852657   5.1278045  18.7338684  )

     number of k points=    10  Fermi-Dirac smearing, width (Ry)=  0.0073
                       cart. coord. in units 2pi/alat
        k(    1) = (   0.0000000   0.0000000   0.0000000), wk =   0.1250000
        k(    2) = (   0.0000000   0.0419351   0.0000000), wk =   0.2500000
        k(    3) = (   0.0000000  -0.0838702   0.0000000), wk =   0.1250000
        k(    4) = (   0.0379955   0.0000049   0.0000000), wk =   0.2500000
        k(    5) = (   0.0379955   0.0419400   0.0000000), wk =   0.2500000
        k(    6) = (   0.0379955  -0.0838652   0.0000000), wk =   0.2500000
        k(    7) = (   0.0379955  -0.0419301   0.0000000), wk =   0.2500000
        k(    8) = (  -0.0759910  -0.0000099   0.0000000), wk =   0.1250000
        k(    9) = (  -0.0759910   0.0419252   0.0000000), wk =   0.2500000
        k(   10) = (  -0.0759910  -0.0838800   0.0000000), wk =   0.1250000

     Initial potential from superposition of free atoms

     starting charge  387.99913, renormalised to  404.00000

     negative rho (up, down):  1.598E-02 0.000E+00

     %%%%%%%%%%%%%%%%%%%%%%%%%%%%%%%%%%%%%%%%%%%%%%%%%%%%%%%%%%%%%%%%%%%%%%%%
     %                                                                      %
     % You are using vdW-DF, which was implemented by the Thonhauser group. %
     % Please cite the following two papers that made this development      %
     % possible and the two reviews that describe the various versions:     %
     %                                                                      %
     %   T. Thonhauser et al., PRL 115, 136402 (2015).                      %
     %   T. Thonhauser et al., PRB 76, 125112 (2007).                       %
     %   K. Berland et al., Rep. Prog. Phys. 78, 066501 (2015).             %
     %   D.C. Langreth et al., J. Phys.: Condens. Matter 21, 084203 (2009). %
     %                                                                      %
     %                                                                      %
     % If you are calculating the stress with vdW-DF, please also cite:     %
     %                                                                      %
     %   R. Sabatini et al., J. Phys.: Condens. Matter 24, 424209 (2012).   %
     %                                                                      %
     %%%%%%%%%%%%%%%%%%%%%%%%%%%%%%%%%%%%%%%%%%%%%%%%%%%%%%%%%%%%%%%%%%%%%%%%

     Adding external electric field

     Computed dipole along edir(3) :
        Dipole              -14.3585 Ry au,        -36.4957 Debye
        Dipole field         -0.0271 Ry au,

        Potential amp.        2.5118 Ry
        Total length         46.3494 bohr

     Starting wfcs are  306 atomic wfcs
  @ DRIVER MODE: Message from server: STATUS
  @ DRIVER MODE: Message from server: POSDATA
  @ DRIVER MODE: Reading and sharing cell
  @ DRIVER MODE: Reading and sharing positions
  @ DRIVER MODE: Received positions

     Self-consistent Calculation

     iteration #  1     ecut=    29.40 Ry     beta= 0.05
     Davidson diagonalization with overlap
     c_bands:  3 eigenvalues not converged
     c_bands:  4 eigenvalues not converged
     c_bands:  4 eigenvalues not converged
     c_bands:  4 eigenvalues not converged
     c_bands:  5 eigenvalues not converged
     c_bands:  3 eigenvalues not converged
     c_bands:  2 eigenvalues not converged
     c_bands:  4 eigenvalues not converged
     ethr =  1.00E-05,  avg # of iterations = 21.9

[...]

     total energy              =   -2220.91450172 Ry
     estimated scf accuracy    <    8587.38357935 Ry

     iteration #  2     ecut=    29.40 Ry     beta= 0.05
     Davidson diagonalization with overlap
     ethr =  1.00E-02,  avg # of iterations = 28.1

[...]

     iteration # 71     ecut=    29.40 Ry     beta= 0.05
     Davidson diagonalization with overlap
     ethr =  9.35E-11,  avg # of iterations =  5.9

[...]

     total energy              =   -2975.10518242 Ry
     estimated scf accuracy    <       0.00000009 Ry

     iteration # 72     ecut=    29.40 Ry     beta= 0.05
     Davidson diagonalization with overlap
     c_bands:  1 eigenvalues not converged
     c_bands:  1 eigenvalues not converged
     ethr =  2.30E-11,  avg # of iterations = 16.2

     negative rho (up, down):  1.579E-02 0.000E+00

     Adding external electric field

     Computed dipole along edir(3) :
        Dipole                1.0259 Ry au,          2.6077 Debye
        Dipole field          0.0019 Ry au,

        Potential amp.       -0.1795 Ry
        Total length         46.3494 bohr

     End of self-consistent calculation

          k = 0.0000 0.0000 0.0000 ( 18029 PWs)   bands (ev):

   -55.3845 -55.3487 -55.3446 -55.3105 -55.3074 -55.3018 -55.2664 -55.2311
   -55.2161 -55.1812 -55.1745 -55.1593 -55.1408 -55.1112 -54.3761 -54.3421
   -31.9435 -31.8795 -31.8373 -31.7561 -31.7074 -31.7046 -31.6804 -31.6775
   -31.6334 -31.5976 -31.5906 -31.5892 -31.5823 -31.5789 -31.5607 -31.5585
   -31.5338 -31.5258 -31.5229 -31.5116 -31.4973 -31.4906 -31.4720 -31.4668
   -31.4586 -31.4457 -31.4450 -31.4163 -31.4019 -31.3981 -31.3951 -31.3729
   -31.3689 -31.3649 -31.3614 -31.3402 -31.3291 -31.3172 -31.3022 -31.3021
   -31.2916 -31.2856 -30.7856 -30.6910 -30.6690 -30.6019 -30.5151 -30.4043
   -18.8911 -18.4560 -16.2194 -15.9721 -15.8360 -15.7316 -15.5942 -15.4960
   -15.3869 -15.2736 -15.2505 -15.1567 -15.0824 -15.0786 -15.0415 -15.0156
   -14.9531 -14.9317 -14.9079 -14.9019 -14.8874 -14.8772 -14.8406 -14.8297
   -14.8012 -14.7859 -14.7686 -14.6673 -14.6266 -14.5512 -14.4807 -14.3443
   -12.8787 -12.7612  -9.8468  -7.0016  -6.3796  -6.1108  -4.4291  -3.7373
    -3.5432  -3.4096  -3.3314  -3.3028  -3.2850  -3.1534  -3.0606  -2.9014
    -2.8626  -2.8063  -2.6730  -2.5971  -2.5908  -2.5029  -2.4304  -2.4070
    -2.3741  -2.2650  -2.2586  -2.2090  -2.1915  -2.1684  -2.1591  -2.1124
    -2.0663  -2.0392  -1.9542  -1.8526  -1.8089  -1.7891  -1.7527  -1.7301
    -1.7254  -1.6817  -1.6755  -1.6518  -1.6130  -1.5887  -1.5433  -1.4311
    -1.3901  -1.2311  -1.1938  -1.0394  -1.0189  -0.9797  -0.9594  -0.9257
    -0.8929  -0.8765  -0.8622  -0.7716  -0.7132  -0.6470  -0.5829  -0.4920
    -0.4817  -0.4079  -0.3820  -0.3168  -0.2294  -0.1846  -0.1750  -0.1503
    -0.1469  -0.0332   0.0117   0.0719   0.0905   0.1480   0.1638   0.1860
     0.2560   0.3095   0.3791   0.4098   0.4888   0.5071   0.5422   0.5513
     0.5836   0.5941   0.6705   0.6852   0.7134   0.8161   0.9135   1.0071
     1.2166   1.2190   1.2515   1.5515   1.5537   1.6468   1.8302   2.2231
     2.2715   3.7053   3.7837   3.8333   3.8508   3.8554   3.9402   4.1948
     4.2091   4.2218   4.2280   4.2688

[...]

          k = 0.0380-0.0419 0.0000 ( 17876 PWs)   bands (ev):

[...]

          k =-0.0760-0.0000 0.0000 ( 17886 PWs)   bands (ev):

[...]

          k =-0.0760-0.0839 0.0000 ( 17948 PWs)   bands (ev):

   -55.3677 -55.3654 -55.3275 -55.3274 -55.3045 -55.3009 -55.2527 -55.2448
   -55.2018 -55.1951 -55.1612 -55.1586 -55.1569 -55.1129 -54.3590 -54.3590
   -31.7942 -31.7560 -31.7419 -31.6524 -31.6523 -31.6380 -31.6260 -31.6187
   -31.6185 -31.5977 -31.5928 -31.5895 -31.5667 -31.5589 -31.5471 -31.5331
   -31.5299 -31.5273 -31.5234 -31.5153 -31.5107 -31.5085 -31.5077 -31.4997
   -31.4680 -31.4665 -31.4473 -31.4472 -31.4467 -31.4420 -31.4391 -31.4347
   -31.4253 -31.4138 -31.4081 -31.3915 -31.3897 -31.3793 -31.3385 -31.3375
   -31.3369 -31.3177 -30.6816 -30.6816 -30.5982 -30.5980 -30.5586 -30.5585
   -18.8853 -18.4583 -15.8389 -15.6523 -15.5009 -15.4291 -15.4088 -15.3256
   -15.2702 -15.2670 -15.1943 -15.1758 -15.1634 -15.1419 -15.1322 -15.0849
   -15.0478 -15.0110 -14.9923 -14.9696 -14.9265 -14.9038 -14.9022 -14.8954
   -14.8877 -14.8475 -14.8422 -14.8389 -14.7472 -14.7453 -14.7237 -14.5671
   -12.8627 -12.8626  -9.8560  -6.9905  -6.3546  -6.0872  -4.4428  -3.6660
    -3.0229  -2.9104  -2.8998  -2.6709  -2.6525  -2.5915  -2.5790  -2.4909
    -2.4753  -2.4147  -2.3911  -2.3410  -2.3181  -2.2803  -2.2664  -2.2446
    -2.2237  -2.2099  -2.1834  -2.1672  -2.1503  -2.1309  -2.1195  -2.1082
    -2.0531  -2.0473  -2.0385  -2.0132  -1.9901  -1.9541  -1.9440  -1.9279
    -1.7723  -1.7566  -1.7352  -1.5997  -1.5954  -1.5618  -1.5212  -1.4937
    -1.4358  -1.4272  -1.3990  -1.3402  -1.1470  -1.1362  -1.1238  -1.1058
    -1.0343  -0.9793  -0.9654  -0.9475  -0.8938  -0.8156  -0.7824  -0.7296
    -0.6415  -0.5883  -0.5790  -0.5531  -0.4318  -0.4089  -0.3664  -0.3484
    -0.3322  -0.2976  -0.2961  -0.2388  -0.1861  -0.1505  -0.1276  -0.1133
    -0.0764   0.0782   0.1306   0.1468   0.2614   0.2904   0.4684   0.5113
     0.5331   0.6380   0.7213   0.7493   0.7637   0.8898   0.9116   0.9138
     0.9822   1.0044   1.0644   1.0702   1.2079   2.0029   2.0042   2.0913
     2.0916   3.8304   3.9532   3.9975   4.0333   4.1094   4.1620   4.2190
     4.2781   4.2899   4.2934   4.3608

     the Fermi energy is     3.7674 ev

!    total energy              =   -2975.10520397 Ry
     estimated scf accuracy    <       0.00000005 Ry
     smearing contrib. (-TS)   =      -0.03671887 Ry
     internal energy E=F+TS    =   -2975.06848510 Ry

     The total energy is F=E-TS. E is the sum of the following terms:
     one-electron contribution =  -23505.51925095 Ry
     hartree contribution      =   11848.78413252 Ry
     xc contribution           =    -494.92485038 Ry
     ewald contribution        =    9176.58949745 Ry
     electric field correction =       0.00198626 Ry

     convergence has been achieved in  72 iterations

     Forces acting on atoms (cartesian axes, Ry/au):

     atom    1 type  1   force =     0.00003010   -0.00025060    0.09309135
     atom    2 type  1   force =    -0.00018657   -0.00032248   -0.17837109
     atom    3 type  2   force =     0.00006078   -0.00017345   -0.02025133
     atom    4 type  2   force =     0.00001715   -0.00203544    0.05924514
     atom    5 type  2   force =    -0.01033570   -0.00110429    0.00809095
     atom    6 type  2   force =     0.01217853   -0.00054939    0.00816987
     atom    7 type  1   force =     0.00015145    0.00329319   -0.01111092
     atom    8 type  1   force =    -0.00030153    0.00053804   -0.00562103
     atom    9 type  2   force =     0.00004132    0.00017658   -0.00015716
     atom   10 type  2   force =    -0.00146508   -0.00003936   -0.00171954
     atom   11 type  2   force =     0.00037350   -0.00003323   -0.00005761
     atom   12 type  2   force =    -0.00009408    0.00010899   -0.00008737
     atom   13 type  1   force =    -0.00009612   -0.00017405   -0.00024294
     atom   14 type  1   force =    -0.00021063   -0.00035881    0.00033300
     atom   15 type  2   force =     0.00006766   -0.00044843    0.00008644
     atom   16 type  2   force =     0.00021956    0.00009276    0.00027083
     atom   17 type  2   force =     0.00035359   -0.00016237    0.00020469
     atom   18 type  2   force =    -0.00005746   -0.00013114   -0.00011176
     atom   19 type  1   force =    -0.00028797   -0.00042840   -0.00001311
     atom   20 type  1   force =     0.00012923    0.00017605    0.00056580
     atom   21 type  2   force =    -0.00000294   -0.00007383    0.10400430
     atom   22 type  2   force =    -0.00009022   -0.00006730   -0.00026530
     atom   23 type  2   force =    -0.07034632   -0.00015302   -0.02682977
     atom   24 type  2   force =     0.07021566    0.00029327   -0.02690631
     atom   25 type  1   force =     0.00002188   -0.00015644    0.09275207
     atom   26 type  1   force =    -0.00015614   -0.00039698   -0.17831484
     atom   27 type  2   force =     0.00011079   -0.00030686   -0.01919925
     atom   28 type  2   force =     0.00004651   -0.00163171    0.05839392
     atom   29 type  2   force =    -0.01028380   -0.00064201    0.00729649
     atom   30 type  2   force =     0.01202049   -0.00030978    0.00743152
     atom   31 type  1   force =     0.00007493    0.00515669   -0.01465066
     atom   32 type  1   force =    -0.00013820   -0.00052195   -0.00596315
     atom   33 type  2   force =     0.00012865   -0.00039237   -0.00024200
     atom   34 type  2   force =    -0.00078852    0.00261190   -0.00103588
     atom   35 type  2   force =    -0.00007399   -0.00011694   -0.00012153
     atom   36 type  2   force =     0.00023750    0.00000033   -0.00014789
     atom   37 type  1   force =    -0.00044193    0.00008221    0.00002573
     atom   38 type  1   force =    -0.00003051   -0.00024219   -0.00025270
     atom   39 type  2   force =    -0.00030526   -0.00022450   -0.00017239
     atom   40 type  2   force =    -0.00013379   -0.00005888   -0.00003026
     atom   41 type  2   force =    -0.00016660   -0.00015641    0.00037456
     atom   42 type  2   force =    -0.00004536   -0.00025063    0.00014096
     atom   43 type  1   force =     0.00000506   -0.00032727    0.00010377
     atom   44 type  1   force =    -0.00001394    0.00004626    0.00032532
     atom   45 type  2   force =     0.00000988   -0.00010863    0.10397519
     atom   46 type  2   force =    -0.07037123   -0.00012466   -0.02685139
     atom   47 type  2   force =     0.07021656    0.00030950   -0.02691209
     atom   48 type  3   force =    -0.00000369    0.00109534    0.00039979
     atom   49 type  3   force =     0.00468590   -0.01176475   -0.00250088
     atom   50 type  4   force =     0.00026017    0.00124825    0.00067146
     atom   51 type  5   force =     0.00003021   -0.00065233   -0.00044489
     atom   52 type  5   force =    -0.00015398   -0.00101214   -0.00031344
     atom   53 type  5   force =    -0.00599423    0.01156473    0.00320340
     atom   54 type  5   force =     0.00090453   -0.00022793   -0.00053155
     atom   55 type  2   force =     0.00012402   -0.00015069    0.00059441
     atom   56 type  5   force =     0.00026838   -0.00040454   -0.00042925
     atom   57 type  5   force =    -0.00040818   -0.00010793    0.00010831

     Total force =     0.366644     Total SCF correction =     0.000597
  @ DRIVER MODE: Message from server: STATUS
  @ DRIVER MODE: Message from server: GETFORCE
  @ DRIVER MODE: Returning v,forces,stress,ensemble

     Writing output data file ./calc.save/
  @ DRIVER MODE: Message from server: EXIT
  @ DRIVE MODE: Exiting

     General routines

     Parallel routines

   This run was terminated on:  10:14: 3  22Sep2021

   JOB DONE.