     Program PWSCF v.6.8 starts on 11Oct2021 at 21:53:37

     R & G space division:  proc/nbgrp/npool/nimage =       4

     Reading input from /storage/home/hcoda1/3/ntian30/research/carbon/ACS_sus_calc/ads_slab/H2NNH2/ACS_sus_calc.log/pw.inp
Warning: card &CELL ignored
Warning: card   CELL_DYNAMICS='IPI', ignored
Warning: card / ignored

     Current dimensions of program PWSCF are:
     Max number of different atomic species (ntypx) = 10
     Max number of k-points (npk) =  40000
     Max angular momentum in pseudopotentials (lmaxx) =  4
     Presently no symmetry can be used with electric field

     Message from routine cell_base_init:
     DEPRECATED: use true lattice parameter, not A to a.u. conversion factor

     IMPORTANT: XC functional enforced from input :
     Exchange-correlation= BEEF-VDW
                           (   1   4  43  14   2   0   0)
     Any further DFT definition will be discarded
     Please, verify this is what you really want

  @ DRIVER MODE: Connecting to
 qe_1139763_3174292.sched-torque.pace.gatech.edu9gkxeg6l_scratch
  using UNIX socket
  @ DRIVER MODE: Message from server: STATUS
  @ DRIVER MODE: Message from server: INIT
  @ DRIVER MODE: Receiving replica           0          -1
  @ DRIVER MODE: Receiving encoded integer          25
  @ DRIVER MODE:  SCF:  T  FORCE:  T  STRESS:  F  VC:  F  ENSEMBLE:  F
  @ DRIVER MODE:  SCF:  T  FORCE:  T  STRESS:  F  VC:  F  ENSEMBLE:  F

     Using Slab Decomposition

     bravais-lattice index     =            0
     lattice parameter (alat)  =       1.8897  a.u.
     unit-cell volume          =    6658.9804 (a.u.)^3
     number of atoms/cell      =           53
     number of atomic types    =            4
     number of electrons       =       392.00
     number of Kohn-Sham states=          206
     kinetic-energy cutoff     =      29.3995  Ry
     charge density cutoff     =     293.9946  Ry
     scf convergence threshold =      7.3E-08
     mixing beta               =       0.0500
     number of iterations used =            8  plain     mixing
     Exchange-correlation= BEEF-VDW
                           (   1   4  43  14   2   0   0)

     celldm(1)=   1.889726  celldm(2)=   0.000000  celldm(3)=   0.000000
     celldm(4)=   0.000000  celldm(5)=   0.000000  celldm(6)=   0.000000

     crystal axes: (cart. coord. in units of alat)
               a(1) = (   6.579727   0.000000   0.000000 )
               a(2) = (  -0.000775   5.961596   0.000000 )
               a(3) = (   0.000000   0.000000  25.155947 )

     reciprocal axes: (cart. coord. in units 2 pi/alat)
               b(1) = (  0.151982  0.000020  0.000000 )
               b(2) = (  0.000000  0.167740  0.000000 )
               b(3) = (  0.000000  0.000000  0.039752 )

     PseudoPot. # 1 for Ti read from file:
     /storage/coda1/p-amedford6/0/shared/rich_project_chbe-medford/medford-share/data/pseudos_module/espresso/nninc/pbe/van/Ti.UPF
     MD5 check sum: 8e4df49b7f0d34bbd5052bf3f5ea0213
     Pseudo is Ultrasoft, Zval = 12.0
     Generated by new atomic code, or converted to UPF format
     Using radial grid of  851 points,  6 beta functions with:
                l(1) =   0
                l(2) =   0
                l(3) =   1
                l(4) =   1
                l(5) =   2
                l(6) =   2
     Q(r) pseudized with  8 coefficients,  rinner =    1.000   1.000   1.000
                                                       1.000   1.000

     PseudoPot. # 2 for O  read from file:
     /storage/coda1/p-amedford6/0/shared/rich_project_chbe-medford/medford-share/data/pseudos_module/espresso/nninc/pbe/van/O.UPF
     MD5 check sum: 78c19812648e8988a0fe644b0f25305e
     Pseudo is Ultrasoft, Zval =  6.0
     Generated by new atomic code, or converted to UPF format
     Using radial grid of  737 points,  4 beta functions with:
                l(1) =   0
                l(2) =   0
                l(3) =   1
                l(4) =   1
     Q(r) pseudized with  8 coefficients,  rinner =    0.800   0.800   0.800

     PseudoPot. # 3 for H  read from file:
     /storage/coda1/p-amedford6/0/shared/rich_project_chbe-medford/medford-share/data/pseudos_module/espresso/nninc/pbe/van/H.UPF
     MD5 check sum: b5ee9d7bfd3a09ee7748110bda690ff7
     Pseudo is Ultrasoft, Zval =  1.0
     Generated by new atomic code, or converted to UPF format
     Using radial grid of  615 points,  1 beta functions with:
                l(1) =   0
     Q(r) pseudized with  8 coefficients,  rinner =    0.800

     PseudoPot. # 4 for N  read from file:
     /storage/coda1/p-amedford6/0/shared/rich_project_chbe-medford/medford-share/data/pseudos_module/espresso/nninc/pbe/van/N.UPF
     MD5 check sum: 90d10febe142ad51ac9d5be1deb811c4
     Pseudo is Ultrasoft, Zval =  5.0
     Generated by new atomic code, or converted to UPF format
     Using radial grid of  729 points,  4 beta functions with:
                l(1) =   0
                l(2) =   0
                l(3) =   1
                l(4) =   1
     Q(r) pseudized with  8 coefficients,  rinner =    0.800   0.800   0.800

     atomic species   valence    mass     pseudopotential
        Ti1           12.00    47.86700     Ti( 1.00)
        O1             6.00    15.99900     O ( 1.00)
        H1             1.00     1.00800     H ( 1.00)
        N1             5.00    14.00700     N ( 1.00)

     No symmetry found

   Cartesian axes

     site n.     atom                  positions (alat units)
         1           Ti1 tau(   1) = (   0.0004258   2.9801865   6.0000000  )
         2           Ti1 tau(   2) = (   3.2906075   1.4906267   6.0002472  )
         3           O1  tau(   3) = (   0.0006271   0.0005054   7.9858123  )
         4           O1  tau(   4) = (   3.2906025   0.0005020   7.3038282  )
         5           O1  tau(   5) = (   4.5942328   1.4918067   9.2879030  )
         6           O1  tau(   6) = (   1.9868534   1.4903216   9.2879459  )
         7           Ti1 tau(   7) = (   3.2907910   2.8959150   9.1758416  )
         8           Ti1 tau(   8) = (   0.0015273   1.4827037   9.2680791  )
         9           O1  tau(   9) = (   3.3021620   5.9585466  11.3588150  )
        10           O1  tau(  10) = (   0.0116148   5.9584955  10.6183126  )
        11           O1  tau(  11) = (   1.3089441   1.4907112  12.6647806  )
        12           O1  tau(  12) = (   5.3064360   1.4907784  12.6611314  )
        13           Ti1 tau(  13) = (   0.0224894   2.9708753  12.5201140  )
        14           Ti1 tau(  14) = (   3.3190076   1.4906563  12.5121620  )
        15           O1  tau(  15) = (   0.0148752   5.9506151  14.6881601  )
        16           O1  tau(  16) = (   3.3133743   0.0010394  13.9903587  )
        17           O1  tau(  17) = (   4.5479747   1.5007362  16.2084972  )
        18           O1  tau(  18) = (   2.0427128   1.5082381  16.1941329  )
        19           Ti1 tau(  19) = (   3.3032448   2.9777462  15.7400397  )
        20           Ti1 tau(  20) = (   0.0566267   1.3468682  15.9860554  )
        21           O1  tau(  21) = (   3.2904802   0.0005063   4.7018136  )
        22           O1  tau(  22) = (   0.0186521   5.9557363  17.2349177  )
        23           O1  tau(  23) = (   1.3043587   1.4918075   6.0039043  )
        24           O1  tau(  24) = (   5.2767064   1.4903225   6.0039473  )
        25           Ti1 tau(  25) = (   0.0000382   5.9609847   6.0000000  )
        26           Ti1 tau(  26) = (   3.2902200   4.4714249   6.0002472  )
        27           O1  tau(  27) = (   0.0002396   2.9813036   7.9858123  )
        28           O1  tau(  28) = (   3.2902150   2.9813002   7.3038282  )
        29           O1  tau(  29) = (   4.5938453   4.4726049   9.2879030  )
        30           O1  tau(  30) = (   1.9864658   4.4711199   9.2879459  )
        31           Ti1 tau(  31) = (   3.2891106   5.8743827   9.1763621  )
        32           Ti1 tau(  32) = (   0.0006254   4.4649316   9.2693709  )
        33           O1  tau(  33) = (   3.3044085   2.9807666  11.3535552  )
        34           O1  tau(  34) = (   0.0092240   2.9805883  10.6323155  )
        35           O1  tau(  35) = (   1.3080569   4.4606563  12.6696704  )
        36           O1  tau(  36) = (   5.3055300   4.4610704  12.6666780  )
        37           Ti1 tau(  37) = (   0.0266316   5.9519035  12.5126098  )
        38           Ti1 tau(  38) = (   3.3155057   4.4692570  12.5175536  )
        39           O1  tau(  39) = (   0.0116235   2.9722087  14.9444643  )
        40           O1  tau(  40) = (   3.3072372   2.9774692  13.9522904  )
        41           O1  tau(  41) = (   4.5642715   4.4472936  16.1995933  )
        42           O1  tau(  42) = (   2.0615619   4.4537073  16.1977505  )
        43           Ti1 tau(  43) = (   3.3058648   5.9605299  15.7865696  )
        44           Ti1 tau(  44) = (   6.5497839   4.5605149  15.9478768  )
        45           O1  tau(  45) = (   3.2900926   2.9813045   4.7018136  )
        46           O1  tau(  46) = (   1.3039711   4.4726057   6.0039043  )
        47           O1  tau(  47) = (   5.2763189   4.4711207   6.0039473  )
        48           H1  tau(  48) = (   6.1917417   4.2481854  18.7301225  )
        49           H1  tau(  49) = (   1.1305337   3.8408313  18.1709664  )
        50           N1  tau(  50) = (   0.1320502   3.6717785  18.0671316  )
        51           N1  tau(  51) = (   6.4363792   2.2925159  18.0958277  )
        52           H1  tau(  52) = (   5.4299896   2.1339936  18.1416611  )
        53           H1  tau(  53) = (   0.3257684   1.7622112  18.8313800  )

     number of k points=    10  Fermi-Dirac smearing, width (Ry)=  0.0073
                       cart. coord. in units 2pi/alat
        k(    1) = (   0.0000000   0.0000000   0.0000000), wk =   0.1250000
        k(    2) = (   0.0000000   0.0419351   0.0000000), wk =   0.2500000
        k(    3) = (   0.0000000  -0.0838702   0.0000000), wk =   0.1250000
        k(    4) = (   0.0379955   0.0000049   0.0000000), wk =   0.2500000
        k(    5) = (   0.0379955   0.0419400   0.0000000), wk =   0.2500000
        k(    6) = (   0.0379955  -0.0838652   0.0000000), wk =   0.2500000
        k(    7) = (   0.0379955  -0.0419301   0.0000000), wk =   0.2500000
        k(    8) = (  -0.0759910  -0.0000099   0.0000000), wk =   0.1250000
        k(    9) = (  -0.0759910   0.0419252   0.0000000), wk =   0.2500000
        k(   10) = (  -0.0759910  -0.0838800   0.0000000), wk =   0.1250000

     Initial potential from superposition of free atoms

     starting charge  375.99919, renormalised to  392.00000

     negative rho (up, down):  1.856E-02 0.000E+00

     %%%%%%%%%%%%%%%%%%%%%%%%%%%%%%%%%%%%%%%%%%%%%%%%%%%%%%%%%%%%%%%%%%%%%%%%
     %                                                                      %
     % You are using vdW-DF, which was implemented by the Thonhauser group. %
     % Please cite the following two papers that made this development      %
     % possible and the two reviews that describe the various versions:     %
     %                                                                      %
[...]
     atom   15 type  2   force =    -0.00064110    0.00066081    0.00417496
     atom   16 type  2   force =    -0.00068065   -0.00061475    0.00232603
     atom   17 type  2   force =    -0.00350524   -0.00023646   -0.00157257
     atom   18 type  2   force =     0.00264017   -0.00002426   -0.00068010
     atom   19 type  1   force =    -0.00054487    0.00007220   -0.00203725
     atom   20 type  1   force =     0.00145840   -0.00107966   -0.00025619
     atom   21 type  2   force =     0.00000868   -0.00002707    0.10378179
     atom   22 type  2   force =    -0.00032822   -0.00009294   -0.00272689
     atom   23 type  2   force =    -0.07063861   -0.00014382   -0.02697802
     atom   24 type  2   force =     0.07049411    0.00028805   -0.02704107
     atom   25 type  1   force =     0.00000655   -0.00018408    0.09318299
     atom   26 type  1   force =    -0.00017141   -0.00034730   -0.17774538
     atom   27 type  2   force =     0.00011728   -0.00029515   -0.01985151
     atom   28 type  2   force =     0.00004489   -0.00144705    0.05672041
     atom   29 type  2   force =    -0.01013407   -0.00070952    0.00642820
     atom   30 type  2   force =     0.01182285   -0.00044540    0.00636731
     atom   31 type  1   force =     0.00007716    0.00482538   -0.01493643
     atom   32 type  1   force =    -0.00021356   -0.00013965   -0.00109506
     atom   33 type  2   force =    -0.00003881   -0.00028206    0.00389122
     atom   34 type  2   force =    -0.00022689   -0.00010606    0.00052127
     atom   35 type  2   force =    -0.00073570    0.00046281   -0.00102734
     atom   36 type  2   force =     0.00029241    0.00026294   -0.00030932
     atom   37 type  1   force =    -0.00062041    0.00016915   -0.00161415
     atom   38 type  1   force =     0.00056678   -0.00068595   -0.00291456
     atom   39 type  2   force =     0.00015273    0.00058012    0.00274818
     atom   40 type  2   force =     0.00023121   -0.00006838    0.00211093
     atom   41 type  2   force =    -0.00181214   -0.00004702   -0.00107658
     atom   42 type  2   force =     0.00285126   -0.00011037   -0.00129534
     atom   43 type  1   force =    -0.00032947   -0.00077804   -0.00085741
     atom   44 type  1   force =     0.00025412    0.00133675    0.00003335
     atom   45 type  2   force =     0.00000173   -0.00004705    0.10377207
     atom   46 type  2   force =    -0.07065475   -0.00009395   -0.02700724
     atom   47 type  2   force =     0.07051172    0.00035395   -0.02704813
     atom   48 type  3   force =     0.00378309   -0.00342044   -0.00301617
     atom   49 type  3   force =    -0.00494163   -0.00107702   -0.00084023
     atom   50 type  4   force =     0.00360246    0.01734526    0.00453833
     atom   51 type  4   force =    -0.00705324   -0.01565189    0.00498221
     atom   52 type  3   force =     0.00691430    0.00096550    0.00004037
     atom   53 type  3   force =    -0.00280726    0.00209528   -0.00462135

     Total force =     0.366565     Total SCF correction =     0.000746
  @ DRIVER MODE: Message from server: STATUS
  @ DRIVER MODE: Message from server: GETFORCE
  @ DRIVER MODE: Returning v,forces,stress,ensemble

     Writing config to output data dir ./calc.save/
  @ DRIVER MODE: Message from server: STATUS
  @ DRIVER MODE: Message from server: INIT
  @ DRIVER MODE: Receiving replica           0           0
  @ DRIVER MODE: Receiving encoded integer          25
  @ DRIVER MODE:  SCF:  T  FORCE:  T  STRESS:  F  VC:  F  ENSEMBLE:  F
  @ DRIVER MODE:  SCF:  T  FORCE:  T  STRESS:  F  VC:  F  ENSEMBLE:  F
  @ DRIVER MODE: Message from server: STATUS
  @ DRIVER MODE: Message from server: POSDATA
  @ DRIVER MODE: Reading and sharing positions
  @ DRIVER MODE: Received positions
     NEW-OLD atomic charge density approx. for the potential

[...]

     Self-consistent Calculation

[...]

     iteration # 13     ecut=    29.40 Ry     beta= 0.05
     Davidson diagonalization with overlap
     ethr =  7.27E-10,  avg # of iterations =  7.5

[...]

     total energy              =   -2928.89058736 Ry
     estimated scf accuracy    <       0.00000012 Ry

     iteration # 18     ecut=    29.40 Ry     beta= 0.05
     Davidson diagonalization with overlap
     c_bands:  1 eigenvalues not converged
     ethr =  3.02E-11,  avg # of iterations = 11.4

[...]

     End of self-consistent calculation

[...]

          k = 0.0380-0.0419 0.0000 ( 17876 PWs)   bands (ev):

[...]

          k =-0.0760-0.0839 0.0000 ( 17948 PWs)   bands (ev):

   -55.2882 -55.2878 -55.2381 -55.2375 -55.1706 -55.1633 -55.1631 -55.1043
   -55.1024 -55.0996 -55.0728 -55.0725 -55.0699 -55.0321 -54.2672 -54.2671
   -31.6823 -31.6804 -31.6014 -31.5900 -31.5700 -31.5640 -31.5634 -31.5315
   -31.5299 -31.5097 -31.5070 -31.5052 -31.4989 -31.4436 -31.4406 -31.4377
   -31.4329 -31.4319 -31.4302 -31.4269 -31.3966 -31.3841 -31.3804 -31.3702
   -31.3569 -31.3566 -31.3558 -31.3555 -31.3418 -31.3381 -31.3333 -31.3249
   -31.3181 -31.3134 -31.3019 -31.2980 -31.2978 -31.2890 -31.2693 -31.2549
   -31.2532 -31.2345 -30.5904 -30.5904 -30.5061 -30.5060 -30.4666 -30.4665
   -18.6039 -15.5916 -15.5702 -15.5295 -15.3351 -15.3250 -15.3120 -15.3087
   -15.2062 -15.1918 -15.1195 -15.0943 -15.0474 -15.0277 -15.0123 -15.0108
   -14.9179 -14.8984 -14.8926 -14.8903 -14.8199 -14.8116 -14.8033 -14.7943
   -14.7641 -14.7573 -14.6553 -14.6526 -14.6228 -14.6029 -13.1522 -12.7712
   -12.7711  -7.5452  -7.0295  -5.5696  -3.0594  -2.8595  -2.7859  -2.7100
    -2.5527  -2.5321  -2.4920  -2.3814  -2.3425  -2.3284  -2.3214  -2.2899
    -2.2373  -2.2185  -2.2077  -2.1467  -2.1445  -2.1245  -2.1155  -2.0898
    -2.0784  -2.0346  -2.0259  -2.0069  -1.9697  -1.9530  -1.9288  -1.9039
    -1.8986  -1.8808  -1.8227  -1.7898  -1.6820  -1.6683  -1.6051  -1.5119
    -1.5045  -1.4228  -1.3952  -1.3605  -1.3386  -1.3363  -1.2165  -1.1347
    -1.0806  -1.0494  -1.0425  -0.9333  -0.8970  -0.8151  -0.8019  -0.7885
    -0.7310  -0.6474  -0.6248  -0.6081  -0.5242  -0.4619  -0.4534  -0.3589
    -0.3367  -0.2738  -0.2606  -0.2589  -0.2166  -0.1979  -0.1707  -0.1120
    -0.0760  -0.0389  -0.0170   0.0225   0.2194   0.2402   0.2637   0.3934
     0.5120   0.5338   0.5681   0.6056   0.7000   0.7653   0.8048   0.8511
     0.9022   0.9872   0.9964   1.0912   1.0975   1.1528   1.1593   2.0949
     2.0958   2.1807   2.1816   3.9647   4.0068   4.0671   4.0968   4.1798
     4.3083   4.3238   4.3777   4.3795   4.4458   4.4501

     the Fermi energy is     3.8578 ev

!    total energy              =   -2928.89059056 Ry
     estimated scf accuracy    <       0.00000004 Ry
     smearing contrib. (-TS)   =      -0.03700709 Ry
     internal energy E=F+TS    =   -2928.85358346 Ry

     The total energy is F=E-TS. E is the sum of the following terms:
     one-electron contribution =  -24386.95314211 Ry
     hartree contribution      =   12284.99930593 Ry
     xc contribution           =    -482.74418044 Ry
     ewald contribution        =    9655.83945323 Ry
     electric field correction =       0.00497993 Ry

     convergence has been achieved in  18 iterations

     Forces acting on atoms (cartesian axes, Ry/au):

     atom    1 type  1   force =     0.00007989   -0.00017667    0.09193715
     atom    2 type  1   force =    -0.00017852   -0.00022687   -0.17807613
     atom    3 type  2   force =     0.00000939   -0.00049560   -0.02213227
     atom    4 type  2   force =     0.00002909   -0.00184521    0.05827927
     atom    5 type  2   force =    -0.01040824   -0.00081577    0.00668398
     atom    6 type  2   force =     0.01171198   -0.00036695    0.00700808
     atom    7 type  1   force =    -0.00032540    0.00236760   -0.01478004
     atom    8 type  1   force =     0.00006692   -0.00000821    0.00014100
     atom    9 type  2   force =    -0.00009978   -0.00012577   -0.00083976
     atom   10 type  2   force =     0.00010472   -0.00004309    0.00051529
     atom   11 type  2   force =     0.00009637   -0.00005526   -0.00026445
     atom   12 type  2   force =    -0.00032927   -0.00004182   -0.00016275
     atom   13 type  1   force =     0.00008770    0.00019421    0.00009448
     atom   14 type  1   force =    -0.00009008   -0.00013821   -0.00013339
     atom   15 type  2   force =     0.00023060    0.00016121    0.00076078
     atom   16 type  2   force =    -0.00012727    0.00005980   -0.00028183
     atom   17 type  2   force =    -0.00030625   -0.00010451    0.00026106
     atom   18 type  2   force =     0.00062153   -0.00013620    0.00036729
     atom   19 type  1   force =    -0.00003224   -0.00003368    0.00039553
     atom   20 type  1   force =    -0.00081539   -0.00041736    0.00057899
     atom   21 type  2   force =     0.00001051   -0.00002306    0.10390748
     atom   22 type  2   force =    -0.00001977    0.00033772   -0.00114569
     atom   23 type  2   force =    -0.07049335   -0.00019387   -0.02661779
     atom   24 type  2   force =     0.07033815    0.00022916   -0.02667743
     atom   25 type  1   force =     0.00003582   -0.00012644    0.09062890
     atom   26 type  1   force =    -0.00018304   -0.00036557   -0.17823483
     atom   27 type  2   force =     0.00000866   -0.00018402   -0.02113670
     atom   28 type  2   force =     0.00006413   -0.00152903    0.05749502
     atom   29 type  2   force =    -0.01049053   -0.00096806    0.00673359
     atom   30 type  2   force =     0.01165915   -0.00039409    0.00703989
     atom   31 type  1   force =    -0.00037605    0.00547114   -0.01571407
     atom   32 type  1   force =     0.00004434    0.00001192    0.00006694
     atom   33 type  2   force =    -0.00010927   -0.00010688   -0.00052328
     atom   34 type  2   force =    -0.00003799    0.00000746    0.00019537
     atom   35 type  2   force =     0.00013932   -0.00021663   -0.00016474
     atom   36 type  2   force =    -0.00037421   -0.00019315   -0.00013405
     atom   37 type  1   force =     0.00003833   -0.00007891    0.00078277
     atom   38 type  1   force =    -0.00017060   -0.00041027   -0.00015195
     atom   39 type  2   force =     0.00001330    0.00005788   -0.00001630
     atom   40 type  2   force =    -0.00040769   -0.00005195   -0.00023496
     atom   41 type  2   force =    -0.00056549    0.00003853    0.00031026
     atom   42 type  2   force =     0.00036367    0.00005390    0.00059627
     atom   43 type  1   force =    -0.00013670   -0.00013053   -0.00022265
     atom   44 type  1   force =     0.00023966    0.00100119    0.00137322
     atom   45 type  2   force =     0.00001090   -0.00003952    0.10387286
     atom   46 type  2   force =    -0.07049880   -0.00003116   -0.02667013
     atom   47 type  2   force =     0.07035538    0.00043105   -0.02670711
     atom   48 type  3   force =     0.00062552   -0.00053311    0.00037780
     atom   49 type  3   force =     0.00101275   -0.00001530    0.00011257
     atom   50 type  4   force =    -0.00141073   -0.00040410    0.00077930
     atom   51 type  4   force =    -0.00149903    0.00030575    0.00008138
     atom   52 type  3   force =     0.00147571    0.00049482   -0.00006040
     atom   53 type  3   force =     0.00001219   -0.00019652   -0.00029379

     Total force =     0.365051     Total SCF correction =     0.000775
  @ DRIVER MODE: Message from server: STATUS
  @ DRIVER MODE: Message from server: GETFORCE
  @ DRIVER MODE: Returning v,forces,stress,ensemble

     Writing config to output data dir ./calc.save/
  @ DRIVER MODE: Message from server: STATUS
  @ DRIVER MODE: Message from server: INIT
  @ DRIVER MODE: Receiving replica           0           0
  @ DRIVER MODE: Receiving encoded integer           2
  @ DRIVER MODE:  SCF:  T  FORCE:  T  STRESS:  F  VC:  F  ENSEMBLE:  F
  @ DRIVER MODE:  SCF:  F  FORCE:  F  STRESS:  F  VC:  F  ENSEMBLE:  T
  @ DRIVER MODE: Message from server: STATUS
  @ DRIVER MODE: Message from server: POSDATA
  @ DRIVER MODE: Reading and sharing positions
  @ DRIVER MODE: Received positions
     NEW-OLD atomic charge density approx. for the potential

[...]

     Adding external electric field

     Computed dipole along edir(3) :
        Dipole                1.6245 Ry au,          4.1290 Debye
        Dipole field          0.0031 Ry au,

        Potential amp.       -0.2842 Ry
        Total length         46.3494 bohr

  @ DRIVER MODE: BEEF-vdw

[...]

     negative rho (up, down):  1.640E-02 0.000E+00

     negative rho (up, down):  1.640E-02 0.000E+00
 BEEFens 2000 ensemble energies
             -0.346490428904097E+02
             -0.202693212232057E+01
             -0.713835603250315E+01
              0.240507271262908E+02
             -0.118990484055265E+02
             -0.920750802953035E+01
             -0.240288466143916E+02
             -0.502577178191898E+02
             -0.214364654742887E+02
             -0.225908656016052E+02
             -0.210054330359034E+02
              0.425575559894463E+01
              0.199765288259697E+01
             -0.107103044772352E+01
              0.172508127810818E+01
              0.264926106286185E+02
             -0.101946416280489E+02
             -0.720040321536806E+01
              0.117590363304739E+02
             -0.618667624169229E+02
              0.310393791205405E+02
             -0.133226946499522E+02
             -0.239775913718149E+01
             -0.558846050752558E+01
             -0.979679379716345E+00
             -0.211752481039569E+01
              0.479679344343719E+02
             -0.150508261330479E+02
             -0.399812078979556E+01
             -0.303703878221569E+02
              0.392216376491633E+02
             -0.432856701641073E+01
             -0.213556940494958E+02
              0.112089368633013E+02
             -0.205167481989707E+01
              0.130310344431092E+02
             -0.539874193480870E+00
              0.271141204071249E+01
              0.189420235472330E+02
             -0.545945677223141E+02
              0.304151188276971E+02
              0.812483972417465E+01
             -0.625909622902185E+01
             -0.174599979304802E+02
              0.689455022663802E+01
             -0.109418165490698E+02
              0.248917778447833E+02
              0.198762551067629E+02
             -0.128096021070596E+02
             -0.163706743775135E+02
             -0.173181288645087E+02
             -0.207745726664772E+02
              0.105536673483059E+02
             -0.270587923565026E+02
              0.828621447727892E+01
              0.345808845395802E+02
              0.398885669998727E+02
              0.185605408786807E+02
              0.827357367022618E+01
              0.173275763576681E+02
[...]
             -0.407801778965838E+02
              0.277613653397265E+01
             -0.146479585524185E+01
             -0.568166759304279E+01
              0.573751280918771E-01
             -0.363002000048721E+02
             -0.700057266778394E+01
              0.490594608517571E+01
              0.741523059340517E+01
              0.272132269096138E+02
             -0.237993352775713E+02
              0.310005096264540E+02
             -0.222136012485783E+02
              0.142839847628553E+02
              0.224842689941057E+02

 BEEF-vdW xc energy contributions
           1 :   -409.094547327354
           2 :    356.552511226193
           3 :   -271.627963109493
           4 :    182.824514762626
           5 :   -112.995962641209
           6 :    71.2739761785244
           7 :   -53.9257562805894
           8 :    50.8509416569253
           9 :   -52.5643342754359
          10 :    53.8053130348945
          11 :   -53.3473728654620
          12 :    51.7738080720540
          13 :   -49.5481662930467
          14 :    46.4410386956440
          15 :   -42.0844203400753
          16 :    36.6624606529210
          17 :   -31.0796091426118
          18 :    26.5138018473908
          19 :   -23.7972858716898
          20 :    23.0525461628513
          21 :   -23.7791750770651
          22 :    25.2085407493960
          23 :   -26.6482073367813
          24 :    27.6197230659031
          25 :   -27.8275934445354
          26 :    27.0942739459930
          27 :   -25.3796905416862
          28 :    22.8644352922363
          29 :   -19.9974948037528
          30 :    17.4013550588783
          31 :   -48.0353007244911
          32 :   -32.6318180699498
  @ DRIVER MODE: Message from server: STATUS
  @ DRIVER MODE: Message from server: GETFORCE
  @ DRIVER MODE: Returning v,forces,stress,ensemble
  @ DRIVE MODE: Returning Ensemble Energies

     Writing config to output data dir ./calc.save/
  @ DRIVER MODE: Message from server: EXIT
  @ DRIVE MODE: Exiting

     General routines

     Parallel routines

   This run was terminated on:   2: 4:19  12Oct2021

   JOB DONE.