     Program PWSCF v.6.7GPU starts on 23Sep2021 at  0:12:15

     R & G space division:  proc/nbgrp/npool/nimage =      10
     Reading input from /storage/home/hcoda1/3/ntian30/research/carbon/CxH_vib/H2O_calc/ads_slab/CHNNHHHO_a/out_0024/pw.inp
Warning: card &CELL ignored
Warning: card   CELL_DYNAMICS='IPI', ignored
Warning: card / ignored

     Current dimensions of program PWSCF are:
     Max number of different atomic species (ntypx) = 10
     Max number of k-points (npk) =  40000
     Max angular momentum in pseudopotentials (lmaxx) =  3
     Presently no symmetry can be used with electric field

     Message from routine cell_base_init:
     DEPRECATED: use true lattice parameter, not A to a.u. conversion factor

     IMPORTANT: XC functional enforced from input :
     Exchange-correlation= BEEF-VDW
                           (   1   4  43  14   2   0   0)
     Any further DFT definition will be discarded
     Please, verify this is what you really want

  @ DRIVER MODE: Connecting to
 qe_1139763_2937315.sched-torque.pace.gatech.eduh5n67qy7_scratch
  using UNIX socket
  @ DRIVER MODE: Message from server: STATUS
  @ DRIVER MODE: Message from server: INIT
  @ DRIVER MODE: Receiving replica           0          -1
  @ DRIVER MODE: Receiving encoded integer          25
  @ DRIVER MODE:  SCF:  T  FORCE:  T  STRESS:  F  VC:  F  ENSEMBLE:  F
  @ DRIVER MODE:  SCF:  T  FORCE:  T  STRESS:  F  VC:  F  ENSEMBLE:  F

     Using Slab Decomposition

     bravais-lattice index     =            0
     lattice parameter (alat)  =       1.8897  a.u.
     unit-cell volume          =    6658.9804 (a.u.)^3
     number of atoms/cell      =           55
     number of atomic types    =            5
     number of electrons       =       402.00
     number of Kohn-Sham states=          211
     kinetic-energy cutoff     =      29.3995  Ry
     charge density cutoff     =     293.9946  Ry
     scf convergence threshold =      7.3E-08
     mixing beta               =       0.0500
     number of iterations used =            8  plain     mixing
     Exchange-correlation= BEEF-VDW
                           (   1   4  43  14   2   0   0)

     celldm(1)=   1.889726  celldm(2)=   0.000000  celldm(3)=   0.000000
     celldm(4)=   0.000000  celldm(5)=   0.000000  celldm(6)=   0.000000

     crystal axes: (cart. coord. in units of alat)
               a(1) = (   6.579727   0.000000   0.000000 )
               a(2) = (  -0.000775   5.961596   0.000000 )
               a(3) = (   0.000000   0.000000  25.155947 )

     reciprocal axes: (cart. coord. in units 2 pi/alat)
               b(1) = (  0.151982  0.000020  0.000000 )
               b(2) = (  0.000000  0.167740  0.000000 )
               b(3) = (  0.000000  0.000000  0.039752 )

     PseudoPot. # 1 for Ti read from file:
     /storage/coda1/p-amedford6/0/shared/rich_project_chbe-medford/medford-share/data/pseudos_module/espresso/nninc/pbe/van/Ti.UPF
     MD5 check sum: 8e4df49b7f0d34bbd5052bf3f5ea0213
     Pseudo is Ultrasoft, Zval = 12.0
     Generated by new atomic code, or converted to UPF format
     Using radial grid of  851 points,  6 beta functions with:
                l(1) =   0
                l(2) =   0
                l(3) =   1
                l(4) =   1
                l(5) =   2
                l(6) =   2
     Q(r) pseudized with  8 coefficients,  rinner =    1.000   1.000   1.000
                                                       1.000   1.000

     PseudoPot. # 2 for O  read from file:
     /storage/coda1/p-amedford6/0/shared/rich_project_chbe-medford/medford-share/data/pseudos_module/espresso/nninc/pbe/van/O.UPF
     MD5 check sum: 78c19812648e8988a0fe644b0f25305e
     Pseudo is Ultrasoft, Zval =  6.0
     Generated by new atomic code, or converted to UPF format
     Using radial grid of  737 points,  4 beta functions with:
                l(1) =   0
                l(2) =   0
                l(3) =   1
                l(4) =   1
     Q(r) pseudized with  8 coefficients,  rinner =    0.800   0.800   0.800

     PseudoPot. # 3 for N  read from file:
     /storage/coda1/p-amedford6/0/shared/rich_project_chbe-medford/medford-share/data/pseudos_module/espresso/nninc/pbe/van/N.UPF
     MD5 check sum: 90d10febe142ad51ac9d5be1deb811c4
     Pseudo is Ultrasoft, Zval =  5.0
     Generated by new atomic code, or converted to UPF format
     Using radial grid of  729 points,  4 beta functions with:
                l(1) =   0
                l(2) =   0
                l(3) =   1
                l(4) =   1
     Q(r) pseudized with  8 coefficients,  rinner =    0.800   0.800   0.800

     PseudoPot. # 4 for C  read from file:
     /storage/coda1/p-amedford6/0/shared/rich_project_chbe-medford/medford-share/data/pseudos_module/espresso/nninc/pbe/van/C.UPF
     MD5 check sum: 1a69bf6b8db32088f5b2163dbdb77a27
     Pseudo is Ultrasoft, Zval =  4.0
     Generated by new atomic code, or converted to UPF format
     Using radial grid of  721 points,  4 beta functions with:
                l(1) =   0
                l(2) =   0
                l(3) =   1
                l(4) =   1
     Q(r) pseudized with  8 coefficients,  rinner =    0.800   0.800   0.800

     PseudoPot. # 5 for H  read from file:
     /storage/coda1/p-amedford6/0/shared/rich_project_chbe-medford/medford-share/data/pseudos_module/espresso/nninc/pbe/van/H.UPF
     MD5 check sum: b5ee9d7bfd3a09ee7748110bda690ff7
     Pseudo is Ultrasoft, Zval =  1.0
     Generated by new atomic code, or converted to UPF format
     Using radial grid of  615 points,  1 beta functions with:
                l(1) =   0
     Q(r) pseudized with  8 coefficients,  rinner =    0.800

     atomic species   valence    mass     pseudopotential
        Ti1           12.00    47.86700     Ti( 1.00)
        O1             6.00    15.99900     O ( 1.00)
        N1             5.00    14.00700     N ( 1.00)
        C1             4.00    12.01100     C ( 1.00)
        H1             1.00     1.00800     H ( 1.00)

     No symmetry found

   Cartesian axes

     site n.     atom                  positions (alat units)
         1           Ti1 tau(   1) = (   0.0004258   2.9801865   6.0000000  )
         2           Ti1 tau(   2) = (   3.2906075   1.4906267   6.0002472  )
         3           O1  tau(   3) = (   0.0006271   0.0005054   7.9858123  )
         4           O1  tau(   4) = (   3.2906025   0.0005020   7.3038282  )
         5           O1  tau(   5) = (   4.5942328   1.4918067   9.2879030  )
         6           O1  tau(   6) = (   1.9868534   1.4903216   9.2879459  )
         7           Ti1 tau(   7) = (   3.2907910   2.8959150   9.1758416  )
         8           Ti1 tau(   8) = (   0.0015273   1.4827037   9.2680791  )
         9           O1  tau(   9) = (   3.3019041   5.9340972  11.2780832  )
        10           O1  tau(  10) = (   0.0116148   5.9584955  10.6183126  )
        11           O1  tau(  11) = (   1.2869077   1.4717189  12.6473688  )
        12           O1  tau(  12) = (   5.3188397   1.4655789  12.6430575  )
        13           Ti1 tau(  13) = (   0.0521173   3.0639968  12.7333969  )
        14           Ti1 tau(  14) = (   3.2906581   1.3001642  12.6471297  )
        15           O1  tau(  15) = (   0.0021475   5.9326859  14.6872502  )
        16           O1  tau(  16) = (   3.3040199   0.0265785  13.8678754  )
        17           O1  tau(  17) = (   4.6240569   1.6264218  16.1080407  )
        18           O1  tau(  18) = (   2.0715169   1.5429601  15.9546445  )
        19           Ti1 tau(  19) = (   3.3363059   2.9874148  15.6109769  )
        20           Ti1 tau(  20) = (   0.0492893   1.4028208  15.7974426  )
        21           O1  tau(  21) = (   3.2904802   0.0005063   4.7018136  )
        22           O1  tau(  22) = (   0.0944532   0.0627470  17.1934044  )
        23           O1  tau(  23) = (   1.3043587   1.4918075   6.0039043  )
        24           O1  tau(  24) = (   5.2767064   1.4903225   6.0039473  )
        25           Ti1 tau(  25) = (   0.0000382   5.9609847   6.0000000  )
        26           Ti1 tau(  26) = (   3.2902200   4.4714249   6.0002472  )
        27           O1  tau(  27) = (   0.0002396   2.9813036   7.9858123  )
        28           O1  tau(  28) = (   3.2902150   2.9813002   7.3038282  )
        29           O1  tau(  29) = (   4.5938453   4.4726049   9.2879030  )
        30           O1  tau(  30) = (   1.9864658   4.4711199   9.2879459  )
        31           Ti1 tau(  31) = (   3.2891106   5.8743827   9.1763621  )
        32           Ti1 tau(  32) = (   0.0006254   4.4649316   9.2693709  )
        33           O1  tau(  33) = (   3.3033179   3.0104581  11.2528581  )
        34           O1  tau(  34) = (   0.0092240   2.9805883  10.6323155  )
        35           O1  tau(  35) = (   1.3074756   4.4469578  12.6382572  )
        36           O1  tau(  36) = (   5.3202433   4.4545580  12.6357595  )
        37           Ti1 tau(  37) = (   6.5572640   0.0741000  12.5519234  )
        38           Ti1 tau(  38) = (   3.3179412   4.3950854  12.4030220  )
        39           O1  tau(  39) = (   0.0383827   2.9948909  14.7437145  )
        40           O1  tau(  40) = (   3.3238341   2.9662938  13.8354460  )
        41           O1  tau(  41) = (   4.5722604   4.5101538  15.9256862  )
        42           O1  tau(  42) = (   2.0839069   4.4665637  16.0501180  )
        43           Ti1 tau(  43) = (   3.2507700   5.9423238  16.2547716  )
        44           Ti1 tau(  44) = (   6.5063516   4.5631136  16.2071476  )
        45           O1  tau(  45) = (   3.2900926   2.9813045   4.7018136  )
        46           O1  tau(  46) = (   1.3039711   4.4726057   6.0039043  )
        47           O1  tau(  47) = (   5.2763189   4.4711207   6.0039473  )
        48           N1  tau(  48) = (   0.4124544   2.9287237  17.8391456  )
        49           C1  tau(  49) = (   1.3780350   3.0145335  18.6736463  )
        50           H1  tau(  50) = (   2.3027514   2.5668077  18.2879847  )
        51           N1  tau(  51) = (   5.7762606   3.6115528  18.1736368  )
        52           H1  tau(  52) = (   5.8537390   4.1179332  19.0469945  )
        53           H1  tau(  53) = (   5.0130290   2.9392956  18.1702355  )
        54           O1  tau(  54) = (   3.2882145   0.0116813  18.0866318  )
        55           H1  tau(  55) = (   2.5950809   5.5738040  18.6371346  )

     number of k points=    10  Fermi-Dirac smearing, width (Ry)=  0.0073
                       cart. coord. in units 2pi/alat
        k(    1) = (   0.0000000   0.0000000   0.0000000), wk =   0.1250000
        k(    2) = (   0.0000000   0.0419351   0.0000000), wk =   0.2500000
        k(    3) = (   0.0000000  -0.0838702   0.0000000), wk =   0.1250000
        k(    4) = (   0.0379955   0.0000049   0.0000000), wk =   0.2500000
        k(    5) = (   0.0379955   0.0419400   0.0000000), wk =   0.2500000
        k(    6) = (   0.0379955  -0.0838652   0.0000000), wk =   0.2500000
        k(    7) = (   0.0379955  -0.0419301   0.0000000), wk =   0.2500000
        k(    8) = (  -0.0759910  -0.0000099   0.0000000), wk =   0.1250000
        k(    9) = (  -0.0759910   0.0419252   0.0000000), wk =   0.2500000
        k(   10) = (  -0.0759910  -0.0838800   0.0000000), wk =   0.1250000

     Initial potential from superposition of free atoms

     starting charge  385.99915, renormalised to  402.00000

     negative rho (up, down):  1.703E-02 0.000E+00

     %%%%%%%%%%%%%%%%%%%%%%%%%%%%%%%%%%%%%%%%%%%%%%%%%%%%%%%%%%%%%%%%%%%%%%%%
     %                                                                      %
     % You are using vdW-DF, which was implemented by the Thonhauser group. %
     % Please cite the following two papers that made this development      %
     % possible and the two reviews that describe the various versions:     %
     %                                                                      %
     %   T. Thonhauser et al., PRL 115, 136402 (2015).                      %
     %   T. Thonhauser et al., PRB 76, 125112 (2007).                       %
     %   K. Berland et al., Rep. Prog. Phys. 78, 066501 (2015).             %
     %   D.C. Langreth et al., J. Phys.: Condens. Matter 21, 084203 (2009). %
     %                                                                      %
     %                                                                      %
     % If you are calculating the stress with vdW-DF, please also cite:     %
     %                                                                      %
     %   R. Sabatini et al., J. Phys.: Condens. Matter 24, 424209 (2012).   %
     %                                                                      %
     %%%%%%%%%%%%%%%%%%%%%%%%%%%%%%%%%%%%%%%%%%%%%%%%%%%%%%%%%%%%%%%%%%%%%%%%

     Adding external electric field

     Computed dipole along edir(3) :
        Dipole              -11.1583 Ry au,        -28.3615 Debye
        Dipole field         -0.0211 Ry au,

        Potential amp.        1.9520 Ry
        Total length         46.3494 bohr

     Starting wfcs are  304 atomic wfcs
  @ DRIVER MODE: Message from server: STATUS
  @ DRIVER MODE: Message from server: POSDATA
  @ DRIVER MODE: Reading and sharing cell
  @ DRIVER MODE: Reading and sharing positions
  @ DRIVER MODE: Received positions

     Self-consistent Calculation

     iteration #  1     ecut=    29.40 Ry     beta= 0.05
     Davidson diagonalization with overlap
     c_bands:  2 eigenvalues not converged
     c_bands:  3 eigenvalues not converged
     c_bands:  1 eigenvalues not converged
     c_bands:  5 eigenvalues not converged
     c_bands:  1 eigenvalues not converged
     c_bands:  5 eigenvalues not converged
     c_bands:  3 eigenvalues not converged
     ethr =  1.00E-05,  avg # of iterations = 27.6

[...]

     total energy              =   -2400.30107995 Ry
     estimated scf accuracy    <    6416.40664807 Ry

     iteration #  2     ecut=    29.40 Ry     beta= 0.05
     Davidson diagonalization with overlap
     ethr =  1.00E-02,  avg # of iterations = 23.7

[...]

     iteration # 65     ecut=    29.40 Ry     beta= 0.05
     Davidson diagonalization with overlap
     c_bands:  2 eigenvalues not converged
     c_bands:  1 eigenvalues not converged
     ethr =  3.67E-07,  avg # of iterations = 10.8

[...]

     total energy              =   -2972.60982851 Ry
     estimated scf accuracy    <       0.00000060 Ry

     iteration # 85     ecut=    29.40 Ry     beta= 0.05
     Davidson diagonalization with overlap
     ethr =  1.34E-10,  avg # of iterations =  5.4

     negative rho (up, down):  1.639E-02 0.000E+00

     Adding external electric field

     Computed dipole along edir(3) :
        Dipole                0.2199 Ry au,          0.5589 Debye
        Dipole field          0.0004 Ry au,

        Potential amp.       -0.0385 Ry
        Total length         46.3494 bohr

     End of self-consistent calculation

          k = 0.0000 0.0000 0.0000 ( 18029 PWs)   bands (ev):

   -56.4667 -56.4329 -56.0105 -55.9746 -55.7592 -55.7047 -55.6474 -55.6389
   -55.6055 -55.5195 -55.5090 -55.4522 -55.4101 -55.2845 -55.2113 -55.1774
   -32.9134 -32.7580 -32.7306 -32.6265 -32.5378 -32.5342 -32.4920 -32.2425
   -32.2282 -32.2063 -32.1595 -32.1545 -32.1298 -32.1091 -32.0296 -32.0141
   -31.9941 -31.9804 -31.9635 -31.9247 -31.9203 -31.9114 -31.9071 -31.8859
   -31.8657 -31.8648 -31.8609 -31.8075 -31.7925 -31.7721 -31.7484 -31.7262
   -31.7120 -31.6984 -31.6825 -31.6757 -31.6467 -31.6066 -31.5994 -31.5807
   -31.5493 -31.5463 -31.5226 -31.5159 -31.4926 -31.4256 -31.3413 -31.2292
   -17.8890 -16.7388 -16.4752 -16.4030 -16.2048 -16.0139 -15.9204 -15.9062
   -15.8850 -15.7663 -15.7637 -15.6130 -15.5327 -15.4769 -15.4149 -15.4057
   -15.3353 -15.3175 -15.2553 -15.2280 -15.2152 -15.1900 -15.1413 -15.0784
   -15.0674 -15.0401 -14.8547 -14.8289 -14.8143 -14.6299 -14.5360 -13.7086
   -13.5970 -13.2205  -7.8364  -6.1988  -4.2559  -4.2413  -4.1291  -3.9343
    -3.7353  -3.6744  -3.5791  -3.4348  -3.4054  -3.1624  -3.1469  -3.1049
    -3.0166  -2.9936  -2.9633  -2.9024  -2.8440  -2.8245  -2.7645  -2.6870
    -2.6835  -2.6751  -2.6434  -2.6201  -2.5185  -2.4768  -2.4141  -2.3751
    -2.3496  -2.3384  -2.2992  -2.2444  -2.2160  -2.1644  -2.1465  -2.0677
    -2.0431  -1.9488  -1.8895  -1.8716  -1.8200  -1.7591  -1.7549  -1.7007
    -1.5688  -1.4585  -1.3913  -1.3521  -1.2951  -1.2403  -1.2116  -1.1547
    -1.0910  -1.0682  -1.0432  -1.0074  -0.9469  -0.9179  -0.8701  -0.8174
    -0.7402  -0.6730  -0.6270  -0.6068  -0.5001  -0.4349  -0.3977  -0.3804
    -0.3442  -0.2894  -0.2348  -0.1953  -0.1847  -0.1615  -0.1023   0.0219
     0.0333   0.0919   0.1462   0.1800   0.1929   0.2086   0.2696   0.3373
     0.4113   0.4546   0.4670   0.5249   0.5890   0.6272   0.7423   0.8133
     0.8425   0.8802   0.9554   1.0365   1.0479   1.3540   1.3669   1.3970
     2.5157   2.7684   2.8992   3.0781   3.1993   3.3337   3.6514   3.6695
     3.6814   3.7003   3.7932

[...]

          k = 0.0380-0.0419 0.0000 ( 17876 PWs)   bands (ev):

[...]

          k =-0.0760-0.0000 0.0000 ( 17886 PWs)   bands (ev):

[...]

          k =-0.0760-0.0839 0.0000 ( 17948 PWs)   bands (ev):

   -56.4500 -56.4495 -55.9989 -55.9861 -55.7533 -55.7106 -55.6387 -55.6374
   -55.6139 -55.5173 -55.5104 -55.4506 -55.4121 -55.2861 -55.1949 -55.1937
   -32.7438 -32.7432 -32.7296 -32.7294 -32.5791 -32.5781 -32.3208 -32.3098
   -32.1907 -32.1846 -32.1764 -32.1747 -32.0610 -32.0286 -31.9822 -31.9750
   -31.9641 -31.9581 -31.9514 -31.9410 -31.9370 -31.9292 -31.9102 -31.8731
   -31.8647 -31.8592 -31.8565 -31.8418 -31.8225 -31.7993 -31.7841 -31.7754
   -31.7300 -31.7120 -31.7030 -31.6864 -31.6525 -31.6355 -31.6321 -31.6037
   -31.5516 -31.5359 -31.5351 -31.4967 -31.4223 -31.4209 -31.3841 -31.3832
   -17.8796 -16.4557 -16.1445 -16.1336 -16.0158 -16.0102 -15.8597 -15.8378
   -15.8196 -15.7465 -15.6834 -15.6608 -15.5141 -15.5011 -15.4649 -15.4296
   -15.4016 -15.3632 -15.3590 -15.3352 -15.3035 -15.2380 -15.2165 -15.1916
   -15.1810 -15.1052 -14.9253 -14.9024 -14.8982 -14.8234 -14.6857 -13.7006
   -13.6997 -13.2315  -7.8029  -6.1265  -4.3602  -4.0776  -3.3154  -3.2512
    -3.1764  -3.1419  -3.1311  -3.0581  -3.0424  -2.9277  -2.8985  -2.8597
    -2.8337  -2.8231  -2.8037  -2.7526  -2.7308  -2.6851  -2.6686  -2.6677
    -2.6352  -2.5961  -2.5753  -2.5525  -2.5419  -2.4724  -2.4428  -2.3995
    -2.3812  -2.3702  -2.3240  -2.2640  -2.2449  -2.1888  -2.1762  -2.1424
    -2.1057  -2.0477  -2.0074  -1.9649  -1.8671  -1.8475  -1.7773  -1.6592
    -1.6379  -1.5548  -1.5262  -1.5047  -1.4830  -1.4043  -1.3746  -1.3396
    -1.2514  -1.2243  -1.2168  -1.1912  -1.1594  -1.1354  -1.0769  -1.0150
    -0.9182  -0.8545  -0.8432  -0.8240  -0.7856  -0.7594  -0.7185  -0.6259
    -0.6040  -0.5689  -0.5597  -0.5180  -0.4055  -0.3799  -0.2291  -0.1931
    -0.1030  -0.0756  -0.0550  -0.0149   0.1090   0.1356   0.1852   0.2057
     0.2647   0.3095   0.3602   0.4491   0.5533   0.5645   0.6977   0.7235
     0.7449   0.8179   0.9559   0.9922   1.2075   1.2123   1.2139   1.2159
     2.4951   3.3210   3.3234   3.3567   3.3690   3.5719   3.5920   3.7174
     3.8020   3.8116   3.8287

     the Fermi energy is     2.6952 ev

!    total energy              =   -2972.60983452 Ry
     estimated scf accuracy    <       0.00000007 Ry
     smearing contrib. (-TS)   =      -0.01176974 Ry
     internal energy E=F+TS    =   -2972.59806478 Ry

     The total energy is F=E-TS. E is the sum of the following terms:
     one-electron contribution =  -24033.95881280 Ry
     hartree contribution      =   12108.35375644 Ry
     xc contribution           =    -493.07892895 Ry
     ewald contribution        =    9446.08582927 Ry
     electric field correction =       0.00009125 Ry

     convergence has been achieved in  85 iterations

     Forces acting on atoms (cartesian axes, Ry/au):

     atom    1 type  1   force =    -0.00003215   -0.00046877    0.10837427
     atom    2 type  1   force =     0.00002119    0.00009341   -0.16409135
     atom    3 type  2   force =     0.00013347    0.00046939   -0.04112875
     atom    4 type  2   force =     0.00009345   -0.00056681    0.03217960
     atom    5 type  2   force =    -0.00380595   -0.00332843   -0.00774325
     atom    6 type  2   force =     0.00586677   -0.00273693   -0.00756829
     atom    7 type  1   force =     0.00016694   -0.00551843    0.03625163
     atom    8 type  1   force =     0.00012503    0.02545135    0.06345426
     atom    9 type  2   force =     0.00014035    0.00040004    0.00018412
     atom   10 type  2   force =    -0.00195296    0.00076223   -0.03768665
     atom   11 type  2   force =     0.00009185   -0.00015653   -0.00014798
     atom   12 type  2   force =    -0.00072818    0.00019869   -0.00014850
     atom   13 type  1   force =     0.00045062    0.00045827    0.00074445
     atom   14 type  1   force =    -0.00056732   -0.00029384    0.00008144
     atom   15 type  2   force =    -0.00010249   -0.00009104    0.00093263
     atom   16 type  2   force =    -0.00011686    0.00030526   -0.00011171
     atom   17 type  2   force =    -0.00099963    0.00055535    0.00005480
     atom   18 type  2   force =     0.00050339   -0.00002780   -0.00031437
     atom   19 type  1   force =     0.00024810   -0.00082695    0.00006662
     atom   20 type  1   force =    -0.00051996   -0.00000251   -0.00016224
     atom   21 type  2   force =     0.00009603    0.00018661    0.10008372
     atom   22 type  2   force =    -0.00010184   -0.00033742    0.00025369
     atom   23 type  2   force =    -0.07738064    0.00001435   -0.03030980
     atom   24 type  2   force =     0.07737305    0.00043335   -0.03035193
     atom   25 type  1   force =    -0.00000662   -0.00032532    0.10853085
     atom   26 type  1   force =    -0.00003772   -0.00110314   -0.16412691
     atom   27 type  2   force =     0.00011656   -0.00017818   -0.03914240
     atom   28 type  2   force =     0.00011725    0.00118005    0.02839819
     atom   29 type  2   force =    -0.00230878    0.00467934   -0.01047331
     atom   30 type  2   force =     0.00438578    0.00496247   -0.01043368
     atom   31 type  1   force =     0.00005612    0.00318080    0.01906729
     atom   32 type  1   force =     0.00036616   -0.02766932    0.06519340
     atom   33 type  2   force =    -0.00003208   -0.00076858   -0.00035959
     atom   34 type  2   force =    -0.00062666    0.00085823   -0.05559645
     atom   35 type  2   force =    -0.00036076   -0.00023784   -0.00024465
     atom   36 type  2   force =    -0.00005769   -0.00004004   -0.00016927
     atom   37 type  1   force =     0.00029834   -0.00053753   -0.00004680
     atom   38 type  1   force =    -0.00037039   -0.00014699    0.00019634
     atom   39 type  2   force =    -0.00015914    0.00033827   -0.00011163
     atom   40 type  2   force =    -0.00016422   -0.00026160   -0.00023772
     atom   41 type  2   force =     0.00016697   -0.00007583    0.00041077
     atom   42 type  2   force =    -0.00049768    0.00001159    0.00005734
     atom   43 type  1   force =     0.00025393    0.00034847    0.00013781
     atom   44 type  1   force =    -0.00063698    0.00007722    0.00024191
     atom   45 type  2   force =     0.00010179    0.00001282    0.09989383
     atom   46 type  2   force =    -0.07741314   -0.00001267   -0.03031850
     atom   47 type  2   force =     0.07743336    0.00041830   -0.03035796
     atom   48 type  3   force =    -0.00194531    0.00232566    0.00266430
     atom   49 type  4   force =     0.00115009   -0.00088398   -0.00107978
     atom   50 type  5   force =    -0.00003609    0.00004309   -0.00023317
     atom   51 type  3   force =     0.00009349   -0.00833827   -0.01724882
     atom   52 type  5   force =     0.00143221    0.00541994    0.01146651
     atom   53 type  5   force =     0.00010980    0.00172712    0.00169780
     atom   54 type  2   force =     0.00073883    0.00070834   -0.00146126
     atom   55 type  5   force =    -0.00116970   -0.00068527    0.00078915

     Total force =     0.383492     Total SCF correction =     0.000630
  @ DRIVER MODE: Message from server: STATUS
  @ DRIVER MODE: Message from server: GETFORCE
  @ DRIVER MODE: Returning v,forces,stress,ensemble

     Writing output data file ./calc.save/
  @ DRIVER MODE: Message from server: EXIT
  @ DRIVE MODE: Exiting

     General routines

     Parallel routines

   This run was terminated on:   0:35:13  23Sep2021

   JOB DONE.