     Program PWSCF v.6.7GPU starts on 18Oct2021 at 17: 3:52

     R & G space division:  proc/nbgrp/npool/nimage =       8
     Reading input from /storage/home/hcoda1/3/ntian30/research/carbon/CxH_vib/Thiel_calc/ads_slab/N2HH_perslab/out_0011/pw.inp
Warning: card &CELL ignored
Warning: card   CELL_DYNAMICS='IPI', ignored
Warning: card / ignored

     Current dimensions of program PWSCF are:
     Max number of different atomic species (ntypx) = 10
     Max number of k-points (npk) =  40000
     Max angular momentum in pseudopotentials (lmaxx) =  3
     Presently no symmetry can be used with electric field

     Message from routine cell_base_init:
     DEPRECATED: use true lattice parameter, not A to a.u. conversion factor

     IMPORTANT: XC functional enforced from input :
     Exchange-correlation= BEEF-VDW
                           (   1   4  43  14   2   0   0)
     Any further DFT definition will be discarded
     Please, verify this is what you really want

  @ DRIVER MODE: Connecting to
 qe_1139763_3255130.sched-torque.pace.gatech.edun8xob806_scratch
  using UNIX socket
  @ DRIVER MODE: Message from server: STATUS
  @ DRIVER MODE: Message from server: INIT
  @ DRIVER MODE: Receiving replica           0          -1
  @ DRIVER MODE: Receiving encoded integer          25
  @ DRIVER MODE:  SCF:  T  FORCE:  T  STRESS:  F  VC:  F  ENSEMBLE:  F
  @ DRIVER MODE:  SCF:  T  FORCE:  T  STRESS:  F  VC:  F  ENSEMBLE:  F

     Using Slab Decomposition

     bravais-lattice index     =            0
     lattice parameter (alat)  =       1.8897  a.u.
     unit-cell volume          =    9988.4706 (a.u.)^3
     number of atoms/cell      =           57
     number of atomic types    =            4
     number of electrons       =       438.00
     number of Kohn-Sham states=          229
     kinetic-energy cutoff     =      29.3995  Ry
     charge density cutoff     =     293.9946  Ry
     scf convergence threshold =      7.3E-08
     mixing beta               =       0.0500
     number of iterations used =            8  plain     mixing
     Exchange-correlation= BEEF-VDW
                           (   1   4  43  14   2   0   0)

     celldm(1)=   1.889726  celldm(2)=   0.000000  celldm(3)=   0.000000
     celldm(4)=   0.000000  celldm(5)=   0.000000  celldm(6)=   0.000000

     crystal axes: (cart. coord. in units of alat)
               a(1) = (   6.579727   0.000000   0.000000 )
               a(2) = (  -0.001163   8.942395   0.000000 )
               a(3) = (   0.000000   0.000000  25.155947 )

     reciprocal axes: (cart. coord. in units 2 pi/alat)
               b(1) = (  0.151982  0.000020  0.000000 )
               b(2) = (  0.000000  0.111827  0.000000 )
               b(3) = (  0.000000  0.000000  0.039752 )

     PseudoPot. # 1 for O  read from file:
     /storage/coda1/p-amedford6/0/shared/rich_project_chbe-medford/medford-share/data/pseudos_module/espresso/nninc/pbe/van/O.UPF
     MD5 check sum: 78c19812648e8988a0fe644b0f25305e
     Pseudo is Ultrasoft, Zval =  6.0
     Generated by new atomic code, or converted to UPF format
     Using radial grid of  737 points,  4 beta functions with:
                l(1) =   0
                l(2) =   0
                l(3) =   1
                l(4) =   1
     Q(r) pseudized with  8 coefficients,  rinner =    0.800   0.800   0.800

     PseudoPot. # 2 for Ti read from file:
     /storage/coda1/p-amedford6/0/shared/rich_project_chbe-medford/medford-share/data/pseudos_module/espresso/nninc/pbe/van/Ti.UPF
     MD5 check sum: 8e4df49b7f0d34bbd5052bf3f5ea0213
     Pseudo is Ultrasoft, Zval = 12.0
     Generated by new atomic code, or converted to UPF format
     Using radial grid of  851 points,  6 beta functions with:
                l(1) =   0
                l(2) =   0
                l(3) =   1
                l(4) =   1
                l(5) =   2
                l(6) =   2
     Q(r) pseudized with  8 coefficients,  rinner =    1.000   1.000   1.000
                                                       1.000   1.000

     PseudoPot. # 3 for H  read from file:
     /storage/coda1/p-amedford6/0/shared/rich_project_chbe-medford/medford-share/data/pseudos_module/espresso/nninc/pbe/van/H.UPF
     MD5 check sum: b5ee9d7bfd3a09ee7748110bda690ff7
     Pseudo is Ultrasoft, Zval =  1.0
     Generated by new atomic code, or converted to UPF format
     Using radial grid of  615 points,  1 beta functions with:
                l(1) =   0
     Q(r) pseudized with  8 coefficients,  rinner =    0.800

     PseudoPot. # 4 for N  read from file:
     /storage/coda1/p-amedford6/0/shared/rich_project_chbe-medford/medford-share/data/pseudos_module/espresso/nninc/pbe/van/N.UPF
     MD5 check sum: 90d10febe142ad51ac9d5be1deb811c4
     Pseudo is Ultrasoft, Zval =  5.0
     Generated by new atomic code, or converted to UPF format
     Using radial grid of  729 points,  4 beta functions with:
                l(1) =   0
                l(2) =   0
                l(3) =   1
                l(4) =   1
     Q(r) pseudized with  8 coefficients,  rinner =    0.800   0.800   0.800

     atomic species   valence    mass     pseudopotential
        O1             6.00    15.99900     O ( 1.00)
        Ti1           12.00    47.86700     Ti( 1.00)
        H1             1.00     1.00800     H ( 1.00)
        N1             5.00    14.00700     N ( 1.00)

     No symmetry found

   Cartesian axes

     site n.     atom                  positions (alat units)
         1           O1  tau(   1) = (   0.0007354   0.0005023  10.5931620  )
         2           O1  tau(   2) = (   3.3150156   8.9360210  13.9574341  )
         3           O1  tau(   3) = (   6.5771809   0.1322222  17.3752006  )
         4           O1  tau(   4) = (   0.0006271   0.0005054   7.9858123  )
         5           O1  tau(   5) = (   3.2854428   8.9395983  11.2048121  )
         6           O1  tau(   6) = (   6.5534721   0.0059909  14.6304568  )
         7           O1  tau(   7) = (   1.9868534   1.4903216   9.2879459  )
         8           O1  tau(   8) = (   5.2434221   1.6171961  12.5999149  )
         9           O1  tau(   9) = (   1.9662201   1.5518754  16.1237639  )
        10           Ti1 tau(  10) = (   0.0007404   1.4906270   9.2895810  )
        11           Ti1 tau(  11) = (   3.2893977   1.3594553  12.5356033  )
        12           Ti1 tau(  12) = (   0.0178951   1.3769434  15.7441411  )
        13           O1  tau(  13) = (   4.5942328   1.4918067   9.2879030  )
        14           O1  tau(  14) = (   1.3385959   1.6247007  12.6234478  )
        15           O1  tau(  15) = (   4.5909775   1.5586907  16.1788856  )
        16           Ti1 tau(  16) = (   3.2902859   2.9801868   9.2893338  )
        17           Ti1 tau(  17) = (   6.5767353   2.8476438  12.4354253  )
        18           Ti1 tau(  18) = (   3.2855622   3.0003959  15.7804328  )
        19           O1  tau(  19) = (   0.0003479   2.9813005  10.5931620  )
        20           O1  tau(  20) = (   3.3036998   2.9877085  13.9702655  )
        21           O1  tau(  21) = (   0.0002396   2.9813036   7.9858123  )
        22           O1  tau(  22) = (   3.2849372   2.9737507  11.2063419  )
        23           O1  tau(  23) = (   6.5394694   3.0167582  14.8135819  )
        24           O1  tau(  24) = (   1.9864658   4.4711199   9.2879459  )
        25           O1  tau(  25) = (   5.2427600   4.5794291  12.6037842  )
        26           O1  tau(  26) = (   1.9458942   4.4597853  16.1214517  )
        27           Ti1 tau(  27) = (   0.0003529   4.4714252   9.2895810  )
        28           Ti1 tau(  28) = (   3.2810590   4.3307370  12.5385870  )
        29           Ti1 tau(  29) = (   6.5544800   4.6619433  15.7291082  )
        30           O1  tau(  30) = (   4.5938453   4.4726049   9.2879030  )
        31           O1  tau(  31) = (   1.3254974   4.5864429  12.6215760  )
        32           O1  tau(  32) = (   4.5799584   4.4820416  16.1880388  )
        33           Ti1 tau(  33) = (   3.2898983   5.9609850   9.2893338  )
        34           Ti1 tau(  34) = (   6.5675573   5.8255355  12.4420054  )
        35           Ti1 tau(  35) = (   3.2444431   5.9917870  15.7690220  )
        36           O1  tau(  36) = (  -0.0000397   5.9620987  10.5931620  )
        37           O1  tau(  37) = (   3.2928066   5.9693490  13.9649938  )
        38           O1  tau(  38) = (   6.5603845   5.9023223  17.3786232  )
        39           O1  tau(  39) = (  -0.0001480   5.9621018   7.9858123  )
        40           O1  tau(  40) = (   3.2839194   5.9454927  11.2056182  )
        41           O1  tau(  41) = (   6.5420590   6.0665053  14.6296390  )
        42           O1  tau(  42) = (   1.9860782   7.4519181   9.2879459  )
        43           O1  tau(  43) = (   5.2396418   7.5574700  12.5673505  )
        44           O1  tau(  44) = (   1.9576089   7.5211923  16.0792554  )
        45           Ti1 tau(  45) = (  -0.0000347   7.4522234   9.2895810  )
        46           Ti1 tau(  46) = (   3.2826699   7.3152331  12.5262848  )
        47           Ti1 tau(  47) = (   0.0069763   7.4761561  16.0760502  )
        48           O1  tau(  48) = (   4.5934577   7.4534031   9.2879030  )
        49           O1  tau(  49) = (   1.3370172   7.5712087  12.5877691  )
        50           O1  tau(  50) = (   4.5576284   7.4668559  16.1934357  )
        51           Ti1 tau(  51) = (   3.2895107   8.9417832   9.2893338  )
        52           Ti1 tau(  52) = (   6.5702701   8.7900240  12.4479541  )
        53           Ti1 tau(  53) = (   3.3076380   0.0053799  15.7629688  )
        54           H1  tau(  54) = (   5.7681615   5.8474147  17.9327380  )
        55           H1  tau(  55) = (   5.8019348   0.2260023  17.9363436  )
        56           N1  tau(  56) = (   6.2964029   3.7918275  19.8857669  )
        57           N1  tau(  57) = (   6.3580303   2.9648886  19.1553858  )

     number of k points=    10  Fermi-Dirac smearing, width (Ry)=  0.0073
                       cart. coord. in units 2pi/alat
        k(    1) = (   0.0000000   0.0000000   0.0000000), wk =   0.1250000
        k(    2) = (   0.0000000   0.0279567   0.0000000), wk =   0.2500000
        k(    3) = (   0.0000000  -0.0559134   0.0000000), wk =   0.1250000
        k(    4) = (   0.0379955   0.0000049   0.0000000), wk =   0.2500000
        k(    5) = (   0.0379955   0.0279617   0.0000000), wk =   0.2500000
        k(    6) = (   0.0379955  -0.0559085   0.0000000), wk =   0.2500000
        k(    7) = (   0.0379955  -0.0279518   0.0000000), wk =   0.2500000
        k(    8) = (  -0.0759910  -0.0000099   0.0000000), wk =   0.1250000
        k(    9) = (  -0.0759910   0.0279468   0.0000000), wk =   0.2500000
        k(   10) = (  -0.0759910  -0.0559233   0.0000000), wk =   0.1250000

     Initial potential from superposition of free atoms

     starting charge  419.99912, renormalised to  438.00000

     negative rho (up, down):  3.691E-02 0.000E+00

     %%%%%%%%%%%%%%%%%%%%%%%%%%%%%%%%%%%%%%%%%%%%%%%%%%%%%%%%%%%%%%%%%%%%%%%%
     %                                                                      %
     % You are using vdW-DF, which was implemented by the Thonhauser group. %
     % Please cite the following two papers that made this development      %
     % possible and the two reviews that describe the various versions:     %
     %                                                                      %
     %   T. Thonhauser et al., PRL 115, 136402 (2015).                      %
     %   T. Thonhauser et al., PRB 76, 125112 (2007).                       %
     %   K. Berland et al., Rep. Prog. Phys. 78, 066501 (2015).             %
     %   D.C. Langreth et al., J. Phys.: Condens. Matter 21, 084203 (2009). %
     %                                                                      %
     %                                                                      %
     % If you are calculating the stress with vdW-DF, please also cite:     %
     %                                                                      %
     %   R. Sabatini et al., J. Phys.: Condens. Matter 24, 424209 (2012).   %
     %                                                                      %
     %%%%%%%%%%%%%%%%%%%%%%%%%%%%%%%%%%%%%%%%%%%%%%%%%%%%%%%%%%%%%%%%%%%%%%%%

     Adding external electric field

     Computed dipole along edir(3) :
        Dipole               -6.4262 Ry au,        -16.3338 Debye
        Dipole field         -0.0081 Ry au,

        Potential amp.        0.7494 Ry
        Total length         46.3494 bohr

     Starting wfcs are  330 atomic wfcs
  @ DRIVER MODE: Message from server: STATUS
  @ DRIVER MODE: Message from server: POSDATA
  @ DRIVER MODE: Reading and sharing cell
  @ DRIVER MODE: Reading and sharing positions
  @ DRIVER MODE: Received positions

     Self-consistent Calculation

     iteration #  1     ecut=    29.40 Ry     beta= 0.05
     Davidson diagonalization with overlap
     c_bands:  1 eigenvalues not converged
     c_bands:  2 eigenvalues not converged
     c_bands:  5 eigenvalues not converged
     c_bands:  2 eigenvalues not converged
     c_bands:  4 eigenvalues not converged
     c_bands:  5 eigenvalues not converged
     c_bands:  4 eigenvalues not converged
     c_bands:  3 eigenvalues not converged
     c_bands:  4 eigenvalues not converged
     c_bands:  4 eigenvalues not converged
     ethr =  1.00E-05,  avg # of iterations = 20.0

[...]

     total energy              =   -3267.22300296 Ry
     estimated scf accuracy    <     306.55267182 Ry

[...]

     iteration #  3     ecut=    29.40 Ry     beta= 0.05
     Davidson diagonalization with overlap
     ethr =  1.00E-02,  avg # of iterations = 13.2

[...]

     iteration # 29     ecut=    29.40 Ry     beta= 0.05
     Davidson diagonalization with overlap
     ethr =  2.90E-07,  avg # of iterations =  3.3

[...]

     total energy              =   -3290.82344837 Ry
     estimated scf accuracy    <       0.00000013 Ry

     iteration # 52     ecut=    29.40 Ry     beta= 0.05
     Davidson diagonalization with overlap
     c_bands:  1 eigenvalues not converged
     ethr =  2.00E-11,  avg # of iterations =  9.1

     negative rho (up, down):  3.511E-02 0.000E+00

     Adding external electric field

     Computed dipole along edir(3) :
        Dipole                1.4903 Ry au,          3.7880 Debye
        Dipole field          0.0019 Ry au,

        Potential amp.       -0.1738 Ry
        Total length         46.3494 bohr

     End of self-consistent calculation

          k = 0.0000 0.0000 0.0000 ( 26871 PWs)   bands (ev):

   -57.5975 -57.5724 -57.5710 -57.5072 -57.4850 -57.4677 -57.4429 -57.4404
   -57.4215 -57.4158 -57.3993 -57.3881 -57.3804 -57.3575 -57.3535 -56.7239
   -56.7001 -56.6941 -33.9895 -33.9877 -33.9709 -33.9668 -33.9466 -33.9336
   -33.9164 -33.9043 -33.9005 -33.8935 -33.8911 -33.8785 -33.8464 -33.8388
   -33.8212 -33.7955 -33.7669 -33.7429 -33.7381 -33.7365 -33.7228 -33.7195
   -33.7163 -33.7099 -33.6996 -33.6990 -33.6952 -33.6944 -33.6749 -33.6684
   -33.6418 -33.6385 -33.6339 -33.6301 -33.6239 -33.6166 -33.6021 -33.5996
   -33.5847 -33.5626 -33.5369 -33.5335 -33.5283 -33.4981 -33.4838 -33.0443
   -33.0362 -33.0301 -33.0148 -33.0096 -32.9542 -32.8928 -32.8859 -32.7532
   -23.7127 -19.5404 -19.4287 -18.4832 -18.1122 -17.9403 -17.9284 -17.9058
   -17.8719 -17.7277 -17.7018 -17.6580 -17.6286 -17.6120 -17.4626 -17.4431
   -17.4265 -17.4233 -17.3768 -17.3718 -17.3656 -17.3364 -17.3296 -17.3179
   -17.2945 -17.2668 -17.1665 -17.1475 -17.1425 -17.1099 -17.0709 -17.0691
   -16.7647 -15.1883 -15.1284 -15.1237  -8.9451  -7.2108  -7.0884  -6.8490
    -6.8372  -5.8042  -5.6743  -5.6130  -5.5612  -5.4293  -5.1326  -5.0938
    -5.0597  -5.0395  -5.0228  -4.9701  -4.9189  -4.9102  -4.8918  -4.8619
    -4.8556  -4.7920  -4.7741  -4.7596  -4.6695  -4.6338  -4.6266  -4.5916
    -4.5695  -4.5052  -4.4937  -4.4733  -4.4360  -4.4275  -4.4010  -4.3840
    -4.2699  -4.1597  -4.1387  -4.0954  -4.0776  -3.9670  -3.9515  -3.9158
    -3.8949  -3.8350  -3.7981  -3.7773  -3.7605  -3.6920  -3.6380  -3.6146
    -3.5768  -3.5229  -3.4723  -3.4495  -3.4284  -3.4119  -3.3524  -3.2966
    -3.2616  -3.1935  -3.1438  -3.0552  -3.0503  -2.9638  -2.9130  -2.7818
    -2.7451  -2.6861  -2.6678  -2.6195  -2.5984  -2.4517  -2.4391  -2.4240
    -2.4204  -2.3863  -2.3318  -2.3114  -2.3089  -2.2872  -2.2584  -2.2103
    -2.1931  -2.1259  -2.0855  -2.0611  -2.0458  -2.0121  -1.9492  -1.9227
    -1.8429  -1.7822  -1.7617  -1.6656  -1.5514  -1.5340  -1.5336  -1.4210
    -1.3972  -1.0237  -0.7971  -0.4996  -0.4342  -0.4321  -0.1474  -0.1421
    -0.0038   1.3403   1.4135   1.5847   1.6079   1.6736   1.8137   1.8372
     1.9169   1.9559   1.9740   1.9868   1.9946

[...]

          k = 0.0380-0.0280 0.0000 ( 26873 PWs)   bands (ev):

[...]

          k =-0.0760-0.0000 0.0000 ( 26902 PWs)   bands (ev):

[...]

          k =-0.0760-0.0559 0.0000 ( 26868 PWs)   bands (ev):

   -57.5896 -57.5881 -57.5632 -57.5037 -57.4909 -57.4651 -57.4389 -57.4388
   -57.4273 -57.4192 -57.3970 -57.3865 -57.3742 -57.3704 -57.3473 -56.7181
   -56.7117 -56.6883 -34.0827 -34.0297 -33.9858 -33.9721 -33.9518 -33.9288
   -33.9128 -33.9089 -33.9063 -33.8876 -33.8643 -33.8208 -33.8123 -33.7977
   -33.7955 -33.7501 -33.7404 -33.7386 -33.7378 -33.7259 -33.7201 -33.7073
   -33.7062 -33.6858 -33.6770 -33.6744 -33.6712 -33.6708 -33.6674 -33.6644
   -33.6621 -33.6588 -33.6542 -33.6436 -33.6379 -33.6320 -33.6238 -33.6033
   -33.5823 -33.5771 -33.5742 -33.5631 -33.5609 -33.5131 -33.4977 -33.1318
   -33.0316 -33.0260 -33.0035 -32.9363 -32.9291 -32.8680 -32.8537 -32.8465
   -23.7127 -19.5196 -19.4390 -18.1346 -18.1013 -17.9818 -17.9193 -17.7991
   -17.7819 -17.7018 -17.6887 -17.6799 -17.6445 -17.6065 -17.5673 -17.5516
   -17.4744 -17.4443 -17.4182 -17.4068 -17.3971 -17.3904 -17.3837 -17.3690
   -17.2632 -17.2610 -17.2563 -17.2261 -17.1586 -17.1049 -17.0523 -17.0367
   -16.7970 -15.1857 -15.1803 -15.0648  -8.9449  -7.2533  -7.0606  -6.8500
    -6.8408  -5.6514  -5.4031  -5.3413  -5.3198  -5.2724  -5.1722  -5.1040
    -5.0614  -5.0035  -4.9435  -4.8920  -4.8594  -4.7957  -4.7819  -4.7694
    -4.7583  -4.7090  -4.6688  -4.6519  -4.6375  -4.6218  -4.6053  -4.5771
    -4.5666  -4.5349  -4.4677  -4.4289  -4.3406  -4.3321  -4.3016  -4.2652
    -4.2402  -4.2194  -4.1614  -4.1458  -4.1168  -4.0924  -3.9733  -3.8567
    -3.8423  -3.8072  -3.8010  -3.7711  -3.7321  -3.7257  -3.6242  -3.5493
    -3.4126  -3.3859  -3.3826  -3.3700  -3.3497  -3.2820  -3.2724  -3.2365
    -3.2039  -3.1893  -3.1683  -3.1139  -3.0862  -3.0071  -2.9755  -2.9177
    -2.8642  -2.8318  -2.7732  -2.7625  -2.7398  -2.7287  -2.7238  -2.7123
    -2.6926  -2.6459  -2.6362  -2.4873  -2.4531  -2.4495  -2.4341  -2.3244
    -2.3060  -2.2091  -2.1990  -2.1648  -2.1540  -2.0652  -2.0469  -1.9394
    -1.9196  -1.8608  -1.8137  -1.7650  -1.4523  -1.4409  -1.4124  -1.3795
    -1.2937  -1.2871  -1.0368  -0.6350  -0.3760  -0.3565  -0.3109  -0.1392
    -0.1373   1.4661   1.5329   1.5575   1.5752   1.6732   1.6858   1.7109
     1.7267   1.7635   1.7759   1.8814   1.9457

     the Fermi energy is     1.4849 ev

!    total energy              =   -3290.82352869 Ry
     estimated scf accuracy    <       0.00000007 Ry
     smearing contrib. (-TS)   =      -0.05468857 Ry
     internal energy E=F+TS    =   -3290.76884012 Ry

     The total energy is F=E-TS. E is the sum of the following terms:
     one-electron contribution =  -33576.18279355 Ry
     hartree contribution      =   16851.75554918 Ry
     xc contribution           =    -540.39959318 Ry
     ewald contribution        =   13974.05520311 Ry
     electric field correction =       0.00279431 Ry

     convergence has been achieved in  52 iterations

     Forces acting on atoms (cartesian axes, Ry/au):

     atom    1 type  1   force =     0.00049456    0.00767771    0.05387308
     atom    2 type  1   force =     0.00022856    0.00347568    0.00201605
     atom    3 type  1   force =     0.00695587   -0.00265558   -0.00878060
     atom    4 type  1   force =     0.00004358    0.00062961    0.10811512
     atom    5 type  1   force =     0.00011906   -0.00051176    0.01007825
     atom    6 type  1   force =    -0.00049786   -0.00865075   -0.00249358
     atom    7 type  1   force =     0.06412163    0.00022669   -0.02868420
     atom    8 type  1   force =     0.00333197   -0.02901448    0.00413673
     atom    9 type  1   force =     0.01262477   -0.00966513   -0.00137592
     atom   10 type  2   force =     0.00006300   -0.00637811   -0.19199344
     atom   11 type  2   force =    -0.00025148    0.01996223   -0.01154930
     atom   12 type  2   force =    -0.00106413    0.01568957    0.01006608
     atom   13 type  1   force =    -0.06425429   -0.00020558   -0.02810435
     atom   14 type  1   force =    -0.00399266   -0.02855402    0.00376652
     atom   15 type  1   force =    -0.01055531   -0.01204297    0.00092661
     atom   16 type  2   force =    -0.00027581   -0.00085903    0.07232728
     atom   17 type  2   force =     0.00033340    0.03631639    0.00477452
     atom   18 type  2   force =    -0.00028591    0.00093827   -0.00727563
     atom   19 type  1   force =     0.00076769    0.00326560    0.05939078
     atom   20 type  1   force =    -0.00031244    0.00182496   -0.00318779
     atom   21 type  1   force =     0.00006593    0.00073449    0.10924217
     atom   22 type  1   force =     0.00005732   -0.00032076    0.01010265
     atom   23 type  1   force =    -0.00004192    0.00083568    0.00148615
     atom   24 type  1   force =     0.06378651   -0.00058389   -0.02865162
     atom   25 type  1   force =     0.00306235   -0.02881278    0.00378859
     atom   26 type  1   force =     0.01006959    0.01238425    0.00066567
     atom   27 type  2   force =     0.00003511    0.00225072   -0.19415849
     atom   28 type  2   force =     0.00013985    0.01852830   -0.01071488
     atom   29 type  2   force =     0.00011218   -0.01694434    0.00911052
     atom   30 type  1   force =    -0.06394651   -0.00101378   -0.02802558
     atom   31 type  1   force =    -0.00268329   -0.02913499    0.00376329
     atom   32 type  1   force =    -0.01242870    0.00753658   -0.00166072
     atom   33 type  2   force =    -0.00026535   -0.00103565    0.07253901
     atom   34 type  2   force =    -0.00011043    0.03449664    0.00418027
     atom   35 type  2   force =     0.00285428   -0.01389417   -0.00293324
     atom   36 type  1   force =     0.00026382    0.00299920    0.05371888
     atom   37 type  1   force =    -0.00022670    0.00130898    0.00204571
     atom   38 type  1   force =    -0.00060871    0.00100082   -0.00087198
     atom   39 type  1   force =     0.00007728   -0.00111759    0.10848913
     atom   40 type  1   force =     0.00000182   -0.00027430    0.00993572
     atom   41 type  1   force =     0.00092134    0.00813175   -0.00131162
     atom   42 type  1   force =     0.06453226   -0.00058856   -0.02831285
     atom   43 type  1   force =     0.00211257   -0.02818835    0.00290428
     atom   44 type  1   force =     0.01352568   -0.00745628    0.00865773
     atom   45 type  2   force =     0.00015912    0.00153607   -0.18902933
     atom   46 type  2   force =    -0.00006996    0.01914370   -0.01214093
     atom   47 type  2   force =     0.00050960    0.00365116   -0.00967207
     atom   48 type  1   force =    -0.06470119   -0.00107717   -0.02775186
     atom   49 type  1   force =    -0.00263384   -0.02846976    0.00284728
     atom   50 type  1   force =    -0.01358445    0.00207354    0.00427799
     atom   51 type  2   force =    -0.00025941   -0.00041007    0.07292943
     atom   52 type  2   force =     0.00057094    0.03495766    0.00441624
     atom   53 type  2   force =    -0.00231057    0.01508370   -0.00254723
     atom   54 type  3   force =     0.00183959    0.00025522   -0.00116644
     atom   55 type  3   force =    -0.00854177    0.00102490    0.00700317
     atom   56 type  4   force =     0.00018374   -0.00271512   -0.00049028
     atom   57 type  4   force =    -0.00006227    0.00263490    0.00130907

     Total force =     0.463092     Total SCF correction =     0.000703
  @ DRIVER MODE: Message from server: STATUS
  @ DRIVER MODE: Message from server: GETFORCE
  @ DRIVER MODE: Returning v,forces,stress,ensemble

     Writing output data file ./calc.save/
  @ DRIVER MODE: Message from server: EXIT
  @ DRIVE MODE: Exiting

     General routines

     Parallel routines

   This run was terminated on:  17:32:32  18Oct2021

   JOB DONE.