     Program PWSCF v.6.7GPU starts on 23Sep2021 at  1:36:26

     R & G space division:  proc/nbgrp/npool/nimage =       8
     Reading input from /storage/home/hcoda1/3/ntian30/research/carbon/CxH_vib/H2O_calc/ads_slab/CH3N2HO_c/out_0009/pw.inp
Warning: card &CELL ignored
Warning: card   CELL_DYNAMICS='IPI', ignored
Warning: card / ignored

     Current dimensions of program PWSCF are:
     Max number of different atomic species (ntypx) = 10
     Max number of k-points (npk) =  40000
     Max angular momentum in pseudopotentials (lmaxx) =  3
     Presently no symmetry can be used with electric field

     Message from routine cell_base_init:
     DEPRECATED: use true lattice parameter, not A to a.u. conversion factor

     IMPORTANT: XC functional enforced from input :
     Exchange-correlation= BEEF-VDW
                           (   1   4  43  14   2   0   0)
     Any further DFT definition will be discarded
     Please, verify this is what you really want

  @ DRIVER MODE: Connecting to
 qe_1139763_2941007.sched-torque.pace.gatech.eduikhjonub_scratch
  using UNIX socket
  @ DRIVER MODE: Message from server: STATUS
  @ DRIVER MODE: Message from server: INIT
  @ DRIVER MODE: Receiving replica           0          -1
  @ DRIVER MODE: Receiving encoded integer          25
  @ DRIVER MODE:  SCF:  T  FORCE:  T  STRESS:  F  VC:  F  ENSEMBLE:  F
  @ DRIVER MODE:  SCF:  T  FORCE:  T  STRESS:  F  VC:  F  ENSEMBLE:  F

     Using Slab Decomposition

     bravais-lattice index     =            0
     lattice parameter (alat)  =       1.8897  a.u.
     unit-cell volume          =    6658.9804 (a.u.)^3
     number of atoms/cell      =           55
     number of atomic types    =            5
     number of electrons       =       402.00
     number of Kohn-Sham states=          211
     kinetic-energy cutoff     =      29.3995  Ry
     charge density cutoff     =     293.9946  Ry
     scf convergence threshold =      7.3E-08
     mixing beta               =       0.0500
     number of iterations used =            8  plain     mixing
     Exchange-correlation= BEEF-VDW
                           (   1   4  43  14   2   0   0)

     celldm(1)=   1.889726  celldm(2)=   0.000000  celldm(3)=   0.000000
     celldm(4)=   0.000000  celldm(5)=   0.000000  celldm(6)=   0.000000

     crystal axes: (cart. coord. in units of alat)
               a(1) = (   6.579727   0.000000   0.000000 )
               a(2) = (  -0.000775   5.961596   0.000000 )
               a(3) = (   0.000000   0.000000  25.155947 )

     reciprocal axes: (cart. coord. in units 2 pi/alat)
               b(1) = (  0.151982  0.000020  0.000000 )
               b(2) = (  0.000000  0.167740  0.000000 )
               b(3) = (  0.000000  0.000000  0.039752 )

     PseudoPot. # 1 for Ti read from file:
     /storage/coda1/p-amedford6/0/shared/rich_project_chbe-medford/medford-share/data/pseudos_module/espresso/nninc/pbe/van/Ti.UPF
     MD5 check sum: 8e4df49b7f0d34bbd5052bf3f5ea0213
     Pseudo is Ultrasoft, Zval = 12.0
     Generated by new atomic code, or converted to UPF format
     Using radial grid of  851 points,  6 beta functions with:
                l(1) =   0
                l(2) =   0
                l(3) =   1
                l(4) =   1
                l(5) =   2
                l(6) =   2
     Q(r) pseudized with  8 coefficients,  rinner =    1.000   1.000   1.000
                                                       1.000   1.000

     PseudoPot. # 2 for O  read from file:
     /storage/coda1/p-amedford6/0/shared/rich_project_chbe-medford/medford-share/data/pseudos_module/espresso/nninc/pbe/van/O.UPF
     MD5 check sum: 78c19812648e8988a0fe644b0f25305e
     Pseudo is Ultrasoft, Zval =  6.0
     Generated by new atomic code, or converted to UPF format
     Using radial grid of  737 points,  4 beta functions with:
                l(1) =   0
                l(2) =   0
                l(3) =   1
                l(4) =   1
     Q(r) pseudized with  8 coefficients,  rinner =    0.800   0.800   0.800

     PseudoPot. # 3 for N  read from file:
     /storage/coda1/p-amedford6/0/shared/rich_project_chbe-medford/medford-share/data/pseudos_module/espresso/nninc/pbe/van/N.UPF
     MD5 check sum: 90d10febe142ad51ac9d5be1deb811c4
     Pseudo is Ultrasoft, Zval =  5.0
     Generated by new atomic code, or converted to UPF format
     Using radial grid of  729 points,  4 beta functions with:
                l(1) =   0
                l(2) =   0
                l(3) =   1
                l(4) =   1
     Q(r) pseudized with  8 coefficients,  rinner =    0.800   0.800   0.800

     PseudoPot. # 4 for C  read from file:
     /storage/coda1/p-amedford6/0/shared/rich_project_chbe-medford/medford-share/data/pseudos_module/espresso/nninc/pbe/van/C.UPF
     MD5 check sum: 1a69bf6b8db32088f5b2163dbdb77a27
     Pseudo is Ultrasoft, Zval =  4.0
     Generated by new atomic code, or converted to UPF format
     Using radial grid of  721 points,  4 beta functions with:
                l(1) =   0
                l(2) =   0
                l(3) =   1
                l(4) =   1
     Q(r) pseudized with  8 coefficients,  rinner =    0.800   0.800   0.800

     PseudoPot. # 5 for H  read from file:
     /storage/coda1/p-amedford6/0/shared/rich_project_chbe-medford/medford-share/data/pseudos_module/espresso/nninc/pbe/van/H.UPF
     MD5 check sum: b5ee9d7bfd3a09ee7748110bda690ff7
     Pseudo is Ultrasoft, Zval =  1.0
     Generated by new atomic code, or converted to UPF format
     Using radial grid of  615 points,  1 beta functions with:
                l(1) =   0
     Q(r) pseudized with  8 coefficients,  rinner =    0.800

     atomic species   valence    mass     pseudopotential
        Ti1           12.00    47.86700     Ti( 1.00)
        O1             6.00    15.99900     O ( 1.00)
        N1             5.00    14.00700     N ( 1.00)
        C1             4.00    12.01100     C ( 1.00)
        H1             1.00     1.00800     H ( 1.00)

     No symmetry found

   Cartesian axes

     site n.     atom                  positions (alat units)
         1           Ti1 tau(   1) = (   0.0004258   2.9801865   6.0000000  )
         2           Ti1 tau(   2) = (   3.2906075   1.4906267   6.0002472  )
         3           O1  tau(   3) = (   0.0006271   0.0005054   7.9858123  )
         4           O1  tau(   4) = (   3.2906025   0.0005020   7.3038282  )
         5           O1  tau(   5) = (   4.5942328   1.4918067   9.2879030  )
         6           O1  tau(   6) = (   1.9868534   1.4903216   9.2879459  )
         7           Ti1 tau(   7) = (   3.2907910   2.8959150   9.1758416  )
         8           Ti1 tau(   8) = (   0.0015273   1.4827037   9.2680791  )
         9           O1  tau(   9) = (   3.2989311   0.0219330  11.3020621  )
        10           O1  tau(  10) = (   0.0116148   5.9584955  10.6183126  )
        11           O1  tau(  11) = (   1.3029919   1.4976758  12.6257209  )
        12           O1  tau(  12) = (   5.3026591   1.4951023  12.6306759  )
        13           Ti1 tau(  13) = (   0.0286689   2.8598525  12.6759356  )
        14           Ti1 tau(  14) = (   3.3054201   1.5706400  12.4108957  )
        15           O1  tau(  15) = (   0.0066217   5.9386728  14.6456674  )
        16           O1  tau(  16) = (   3.2936494   5.9217248  13.9190535  )
        17           O1  tau(  17) = (   4.5783085   1.5227378  16.0725395  )
        18           O1  tau(  18) = (   2.0661487   1.5008106  16.0935948  )
        19           Ti1 tau(  19) = (   3.3004316   2.9577776  15.6622982  )
        20           Ti1 tau(  20) = (   6.5114840   1.4532315  15.8500040  )
        21           O1  tau(  21) = (   3.2904802   0.0005063   4.7018136  )
        22           O1  tau(  22) = (   0.0101108   5.9483577  17.1703567  )
        23           O1  tau(  23) = (   1.3043587   1.4918075   6.0039043  )
        24           O1  tau(  24) = (   5.2767064   1.4903225   6.0039473  )
        25           Ti1 tau(  25) = (   0.0000382   5.9609847   6.0000000  )
        26           Ti1 tau(  26) = (   3.2902200   4.4714249   6.0002472  )
        27           O1  tau(  27) = (   0.0002396   2.9813036   7.9858123  )
        28           O1  tau(  28) = (   3.2902150   2.9813002   7.3038282  )
        29           O1  tau(  29) = (   4.5938453   4.4726049   9.2879030  )
        30           O1  tau(  30) = (   1.9864658   4.4711199   9.2879459  )
        31           Ti1 tau(  31) = (   3.2891106   5.8743827   9.1763621  )
        32           Ti1 tau(  32) = (   0.0006254   4.4649316   9.2693709  )
        33           O1  tau(  33) = (   3.2985377   2.9527140  11.2683515  )
        34           O1  tau(  34) = (   0.0092240   2.9805883  10.6323155  )
        35           O1  tau(  35) = (   1.2869011   4.4751273  12.6337776  )
        36           O1  tau(  36) = (   5.3033013   4.4751711  12.6363117  )
        37           Ti1 tau(  37) = (   6.5677423   5.8343599  12.5653580  )
        38           Ti1 tau(  38) = (   3.2861748   4.6640272  12.6826305  )
        39           O1  tau(  39) = (   0.0268303   2.9326313  14.6927244  )
        40           O1  tau(  40) = (   3.2973518   2.9805258  13.8830516  )
        41           O1  tau(  41) = (   4.5656241   4.3944478  16.1024780  )
        42           O1  tau(  42) = (   2.0389263   4.3990843  16.1000718  )
        43           Ti1 tau(  43) = (   3.2183859   5.9292641  16.3327267  )
        44           Ti1 tau(  44) = (   6.5399727   4.6159235  16.0325440  )
        45           O1  tau(  45) = (   3.2900926   2.9813045   4.7018136  )
        46           O1  tau(  46) = (   1.3039711   4.4726057   6.0039043  )
        47           O1  tau(  47) = (   5.2763189   4.4711207   6.0039473  )
        48           N1  tau(  48) = (   0.1383159   2.7169024  18.7005470  )
        49           N1  tau(  49) = (   0.0454196   2.8779789  17.5111406  )
        50           C1  tau(  50) = (   0.1807782   3.8735959  19.6428767  )
        51           H1  tau(  51) = (   6.4938760   4.8136915  19.1652781  )
        52           H1  tau(  52) = (   6.0945921   3.6282151  20.4682347  )
        53           H1  tau(  53) = (   1.2016282   3.9139503  20.0277151  )
        54           O1  tau(  54) = (   3.2907091   5.9158944  18.1602194  )
        55           H1  tau(  55) = (   3.1351319   0.7410148  18.7017648  )

     number of k points=    10  Fermi-Dirac smearing, width (Ry)=  0.0073
                       cart. coord. in units 2pi/alat
        k(    1) = (   0.0000000   0.0000000   0.0000000), wk =   0.1250000
        k(    2) = (   0.0000000   0.0419351   0.0000000), wk =   0.2500000
        k(    3) = (   0.0000000  -0.0838702   0.0000000), wk =   0.1250000
        k(    4) = (   0.0379955   0.0000049   0.0000000), wk =   0.2500000
        k(    5) = (   0.0379955   0.0419400   0.0000000), wk =   0.2500000
        k(    6) = (   0.0379955  -0.0838652   0.0000000), wk =   0.2500000
        k(    7) = (   0.0379955  -0.0419301   0.0000000), wk =   0.2500000
        k(    8) = (  -0.0759910  -0.0000099   0.0000000), wk =   0.1250000
        k(    9) = (  -0.0759910   0.0419252   0.0000000), wk =   0.2500000
        k(   10) = (  -0.0759910  -0.0838800   0.0000000), wk =   0.1250000

     Initial potential from superposition of free atoms

     starting charge  385.99915, renormalised to  402.00000

     negative rho (up, down):  1.430E-02 0.000E+00

     %%%%%%%%%%%%%%%%%%%%%%%%%%%%%%%%%%%%%%%%%%%%%%%%%%%%%%%%%%%%%%%%%%%%%%%%
     %                                                                      %
     % You are using vdW-DF, which was implemented by the Thonhauser group. %
     % Please cite the following two papers that made this development      %
     % possible and the two reviews that describe the various versions:     %
     %                                                                      %
     %   T. Thonhauser et al., PRL 115, 136402 (2015).                      %
     %   T. Thonhauser et al., PRB 76, 125112 (2007).                       %
     %   K. Berland et al., Rep. Prog. Phys. 78, 066501 (2015).             %
     %   D.C. Langreth et al., J. Phys.: Condens. Matter 21, 084203 (2009). %
     %                                                                      %
     %                                                                      %
     % If you are calculating the stress with vdW-DF, please also cite:     %
     %                                                                      %
     %   R. Sabatini et al., J. Phys.: Condens. Matter 24, 424209 (2012).   %
     %                                                                      %
     %%%%%%%%%%%%%%%%%%%%%%%%%%%%%%%%%%%%%%%%%%%%%%%%%%%%%%%%%%%%%%%%%%%%%%%%

     Adding external electric field

     Computed dipole along edir(3) :
        Dipole              -12.0462 Ry au,        -30.6184 Debye
        Dipole field         -0.0227 Ry au,

        Potential amp.        2.1073 Ry
        Total length         46.3494 bohr

     Starting wfcs are  304 atomic wfcs
  @ DRIVER MODE: Message from server: STATUS
  @ DRIVER MODE: Message from server: POSDATA
  @ DRIVER MODE: Reading and sharing cell
  @ DRIVER MODE: Reading and sharing positions
  @ DRIVER MODE: Received positions

     Self-consistent Calculation

     iteration #  1     ecut=    29.40 Ry     beta= 0.05
     Davidson diagonalization with overlap
     c_bands:  5 eigenvalues not converged
     c_bands:  3 eigenvalues not converged
     c_bands:  5 eigenvalues not converged
     c_bands:  3 eigenvalues not converged
     c_bands:  3 eigenvalues not converged
     c_bands:  2 eigenvalues not converged
     c_bands:  5 eigenvalues not converged
     c_bands:  5 eigenvalues not converged
     ethr =  1.00E-05,  avg # of iterations = 21.5

[...]

     total energy              =   -2397.69687738 Ry
     estimated scf accuracy    <    6480.68086205 Ry

     iteration #  2     ecut=    29.40 Ry     beta= 0.05
     Davidson diagonalization with overlap
     ethr =  1.00E-02,  avg # of iterations = 22.5

[...]

     iteration # 54     ecut=    29.40 Ry     beta= 0.05
     Davidson diagonalization with overlap
     c_bands:  1 eigenvalues not converged
     ethr =  4.62E-07,  avg # of iterations = 10.4

[...]

     total energy              =   -2972.75303074 Ry
     estimated scf accuracy    <       0.00000011 Ry

     iteration # 73     ecut=    29.40 Ry     beta= 0.05
     Davidson diagonalization with overlap
     ethr =  2.69E-11,  avg # of iterations =  6.0

     negative rho (up, down):  1.493E-02 0.000E+00

     Adding external electric field

     Computed dipole along edir(3) :
        Dipole                0.6590 Ry au,          1.6751 Debye
        Dipole field          0.0012 Ry au,

        Potential amp.       -0.1153 Ry
        Total length         46.3494 bohr

     End of self-consistent calculation

          k = 0.0000 0.0000 0.0000 ( 18029 PWs)   bands (ev):

   -56.1965 -56.1627 -55.7824 -55.7488 -55.5824 -55.5425 -55.4927 -55.3442
   -55.3122 -55.3085 -55.1648 -55.1478 -55.0248 -55.0025 -54.9680 -54.9340
   -32.6468 -32.4889 -32.4620 -32.3549 -32.2710 -32.2623 -32.2619 -32.0266
   -32.0012 -31.9817 -31.9297 -31.9251 -31.9243 -31.8894 -31.8418 -31.8195
   -31.7915 -31.7650 -31.7631 -31.7217 -31.7071 -31.6928 -31.6798 -31.6505
   -31.6344 -31.6205 -31.5500 -31.5311 -31.5227 -31.5166 -31.4941 -31.4609
   -31.4313 -31.3966 -31.3646 -31.3595 -31.3519 -31.3012 -31.2816 -31.2775
   -31.2539 -31.2384 -31.2367 -31.2343 -31.2109 -31.1833 -31.0988 -30.9868
   -18.8329 -16.4901 -16.4437 -16.1559 -15.9505 -15.7743 -15.6924 -15.6778
   -15.6279 -15.5069 -15.4971 -15.3835 -15.2961 -15.2200 -15.1933 -15.1921
   -15.0965 -15.0530 -15.0122 -14.9873 -14.9739 -14.9690 -14.9352 -14.8273
   -14.8186 -14.7913 -14.6923 -14.6845 -14.5779 -14.2832 -14.2668 -13.4657
   -13.3535 -11.4625  -6.8987  -4.3685  -4.1605  -3.9995  -3.9946  -3.9482
    -3.7039  -3.4915  -3.4067  -3.2472  -3.1893  -3.1116  -2.9130  -2.9030
    -2.8482  -2.7776  -2.7034  -2.6447  -2.5977  -2.5809  -2.4887  -2.4479
    -2.4274  -2.4233  -2.3945  -2.3759  -2.2523  -2.2495  -2.2188  -2.1690
    -2.1075  -2.0944  -2.0274  -2.0190  -2.0009  -1.9535  -1.9209  -1.8709
    -1.8104  -1.7929  -1.6564  -1.6260  -1.6192  -1.5428  -1.5114  -1.5016
    -1.4552  -1.2920  -1.2209  -1.1742  -1.1704  -1.0320  -1.0191  -0.9813
    -0.9007  -0.8644  -0.7756  -0.7664  -0.7567  -0.7489  -0.6632  -0.6263
    -0.6121  -0.5856  -0.4024  -0.3749  -0.3145  -0.2591  -0.1602  -0.1165
    -0.1109  -0.1009  -0.0619  -0.0053   0.0154   0.0306   0.1286   0.1522
     0.2053   0.2760   0.3106   0.3830   0.4035   0.4068   0.4175   0.4734
     0.5643   0.6571   0.7006   0.7149   0.7842   0.7980   0.9347   0.9480
     1.0564   1.0975   1.1050   1.1647   1.2873   1.5690   1.6046   1.6439
     2.7609   3.0299   3.1574   3.3142   3.4618   3.5578   3.8464   3.8953
     3.9341   3.9567   3.9980

[...]

          k = 0.0380-0.0419 0.0000 ( 17876 PWs)   bands (ev):

[...]

          k =-0.0760-0.0000 0.0000 ( 17886 PWs)   bands (ev):

[...]

          k =-0.0760-0.0839 0.0000 ( 17948 PWs)   bands (ev):

   -56.1796 -56.1794 -55.7663 -55.7647 -55.5817 -55.5359 -55.4992 -55.3316
   -55.3208 -55.3128 -55.1629 -55.1458 -55.0267 -55.0044 -54.9510 -54.9509
   -32.4745 -32.4743 -32.4629 -32.4628 -32.3071 -32.3066 -32.0866 -32.0829
   -31.9604 -31.9577 -31.9550 -31.9542 -31.8691 -31.8417 -31.8205 -31.8153
   -31.7822 -31.7580 -31.7574 -31.7240 -31.7159 -31.6889 -31.6655 -31.6536
   -31.6025 -31.5931 -31.5705 -31.5538 -31.5383 -31.5377 -31.5241 -31.5011
   -31.4234 -31.4010 -31.3694 -31.3654 -31.3504 -31.2954 -31.2905 -31.2904
   -31.2864 -31.2475 -31.2422 -31.2389 -31.1795 -31.1791 -31.1414 -31.1410
   -18.8301 -16.4347 -15.8988 -15.8896 -15.7632 -15.7582 -15.5839 -15.5725
   -15.5699 -15.4867 -15.4484 -15.4242 -15.2817 -15.2686 -15.2087 -15.1835
   -15.1687 -15.1452 -15.1334 -15.1013 -15.0914 -15.0403 -14.9830 -14.9748
   -14.9156 -14.9080 -14.7502 -14.6877 -14.6425 -14.4974 -14.4020 -13.4568
   -13.4562 -11.4603  -6.9125  -4.3103  -4.1824  -3.9812  -3.9437  -3.0642
    -3.0154  -2.9134  -2.8758  -2.7952  -2.7834  -2.6715  -2.6557  -2.6085
    -2.5923  -2.5840  -2.5395  -2.4930  -2.4838  -2.4610  -2.4347  -2.4221
    -2.4071  -2.3725  -2.3204  -2.3038  -2.2984  -2.2729  -2.1706  -2.1419
    -2.1272  -2.1196  -2.0945  -2.0689  -2.0291  -1.9552  -1.9210  -1.8827
    -1.8711  -1.8032  -1.7442  -1.6923  -1.6902  -1.6094  -1.5594  -1.5290
    -1.4511  -1.4005  -1.2866  -1.2749  -1.2561  -1.1930  -1.1709  -1.1192
    -1.0982  -1.0363  -0.9849  -0.9617  -0.9583  -0.9452  -0.8785  -0.8160
    -0.7075  -0.6611  -0.6453  -0.6085  -0.6053  -0.5752  -0.5416  -0.5058
    -0.4045  -0.3903  -0.3797  -0.3262  -0.3173  -0.2439  -0.1668  -0.0522
     0.0674   0.1460   0.1561   0.1753   0.2161   0.2966   0.3765   0.4172
     0.4617   0.5214   0.5636   0.6017   0.6682   0.8115   0.8630   0.8831
     0.9695   1.0068   1.0770   1.1652   1.4446   1.4554   1.4599   1.4608
     2.8167   3.5790   3.5814   3.6109   3.6218   3.7317   3.8164   3.8342
     3.9586   4.0164   4.0736

     the Fermi energy is     2.9663 ev

!    total energy              =   -2972.75304371 Ry
     estimated scf accuracy    <       0.00000006 Ry
     smearing contrib. (-TS)   =      -0.01284336 Ry
     internal energy E=F+TS    =   -2972.74020035 Ry

     The total energy is F=E-TS. E is the sum of the following terms:
     one-electron contribution =  -23538.67993642 Ry
     hartree contribution      =   11862.98981858 Ry
     xc contribution           =    -493.07260443 Ry
     ewald contribution        =    9196.02170233 Ry
     electric field correction =       0.00081959 Ry

     convergence has been achieved in  73 iterations

     Forces acting on atoms (cartesian axes, Ry/au):

     atom    1 type  1   force =     0.00008297   -0.00037028    0.10676541
     atom    2 type  1   force =    -0.00012418    0.00016956   -0.16548210
     atom    3 type  2   force =     0.00006762   -0.00044633   -0.03887801
     atom    4 type  2   force =     0.00000235    0.00015965    0.03538489
     atom    5 type  2   force =    -0.00263881   -0.00318149   -0.00911954
     atom    6 type  2   force =     0.00445831   -0.00251561   -0.00940343
     atom    7 type  1   force =    -0.00001264    0.00133547    0.03443431
     atom    8 type  1   force =     0.00023604    0.01558059    0.06078186
     atom    9 type  2   force =    -0.00018197   -0.00046263    0.00012275
     atom   10 type  2   force =    -0.00255845    0.00087189   -0.04249037
     atom   11 type  2   force =    -0.00097873    0.00033130    0.00040281
     atom   12 type  2   force =     0.00047278    0.00023195    0.00030020
     atom   13 type  1   force =     0.00045344    0.00066891   -0.00041061
     atom   14 type  1   force =     0.00026258   -0.00017067    0.00032785
     atom   15 type  2   force =     0.00020326    0.00012343    0.00022261
     atom   16 type  2   force =    -0.00009593   -0.00037686   -0.00067533
     atom   17 type  2   force =    -0.00031727    0.00019560    0.00009665
     atom   18 type  2   force =     0.00027624   -0.00004695   -0.00012950
     atom   19 type  1   force =     0.00023332   -0.00097443   -0.00008003
     atom   20 type  1   force =     0.00018497    0.00017972   -0.00072827
     atom   21 type  2   force =     0.00003287    0.00013291    0.10043083
     atom   22 type  2   force =     0.00017532   -0.00051953    0.00027831
     atom   23 type  2   force =    -0.07679205   -0.00000529   -0.03010667
     atom   24 type  2   force =     0.07666045    0.00046578   -0.03015174
     atom   25 type  1   force =    -0.00007902   -0.00045658    0.10715173
     atom   26 type  1   force =    -0.00020465   -0.00131992   -0.16554347
     atom   27 type  2   force =     0.00010081   -0.00032315   -0.03717569
     atom   28 type  2   force =     0.00004570   -0.00000505    0.03054762
     atom   29 type  2   force =    -0.00567601    0.00366052   -0.00699079
     atom   30 type  2   force =     0.00731091    0.00401067   -0.00726320
     atom   31 type  1   force =    -0.00011428   -0.00228456    0.02262751
     atom   32 type  1   force =     0.00032547   -0.01776828    0.06125332
     atom   33 type  2   force =    -0.00017149    0.00019452   -0.00010218
     atom   34 type  2   force =    -0.00143601    0.00000675   -0.05425074
     atom   35 type  2   force =    -0.00000196   -0.00016421   -0.00018982
     atom   36 type  2   force =    -0.00031869    0.00006037   -0.00003934
     atom   37 type  1   force =     0.00013451   -0.00004837    0.00044451
     atom   38 type  1   force =     0.00033469    0.00002242    0.00001028
     atom   39 type  2   force =    -0.00008790    0.00045179   -0.00058352
     atom   40 type  2   force =     0.00000763    0.00030747    0.00063592
     atom   41 type  2   force =    -0.00021961    0.00019508    0.00003438
     atom   42 type  2   force =     0.00015480   -0.00002621    0.00014086
     atom   43 type  1   force =     0.00022545    0.00050668    0.00010352
     atom   44 type  1   force =     0.00034294    0.00036420   -0.00070875
     atom   45 type  2   force =     0.00003349    0.00013405    0.10028694
     atom   46 type  2   force =    -0.07676599    0.00003237   -0.03009469
     atom   47 type  2   force =     0.07662546    0.00046924   -0.03011442
     atom   48 type  3   force =     0.00067807   -0.00201401    0.00241211
     atom   49 type  3   force =     0.00011693    0.00343622   -0.00220984
     atom   50 type  4   force =     0.00004440    0.00030338   -0.00132266
     atom   51 type  5   force =    -0.00022536   -0.00035254   -0.00066731
     atom   52 type  5   force =    -0.00020952   -0.00053016   -0.00034445
     atom   53 type  5   force =     0.00017304    0.00003138   -0.00061142
     atom   54 type  2   force =     0.00017832   -0.00017071    0.00185372
     atom   55 type  5   force =    -0.00142464   -0.00010006   -0.00118299

     Total force =     0.380797     Total SCF correction =     0.000749
  @ DRIVER MODE: Message from server: STATUS
  @ DRIVER MODE: Message from server: GETFORCE
  @ DRIVER MODE: Returning v,forces,stress,ensemble

     Writing output data file ./calc.save/
  @ DRIVER MODE: Message from server: EXIT
  @ DRIVE MODE: Exiting

     General routines

     Parallel routines

   This run was terminated on:   2: 2: 4  23Sep2021

   JOB DONE.