     Program PWSCF v.6.7GPU starts on 19Aug2021 at  2:16:49

     R & G space division:  proc/nbgrp/npool/nimage =       6
     Reading input from /storage/home/hcoda1/3/ntian30/research/carbon/CH3_vib_side_on/ads_slab/CH3N2_c/out_0029/pw.inp
Warning: card &CELL ignored
Warning: card   CELL_DYNAMICS='IPI', ignored
Warning: card / ignored

     Current dimensions of program PWSCF are:
     Max number of different atomic species (ntypx) = 10
     Max number of k-points (npk) =  40000
     Max angular momentum in pseudopotentials (lmaxx) =  3
     Presently no symmetry can be used with electric field

     Message from routine cell_base_init:
     DEPRECATED: use true lattice parameter, not A to a.u. conversion factor

     IMPORTANT: XC functional enforced from input :
     Exchange-correlation= BEEF-VDW
                           (   1   4  43  14   2   0   0)
     Any further DFT definition will be discarded
     Please, verify this is what you really want

  @ DRIVER MODE: Connecting to
 qe_1139763_2594174.sched-torque.pace.gatech.edu2ffidl71_scratch
  using UNIX socket
  @ DRIVER MODE: Message from server: STATUS
  @ DRIVER MODE: Message from server: INIT
  @ DRIVER MODE: Receiving replica           0          -1
  @ DRIVER MODE: Receiving encoded integer          25
  @ DRIVER MODE:  SCF:  T  FORCE:  T  STRESS:  F  VC:  F  ENSEMBLE:  F
  @ DRIVER MODE:  SCF:  T  FORCE:  T  STRESS:  F  VC:  F  ENSEMBLE:  F

     Using Slab Decomposition

     bravais-lattice index     =            0
     lattice parameter (alat)  =       1.8897  a.u.
     unit-cell volume          =    6658.9804 (a.u.)^3
     number of atoms/cell      =           53
     number of atomic types    =            5
     number of electrons       =       395.00
     number of Kohn-Sham states=          207
     kinetic-energy cutoff     =      29.3995  Ry
     charge density cutoff     =     293.9946  Ry
     scf convergence threshold =      7.3E-08
     mixing beta               =       0.0500
     number of iterations used =            8  plain     mixing
     Exchange-correlation= BEEF-VDW
                           (   1   4  43  14   2   0   0)

     celldm(1)=   1.889726  celldm(2)=   0.000000  celldm(3)=   0.000000
     celldm(4)=   0.000000  celldm(5)=   0.000000  celldm(6)=   0.000000

     crystal axes: (cart. coord. in units of alat)
               a(1) = (   6.579727   0.000000   0.000000 )
               a(2) = (  -0.000775   5.961596   0.000000 )
               a(3) = (   0.000000   0.000000  25.155947 )

     reciprocal axes: (cart. coord. in units 2 pi/alat)
               b(1) = (  0.151982  0.000020  0.000000 )
               b(2) = (  0.000000  0.167740  0.000000 )
               b(3) = (  0.000000  0.000000  0.039752 )

     PseudoPot. # 1 for Ti read from file:
     /storage/coda1/p-amedford6/0/shared/rich_project_chbe-medford/medford-share/data/pseudos_module/espresso/nninc/pbe/van/Ti.UPF
     MD5 check sum: 8e4df49b7f0d34bbd5052bf3f5ea0213
     Pseudo is Ultrasoft, Zval = 12.0
     Generated by new atomic code, or converted to UPF format
     Using radial grid of  851 points,  6 beta functions with:
                l(1) =   0
                l(2) =   0
                l(3) =   1
                l(4) =   1
                l(5) =   2
                l(6) =   2
     Q(r) pseudized with  8 coefficients,  rinner =    1.000   1.000   1.000
                                                       1.000   1.000

     PseudoPot. # 2 for O  read from file:
     /storage/coda1/p-amedford6/0/shared/rich_project_chbe-medford/medford-share/data/pseudos_module/espresso/nninc/pbe/van/O.UPF
     MD5 check sum: 78c19812648e8988a0fe644b0f25305e
     Pseudo is Ultrasoft, Zval =  6.0
     Generated by new atomic code, or converted to UPF format
     Using radial grid of  737 points,  4 beta functions with:
                l(1) =   0
                l(2) =   0
                l(3) =   1
                l(4) =   1
     Q(r) pseudized with  8 coefficients,  rinner =    0.800   0.800   0.800

     PseudoPot. # 3 for N  read from file:
     /storage/coda1/p-amedford6/0/shared/rich_project_chbe-medford/medford-share/data/pseudos_module/espresso/nninc/pbe/van/N.UPF
     MD5 check sum: 90d10febe142ad51ac9d5be1deb811c4
     Pseudo is Ultrasoft, Zval =  5.0
     Generated by new atomic code, or converted to UPF format
     Using radial grid of  729 points,  4 beta functions with:
                l(1) =   0
                l(2) =   0
                l(3) =   1
                l(4) =   1
     Q(r) pseudized with  8 coefficients,  rinner =    0.800   0.800   0.800

     PseudoPot. # 4 for C  read from file:
     /storage/coda1/p-amedford6/0/shared/rich_project_chbe-medford/medford-share/data/pseudos_module/espresso/nninc/pbe/van/C.UPF
     MD5 check sum: 1a69bf6b8db32088f5b2163dbdb77a27
     Pseudo is Ultrasoft, Zval =  4.0
     Generated by new atomic code, or converted to UPF format
     Using radial grid of  721 points,  4 beta functions with:
                l(1) =   0
                l(2) =   0
                l(3) =   1
                l(4) =   1
     Q(r) pseudized with  8 coefficients,  rinner =    0.800   0.800   0.800

     PseudoPot. # 5 for H  read from file:
     /storage/coda1/p-amedford6/0/shared/rich_project_chbe-medford/medford-share/data/pseudos_module/espresso/nninc/pbe/van/H.UPF
     MD5 check sum: b5ee9d7bfd3a09ee7748110bda690ff7
     Pseudo is Ultrasoft, Zval =  1.0
     Generated by new atomic code, or converted to UPF format
     Using radial grid of  615 points,  1 beta functions with:
                l(1) =   0
     Q(r) pseudized with  8 coefficients,  rinner =    0.800

     atomic species   valence    mass     pseudopotential
        Ti1           12.00    47.86700     Ti( 1.00)
        O1             6.00    15.99900     O ( 1.00)
        N1             5.00    14.00700     N ( 1.00)
        C1             4.00    12.01100     C ( 1.00)
        H1             1.00     1.00800     H ( 1.00)

     No symmetry found

   Cartesian axes

     site n.     atom                  positions (alat units)
         1           Ti1 tau(   1) = (   0.0004258   2.9801865   6.0000000  )
         2           Ti1 tau(   2) = (   3.2906075   1.4906267   6.0002472  )
         3           O1  tau(   3) = (   0.0006271   0.0005054   7.9858123  )
         4           O1  tau(   4) = (   3.2906025   0.0005020   7.3038282  )
         5           O1  tau(   5) = (   4.5942328   1.4918067   9.2879030  )
         6           O1  tau(   6) = (   1.9868534   1.4903216   9.2879459  )
         7           Ti1 tau(   7) = (   3.2907910   2.8959150   9.1758416  )
         8           Ti1 tau(   8) = (   0.0015273   1.4827037   9.2680791  )
         9           O1  tau(   9) = (   3.2868105   5.9447858  11.3346005  )
        10           O1  tau(  10) = (   0.0116148   5.9584955  10.6183126  )
        11           O1  tau(  11) = (   1.2897616   1.4699164  12.6258314  )
        12           O1  tau(  12) = (   5.2713851   1.4716199  12.6109895  )
        13           Ti1 tau(  13) = (   0.0629619   2.9460495  12.6207869  )
        14           Ti1 tau(  14) = (   3.3778125   1.4702366  12.4807322  )
        15           O1  tau(  15) = (   6.5741670   5.9392046  14.6271830  )
        16           O1  tau(  16) = (   3.2925211   5.9405975  13.9303826  )
        17           O1  tau(  17) = (   4.5331425   1.4971777  16.0590535  )
        18           O1  tau(  18) = (   2.0416154   1.4974824  16.0477615  )
        19           Ti1 tau(  19) = (   3.2901388   2.9722967  15.7036181  )
        20           Ti1 tau(  20) = (   6.5714728   1.5019933  15.8140906  )
        21           O1  tau(  21) = (   3.2904802   0.0005063   4.7018136  )
        22           O1  tau(  22) = (   6.5775371   0.0159386  17.1814867  )
        23           O1  tau(  23) = (   1.3043587   1.4918075   6.0039043  )
        24           O1  tau(  24) = (   5.2767064   1.4903225   6.0039473  )
        25           Ti1 tau(  25) = (   0.0000382   5.9609847   6.0000000  )
        26           Ti1 tau(  26) = (   3.2902200   4.4714249   6.0002472  )
        27           O1  tau(  27) = (   0.0002396   2.9813036   7.9858123  )
        28           O1  tau(  28) = (   3.2902150   2.9813002   7.3038282  )
        29           O1  tau(  29) = (   4.5938453   4.4726049   9.2879030  )
        30           O1  tau(  30) = (   1.9864658   4.4711199   9.2879459  )
        31           Ti1 tau(  31) = (   3.2891106   5.8743827   9.1763621  )
        32           Ti1 tau(  32) = (   0.0006254   4.4649316   9.2693709  )
        33           O1  tau(  33) = (   3.2909631   2.9655588  11.3316111  )
        34           O1  tau(  34) = (   0.0092240   2.9805883  10.6323155  )
        35           O1  tau(  35) = (   1.2884032   4.4536117  12.6269208  )
        36           O1  tau(  36) = (   5.2752684   4.4605011  12.6109535  )
        37           Ti1 tau(  37) = (   0.0626277   5.9200555  12.5524633  )
        38           Ti1 tau(  38) = (   3.3797810   4.4486816  12.4846537  )
        39           O1  tau(  39) = (   6.5720240   2.9440667  14.6479771  )
        40           O1  tau(  40) = (   3.2941106   2.9728877  13.9057494  )
        41           O1  tau(  41) = (   4.5311790   4.4530262  16.1020043  )
        42           O1  tau(  42) = (   2.0427069   4.4534008  16.0946336  )
        43           Ti1 tau(  43) = (   3.2818950   5.9508925  15.7274921  )
        44           Ti1 tau(  44) = (   6.5750914   4.6476268  16.0792144  )
        45           O1  tau(  45) = (   3.2900926   2.9813045   4.7018136  )
        46           O1  tau(  46) = (   1.3039711   4.4726057   6.0039043  )
        47           O1  tau(  47) = (   5.2763189   4.4711207   6.0039473  )
        48           N1  tau(  48) = (   0.0795740   2.6614725  18.6386781  )
        49           N1  tau(  49) = (   0.0132033   2.8794178  17.4383708  )
        50           C1  tau(  50) = (   0.1510961   3.8031638  19.5808395  )
        51           H1  tau(  51) = (   6.4701351   4.7592986  19.1328852  )
        52           H1  tau(  52) = (   6.0910372   3.5604803  20.4166230  )
        53           H1  tau(  53) = (   1.1812797   3.8285794  19.9476819  )

     number of k points=    10  Fermi-Dirac smearing, width (Ry)=  0.0073
                       cart. coord. in units 2pi/alat
        k(    1) = (   0.0000000   0.0000000   0.0000000), wk =   0.1250000
        k(    2) = (   0.0000000   0.0419351   0.0000000), wk =   0.2500000
        k(    3) = (   0.0000000  -0.0838702   0.0000000), wk =   0.1250000
        k(    4) = (   0.0379955   0.0000049   0.0000000), wk =   0.2500000
        k(    5) = (   0.0379955   0.0419400   0.0000000), wk =   0.2500000
        k(    6) = (   0.0379955  -0.0838652   0.0000000), wk =   0.2500000
        k(    7) = (   0.0379955  -0.0419301   0.0000000), wk =   0.2500000
        k(    8) = (  -0.0759910  -0.0000099   0.0000000), wk =   0.1250000
        k(    9) = (  -0.0759910   0.0419252   0.0000000), wk =   0.2500000
        k(   10) = (  -0.0759910  -0.0838800   0.0000000), wk =   0.1250000

     Initial potential from superposition of free atoms

     starting charge  378.99916, renormalised to  395.00000

     negative rho (up, down):  1.507E-02 0.000E+00

     %%%%%%%%%%%%%%%%%%%%%%%%%%%%%%%%%%%%%%%%%%%%%%%%%%%%%%%%%%%%%%%%%%%%%%%%
     %                                                                      %
     % You are using vdW-DF, which was implemented by the Thonhauser group. %
     % Please cite the following two papers that made this development      %
     % possible and the two reviews that describe the various versions:     %
     %                                                                      %
     %   T. Thonhauser et al., PRL 115, 136402 (2015).                      %
     %   T. Thonhauser et al., PRB 76, 125112 (2007).                       %
     %   K. Berland et al., Rep. Prog. Phys. 78, 066501 (2015).             %
     %   D.C. Langreth et al., J. Phys.: Condens. Matter 21, 084203 (2009). %
     %                                                                      %
     %                                                                      %
     % If you are calculating the stress with vdW-DF, please also cite:     %
     %                                                                      %
     %   R. Sabatini et al., J. Phys.: Condens. Matter 24, 424209 (2012).   %
     %                                                                      %
     %%%%%%%%%%%%%%%%%%%%%%%%%%%%%%%%%%%%%%%%%%%%%%%%%%%%%%%%%%%%%%%%%%%%%%%%

     Adding external electric field

     Computed dipole along edir(3) :
        Dipole               -8.8487 Ry au,        -22.4911 Debye
        Dipole field         -0.0167 Ry au,

        Potential amp.        1.5479 Ry
        Total length         46.3494 bohr

     Starting wfcs are  299 atomic wfcs
  @ DRIVER MODE: Message from server: STATUS
  @ DRIVER MODE: Message from server: POSDATA
  @ DRIVER MODE: Reading and sharing cell
  @ DRIVER MODE: Reading and sharing positions
  @ DRIVER MODE: Received positions

     Self-consistent Calculation

     iteration #  1     ecut=    29.40 Ry     beta= 0.05
     Davidson diagonalization with overlap
     c_bands:  1 eigenvalues not converged
     c_bands:  2 eigenvalues not converged
     c_bands:  1 eigenvalues not converged
     c_bands:  3 eigenvalues not converged
     c_bands:  3 eigenvalues not converged
     c_bands:  1 eigenvalues not converged
     ethr =  1.00E-05,  avg # of iterations = 19.1

[...]

     total energy              =   -2605.71483157 Ry
     estimated scf accuracy    <    3698.54603721 Ry

     iteration #  2     ecut=    29.40 Ry     beta= 0.05
     Davidson diagonalization with overlap
     ethr =  1.00E-02,  avg # of iterations = 22.0

[...]

     iteration # 45     ecut=    29.40 Ry     beta= 0.05
     Davidson diagonalization with overlap
     c_bands:  1 eigenvalues not converged
     ethr =  9.93E-09,  avg # of iterations = 14.6

[...]

     total energy              =   -2939.15465285 Ry
     estimated scf accuracy    <       0.00000011 Ry

     iteration # 59     ecut=    29.40 Ry     beta= 0.05
     Davidson diagonalization with overlap
     ethr =  2.78E-11,  avg # of iterations = 10.0

     negative rho (up, down):  1.567E-02 0.000E+00

     Adding external electric field

     Computed dipole along edir(3) :
        Dipole                0.7074 Ry au,          1.7979 Debye
        Dipole field          0.0013 Ry au,

        Potential amp.       -0.1237 Ry
        Total length         46.3494 bohr

     End of self-consistent calculation

          k = 0.0000 0.0000 0.0000 ( 18029 PWs)   bands (ev):

   -55.8952 -55.8804 -55.8611 -55.8445 -55.7959 -55.7304 -55.7044 -55.7038
   -55.6938 -55.6698 -55.6688 -55.6352 -55.2861 -55.0952 -54.8728 -54.8387
   -32.4346 -32.3774 -32.2304 -32.2279 -32.2024 -32.1993 -32.1882 -32.1594
   -32.1377 -32.1245 -32.1027 -32.0669 -32.0610 -32.0474 -32.0337 -32.0201
   -32.0179 -31.9993 -31.9851 -31.9524 -31.9443 -31.9400 -31.8989 -31.8940
   -31.8916 -31.8882 -31.8801 -31.8753 -31.8709 -31.8443 -31.8436 -31.8346
   -31.8334 -31.8217 -31.8102 -31.7810 -31.7778 -31.5662 -31.4594 -31.3574
   -31.3554 -31.3110 -31.2798 -31.1914 -31.1690 -31.0965 -31.0100 -30.8990
   -18.4502 -16.6329 -16.3681 -16.1394 -16.0455 -16.0133 -15.8952 -15.7329
   -15.6154 -15.5604 -15.4630 -15.4436 -15.4305 -15.3986 -15.3804 -15.3749
   -15.3411 -15.3369 -15.3184 -15.3032 -15.2549 -15.2311 -15.2094 -15.1100
   -15.0639 -15.0300 -15.0148 -14.9517 -14.9465 -14.4419 -13.3751 -13.2587
   -11.3739  -6.9330  -4.3473  -4.0028  -3.9038  -3.8708  -3.8475  -3.8006
    -3.7439  -3.6247  -3.4991  -3.4369  -3.1262  -3.0783  -3.0623  -3.0452
    -3.0074  -2.7999  -2.7487  -2.7085  -2.6842  -2.6767  -2.6656  -2.6580
    -2.6463  -2.6077  -2.5056  -2.4365  -2.4308  -2.3435  -2.2936  -2.2702
    -2.2071  -2.1874  -2.1655  -2.1426  -2.1309  -2.1101  -2.0900  -2.0791
    -1.9749  -1.8831  -1.7511  -1.6944  -1.6757  -1.6630  -1.6430  -1.5027
    -1.3698  -1.3380  -1.3294  -1.3202  -1.2866  -1.2748  -1.1918  -1.0631
    -1.0521  -1.0122  -0.9602  -0.9022  -0.8769  -0.7751  -0.7383  -0.6614
    -0.6563  -0.6394  -0.5865  -0.5353  -0.3764  -0.3346  -0.3086  -0.2864
    -0.2619  -0.1911  -0.1695  -0.0530  -0.0358  -0.0182   0.0420   0.0652
     0.0782   0.0880   0.1058   0.1239   0.1413   0.3085   0.3810   0.4334
     0.4568   0.5147   0.6397   0.7086   0.7636   0.8640   1.0752   1.1495
     1.2422   1.3415   1.7206   1.7663   2.6485   3.2442   3.3248   3.3739
     3.3885   3.4856   3.5192   3.6959   3.6970   3.7256   3.7954

[...]

          k = 0.0380-0.0419 0.0000 ( 17876 PWs)   bands (ev):

[...]

          k =-0.0760-0.0000 0.0000 ( 17886 PWs)   bands (ev):

[...]

          k =-0.0760-0.0839 0.0000 ( 17948 PWs)   bands (ev):

   -55.8786 -55.8776 -55.8626 -55.8621 -55.7925 -55.7183 -55.7077 -55.7058
   -55.6877 -55.6853 -55.6528 -55.6515 -55.2846 -55.0965 -54.8557 -54.8556
   -32.2391 -32.2373 -32.1931 -32.1923 -32.1741 -32.1730 -32.1698 -32.1343
   -32.0888 -32.0858 -32.0798 -32.0792 -32.0425 -32.0131 -32.0053 -32.0047
   -31.9983 -31.9981 -31.9977 -31.9971 -31.9934 -31.9915 -31.9891 -31.9380
   -31.9243 -31.9122 -31.9111 -31.8998 -31.8868 -31.8862 -31.8838 -31.8827
   -31.8672 -31.8665 -31.8573 -31.8546 -31.6946 -31.5680 -31.4677 -31.4145
   -31.3572 -31.3365 -31.1818 -31.1816 -31.0926 -31.0925 -31.0534 -31.0532
   -18.4460 -16.0687 -16.0427 -15.8428 -15.8097 -15.8055 -15.7911 -15.6824
   -15.5975 -15.5904 -15.5876 -15.5212 -15.4913 -15.4754 -15.4347 -15.4221
   -15.4148 -15.4032 -15.3929 -15.3557 -15.3484 -15.3311 -15.3237 -15.2396
   -15.2117 -15.2076 -15.1818 -15.0639 -14.9326 -14.6181 -13.3606 -13.3604
   -11.3716  -6.9447  -4.2568  -3.9150  -3.8422  -3.3581  -3.3293  -3.0891
    -3.0503  -3.0365  -2.9834  -2.8218  -2.7915  -2.7657  -2.7541  -2.7225
    -2.7172  -2.7052  -2.7000  -2.6801  -2.6389  -2.6188  -2.6006  -2.5820
    -2.5626  -2.5486  -2.5332  -2.5162  -2.5065  -2.4672  -2.4437  -2.4321
    -2.4135  -2.4017  -2.2453  -2.1222  -2.0878  -2.0332  -2.0230  -2.0016
    -1.9616  -1.9578  -1.9460  -1.8817  -1.8116  -1.6519  -1.6186  -1.5944
    -1.5765  -1.5562  -1.5005  -1.4603  -1.3730  -1.2990  -1.2750  -1.2704
    -1.2020  -1.1149  -1.1078  -1.0601  -1.0170  -1.0081  -0.9530  -0.8882
    -0.8575  -0.8533  -0.8006  -0.7317  -0.7137  -0.6635  -0.6566  -0.6122
    -0.5573  -0.5496  -0.5283  -0.4871  -0.4051  -0.3815  -0.2430  -0.1632
    -0.0407   0.0737   0.1679   0.1823   0.2622   0.3142   0.3979   0.4155
     0.4260   0.4351   0.4783   0.5615   0.6371   0.6519   0.6978   0.8187
     1.5131   1.5139   1.5859   1.5862   2.7054   3.4913   3.5359   3.5780
     3.6103   3.7167   3.7490   3.7726   3.7738   3.8020   3.9361

     the Fermi energy is     3.2393 ev

!    total energy              =   -2939.15470849 Ry
     estimated scf accuracy    <       0.00000004 Ry
     smearing contrib. (-TS)   =      -0.02244551 Ry
     internal energy E=F+TS    =   -2939.13226298 Ry

     The total energy is F=E-TS. E is the sum of the following terms:
     one-electron contribution =  -24176.58397864 Ry
     hartree contribution      =   12175.54218293 Ry
     xc contribution           =    -485.19001381 Ry
     ewald contribution        =    9547.09860232 Ry
     electric field correction =       0.00094422 Ry

     convergence has been achieved in  59 iterations

     Forces acting on atoms (cartesian axes, Ry/au):

     atom    1 type  1   force =     0.00012486   -0.00025905    0.09667487
     atom    2 type  1   force =    -0.00012179   -0.00049876   -0.17521680
     atom    3 type  2   force =     0.00000012   -0.00010122   -0.02499325
     atom    4 type  2   force =     0.00005219   -0.00149635    0.05299062
     atom    5 type  2   force =    -0.01216035   -0.00108630    0.00360433
     atom    6 type  2   force =     0.01371099   -0.00027691    0.00228123
     atom    7 type  1   force =    -0.00117139    0.00037258   -0.01148256
     atom    8 type  1   force =     0.00056398    0.00939759    0.02852318
     atom    9 type  2   force =     0.00019761    0.00053432   -0.00014842
     atom   10 type  2   force =    -0.00114747    0.00028481   -0.01824396
     atom   11 type  2   force =    -0.00013130    0.00000111   -0.00014133
     atom   12 type  2   force =     0.00013853    0.00021552    0.00017540
     atom   13 type  1   force =     0.00009724   -0.00029208    0.00015419
     atom   14 type  1   force =     0.00021966    0.00016651    0.00019682
     atom   15 type  2   force =     0.00021972   -0.00007355   -0.00011336
     atom   16 type  2   force =    -0.00033082    0.00034040    0.00037479
     atom   17 type  2   force =    -0.00016430    0.00041992   -0.00013849
     atom   18 type  2   force =     0.00013156    0.00016583    0.00024361
     atom   19 type  1   force =    -0.00007859    0.00015780    0.00006484
     atom   20 type  1   force =    -0.00059181   -0.00021243    0.00020987
     atom   21 type  2   force =     0.00008196    0.00001838    0.10324756
     atom   22 type  2   force =    -0.00019798    0.00023547    0.00076647
     atom   23 type  2   force =    -0.07146668   -0.00007373   -0.02771997
     atom   24 type  2   force =     0.07143124    0.00034674   -0.02772744
     atom   25 type  1   force =     0.00007055   -0.00021408    0.09641331
     atom   26 type  1   force =    -0.00022260   -0.00025790   -0.17561707
     atom   27 type  2   force =     0.00007006   -0.00025238   -0.02399376
     atom   28 type  2   force =     0.00009558   -0.00126617    0.05286250
     atom   29 type  2   force =    -0.01240554    0.00004040    0.00351657
     atom   30 type  2   force =     0.01387197    0.00033400    0.00216223
     atom   31 type  1   force =    -0.00114353    0.00333872   -0.01189582
     atom   32 type  1   force =     0.00065516   -0.01116032    0.02913085
     atom   33 type  2   force =     0.00011090   -0.00020161   -0.00040571
     atom   34 type  2   force =    -0.00089902   -0.00093385   -0.02484535
     atom   35 type  2   force =    -0.00040467    0.00027402    0.00001439
     atom   36 type  2   force =     0.00072769    0.00029602    0.00033443
     atom   37 type  1   force =    -0.00001302   -0.00022456    0.00003420
     atom   38 type  1   force =    -0.00001649    0.00010605   -0.00001202
     atom   39 type  2   force =     0.00032481    0.00034075   -0.00045057
     atom   40 type  2   force =    -0.00030592    0.00010427    0.00016125
     atom   41 type  2   force =    -0.00043399    0.00052214    0.00015167
     atom   42 type  2   force =     0.00004227    0.00045533    0.00044024
     atom   43 type  1   force =    -0.00005760    0.00038269    0.00040056
     atom   44 type  1   force =    -0.00040145    0.00020574    0.00073125
     atom   45 type  2   force =     0.00008310   -0.00002869    0.10325041
     atom   46 type  2   force =    -0.07150196   -0.00003140   -0.02773144
     atom   47 type  2   force =     0.07146708    0.00039057   -0.02775704
     atom   48 type  3   force =     0.00066066   -0.00087969   -0.00122036
     atom   49 type  3   force =     0.00063721    0.00003662   -0.00028319
     atom   50 type  4   force =     0.00654488    0.00248899   -0.00793854
     atom   51 type  5   force =     0.00044264    0.00075278   -0.00072863
     atom   52 type  5   force =    -0.00636588   -0.00271671    0.00937227
     atom   53 type  5   force =    -0.00104009   -0.00018833    0.00032116

     Total force =     0.368665     Total SCF correction =     0.000457
  @ DRIVER MODE: Message from server: STATUS
  @ DRIVER MODE: Message from server: GETFORCE
  @ DRIVER MODE: Returning v,forces,stress,ensemble

     Writing output data file ./calc.save/
  @ DRIVER MODE: Message from server: EXIT
  @ DRIVE MODE: Exiting

     General routines

     Parallel routines

   This run was terminated on:   2:42:49  19Aug2021

   JOB DONE.