     Program PWSCF v.6.7GPU starts on 22Jul2021 at 17:14:13

     R & G space division:  proc/nbgrp/npool/nimage =      16
     Reading input from /storage/home/hcoda1/3/ntian30/research/carbon/1Jul_vib/slab/rutile_O_br_vacant/out_0005/pw.inp
Warning: card &CELL ignored
Warning: card   CELL_DYNAMICS='IPI', ignored
Warning: card / ignored

     Current dimensions of program PWSCF are:
     Max number of different atomic species (ntypx) = 10
     Max number of k-points (npk) =  40000
     Max angular momentum in pseudopotentials (lmaxx) =  3
     Presently no symmetry can be used with electric field

     Message from routine cell_base_init:
     DEPRECATED: use true lattice parameter, not A to a.u. conversion factor

     IMPORTANT: XC functional enforced from input :
     Exchange-correlation= BEEF-VDW
                           (   1   4  43  14   2   0   0)
     Any further DFT definition will be discarded
     Please, verify this is what you really want

  @ DRIVER MODE: Connecting to
 qe_1139763_2402406.sched-torque.pace.gatech.eduq42z6_x8_scratch
  using UNIX socket
  @ DRIVER MODE: Message from server: STATUS
  @ DRIVER MODE: Message from server: INIT
  @ DRIVER MODE: Receiving replica           0          -1
  @ DRIVER MODE: Receiving encoded integer          25
  @ DRIVER MODE:  SCF:  T  FORCE:  T  STRESS:  F  VC:  F  ENSEMBLE:  F
  @ DRIVER MODE:  SCF:  T  FORCE:  T  STRESS:  F  VC:  F  ENSEMBLE:  F

     Using Slab Decomposition

     bravais-lattice index     =            0
     lattice parameter (alat)  =       1.8897  a.u.
     unit-cell volume          =    6658.9804 (a.u.)^3
     number of atoms/cell      =           47
     number of atomic types    =            2
     number of electrons       =       378.00
     number of Kohn-Sham states=          199
     kinetic-energy cutoff     =      29.3995  Ry
     charge density cutoff     =     293.9946  Ry
     scf convergence threshold =      7.3E-08
     mixing beta               =       0.0500
     number of iterations used =            8  plain     mixing
     Exchange-correlation= BEEF-VDW
                           (   1   4  43  14   2   0   0)

     celldm(1)=   1.889726  celldm(2)=   0.000000  celldm(3)=   0.000000
     celldm(4)=   0.000000  celldm(5)=   0.000000  celldm(6)=   0.000000

     crystal axes: (cart. coord. in units of alat)
               a(1) = (   6.579727   0.000000   0.000000 )
               a(2) = (  -0.000775   5.961596   0.000000 )
               a(3) = (   0.000000   0.000000  25.155947 )

     reciprocal axes: (cart. coord. in units 2 pi/alat)
               b(1) = (  0.151982  0.000020  0.000000 )
               b(2) = (  0.000000  0.167740  0.000000 )
               b(3) = (  0.000000  0.000000  0.039752 )

     PseudoPot. # 1 for Ti read from file:
     /storage/coda1/p-amedford6/0/shared/rich_project_chbe-medford/medford-share/data/pseudos_module/espresso/nninc/pbe/van/Ti.UPF
     MD5 check sum: 8e4df49b7f0d34bbd5052bf3f5ea0213
     Pseudo is Ultrasoft, Zval = 12.0
     Generated by new atomic code, or converted to UPF format
     Using radial grid of  851 points,  6 beta functions with:
                l(1) =   0
                l(2) =   0
                l(3) =   1
                l(4) =   1
                l(5) =   2
                l(6) =   2
     Q(r) pseudized with  8 coefficients,  rinner =    1.000   1.000   1.000
                                                       1.000   1.000

     PseudoPot. # 2 for O  read from file:
     /storage/coda1/p-amedford6/0/shared/rich_project_chbe-medford/medford-share/data/pseudos_module/espresso/nninc/pbe/van/O.UPF
     MD5 check sum: 78c19812648e8988a0fe644b0f25305e
     Pseudo is Ultrasoft, Zval =  6.0
     Generated by new atomic code, or converted to UPF format
     Using radial grid of  737 points,  4 beta functions with:
                l(1) =   0
                l(2) =   0
                l(3) =   1
                l(4) =   1
     Q(r) pseudized with  8 coefficients,  rinner =    0.800   0.800   0.800

     atomic species   valence    mass     pseudopotential
        Ti1           12.00    47.86700     Ti( 1.00)
        O1             6.00    15.99900     O ( 1.00)

     Starting magnetic structure
     atomic species   magnetization
        Ti1          0.000
        O1           0.000

     No symmetry found

   Cartesian axes

     site n.     atom                  positions (alat units)
         1           Ti1 tau(   1) = (   0.0004258   2.9801865   6.0000000  )
         2           Ti1 tau(   2) = (   3.2906075   1.4906267   6.0002472  )
         3           O1  tau(   3) = (   0.0006271   0.0005054   7.9858123  )
         4           O1  tau(   4) = (   3.2906025   0.0005020   7.3038282  )
         5           O1  tau(   5) = (   4.5942328   1.4918067   9.2879030  )
         6           O1  tau(   6) = (   1.9868534   1.4903216   9.2879459  )
         7           Ti1 tau(   7) = (   3.2895655   2.9803496   9.1561551  )
         8           Ti1 tau(   8) = (   6.5792279   1.4901203   9.2542590  )
         9           O1  tau(   9) = (   3.2908496   0.0003861  11.3974292  )
        10           O1  tau(  10) = (   0.0009741   0.0005107  10.6121890  )
        11           O1  tau(  11) = (   1.2851668   1.4970119  12.6717501  )
        12           O1  tau(  12) = (   5.2960956   1.4969944  12.6716611  )
        13           Ti1 tau(  13) = (   0.0014209   2.9817635  12.4865077  )
        14           Ti1 tau(  14) = (   3.2920103   1.4923710  12.5431595  )
        15           O1  tau(  15) = (   0.0005111   0.0003601  14.6908606  )
        16           O1  tau(  16) = (   3.2907661   0.0003422  14.0280135  )
        17           O1  tau(  17) = (   4.5563287   1.5043111  16.1972802  )
        18           O1  tau(  18) = (   2.0238984   1.5042417  16.1969189  )
        19           Ti1 tau(  19) = (   3.2900530   2.9812534  15.7923096  )
        20           Ti1 tau(  20) = (   0.0002900   1.3462356  15.9516996  )
        21           O1  tau(  21) = (   3.2904802   0.0005063   4.7018136  )
        22           O1  tau(  22) = (   0.0005067   0.0002908  17.2230471  )
        23           O1  tau(  23) = (   1.3043587   1.4918075   6.0039043  )
        24           O1  tau(  24) = (   5.2767064   1.4903225   6.0039473  )
        25           Ti1 tau(  25) = (   0.0000382   5.9609847   6.0000000  )
        26           Ti1 tau(  26) = (   3.2902200   4.4714249   6.0002472  )
        27           O1  tau(  27) = (   0.0002396   2.9813036   7.9858123  )
        28           O1  tau(  28) = (   3.2902150   2.9813002   7.3038282  )
        29           O1  tau(  29) = (   4.5938453   4.4726049   9.2879030  )
        30           O1  tau(  30) = (   1.9864658   4.4711199   9.2879459  )
        31           Ti1 tau(  31) = (   3.2890184   5.9611387   9.1545655  )
        32           Ti1 tau(  32) = (   6.5788211   4.4731772   9.2541010  )
        33           O1  tau(  33) = (   3.2904314   2.9811918  11.3932170  )
        34           O1  tau(  34) = (   0.0006808   2.9813391  10.6259032  )
        35           O1  tau(  35) = (   1.2847872   4.4655815  12.6717948  )
        36           O1  tau(  36) = (   5.2956760   4.4653813  12.6716352  )
        37           Ti1 tau(  37) = (   0.0020938   0.0010105  12.4782417  )
        38           Ti1 tau(  38) = (   3.2917349   4.4701355  12.5431901  )
        39           O1  tau(  39) = (   0.0000992   2.9811129  15.0245885  )
        40           O1  tau(  40) = (   3.2903432   2.9811263  13.9978513  )
        41           O1  tau(  41) = (   4.5559250   4.4580163  16.1971803  )
        42           O1  tau(  42) = (   2.0234811   4.4579909  16.1869720  )
        43           Ti1 tau(  43) = (   3.2904469   0.0004528  15.8318627  )
        44           Ti1 tau(  44) = (   0.0000435   4.6159127  15.9515978  )
        45           O1  tau(  45) = (   3.2900926   2.9813045   4.7018136  )
        46           O1  tau(  46) = (   1.3039711   4.4726057   6.0039043  )
        47           O1  tau(  47) = (   5.2763189   4.4711207   6.0039473  )

     number of k points=    10  Fermi-Dirac smearing, width (Ry)=  0.0073
                       cart. coord. in units 2pi/alat
        k(    1) = (   0.0000000   0.0000000   0.0000000), wk =   0.0625000
        k(    2) = (   0.0000000   0.0419351   0.0000000), wk =   0.1250000
        k(    3) = (   0.0000000  -0.0838702   0.0000000), wk =   0.0625000
        k(    4) = (   0.0379955   0.0000049   0.0000000), wk =   0.1250000
        k(    5) = (   0.0379955   0.0419400   0.0000000), wk =   0.1250000
        k(    6) = (   0.0379955  -0.0838652   0.0000000), wk =   0.1250000
        k(    7) = (   0.0379955  -0.0419301   0.0000000), wk =   0.1250000
        k(    8) = (  -0.0759910  -0.0000099   0.0000000), wk =   0.0625000
        k(    9) = (  -0.0759910   0.0419252   0.0000000), wk =   0.1250000
        k(   10) = (  -0.0759910  -0.0838800   0.0000000), wk =   0.0625000

     Initial potential from superposition of free atoms

     starting charge  361.99925, renormalised to  378.00000

     negative rho (up, down):  1.185E-02 1.185E-02

     %%%%%%%%%%%%%%%%%%%%%%%%%%%%%%%%%%%%%%%%%%%%%%%%%%%%%%%%%%%%%%%%%%%%%%%%
     %                                                                      %
     % You are using vdW-DF, which was implemented by the Thonhauser group. %
     % Please cite the following two papers that made this development      %
     % possible and the two reviews that describe the various versions:     %
     %                                                                      %
     %   T. Thonhauser et al., PRL 115, 136402 (2015).                      %
     %   T. Thonhauser et al., PRB 76, 125112 (2007).                       %
     %   K. Berland et al., Rep. Prog. Phys. 78, 066501 (2015).             %
     %   D.C. Langreth et al., J. Phys.: Condens. Matter 21, 084203 (2009). %
     %                                                                      %
     %                                                                      %
     % If you are calculating the stress with vdW-DF, please also cite:     %
     %                                                                      %
     %   R. Sabatini et al., J. Phys.: Condens. Matter 24, 424209 (2012).   %
     %                                                                      %
     %%%%%%%%%%%%%%%%%%%%%%%%%%%%%%%%%%%%%%%%%%%%%%%%%%%%%%%%%%%%%%%%%%%%%%%%

     Adding external electric field

     Computed dipole along edir(3) :
        Dipole                1.1466 Ry au,          2.9143 Debye
        Dipole field          0.0022 Ry au,

        Potential amp.       -0.2006 Ry
        Total length         46.3494 bohr

[...]

     Starting wfcs are  284 atomic wfcs
  @ DRIVER MODE: Message from server: STATUS
  @ DRIVER MODE: Message from server: POSDATA
  @ DRIVER MODE: Reading and sharing cell
  @ DRIVER MODE: Reading and sharing positions
  @ DRIVER MODE: Received positions

     Self-consistent Calculation

     iteration #  1     ecut=    29.40 Ry     beta= 0.05
     Davidson diagonalization with overlap
     c_bands:  2 eigenvalues not converged
     c_bands:  3 eigenvalues not converged
     c_bands:  2 eigenvalues not converged
     c_bands:  4 eigenvalues not converged
     c_bands:  1 eigenvalues not converged
     c_bands:  2 eigenvalues not converged
     c_bands:  1 eigenvalues not converged
     c_bands:  1 eigenvalues not converged
     c_bands:  3 eigenvalues not converged
     c_bands:  2 eigenvalues not converged
     c_bands:  2 eigenvalues not converged
     c_bands:  3 eigenvalues not converged
     c_bands:  2 eigenvalues not converged
     c_bands:  4 eigenvalues not converged
     c_bands:  1 eigenvalues not converged
     c_bands:  2 eigenvalues not converged
     c_bands:  1 eigenvalues not converged
     c_bands:  1 eigenvalues not converged
     c_bands:  3 eigenvalues not converged
     c_bands:  2 eigenvalues not converged
     ethr =  1.00E-05,  avg # of iterations = 20.0

[...]

     total energy              =   -2885.09709480 Ry
     estimated scf accuracy    <      12.51084771 Ry

     total magnetization       =     0.00 Bohr mag/cell
     absolute magnetization    =     0.00 Bohr mag/cell

     iteration #  2     ecut=    29.40 Ry     beta= 0.05
     Davidson diagonalization with overlap
     ethr =  3.31E-03,  avg # of iterations =  1.0

[...]

     iteration # 72     ecut=    29.40 Ry     beta= 0.05
     Davidson diagonalization with overlap
     c_bands:  1 eigenvalues not converged
     c_bands:  1 eigenvalues not converged
     ethr =  2.52E-10,  avg # of iterations = 13.5

[...]

     total energy              =   -2883.85327368 Ry
     estimated scf accuracy    <       0.00000010 Ry

[...]

     iteration # 78     ecut=    29.40 Ry     beta= 0.05
     Davidson diagonalization with overlap
     ethr =  2.75E-11,  avg # of iterations =  5.0

     negative rho (up, down):  1.071E-02 1.071E-02

[...]

     Adding external electric field

     Computed dipole along edir(3) :
        Dipole                0.5624 Ry au,          1.4295 Debye
        Dipole field          0.0011 Ry au,

        Potential amp.       -0.0984 Ry
        Total length         46.3494 bohr

     Magnetic moment per site  (integrated on atomic sphere of radius R)
     atom   1 (R=0.740)  charge=  8.0666  magn=  0.0000
     atom   2 (R=0.740)  charge=  8.0462  magn=  0.0000
     atom   3 (R=0.740)  charge=  5.0351  magn= -0.0000
     atom   4 (R=0.740)  charge=  5.0740  magn= -0.0000
     atom   5 (R=0.740)  charge=  5.0337  magn=  0.0000
     atom   6 (R=0.740)  charge=  5.0338  magn= -0.0000
     atom   7 (R=0.740)  charge=  8.0460  magn=  0.0000
     atom   8 (R=0.740)  charge=  8.0494  magn=  0.0000
     atom   9 (R=0.740)  charge=  5.0395  magn= -0.0000
     atom  10 (R=0.740)  charge=  5.0477  magn= -0.0000
     atom  11 (R=0.740)  charge=  5.0325  magn= -0.0000
     atom  12 (R=0.740)  charge=  5.0325  magn= -0.0000
     atom  13 (R=0.740)  charge=  8.0562  magn=  0.0000
     atom  14 (R=0.740)  charge=  8.0499  magn=  0.0000
     atom  15 (R=0.740)  charge=  5.0483  magn=  0.0000
     atom  16 (R=0.740)  charge=  5.0335  magn=  0.0000
     atom  17 (R=0.740)  charge=  5.0153  magn=  0.0000
     atom  18 (R=0.740)  charge=  5.0152  magn=  0.0000
     atom  19 (R=0.740)  charge=  8.0778  magn=  0.0000
     atom  20 (R=0.740)  charge=  8.0903  magn= -0.0000
     atom  21 (R=0.740)  charge=  4.9131  magn=  0.0000
     atom  22 (R=0.740)  charge=  4.9956  magn=  0.0000
     atom  23 (R=0.740)  charge=  5.0274  magn= -0.0000
     atom  24 (R=0.740)  charge=  5.0275  magn= -0.0000
     atom  25 (R=0.740)  charge=  8.0667  magn=  0.0000
     atom  26 (R=0.740)  charge=  8.0462  magn=  0.0000
     atom  27 (R=0.740)  charge=  5.0346  magn= -0.0000
     atom  28 (R=0.740)  charge=  5.0735  magn= -0.0000
     atom  29 (R=0.740)  charge=  5.0337  magn= -0.0000
     atom  30 (R=0.740)  charge=  5.0338  magn=  0.0000
     atom  31 (R=0.740)  charge=  8.0465  magn= -0.0000
     atom  32 (R=0.740)  charge=  8.0494  magn=  0.0000
     atom  33 (R=0.740)  charge=  5.0395  magn= -0.0000
     atom  34 (R=0.740)  charge=  5.0426  magn= -0.0000
     atom  35 (R=0.740)  charge=  5.0324  magn= -0.0000
     atom  36 (R=0.740)  charge=  5.0325  magn= -0.0000
     atom  37 (R=0.740)  charge=  8.0519  magn=  0.0000
     atom  38 (R=0.740)  charge=  8.0499  magn=  0.0000
     atom  39 (R=0.740)  charge=  5.0310  magn=  0.0000
     atom  40 (R=0.740)  charge=  5.0466  magn= -0.0000
     atom  41 (R=0.740)  charge=  5.0152  magn=  0.0000
     atom  42 (R=0.740)  charge=  5.0164  magn= -0.0000
     atom  43 (R=0.740)  charge=  8.0772  magn= -0.0000
     atom  44 (R=0.740)  charge=  8.0904  magn= -0.0000
     atom  45 (R=0.740)  charge=  4.9131  magn=  0.0000
     atom  46 (R=0.740)  charge=  5.0274  magn= -0.0000
     atom  47 (R=0.740)  charge=  5.0275  magn= -0.0000

     End of self-consistent calculation

 ------ SPIN UP ------------

          k = 0.0000 0.0000 0.0000 ( 18029 PWs)   bands (ev):

   -56.2719 -56.2360 -56.2210 -56.1868 -56.1530 -56.1389 -56.1100 -56.1043
   -56.0864 -56.0785 -56.0759 -56.0495 -56.0224 -56.0155 -55.3353 -55.3012
   -32.8340 -32.7885 -32.7232 -32.6238 -32.5827 -32.5791 -32.5745 -32.5642
   -32.5113 -32.4985 -32.4772 -32.4720 -32.4662 -32.4421 -32.4413 -32.4218
   -32.4093 -32.4079 -32.3961 -32.3856 -32.3732 -32.3726 -32.3694 -32.3681
   -32.3436 -32.3414 -32.3193 -32.2760 -32.2695 -32.2609 -32.2596 -32.2535
   -32.2474 -32.2381 -32.2375 -32.2327 -32.2288 -32.2071 -32.1994 -32.1824
   -32.1649 -32.1049 -31.7481 -31.6434 -31.6221 -31.5639 -31.4776 -31.3668
   -17.1029 -16.8807 -16.7374 -16.6040 -16.4999 -16.3961 -16.2720 -16.2217
   -16.1686 -16.0228 -15.9619 -15.9371 -15.8981 -15.8731 -15.8700 -15.8534
   -15.8277 -15.8114 -15.7909 -15.7825 -15.7667 -15.7661 -15.7180 -15.6656
   -15.5751 -15.5043 -15.4340 -15.3767 -15.0533 -13.8360 -13.7162  -4.4230
    -4.2881  -4.2141  -4.1991  -4.1532  -4.0371  -3.8169  -3.7930  -3.7272
    -3.5716  -3.5234  -3.4662  -3.4059  -3.3363  -3.2802  -3.2691  -3.1676
    -3.1441  -3.1391  -3.1324  -3.0511  -3.0482  -3.0307  -3.0006  -2.9600
    -2.8692  -2.7492  -2.7045  -2.6707  -2.6494  -2.6413  -2.6190  -2.5899
    -2.5586  -2.5235  -2.5222  -2.4869  -2.4528  -2.3211  -2.1746  -2.1291
    -2.0602  -1.9698  -1.8969  -1.8316  -1.7897  -1.7542  -1.7287  -1.6794
    -1.6494  -1.6160  -1.5386  -1.4514  -1.4075  -1.3037  -1.2866  -1.2206
    -1.1848  -1.1103  -1.0684  -1.0671  -1.0239  -0.9361  -0.9084  -0.7849
    -0.7594  -0.7506  -0.7378  -0.7286  -0.6173  -0.5139  -0.4842  -0.4784
    -0.4756  -0.3893  -0.3390  -0.3332  -0.3173  -0.3100  -0.2604  -0.1863
    -0.1444  -0.0934   0.0496   0.2746   0.2759   0.3400   0.5741   0.6451
     0.6909   0.8480   1.2768   1.3302   2.8262   2.8918   2.9230   2.9563
     2.9831   3.0325   3.3229   3.3367   3.3605   3.3886   3.4056

[...]

          k =-0.0760-0.0000 0.0000 ( 17886 PWs)   bands (ev):

[...]

 ------ SPIN DOWN ----------

[...]

          k = 0.0380-0.0419 0.0000 ( 17876 PWs)   bands (ev):

[...]

          k =-0.0760-0.0839 0.0000 ( 17948 PWs)   bands (ev):

   -56.2541 -56.2536 -56.2040 -56.2036 -56.1487 -56.1237 -56.1195 -56.0934
   -56.0921 -56.0826 -56.0798 -56.0328 -56.0323 -56.0288 -55.3182 -55.3182
   -32.7120 -32.6397 -32.6368 -32.5381 -32.5379 -32.5377 -32.5234 -32.4965
   -32.4965 -32.4694 -32.4658 -32.4656 -32.4599 -32.4178 -32.4143 -32.4137
   -32.4081 -32.4074 -32.3933 -32.3878 -32.3866 -32.3828 -32.3729 -32.3558
   -32.3525 -32.3499 -32.3482 -32.3447 -32.3218 -32.3214 -32.3163 -32.3121
   -32.2892 -32.2882 -32.2627 -32.2626 -32.2625 -32.2624 -32.2316 -32.2183
   -32.2181 -32.2097 -31.6346 -31.6346 -31.5607 -31.5606 -31.5208 -31.5207
   -16.8099 -16.4556 -16.4169 -16.3317 -16.3242 -16.2250 -16.2052 -16.1164
   -16.0747 -16.0521 -16.0505 -16.0004 -15.9796 -15.9602 -15.9565 -15.8923
   -15.8761 -15.8474 -15.8446 -15.7901 -15.7875 -15.7864 -15.7852 -15.7491
   -15.7462 -15.7075 -15.7043 -15.6022 -15.4387 -13.8172 -13.8170  -3.8269
    -3.7249  -3.6703  -3.5549  -3.4803  -3.4453  -3.3986  -3.3893  -3.3153
    -3.2717  -3.2685  -3.1851  -3.1739  -3.1737  -3.1602  -3.1006  -3.0839
    -3.0596  -3.0358  -3.0125  -2.9813  -2.9685  -2.9667  -2.9463  -2.9375
    -2.9182  -2.9171  -2.8870  -2.8648  -2.8407  -2.8249  -2.6627  -2.6588
    -2.5735  -2.5131  -2.5117  -2.4322  -2.4240  -2.3803  -2.3461  -2.2906
    -2.2531  -2.0966  -2.0729  -2.0707  -2.0044  -1.9801  -1.9096  -1.8520
    -1.8367  -1.7889  -1.7320  -1.6144  -1.5963  -1.5704  -1.4652  -1.4634
    -1.3901  -1.3152  -1.2717  -1.2655  -1.2620  -1.2335  -1.2298  -1.2269
    -1.1162  -1.0639  -1.0170  -1.0097  -0.9966  -0.7950  -0.7327  -0.7219
    -0.6070  -0.5541  -0.3711  -0.3634  -0.3243  -0.2083  -0.2057  -0.2039
    -0.1536  -0.0294  -0.0175   0.0470   0.0921   0.1060   0.1450   0.1466
     1.0395   1.0405   1.1481   1.1486   2.9968   3.0794   3.0860   3.1342
     3.2749   3.3252   3.3313   3.3774   3.3783   3.3818   3.4611

     the Fermi energy is     2.8917 ev

!    total energy              =   -2883.85327928 Ry
     estimated scf accuracy    <       0.00000005 Ry
     smearing contrib. (-TS)   =      -0.03660958 Ry
     internal energy E=F+TS    =   -2883.81666970 Ry

     The total energy is F=E-TS. E is the sum of the following terms:
     one-electron contribution =  -24917.72979771 Ry
     hartree contribution      =   12533.74959339 Ry
     xc contribution           =    -468.94809859 Ry
     ewald contribution        =    9969.11103628 Ry
     electric field correction =       0.00059692 Ry

     total magnetization       =     0.00 Bohr mag/cell
     absolute magnetization    =     0.00 Bohr mag/cell

     convergence has been achieved in  78 iterations

     Forces acting on atoms (cartesian axes, Ry/au):

     atom    1 type  1   force =     0.00010460   -0.00000421    0.08978045
     atom    2 type  1   force =    -0.00004445    0.00030927   -0.18453850
     atom    3 type  2   force =     0.00003046   -0.00000547   -0.02422222
     atom    4 type  2   force =    -0.00001000   -0.00002144    0.05193799
     atom    5 type  2   force =    -0.01337241   -0.00027490    0.00585800
     atom    6 type  2   force =     0.01334465    0.00020476    0.00582765
     atom    7 type  1   force =    -0.00003036    0.00002087    0.00044009
     atom    8 type  1   force =     0.00001281    0.00043516    0.00044866
     atom    9 type  2   force =     0.00001403    0.00000709    0.00085429
     atom   10 type  2   force =    -0.00000302    0.00000645   -0.00043622
     atom   11 type  2   force =     0.00014840   -0.00024668    0.00048606
     atom   12 type  2   force =    -0.00016379   -0.00025996    0.00047608
     atom   13 type  1   force =     0.00001413    0.00000723   -0.00070514
     atom   14 type  1   force =     0.00004560   -0.00074008    0.00059181
     atom   15 type  2   force =    -0.00018505    0.00006590   -0.00063756
     atom   16 type  2   force =     0.00020332    0.00022677    0.00006724
     atom   17 type  2   force =     0.00013490    0.00019348    0.00009834
     atom   18 type  2   force =     0.00004780    0.00027339    0.00021190
     atom   19 type  1   force =     0.00033381   -0.00024351   -0.00171509
     atom   20 type  1   force =    -0.00013829    0.00039781   -0.00039036
     atom   21 type  2   force =     0.00005870    0.00007601    0.10530141
     atom   22 type  2   force =     0.00031180   -0.00035895    0.00068607
     atom   23 type  2   force =    -0.06756952   -0.00027105   -0.02598433
     atom   24 type  2   force =     0.06747693    0.00016197   -0.02602179
     atom   25 type  1   force =     0.00010205    0.00000748    0.08888613
     atom   26 type  1   force =    -0.00006556   -0.00039887   -0.18454614
     atom   27 type  2   force =     0.00003280   -0.00002097   -0.02317583
     atom   28 type  2   force =    -0.00000594   -0.00002093    0.05199003
     atom   29 type  2   force =    -0.01337924   -0.00026816    0.00585635
     atom   30 type  2   force =     0.01334834    0.00022923    0.00582276
     atom   31 type  1   force =    -0.00003077    0.00001710    0.00078189
     atom   32 type  1   force =     0.00000503   -0.00043004    0.00046482
     atom   33 type  2   force =     0.00001814    0.00002208   -0.00030686
     atom   34 type  2   force =    -0.00001497    0.00000306    0.00007256
     atom   35 type  2   force =     0.00014147    0.00026734    0.00045606
     atom   36 type  2   force =    -0.00017135    0.00026192    0.00049094
     atom   37 type  1   force =     0.00001691   -0.00003097    0.00084045
     atom   38 type  1   force =    -0.00000783    0.00075699    0.00058222
     atom   39 type  2   force =    -0.00024204   -0.00023439   -0.00032020
     atom   40 type  2   force =     0.00019630   -0.00019079   -0.00057011
     atom   41 type  2   force =    -0.00027998   -0.00023133    0.00026428
     atom   42 type  2   force =    -0.00043421    0.00001685    0.00196641
     atom   43 type  1   force =     0.00031443    0.00022067   -0.00049242
     atom   44 type  1   force =    -0.00027076   -0.00010847   -0.00073429
     atom   45 type  2   force =     0.00005860    0.00007555    0.10526161
     atom   46 type  2   force =    -0.06757131   -0.00016957   -0.02598364
     atom   47 type  2   force =     0.06747484    0.00026634   -0.02602188

     Total force =     0.366847     Total SCF correction =     0.000677
  @ DRIVER MODE: Message from server: STATUS
  @ DRIVER MODE: Message from server: GETFORCE
  @ DRIVER MODE: Returning v,forces,stress,ensemble

     Writing output data file ./calc.save/
  @ DRIVER MODE: Message from server: EXIT
  @ DRIVE MODE: Exiting

     General routines

     Parallel routines

   This run was terminated on:  18: 1:36  22Jul2021

   JOB DONE.