     Program PWSCF v.6.7GPU starts on 15Sep2021 at 15:34:19

     R & G space division:  proc/nbgrp/npool/nimage =      10
     Reading input from /storage/home/hcoda1/3/ntian30/research/carbon/CxH_vib/H2O_calc/ads_slab/CH3NH2NHH2O_c/out_0000/pw.inp
Warning: card &CELL ignored
Warning: card   CELL_DYNAMICS='IPI', ignored
Warning: card / ignored

     Current dimensions of program PWSCF are:
     Max number of different atomic species (ntypx) = 10
     Max number of k-points (npk) =  40000
     Max angular momentum in pseudopotentials (lmaxx) =  3
     Presently no symmetry can be used with electric field

     Message from routine cell_base_init:
     DEPRECATED: use true lattice parameter, not A to a.u. conversion factor

     IMPORTANT: XC functional enforced from input :
     Exchange-correlation= BEEF-VDW
                           (   1   4  43  14   2   0   0)
     Any further DFT definition will be discarded
     Please, verify this is what you really want

  @ DRIVER MODE: Connecting to
 qe_1139763_2852614.sched-torque.pace.gatech.edu6z6muq64_scratch
  using UNIX socket
  @ DRIVER MODE: Message from server: STATUS
  @ DRIVER MODE: Message from server: INIT
  @ DRIVER MODE: Receiving replica           0          -1
  @ DRIVER MODE: Receiving encoded integer          25
  @ DRIVER MODE:  SCF:  T  FORCE:  T  STRESS:  F  VC:  F  ENSEMBLE:  F
  @ DRIVER MODE:  SCF:  T  FORCE:  T  STRESS:  F  VC:  F  ENSEMBLE:  F

     Using Slab Decomposition

     bravais-lattice index     =            0
     lattice parameter (alat)  =       1.8897  a.u.
     unit-cell volume          =    6658.9804 (a.u.)^3
     number of atoms/cell      =           59
     number of atomic types    =            5
     number of electrons       =       406.00
     number of Kohn-Sham states=          213
     kinetic-energy cutoff     =      29.3995  Ry
     charge density cutoff     =     293.9946  Ry
     scf convergence threshold =      7.3E-08
     mixing beta               =       0.0500
     number of iterations used =            8  plain     mixing
     Exchange-correlation= BEEF-VDW
                           (   1   4  43  14   2   0   0)

     celldm(1)=   1.889726  celldm(2)=   0.000000  celldm(3)=   0.000000
     celldm(4)=   0.000000  celldm(5)=   0.000000  celldm(6)=   0.000000

     crystal axes: (cart. coord. in units of alat)
               a(1) = (   6.579727   0.000000   0.000000 )
               a(2) = (  -0.000775   5.961596   0.000000 )
               a(3) = (   0.000000   0.000000  25.155947 )

     reciprocal axes: (cart. coord. in units 2 pi/alat)
               b(1) = (  0.151982  0.000020  0.000000 )
               b(2) = (  0.000000  0.167740  0.000000 )
               b(3) = (  0.000000  0.000000  0.039752 )

     PseudoPot. # 1 for Ti read from file:
     /storage/coda1/p-amedford6/0/shared/rich_project_chbe-medford/medford-share/data/pseudos_module/espresso/nninc/pbe/van/Ti.UPF
     MD5 check sum: 8e4df49b7f0d34bbd5052bf3f5ea0213
     Pseudo is Ultrasoft, Zval = 12.0
     Generated by new atomic code, or converted to UPF format
     Using radial grid of  851 points,  6 beta functions with:
                l(1) =   0
                l(2) =   0
                l(3) =   1
                l(4) =   1
                l(5) =   2
                l(6) =   2
     Q(r) pseudized with  8 coefficients,  rinner =    1.000   1.000   1.000
                                                       1.000   1.000

     PseudoPot. # 2 for O  read from file:
     /storage/coda1/p-amedford6/0/shared/rich_project_chbe-medford/medford-share/data/pseudos_module/espresso/nninc/pbe/van/O.UPF
     MD5 check sum: 78c19812648e8988a0fe644b0f25305e
     Pseudo is Ultrasoft, Zval =  6.0
     Generated by new atomic code, or converted to UPF format
     Using radial grid of  737 points,  4 beta functions with:
                l(1) =   0
                l(2) =   0
                l(3) =   1
                l(4) =   1
     Q(r) pseudized with  8 coefficients,  rinner =    0.800   0.800   0.800

     PseudoPot. # 3 for N  read from file:
     /storage/coda1/p-amedford6/0/shared/rich_project_chbe-medford/medford-share/data/pseudos_module/espresso/nninc/pbe/van/N.UPF
     MD5 check sum: 90d10febe142ad51ac9d5be1deb811c4
     Pseudo is Ultrasoft, Zval =  5.0
     Generated by new atomic code, or converted to UPF format
     Using radial grid of  729 points,  4 beta functions with:
                l(1) =   0
                l(2) =   0
                l(3) =   1
                l(4) =   1
     Q(r) pseudized with  8 coefficients,  rinner =    0.800   0.800   0.800

     PseudoPot. # 4 for C  read from file:
     /storage/coda1/p-amedford6/0/shared/rich_project_chbe-medford/medford-share/data/pseudos_module/espresso/nninc/pbe/van/C.UPF
     MD5 check sum: 1a69bf6b8db32088f5b2163dbdb77a27
     Pseudo is Ultrasoft, Zval =  4.0
     Generated by new atomic code, or converted to UPF format
     Using radial grid of  721 points,  4 beta functions with:
                l(1) =   0
                l(2) =   0
                l(3) =   1
                l(4) =   1
     Q(r) pseudized with  8 coefficients,  rinner =    0.800   0.800   0.800

     PseudoPot. # 5 for H  read from file:
     /storage/coda1/p-amedford6/0/shared/rich_project_chbe-medford/medford-share/data/pseudos_module/espresso/nninc/pbe/van/H.UPF
     MD5 check sum: b5ee9d7bfd3a09ee7748110bda690ff7
     Pseudo is Ultrasoft, Zval =  1.0
     Generated by new atomic code, or converted to UPF format
     Using radial grid of  615 points,  1 beta functions with:
                l(1) =   0
     Q(r) pseudized with  8 coefficients,  rinner =    0.800

     atomic species   valence    mass     pseudopotential
        Ti1           12.00    47.86700     Ti( 1.00)
        O1             6.00    15.99900     O ( 1.00)
        N1             5.00    14.00700     N ( 1.00)
        C1             4.00    12.01100     C ( 1.00)
        H1             1.00     1.00800     H ( 1.00)

     No symmetry found

   Cartesian axes

     site n.     atom                  positions (alat units)
         1           Ti1 tau(   1) = (   0.0004258   2.9801865   6.0000000  )
         2           Ti1 tau(   2) = (   3.2906075   1.4906267   6.0002472  )
         3           O1  tau(   3) = (   0.0006271   0.0005054   7.9858123  )
         4           O1  tau(   4) = (   3.2906025   0.0005020   7.3038282  )
         5           O1  tau(   5) = (   4.5942328   1.4918067   9.2879030  )
         6           O1  tau(   6) = (   1.9868534   1.4903216   9.2879459  )
         7           Ti1 tau(   7) = (   3.2907910   2.8959150   9.1758416  )
         8           Ti1 tau(   8) = (   0.0015273   1.4827037   9.2680791  )
         9           O1  tau(   9) = (   3.2795193   0.0050042  11.3600746  )
        10           O1  tau(  10) = (   0.0116148   5.9584955  10.6183126  )
        11           O1  tau(  11) = (   1.2764768   1.4833402  12.6625751  )
        12           O1  tau(  12) = (   5.2691860   1.4824858  12.6730715  )
        13           Ti1 tau(  13) = (   6.5785005   2.9712200  12.5432933  )
        14           Ti1 tau(  14) = (   3.2815129   1.4861921  12.5133659  )
        15           O1  tau(  15) = (   0.0084525   5.9333602  14.7514412  )
        16           O1  tau(  16) = (   3.2474592   5.9449689  14.0025778  )
        17           O1  tau(  17) = (   4.5272503   1.5270814  16.0535473  )
        18           O1  tau(  18) = (   2.0088677   1.5398698  16.1918835  )
        19           Ti1 tau(  19) = (   3.2695027   3.0127370  15.7044713  )
        20           Ti1 tau(  20) = (   6.4897317   1.5391078  15.7731133  )
        21           O1  tau(  21) = (   3.2904802   0.0005063   4.7018136  )
        22           O1  tau(  22) = (   6.4943121   0.0104379  17.3746616  )
        23           O1  tau(  23) = (   1.3043587   1.4918075   6.0039043  )
        24           O1  tau(  24) = (   5.2767064   1.4903225   6.0039473  )
        25           Ti1 tau(  25) = (   0.0000382   5.9609847   6.0000000  )
        26           Ti1 tau(  26) = (   3.2902200   4.4714249   6.0002472  )
        27           O1  tau(  27) = (   0.0002396   2.9813036   7.9858123  )
        28           O1  tau(  28) = (   3.2902150   2.9813002   7.3038282  )
        29           O1  tau(  29) = (   4.5938453   4.4726049   9.2879030  )
        30           O1  tau(  30) = (   1.9864658   4.4711199   9.2879459  )
        31           Ti1 tau(  31) = (   3.2891106   5.8743827   9.1763621  )
        32           Ti1 tau(  32) = (   0.0006254   4.4649316   9.2693709  )
        33           O1  tau(  33) = (   3.2806081   2.9711243  11.3509633  )
        34           O1  tau(  34) = (   0.0092240   2.9805883  10.6323155  )
        35           O1  tau(  35) = (   1.2760424   4.4718827  12.6381679  )
        36           O1  tau(  36) = (   5.2690016   4.4731519  12.6446470  )
        37           Ti1 tau(  37) = (   6.5708669   5.9382087  12.5160675  )
        38           Ti1 tau(  38) = (   3.2845625   4.4656782  12.4980923  )
        39           O1  tau(  39) = (   6.5779858   3.0049062  14.7590937  )
        40           O1  tau(  40) = (   3.2501146   3.0001303  13.9242794  )
        41           O1  tau(  41) = (   4.5300198   4.4412671  16.1793791  )
        42           O1  tau(  42) = (   2.0030354   4.4482434  16.2507355  )
        43           Ti1 tau(  43) = (   3.2558399   0.0045369  15.7947069  )
        44           Ti1 tau(  44) = (   0.0024851   4.6597080  16.1671864  )
        45           O1  tau(  45) = (   3.2900926   2.9813045   4.7018136  )
        46           O1  tau(  46) = (   1.3039711   4.4726057   6.0039043  )
        47           O1  tau(  47) = (   5.2763189   4.4711207   6.0039473  )
        48           N1  tau(  48) = (   0.8610865   2.3037131  18.4629187  )
        49           N1  tau(  49) = (   6.4642385   2.8627238  17.5618644  )
        50           C1  tau(  50) = (   1.1134797   3.0572184  19.7121060  )
        51           H1  tau(  51) = (   0.2160447   3.0254214  20.3281890  )
        52           H1  tau(  52) = (   1.9467850   2.5864873  20.2353232  )
        53           H1  tau(  53) = (   1.3463996   4.0866186  19.4485780  )
        54           H1  tau(  54) = (   0.5832711   1.3114681  18.6183785  )
        55           H1  tau(  55) = (   5.5643591   2.7461405  18.0238738  )
        56           H1  tau(  56) = (   1.7079168   2.1891883  17.8702682  )
        57           O1  tau(  57) = (   4.0734316   0.3075885  18.7765601  )
        58           H1  tau(  58) = (   4.9241673   0.1787741  18.2816895  )
        59           H1  tau(  59) = (   3.8734322   5.3936830  19.1372508  )

     number of k points=    10  Fermi-Dirac smearing, width (Ry)=  0.0073
                       cart. coord. in units 2pi/alat
        k(    1) = (   0.0000000   0.0000000   0.0000000), wk =   0.1250000
        k(    2) = (   0.0000000   0.0419351   0.0000000), wk =   0.2500000
        k(    3) = (   0.0000000  -0.0838702   0.0000000), wk =   0.1250000
        k(    4) = (   0.0379955   0.0000049   0.0000000), wk =   0.2500000
        k(    5) = (   0.0379955   0.0419400   0.0000000), wk =   0.2500000
        k(    6) = (   0.0379955  -0.0838652   0.0000000), wk =   0.2500000
        k(    7) = (   0.0379955  -0.0419301   0.0000000), wk =   0.2500000
        k(    8) = (  -0.0759910  -0.0000099   0.0000000), wk =   0.1250000
        k(    9) = (  -0.0759910   0.0419252   0.0000000), wk =   0.2500000
        k(   10) = (  -0.0759910  -0.0838800   0.0000000), wk =   0.1250000

     Initial potential from superposition of free atoms

     starting charge  389.99912, renormalised to  406.00000

     negative rho (up, down):  1.392E-02 0.000E+00

     %%%%%%%%%%%%%%%%%%%%%%%%%%%%%%%%%%%%%%%%%%%%%%%%%%%%%%%%%%%%%%%%%%%%%%%%
     %                                                                      %
     % You are using vdW-DF, which was implemented by the Thonhauser group. %
     % Please cite the following two papers that made this development      %
     % possible and the two reviews that describe the various versions:     %
     %                                                                      %
     %   T. Thonhauser et al., PRL 115, 136402 (2015).                      %
     %   T. Thonhauser et al., PRB 76, 125112 (2007).                       %
     %   K. Berland et al., Rep. Prog. Phys. 78, 066501 (2015).             %
     %   D.C. Langreth et al., J. Phys.: Condens. Matter 21, 084203 (2009). %
     %                                                                      %
     %                                                                      %
     % If you are calculating the stress with vdW-DF, please also cite:     %
     %                                                                      %
     %   R. Sabatini et al., J. Phys.: Condens. Matter 24, 424209 (2012).   %
     %                                                                      %
     %%%%%%%%%%%%%%%%%%%%%%%%%%%%%%%%%%%%%%%%%%%%%%%%%%%%%%%%%%%%%%%%%%%%%%%%

     Adding external electric field

     Computed dipole along edir(3) :
        Dipole              -15.6809 Ry au,        -39.8568 Debye
        Dipole field         -0.0296 Ry au,

        Potential amp.        2.7431 Ry
        Total length         46.3494 bohr

     Starting wfcs are  308 atomic wfcs
  @ DRIVER MODE: Message from server: STATUS
  @ DRIVER MODE: Message from server: POSDATA
  @ DRIVER MODE: Reading and sharing cell
  @ DRIVER MODE: Reading and sharing positions
  @ DRIVER MODE: Received positions

     Self-consistent Calculation

     iteration #  1     ecut=    29.40 Ry     beta= 0.05
     Davidson diagonalization with overlap
     ethr =  1.00E-02,  avg # of iterations =  8.7

[...]

     total energy              =   -2165.13242513 Ry
     estimated scf accuracy    <    9310.04508642 Ry

[...]

     iteration # 21     ecut=    29.40 Ry     beta= 0.05
     Davidson diagonalization with overlap
     c_bands:  1 eigenvalues not converged
     c_bands:  3 eigenvalues not converged
     c_bands:  4 eigenvalues not converged
     ethr =  2.99E-04,  avg # of iterations = 11.5

[...]

     iteration # 68     ecut=    29.40 Ry     beta= 0.05
     Davidson diagonalization with overlap
     c_bands:  2 eigenvalues not converged
     c_bands:  1 eigenvalues not converged
     ethr =  5.71E-11,  avg # of iterations = 12.3

[...]

     total energy              =   -2977.68493047 Ry
     estimated scf accuracy    <       0.00000020 Ry

     iteration # 69     ecut=    29.40 Ry     beta= 0.05
     Davidson diagonalization with overlap
     ethr =  4.98E-11,  avg # of iterations = 11.3

     negative rho (up, down):  1.243E-02 0.000E+00

     Adding external electric field

     Computed dipole along edir(3) :
        Dipole                1.6065 Ry au,          4.0833 Debye
        Dipole field          0.0030 Ry au,

        Potential amp.       -0.2810 Ry
        Total length         46.3494 bohr

     End of self-consistent calculation

          k = 0.0000 0.0000 0.0000 ( 18029 PWs)   bands (ev):

   -54.9541 -54.9177 -54.9148 -54.8836 -54.8441 -54.8342 -54.7941 -54.7623
   -54.7579 -54.7469 -54.7271 -54.7219 -54.7137 -54.6600 -53.9329 -53.8988
   -31.5262 -31.4078 -31.3208 -31.2819 -31.2652 -31.2517 -31.2492 -31.2440
   -31.2095 -31.2077 -31.1631 -31.1628 -31.1571 -31.1269 -31.1082 -31.0883
   -31.0781 -31.0722 -31.0708 -31.0634 -31.0293 -31.0250 -31.0185 -31.0127
   -30.9928 -30.9747 -30.9642 -30.9633 -30.9557 -30.9556 -30.9452 -30.9369
   -30.9207 -30.9202 -30.9116 -30.9101 -30.8846 -30.8778 -30.8758 -30.8752
   -30.8564 -30.8558 -30.3416 -30.2491 -30.2270 -30.1581 -30.0714 -29.9604
   -18.9620 -18.2088 -15.7894 -15.5216 -15.3964 -15.1962 -15.1429 -15.0382
   -14.8783 -14.8176 -14.7526 -14.7278 -14.7220 -14.6951 -14.6224 -14.5670
   -14.5379 -14.4856 -14.4849 -14.4489 -14.4416 -14.4369 -14.3822 -14.3783
   -14.3419 -14.3280 -14.3205 -14.1774 -14.0987 -14.0511 -14.0400 -13.1981
   -12.4353 -12.3182 -10.9839  -7.5866  -6.3972  -5.9733  -5.7597  -4.0102
    -3.8457  -3.1333  -2.9627  -2.9507  -2.8728  -2.8491  -2.6784  -2.6184
    -2.5099  -2.3940  -2.3182  -2.2207  -2.1768  -2.1587  -2.1449  -2.0314
    -1.9458  -1.9085  -1.8692  -1.8306  -1.8135  -1.7681  -1.7469  -1.7369
    -1.7042  -1.6790  -1.5257  -1.4512  -1.4148  -1.3806  -1.3405  -1.2832
    -1.2618  -1.2453  -1.2398  -1.2318  -1.2156  -1.1913  -1.1554  -1.1235
    -1.0556  -0.9714  -0.9621  -0.8506  -0.7667  -0.6339  -0.5807  -0.5229
    -0.4925  -0.4260  -0.3844  -0.3365  -0.3007  -0.2942  -0.2478  -0.1604
    -0.1475  -0.0899  -0.0715   0.0134   0.0594   0.0652   0.0762   0.2527
     0.2631   0.2809   0.3837   0.4647   0.5035   0.5202   0.5776   0.6401
     0.6425   0.6808   0.7028   0.7334   0.8163   0.9199   0.9449   0.9833
     0.9976   1.0231   1.0401   1.0672   1.1064   1.1876   1.1936   1.2709
     1.3632   1.3744   1.6373   1.6696   2.0004   2.0271   2.0898   2.2755
     2.6643   2.7117   4.1477   4.2097   4.2550   4.2806   4.2988   4.3802
     4.3998   4.6157   4.6419   4.6429   4.6522

[...]

          k = 0.0380-0.0419 0.0000 ( 17876 PWs)   bands (ev):

[...]

          k =-0.0760-0.0000 0.0000 ( 17886 PWs)   bands (ev):

[...]

          k =-0.0760-0.0839 0.0000 ( 17948 PWs)   bands (ev):

   -54.9422 -54.9265 -54.9006 -54.9006 -54.8416 -54.8247 -54.8036 -54.7554
   -54.7470 -54.7415 -54.7321 -54.7291 -54.7242 -54.6624 -53.9159 -53.9157
   -31.3348 -31.3236 -31.2577 -31.2229 -31.2229 -31.2165 -31.1932 -31.1930
   -31.1680 -31.1656 -31.1563 -31.1527 -31.1446 -31.0947 -31.0811 -31.0804
   -31.0761 -31.0749 -31.0717 -31.0689 -31.0418 -31.0318 -31.0295 -31.0230
   -31.0222 -31.0200 -31.0200 -31.0190 -30.9982 -30.9805 -30.9745 -30.9676
   -30.9612 -30.9556 -30.9540 -30.9499 -30.9497 -30.9227 -30.9156 -30.9124
   -30.9078 -30.8978 -30.2397 -30.2396 -30.1543 -30.1541 -30.1148 -30.1147
   -18.9571 -18.2093 -15.2800 -15.1532 -15.0544 -14.9987 -14.9519 -14.9363
   -14.9187 -14.8653 -14.8352 -14.7755 -14.7518 -14.7034 -14.6593 -14.6553
   -14.6276 -14.5481 -14.5328 -14.5204 -14.5129 -14.4619 -14.4480 -14.4251
   -14.4025 -14.3985 -14.3800 -14.3075 -14.2979 -14.2937 -14.2546 -13.2074
   -12.4198 -12.4196 -10.9845  -7.5977  -6.3877  -5.9726  -5.7446  -3.9884
    -3.8400  -2.5619  -2.5401  -2.4050  -2.3914  -2.2796  -2.1875  -2.1372
    -2.1315  -1.9926  -1.9598  -1.9438  -1.9286  -1.9162  -1.8675  -1.8442
    -1.8083  -1.7909  -1.7812  -1.7714  -1.7557  -1.7353  -1.6832  -1.6792
    -1.6685  -1.6541  -1.6101  -1.5944  -1.5635  -1.5527  -1.5243  -1.5017
    -1.4351  -1.3404  -1.2929  -1.2497  -1.1951  -1.1425  -1.1365  -1.0578
    -1.0400  -1.0083  -0.9774  -0.9525  -0.8570  -0.7834  -0.6889  -0.6865
    -0.6828  -0.5632  -0.5230  -0.5054  -0.4928  -0.4627  -0.3783  -0.3681
    -0.3085  -0.2340  -0.2077  -0.2029  -0.1771  -0.0578  -0.0323   0.0277
     0.0581   0.0906   0.0928   0.1720   0.1851   0.2442   0.2588   0.2722
     0.3171   0.3347   0.4330   0.5230   0.5585   0.6616   0.7545   0.7838
     0.8789   0.9368   1.0412   1.0618   1.0856   1.1821   1.1903   1.2253
     1.3543   1.3612   1.4771   1.5168   1.5268   1.5294   2.4479   2.4493
     2.5318   2.5319   4.2742   4.3971   4.4126   4.4587   4.5131   4.6544
     4.6779   4.7250   4.7268   4.8009   4.8096

     the Fermi energy is     4.2000 ev

!    total energy              =   -2977.68495179 Ry
     estimated scf accuracy    <       0.00000005 Ry
     smearing contrib. (-TS)   =      -0.03700521 Ry
     internal energy E=F+TS    =   -2977.64794658 Ry

     The total energy is F=E-TS. E is the sum of the following terms:
     one-electron contribution =  -23305.74021038 Ry
     hartree contribution      =   11753.86457330 Ry
     xc contribution           =    -496.60858365 Ry
     ewald contribution        =    9070.83140380 Ry
     electric field correction =       0.00487034 Ry

     convergence has been achieved in  69 iterations

     Forces acting on atoms (cartesian axes, Ry/au):

     atom    1 type  1   force =     0.00008797   -0.00025578    0.09411726
     atom    2 type  1   force =    -0.00008581   -0.00045678   -0.17750000
     atom    3 type  2   force =     0.00006166   -0.00032539   -0.02121858
     atom    4 type  2   force =     0.00003770   -0.00179275    0.05730723
     atom    5 type  2   force =    -0.01079601   -0.00101660    0.00668777
     atom    6 type  2   force =     0.01199409   -0.00033200    0.00503998
     atom    7 type  1   force =    -0.00060175    0.00105673   -0.01459720
     atom    8 type  1   force =     0.00086363    0.00330865    0.00461261
     atom    9 type  2   force =     0.00000971   -0.00005100    0.00015200
     atom   10 type  2   force =    -0.00368813    0.00211179   -0.00166744
     atom   11 type  2   force =    -0.00015061    0.00061931   -0.00010284
     atom   12 type  2   force =     0.00016693    0.00028647   -0.00021966
     atom   13 type  1   force =    -0.00019373   -0.00027042    0.00010245
     atom   14 type  1   force =     0.00024936   -0.00021447   -0.00037156
     atom   15 type  2   force =     0.00020630    0.00035208   -0.00011993
     atom   16 type  2   force =    -0.00012147    0.00025350   -0.00021024
     atom   17 type  2   force =    -0.00010287   -0.00028553    0.00033448
     atom   18 type  2   force =     0.00018409    0.00004596   -0.00001010
     atom   19 type  1   force =     0.00000086    0.00021275   -0.00043140
     atom   20 type  1   force =     0.00041677   -0.00003898   -0.00005522
     atom   21 type  2   force =     0.00011859   -0.00008272    0.10378939
     atom   22 type  2   force =     0.00056095   -0.00030879   -0.00066941
     atom   23 type  2   force =    -0.07067963   -0.00015477   -0.02714254
     atom   24 type  2   force =     0.07064600    0.00031953   -0.02714946
     atom   25 type  1   force =     0.00010784   -0.00016852    0.09374200
     atom   26 type  1   force =    -0.00006532   -0.00053518   -0.17772203
     atom   27 type  2   force =     0.00006885   -0.00005720   -0.02031945
     atom   28 type  2   force =     0.00006608   -0.00146191    0.05631161
     atom   29 type  2   force =    -0.01130266   -0.00039825    0.00736796
     atom   30 type  2   force =     0.01241831   -0.00000009    0.00575832
     atom   31 type  1   force =    -0.00074649    0.00573531   -0.01563465
     atom   32 type  1   force =     0.00081738   -0.00459393    0.00435461
     atom   33 type  2   force =     0.00002104    0.00014897    0.00029983
     atom   34 type  2   force =    -0.00321235   -0.00103452   -0.00521364
     atom   35 type  2   force =    -0.00009600   -0.00039815    0.00007704
     atom   36 type  2   force =     0.00019460   -0.00006841   -0.00009832
     atom   37 type  1   force =    -0.00012531    0.00043543   -0.00012099
     atom   38 type  1   force =     0.00008902    0.00014625   -0.00012543
     atom   39 type  2   force =    -0.00045125   -0.00030116   -0.00017387
     atom   40 type  2   force =     0.00012928   -0.00008422    0.00026014
     atom   41 type  2   force =    -0.00004454    0.00021821   -0.00015450
     atom   42 type  2   force =     0.00046652    0.00008329   -0.00028036
     atom   43 type  1   force =    -0.00015920   -0.00001068   -0.00009849
     atom   44 type  1   force =     0.00034977    0.00037850    0.00030166
     atom   45 type  2   force =     0.00010614   -0.00006538    0.10377031
     atom   46 type  2   force =    -0.07067727   -0.00007059   -0.02713005
     atom   47 type  2   force =     0.07065433    0.00033582   -0.02715088
     atom   48 type  3   force =     0.00054687   -0.00071430    0.00108856
     atom   49 type  3   force =    -0.00019853   -0.00041948    0.00047773
     atom   50 type  4   force =     0.00033629    0.00038755   -0.00023602
     atom   51 type  5   force =     0.00062806    0.00079236   -0.00029018
     atom   52 type  5   force =    -0.00008768    0.00033375    0.00021362
     atom   53 type  5   force =     0.00014023   -0.00053769   -0.00049682
     atom   54 type  5   force =     0.00041577   -0.00012266    0.00020033
     atom   55 type  5   force =     0.00034209   -0.00058370   -0.00012678
     atom   56 type  5   force =     0.00020247   -0.00015588    0.00039427
     atom   57 type  2   force =    -0.00083702    0.00079809    0.00147903
     atom   58 type  5   force =     0.00032774   -0.00062978   -0.00104148
     atom   59 type  5   force =     0.00039035   -0.00036264   -0.00036066

     Total force =     0.365876     Total SCF correction =     0.000645
  @ DRIVER MODE: Message from server: STATUS
  @ DRIVER MODE: Message from server: GETFORCE
  @ DRIVER MODE: Returning v,forces,stress,ensemble

     Writing output data file ./calc.save/
  @ DRIVER MODE: Message from server: EXIT
  @ DRIVE MODE: Exiting

     General routines

     Parallel routines

   This run was terminated on:  15:54:55  15Sep2021

   JOB DONE.