     Program PWSCF v.6.7GPU starts on 15Sep2021 at 19:44: 1

     R & G space division:  proc/nbgrp/npool/nimage =      10
     Reading input from /storage/home/hcoda1/3/ntian30/research/carbon/CxH_vib/H2O_calc/ads_slab/CH2OHH2O_a/out_0013/pw.inp
Warning: card &CELL ignored
Warning: card   CELL_DYNAMICS='IPI', ignored
Warning: card / ignored

     Current dimensions of program PWSCF are:
     Max number of different atomic species (ntypx) = 10
     Max number of k-points (npk) =  40000
     Max angular momentum in pseudopotentials (lmaxx) =  3
     Presently no symmetry can be used with electric field

     Message from routine cell_base_init:
     DEPRECATED: use true lattice parameter, not A to a.u. conversion factor

     IMPORTANT: XC functional enforced from input :
     Exchange-correlation= BEEF-VDW
                           (   1   4  43  14   2   0   0)
     Any further DFT definition will be discarded
     Please, verify this is what you really want

  @ DRIVER MODE: Connecting to
 qe_1139763_2852615.sched-torque.pace.gatech.edu8__p1wob_scratch
  using UNIX socket
  @ DRIVER MODE: Message from server: STATUS
  @ DRIVER MODE: Message from server: INIT
  @ DRIVER MODE: Receiving replica           0          -1
  @ DRIVER MODE: Receiving encoded integer          25
  @ DRIVER MODE:  SCF:  T  FORCE:  T  STRESS:  F  VC:  F  ENSEMBLE:  F
  @ DRIVER MODE:  SCF:  T  FORCE:  T  STRESS:  F  VC:  F  ENSEMBLE:  F

     Using Slab Decomposition

     bravais-lattice index     =            0
     lattice parameter (alat)  =       1.8897  a.u.
     unit-cell volume          =    6658.9804 (a.u.)^3
     number of atoms/cell      =           55
     number of atomic types    =            4
     number of electrons       =       399.00
     number of Kohn-Sham states=          209
     kinetic-energy cutoff     =      29.3995  Ry
     charge density cutoff     =     293.9946  Ry
     scf convergence threshold =      7.3E-08
     mixing beta               =       0.0500
     number of iterations used =            8  plain     mixing
     Exchange-correlation= BEEF-VDW
                           (   1   4  43  14   2   0   0)

     celldm(1)=   1.889726  celldm(2)=   0.000000  celldm(3)=   0.000000
     celldm(4)=   0.000000  celldm(5)=   0.000000  celldm(6)=   0.000000

     crystal axes: (cart. coord. in units of alat)
               a(1) = (   6.579727   0.000000   0.000000 )
               a(2) = (  -0.000775   5.961596   0.000000 )
               a(3) = (   0.000000   0.000000  25.155947 )

     reciprocal axes: (cart. coord. in units 2 pi/alat)
               b(1) = (  0.151982  0.000020  0.000000 )
               b(2) = (  0.000000  0.167740  0.000000 )
               b(3) = (  0.000000  0.000000  0.039752 )

     PseudoPot. # 1 for Ti read from file:
     /storage/coda1/p-amedford6/0/shared/rich_project_chbe-medford/medford-share/data/pseudos_module/espresso/nninc/pbe/van/Ti.UPF
     MD5 check sum: 8e4df49b7f0d34bbd5052bf3f5ea0213
     Pseudo is Ultrasoft, Zval = 12.0
     Generated by new atomic code, or converted to UPF format
     Using radial grid of  851 points,  6 beta functions with:
                l(1) =   0
                l(2) =   0
                l(3) =   1
                l(4) =   1
                l(5) =   2
                l(6) =   2
     Q(r) pseudized with  8 coefficients,  rinner =    1.000   1.000   1.000
                                                       1.000   1.000

     PseudoPot. # 2 for O  read from file:
     /storage/coda1/p-amedford6/0/shared/rich_project_chbe-medford/medford-share/data/pseudos_module/espresso/nninc/pbe/van/O.UPF
     MD5 check sum: 78c19812648e8988a0fe644b0f25305e
     Pseudo is Ultrasoft, Zval =  6.0
     Generated by new atomic code, or converted to UPF format
     Using radial grid of  737 points,  4 beta functions with:
                l(1) =   0
                l(2) =   0
                l(3) =   1
                l(4) =   1
     Q(r) pseudized with  8 coefficients,  rinner =    0.800   0.800   0.800

     PseudoPot. # 3 for C  read from file:
     /storage/coda1/p-amedford6/0/shared/rich_project_chbe-medford/medford-share/data/pseudos_module/espresso/nninc/pbe/van/C.UPF
     MD5 check sum: 1a69bf6b8db32088f5b2163dbdb77a27
     Pseudo is Ultrasoft, Zval =  4.0
     Generated by new atomic code, or converted to UPF format
     Using radial grid of  721 points,  4 beta functions with:
                l(1) =   0
                l(2) =   0
                l(3) =   1
                l(4) =   1
     Q(r) pseudized with  8 coefficients,  rinner =    0.800   0.800   0.800

     PseudoPot. # 4 for H  read from file:
     /storage/coda1/p-amedford6/0/shared/rich_project_chbe-medford/medford-share/data/pseudos_module/espresso/nninc/pbe/van/H.UPF
     MD5 check sum: b5ee9d7bfd3a09ee7748110bda690ff7
     Pseudo is Ultrasoft, Zval =  1.0
     Generated by new atomic code, or converted to UPF format
     Using radial grid of  615 points,  1 beta functions with:
                l(1) =   0
     Q(r) pseudized with  8 coefficients,  rinner =    0.800

     atomic species   valence    mass     pseudopotential
        Ti1           12.00    47.86700     Ti( 1.00)
        O1             6.00    15.99900     O ( 1.00)
        C1             4.00    12.01100     C ( 1.00)
        H1             1.00     1.00800     H ( 1.00)

     No symmetry found

   Cartesian axes

     site n.     atom                  positions (alat units)
         1           Ti1 tau(   1) = (   0.0004258   2.9801865   6.0000000  )
         2           Ti1 tau(   2) = (   3.2906075   1.4906267   6.0002472  )
         3           O1  tau(   3) = (   0.0006271   0.0005054   7.9858123  )
         4           O1  tau(   4) = (   3.2906025   0.0005020   7.3038282  )
         5           O1  tau(   5) = (   4.5942328   1.4918067   9.2879030  )
         6           O1  tau(   6) = (   1.9868534   1.4903216   9.2879459  )
         7           Ti1 tau(   7) = (   3.2434587   3.0186650   9.1693953  )
         8           Ti1 tau(   8) = (   6.5248695   1.5265067   9.2859949  )
         9           O1  tau(   9) = (   3.3238096   0.0077392  11.3399147  )
        10           O1  tau(  10) = (   0.0083103   0.0007143  10.5763085  )
        11           O1  tau(  11) = (   1.3076427   1.5153157  12.5877682  )
        12           O1  tau(  12) = (   5.3324098   1.4751673  12.6362968  )
        13           Ti1 tau(  13) = (   0.0822926   2.9518924  12.6100891  )
        14           Ti1 tau(  14) = (   3.3652580   1.6116561  12.6031695  )
        15           O1  tau(  15) = (   0.1623142   0.0003102  14.6136642  )
        16           O1  tau(  16) = (   3.2083997   0.0016335  13.9229753  )
        17           O1  tau(  17) = (   4.6427586   1.3635169  15.8692112  )
        18           O1  tau(  18) = (   2.0707938   1.5934636  16.1317492  )
        19           Ti1 tau(  19) = (   3.4055461   2.9583945  15.9219660  )
        20           Ti1 tau(  20) = (   0.0529163   1.3399360  15.9091509  )
        21           O1  tau(  21) = (   3.2904802   0.0005063   4.7018136  )
        22           O1  tau(  22) = (   0.1143047   5.9459637  17.1421970  )
        23           O1  tau(  23) = (   1.3043587   1.4918075   6.0039043  )
        24           O1  tau(  24) = (   5.2767064   1.4903225   6.0039473  )
        25           Ti1 tau(  25) = (   0.0000382   5.9609847   6.0000000  )
        26           Ti1 tau(  26) = (   3.2902200   4.4714249   6.0002472  )
        27           O1  tau(  27) = (   0.0002396   2.9813036   7.9858123  )
        28           O1  tau(  28) = (   3.2902150   2.9813002   7.3038282  )
        29           O1  tau(  29) = (   4.5938453   4.4726049   9.2879030  )
        30           O1  tau(  30) = (   1.9864658   4.4711199   9.2879459  )
        31           Ti1 tau(  31) = (   3.2519499   0.0415563   9.1803751  )
        32           Ti1 tau(  32) = (   6.5223785   4.4699269   9.2708698  )
        33           O1  tau(  33) = (   3.3249262   3.0006027  11.3427062  )
        34           O1  tau(  34) = (   6.5728067   2.9803724  10.5910131  )
        35           O1  tau(  35) = (   1.3048910   4.4590737  12.5876729  )
        36           O1  tau(  36) = (   5.3248012   4.5079456  12.6396186  )
        37           Ti1 tau(  37) = (   0.0305998   5.9348532  12.4502240  )
        38           Ti1 tau(  38) = (   3.3518916   4.5407868  12.4757475  )
        39           O1  tau(  39) = (   0.0741357   2.9755951  14.7167286  )
        40           O1  tau(  40) = (   3.3703583   2.9475192  13.9294239  )
        41           O1  tau(  41) = (   4.6408928   4.5782690  15.8216857  )
        42           O1  tau(  42) = (   2.0743197   4.3710070  16.0958311  )
        43           Ti1 tau(  43) = (   3.3271525   5.9323444  15.7323421  )
        44           Ti1 tau(  44) = (   0.0603002   4.5335970  15.7939964  )
        45           O1  tau(  45) = (   3.2900926   2.9813045   4.7018136  )
        46           O1  tau(  46) = (   1.3039711   4.4726057   6.0039043  )
        47           O1  tau(  47) = (   5.2763189   4.4711207   6.0039473  )
        48           C1  tau(  48) = (   4.5917920   3.0228413  17.9030398  )
        49           O1  tau(  49) = (   6.0625861   3.0006587  17.4562122  )
        50           H1  tau(  50) = (   0.0403952   3.1075262  18.2373115  )
        51           H1  tau(  51) = (   4.5265887   2.1706275  18.5876854  )
        52           H1  tau(  52) = (   4.4781653   3.9549082  18.4551422  )
        53           O1  tau(  53) = (   2.8659371   5.8926936  18.2031264  )
        54           H1  tau(  54) = (   3.0528466   0.8172038  18.5446680  )
        55           H1  tau(  55) = (   1.8959954   5.8777970  18.0521013  )

     number of k points=    10  Fermi-Dirac smearing, width (Ry)=  0.0073
                       cart. coord. in units 2pi/alat
        k(    1) = (   0.0000000   0.0000000   0.0000000), wk =   0.1250000
        k(    2) = (   0.0000000   0.0419351   0.0000000), wk =   0.2500000
        k(    3) = (   0.0000000  -0.0838702   0.0000000), wk =   0.1250000
        k(    4) = (   0.0379955   0.0000049   0.0000000), wk =   0.2500000
        k(    5) = (   0.0379955   0.0419400   0.0000000), wk =   0.2500000
        k(    6) = (   0.0379955  -0.0838652   0.0000000), wk =   0.2500000
        k(    7) = (   0.0379955  -0.0419301   0.0000000), wk =   0.2500000
        k(    8) = (  -0.0759910  -0.0000099   0.0000000), wk =   0.1250000
        k(    9) = (  -0.0759910   0.0419252   0.0000000), wk =   0.2500000
        k(   10) = (  -0.0759910  -0.0838800   0.0000000), wk =   0.1250000

     Initial potential from superposition of free atoms

     starting charge  382.99916, renormalised to  399.00000

     negative rho (up, down):  1.858E-02 0.000E+00

     %%%%%%%%%%%%%%%%%%%%%%%%%%%%%%%%%%%%%%%%%%%%%%%%%%%%%%%%%%%%%%%%%%%%%%%%
     %                                                                      %
     % You are using vdW-DF, which was implemented by the Thonhauser group. %
     % Please cite the following two papers that made this development      %
     % possible and the two reviews that describe the various versions:     %
     %                                                                      %
     %   T. Thonhauser et al., PRL 115, 136402 (2015).                      %
     %   T. Thonhauser et al., PRB 76, 125112 (2007).                       %
     %   K. Berland et al., Rep. Prog. Phys. 78, 066501 (2015).             %
     %   D.C. Langreth et al., J. Phys.: Condens. Matter 21, 084203 (2009). %
     %                                                                      %
     %                                                                      %
     % If you are calculating the stress with vdW-DF, please also cite:     %
     %                                                                      %
     %   R. Sabatini et al., J. Phys.: Condens. Matter 24, 424209 (2012).   %
     %                                                                      %
     %%%%%%%%%%%%%%%%%%%%%%%%%%%%%%%%%%%%%%%%%%%%%%%%%%%%%%%%%%%%%%%%%%%%%%%%

     Adding external electric field

     Computed dipole along edir(3) :
        Dipole               -9.7304 Ry au,        -24.7321 Debye
        Dipole field         -0.0184 Ry au,

        Potential amp.        1.7022 Ry
        Total length         46.3494 bohr

     Starting wfcs are  301 atomic wfcs
  @ DRIVER MODE: Message from server: STATUS
  @ DRIVER MODE: Message from server: POSDATA
  @ DRIVER MODE: Reading and sharing cell
  @ DRIVER MODE: Reading and sharing positions
  @ DRIVER MODE: Received positions

     Self-consistent Calculation

     iteration #  1     ecut=    29.40 Ry     beta= 0.05
     Davidson diagonalization with overlap
     c_bands:  1 eigenvalues not converged
     c_bands:  2 eigenvalues not converged
     c_bands:  3 eigenvalues not converged
     c_bands:  5 eigenvalues not converged
     c_bands:  3 eigenvalues not converged
     c_bands:  2 eigenvalues not converged
     c_bands:  3 eigenvalues not converged
     c_bands:  2 eigenvalues not converged
     ethr =  1.00E-05,  avg # of iterations = 19.8

[...]

     total energy              =   -2478.50774246 Ry
     estimated scf accuracy    <    5415.85041751 Ry

     iteration #  2     ecut=    29.40 Ry     beta= 0.05
     Davidson diagonalization with overlap
     ethr =  1.00E-02,  avg # of iterations = 24.3

[...]

     iteration # 56     ecut=    29.40 Ry     beta= 0.05
     Davidson diagonalization with overlap
     c_bands:  2 eigenvalues not converged
     c_bands:  1 eigenvalues not converged
     c_bands:  1 eigenvalues not converged
     ethr =  1.19E-09,  avg # of iterations = 18.5

[...]

     total energy              =   -2966.15813506 Ry
     estimated scf accuracy    <       0.00000015 Ry

     iteration # 63     ecut=    29.40 Ry     beta= 0.05
     Davidson diagonalization with overlap
     ethr =  3.78E-11,  avg # of iterations = 12.2

     negative rho (up, down):  1.797E-02 0.000E+00

     Adding external electric field

     Computed dipole along edir(3) :
        Dipole                1.0036 Ry au,          2.5508 Debye
        Dipole field          0.0019 Ry au,

        Potential amp.       -0.1756 Ry
        Total length         46.3494 bohr

     End of self-consistent calculation

          k = 0.0000 0.0000 0.0000 ( 18029 PWs)   bands (ev):

   -55.6893 -55.6527 -55.5820 -55.5734 -55.5171 -55.5146 -55.5087 -55.5059
   -55.4781 -55.4605 -55.4537 -55.4427 -55.4269 -55.3372 -54.6587 -54.6247
   -32.1799 -32.1654 -32.0551 -32.0253 -32.0030 -31.9765 -31.9553 -31.9437
   -31.9304 -31.8712 -31.8436 -31.8367 -31.8332 -31.8242 -31.7972 -31.7874
   -31.7838 -31.7642 -31.7592 -31.7484 -31.7371 -31.7321 -31.6980 -31.6927
   -31.6901 -31.6832 -31.6779 -31.6699 -31.6650 -31.6602 -31.6523 -31.6357
   -31.6318 -31.6301 -31.6239 -31.6208 -31.6122 -31.6118 -31.5866 -31.5637
   -31.5520 -31.4238 -31.0657 -30.9774 -30.9548 -30.8826 -30.7962 -30.6848
   -19.4278 -18.7436 -16.3746 -16.1779 -15.9731 -15.8595 -15.8397 -15.6586
   -15.5347 -15.3884 -15.3364 -15.3072 -15.2861 -15.2170 -15.2102 -15.1951
   -15.1599 -15.1545 -15.1186 -15.0989 -15.0928 -15.0651 -15.0136 -14.9919
   -14.9421 -14.8821 -14.8136 -14.7935 -14.7843 -14.7091 -14.6175 -13.1592
   -13.0426  -9.4358  -6.5067  -6.2994  -4.0789  -3.8453  -3.6875  -3.6440
    -3.6116  -3.5754  -3.4165  -3.3039  -3.1239  -3.0198  -2.9530  -2.9034
    -2.8659  -2.7886  -2.7467  -2.6224  -2.5991  -2.5491  -2.5165  -2.4804
    -2.4734  -2.4522  -2.4072  -2.3911  -2.3746  -2.2172  -2.2077  -2.1736
    -2.1083  -2.0770  -2.0496  -2.0127  -1.9911  -1.9639  -1.9457  -1.8992
    -1.8808  -1.8091  -1.8009  -1.7576  -1.6904  -1.6577  -1.3932  -1.3154
    -1.2952  -1.2565  -1.1933  -1.0962  -1.0924  -1.0859  -1.0855  -1.0285
    -1.0120  -0.8629  -0.8486  -0.8336  -0.7537  -0.6747  -0.5955  -0.5589
    -0.4940  -0.4439  -0.4112  -0.3834  -0.3576  -0.3015  -0.2337  -0.2107
    -0.1397  -0.0659  -0.0326   0.0197   0.0456   0.0901   0.1207   0.1970
     0.2359   0.2698   0.2977   0.3157   0.3257   0.3691   0.3891   0.4784
     0.5559   0.5839   0.5905   0.6647   0.7914   0.8736   0.9856   1.0772
     1.2995   1.3656   1.4170   1.5496   1.5569   1.9374   1.9879   3.4521
     3.5213   3.5807   3.5812   3.6161   3.6966   3.8995   3.9469   4.0042
     4.0378

[...]

          k = 0.0380-0.0419 0.0000 ( 17876 PWs)   bands (ev):

[...]

          k =-0.0760-0.0000 0.0000 ( 17886 PWs)   bands (ev):

[...]

          k =-0.0760-0.0839 0.0000 ( 17948 PWs)   bands (ev):

   -55.6776 -55.6643 -55.5767 -55.5687 -55.5217 -55.5132 -55.5110 -55.5024
   -55.4629 -55.4598 -55.4571 -55.4457 -55.4421 -55.3387 -54.6417 -54.6416
   -32.0988 -31.9869 -31.9759 -31.9740 -31.9518 -31.9012 -31.8745 -31.8539
   -31.8464 -31.8417 -31.8384 -31.8155 -31.8144 -31.7998 -31.7984 -31.7890
   -31.7879 -31.7796 -31.7782 -31.7747 -31.7719 -31.7626 -31.7409 -31.7354
   -31.7294 -31.7179 -31.7107 -31.7044 -31.7017 -31.6872 -31.6728 -31.6654
   -31.6648 -31.6623 -31.6605 -31.6538 -31.6524 -31.6505 -31.6487 -31.6460
   -31.6278 -31.4259 -30.9676 -30.9675 -30.8789 -30.8782 -30.8395 -30.8390
   -19.4215 -18.7425 -15.9928 -15.6536 -15.6407 -15.6355 -15.6046 -15.4836
   -15.4594 -15.4369 -15.3915 -15.3613 -15.3554 -15.3323 -15.2877 -15.2314
   -15.2123 -15.2047 -15.1949 -15.1425 -15.1282 -15.1173 -15.0715 -15.0311
   -15.0287 -15.0047 -14.9785 -14.9731 -14.9726 -14.9449 -14.8780 -13.1460
   -13.1428  -9.4419  -6.5070  -6.2796  -4.0363  -3.7362  -3.1610  -3.0410
    -2.8713  -2.8485  -2.7980  -2.7761  -2.7230  -2.6544  -2.6255  -2.6139
    -2.6123  -2.5784  -2.5156  -2.4818  -2.4778  -2.4384  -2.4203  -2.4125
    -2.3921  -2.3671  -2.3424  -2.3238  -2.3173  -2.2817  -2.2692  -2.2544
    -2.2484  -2.2369  -2.2180  -2.1775  -2.0702  -1.9480  -1.9142  -1.8787
    -1.8389  -1.7799  -1.7736  -1.7596  -1.7255  -1.7246  -1.7083  -1.6305
    -1.4671  -1.4044  -1.3427  -1.3208  -1.2475  -1.2350  -1.2193  -1.1755
    -1.1350  -1.0886  -1.0444  -1.0210  -0.9648  -0.9208  -0.7921  -0.7379
    -0.6533  -0.6482  -0.6257  -0.6106  -0.5565  -0.5318  -0.5068  -0.4622
    -0.4278  -0.3837  -0.3516  -0.3428  -0.3206  -0.2594  -0.1596  -0.1106
    -0.0481  -0.0424   0.0395   0.1699   0.3553   0.3855   0.4440   0.4948
     0.5843   0.6066   0.6554   0.6751   0.7327   0.7600   0.8012   0.8614
     0.9221   0.9503   1.5146   1.7290   1.7355   1.7986   1.8080   3.7435
     3.8311   3.9237   3.9377   3.9719   3.9842   3.9898   4.0194   4.0758
     4.1131

     the Fermi energy is     3.4496 ev

!    total energy              =   -2966.15819206 Ry
     estimated scf accuracy    <       0.00000006 Ry
     smearing contrib. (-TS)   =      -0.02139714 Ry
     internal energy E=F+TS    =   -2966.13679493 Ry

     The total energy is F=E-TS. E is the sum of the following terms:
     one-electron contribution =  -24755.69692342 Ry
     hartree contribution      =   12470.35688533 Ry
     xc contribution           =    -490.96429149 Ry
     ewald contribution        =    9810.16563401 Ry
     electric field correction =       0.00190063 Ry

     convergence has been achieved in  63 iterations

     Forces acting on atoms (cartesian axes, Ry/au):

     atom    1 type  1   force =     0.00074505   -0.00017508    0.09535491
     atom    2 type  1   force =     0.00024396   -0.00220628   -0.17569266
     atom    3 type  2   force =    -0.00066305   -0.00040894   -0.03008831
     atom    4 type  2   force =    -0.00084981    0.00063294    0.05236204
     atom    5 type  2   force =    -0.01386498   -0.00099958    0.00146710
     atom    6 type  2   force =     0.01582198    0.00241219    0.00319064
     atom    7 type  1   force =     0.00033956    0.00038547   -0.00027237
     atom    8 type  1   force =    -0.00036957    0.00140322    0.00066926
     atom    9 type  2   force =     0.00011483   -0.00001989    0.00022745
     atom   10 type  2   force =     0.00017649    0.00017128   -0.00057505
     atom   11 type  2   force =    -0.00023238    0.00024474    0.00019131
     atom   12 type  2   force =    -0.00037716    0.00008641    0.00008306
     atom   13 type  1   force =     0.00022677   -0.00018126   -0.00062370
     atom   14 type  1   force =    -0.00101926    0.00002103    0.00028907
     atom   15 type  2   force =     0.00006669   -0.00110457   -0.00009889
     atom   16 type  2   force =    -0.00000772   -0.00006139   -0.00019353
     atom   17 type  2   force =    -0.00031980   -0.00027488   -0.00013566
     atom   18 type  2   force =     0.00036797   -0.00034419    0.00000640
     atom   19 type  1   force =    -0.00010161    0.00032740    0.00023303
     atom   20 type  1   force =     0.00033947    0.00079022    0.00025005
     atom   21 type  2   force =     0.00014961    0.00019878    0.10304284
     atom   22 type  2   force =     0.00013169   -0.00113004    0.00016848
     atom   23 type  2   force =    -0.07130502    0.00093788   -0.02829678
     atom   24 type  2   force =     0.07135918    0.00133356   -0.02833229
     atom   25 type  1   force =     0.00022427    0.00038223    0.10643479
     atom   26 type  1   force =     0.00000975    0.00253416   -0.17558657
     atom   27 type  2   force =    -0.00037883    0.00013425   -0.02786325
     atom   28 type  2   force =    -0.00096137    0.00076375    0.05166806
     atom   29 type  2   force =    -0.01301640   -0.00123176    0.00107104
     atom   30 type  2   force =     0.01546638    0.00037222    0.00295294
     atom   31 type  1   force =     0.00051987    0.00002198   -0.00001384
     atom   32 type  1   force =    -0.00042183   -0.00140704    0.00018190
     atom   33 type  2   force =    -0.00016599   -0.00031163    0.00018934
     atom   34 type  2   force =     0.00001069    0.00010616   -0.00013979
     atom   35 type  2   force =    -0.00062149   -0.00019454    0.00066668
     atom   36 type  2   force =     0.00003366   -0.00036970    0.00024533
     atom   37 type  1   force =     0.00059670    0.00028372    0.00051571
     atom   38 type  1   force =    -0.00092665    0.00014258    0.00046086
     atom   39 type  2   force =    -0.00019089    0.00064960    0.00031045
     atom   40 type  2   force =    -0.00002388   -0.00052293   -0.00069821
     atom   41 type  2   force =     0.00121514   -0.00009233   -0.00005822
     atom   42 type  2   force =    -0.00088162   -0.00012615    0.00008305
     atom   43 type  1   force =     0.00013800   -0.00100685   -0.00002160
     atom   44 type  1   force =    -0.00024687    0.00038180   -0.00019277
     atom   45 type  2   force =     0.00012436    0.00015391    0.10331066
     atom   46 type  2   force =    -0.07122750   -0.00125762   -0.02829625
     atom   47 type  2   force =     0.07130111   -0.00086042   -0.02833206
     atom   48 type  3   force =    -0.00162464   -0.00021887   -0.00074188
     atom   49 type  2   force =    -0.00635468   -0.00112630   -0.00771760
     atom   50 type  4   force =     0.00753949    0.00076094    0.00813103
     atom   51 type  4   force =    -0.00062656   -0.00016013    0.00012236
     atom   52 type  4   force =    -0.00029592    0.00003730   -0.00037724
     atom   53 type  2   force =     0.00153822   -0.00040222    0.00080682
     atom   54 type  4   force =    -0.00026717    0.00042428    0.00006899
     atom   55 type  4   force =    -0.00145824    0.00010058   -0.00040711

     Total force =     0.367696     Total SCF correction =     0.000830
  @ DRIVER MODE: Message from server: STATUS
  @ DRIVER MODE: Message from server: GETFORCE
  @ DRIVER MODE: Returning v,forces,stress,ensemble

     Writing output data file ./calc.save/
  @ DRIVER MODE: Message from server: EXIT
  @ DRIVE MODE: Exiting

     General routines

     Parallel routines

   This run was terminated on:  20: 2:14  15Sep2021

   JOB DONE.