     Program PWSCF v.6.7GPU starts on  5Nov2021 at 17:33:23

     R & G space division:  proc/nbgrp/npool/nimage =       8
     Reading input from /storage/home/hcoda1/3/ntian30/research/carbon/CxH_vib/CH2_calc/ads_slab/N2/out_0011/pw.inp
Warning: card &CELL ignored
Warning: card   CELL_DYNAMICS='IPI', ignored
Warning: card / ignored

     Current dimensions of program PWSCF are:
     Max number of different atomic species (ntypx) = 10
     Max number of k-points (npk) =  40000
     Max angular momentum in pseudopotentials (lmaxx) =  3
     Presently no symmetry can be used with electric field

     Message from routine cell_base_init:
     DEPRECATED: use true lattice parameter, not A to a.u. conversion factor

     IMPORTANT: XC functional enforced from input :
     Exchange-correlation= BEEF-VDW
                           (   1   4  43  14   2   0   0)
     Any further DFT definition will be discarded
     Please, verify this is what you really want

  @ DRIVER MODE: Connecting to
 qe_1139763_3472288.sched-torque.pace.gatech.eduo37nsue4_scratch
  using UNIX socket
  @ DRIVER MODE: Message from server: STATUS
  @ DRIVER MODE: Message from server: INIT
  @ DRIVER MODE: Receiving replica           0          -1
  @ DRIVER MODE: Receiving encoded integer          25
  @ DRIVER MODE:  SCF:  T  FORCE:  T  STRESS:  F  VC:  F  ENSEMBLE:  F
  @ DRIVER MODE:  SCF:  T  FORCE:  T  STRESS:  F  VC:  F  ENSEMBLE:  F

     Using Slab Decomposition

     bravais-lattice index     =            0
     lattice parameter (alat)  =       1.8897  a.u.
     unit-cell volume          =    6658.9804 (a.u.)^3
     number of atoms/cell      =           49
     number of atomic types    =            3
     number of electrons       =       388.00
     number of Kohn-Sham states=          204
     kinetic-energy cutoff     =      29.3995  Ry
     charge density cutoff     =     293.9946  Ry
     scf convergence threshold =      7.3E-08
     mixing beta               =       0.0500
     number of iterations used =            8  plain     mixing
     Exchange-correlation= BEEF-VDW
                           (   1   4  43  14   2   0   0)

     celldm(1)=   1.889726  celldm(2)=   0.000000  celldm(3)=   0.000000
     celldm(4)=   0.000000  celldm(5)=   0.000000  celldm(6)=   0.000000

     crystal axes: (cart. coord. in units of alat)
               a(1) = (   6.579727   0.000000   0.000000 )
               a(2) = (  -0.000775   5.961596   0.000000 )
               a(3) = (   0.000000   0.000000  25.155947 )

     reciprocal axes: (cart. coord. in units 2 pi/alat)
               b(1) = (  0.151982  0.000020  0.000000 )
               b(2) = (  0.000000  0.167740  0.000000 )
               b(3) = (  0.000000  0.000000  0.039752 )

     PseudoPot. # 1 for Ti read from file:
     /storage/coda1/p-amedford6/0/shared/rich_project_chbe-medford/medford-share/data/pseudos_module/espresso/nninc/pbe/van/Ti.UPF
     MD5 check sum: 8e4df49b7f0d34bbd5052bf3f5ea0213
     Pseudo is Ultrasoft, Zval = 12.0
     Generated by new atomic code, or converted to UPF format
     Using radial grid of  851 points,  6 beta functions with:
                l(1) =   0
                l(2) =   0
                l(3) =   1
                l(4) =   1
                l(5) =   2
                l(6) =   2
     Q(r) pseudized with  8 coefficients,  rinner =    1.000   1.000   1.000
                                                       1.000   1.000

     PseudoPot. # 2 for O  read from file:
     /storage/coda1/p-amedford6/0/shared/rich_project_chbe-medford/medford-share/data/pseudos_module/espresso/nninc/pbe/van/O.UPF
     MD5 check sum: 78c19812648e8988a0fe644b0f25305e
     Pseudo is Ultrasoft, Zval =  6.0
     Generated by new atomic code, or converted to UPF format
     Using radial grid of  737 points,  4 beta functions with:
                l(1) =   0
                l(2) =   0
                l(3) =   1
                l(4) =   1
     Q(r) pseudized with  8 coefficients,  rinner =    0.800   0.800   0.800

     PseudoPot. # 3 for N  read from file:
     /storage/coda1/p-amedford6/0/shared/rich_project_chbe-medford/medford-share/data/pseudos_module/espresso/nninc/pbe/van/N.UPF
     MD5 check sum: 90d10febe142ad51ac9d5be1deb811c4
     Pseudo is Ultrasoft, Zval =  5.0
     Generated by new atomic code, or converted to UPF format
     Using radial grid of  729 points,  4 beta functions with:
                l(1) =   0
                l(2) =   0
                l(3) =   1
                l(4) =   1
     Q(r) pseudized with  8 coefficients,  rinner =    0.800   0.800   0.800

     atomic species   valence    mass     pseudopotential
        Ti1           12.00    47.86700     Ti( 1.00)
        O1             6.00    15.99900     O ( 1.00)
        N1             5.00    14.00700     N ( 1.00)

     No symmetry found

   Cartesian axes

     site n.     atom                  positions (alat units)
         1           Ti1 tau(   1) = (   0.0004258   2.9801865   6.0000000  )
         2           Ti1 tau(   2) = (   3.2906075   1.4906267   6.0002472  )
         3           O1  tau(   3) = (   0.0006271   0.0005054   7.9858123  )
         4           O1  tau(   4) = (   3.2906025   0.0005020   7.3038282  )
         5           O1  tau(   5) = (   4.5942328   1.4918067   9.2879030  )
         6           O1  tau(   6) = (   1.9868534   1.4903216   9.2879459  )
         7           Ti1 tau(   7) = (   3.2908052   2.9770834   9.1558022  )
         8           Ti1 tau(   8) = (   0.0014723   1.4899557   9.2574618  )
         9           O1  tau(   9) = (   3.2881908   5.9516078  11.3945087  )
        10           O1  tau(  10) = (  -0.0003175   5.9583709  10.6096931  )
        11           O1  tau(  11) = (   1.2852824   1.4845632  12.6702234  )
        12           O1  tau(  12) = (   5.2939303   1.4843324  12.6686402  )
        13           Ti1 tau(  13) = (   6.5787990   2.9666629  12.5005897  )
        14           Ti1 tau(  14) = (   3.2868008   1.4811001  12.5380687  )
        15           O1  tau(  15) = (   6.5784413   5.9555407  14.6880896  )
        16           O1  tau(  16) = (   3.2900854   5.9490857  14.0192957  )
        17           O1  tau(  17) = (   4.5550864   1.4910534  16.1905290  )
        18           O1  tau(  18) = (   2.0267207   1.4911860  16.1885539  )
        19           Ti1 tau(  19) = (   3.2920938   2.9632630  15.7783758  )
        20           Ti1 tau(  20) = (   0.0012712   1.3436693  15.9485112  )
        21           O1  tau(  21) = (   3.2904802   0.0005063   4.7018136  )
        22           O1  tau(  22) = (   0.0010074   5.9436290  17.2207989  )
        23           O1  tau(  23) = (   1.3043587   1.4918075   6.0039043  )
        24           O1  tau(  24) = (   5.2767064   1.4903225   6.0039473  )
        25           Ti1 tau(  25) = (   0.0000382   5.9609847   6.0000000  )
        26           Ti1 tau(  26) = (   3.2902200   4.4714249   6.0002472  )
        27           O1  tau(  27) = (   0.0002396   2.9813036   7.9858123  )
        28           O1  tau(  28) = (   3.2902150   2.9813002   7.3038282  )
        29           O1  tau(  29) = (   4.5938453   4.4726049   9.2879030  )
        30           O1  tau(  30) = (   1.9864658   4.4711199   9.2879459  )
        31           Ti1 tau(  31) = (   3.2904038   5.9576809   9.1543053  )
        32           Ti1 tau(  32) = (   0.0010712   4.4688839   9.2576884  )
        33           O1  tau(  33) = (   3.2885413   2.9721674  11.3880671  )
        34           O1  tau(  34) = (   0.0004151   2.9779830  10.6294632  )
        35           O1  tau(  35) = (   1.2846649   4.4573343  12.6727517  )
        36           O1  tau(  36) = (   5.2936178   4.4572275  12.6712304  )
        37           Ti1 tau(  37) = (   6.5756517   5.9477182  12.4782824  )
        38           Ti1 tau(  38) = (   3.2865759   4.4596547  12.5399293  )
        39           O1  tau(  39) = (   6.5788509   2.9666905  14.9890508  )
        40           O1  tau(  40) = (   3.2903703   2.9673333  13.9858678  )
        41           O1  tau(  41) = (   4.5544046   4.4428806  16.1860403  )
        42           O1  tau(  42) = (   2.0267033   4.4429097  16.1842269  )
        43           Ti1 tau(  43) = (   3.2900559   5.9435813  15.8195655  )
        44           Ti1 tau(  44) = (   0.0007437   4.6011129  15.9424720  )
        45           O1  tau(  45) = (   3.2900926   2.9813045   4.7018136  )
        46           O1  tau(  46) = (   1.3039711   4.4726057   6.0039043  )
        47           O1  tau(  47) = (   5.2763189   4.4711207   6.0039473  )
        48           N1  tau(  48) = (   0.1199117   2.9186963  19.5608096  )
        49           N1  tau(  49) = (   0.0588791   2.9354632  18.4491897  )

     number of k points=    10  Fermi-Dirac smearing, width (Ry)=  0.0073
                       cart. coord. in units 2pi/alat
        k(    1) = (   0.0000000   0.0000000   0.0000000), wk =   0.1250000
        k(    2) = (   0.0000000   0.0419351   0.0000000), wk =   0.2500000
        k(    3) = (   0.0000000  -0.0838702   0.0000000), wk =   0.1250000
        k(    4) = (   0.0379955   0.0000049   0.0000000), wk =   0.2500000
        k(    5) = (   0.0379955   0.0419400   0.0000000), wk =   0.2500000
        k(    6) = (   0.0379955  -0.0838652   0.0000000), wk =   0.2500000
        k(    7) = (   0.0379955  -0.0419301   0.0000000), wk =   0.2500000
        k(    8) = (  -0.0759910  -0.0000099   0.0000000), wk =   0.1250000
        k(    9) = (  -0.0759910   0.0419252   0.0000000), wk =   0.2500000
        k(   10) = (  -0.0759910  -0.0838800   0.0000000), wk =   0.1250000

     Initial potential from superposition of free atoms

     starting charge  371.99923, renormalised to  388.00000

     negative rho (up, down):  1.869E-02 0.000E+00

     %%%%%%%%%%%%%%%%%%%%%%%%%%%%%%%%%%%%%%%%%%%%%%%%%%%%%%%%%%%%%%%%%%%%%%%%
     %                                                                      %
     % You are using vdW-DF, which was implemented by the Thonhauser group. %
     % Please cite the following two papers that made this development      %
     % possible and the two reviews that describe the various versions:     %
     %                                                                      %
     %   T. Thonhauser et al., PRL 115, 136402 (2015).                      %
     %   T. Thonhauser et al., PRB 76, 125112 (2007).                       %
     %   K. Berland et al., Rep. Prog. Phys. 78, 066501 (2015).             %
     %   D.C. Langreth et al., J. Phys.: Condens. Matter 21, 084203 (2009). %
     %                                                                      %
     %                                                                      %
     % If you are calculating the stress with vdW-DF, please also cite:     %
     %                                                                      %
     %   R. Sabatini et al., J. Phys.: Condens. Matter 24, 424209 (2012).   %
     %                                                                      %
     %%%%%%%%%%%%%%%%%%%%%%%%%%%%%%%%%%%%%%%%%%%%%%%%%%%%%%%%%%%%%%%%%%%%%%%%

     Adding external electric field

     Computed dipole along edir(3) :
        Dipole               -5.4491 Ry au,        -13.8503 Debye
        Dipole field         -0.0103 Ry au,

        Potential amp.        0.9532 Ry
        Total length         46.3494 bohr

     Starting wfcs are  292 atomic wfcs
  @ DRIVER MODE: Message from server: STATUS
  @ DRIVER MODE: Message from server: POSDATA
  @ DRIVER MODE: Reading and sharing cell
  @ DRIVER MODE: Reading and sharing positions
  @ DRIVER MODE: Received positions

     Self-consistent Calculation

     iteration #  1     ecut=    29.40 Ry     beta= 0.05
     Davidson diagonalization with overlap
     c_bands:  3 eigenvalues not converged
     c_bands:  2 eigenvalues not converged
     c_bands:  2 eigenvalues not converged
     c_bands:  1 eigenvalues not converged
     c_bands:  3 eigenvalues not converged
     c_bands:  2 eigenvalues not converged
     c_bands:  4 eigenvalues not converged
     c_bands:  1 eigenvalues not converged
     ethr =  1.00E-05,  avg # of iterations = 21.4

[...]

     total energy              =   -2822.56568465 Ry
     estimated scf accuracy    <    1128.28688360 Ry

     iteration #  2     ecut=    29.40 Ry     beta= 0.05
     Davidson diagonalization with overlap
     ethr =  1.00E-02,  avg # of iterations = 17.1

[...]

     iteration # 56     ecut=    29.40 Ry     beta= 0.05
     Davidson diagonalization with overlap
     c_bands:  1 eigenvalues not converged
     ethr =  6.05E-10,  avg # of iterations = 13.0

[...]

     total energy              =   -2924.04838932 Ry
     estimated scf accuracy    <       0.00000106 Ry

     iteration # 61     ecut=    29.40 Ry     beta= 0.05
     Davidson diagonalization with overlap
     ethr =  2.74E-10,  avg # of iterations =  9.0

     negative rho (up, down):  1.838E-02 0.000E+00

     Adding external electric field

     Computed dipole along edir(3) :
        Dipole                0.6962 Ry au,          1.7695 Debye
        Dipole field          0.0013 Ry au,

        Potential amp.       -0.1218 Ry
        Total length         46.3494 bohr

     End of self-consistent calculation

          k = 0.0000 0.0000 0.0000 ( 18029 PWs)   bands (ev):

   -55.9064 -55.8705 -55.8604 -55.8262 -55.7892 -55.7788 -55.7444 -55.7439
   -55.7289 -55.7102 -55.7075 -55.6870 -55.6672 -55.6531 -54.9711 -54.9370
   -32.4704 -32.4133 -32.3616 -32.2643 -32.2172 -32.2139 -32.2116 -32.2001
   -32.1505 -32.1387 -32.1134 -32.1063 -32.1054 -32.0786 -32.0714 -32.0565
   -32.0426 -32.0383 -32.0337 -32.0210 -32.0123 -32.0059 -32.0046 -32.0039
   -31.9820 -31.9756 -31.9580 -31.9160 -31.9094 -31.9009 -31.8959 -31.8906
   -31.8822 -31.8790 -31.8777 -31.8733 -31.8628 -31.8417 -31.8302 -31.8197
   -31.8017 -31.7443 -31.3839 -31.2795 -31.2581 -31.2000 -31.1136 -31.0027
   -21.6580 -16.7365 -16.5034 -16.3651 -16.2369 -16.1325 -16.0233 -15.9244
   -15.8577 -15.7864 -15.6296 -15.5988 -15.5704 -15.5340 -15.5135 -15.5070
   -15.4968 -15.4635 -15.4416 -15.4173 -15.4154 -15.3993 -15.3854 -15.3528
   -15.2991 -15.2153 -15.1383 -15.0687 -15.0105 -14.6766 -13.4721 -13.3523
    -7.3234  -4.8788  -4.8703  -4.0707  -4.0166  -3.9197  -3.8417  -3.8275
    -3.7289  -3.6721  -3.4672  -3.3888  -3.3541  -3.2033  -3.1610  -3.1039
    -3.0537  -2.9642  -2.8999  -2.8936  -2.8045  -2.7802  -2.7785  -2.7697
    -2.6790  -2.6658  -2.6287  -2.6228  -2.5945  -2.5025  -2.3785  -2.3428
    -2.2884  -2.2871  -2.2642  -2.2515  -2.2265  -2.1862  -2.1637  -2.1548
    -2.1023  -2.0898  -1.9500  -1.8060  -1.7713  -1.6957  -1.6086  -1.5167
    -1.4668  -1.4246  -1.3638  -1.3619  -1.3150  -1.2850  -1.2510  -1.1665
    -1.0748  -1.0355  -0.9400  -0.9236  -0.8491  -0.8127  -0.7598  -0.7014
    -0.6992  -0.6596  -0.5634  -0.5299  -0.4120  -0.4010  -0.3881  -0.3684
    -0.3021  -0.2513  -0.1462  -0.1166  -0.1146  -0.1064   0.0023   0.0297
     0.0321   0.0456   0.0561   0.1197   0.1900   0.2285   0.2714   0.4193
     0.6428   0.6479   0.7077   0.9392   1.0171   1.0549   1.2121   1.6410
     1.6950   3.1890   3.2557   3.2865   3.3194   3.3554   3.3961   3.6847
     3.7007   3.7273   3.7462   3.7642

[...]

          k = 0.0380-0.0419 0.0000 ( 17876 PWs)   bands (ev):

[...]

          k =-0.0760-0.0000 0.0000 ( 17886 PWs)   bands (ev):

[...]

          k =-0.0760-0.0839 0.0000 ( 17948 PWs)   bands (ev):

   -55.8886 -55.8881 -55.8439 -55.8426 -55.7853 -55.7644 -55.7583 -55.7284
   -55.7259 -55.7224 -55.7111 -55.6736 -55.6702 -55.6700 -54.9540 -54.9539
   -32.3385 -32.2744 -32.2736 -32.1798 -32.1769 -32.1757 -32.1597 -32.1368
   -32.1348 -32.1065 -32.1050 -32.1026 -32.0952 -32.0527 -32.0466 -32.0455
   -32.0431 -32.0416 -32.0294 -32.0266 -32.0240 -32.0104 -32.0028 -31.9909
   -31.9863 -31.9861 -31.9837 -31.9814 -31.9620 -31.9611 -31.9579 -31.9505
   -31.9243 -31.9227 -31.9047 -31.8990 -31.8986 -31.8929 -31.8763 -31.8558
   -31.8552 -31.8463 -31.2707 -31.2707 -31.1966 -31.1965 -31.1568 -31.1568
   -21.6578 -16.4116 -16.1071 -16.0672 -15.9529 -15.9478 -15.8665 -15.8509
   -15.7447 -15.6999 -15.6892 -15.6880 -15.6260 -15.6239 -15.6040 -15.5915
   -15.5201 -15.5092 -15.4852 -15.4818 -15.4249 -15.4207 -15.4193 -15.4150
   -15.3775 -15.3769 -15.3413 -15.3381 -15.2160 -15.0472 -13.4532 -13.4531
    -7.3277  -4.8743  -4.8724  -3.9763  -3.4429  -3.3797  -3.3256  -3.1743
    -3.0957  -3.0856  -3.0405  -3.0103  -2.9374  -2.9015  -2.9001  -2.8193
    -2.8095  -2.8035  -2.8026  -2.7338  -2.7218  -2.6918  -2.6748  -2.6228
    -2.6219  -2.6015  -2.5976  -2.5825  -2.5734  -2.5540  -2.5479  -2.5188
    -2.4880  -2.4321  -2.4227  -2.2859  -2.2744  -2.2193  -2.1456  -2.1425
    -2.0600  -2.0455  -2.0088  -1.9780  -1.9117  -1.8962  -1.7268  -1.7076
    -1.7040  -1.6425  -1.5527  -1.5328  -1.4831  -1.4655  -1.4139  -1.3576
    -1.2557  -1.2290  -1.2096  -1.1023  -1.0952  -1.0301  -0.9450  -0.9034
    -0.9019  -0.8975  -0.8727  -0.8537  -0.8516  -0.7495  -0.6993  -0.6518
    -0.6409  -0.6277  -0.4267  -0.3712  -0.3433  -0.2372  -0.1925   0.0024
     0.0105   0.0391   0.1530   0.1541   0.1587   0.2192   0.3451   0.3501
     0.4227   0.4626   0.4901   0.5131   0.5153   1.4040   1.4050   1.5122
     1.5127   3.3500   3.4301   3.4492   3.5057   3.6354   3.6366   3.6974
     3.7365   3.7442   3.7447   3.8310

     the Fermi energy is     3.2533 ev

!    total energy              =   -2924.04842237 Ry
     estimated scf accuracy    <       0.00000006 Ry
     smearing contrib. (-TS)   =      -0.03678954 Ry
     internal energy E=F+TS    =   -2924.01163283 Ry

     The total energy is F=E-TS. E is the sum of the following terms:
     one-electron contribution =  -24119.10514519 Ry
     hartree contribution      =   12141.96697167 Ry
     xc contribution           =    -479.15396328 Ry
     ewald contribution        =    9532.27958937 Ry
     electric field correction =       0.00091460 Ry

     convergence has been achieved in  61 iterations

     Forces acting on atoms (cartesian axes, Ry/au):

     atom    1 type  1   force =     0.00005491    0.00003827    0.09032894
     atom    2 type  1   force =    -0.00002669    0.00036601   -0.18447091
     atom    3 type  2   force =     0.00007559   -0.00044555   -0.02389707
     atom    4 type  2   force =     0.00002011   -0.00009115    0.05155908
     atom    5 type  2   force =    -0.01359929   -0.00063704    0.00573152
     atom    6 type  2   force =     0.01347245   -0.00016099    0.00563742
     atom    7 type  1   force =     0.00012084   -0.00002942    0.00098694
     atom    8 type  1   force =     0.00001500    0.00011913    0.00021079
     atom    9 type  2   force =     0.00006291    0.00011704   -0.00043658
     atom   10 type  2   force =     0.00000196    0.00009761    0.00075794
     atom   11 type  2   force =    -0.00001575    0.00022814   -0.00000310
     atom   12 type  2   force =     0.00000230    0.00022884    0.00007991
     atom   13 type  1   force =     0.00002593    0.00029699   -0.00050954
     atom   14 type  1   force =    -0.00006623    0.00014211   -0.00107508
     atom   15 type  2   force =     0.00009171   -0.00039559   -0.00053680
     atom   16 type  2   force =    -0.00005159    0.00021607   -0.00026831
     atom   17 type  2   force =    -0.00030074   -0.00017460    0.00006691
     atom   18 type  2   force =     0.00039743   -0.00022700    0.00010692
     atom   19 type  1   force =     0.00011811    0.00002291    0.00078796
     atom   20 type  1   force =    -0.00006929    0.00031706    0.00204032
     atom   21 type  2   force =     0.00007076    0.00014382    0.10525305
     atom   22 type  2   force =     0.00001432    0.00005346   -0.00096883
     atom   23 type  2   force =    -0.06756692   -0.00012172   -0.02617948
     atom   24 type  2   force =     0.06749354    0.00031561   -0.02622255
     atom   25 type  1   force =     0.00007525    0.00004817    0.09060180
     atom   26 type  1   force =    -0.00007803   -0.00031940   -0.18440743
     atom   27 type  2   force =     0.00006497   -0.00050756   -0.02271319
     atom   28 type  2   force =     0.00002496   -0.00008701    0.05138643
     atom   29 type  2   force =    -0.01362483   -0.00058386    0.00566516
     atom   30 type  2   force =     0.01349093   -0.00006836    0.00557582
     atom   31 type  1   force =     0.00007940    0.00010428    0.00082001
     atom   32 type  1   force =     0.00001858   -0.00003118    0.00016401
     atom   33 type  2   force =     0.00007053   -0.00005934   -0.00002120
     atom   34 type  2   force =    -0.00000687   -0.00005484   -0.00002076
     atom   35 type  2   force =    -0.00009596    0.00000414   -0.00004798
     atom   36 type  2   force =     0.00011560    0.00000345    0.00001782
     atom   37 type  1   force =     0.00008070    0.00011566    0.00098605
     atom   38 type  1   force =    -0.00006422   -0.00017079   -0.00123758
     atom   39 type  2   force =     0.00010017    0.00030516   -0.00018744
     atom   40 type  2   force =     0.00004539    0.00001301    0.00008891
     atom   41 type  2   force =    -0.00004101    0.00005739    0.00009151
     atom   42 type  2   force =     0.00011593    0.00003168    0.00015125
     atom   43 type  1   force =     0.00001310    0.00047488    0.00101208
     atom   44 type  1   force =    -0.00009709   -0.00027913    0.00175487
     atom   45 type  2   force =     0.00006481    0.00013820    0.10521073
     atom   46 type  2   force =    -0.06757373   -0.00018788   -0.02617809
     atom   47 type  2   force =     0.06749692    0.00024283   -0.02622435
     atom   48 type  3   force =    -0.00320892    0.00128948   -0.05551857
     atom   49 type  3   force =     0.00259201   -0.00089897    0.05405066

     Total force =     0.375274     Total SCF correction =     0.000664
  @ DRIVER MODE: Message from server: STATUS
  @ DRIVER MODE: Message from server: GETFORCE
  @ DRIVER MODE: Returning v,forces,stress,ensemble

     Writing output data file ./calc.save/
  @ DRIVER MODE: Message from server: EXIT
  @ DRIVE MODE: Exiting

     General routines

     Parallel routines

   This run was terminated on:  17:51:38   5Nov2021

   JOB DONE.