     Program PWSCF v.6.7GPU starts on 16Sep2021 at  3:15:45

     R & G space division:  proc/nbgrp/npool/nimage =      10
     Reading input from /storage/home/hcoda1/3/ntian30/research/carbon/CxH_vib/H2O_calc/ads_slab/CH2OHH2O_a/out_0037/pw.inp
Warning: card &CELL ignored
Warning: card   CELL_DYNAMICS='IPI', ignored
Warning: card / ignored

     Current dimensions of program PWSCF are:
     Max number of different atomic species (ntypx) = 10
     Max number of k-points (npk) =  40000
     Max angular momentum in pseudopotentials (lmaxx) =  3
     Presently no symmetry can be used with electric field

     Message from routine cell_base_init:
     DEPRECATED: use true lattice parameter, not A to a.u. conversion factor

     IMPORTANT: XC functional enforced from input :
     Exchange-correlation= BEEF-VDW
                           (   1   4  43  14   2   0   0)
     Any further DFT definition will be discarded
     Please, verify this is what you really want

  @ DRIVER MODE: Connecting to
 qe_1139763_2852615.sched-torque.pace.gatech.edui6p3pytc_scratch
  using UNIX socket
  @ DRIVER MODE: Message from server: STATUS
  @ DRIVER MODE: Message from server: INIT
  @ DRIVER MODE: Receiving replica           0          -1
  @ DRIVER MODE: Receiving encoded integer          25
  @ DRIVER MODE:  SCF:  T  FORCE:  T  STRESS:  F  VC:  F  ENSEMBLE:  F
  @ DRIVER MODE:  SCF:  T  FORCE:  T  STRESS:  F  VC:  F  ENSEMBLE:  F

     Using Slab Decomposition

     bravais-lattice index     =            0
     lattice parameter (alat)  =       1.8897  a.u.
     unit-cell volume          =    6658.9804 (a.u.)^3
     number of atoms/cell      =           55
     number of atomic types    =            4
     number of electrons       =       399.00
     number of Kohn-Sham states=          209
     kinetic-energy cutoff     =      29.3995  Ry
     charge density cutoff     =     293.9946  Ry
     scf convergence threshold =      7.3E-08
     mixing beta               =       0.0500
     number of iterations used =            8  plain     mixing
     Exchange-correlation= BEEF-VDW
                           (   1   4  43  14   2   0   0)

     celldm(1)=   1.889726  celldm(2)=   0.000000  celldm(3)=   0.000000
     celldm(4)=   0.000000  celldm(5)=   0.000000  celldm(6)=   0.000000

     crystal axes: (cart. coord. in units of alat)
               a(1) = (   6.579727   0.000000   0.000000 )
               a(2) = (  -0.000775   5.961596   0.000000 )
               a(3) = (   0.000000   0.000000  25.155947 )

     reciprocal axes: (cart. coord. in units 2 pi/alat)
               b(1) = (  0.151982  0.000020  0.000000 )
               b(2) = (  0.000000  0.167740  0.000000 )
               b(3) = (  0.000000  0.000000  0.039752 )

     PseudoPot. # 1 for Ti read from file:
     /storage/coda1/p-amedford6/0/shared/rich_project_chbe-medford/medford-share/data/pseudos_module/espresso/nninc/pbe/van/Ti.UPF
     MD5 check sum: 8e4df49b7f0d34bbd5052bf3f5ea0213
     Pseudo is Ultrasoft, Zval = 12.0
     Generated by new atomic code, or converted to UPF format
     Using radial grid of  851 points,  6 beta functions with:
                l(1) =   0
                l(2) =   0
                l(3) =   1
                l(4) =   1
                l(5) =   2
                l(6) =   2
     Q(r) pseudized with  8 coefficients,  rinner =    1.000   1.000   1.000
                                                       1.000   1.000

     PseudoPot. # 2 for O  read from file:
     /storage/coda1/p-amedford6/0/shared/rich_project_chbe-medford/medford-share/data/pseudos_module/espresso/nninc/pbe/van/O.UPF
     MD5 check sum: 78c19812648e8988a0fe644b0f25305e
     Pseudo is Ultrasoft, Zval =  6.0
     Generated by new atomic code, or converted to UPF format
     Using radial grid of  737 points,  4 beta functions with:
                l(1) =   0
                l(2) =   0
                l(3) =   1
                l(4) =   1
     Q(r) pseudized with  8 coefficients,  rinner =    0.800   0.800   0.800

     PseudoPot. # 3 for C  read from file:
     /storage/coda1/p-amedford6/0/shared/rich_project_chbe-medford/medford-share/data/pseudos_module/espresso/nninc/pbe/van/C.UPF
     MD5 check sum: 1a69bf6b8db32088f5b2163dbdb77a27
     Pseudo is Ultrasoft, Zval =  4.0
     Generated by new atomic code, or converted to UPF format
     Using radial grid of  721 points,  4 beta functions with:
                l(1) =   0
                l(2) =   0
                l(3) =   1
                l(4) =   1
     Q(r) pseudized with  8 coefficients,  rinner =    0.800   0.800   0.800

     PseudoPot. # 4 for H  read from file:
     /storage/coda1/p-amedford6/0/shared/rich_project_chbe-medford/medford-share/data/pseudos_module/espresso/nninc/pbe/van/H.UPF
     MD5 check sum: b5ee9d7bfd3a09ee7748110bda690ff7
     Pseudo is Ultrasoft, Zval =  1.0
     Generated by new atomic code, or converted to UPF format
     Using radial grid of  615 points,  1 beta functions with:
                l(1) =   0
     Q(r) pseudized with  8 coefficients,  rinner =    0.800

     atomic species   valence    mass     pseudopotential
        Ti1           12.00    47.86700     Ti( 1.00)
        O1             6.00    15.99900     O ( 1.00)
        C1             4.00    12.01100     C ( 1.00)
        H1             1.00     1.00800     H ( 1.00)

     No symmetry found

   Cartesian axes

     site n.     atom                  positions (alat units)
         1           Ti1 tau(   1) = (   0.0004258   2.9801865   6.0000000  )
         2           Ti1 tau(   2) = (   3.2906075   1.4906267   6.0002472  )
         3           O1  tau(   3) = (   0.0006271   0.0005054   7.9858123  )
         4           O1  tau(   4) = (   3.2906025   0.0005020   7.3038282  )
         5           O1  tau(   5) = (   4.5942328   1.4918067   9.2879030  )
         6           O1  tau(   6) = (   1.9868534   1.4903216   9.2879459  )
         7           Ti1 tau(   7) = (   3.2434587   3.0186650   9.1693953  )
         8           Ti1 tau(   8) = (   6.5248695   1.5265067   9.2859949  )
         9           O1  tau(   9) = (   3.3238096   0.0077392  11.3399147  )
        10           O1  tau(  10) = (   0.0083103   0.0007143  10.5763085  )
        11           O1  tau(  11) = (   1.3076427   1.5153157  12.5877682  )
        12           O1  tau(  12) = (   5.3324098   1.4751673  12.6362968  )
        13           Ti1 tau(  13) = (   0.0822926   2.9518924  12.6100891  )
        14           Ti1 tau(  14) = (   3.3652580   1.6116561  12.6031695  )
        15           O1  tau(  15) = (   0.1623142   0.0003102  14.6136642  )
        16           O1  tau(  16) = (   3.2083997   0.0016335  13.9229753  )
        17           O1  tau(  17) = (   4.6427586   1.3635169  15.8692112  )
        18           O1  tau(  18) = (   2.0707938   1.5934636  16.1317492  )
        19           Ti1 tau(  19) = (   3.4055461   2.9583945  15.9219660  )
        20           Ti1 tau(  20) = (   0.0529163   1.3399360  15.9091509  )
        21           O1  tau(  21) = (   3.2904802   0.0005063   4.7018136  )
        22           O1  tau(  22) = (   0.1143047   5.9459637  17.1421970  )
        23           O1  tau(  23) = (   1.3043587   1.4918075   6.0039043  )
        24           O1  tau(  24) = (   5.2767064   1.4903225   6.0039473  )
        25           Ti1 tau(  25) = (   0.0000382   5.9609847   6.0000000  )
        26           Ti1 tau(  26) = (   3.2902200   4.4714249   6.0002472  )
        27           O1  tau(  27) = (   0.0002396   2.9813036   7.9858123  )
        28           O1  tau(  28) = (   3.2902150   2.9813002   7.3038282  )
        29           O1  tau(  29) = (   4.5938453   4.4726049   9.2879030  )
        30           O1  tau(  30) = (   1.9864658   4.4711199   9.2879459  )
        31           Ti1 tau(  31) = (   3.2519499   0.0415563   9.1803751  )
        32           Ti1 tau(  32) = (   6.5223785   4.4699269   9.2708698  )
        33           O1  tau(  33) = (   3.3249262   3.0006027  11.3427062  )
        34           O1  tau(  34) = (   6.5728067   2.9803724  10.5910131  )
        35           O1  tau(  35) = (   1.3048910   4.4590737  12.5876729  )
        36           O1  tau(  36) = (   5.3248012   4.5079456  12.6396186  )
        37           Ti1 tau(  37) = (   0.0305998   5.9348532  12.4502240  )
        38           Ti1 tau(  38) = (   3.3518916   4.5407868  12.4757475  )
        39           O1  tau(  39) = (   0.0741357   2.9755951  14.7167286  )
        40           O1  tau(  40) = (   3.3703583   2.9475192  13.9294239  )
        41           O1  tau(  41) = (   4.6408928   4.5782690  15.8216857  )
        42           O1  tau(  42) = (   2.0743197   4.3710070  16.0958311  )
        43           Ti1 tau(  43) = (   3.3271525   5.9323444  15.7323421  )
        44           Ti1 tau(  44) = (   0.0603002   4.5335970  15.7939964  )
        45           O1  tau(  45) = (   3.2900926   2.9813045   4.7018136  )
        46           O1  tau(  46) = (   1.3039711   4.4726057   6.0039043  )
        47           O1  tau(  47) = (   5.2763189   4.4711207   6.0039473  )
        48           C1  tau(  48) = (   4.5917920   3.0228413  17.9030398  )
        49           O1  tau(  49) = (   6.0625861   3.0006587  17.4562122  )
        50           H1  tau(  50) = (   0.0503952   3.1075262  18.2373115  )
        51           H1  tau(  51) = (   4.5265887   2.1706275  18.5876854  )
        52           H1  tau(  52) = (   4.4781653   3.9549082  18.4551422  )
        53           O1  tau(  53) = (   2.8659371   5.8926936  18.2031264  )
        54           H1  tau(  54) = (   3.0428466   0.8172038  18.5446680  )
        55           H1  tau(  55) = (   1.8959954   5.8777970  18.0521013  )

     number of k points=    10  Fermi-Dirac smearing, width (Ry)=  0.0073
                       cart. coord. in units 2pi/alat
        k(    1) = (   0.0000000   0.0000000   0.0000000), wk =   0.1250000
        k(    2) = (   0.0000000   0.0419351   0.0000000), wk =   0.2500000
        k(    3) = (   0.0000000  -0.0838702   0.0000000), wk =   0.1250000
        k(    4) = (   0.0379955   0.0000049   0.0000000), wk =   0.2500000
        k(    5) = (   0.0379955   0.0419400   0.0000000), wk =   0.2500000
        k(    6) = (   0.0379955  -0.0838652   0.0000000), wk =   0.2500000
        k(    7) = (   0.0379955  -0.0419301   0.0000000), wk =   0.2500000
        k(    8) = (  -0.0759910  -0.0000099   0.0000000), wk =   0.1250000
        k(    9) = (  -0.0759910   0.0419252   0.0000000), wk =   0.2500000
        k(   10) = (  -0.0759910  -0.0838800   0.0000000), wk =   0.1250000

     Initial potential from superposition of free atoms

     starting charge  382.99916, renormalised to  399.00000

     negative rho (up, down):  1.858E-02 0.000E+00

     %%%%%%%%%%%%%%%%%%%%%%%%%%%%%%%%%%%%%%%%%%%%%%%%%%%%%%%%%%%%%%%%%%%%%%%%
     %                                                                      %
     % You are using vdW-DF, which was implemented by the Thonhauser group. %
     % Please cite the following two papers that made this development      %
     % possible and the two reviews that describe the various versions:     %
     %                                                                      %
     %   T. Thonhauser et al., PRL 115, 136402 (2015).                      %
     %   T. Thonhauser et al., PRB 76, 125112 (2007).                       %
     %   K. Berland et al., Rep. Prog. Phys. 78, 066501 (2015).             %
     %   D.C. Langreth et al., J. Phys.: Condens. Matter 21, 084203 (2009). %
     %                                                                      %
     %                                                                      %
     % If you are calculating the stress with vdW-DF, please also cite:     %
     %                                                                      %
     %   R. Sabatini et al., J. Phys.: Condens. Matter 24, 424209 (2012).   %
     %                                                                      %
     %%%%%%%%%%%%%%%%%%%%%%%%%%%%%%%%%%%%%%%%%%%%%%%%%%%%%%%%%%%%%%%%%%%%%%%%

     Adding external electric field

     Computed dipole along edir(3) :
        Dipole               -9.7304 Ry au,        -24.7321 Debye
        Dipole field         -0.0184 Ry au,

        Potential amp.        1.7022 Ry
        Total length         46.3494 bohr

     Starting wfcs are  301 atomic wfcs
  @ DRIVER MODE: Message from server: STATUS
  @ DRIVER MODE: Message from server: POSDATA
  @ DRIVER MODE: Reading and sharing cell
  @ DRIVER MODE: Reading and sharing positions
  @ DRIVER MODE: Received positions

     Self-consistent Calculation

     iteration #  1     ecut=    29.40 Ry     beta= 0.05
     Davidson diagonalization with overlap
     c_bands:  1 eigenvalues not converged
     c_bands:  2 eigenvalues not converged
     c_bands:  3 eigenvalues not converged
     c_bands:  5 eigenvalues not converged
     c_bands:  3 eigenvalues not converged
     c_bands:  2 eigenvalues not converged
     c_bands:  3 eigenvalues not converged
     c_bands:  2 eigenvalues not converged
     ethr =  1.00E-05,  avg # of iterations = 19.8

[...]

     total energy              =   -2478.51644234 Ry
     estimated scf accuracy    <    5415.86792266 Ry

     iteration #  2     ecut=    29.40 Ry     beta= 0.05
     Davidson diagonalization with overlap
     ethr =  1.00E-02,  avg # of iterations = 24.3

[...]

     iteration # 54     ecut=    29.40 Ry     beta= 0.05
     Davidson diagonalization with overlap
     c_bands:  1 eigenvalues not converged
     ethr =  4.94E-10,  avg # of iterations = 13.4

[...]

     total energy              =   -2966.15820980 Ry
     estimated scf accuracy    <       0.00000016 Ry

     iteration # 62     ecut=    29.40 Ry     beta= 0.05
     Davidson diagonalization with overlap
     ethr =  2.60E-11,  avg # of iterations =  6.0

     negative rho (up, down):  1.797E-02 0.000E+00

     Adding external electric field

     Computed dipole along edir(3) :
        Dipole                1.0043 Ry au,          2.5526 Debye
        Dipole field          0.0019 Ry au,

        Potential amp.       -0.1757 Ry
        Total length         46.3494 bohr

     End of self-consistent calculation

          k = 0.0000 0.0000 0.0000 ( 18029 PWs)   bands (ev):

   -55.6891 -55.6526 -55.5817 -55.5733 -55.5170 -55.5148 -55.5088 -55.5059
   -55.4781 -55.4608 -55.4537 -55.4428 -55.4273 -55.3376 -54.6585 -54.6245
   -32.1795 -32.1652 -32.0550 -32.0255 -32.0031 -31.9764 -31.9557 -31.9440
   -31.9303 -31.8709 -31.8435 -31.8369 -31.8333 -31.8243 -31.7968 -31.7872
   -31.7837 -31.7645 -31.7594 -31.7482 -31.7371 -31.7320 -31.6980 -31.6928
   -31.6902 -31.6835 -31.6780 -31.6702 -31.6649 -31.6603 -31.6526 -31.6358
   -31.6319 -31.6297 -31.6241 -31.6211 -31.6126 -31.6122 -31.5868 -31.5640
   -31.5524 -31.4242 -31.0655 -30.9771 -30.9546 -30.8824 -30.7960 -30.6847
   -19.3881 -18.7651 -16.3746 -16.1779 -15.9731 -15.8596 -15.8398 -15.6586
   -15.5348 -15.3885 -15.3361 -15.3072 -15.2864 -15.2170 -15.2101 -15.1951
   -15.1600 -15.1553 -15.1188 -15.0990 -15.0929 -15.0652 -15.0137 -14.9921
   -14.9425 -14.8822 -14.8136 -14.7936 -14.7846 -14.7093 -14.6171 -13.1593
   -13.0427  -9.4304  -6.4887  -6.2771  -4.0735  -3.8410  -3.6864  -3.6445
    -3.6117  -3.5754  -3.4152  -3.3046  -3.1283  -3.0309  -2.9532  -2.9046
    -2.8662  -2.7904  -2.7476  -2.6225  -2.5992  -2.5497  -2.5167  -2.4816
    -2.4737  -2.4531  -2.4072  -2.3898  -2.3743  -2.2173  -2.2071  -2.1734
    -2.1085  -2.0771  -2.0500  -2.0128  -1.9911  -1.9641  -1.9457  -1.8994
    -1.8810  -1.8093  -1.8012  -1.7582  -1.6906  -1.6579  -1.3936  -1.3163
    -1.2952  -1.2572  -1.1934  -1.0963  -1.0925  -1.0860  -1.0855  -1.0285
    -1.0093  -0.8631  -0.8487  -0.8338  -0.7538  -0.6748  -0.5955  -0.5589
    -0.4946  -0.4439  -0.4115  -0.3836  -0.3575  -0.3019  -0.2335  -0.2106
    -0.1404  -0.0662  -0.0330   0.0196   0.0455   0.0901   0.1207   0.1968
     0.2357   0.2698   0.2977   0.3157   0.3257   0.3690   0.3890   0.4783
     0.5558   0.5838   0.5905   0.6646   0.7912   0.8736   0.9855   1.0770
     1.2994   1.3656   1.4169   1.5499   1.5570   1.9374   1.9879   3.4522
     3.5212   3.5807   3.5812   3.6160   3.6966   3.8997   3.9469   4.0045
     4.0385

[...]

          k = 0.0380-0.0419 0.0000 ( 17876 PWs)   bands (ev):

[...]

          k =-0.0760-0.0000 0.0000 ( 17886 PWs)   bands (ev):

[...]

          k =-0.0760-0.0839 0.0000 ( 17948 PWs)   bands (ev):

   -55.6774 -55.6641 -55.5764 -55.5686 -55.5213 -55.5136 -55.5110 -55.5025
   -55.4630 -55.4599 -55.4571 -55.4460 -55.4425 -55.3392 -54.6415 -54.6414
   -32.0984 -31.9866 -31.9758 -31.9739 -31.9517 -31.9012 -31.8747 -31.8536
   -31.8467 -31.8416 -31.8387 -31.8154 -31.8144 -31.7997 -31.7983 -31.7888
   -31.7881 -31.7796 -31.7782 -31.7750 -31.7722 -31.7625 -31.7409 -31.7357
   -31.7297 -31.7179 -31.7107 -31.7042 -31.7018 -31.6874 -31.6732 -31.6657
   -31.6650 -31.6624 -31.6605 -31.6541 -31.6527 -31.6507 -31.6488 -31.6462
   -31.6283 -31.4264 -30.9674 -30.9673 -30.8788 -30.8780 -30.8393 -30.8389
   -19.3816 -18.7640 -15.9927 -15.6538 -15.6407 -15.6356 -15.6049 -15.4835
   -15.4594 -15.4371 -15.3914 -15.3614 -15.3556 -15.3324 -15.2884 -15.2317
   -15.2124 -15.2047 -15.1950 -15.1427 -15.1283 -15.1174 -15.0717 -15.0311
   -15.0287 -15.0048 -14.9786 -14.9732 -14.9729 -14.9452 -14.8776 -13.1460
   -13.1429  -9.4366  -6.4891  -6.2566  -4.0316  -3.7274  -3.1629  -3.0533
    -2.8713  -2.8548  -2.7994  -2.7763  -2.7230  -2.6543  -2.6260  -2.6146
    -2.6125  -2.5786  -2.5161  -2.4819  -2.4781  -2.4388  -2.4205  -2.4127
    -2.3923  -2.3677  -2.3424  -2.3237  -2.3174  -2.2818  -2.2698  -2.2547
    -2.2487  -2.2369  -2.2183  -2.1777  -2.0700  -1.9484  -1.9145  -1.8791
    -1.8390  -1.7802  -1.7737  -1.7601  -1.7255  -1.7247  -1.7088  -1.6304
    -1.4669  -1.4044  -1.3428  -1.3209  -1.2473  -1.2349  -1.2194  -1.1760
    -1.1352  -1.0870  -1.0424  -1.0208  -0.9649  -0.9206  -0.7918  -0.7379
    -0.6535  -0.6483  -0.6257  -0.6107  -0.5566  -0.5319  -0.5072  -0.4625
    -0.4279  -0.3844  -0.3518  -0.3431  -0.3208  -0.2597  -0.1596  -0.1108
    -0.0486  -0.0424   0.0403   0.1697   0.3551   0.3855   0.4437   0.4948
     0.5840   0.6065   0.6553   0.6751   0.7326   0.7597   0.8011   0.8613
     0.9220   0.9501   1.5154   1.7290   1.7354   1.7986   1.8080   3.7436
     3.8312   3.9237   3.9376   3.9719   3.9842   3.9899   4.0195   4.0763
     4.1148

     the Fermi energy is     3.4496 ev

!    total energy              =   -2966.15824393 Ry
     estimated scf accuracy    <       0.00000003 Ry
     smearing contrib. (-TS)   =      -0.02139723 Ry
     internal energy E=F+TS    =   -2966.13684670 Ry

     The total energy is F=E-TS. E is the sum of the following terms:
     one-electron contribution =  -24755.65582584 Ry
     hartree contribution      =   12470.34716779 Ry
     xc contribution           =    -490.96086592 Ry
     ewald contribution        =    9810.13077400 Ry
     electric field correction =       0.00190326 Ry

     convergence has been achieved in  62 iterations

     Forces acting on atoms (cartesian axes, Ry/au):

     atom    1 type  1   force =     0.00075312   -0.00018277    0.09532774
     atom    2 type  1   force =     0.00024612   -0.00220409   -0.17570886
     atom    3 type  2   force =    -0.00066229   -0.00040900   -0.03009464
     atom    4 type  2   force =    -0.00084999    0.00063536    0.05234677
     atom    5 type  2   force =    -0.01386467   -0.00099799    0.00145602
     atom    6 type  2   force =     0.01581768    0.00241167    0.00318007
     atom    7 type  1   force =     0.00033966    0.00038650   -0.00028811
     atom    8 type  1   force =    -0.00036385    0.00140054    0.00064720
     atom    9 type  2   force =     0.00011209   -0.00001902    0.00023179
     atom   10 type  2   force =     0.00017457    0.00017106   -0.00057594
     atom   11 type  2   force =    -0.00023675    0.00024515    0.00018278
     atom   12 type  2   force =    -0.00037558    0.00008852    0.00007581
     atom   13 type  1   force =     0.00022524   -0.00018396   -0.00061939
     atom   14 type  1   force =    -0.00101141    0.00002247    0.00028877
     atom   15 type  2   force =     0.00006645   -0.00110280   -0.00013624
     atom   16 type  2   force =    -0.00001179   -0.00006354   -0.00016753
     atom   17 type  2   force =    -0.00035893   -0.00032026   -0.00017320
     atom   18 type  2   force =     0.00033616   -0.00034121    0.00015823
     atom   19 type  1   force =     0.00012162    0.00031492    0.00018660
     atom   20 type  1   force =     0.00016116    0.00087096    0.00031539
     atom   21 type  2   force =     0.00014807    0.00019852    0.10303041
     atom   22 type  2   force =     0.00016955   -0.00110015    0.00018689
     atom   23 type  2   force =    -0.07130152    0.00093837   -0.02829861
     atom   24 type  2   force =     0.07135528    0.00133358   -0.02833651
     atom   25 type  1   force =     0.00022276    0.00038248    0.10640812
     atom   26 type  1   force =     0.00000247    0.00253255   -0.17559967
     atom   27 type  2   force =    -0.00037882    0.00013374   -0.02787291
     atom   28 type  2   force =    -0.00096292    0.00076075    0.05165309
     atom   29 type  2   force =    -0.01301642   -0.00123258    0.00106176
     atom   30 type  2   force =     0.01546182    0.00037135    0.00294408
     atom   31 type  1   force =     0.00052176    0.00002516   -0.00003308
     atom   32 type  1   force =    -0.00041638   -0.00140468    0.00017483
     atom   33 type  2   force =    -0.00016777   -0.00031646    0.00019044
     atom   34 type  2   force =     0.00000895    0.00010746   -0.00014181
     atom   35 type  2   force =    -0.00062401   -0.00019329    0.00065836
     atom   36 type  2   force =     0.00003645   -0.00037172    0.00023888
     atom   37 type  1   force =     0.00060046    0.00028141    0.00052720
     atom   38 type  1   force =    -0.00092079    0.00014102    0.00046892
     atom   39 type  2   force =    -0.00016694    0.00065170    0.00024199
     atom   40 type  2   force =    -0.00002421   -0.00051632   -0.00068075
     atom   41 type  2   force =     0.00117169   -0.00003534   -0.00007289
     atom   42 type  2   force =    -0.00088086   -0.00015050    0.00017717
     atom   43 type  1   force =     0.00026171   -0.00095753   -0.00006686
     atom   44 type  1   force =    -0.00035885    0.00030757   -0.00011379
     atom   45 type  2   force =     0.00012218    0.00015541    0.10329783
     atom   46 type  2   force =    -0.07122608   -0.00125670   -0.02829494
     atom   47 type  2   force =     0.07129524   -0.00086016   -0.02833417
     atom   48 type  3   force =    -0.00080395   -0.00017535    0.00005169
     atom   49 type  2   force =     0.00057180   -0.00003861   -0.00010345
     atom   50 type  4   force =    -0.00002503   -0.00039325   -0.00016366
     atom   51 type  4   force =    -0.00074479   -0.00013102    0.00002511
     atom   52 type  4   force =    -0.00033324    0.00002028   -0.00039039
     atom   53 type  2   force =    -0.00067613   -0.00237989    0.00001974
     atom   54 type  4   force =     0.00226551    0.00400617    0.00158704
     atom   55 type  4   force =    -0.00180558   -0.00155646   -0.00107333

     Total force =     0.367416     Total SCF correction =     0.000461
  @ DRIVER MODE: Message from server: STATUS
  @ DRIVER MODE: Message from server: GETFORCE
  @ DRIVER MODE: Returning v,forces,stress,ensemble

     Writing output data file ./calc.save/
  @ DRIVER MODE: Message from server: EXIT
  @ DRIVE MODE: Exiting

     General routines

     Parallel routines

   This run was terminated on:   3:33:33  16Sep2021

   JOB DONE.