     Program PWSCF v.6.7GPU starts on  2Aug2021 at 21:38:36

     R & G space division:  proc/nbgrp/npool/nimage =      16
     Reading input from /storage/home/hcoda1/3/ntian30/research/carbon/02Aug_vib_paired/ads_slab/CH3NNH3_a/out_0034/pw.inp
Warning: card &CELL ignored
Warning: card   CELL_DYNAMICS='IPI', ignored
Warning: card / ignored

     Current dimensions of program PWSCF are:
     Max number of different atomic species (ntypx) = 10
     Max number of k-points (npk) =  40000
     Max angular momentum in pseudopotentials (lmaxx) =  3
     Presently no symmetry can be used with electric field

     Message from routine cell_base_init:
     DEPRECATED: use true lattice parameter, not A to a.u. conversion factor

     IMPORTANT: XC functional enforced from input :
     Exchange-correlation= BEEF-VDW
                           (   1   4  43  14   2   0   0)
     Any further DFT definition will be discarded
     Please, verify this is what you really want

  @ DRIVER MODE: Connecting to
 qe_1139763_2482544.sched-torque.pace.gatech.edutda2nlkm_scratch
  using UNIX socket
  @ DRIVER MODE: Message from server: STATUS
  @ DRIVER MODE: Message from server: INIT
  @ DRIVER MODE: Receiving replica           0          -1
  @ DRIVER MODE: Receiving encoded integer          25
  @ DRIVER MODE:  SCF:  T  FORCE:  T  STRESS:  F  VC:  F  ENSEMBLE:  F
  @ DRIVER MODE:  SCF:  T  FORCE:  T  STRESS:  F  VC:  F  ENSEMBLE:  F

     Using Slab Decomposition

     bravais-lattice index     =            0
     lattice parameter (alat)  =       1.8897  a.u.
     unit-cell volume          =    6658.9804 (a.u.)^3
     number of atoms/cell      =           56
     number of atomic types    =            5
     number of electrons       =       398.00
     number of Kohn-Sham states=          209
     kinetic-energy cutoff     =      29.3995  Ry
     charge density cutoff     =     293.9946  Ry
     scf convergence threshold =      7.3E-08
     mixing beta               =       0.0500
     number of iterations used =            8  plain     mixing
     Exchange-correlation= BEEF-VDW
                           (   1   4  43  14   2   0   0)

     celldm(1)=   1.889726  celldm(2)=   0.000000  celldm(3)=   0.000000
     celldm(4)=   0.000000  celldm(5)=   0.000000  celldm(6)=   0.000000

     crystal axes: (cart. coord. in units of alat)
               a(1) = (   6.579727   0.000000   0.000000 )
               a(2) = (  -0.000775   5.961596   0.000000 )
               a(3) = (   0.000000   0.000000  25.155947 )

     reciprocal axes: (cart. coord. in units 2 pi/alat)
               b(1) = (  0.151982  0.000020  0.000000 )
               b(2) = (  0.000000  0.167740  0.000000 )
               b(3) = (  0.000000  0.000000  0.039752 )

     PseudoPot. # 1 for Ti read from file:
     /storage/coda1/p-amedford6/0/shared/rich_project_chbe-medford/medford-share/data/pseudos_module/espresso/nninc/pbe/van/Ti.UPF
     MD5 check sum: 8e4df49b7f0d34bbd5052bf3f5ea0213
     Pseudo is Ultrasoft, Zval = 12.0
     Generated by new atomic code, or converted to UPF format
     Using radial grid of  851 points,  6 beta functions with:
                l(1) =   0
                l(2) =   0
                l(3) =   1
                l(4) =   1
                l(5) =   2
                l(6) =   2
     Q(r) pseudized with  8 coefficients,  rinner =    1.000   1.000   1.000
                                                       1.000   1.000

     PseudoPot. # 2 for O  read from file:
     /storage/coda1/p-amedford6/0/shared/rich_project_chbe-medford/medford-share/data/pseudos_module/espresso/nninc/pbe/van/O.UPF
     MD5 check sum: 78c19812648e8988a0fe644b0f25305e
     Pseudo is Ultrasoft, Zval =  6.0
     Generated by new atomic code, or converted to UPF format
     Using radial grid of  737 points,  4 beta functions with:
                l(1) =   0
                l(2) =   0
                l(3) =   1
                l(4) =   1
     Q(r) pseudized with  8 coefficients,  rinner =    0.800   0.800   0.800

     PseudoPot. # 3 for N  read from file:
     /storage/coda1/p-amedford6/0/shared/rich_project_chbe-medford/medford-share/data/pseudos_module/espresso/nninc/pbe/van/N.UPF
     MD5 check sum: 90d10febe142ad51ac9d5be1deb811c4
     Pseudo is Ultrasoft, Zval =  5.0
     Generated by new atomic code, or converted to UPF format
     Using radial grid of  729 points,  4 beta functions with:
                l(1) =   0
                l(2) =   0
                l(3) =   1
                l(4) =   1
     Q(r) pseudized with  8 coefficients,  rinner =    0.800   0.800   0.800

     PseudoPot. # 4 for C  read from file:
     /storage/coda1/p-amedford6/0/shared/rich_project_chbe-medford/medford-share/data/pseudos_module/espresso/nninc/pbe/van/C.UPF
     MD5 check sum: 1a69bf6b8db32088f5b2163dbdb77a27
     Pseudo is Ultrasoft, Zval =  4.0
     Generated by new atomic code, or converted to UPF format
     Using radial grid of  721 points,  4 beta functions with:
                l(1) =   0
                l(2) =   0
                l(3) =   1
                l(4) =   1
     Q(r) pseudized with  8 coefficients,  rinner =    0.800   0.800   0.800

     PseudoPot. # 5 for H  read from file:
     /storage/coda1/p-amedford6/0/shared/rich_project_chbe-medford/medford-share/data/pseudos_module/espresso/nninc/pbe/van/H.UPF
     MD5 check sum: b5ee9d7bfd3a09ee7748110bda690ff7
     Pseudo is Ultrasoft, Zval =  1.0
     Generated by new atomic code, or converted to UPF format
     Using radial grid of  615 points,  1 beta functions with:
                l(1) =   0
     Q(r) pseudized with  8 coefficients,  rinner =    0.800

     atomic species   valence    mass     pseudopotential
        Ti1           12.00    47.86700     Ti( 1.00)
        O1             6.00    15.99900     O ( 1.00)
        N1             5.00    14.00700     N ( 1.00)
        C1             4.00    12.01100     C ( 1.00)
        H1             1.00     1.00800     H ( 1.00)

     No symmetry found

   Cartesian axes

     site n.     atom                  positions (alat units)
         1           Ti1 tau(   1) = (   0.0004258   2.9801865   6.0000000  )
         2           Ti1 tau(   2) = (   3.2906075   1.4906267   6.0002472  )
         3           O1  tau(   3) = (   0.0006271   0.0005054   7.9858123  )
         4           O1  tau(   4) = (   3.2906025   0.0005020   7.3038282  )
         5           O1  tau(   5) = (   4.5942328   1.4918067   9.2879030  )
         6           O1  tau(   6) = (   1.9868534   1.4903216   9.2879459  )
         7           Ti1 tau(   7) = (   3.2907910   2.8959150   9.1758416  )
         8           Ti1 tau(   8) = (   0.0015273   1.4827037   9.2680791  )
         9           O1  tau(   9) = (   3.2727297   5.9424138  11.2974721  )
        10           O1  tau(  10) = (   0.0116148   5.9584955  10.6183126  )
        11           O1  tau(  11) = (   1.3027692   1.4721713  12.6242268  )
        12           O1  tau(  12) = (   5.2784376   1.4723552  12.6258992  )
        13           Ti1 tau(  13) = (   6.4570204   2.9507206  12.7630554  )
        14           Ti1 tau(  14) = (   3.1467966   1.4649636  12.4688949  )
        15           O1  tau(  15) = (   6.5600513   5.9133837  14.5918744  )
        16           O1  tau(  16) = (   3.2766225   5.9390981  13.8789110  )
        17           O1  tau(  17) = (   4.4915826   1.4834571  16.0540230  )
        18           O1  tau(  18) = (   2.0416982   1.4849982  16.0411193  )
        19           Ti1 tau(  19) = (   3.2679172   2.9642910  15.6858091  )
        20           Ti1 tau(  20) = (   6.5495220   1.5641796  16.1095294  )
        21           O1  tau(  21) = (   3.2904802   0.0005063   4.7018136  )
        22           O1  tau(  22) = (   6.5606002   0.0080969  17.2010096  )
        23           O1  tau(  23) = (   1.3043587   1.4918075   6.0039043  )
        24           O1  tau(  24) = (   5.2767064   1.4903225   6.0039473  )
        25           Ti1 tau(  25) = (   0.0000382   5.9609847   6.0000000  )
        26           Ti1 tau(  26) = (   3.2902200   4.4714249   6.0002472  )
        27           O1  tau(  27) = (   0.0002396   2.9813036   7.9858123  )
        28           O1  tau(  28) = (   3.2902150   2.9813002   7.3038282  )
        29           O1  tau(  29) = (   4.5938453   4.4726049   9.2879030  )
        30           O1  tau(  30) = (   1.9864658   4.4711199   9.2879459  )
        31           Ti1 tau(  31) = (   3.2891106   5.8743827   9.1763621  )
        32           Ti1 tau(  32) = (   0.0006254   4.4649316   9.2693709  )
        33           O1  tau(  33) = (   3.2718307   2.9587034  11.2961003  )
        34           O1  tau(  34) = (   0.0092240   2.9805883  10.6323155  )
        35           O1  tau(  35) = (   1.3028232   4.4416136  12.6207192  )
        36           O1  tau(  36) = (   5.2777600   4.4366566  12.6238879  )
        37           Ti1 tau(  37) = (   6.4830488   5.9304874  12.7660964  )
        38           Ti1 tau(  38) = (   3.1463657   4.4448748  12.4639736  )
        39           O1  tau(  39) = (   6.5417323   2.9404903  14.6589984  )
        40           O1  tau(  40) = (   3.2789452   2.9619718  13.8791424  )
        41           O1  tau(  41) = (   4.4971312   4.4676043  16.0556370  )
        42           O1  tau(  42) = (   2.0400509   4.4648231  16.0515753  )
        43           Ti1 tau(  43) = (   3.2598176   5.9476019  15.6881950  )
        44           Ti1 tau(  44) = (   6.5485469   4.5424454  16.1156095  )
        45           O1  tau(  45) = (   3.2900926   2.9813045   4.7018136  )
        46           O1  tau(  46) = (   1.3039711   4.4726057   6.0039043  )
        47           O1  tau(  47) = (   5.2763189   4.4711207   6.0039473  )
        48           N1  tau(  48) = (   0.0016189   2.9795595  17.3279962  )
        49           C1  tau(  49) = (   0.1681806   3.0735589  18.7581663  )
        50           H1  tau(  50) = (   6.0068595   3.7517258  19.1994632  )
        51           H1  tau(  51) = (   0.0766375   2.0971904  19.2409400  )
        52           H1  tau(  52) = (   1.1565538   3.4901639  19.0026035  )
        53           N1  tau(  53) = (   4.7601180   1.8241088  21.6614004  )
        54           H1  tau(  54) = (   4.4666586   2.7830198  21.5980365  )
        55           H1  tau(  55) = (   4.1231612   1.2775871  21.0809158  )
        56           H1  tau(  56) = (   4.6015807   1.5257772  22.6208530  )

     number of k points=    10  Fermi-Dirac smearing, width (Ry)=  0.0073
                       cart. coord. in units 2pi/alat
        k(    1) = (   0.0000000   0.0000000   0.0000000), wk =   0.1250000
        k(    2) = (   0.0000000   0.0419351   0.0000000), wk =   0.2500000
        k(    3) = (   0.0000000  -0.0838702   0.0000000), wk =   0.1250000
        k(    4) = (   0.0379955   0.0000049   0.0000000), wk =   0.2500000
        k(    5) = (   0.0379955   0.0419400   0.0000000), wk =   0.2500000
        k(    6) = (   0.0379955  -0.0838652   0.0000000), wk =   0.2500000
        k(    7) = (   0.0379955  -0.0419301   0.0000000), wk =   0.2500000
        k(    8) = (  -0.0759910  -0.0000099   0.0000000), wk =   0.1250000
        k(    9) = (  -0.0759910   0.0419252   0.0000000), wk =   0.2500000
        k(   10) = (  -0.0759910  -0.0838800   0.0000000), wk =   0.1250000

     Initial potential from superposition of free atoms

     starting charge  381.99914, renormalised to  398.00000

     negative rho (up, down):  9.478E-03 0.000E+00

     %%%%%%%%%%%%%%%%%%%%%%%%%%%%%%%%%%%%%%%%%%%%%%%%%%%%%%%%%%%%%%%%%%%%%%%%
     %                                                                      %
     % You are using vdW-DF, which was implemented by the Thonhauser group. %
     % Please cite the following two papers that made this development      %
     % possible and the two reviews that describe the various versions:     %
     %                                                                      %
     %   T. Thonhauser et al., PRL 115, 136402 (2015).                      %
     %   T. Thonhauser et al., PRB 76, 125112 (2007).                       %
     %   K. Berland et al., Rep. Prog. Phys. 78, 066501 (2015).             %
     %   D.C. Langreth et al., J. Phys.: Condens. Matter 21, 084203 (2009). %
     %                                                                      %
     %                                                                      %
     % If you are calculating the stress with vdW-DF, please also cite:     %
     %                                                                      %
     %   R. Sabatini et al., J. Phys.: Condens. Matter 24, 424209 (2012).   %
     %                                                                      %
     %%%%%%%%%%%%%%%%%%%%%%%%%%%%%%%%%%%%%%%%%%%%%%%%%%%%%%%%%%%%%%%%%%%%%%%%

     Adding external electric field

     Computed dipole along edir(3) :
        Dipole              -11.3717 Ry au,        -28.9040 Debye
        Dipole field         -0.0215 Ry au,

        Potential amp.        1.9893 Ry
        Total length         46.3494 bohr

     Starting wfcs are  302 atomic wfcs
  @ DRIVER MODE: Message from server: STATUS
  @ DRIVER MODE: Message from server: POSDATA
  @ DRIVER MODE: Reading and sharing cell
  @ DRIVER MODE: Reading and sharing positions
  @ DRIVER MODE: Received positions

     Self-consistent Calculation

     iteration #  1     ecut=    29.40 Ry     beta= 0.05
     Davidson diagonalization with overlap
     c_bands:  1 eigenvalues not converged
     c_bands:  1 eigenvalues not converged
     c_bands:  2 eigenvalues not converged
     c_bands:  1 eigenvalues not converged
     c_bands:  1 eigenvalues not converged
     c_bands:  1 eigenvalues not converged
     c_bands:  1 eigenvalues not converged
     c_bands:  2 eigenvalues not converged
     c_bands:  2 eigenvalues not converged
     ethr =  1.00E-05,  avg # of iterations = 19.6

[...]

     total energy              =   -2520.80069280 Ry
     estimated scf accuracy    <    4705.92462921 Ry

     iteration #  2     ecut=    29.40 Ry     beta= 0.05
     Davidson diagonalization with overlap
     ethr =  1.00E-02,  avg # of iterations = 21.9

[...]

     iteration # 43     ecut=    29.40 Ry     beta= 0.05
     Davidson diagonalization with overlap
     c_bands:  1 eigenvalues not converged
     c_bands:  1 eigenvalues not converged
     c_bands:  1 eigenvalues not converged
     c_bands:  1 eigenvalues not converged
     ethr =  3.50E-07,  avg # of iterations = 12.8

[...]

     total energy              =   -2942.90650438 Ry
     estimated scf accuracy    <       0.00000008 Ry

     iteration # 63     ecut=    29.40 Ry     beta= 0.05
     Davidson diagonalization with overlap
     ethr =  2.12E-11,  avg # of iterations =  2.0

     negative rho (up, down):  1.096E-02 0.000E+00

     Adding external electric field

     Computed dipole along edir(3) :
        Dipole                0.4522 Ry au,          1.1495 Debye
        Dipole field          0.0009 Ry au,

        Potential amp.       -0.0791 Ry
        Total length         46.3494 bohr

     End of self-consistent calculation

          k = 0.0000 0.0000 0.0000 ( 18029 PWs)   bands (ev):

   -56.6135 -56.5799 -55.7328 -55.7243 -55.6974 -55.6920 -55.5871 -55.5513
   -55.3703 -55.3350 -55.2785 -55.2720 -55.2445 -55.1701 -54.7332 -54.6199
   -33.0414 -32.8881 -32.8599 -32.7897 -32.6987 -32.6674 -32.2075 -32.1967
   -32.1300 -32.0192 -31.9743 -31.9461 -31.9321 -31.9073 -31.8747 -31.8721
   -31.8679 -31.8613 -31.8383 -31.8350 -31.8235 -31.7953 -31.7700 -31.7565
   -31.7433 -31.7232 -31.7153 -31.6920 -31.6708 -31.6169 -31.6018 -31.5928
   -31.5141 -31.5091 -31.4895 -31.4474 -31.4370 -31.4060 -31.3988 -31.3745
   -31.3532 -31.2950 -31.2346 -30.9742 -30.9616 -30.8794 -30.8398 -30.7489
   -16.7776 -16.3432 -16.1134 -15.9760 -15.9085 -15.8542 -15.8088 -15.6878
   -15.6148 -15.6085 -15.5680 -15.5375 -15.4670 -15.3263 -15.2281 -15.1745
   -15.1302 -15.0092 -14.9493 -14.9164 -14.9118 -14.8776 -14.8578 -14.6617
   -14.6374 -14.5348 -14.5250 -14.3994 -14.1772 -13.7769 -13.7254 -13.6668
   -12.7972  -7.4932  -4.3433  -3.8469  -3.8384  -3.7364  -3.6009  -3.5140
    -3.4064  -3.3936  -3.3126  -3.1943  -3.1483  -3.1006  -2.9847  -2.9846
    -2.8353  -2.7952  -2.7892  -2.7854  -2.7403  -2.6769  -2.6612  -2.6222
    -2.6170  -2.6075  -2.4567  -2.3566  -2.2893  -2.2679  -2.2573  -2.2218
    -2.1436  -2.1235  -2.1088  -2.1051  -2.0047  -1.8560  -1.8544  -1.8231
    -1.7797  -1.7782  -1.7402  -1.7254  -1.5900  -1.5163  -1.4135  -1.3960
    -1.3577  -1.2935  -1.2871  -1.1891  -1.1147  -1.0522  -1.0266  -0.9175
    -0.8752  -0.8525  -0.7629  -0.7009  -0.6612  -0.6437  -0.6268  -0.5231
    -0.5030  -0.4920  -0.4071  -0.3955  -0.3383  -0.2569  -0.2372  -0.2311
    -0.1429  -0.1377  -0.0455  -0.0036   0.0381   0.0831   0.1789   0.1972
     0.3002   0.3357   0.3571   0.4768   0.4898   0.5526   0.6199   0.6875
     0.7187   0.7432   0.7726   0.7943   0.8675   0.9824   0.9872   1.0890
     1.1284   1.2962   1.3352   1.3836   1.6230   1.6494   2.3199   2.6610
     2.8211   3.1197   3.3104   3.4215   3.6365   3.6516   3.6569   3.8342
     3.8803

[...]

          k = 0.0380-0.0419 0.0000 ( 17876 PWs)   bands (ev):

[...]

          k =-0.0760-0.0000 0.0000 ( 17886 PWs)   bands (ev):

[...]

          k =-0.0760-0.0839 0.0000 ( 17948 PWs)   bands (ev):

   -56.5968 -56.5964 -55.7168 -55.7116 -55.7093 -55.7086 -55.5719 -55.5664
   -55.3554 -55.3498 -55.2690 -55.2615 -55.2614 -55.1731 -54.7304 -54.6226
   -32.8739 -32.8736 -32.8583 -32.8581 -32.7428 -32.7425 -32.0371 -32.0345
   -32.0210 -32.0149 -31.9648 -31.9637 -31.9214 -31.9200 -31.9187 -31.9176
   -31.9067 -31.9040 -31.9026 -31.9003 -31.8239 -31.8195 -31.7731 -31.7677
   -31.7067 -31.6995 -31.6385 -31.6317 -31.6058 -31.6057 -31.5984 -31.5544
   -31.5524 -31.5246 -31.4896 -31.4870 -31.4869 -31.4479 -31.4479 -31.4426
   -31.4158 -31.3766 -31.1134 -30.9940 -30.9613 -30.9295 -30.8423 -30.8075
   -16.1258 -16.1238 -16.0917 -16.0914 -15.8216 -15.8179 -15.7737 -15.7720
   -15.5992 -15.5933 -15.3868 -15.3766 -15.3706 -15.3666 -15.2424 -15.2336
   -15.1702 -15.1593 -15.0702 -15.0668 -15.0037 -14.9975 -14.9597 -14.9400
   -14.6235 -14.6159 -14.4883 -14.4797 -14.3272 -13.7703 -13.7703 -13.7246
   -12.8137  -7.4833  -3.8606  -3.7371  -3.2254  -3.2249  -3.1594  -3.1581
    -3.0370  -3.0323  -2.9558  -2.9553  -2.8559  -2.8517  -2.7559  -2.7121
    -2.7100  -2.7073  -2.6944  -2.6520  -2.5564  -2.5560  -2.5413  -2.5261
    -2.4706  -2.4685  -2.4541  -2.3814  -2.3678  -2.3320  -2.2926  -2.1862
    -2.1726  -2.1561  -2.1302  -2.0701  -2.0555  -2.0442  -1.9966  -1.9722
    -1.8943  -1.8277  -1.7865  -1.6667  -1.6632  -1.6532  -1.6411  -1.4862
    -1.4503  -1.4191  -1.4094  -1.4033  -1.3589  -1.2609  -1.2529  -1.1185
    -1.1159  -1.0461  -0.9643  -0.9410  -0.9189  -0.7846  -0.7442  -0.7034
    -0.6983  -0.6733  -0.6477  -0.6280  -0.6006  -0.4488  -0.4297  -0.3954
    -0.3646  -0.3565  -0.3152  -0.2470  -0.1673  -0.0866  -0.0854  -0.0189
     0.0333   0.0952   0.1831   0.1956   0.1996   0.4824   0.5625   0.6498
     0.7289   0.7925   0.8585   0.8832   0.9435   0.9828   1.1226   1.1255
     1.1443   1.1447   1.2047   1.2131   1.3664   1.6454   2.2065   3.2342
     3.2345   3.3016   3.3021   3.6257   3.6312   3.7402   3.7492   3.8592
     3.8646

     the Fermi energy is     2.4991 ev

!    total energy              =   -2942.90656365 Ry
     estimated scf accuracy    <       0.00000007 Ry
     smearing contrib. (-TS)   =      -0.00477599 Ry
     internal energy E=F+TS    =   -2942.90178766 Ry

     The total energy is F=E-TS. E is the sum of the following terms:
     one-electron contribution =  -23225.52137648 Ry
     hartree contribution      =   11703.04565441 Ry
     xc contribution           =    -487.46962130 Ry
     ewald contribution        =    9067.04316974 Ry
     electric field correction =       0.00038596 Ry

     convergence has been achieved in  63 iterations

     Forces acting on atoms (cartesian axes, Ry/au):

     atom    1 type  1   force =     0.00001536   -0.00043599    0.12431111
     atom    2 type  1   force =    -0.00006201   -0.00055472   -0.16063000
     atom    3 type  2   force =     0.00016366   -0.00030114   -0.06835197
     atom    4 type  2   force =    -0.00005447   -0.00038600    0.02752357
     atom    5 type  2   force =    -0.01678592    0.00113022   -0.00832326
     atom    6 type  2   force =     0.01783358    0.00162784   -0.01022067
     atom    7 type  1   force =     0.00039886   -0.00406710    0.02182455
     atom    8 type  1   force =     0.00019644   -0.00219706    0.11167780
     atom    9 type  2   force =     0.00010289    0.00018566   -0.00029651
     atom   10 type  2   force =    -0.00319855    0.00010645   -0.07307639
     atom   11 type  2   force =    -0.00034218    0.00033489   -0.00007045
     atom   12 type  2   force =     0.00015044    0.00045241   -0.00002798
     atom   13 type  1   force =     0.00013869   -0.00024824   -0.00000827
     atom   14 type  1   force =    -0.00015823    0.00004587   -0.00031327
     atom   15 type  2   force =    -0.00004901   -0.00024140    0.00019087
     atom   16 type  2   force =     0.00032139    0.00076888    0.00001587
     atom   17 type  2   force =     0.00018772    0.00031141   -0.00029892
     atom   18 type  2   force =    -0.00019613    0.00021534    0.00010160
     atom   19 type  1   force =     0.00050034   -0.00007641   -0.00020818
     atom   20 type  1   force =     0.00025570   -0.00033540   -0.00051369
     atom   21 type  2   force =     0.00010308    0.00007891    0.09968622
     atom   22 type  2   force =     0.00007726    0.00095788    0.00050405
     atom   23 type  2   force =    -0.07918278    0.00008584   -0.03246211
     atom   24 type  2   force =     0.07908441    0.00051223   -0.03245532
     atom   25 type  1   force =     0.00001875   -0.00042102    0.12383368
     atom   26 type  1   force =    -0.00003648   -0.00042455   -0.16075156
     atom   27 type  2   force =     0.00028557   -0.00046903   -0.06734107
     atom   28 type  2   force =    -0.00005751   -0.00020261    0.02725845
     atom   29 type  2   force =    -0.01731758    0.00074193   -0.00824921
     atom   30 type  2   force =     0.01828277    0.00113949   -0.01009058
     atom   31 type  1   force =     0.00033910   -0.00100046    0.02129533
     atom   32 type  1   force =     0.00021468   -0.00027097    0.11222968
     atom   33 type  2   force =     0.00011920    0.00051371   -0.00006191
     atom   34 type  2   force =    -0.00294834   -0.00065716   -0.07292462
     atom   35 type  2   force =    -0.00024694    0.00027217   -0.00009335
     atom   36 type  2   force =     0.00010981    0.00013644   -0.00003314
     atom   37 type  1   force =     0.00012978   -0.00015646    0.00023644
     atom   38 type  1   force =     0.00007419    0.00005582    0.00029941
     atom   39 type  2   force =     0.00021325    0.00037687   -0.00015492
     atom   40 type  2   force =     0.00009546    0.00034610    0.00015867
     atom   41 type  2   force =    -0.00016465    0.00033301    0.00015130
     atom   42 type  2   force =    -0.00002849    0.00060218   -0.00002791
     atom   43 type  1   force =     0.00062200    0.00054032    0.00047712
     atom   44 type  1   force =     0.00014551    0.00031511   -0.00041184
     atom   45 type  2   force =     0.00010592    0.00005061    0.09970734
     atom   46 type  2   force =    -0.07919016    0.00012921   -0.03246244
     atom   47 type  2   force =     0.07908527    0.00056191   -0.03244508
     atom   48 type  3   force =     0.00043762    0.00030936   -0.00026383
     atom   49 type  4   force =     0.00072977   -0.00037423    0.00176805
     atom   50 type  5   force =     0.00056304   -0.00037963   -0.00036451
     atom   51 type  5   force =    -0.00022502    0.00037132   -0.00011209
     atom   52 type  5   force =    -0.00071800   -0.00059751    0.00024288
     atom   53 type  3   force =    -0.00052166   -0.02413314    0.00103864
     atom   54 type  5   force =    -0.00546887    0.01565072   -0.00128632
     atom   55 type  5   force =     0.00570422    0.00607580    0.00385402
     atom   56 type  5   force =     0.00014728    0.00259431   -0.00405529

     Total force =     0.426080     Total SCF correction =     0.000699
  @ DRIVER MODE: Message from server: STATUS
  @ DRIVER MODE: Message from server: GETFORCE
  @ DRIVER MODE: Returning v,forces,stress,ensemble

     Writing output data file ./calc.save/
  @ DRIVER MODE: Message from server: EXIT
  @ DRIVE MODE: Exiting

     General routines

     Parallel routines

   This run was terminated on:  21:53:35   2Aug2021

   JOB DONE.