     Program PWSCF v.6.7GPU starts on 16Sep2021 at 14:17:45

     R & G space division:  proc/nbgrp/npool/nimage =      10
     Reading input from /storage/home/hcoda1/3/ntian30/research/carbon/CxH_vib/H2O_calc/ads_slab/CH3NNH3H2O_a/out_0064/pw.inp
Warning: card &CELL ignored
Warning: card   CELL_DYNAMICS='IPI', ignored
Warning: card / ignored

     Current dimensions of program PWSCF are:
     Max number of different atomic species (ntypx) = 10
     Max number of k-points (npk) =  40000
     Max angular momentum in pseudopotentials (lmaxx) =  3
     Presently no symmetry can be used with electric field

     Message from routine cell_base_init:
     DEPRECATED: use true lattice parameter, not A to a.u. conversion factor

     IMPORTANT: XC functional enforced from input :
     Exchange-correlation= BEEF-VDW
                           (   1   4  43  14   2   0   0)
     Any further DFT definition will be discarded
     Please, verify this is what you really want

  @ DRIVER MODE: Connecting to
 qe_1139763_2852621.sched-torque.pace.gatech.edu679p5ycv_scratch
  using UNIX socket
  @ DRIVER MODE: Message from server: STATUS
  @ DRIVER MODE: Message from server: INIT
  @ DRIVER MODE: Receiving replica           0          -1
  @ DRIVER MODE: Receiving encoded integer          25
  @ DRIVER MODE:  SCF:  T  FORCE:  T  STRESS:  F  VC:  F  ENSEMBLE:  F
  @ DRIVER MODE:  SCF:  T  FORCE:  T  STRESS:  F  VC:  F  ENSEMBLE:  F

     Using Slab Decomposition

     bravais-lattice index     =            0
     lattice parameter (alat)  =       1.8897  a.u.
     unit-cell volume          =    6658.9804 (a.u.)^3
     number of atoms/cell      =           59
     number of atomic types    =            5
     number of electrons       =       406.00
     number of Kohn-Sham states=          213
     kinetic-energy cutoff     =      29.3995  Ry
     charge density cutoff     =     293.9946  Ry
     scf convergence threshold =      7.3E-08
     mixing beta               =       0.0500
     number of iterations used =            8  plain     mixing
     Exchange-correlation= BEEF-VDW
                           (   1   4  43  14   2   0   0)

     celldm(1)=   1.889726  celldm(2)=   0.000000  celldm(3)=   0.000000
     celldm(4)=   0.000000  celldm(5)=   0.000000  celldm(6)=   0.000000

     crystal axes: (cart. coord. in units of alat)
               a(1) = (   6.579727   0.000000   0.000000 )
               a(2) = (  -0.000775   5.961596   0.000000 )
               a(3) = (   0.000000   0.000000  25.155947 )

     reciprocal axes: (cart. coord. in units 2 pi/alat)
               b(1) = (  0.151982  0.000020  0.000000 )
               b(2) = (  0.000000  0.167740  0.000000 )
               b(3) = (  0.000000  0.000000  0.039752 )

     PseudoPot. # 1 for Ti read from file:
     /storage/coda1/p-amedford6/0/shared/rich_project_chbe-medford/medford-share/data/pseudos_module/espresso/nninc/pbe/van/Ti.UPF
     MD5 check sum: 8e4df49b7f0d34bbd5052bf3f5ea0213
     Pseudo is Ultrasoft, Zval = 12.0
     Generated by new atomic code, or converted to UPF format
     Using radial grid of  851 points,  6 beta functions with:
                l(1) =   0
                l(2) =   0
                l(3) =   1
                l(4) =   1
                l(5) =   2
                l(6) =   2
     Q(r) pseudized with  8 coefficients,  rinner =    1.000   1.000   1.000
                                                       1.000   1.000

     PseudoPot. # 2 for O  read from file:
     /storage/coda1/p-amedford6/0/shared/rich_project_chbe-medford/medford-share/data/pseudos_module/espresso/nninc/pbe/van/O.UPF
     MD5 check sum: 78c19812648e8988a0fe644b0f25305e
     Pseudo is Ultrasoft, Zval =  6.0
     Generated by new atomic code, or converted to UPF format
     Using radial grid of  737 points,  4 beta functions with:
                l(1) =   0
                l(2) =   0
                l(3) =   1
                l(4) =   1
     Q(r) pseudized with  8 coefficients,  rinner =    0.800   0.800   0.800

     PseudoPot. # 3 for N  read from file:
     /storage/coda1/p-amedford6/0/shared/rich_project_chbe-medford/medford-share/data/pseudos_module/espresso/nninc/pbe/van/N.UPF
     MD5 check sum: 90d10febe142ad51ac9d5be1deb811c4
     Pseudo is Ultrasoft, Zval =  5.0
     Generated by new atomic code, or converted to UPF format
     Using radial grid of  729 points,  4 beta functions with:
                l(1) =   0
                l(2) =   0
                l(3) =   1
                l(4) =   1
     Q(r) pseudized with  8 coefficients,  rinner =    0.800   0.800   0.800

     PseudoPot. # 4 for C  read from file:
     /storage/coda1/p-amedford6/0/shared/rich_project_chbe-medford/medford-share/data/pseudos_module/espresso/nninc/pbe/van/C.UPF
     MD5 check sum: 1a69bf6b8db32088f5b2163dbdb77a27
     Pseudo is Ultrasoft, Zval =  4.0
     Generated by new atomic code, or converted to UPF format
     Using radial grid of  721 points,  4 beta functions with:
                l(1) =   0
                l(2) =   0
                l(3) =   1
                l(4) =   1
     Q(r) pseudized with  8 coefficients,  rinner =    0.800   0.800   0.800

     PseudoPot. # 5 for H  read from file:
     /storage/coda1/p-amedford6/0/shared/rich_project_chbe-medford/medford-share/data/pseudos_module/espresso/nninc/pbe/van/H.UPF
     MD5 check sum: b5ee9d7bfd3a09ee7748110bda690ff7
     Pseudo is Ultrasoft, Zval =  1.0
     Generated by new atomic code, or converted to UPF format
     Using radial grid of  615 points,  1 beta functions with:
                l(1) =   0
     Q(r) pseudized with  8 coefficients,  rinner =    0.800

     atomic species   valence    mass     pseudopotential
        Ti1           12.00    47.86700     Ti( 1.00)
        O1             6.00    15.99900     O ( 1.00)
        N1             5.00    14.00700     N ( 1.00)
        C1             4.00    12.01100     C ( 1.00)
        H1             1.00     1.00800     H ( 1.00)

     No symmetry found

   Cartesian axes

     site n.     atom                  positions (alat units)
         1           Ti1 tau(   1) = (   0.0004258   2.9801865   6.0000000  )
         2           Ti1 tau(   2) = (   3.2906075   1.4906267   6.0002472  )
         3           O1  tau(   3) = (   0.0006271   0.0005054   7.9858123  )
         4           O1  tau(   4) = (   3.2906025   0.0005020   7.3038282  )
         5           O1  tau(   5) = (   4.5942328   1.4918067   9.2879030  )
         6           O1  tau(   6) = (   1.9868534   1.4903216   9.2879459  )
         7           Ti1 tau(   7) = (   3.2907910   2.8959150   9.1758416  )
         8           Ti1 tau(   8) = (   0.0015273   1.4827037   9.2680791  )
         9           O1  tau(   9) = (   3.2954490   0.0159868  11.2922163  )
        10           O1  tau(  10) = (   0.0116148   5.9584955  10.6183126  )
        11           O1  tau(  11) = (   1.3242731   1.5050266  12.6143764  )
        12           O1  tau(  12) = (   5.3073597   1.5103589  12.6267567  )
        13           Ti1 tau(  13) = (   6.4831477   3.0011104  12.7364612  )
        14           Ti1 tau(  14) = (   3.1751638   1.4975352  12.4748964  )
        15           O1  tau(  15) = (   0.0212859   5.9607631  14.5987152  )
        16           O1  tau(  16) = (   3.3058086   0.0238703  13.8910224  )
        17           O1  tau(  17) = (   4.5539421   1.5574750  15.9960573  )
        18           O1  tau(  18) = (   2.0731809   1.5597727  15.9888445  )
        19           Ti1 tau(  19) = (   3.3176354   3.0289328  15.6523405  )
        20           Ti1 tau(  20) = (   0.0198791   1.6227889  16.0606591  )
        21           O1  tau(  21) = (   3.2904802   0.0005063   4.7018136  )
        22           O1  tau(  22) = (   0.0290054   0.0533443  17.2129705  )
        23           O1  tau(  23) = (   1.3043587   1.4918075   6.0039043  )
        24           O1  tau(  24) = (   5.2767064   1.4903225   6.0039473  )
        25           Ti1 tau(  25) = (   0.0000382   5.9609847   6.0000000  )
        26           Ti1 tau(  26) = (   3.2902200   4.4714249   6.0002472  )
        27           O1  tau(  27) = (   0.0002396   2.9813036   7.9858123  )
        28           O1  tau(  28) = (   3.2902150   2.9813002   7.3038282  )
        29           O1  tau(  29) = (   4.5938453   4.4726049   9.2879030  )
        30           O1  tau(  30) = (   1.9864658   4.4711199   9.2879459  )
        31           Ti1 tau(  31) = (   3.2891106   5.8743827   9.1763621  )
        32           Ti1 tau(  32) = (   0.0006254   4.4649316   9.2693709  )
        33           O1  tau(  33) = (   3.2918316   2.9938763  11.2915017  )
        34           O1  tau(  34) = (   0.0092240   2.9805883  10.6323155  )
        35           O1  tau(  35) = (   1.3226278   4.4784642  12.6110361  )
        36           O1  tau(  36) = (   5.3078083   4.4770455  12.6250823  )
        37           Ti1 tau(  37) = (   6.5141033   0.0190828  12.7620745  )
        38           Ti1 tau(  38) = (   3.1722404   4.4939287  12.4712879  )
        39           O1  tau(  39) = (   0.0035410   2.9850241  14.6487316  )
        40           O1  tau(  40) = (   3.3118331   3.0109266  13.8519036  )
        41           O1  tau(  41) = (   4.5522870   4.5059159  16.0259181  )
        42           O1  tau(  42) = (   2.0778134   4.5048723  16.0185459  )
        43           Ti1 tau(  43) = (   3.3116469   0.0596163  15.7453941  )
        44           Ti1 tau(  44) = (   0.0183239   4.5967015  16.1059876  )
        45           O1  tau(  45) = (   3.2900926   2.9813045   4.7018136  )
        46           O1  tau(  46) = (   1.3039711   4.4726057   6.0039043  )
        47           O1  tau(  47) = (   5.2763189   4.4711207   6.0039473  )
        48           N1  tau(  48) = (   0.0600715   3.0265251  17.3188267  )
        49           N1  tau(  49) = (   6.2826239   2.5295367  22.6224490  )
        50           C1  tau(  50) = (   0.2859397   3.0149959  18.7399364  )
        51           H1  tau(  51) = (   0.1411154   4.0060466  19.1894648  )
        52           H1  tau(  52) = (   6.1913215   2.3105648  19.2421896  )
        53           H1  tau(  53) = (   1.3125146   2.6868920  18.9691123  )
        54           H1  tau(  54) = (   6.1000088   3.2491606  23.3142794  )
        55           H1  tau(  55) = (   0.1456284   1.7586669  23.1118534  )
        56           H1  tau(  56) = (   0.3974265   2.9048463  21.9856970  )
        57           O1  tau(  57) = (   3.2908421   0.1144680  18.1630233  )
        58           H1  tau(  58) = (   4.0679411   5.5788996  18.4486002  )
        59           H1  tau(  59) = (   2.5060966   5.5711546  18.4327789  )

     number of k points=    10  Fermi-Dirac smearing, width (Ry)=  0.0073
                       cart. coord. in units 2pi/alat
        k(    1) = (   0.0000000   0.0000000   0.0000000), wk =   0.1250000
        k(    2) = (   0.0000000   0.0419351   0.0000000), wk =   0.2500000
        k(    3) = (   0.0000000  -0.0838702   0.0000000), wk =   0.1250000
        k(    4) = (   0.0379955   0.0000049   0.0000000), wk =   0.2500000
        k(    5) = (   0.0379955   0.0419400   0.0000000), wk =   0.2500000
        k(    6) = (   0.0379955  -0.0838652   0.0000000), wk =   0.2500000
        k(    7) = (   0.0379955  -0.0419301   0.0000000), wk =   0.2500000
        k(    8) = (  -0.0759910  -0.0000099   0.0000000), wk =   0.1250000
        k(    9) = (  -0.0759910   0.0419252   0.0000000), wk =   0.2500000
        k(   10) = (  -0.0759910  -0.0838800   0.0000000), wk =   0.1250000

     Initial potential from superposition of free atoms

     starting charge  389.99912, renormalised to  406.00000

     negative rho (up, down):  6.916E-03 0.000E+00

     %%%%%%%%%%%%%%%%%%%%%%%%%%%%%%%%%%%%%%%%%%%%%%%%%%%%%%%%%%%%%%%%%%%%%%%%
     %                                                                      %
     % You are using vdW-DF, which was implemented by the Thonhauser group. %
     % Please cite the following two papers that made this development      %
     % possible and the two reviews that describe the various versions:     %
     %                                                                      %
     %   T. Thonhauser et al., PRL 115, 136402 (2015).                      %
     %   T. Thonhauser et al., PRB 76, 125112 (2007).                       %
     %   K. Berland et al., Rep. Prog. Phys. 78, 066501 (2015).             %
     %   D.C. Langreth et al., J. Phys.: Condens. Matter 21, 084203 (2009). %
     %                                                                      %
     %                                                                      %
     % If you are calculating the stress with vdW-DF, please also cite:     %
     %                                                                      %
     %   R. Sabatini et al., J. Phys.: Condens. Matter 24, 424209 (2012).   %
     %                                                                      %
     %%%%%%%%%%%%%%%%%%%%%%%%%%%%%%%%%%%%%%%%%%%%%%%%%%%%%%%%%%%%%%%%%%%%%%%%

     Adding external electric field

     Computed dipole along edir(3) :
        Dipole              -16.2336 Ry au,        -41.2616 Debye
        Dipole field         -0.0306 Ry au,

        Potential amp.        2.8398 Ry
        Total length         46.3494 bohr

     Starting wfcs are  308 atomic wfcs
  @ DRIVER MODE: Message from server: STATUS
  @ DRIVER MODE: Message from server: POSDATA
  @ DRIVER MODE: Reading and sharing cell
  @ DRIVER MODE: Reading and sharing positions
  @ DRIVER MODE: Received positions

     Self-consistent Calculation

     iteration #  1     ecut=    29.40 Ry     beta= 0.05
     Davidson diagonalization with overlap
     c_bands:  2 eigenvalues not converged
     c_bands:  3 eigenvalues not converged
     c_bands:  5 eigenvalues not converged
     c_bands:  3 eigenvalues not converged
     c_bands:  3 eigenvalues not converged
     c_bands:  3 eigenvalues not converged
     c_bands:  1 eigenvalues not converged
     c_bands:  5 eigenvalues not converged
     c_bands:  3 eigenvalues not converged
     ethr =  1.00E-05,  avg # of iterations = 20.6

[...]

     total energy              =   -2254.13891019 Ry
     estimated scf accuracy    <    8255.90657544 Ry

     iteration #  2     ecut=    29.40 Ry     beta= 0.05
     Davidson diagonalization with overlap
     ethr =  1.00E-02,  avg # of iterations = 25.8

[...]

     iteration # 56     ecut=    29.40 Ry     beta= 0.05
     Davidson diagonalization with overlap
     c_bands:  1 eigenvalues not converged
     ethr =  4.55E-07,  avg # of iterations =  9.0

[...]

     total energy              =   -2977.74432634 Ry
     estimated scf accuracy    <       0.00000011 Ry

     iteration # 77     ecut=    29.40 Ry     beta= 0.05
     Davidson diagonalization with overlap
     ethr =  2.14E-11,  avg # of iterations =  5.0

     negative rho (up, down):  8.782E-03 0.000E+00

     Adding external electric field

     Computed dipole along edir(3) :
        Dipole                0.7660 Ry au,          1.9469 Debye
        Dipole field          0.0014 Ry au,

        Potential amp.       -0.1340 Ry
        Total length         46.3494 bohr

     End of self-consistent calculation

          k = 0.0000 0.0000 0.0000 ( 18029 PWs)   bands (ev):

   -56.2617 -56.2281 -55.3789 -55.3449 -55.3367 -55.3017 -55.1538 -55.1185
   -55.0318 -54.9116 -54.8932 -54.8916 -54.8777 -54.8067 -54.3910 -54.3412
   -32.6885 -32.5361 -32.5079 -32.4380 -32.3470 -32.3146 -31.8467 -31.8189
   -31.6891 -31.6447 -31.5959 -31.5780 -31.5478 -31.5387 -31.5097 -31.5047
   -31.4861 -31.4798 -31.4573 -31.4431 -31.4297 -31.3805 -31.3702 -31.3314
   -31.3190 -31.3026 -31.2935 -31.2800 -31.2560 -31.2550 -31.2511 -31.2269
   -31.1320 -31.1216 -31.0813 -31.0711 -31.0434 -31.0385 -31.0294 -31.0108
   -30.9802 -30.9276 -30.9056 -30.6346 -30.6123 -30.5810 -30.5601 -30.4515
   -18.4688 -16.4175 -15.9513 -15.7079 -15.6184 -15.5352 -15.4964 -15.4523
   -15.3000 -15.2328 -15.2102 -15.2098 -15.1390 -14.9908 -14.9438 -14.8458
   -14.7520 -14.6171 -14.6002 -14.5670 -14.5488 -14.5161 -14.5091 -14.4570
   -14.2941 -14.2583 -14.2104 -14.1469 -14.0620 -14.0407 -13.8371 -13.4100
   -13.3003 -12.6435  -7.4496  -6.2821  -4.1069  -4.0863  -3.9848  -3.4510
    -3.1815  -3.1541  -3.0254  -3.0206  -2.9750  -2.8347  -2.8250  -2.7540
    -2.7303  -2.6898  -2.6168  -2.5838  -2.5340  -2.4451  -2.4327  -2.4127
    -2.3993  -2.3835  -2.2620  -2.2205  -2.1679  -2.0646  -1.9564  -1.9133
    -1.8863  -1.8425  -1.8043  -1.7573  -1.7447  -1.7302  -1.7238  -1.6126
    -1.4983  -1.4657  -1.4505  -1.4045  -1.3857  -1.3772  -1.3550  -1.2701
    -1.1606  -1.0668  -0.9997  -0.9873  -0.9201  -0.9123  -0.8530  -0.7376
    -0.6765  -0.6723  -0.6559  -0.5523  -0.5258  -0.4541  -0.3911  -0.3334
    -0.2788  -0.2162  -0.1659  -0.1433  -0.1304  -0.0315   0.0402   0.0636
     0.1147   0.1240   0.1321   0.1539   0.2501   0.2862   0.3600   0.4045
     0.4407   0.4851   0.5679   0.6182   0.6859   0.7358   0.7586   0.8205
     0.8737   0.9291   1.0244   1.0725   1.0787   1.0871   1.1100   1.1704
     1.1842   1.2604   1.3434   1.3586   1.4311   1.4996   1.6602   1.6993
     1.9494   2.0208   2.6473   3.0155   3.1768   3.4720   3.6617   3.7992
     3.9947   4.0052   4.0123   4.2384   4.2618

[...]

          k = 0.0380-0.0419 0.0000 ( 17876 PWs)   bands (ev):

[...]

          k =-0.0760-0.0000 0.0000 ( 17886 PWs)   bands (ev):

[...]

          k =-0.0760-0.0839 0.0000 ( 17948 PWs)   bands (ev):

   -56.2451 -56.2446 -55.3639 -55.3595 -55.3241 -55.3144 -55.1372 -55.1349
   -55.0296 -54.8947 -54.8945 -54.8937 -54.8896 -54.8103 -54.3840 -54.3481
   -32.5220 -32.5216 -32.5054 -32.5052 -32.3912 -32.3908 -31.6704 -31.6645
   -31.6547 -31.6472 -31.5709 -31.5558 -31.5539 -31.5496 -31.5433 -31.5418
   -31.5361 -31.5274 -31.4952 -31.4788 -31.3827 -31.3806 -31.3470 -31.3412
   -31.3220 -31.2858 -31.2476 -31.2400 -31.2398 -31.2389 -31.2147 -31.1924
   -31.1497 -31.1194 -31.1192 -31.1156 -31.0926 -31.0803 -31.0802 -31.0654
   -31.0484 -31.0130 -30.7663 -30.7035 -30.6101 -30.5859 -30.5680 -30.5219
   -18.4679 -15.7681 -15.7661 -15.7309 -15.7302 -15.4633 -15.4599 -15.3665
   -15.3612 -15.2267 -15.1098 -15.0082 -14.9955 -14.9599 -14.9328 -14.8208
   -14.8000 -14.7908 -14.7807 -14.6688 -14.6488 -14.6036 -14.5924 -14.5759
   -14.5659 -14.2722 -14.2590 -14.1561 -14.1323 -14.0400 -13.9904 -13.4039
   -13.4039 -12.6621  -7.4433  -6.2746  -4.1168  -4.0880  -2.8637  -2.8575
    -2.8156  -2.8030  -2.8021  -2.7436  -2.6376  -2.5981  -2.5962  -2.5950
    -2.5120  -2.4464  -2.4385  -2.3671  -2.3342  -2.3149  -2.2561  -2.2460
    -2.1807  -2.1545  -2.1462  -2.1296  -2.1061  -2.1049  -2.0087  -1.9459
    -1.8942  -1.8907  -1.8233  -1.8050  -1.7412  -1.7205  -1.7091  -1.6775
    -1.6357  -1.6125  -1.5809  -1.5471  -1.5061  -1.4466  -1.2800  -1.2710
    -1.2615  -1.2399  -1.1147  -1.1073  -1.0769  -1.0468  -1.0409  -0.9670
    -0.9173  -0.8822  -0.8247  -0.7413  -0.7189  -0.6169  -0.5659  -0.5197
    -0.4641  -0.3573  -0.3399  -0.3297  -0.3200  -0.2898  -0.2233  -0.1944
    -0.1787  -0.0578  -0.0384   0.0146   0.0358   0.0918   0.1183   0.1828
     0.2098   0.2814   0.2931   0.3321   0.4062   0.4875   0.5217   0.5700
     0.5746   0.8508   0.9246   1.0547   1.0633   1.1226   1.1809   1.2526
     1.3122   1.3444   1.3714   1.4944   1.4986   1.5079   1.5085   1.5800
     1.5850   1.9270   2.5246   3.5914   3.5917   3.6582   3.6590   3.9796
     3.9859   4.0928   4.1031   4.2646   4.2794

     the Fermi energy is     2.8434 ev

!    total energy              =   -2977.74438127 Ry
     estimated scf accuracy    <       0.00000004 Ry
     smearing contrib. (-TS)   =      -0.00445499 Ry
     internal energy E=F+TS    =   -2977.73992628 Ry

     The total energy is F=E-TS. E is the sum of the following terms:
     one-electron contribution =  -22876.02064157 Ry
     hartree contribution      =   11535.72660287 Ry
     xc contribution           =    -496.33164754 Ry
     ewald contribution        =    8858.88465277 Ry
     electric field correction =       0.00110719 Ry

     convergence has been achieved in  77 iterations

     Forces acting on atoms (cartesian axes, Ry/au):

     atom    1 type  1   force =    -0.00004179   -0.00046306    0.12450361
     atom    2 type  1   force =    -0.00008037   -0.00048538   -0.15978018
     atom    3 type  2   force =     0.00019315   -0.00024709   -0.06790905
     atom    4 type  2   force =    -0.00000703   -0.00011764    0.02620252
     atom    5 type  2   force =    -0.01448465    0.00181606   -0.00991071
     atom    6 type  2   force =     0.01626565    0.00223939   -0.01025844
     atom    7 type  1   force =     0.00071891   -0.00386895    0.02890246
     atom    8 type  1   force =    -0.00033984   -0.00440233    0.10954654
     atom    9 type  2   force =     0.00024057   -0.00029277   -0.00051948
     atom   10 type  2   force =    -0.00231400    0.00256389   -0.07333968
     atom   11 type  2   force =    -0.00002971   -0.00033623   -0.00000125
     atom   12 type  2   force =    -0.00015794   -0.00082749    0.00002281
     atom   13 type  1   force =     0.00106449   -0.00040593    0.00012936
     atom   14 type  1   force =    -0.00064950    0.00064416   -0.00007995
     atom   15 type  2   force =    -0.00028803   -0.00038228   -0.00073172
     atom   16 type  2   force =    -0.00001474   -0.00010804    0.00067507
     atom   17 type  2   force =     0.00019005   -0.00093803   -0.00017910
     atom   18 type  2   force =     0.00047083   -0.00051410    0.00008816
     atom   19 type  1   force =    -0.00114853   -0.00005835   -0.00093181
     atom   20 type  1   force =     0.00086799   -0.00010372   -0.00048009
     atom   21 type  2   force =     0.00004619   -0.00003743    0.09941180
     atom   22 type  2   force =     0.00000544   -0.00019552   -0.00033761
     atom   23 type  2   force =    -0.07967586   -0.00005931   -0.03249983
     atom   24 type  2   force =     0.07951903    0.00037852   -0.03254652
     atom   25 type  1   force =    -0.00000847   -0.00056861    0.12417417
     atom   26 type  1   force =    -0.00008228   -0.00062202   -0.15992970
     atom   27 type  2   force =     0.00029991   -0.00036521   -0.06696446
     atom   28 type  2   force =    -0.00002049    0.00014779    0.02512078
     atom   29 type  2   force =    -0.01510856    0.00192526   -0.00985103
     atom   30 type  2   force =     0.01678467    0.00242631   -0.01016560
     atom   31 type  1   force =     0.00074307   -0.00075673    0.02406838
     atom   32 type  1   force =    -0.00027505    0.00204679    0.11016650
     atom   33 type  2   force =     0.00007754    0.00029334    0.00057605
     atom   34 type  2   force =    -0.00193598    0.00199797   -0.07165633
     atom   35 type  2   force =    -0.00002302    0.00034381   -0.00001038
     atom   36 type  2   force =    -0.00053493    0.00061160   -0.00005552
     atom   37 type  1   force =     0.00117915    0.00042200    0.00031181
     atom   38 type  1   force =    -0.00054856   -0.00088986   -0.00020321
     atom   39 type  2   force =    -0.00027659   -0.00014679    0.00089432
     atom   40 type  2   force =     0.00017875   -0.00013103    0.00021858
     atom   41 type  2   force =     0.00104755    0.00017552    0.00011913
     atom   42 type  2   force =    -0.00051064   -0.00020798    0.00055487
     atom   43 type  1   force =    -0.00162701   -0.00000664   -0.00033590
     atom   44 type  1   force =     0.00089185   -0.00017454   -0.00039620
     atom   45 type  2   force =     0.00002444   -0.00004929    0.09937602
     atom   46 type  2   force =    -0.07969119    0.00000220   -0.03251396
     atom   47 type  2   force =     0.07954339    0.00043683   -0.03253630
     atom   48 type  3   force =    -0.00086327   -0.00078447   -0.00043026
     atom   49 type  3   force =    -0.00032875   -0.00048689    0.00131963
     atom   50 type  4   force =    -0.00022920   -0.00008824    0.00004199
     atom   51 type  5   force =    -0.00022277    0.00037407    0.00027514
     atom   52 type  5   force =    -0.00006612   -0.00052930    0.00073696
     atom   53 type  5   force =     0.00050662   -0.00014741    0.00019481
     atom   54 type  5   force =     0.00006435   -0.00023602   -0.00059872
     atom   55 type  5   force =     0.00003114    0.00031595   -0.00029641
     atom   56 type  5   force =     0.00028624    0.00036166   -0.00182058
     atom   57 type  2   force =    -0.00669807    0.00551086   -0.00387307
     atom   58 type  5   force =     0.00690872   -0.00481508    0.00330454
     atom   59 type  5   force =     0.00013325   -0.00018422    0.00020706

     Total force =     0.423691     Total SCF correction =     0.000763
  @ DRIVER MODE: Message from server: STATUS
  @ DRIVER MODE: Message from server: GETFORCE
  @ DRIVER MODE: Returning v,forces,stress,ensemble

     Writing output data file ./calc.save/
  @ DRIVER MODE: Message from server: EXIT
  @ DRIVE MODE: Exiting

     General routines

     Parallel routines

   This run was terminated on:  14:39:14  16Sep2021

   JOB DONE.