     Program PWSCF v.6.7GPU starts on 28Sep2021 at 22: 1:15

     R & G space division:  proc/nbgrp/npool/nimage =       8
     Reading input from /storage/home/hcoda1/3/ntian30/research/carbon/CxH_vib/H2O_calc/ads_slab/CHHO_a/out_0024/pw.inp
Warning: card &CELL ignored
Warning: card   CELL_DYNAMICS='IPI', ignored
Warning: card / ignored

     Current dimensions of program PWSCF are:
     Max number of different atomic species (ntypx) = 10
     Max number of k-points (npk) =  40000
     Max angular momentum in pseudopotentials (lmaxx) =  3
     Presently no symmetry can be used with electric field

     Message from routine cell_base_init:
     DEPRECATED: use true lattice parameter, not A to a.u. conversion factor

     IMPORTANT: XC functional enforced from input :
     Exchange-correlation= BEEF-VDW
                           (   1   4  43  14   2   0   0)
     Any further DFT definition will be discarded
     Please, verify this is what you really want

  @ DRIVER MODE: Connecting to
 qe_1139763_3011330.sched-torque.pace.gatech.eduxd9m12zh_scratch
  using UNIX socket
  @ DRIVER MODE: Message from server: STATUS
  @ DRIVER MODE: Message from server: INIT
  @ DRIVER MODE: Receiving replica           0          -1
  @ DRIVER MODE: Receiving encoded integer          25
  @ DRIVER MODE:  SCF:  T  FORCE:  T  STRESS:  F  VC:  F  ENSEMBLE:  F
  @ DRIVER MODE:  SCF:  T  FORCE:  T  STRESS:  F  VC:  F  ENSEMBLE:  F

     Using Slab Decomposition

     bravais-lattice index     =            0
     lattice parameter (alat)  =       1.8897  a.u.
     unit-cell volume          =    6658.9804 (a.u.)^3
     number of atoms/cell      =           51
     number of atomic types    =            4
     number of electrons       =       390.00
     number of Kohn-Sham states=          205
     kinetic-energy cutoff     =      29.3995  Ry
     charge density cutoff     =     293.9946  Ry
     scf convergence threshold =      7.3E-08
     mixing beta               =       0.0500
     number of iterations used =            8  plain     mixing
     Exchange-correlation= BEEF-VDW
                           (   1   4  43  14   2   0   0)

     celldm(1)=   1.889726  celldm(2)=   0.000000  celldm(3)=   0.000000
     celldm(4)=   0.000000  celldm(5)=   0.000000  celldm(6)=   0.000000

     crystal axes: (cart. coord. in units of alat)
               a(1) = (   6.579727   0.000000   0.000000 )
               a(2) = (  -0.000775   5.961596   0.000000 )
               a(3) = (   0.000000   0.000000  25.155947 )

     reciprocal axes: (cart. coord. in units 2 pi/alat)
               b(1) = (  0.151982  0.000020  0.000000 )
               b(2) = (  0.000000  0.167740  0.000000 )
               b(3) = (  0.000000  0.000000  0.039752 )

     PseudoPot. # 1 for Ti read from file:
     /storage/coda1/p-amedford6/0/shared/rich_project_chbe-medford/medford-share/data/pseudos_module/espresso/nninc/pbe/van/Ti.UPF
     MD5 check sum: 8e4df49b7f0d34bbd5052bf3f5ea0213
     Pseudo is Ultrasoft, Zval = 12.0
     Generated by new atomic code, or converted to UPF format
     Using radial grid of  851 points,  6 beta functions with:
                l(1) =   0
                l(2) =   0
                l(3) =   1
                l(4) =   1
                l(5) =   2
                l(6) =   2
     Q(r) pseudized with  8 coefficients,  rinner =    1.000   1.000   1.000
                                                       1.000   1.000

     PseudoPot. # 2 for O  read from file:
     /storage/coda1/p-amedford6/0/shared/rich_project_chbe-medford/medford-share/data/pseudos_module/espresso/nninc/pbe/van/O.UPF
     MD5 check sum: 78c19812648e8988a0fe644b0f25305e
     Pseudo is Ultrasoft, Zval =  6.0
     Generated by new atomic code, or converted to UPF format
     Using radial grid of  737 points,  4 beta functions with:
                l(1) =   0
                l(2) =   0
                l(3) =   1
                l(4) =   1
     Q(r) pseudized with  8 coefficients,  rinner =    0.800   0.800   0.800

     PseudoPot. # 3 for C  read from file:
     /storage/coda1/p-amedford6/0/shared/rich_project_chbe-medford/medford-share/data/pseudos_module/espresso/nninc/pbe/van/C.UPF
     MD5 check sum: 1a69bf6b8db32088f5b2163dbdb77a27
     Pseudo is Ultrasoft, Zval =  4.0
     Generated by new atomic code, or converted to UPF format
     Using radial grid of  721 points,  4 beta functions with:
                l(1) =   0
                l(2) =   0
                l(3) =   1
                l(4) =   1
     Q(r) pseudized with  8 coefficients,  rinner =    0.800   0.800   0.800

     PseudoPot. # 4 for H  read from file:
     /storage/coda1/p-amedford6/0/shared/rich_project_chbe-medford/medford-share/data/pseudos_module/espresso/nninc/pbe/van/H.UPF
     MD5 check sum: b5ee9d7bfd3a09ee7748110bda690ff7
     Pseudo is Ultrasoft, Zval =  1.0
     Generated by new atomic code, or converted to UPF format
     Using radial grid of  615 points,  1 beta functions with:
                l(1) =   0
     Q(r) pseudized with  8 coefficients,  rinner =    0.800

     atomic species   valence    mass     pseudopotential
        Ti1           12.00    47.86700     Ti( 1.00)
        O1             6.00    15.99900     O ( 1.00)
        C1             4.00    12.01100     C ( 1.00)
        H1             1.00     1.00800     H ( 1.00)

     No symmetry found

   Cartesian axes

     site n.     atom                  positions (alat units)
         1           Ti1 tau(   1) = (   0.0004258   2.9801865   6.0000000  )
         2           Ti1 tau(   2) = (   3.2906075   1.4906267   6.0002472  )
         3           O1  tau(   3) = (   0.0006271   0.0005054   7.9858123  )
         4           O1  tau(   4) = (   3.2906025   0.0005020   7.3038282  )
         5           O1  tau(   5) = (   4.5942328   1.4918067   9.2879030  )
         6           O1  tau(   6) = (   1.9868534   1.4903216   9.2879459  )
         7           Ti1 tau(   7) = (   3.2576716   2.8711746   9.2039182  )
         8           Ti1 tau(   8) = (   6.5366639   1.4374725   9.3495247  )
         9           O1  tau(   9) = (   3.2654967   5.9220709  11.3209648  )
        10           O1  tau(  10) = (   0.0059489   5.9503157  10.5690854  )
        11           O1  tau(  11) = (   1.2710110   1.4830968  12.6026389  )
        12           O1  tau(  12) = (   5.2956248   1.4563849  12.6219738  )
        13           Ti1 tau(  13) = (   6.4707115   3.0232854  12.7046045  )
        14           Ti1 tau(  14) = (   3.3012427   1.2792539  12.6712786  )
        15           O1  tau(  15) = (   0.1208522   5.9439793  14.6184240  )
        16           O1  tau(  16) = (   3.2955454   0.0555021  13.9474554  )
        17           O1  tau(  17) = (   4.3710900   1.5417649  16.0729971  )
        18           O1  tau(  18) = (   1.7386421   2.0841158  16.4311239  )
        19           Ti1 tau(  19) = (   3.2301957   3.0269898  15.6570758  )
        20           Ti1 tau(  20) = (   6.3022331   1.4673853  15.8568112  )
        21           O1  tau(  21) = (   3.2904802   0.0005063   4.7018136  )
        22           O1  tau(  22) = (   6.3638003   5.9514110  17.1305022  )
        23           O1  tau(  23) = (   1.3043587   1.4918075   6.0039043  )
        24           O1  tau(  24) = (   5.2767064   1.4903225   6.0039473  )
        25           Ti1 tau(  25) = (   0.0000382   5.9609847   6.0000000  )
        26           Ti1 tau(  26) = (   3.2902200   4.4714249   6.0002472  )
        27           O1  tau(  27) = (   0.0002396   2.9813036   7.9858123  )
        28           O1  tau(  28) = (   3.2902150   2.9813002   7.3038282  )
        29           O1  tau(  29) = (   4.5938453   4.4726049   9.2879030  )
        30           O1  tau(  30) = (   1.9864658   4.4711199   9.2879459  )
        31           Ti1 tau(  31) = (   3.2576593   5.8570409   9.1743550  )
        32           Ti1 tau(  32) = (   6.5358986   4.4093296   9.3482377  )
        33           O1  tau(  33) = (   3.2940825   2.9875588  11.2901943  )
        34           O1  tau(  34) = (   6.5570357   2.9690702  10.5578446  )
        35           O1  tau(  35) = (   1.2556184   4.4285683  12.6007990  )
        36           O1  tau(  36) = (   5.2653856   4.4527926  12.6146307  )
        37           Ti1 tau(  37) = (   0.0986422   0.0400065  12.6561080  )
        38           Ti1 tau(  38) = (   3.2648468   4.3768915  12.4074939  )
        39           O1  tau(  39) = (   6.4357771   2.9845043  14.6319670  )
        40           O1  tau(  40) = (   3.2191030   2.9668167  13.8952198  )
        41           O1  tau(  41) = (   4.5664177   4.3244647  16.1555655  )
        42           O1  tau(  42) = (   2.0966903   4.6357478  16.0503417  )
        43           Ti1 tau(  43) = (   3.4732119   5.7943257  16.4097380  )
        44           Ti1 tau(  44) = (   0.0705528   4.5403211  16.0661977  )
        45           O1  tau(  45) = (   3.2900926   2.9813045   4.7018136  )
        46           O1  tau(  46) = (   1.3039711   4.4726057   6.0039043  )
        47           O1  tau(  47) = (   5.2763189   4.4711207   6.0039473  )
        48           C1  tau(  48) = (   0.6899253   2.7405959  17.1512775  )
        49           H1  tau(  49) = (   0.8031679   2.6269330  18.2321311  )
        50           O1  tau(  50) = (   3.3389373   5.9192928  18.2161996  )
        51           H1  tau(  51) = (   4.0498012   0.2866715  18.7970949  )

     number of k points=    10  Fermi-Dirac smearing, width (Ry)=  0.0073
                       cart. coord. in units 2pi/alat
        k(    1) = (   0.0000000   0.0000000   0.0000000), wk =   0.1250000
        k(    2) = (   0.0000000   0.0419351   0.0000000), wk =   0.2500000
        k(    3) = (   0.0000000  -0.0838702   0.0000000), wk =   0.1250000
        k(    4) = (   0.0379955   0.0000049   0.0000000), wk =   0.2500000
        k(    5) = (   0.0379955   0.0419400   0.0000000), wk =   0.2500000
        k(    6) = (   0.0379955  -0.0838652   0.0000000), wk =   0.2500000
        k(    7) = (   0.0379955  -0.0419301   0.0000000), wk =   0.2500000
        k(    8) = (  -0.0759910  -0.0000099   0.0000000), wk =   0.1250000
        k(    9) = (  -0.0759910   0.0419252   0.0000000), wk =   0.2500000
        k(   10) = (  -0.0759910  -0.0838800   0.0000000), wk =   0.1250000

     Initial potential from superposition of free atoms

     starting charge  373.99919, renormalised to  390.00000

     negative rho (up, down):  1.954E-02 0.000E+00

     %%%%%%%%%%%%%%%%%%%%%%%%%%%%%%%%%%%%%%%%%%%%%%%%%%%%%%%%%%%%%%%%%%%%%%%%
     %                                                                      %
     % You are using vdW-DF, which was implemented by the Thonhauser group. %
     % Please cite the following two papers that made this development      %
     % possible and the two reviews that describe the various versions:     %
     %                                                                      %
     %   T. Thonhauser et al., PRL 115, 136402 (2015).                      %
     %   T. Thonhauser et al., PRB 76, 125112 (2007).                       %
     %   K. Berland et al., Rep. Prog. Phys. 78, 066501 (2015).             %
     %   D.C. Langreth et al., J. Phys.: Condens. Matter 21, 084203 (2009). %
     %                                                                      %
     %                                                                      %
     % If you are calculating the stress with vdW-DF, please also cite:     %
     %                                                                      %
     %   R. Sabatini et al., J. Phys.: Condens. Matter 24, 424209 (2012).   %
     %                                                                      %
     %%%%%%%%%%%%%%%%%%%%%%%%%%%%%%%%%%%%%%%%%%%%%%%%%%%%%%%%%%%%%%%%%%%%%%%%

     Adding external electric field

     Computed dipole along edir(3) :
        Dipole               -3.9300 Ry au,         -9.9891 Debye
        Dipole field         -0.0074 Ry au,

        Potential amp.        0.6875 Ry
        Total length         46.3494 bohr

     Starting wfcs are  294 atomic wfcs
  @ DRIVER MODE: Message from server: STATUS
  @ DRIVER MODE: Message from server: POSDATA
  @ DRIVER MODE: Reading and sharing cell
  @ DRIVER MODE: Reading and sharing positions
  @ DRIVER MODE: Received positions

     Self-consistent Calculation

     iteration #  1     ecut=    29.40 Ry     beta= 0.05
     Davidson diagonalization with overlap
     c_bands:  5 eigenvalues not converged
     c_bands:  2 eigenvalues not converged
     c_bands:  4 eigenvalues not converged
     c_bands:  4 eigenvalues not converged
     c_bands:  1 eigenvalues not converged
     c_bands:  4 eigenvalues not converged
     c_bands:  1 eigenvalues not converged
     c_bands:  1 eigenvalues not converged
     c_bands:  3 eigenvalues not converged
     ethr =  1.00E-05,  avg # of iterations = 20.8

[...]

     total energy              =   -2904.76639413 Ry
     estimated scf accuracy    <     308.08112242 Ry

     iteration #  2     ecut=    29.40 Ry     beta= 0.05
     Davidson diagonalization with overlap
     ethr =  1.00E-02,  avg # of iterations = 12.2

[...]

     iteration # 36     ecut=    29.40 Ry     beta= 0.05
     Davidson diagonalization with overlap
     c_bands:  1 eigenvalues not converged
     ethr =  3.12E-07,  avg # of iterations =  7.4

[...]

     total energy              =   -2930.00834190 Ry
     estimated scf accuracy    <       0.00000017 Ry

     iteration # 59     ecut=    29.40 Ry     beta= 0.05
     Davidson diagonalization with overlap
     ethr =  4.25E-11,  avg # of iterations =  4.8

     negative rho (up, down):  1.951E-02 0.000E+00

     Adding external electric field

     Computed dipole along edir(3) :
        Dipole                0.5505 Ry au,          1.3992 Debye
        Dipole field          0.0010 Ry au,

        Potential amp.       -0.0963 Ry
        Total length         46.3494 bohr

     End of self-consistent calculation

          k = 0.0000 0.0000 0.0000 ( 18029 PWs)   bands (ev):

   -56.4283 -56.3932 -56.1658 -55.9742 -55.8945 -55.8700 -55.8565 -55.8270
   -55.7696 -55.7265 -55.7251 -55.5591 -55.4797 -55.4339 -55.1198 -55.0858
   -32.8532 -32.6929 -32.6625 -32.6368 -32.6088 -32.5367 -32.5175 -32.4798
   -32.3927 -32.3798 -32.3791 -32.3744 -32.2613 -32.2416 -32.2220 -32.1982
   -32.1662 -32.1353 -32.1113 -32.0783 -32.0695 -32.0600 -32.0303 -32.0297
   -32.0215 -32.0008 -31.9864 -31.9818 -31.9811 -31.9637 -31.9292 -31.9255
   -31.9155 -31.8839 -31.8282 -31.8157 -31.7983 -31.7916 -31.7688 -31.7116
   -31.6104 -31.5168 -31.4942 -31.4547 -31.4306 -31.3342 -31.2490 -31.1377
   -18.1587 -17.0642 -16.7743 -16.6445 -16.5079 -16.3141 -16.2596 -16.1326
   -15.9484 -15.8499 -15.7820 -15.7418 -15.6631 -15.6607 -15.5800 -15.5284
   -15.5121 -15.4789 -15.4582 -15.4281 -15.3794 -15.3754 -15.3168 -15.2799
   -15.2356 -15.1821 -15.1294 -15.0467 -15.0035 -14.8139 -13.6193 -13.5084
    -8.0229  -4.8056  -4.5512  -4.1530  -4.0468  -4.0111  -3.8890  -3.7522
    -3.6991  -3.6329  -3.4200  -3.4000  -3.3000  -3.2376  -3.2194  -3.1344
    -3.0837  -3.0270  -3.0213  -2.9565  -2.9127  -2.8786  -2.8318  -2.7812
    -2.6932  -2.6862  -2.6622  -2.5985  -2.5836  -2.4822  -2.4735  -2.3746
    -2.3577  -2.3503  -2.3298  -2.2987  -2.2699  -2.1704  -2.1558  -2.1141
    -2.0169  -1.9977  -1.8954  -1.7796  -1.6761  -1.6672  -1.6400  -1.5478
    -1.5023  -1.4904  -1.4534  -1.4075  -1.3816  -1.3243  -1.2769  -1.2195
    -1.1750  -1.0595  -1.0073  -0.9600  -0.8768  -0.8549  -0.7894  -0.7707
    -0.6702  -0.6384  -0.5839  -0.5717  -0.5333  -0.4614  -0.3808  -0.3485
    -0.3212  -0.2695  -0.2337  -0.1765  -0.1589  -0.1496  -0.1101  -0.0726
    -0.0396   0.0434   0.0543   0.1222   0.2082   0.3002   0.3290   0.4300
     0.4628   0.5974   0.6330   0.8714   0.9011   0.9105   1.0946   1.1410
     1.4618   1.5125   2.2018   2.8513   3.0005   3.2833   3.2897   3.3563
     3.4034   3.4965   3.5455   3.6347   3.7441

[...]

          k = 0.0380-0.0419 0.0000 ( 17876 PWs)   bands (ev):

[...]

          k =-0.0760-0.0000 0.0000 ( 17886 PWs)   bands (ev):

[...]

          k =-0.0760-0.0839 0.0000 ( 17948 PWs)   bands (ev):

   -56.4158 -56.4055 -56.1649 -55.9749 -55.8842 -55.8666 -55.8610 -55.8357
   -55.7616 -55.7336 -55.7242 -55.5606 -55.4737 -55.4398 -55.1030 -55.1025
   -32.6836 -32.6749 -32.6710 -32.6657 -32.5899 -32.5656 -32.5574 -32.5212
   -32.4090 -32.3611 -32.3001 -32.2084 -32.2018 -32.1978 -32.1907 -32.1754
   -32.1320 -32.1107 -32.1085 -32.0966 -32.0951 -32.0924 -32.0824 -32.0578
   -32.0450 -32.0276 -32.0156 -32.0067 -31.9826 -31.9797 -31.9620 -31.9381
   -31.9217 -31.9093 -31.8927 -31.8238 -31.8181 -31.8060 -31.7735 -31.7673
   -31.5969 -31.5450 -31.4438 -31.4434 -31.3319 -31.3303 -31.2915 -31.2907
   -18.1202 -17.0488 -16.4777 -16.4461 -16.2378 -16.1352 -15.9649 -15.9416
   -15.9372 -15.9043 -15.8495 -15.8358 -15.8189 -15.6705 -15.6472 -15.6309
   -15.5685 -15.5013 -15.4596 -15.4331 -15.4091 -15.3723 -15.3568 -15.3453
   -15.3436 -15.3282 -15.2743 -15.1959 -15.1806 -14.9342 -13.6120 -13.6113
    -8.0218  -4.7997  -4.3705  -3.7378  -3.5380  -3.4710  -3.4334  -3.2733
    -3.1821  -3.1718  -3.1015  -3.0896  -3.0403  -3.0025  -2.9644  -2.9335
    -2.9154  -2.8653  -2.8546  -2.8183  -2.7920  -2.7696  -2.7614  -2.7500
    -2.7247  -2.7185  -2.7005  -2.6877  -2.6679  -2.6465  -2.6118  -2.5682
    -2.5031  -2.4321  -2.2994  -2.2839  -2.2596  -2.1888  -2.1693  -2.1179
    -2.1021  -2.0814  -2.0631  -2.0149  -1.9801  -1.9526  -1.7004  -1.6788
    -1.6251  -1.5732  -1.5187  -1.4864  -1.4572  -1.4422  -1.3799  -1.2736
    -1.2348  -1.1981  -1.1798  -1.1588  -1.1542  -1.0772  -1.0508  -0.9898
    -0.9426  -0.9120  -0.8352  -0.7990  -0.7682  -0.7484  -0.6908  -0.6276
    -0.6123  -0.5349  -0.4878  -0.4672  -0.4096  -0.2734  -0.2413  -0.1402
    -0.0894  -0.0506   0.0559   0.1771   0.2430   0.2486   0.3600   0.3874
     0.4056   0.5041   0.5565   0.5762   0.6143   0.7611   1.2877   1.3023
     1.3122   1.3137   2.3485   3.3885   3.4013   3.4071   3.4170   3.4364
     3.5478   3.6158   3.6803   3.7567   3.7731

     the Fermi energy is     2.6346 ev

!    total energy              =   -2930.00838335 Ry
     estimated scf accuracy    <       0.00000007 Ry
     smearing contrib. (-TS)   =      -0.00365970 Ry
     internal energy E=F+TS    =   -2930.00472365 Ry

     The total energy is F=E-TS. E is the sum of the following terms:
     one-electron contribution =  -24472.55837670 Ry
     hartree contribution      =   12319.98555276 Ry
     xc contribution           =    -481.33439214 Ry
     ewald contribution        =    9703.90192056 Ry
     electric field correction =       0.00057187 Ry

     convergence has been achieved in  59 iterations

     Forces acting on atoms (cartesian axes, Ry/au):

     atom    1 type  1   force =     0.00045458   -0.00032813    0.13413691
     atom    2 type  1   force =     0.00011897    0.00528490   -0.16227907
     atom    3 type  2   force =    -0.00070450    0.00272635   -0.05106666
     atom    4 type  2   force =    -0.00084166   -0.00120570    0.04168943
     atom    5 type  2   force =    -0.01386687   -0.00296511    0.00212321
     atom    6 type  2   force =     0.01179102   -0.00439230    0.00139891
     atom    7 type  1   force =     0.00052819   -0.00030076   -0.00024362
     atom    8 type  1   force =    -0.00006695   -0.00037836    0.00020559
     atom    9 type  2   force =     0.00018078   -0.00023882   -0.00008924
     atom   10 type  2   force =    -0.00025728    0.00015408   -0.00037532
     atom   11 type  2   force =     0.00015787   -0.00095214    0.00007768
     atom   12 type  2   force =    -0.00072002    0.00012208    0.00014186
     atom   13 type  1   force =     0.00064325    0.00021547    0.00006516
     atom   14 type  1   force =    -0.00003758   -0.00011706    0.00044634
     atom   15 type  2   force =     0.00036842   -0.00009405   -0.00022153
     atom   16 type  2   force =     0.00083655    0.00010767   -0.00023047
     atom   17 type  2   force =     0.00081775   -0.00027684    0.00032342
     atom   18 type  2   force =     0.00046086   -0.00016796   -0.00006652
     atom   19 type  1   force =    -0.00004692    0.00071473    0.00002432
     atom   20 type  1   force =    -0.00000318   -0.00003633    0.00080780
     atom   21 type  2   force =     0.00019826    0.00006115    0.10033756
     atom   22 type  2   force =     0.00013424   -0.00041691   -0.00013583
     atom   23 type  2   force =    -0.07799551    0.00019872   -0.03356884
     atom   24 type  2   force =     0.07804208    0.00071102   -0.03358567
     atom   25 type  1   force =     0.00017292   -0.00022408    0.13671085
     atom   26 type  1   force =     0.00017345   -0.00663366   -0.16251930
     atom   27 type  2   force =     0.00014724    0.00093057   -0.05023969
     atom   28 type  2   force =    -0.00050718   -0.00055319    0.04261883
     atom   29 type  2   force =    -0.01247443    0.00585488    0.00019522
     atom   30 type  2   force =     0.01101578   -0.00027296   -0.00034004
     atom   31 type  1   force =     0.00029971   -0.00026751   -0.00022664
     atom   32 type  1   force =    -0.00023329    0.00015653    0.00015057
     atom   33 type  2   force =    -0.00027332    0.00008309    0.00004315
     atom   34 type  2   force =     0.00037184   -0.00021163   -0.00033624
     atom   35 type  2   force =     0.00135050    0.00038070   -0.00011801
     atom   36 type  2   force =    -0.00056996   -0.00012991   -0.00031960
     atom   37 type  1   force =    -0.00050019    0.00078881   -0.00040515
     atom   38 type  1   force =    -0.00027804    0.00034545   -0.00036194
     atom   39 type  2   force =     0.00061880   -0.00022844    0.00003560
     atom   40 type  2   force =    -0.00005463    0.00018100   -0.00063668
     atom   41 type  2   force =     0.00105008   -0.00046547    0.00038036
     atom   42 type  2   force =    -0.00029886    0.00033581   -0.00012777
     atom   43 type  1   force =     0.00099696   -0.00039272    0.00232041
     atom   44 type  1   force =     0.00034183    0.00085040    0.00069311
     atom   45 type  2   force =     0.00016294   -0.00002139    0.09985018
     atom   46 type  2   force =    -0.07801394    0.00000832   -0.03358007
     atom   47 type  2   force =     0.07806594    0.00053595   -0.03361606
     atom   48 type  3   force =     0.00011932    0.00022257    0.00142029
     atom   49 type  4   force =    -0.00112885    0.00036048   -0.00075770
     atom   50 type  2   force =     0.00639187    0.00315569    0.00786423
     atom   51 type  4   force =    -0.00713887   -0.00321501   -0.00861334

     Total force =     0.384781     Total SCF correction =     0.000899
  @ DRIVER MODE: Message from server: STATUS
  @ DRIVER MODE: Message from server: GETFORCE
  @ DRIVER MODE: Returning v,forces,stress,ensemble

     Writing output data file ./calc.save/
  @ DRIVER MODE: Message from server: EXIT
  @ DRIVE MODE: Exiting

     General routines

     Parallel routines

   This run was terminated on:  22:23: 0  28Sep2021

   JOB DONE.