     Program PWSCF v.6.7GPU starts on 23Sep2021 at 11:50:38

     R & G space division:  proc/nbgrp/npool/nimage =       8
     Reading input from /storage/home/hcoda1/3/ntian30/research/carbon/CxH_vib/H2O_calc/ads_slab/CH3NNHHHHO_a/out_0003/pw.inp
Warning: card &CELL ignored
Warning: card   CELL_DYNAMICS='IPI', ignored
Warning: card / ignored

     Current dimensions of program PWSCF are:
     Max number of different atomic species (ntypx) = 10
     Max number of k-points (npk) =  40000
     Max angular momentum in pseudopotentials (lmaxx) =  3
     Presently no symmetry can be used with electric field

     Message from routine cell_base_init:
     DEPRECATED: use true lattice parameter, not A to a.u. conversion factor

     IMPORTANT: XC functional enforced from input :
     Exchange-correlation= BEEF-VDW
                           (   1   4  43  14   2   0   0)
     Any further DFT definition will be discarded
     Please, verify this is what you really want

  @ DRIVER MODE: Connecting to
 qe_1139763_2947308.sched-torque.pace.gatech.eduycfr7ems_scratch
  using UNIX socket
  @ DRIVER MODE: Message from server: STATUS
  @ DRIVER MODE: Message from server: INIT
  @ DRIVER MODE: Receiving replica           0          -1
  @ DRIVER MODE: Receiving encoded integer          25
  @ DRIVER MODE:  SCF:  T  FORCE:  T  STRESS:  F  VC:  F  ENSEMBLE:  F
  @ DRIVER MODE:  SCF:  T  FORCE:  T  STRESS:  F  VC:  F  ENSEMBLE:  F

     Using Slab Decomposition

     bravais-lattice index     =            0
     lattice parameter (alat)  =       1.8897  a.u.
     unit-cell volume          =    6658.9804 (a.u.)^3
     number of atoms/cell      =           58
     number of atomic types    =            5
     number of electrons       =       405.00
     number of Kohn-Sham states=          212
     kinetic-energy cutoff     =      29.3995  Ry
     charge density cutoff     =     293.9946  Ry
     scf convergence threshold =      7.3E-08
     mixing beta               =       0.0500
     number of iterations used =            8  plain     mixing
     Exchange-correlation= BEEF-VDW
                           (   1   4  43  14   2   0   0)

     celldm(1)=   1.889726  celldm(2)=   0.000000  celldm(3)=   0.000000
     celldm(4)=   0.000000  celldm(5)=   0.000000  celldm(6)=   0.000000

     crystal axes: (cart. coord. in units of alat)
               a(1) = (   6.579727   0.000000   0.000000 )
               a(2) = (  -0.000775   5.961596   0.000000 )
               a(3) = (   0.000000   0.000000  25.155947 )

     reciprocal axes: (cart. coord. in units 2 pi/alat)
               b(1) = (  0.151982  0.000020  0.000000 )
               b(2) = (  0.000000  0.167740  0.000000 )
               b(3) = (  0.000000  0.000000  0.039752 )

     PseudoPot. # 1 for Ti read from file:
     /storage/coda1/p-amedford6/0/shared/rich_project_chbe-medford/medford-share/data/pseudos_module/espresso/nninc/pbe/van/Ti.UPF
     MD5 check sum: 8e4df49b7f0d34bbd5052bf3f5ea0213
     Pseudo is Ultrasoft, Zval = 12.0
     Generated by new atomic code, or converted to UPF format
     Using radial grid of  851 points,  6 beta functions with:
                l(1) =   0
                l(2) =   0
                l(3) =   1
                l(4) =   1
                l(5) =   2
                l(6) =   2
     Q(r) pseudized with  8 coefficients,  rinner =    1.000   1.000   1.000
                                                       1.000   1.000

     PseudoPot. # 2 for O  read from file:
     /storage/coda1/p-amedford6/0/shared/rich_project_chbe-medford/medford-share/data/pseudos_module/espresso/nninc/pbe/van/O.UPF
     MD5 check sum: 78c19812648e8988a0fe644b0f25305e
     Pseudo is Ultrasoft, Zval =  6.0
     Generated by new atomic code, or converted to UPF format
     Using radial grid of  737 points,  4 beta functions with:
                l(1) =   0
                l(2) =   0
                l(3) =   1
                l(4) =   1
     Q(r) pseudized with  8 coefficients,  rinner =    0.800   0.800   0.800

     PseudoPot. # 3 for N  read from file:
     /storage/coda1/p-amedford6/0/shared/rich_project_chbe-medford/medford-share/data/pseudos_module/espresso/nninc/pbe/van/N.UPF
     MD5 check sum: 90d10febe142ad51ac9d5be1deb811c4
     Pseudo is Ultrasoft, Zval =  5.0
     Generated by new atomic code, or converted to UPF format
     Using radial grid of  729 points,  4 beta functions with:
                l(1) =   0
                l(2) =   0
                l(3) =   1
                l(4) =   1
     Q(r) pseudized with  8 coefficients,  rinner =    0.800   0.800   0.800

     PseudoPot. # 4 for C  read from file:
     /storage/coda1/p-amedford6/0/shared/rich_project_chbe-medford/medford-share/data/pseudos_module/espresso/nninc/pbe/van/C.UPF
     MD5 check sum: 1a69bf6b8db32088f5b2163dbdb77a27
     Pseudo is Ultrasoft, Zval =  4.0
     Generated by new atomic code, or converted to UPF format
     Using radial grid of  721 points,  4 beta functions with:
                l(1) =   0
                l(2) =   0
                l(3) =   1
                l(4) =   1
     Q(r) pseudized with  8 coefficients,  rinner =    0.800   0.800   0.800

     PseudoPot. # 5 for H  read from file:
     /storage/coda1/p-amedford6/0/shared/rich_project_chbe-medford/medford-share/data/pseudos_module/espresso/nninc/pbe/van/H.UPF
     MD5 check sum: b5ee9d7bfd3a09ee7748110bda690ff7
     Pseudo is Ultrasoft, Zval =  1.0
     Generated by new atomic code, or converted to UPF format
     Using radial grid of  615 points,  1 beta functions with:
                l(1) =   0
     Q(r) pseudized with  8 coefficients,  rinner =    0.800

     atomic species   valence    mass     pseudopotential
        Ti1           12.00    47.86700     Ti( 1.00)
        O1             6.00    15.99900     O ( 1.00)
        N1             5.00    14.00700     N ( 1.00)
        C1             4.00    12.01100     C ( 1.00)
        H1             1.00     1.00800     H ( 1.00)

     No symmetry found

   Cartesian axes

     site n.     atom                  positions (alat units)
         1           Ti1 tau(   1) = (   0.0004258   2.9801865   6.0000000  )
         2           Ti1 tau(   2) = (   3.2906075   1.4906267   6.0002472  )
         3           O1  tau(   3) = (   0.0006271   0.0005054   7.9858123  )
         4           O1  tau(   4) = (   3.2906025   0.0005020   7.3038282  )
         5           O1  tau(   5) = (   4.5942328   1.4918067   9.2879030  )
         6           O1  tau(   6) = (   1.9868534   1.4903216   9.2879459  )
         7           Ti1 tau(   7) = (   3.2907910   2.8959150   9.1758416  )
         8           Ti1 tau(   8) = (   0.0015273   1.4827037   9.2680791  )
         9           O1  tau(   9) = (   3.3066316   0.0080679  11.3583267  )
        10           O1  tau(  10) = (   0.0116148   5.9584955  10.6183126  )
        11           O1  tau(  11) = (   1.3000076   1.5005770  12.6434233  )
        12           O1  tau(  12) = (   5.3281586   1.4930334  12.6431679  )
        13           Ti1 tau(  13) = (   0.0126194   3.0144704  12.5166071  )
        14           Ti1 tau(  14) = (   3.3185830   1.5708444  12.4374219  )
        15           O1  tau(  15) = (   0.0449490   0.0685618  14.6579901  )
        16           O1  tau(  16) = (   3.3164028   5.8986079  13.9921319  )
        17           O1  tau(  17) = (   4.5763498   1.4919541  16.1892649  )
        18           O1  tau(  18) = (   2.0390356   1.5007807  16.1677599  )
        19           Ti1 tau(  19) = (   3.3152479   2.9236451  15.6986563  )
        20           Ti1 tau(  20) = (   0.0808212   1.4292116  16.0039943  )
        21           O1  tau(  21) = (   3.2904802   0.0005063   4.7018136  )
        22           O1  tau(  22) = (   0.0303022   5.8046116  17.1736243  )
        23           O1  tau(  23) = (   1.3043587   1.4918075   6.0039043  )
        24           O1  tau(  24) = (   5.2767064   1.4903225   6.0039473  )
        25           Ti1 tau(  25) = (   0.0000382   5.9609847   6.0000000  )
        26           Ti1 tau(  26) = (   3.2902200   4.4714249   6.0002472  )
        27           O1  tau(  27) = (   0.0002396   2.9813036   7.9858123  )
        28           O1  tau(  28) = (   3.2902150   2.9813002   7.3038282  )
        29           O1  tau(  29) = (   4.5938453   4.4726049   9.2879030  )
        30           O1  tau(  30) = (   1.9864658   4.4711199   9.2879459  )
        31           Ti1 tau(  31) = (   3.2891106   5.8743827   9.1763621  )
        32           Ti1 tau(  32) = (   0.0006254   4.4649316   9.2693709  )
        33           O1  tau(  33) = (   3.3101163   2.9547251  11.3177968  )
        34           O1  tau(  34) = (   0.0092240   2.9805883  10.6323155  )
        35           O1  tau(  35) = (   1.2917786   4.4638488  12.6831265  )
        36           O1  tau(  36) = (   5.3332004   4.4701953  12.6833355  )
        37           Ti1 tau(  37) = (   0.0360484   0.0435164  12.5022323  )
        38           Ti1 tau(  38) = (   3.3166134   4.6596848  12.7231989  )
        39           O1  tau(  39) = (   6.5734590   2.9070644  14.8960501  )
        40           O1  tau(  40) = (   3.3256711   2.9499323  13.9293234  )
        41           O1  tau(  41) = (   4.5718193   4.3849529  16.1598725  )
        42           O1  tau(  42) = (   2.0293811   4.3548050  16.0908550  )
        43           Ti1 tau(  43) = (   3.3839698   5.9011270  16.3477160  )
        44           Ti1 tau(  44) = (   0.0762916   4.6312412  15.8077656  )
        45           O1  tau(  45) = (   3.2900926   2.9813045   4.7018136  )
        46           O1  tau(  46) = (   1.3039711   4.4726057   6.0039043  )
        47           O1  tau(  47) = (   5.2763189   4.4711207   6.0039473  )
        48           N1  tau(  48) = (   1.0338470   3.0045746  18.8549854  )
        49           N1  tau(  49) = (   6.4614719   2.5758313  18.0922931  )
        50           C1  tau(  50) = (   0.6385090   3.7489381  20.0602371  )
        51           H1  tau(  51) = (   6.5128770   4.5633600  19.8465500  )
        52           H1  tau(  52) = (   0.1876125   3.0656416  20.7809517  )
        53           H1  tau(  53) = (   1.5398112   4.1767214  20.4987412  )
        54           H1  tau(  54) = (   5.7034478   3.2665398  18.1448723  )
        55           H1  tau(  55) = (   6.1095767   1.7263867  18.5341855  )
        56           H1  tau(  56) = (   1.5400177   3.6533120  18.2466354  )
        57           O1  tau(  57) = (   3.2295176   5.8880611  18.1942677  )
        58           H1  tau(  58) = (   2.6769533   0.6239085  18.5854980  )

     number of k points=    10  Fermi-Dirac smearing, width (Ry)=  0.0073
                       cart. coord. in units 2pi/alat
        k(    1) = (   0.0000000   0.0000000   0.0000000), wk =   0.1250000
        k(    2) = (   0.0000000   0.0419351   0.0000000), wk =   0.2500000
        k(    3) = (   0.0000000  -0.0838702   0.0000000), wk =   0.1250000
        k(    4) = (   0.0379955   0.0000049   0.0000000), wk =   0.2500000
        k(    5) = (   0.0379955   0.0419400   0.0000000), wk =   0.2500000
        k(    6) = (   0.0379955  -0.0838652   0.0000000), wk =   0.2500000
        k(    7) = (   0.0379955  -0.0419301   0.0000000), wk =   0.2500000
        k(    8) = (  -0.0759910  -0.0000099   0.0000000), wk =   0.1250000
        k(    9) = (  -0.0759910   0.0419252   0.0000000), wk =   0.2500000
        k(   10) = (  -0.0759910  -0.0838800   0.0000000), wk =   0.1250000

     Initial potential from superposition of free atoms

     starting charge  388.99913, renormalised to  405.00000

     negative rho (up, down):  1.325E-02 0.000E+00

     %%%%%%%%%%%%%%%%%%%%%%%%%%%%%%%%%%%%%%%%%%%%%%%%%%%%%%%%%%%%%%%%%%%%%%%%
     %                                                                      %
     % You are using vdW-DF, which was implemented by the Thonhauser group. %
     % Please cite the following two papers that made this development      %
     % possible and the two reviews that describe the various versions:     %
     %                                                                      %
     %   T. Thonhauser et al., PRL 115, 136402 (2015).                      %
     %   T. Thonhauser et al., PRB 76, 125112 (2007).                       %
     %   K. Berland et al., Rep. Prog. Phys. 78, 066501 (2015).             %
     %   D.C. Langreth et al., J. Phys.: Condens. Matter 21, 084203 (2009). %
     %                                                                      %
     %                                                                      %
     % If you are calculating the stress with vdW-DF, please also cite:     %
     %                                                                      %
     %   R. Sabatini et al., J. Phys.: Condens. Matter 24, 424209 (2012).   %
     %                                                                      %
     %%%%%%%%%%%%%%%%%%%%%%%%%%%%%%%%%%%%%%%%%%%%%%%%%%%%%%%%%%%%%%%%%%%%%%%%

     Adding external electric field

     Computed dipole along edir(3) :
        Dipole              -14.7651 Ry au,        -37.5293 Debye
        Dipole field         -0.0279 Ry au,

        Potential amp.        2.5829 Ry
        Total length         46.3494 bohr

     Starting wfcs are  307 atomic wfcs
  @ DRIVER MODE: Message from server: STATUS
  @ DRIVER MODE: Message from server: POSDATA
  @ DRIVER MODE: Reading and sharing cell
  @ DRIVER MODE: Reading and sharing positions
  @ DRIVER MODE: Received positions

     Self-consistent Calculation

     iteration #  1     ecut=    29.40 Ry     beta= 0.05
     Davidson diagonalization with overlap
     c_bands:  3 eigenvalues not converged
     c_bands:  4 eigenvalues not converged
     c_bands:  2 eigenvalues not converged
     c_bands:  3 eigenvalues not converged
     c_bands:  3 eigenvalues not converged
     c_bands:  3 eigenvalues not converged
     ethr =  1.00E-05,  avg # of iterations = 23.2

[...]

     total energy              =   -2204.25864424 Ry
     estimated scf accuracy    <    8785.86744872 Ry

     iteration #  2     ecut=    29.40 Ry     beta= 0.05
     Davidson diagonalization with overlap
     ethr =  1.00E-02,  avg # of iterations = 30.2

[...]

     iteration # 47     ecut=    29.40 Ry     beta= 0.05
     Davidson diagonalization with overlap
     c_bands:  1 eigenvalues not converged
     ethr =  8.68E-08,  avg # of iterations = 14.9

[...]

     total energy              =   -2976.49813912 Ry
     estimated scf accuracy    <       0.00000010 Ry

     iteration # 71     ecut=    29.40 Ry     beta= 0.05
     Davidson diagonalization with overlap
     ethr =  2.36E-11,  avg # of iterations = 10.6

     negative rho (up, down):  1.443E-02 0.000E+00

     Adding external electric field

     Computed dipole along edir(3) :
        Dipole                0.9938 Ry au,          2.5260 Debye
        Dipole field          0.0019 Ry au,

        Potential amp.       -0.1739 Ry
        Total length         46.3494 bohr

     End of self-consistent calculation

          k = 0.0000 0.0000 0.0000 ( 18029 PWs)   bands (ev):

   -55.5814 -55.4979 -55.4638 -55.3631 -55.3420 -55.3260 -55.3122 -55.3056
   -55.2923 -55.2625 -55.2188 -55.0967 -55.0859 -55.0090 -54.4671 -54.4331
   -31.9824 -31.9179 -31.8770 -31.8297 -31.8281 -31.8088 -31.7983 -31.7888
   -31.7490 -31.7439 -31.7260 -31.6505 -31.6269 -31.6066 -31.6043 -31.6027
   -31.5969 -31.5849 -31.5825 -31.5555 -31.5495 -31.5243 -31.5235 -31.5119
   -31.4967 -31.4853 -31.4778 -31.4607 -31.4562 -31.4533 -31.4437 -31.4377
   -31.4340 -31.4145 -31.3726 -31.3708 -31.3004 -31.2933 -31.2792 -31.2586
   -31.2218 -31.2145 -30.8728 -30.7873 -30.7648 -30.6905 -30.6041 -30.4922
   -17.5960 -16.3995 -16.1392 -15.9767 -15.7609 -15.6755 -15.6469 -15.4544
   -15.3491 -15.2961 -15.1100 -15.0638 -15.0330 -15.0220 -15.0066 -14.9839
   -14.9641 -14.9259 -14.9174 -14.9072 -14.9015 -14.8630 -14.8406 -14.7901
   -14.7674 -14.7048 -14.6325 -14.5649 -14.5175 -14.2566 -14.2388 -12.9655
   -12.9365 -12.8493  -9.4532  -6.1686  -5.1770  -4.6270  -3.9609  -3.5037
    -3.4028  -3.3869  -3.3313  -3.2682  -3.1620  -2.9954  -2.8867  -2.8313
    -2.7322  -2.6249  -2.5700  -2.5063  -2.4747  -2.4292  -2.3970  -2.3841
    -2.3785  -2.2821  -2.2724  -2.2465  -2.2100  -2.1551  -2.1394  -2.0616
    -2.0253  -2.0168  -1.8924  -1.8797  -1.8139  -1.8096  -1.8034  -1.7695
    -1.7486  -1.7338  -1.7047  -1.6208  -1.5681  -1.4973  -1.4741  -1.4447
    -1.1853  -1.0937  -1.0562  -1.0287  -0.9305  -0.9106  -0.8984  -0.8966
    -0.8833  -0.8336  -0.7859  -0.7033  -0.5928  -0.5701  -0.5644  -0.5197
    -0.4546  -0.3725  -0.2994  -0.2699  -0.2324  -0.2192  -0.1531  -0.0756
    -0.0596  -0.0472   0.0613   0.0757   0.1580   0.2169   0.2307   0.2748
     0.3165   0.3497   0.4056   0.4422   0.4726   0.4785   0.5119   0.5560
     0.6121   0.6425   0.6703   0.7526   0.8081   0.8536   0.8812   1.0482
     1.0761   1.1223   1.1790   1.2656   1.5091   1.5594   1.5984   1.7537
     2.1257   2.1708   3.5866   3.7377   3.7528   3.8223   3.8474   3.9383
     4.0760   4.1435   4.2813   4.3350

[...]

          k = 0.0380-0.0419 0.0000 ( 17876 PWs)   bands (ev):

[...]

          k =-0.0760-0.0000 0.0000 ( 17886 PWs)   bands (ev):

[...]

          k =-0.0760-0.0839 0.0000 ( 17948 PWs)   bands (ev):

   -55.5807 -55.4809 -55.4806 -55.3619 -55.3288 -55.3187 -55.3128 -55.3091
   -55.3087 -55.2545 -55.2268 -55.0936 -55.0870 -55.0120 -54.4502 -54.4499
   -31.8652 -31.8074 -31.8025 -31.7978 -31.7976 -31.7833 -31.7744 -31.7741
   -31.7055 -31.6494 -31.6414 -31.6340 -31.6293 -31.6159 -31.6010 -31.6009
   -31.5987 -31.5984 -31.5842 -31.5738 -31.5663 -31.5576 -31.5367 -31.5186
   -31.5158 -31.5118 -31.5045 -31.5015 -31.4892 -31.4818 -31.4794 -31.4734
   -31.4683 -31.4497 -31.4439 -31.3669 -31.3551 -31.3409 -31.3023 -31.2974
   -31.2639 -31.2178 -30.7776 -30.7774 -30.6859 -30.6855 -30.6475 -30.6472
   -17.5901 -16.3853 -15.7475 -15.5694 -15.4730 -15.4666 -15.3358 -15.2701
   -15.2612 -15.2268 -15.2080 -15.1930 -15.1601 -15.1426 -15.1032 -15.0503
   -15.0170 -14.9943 -14.9827 -14.9457 -14.9332 -14.9113 -14.9039 -14.8952
   -14.8369 -14.8048 -14.7957 -14.7651 -14.5697 -14.5476 -14.3714 -12.9512
   -12.9511 -12.9380  -9.4508  -6.1534  -5.1792  -4.6374  -3.9569  -3.1612
    -2.9215  -2.7783  -2.7020  -2.5679  -2.5580  -2.5002  -2.4864  -2.4471
    -2.4383  -2.3980  -2.3438  -2.3274  -2.2847  -2.2791  -2.2491  -2.2362
    -2.2257  -2.2169  -2.1909  -2.1721  -2.1632  -2.1222  -2.1178  -2.1020
    -2.0813  -2.0659  -2.0383  -2.0272  -1.9872  -1.9476  -1.8823  -1.8086
    -1.7230  -1.6402  -1.6297  -1.6189  -1.5725  -1.5660  -1.5193  -1.5065
    -1.4595  -1.4070  -1.2951  -1.1718  -1.1315  -1.1058  -1.0738  -1.0403
    -0.9867  -0.9642  -0.9293  -0.8807  -0.8489  -0.7253  -0.7143  -0.6489
    -0.5612  -0.5297  -0.4552  -0.4420  -0.4270  -0.4110  -0.3895  -0.3727
    -0.3426  -0.3258  -0.2229  -0.1988  -0.1957  -0.1726  -0.1208  -0.0196
     0.0547   0.1371   0.2402   0.2898   0.3178   0.3510   0.4514   0.5693
     0.5945   0.6580   0.6899   0.7326   0.7999   0.8206   0.8684   0.9532
     1.0059   1.0392   1.0646   1.0698   1.1204   1.1336   1.9224   1.9309
     1.9911   1.9914   3.8002   4.0764   4.1019   4.1180   4.1553   4.1595
     4.1815   4.1959   4.2610   4.2764

     the Fermi energy is     3.6235 ev

!    total energy              =   -2976.49816271 Ry
     estimated scf accuracy    <       0.00000007 Ry
     smearing contrib. (-TS)   =      -0.01952663 Ry
     internal energy E=F+TS    =   -2976.47863608 Ry

     The total energy is F=E-TS. E is the sum of the following terms:
     one-electron contribution =  -23034.40942047 Ry
     hartree contribution      =   11613.56708002 Ry
     xc contribution           =    -495.70341734 Ry
     ewald contribution        =    8940.06525790 Ry
     electric field correction =       0.00186381 Ry

     convergence has been achieved in  71 iterations

     Forces acting on atoms (cartesian axes, Ry/au):

     atom    1 type  1   force =     0.00001117   -0.00022507    0.09405061
     atom    2 type  1   force =    -0.00015806    0.00025269   -0.17516969
     atom    3 type  2   force =     0.00007550   -0.00016536   -0.02114802
     atom    4 type  2   force =     0.00000377   -0.00104277    0.05356271
     atom    5 type  2   force =    -0.00454087   -0.00322681    0.00115431
     atom    6 type  2   force =     0.00659942   -0.00242728    0.00161759
     atom    7 type  1   force =     0.00037295    0.00456567    0.01036110
     atom    8 type  1   force =    -0.00055970    0.00198299    0.00312193
     atom    9 type  2   force =     0.00010450   -0.00050517   -0.00046927
     atom   10 type  2   force =    -0.00030829   -0.00004612   -0.01129468
     atom   11 type  2   force =    -0.00023102    0.00045963    0.00004161
     atom   12 type  2   force =    -0.00027015    0.00067572    0.00008048
     atom   13 type  1   force =     0.00061722   -0.00064359    0.00022183
     atom   14 type  1   force =    -0.00035665    0.00015315    0.00018200
     atom   15 type  2   force =    -0.00017078    0.00007774    0.00052801
     atom   16 type  2   force =     0.00004939   -0.00003003    0.00041871
     atom   17 type  2   force =    -0.00038617    0.00024351    0.00006894
     atom   18 type  2   force =     0.00001577    0.00008104    0.00021788
     atom   19 type  1   force =    -0.00010134    0.00051349   -0.00027203
     atom   20 type  1   force =    -0.00005684   -0.00012427   -0.00010787
     atom   21 type  2   force =     0.00003019   -0.00001389    0.10311671
     atom   22 type  2   force =    -0.00004249   -0.00025272   -0.00034282
     atom   23 type  2   force =    -0.07213165   -0.00021154   -0.02725166
     atom   24 type  2   force =     0.07203758    0.00023189   -0.02732821
     atom   25 type  1   force =     0.00006121   -0.00035330    0.09402206
     atom   26 type  1   force =     0.00000092   -0.00128971   -0.17519796
     atom   27 type  2   force =     0.00015476   -0.00021550   -0.01992310
     atom   28 type  2   force =     0.00008663   -0.00111253    0.04908644
     atom   29 type  2   force =    -0.00667329    0.00152438    0.00213081
     atom   30 type  2   force =     0.00854334    0.00170309    0.00249991
     atom   31 type  1   force =     0.00049915   -0.00019923    0.00052144
     atom   32 type  1   force =    -0.00020763   -0.00145663    0.00350858
     atom   33 type  2   force =    -0.00007691    0.00000370   -0.00002502
     atom   34 type  2   force =    -0.00088830    0.00246341   -0.01150243
     atom   35 type  2   force =     0.00003874   -0.00043626    0.00048707
     atom   36 type  2   force =    -0.00053437   -0.00041355    0.00034275
     atom   37 type  1   force =     0.00037140    0.00028785    0.00001664
     atom   38 type  1   force =    -0.00038508    0.00021628    0.00030475
     atom   39 type  2   force =    -0.00050769    0.00042200    0.00048874
     atom   40 type  2   force =    -0.00001804   -0.00007399   -0.00005149
     atom   41 type  2   force =    -0.00035560   -0.00030197    0.00028327
     atom   42 type  2   force =    -0.00025944   -0.00024338   -0.00023321
     atom   43 type  1   force =    -0.00004777   -0.00033279    0.00076610
     atom   44 type  1   force =    -0.00017883    0.00020099    0.00005315
     atom   45 type  2   force =     0.00002176   -0.00001760    0.10297000
     atom   46 type  2   force =    -0.07213844   -0.00008716   -0.02724528
     atom   47 type  2   force =     0.07199225    0.00034903   -0.02729043
     atom   48 type  3   force =     0.00640621    0.01361780   -0.00177310
     atom   49 type  3   force =    -0.00308864   -0.00324496   -0.00077339
     atom   50 type  4   force =     0.00076581   -0.00396310   -0.00062486
     atom   51 type  5   force =     0.00011624   -0.00035877   -0.00107020
     atom   52 type  5   force =    -0.00032033   -0.00030630    0.00049557
     atom   53 type  5   force =     0.00037178   -0.00084394   -0.00045243
     atom   54 type  5   force =     0.00064528    0.00066279   -0.00024879
     atom   55 type  5   force =    -0.00120515    0.00017578   -0.00044481
     atom   56 type  5   force =    -0.00330617   -0.00663898    0.00445383
     atom   57 type  2   force =    -0.00019616    0.00052164   -0.00075701
     atom   58 type  5   force =    -0.00029109   -0.00058196   -0.00017777

     Total force =     0.362189     Total SCF correction =     0.000545
  @ DRIVER MODE: Message from server: STATUS
  @ DRIVER MODE: Message from server: GETFORCE
  @ DRIVER MODE: Returning v,forces,stress,ensemble

     Writing output data file ./calc.save/
  @ DRIVER MODE: Message from server: EXIT
  @ DRIVE MODE: Exiting

     General routines

     Parallel routines

   This run was terminated on:  12:15:30  23Sep2021

   JOB DONE.