     Program PWSCF v.6.7GPU starts on  8Sep2021 at 22:24:18

     R & G space division:  proc/nbgrp/npool/nimage =      10
     Reading input from /storage/home/hcoda1/3/ntian30/research/carbon/CxH_vib/CH_calc/ads_slab/CHN2H_a/out_0002/pw.inp
Warning: card &CELL ignored
Warning: card   CELL_DYNAMICS='IPI', ignored
Warning: card / ignored

     Current dimensions of program PWSCF are:
     Max number of different atomic species (ntypx) = 10
     Max number of k-points (npk) =  40000
     Max angular momentum in pseudopotentials (lmaxx) =  3
     Presently no symmetry can be used with electric field

     Message from routine cell_base_init:
     DEPRECATED: use true lattice parameter, not A to a.u. conversion factor

     IMPORTANT: XC functional enforced from input :
     Exchange-correlation= BEEF-VDW
                           (   1   4  43  14   2   0   0)
     Any further DFT definition will be discarded
     Please, verify this is what you really want

  @ DRIVER MODE: Connecting to
 qe_1139763_2767376.sched-torque.pace.gatech.edunxxtot8n_scratch
  using UNIX socket
  @ DRIVER MODE: Message from server: STATUS
  @ DRIVER MODE: Message from server: INIT
  @ DRIVER MODE: Receiving replica           0          -1
  @ DRIVER MODE: Receiving encoded integer          25
  @ DRIVER MODE:  SCF:  T  FORCE:  T  STRESS:  F  VC:  F  ENSEMBLE:  F
  @ DRIVER MODE:  SCF:  T  FORCE:  T  STRESS:  F  VC:  F  ENSEMBLE:  F

     Using Slab Decomposition

     bravais-lattice index     =            0
     lattice parameter (alat)  =       1.8897  a.u.
     unit-cell volume          =    6658.9804 (a.u.)^3
     number of atoms/cell      =           52
     number of atomic types    =            5
     number of electrons       =       394.00
     number of Kohn-Sham states=          207
     kinetic-energy cutoff     =      29.3995  Ry
     charge density cutoff     =     293.9946  Ry
     scf convergence threshold =      7.3E-08
     mixing beta               =       0.0500
     number of iterations used =            8  plain     mixing
     Exchange-correlation= BEEF-VDW
                           (   1   4  43  14   2   0   0)

     celldm(1)=   1.889726  celldm(2)=   0.000000  celldm(3)=   0.000000
     celldm(4)=   0.000000  celldm(5)=   0.000000  celldm(6)=   0.000000

     crystal axes: (cart. coord. in units of alat)
               a(1) = (   6.579727   0.000000   0.000000 )
               a(2) = (  -0.000775   5.961596   0.000000 )
               a(3) = (   0.000000   0.000000  25.155947 )

     reciprocal axes: (cart. coord. in units 2 pi/alat)
               b(1) = (  0.151982  0.000020  0.000000 )
               b(2) = (  0.000000  0.167740  0.000000 )
               b(3) = (  0.000000  0.000000  0.039752 )

     PseudoPot. # 1 for Ti read from file:
     /storage/coda1/p-amedford6/0/shared/rich_project_chbe-medford/medford-share/data/pseudos_module/espresso/nninc/pbe/van/Ti.UPF
     MD5 check sum: 8e4df49b7f0d34bbd5052bf3f5ea0213
     Pseudo is Ultrasoft, Zval = 12.0
     Generated by new atomic code, or converted to UPF format
     Using radial grid of  851 points,  6 beta functions with:
                l(1) =   0
                l(2) =   0
                l(3) =   1
                l(4) =   1
                l(5) =   2
                l(6) =   2
     Q(r) pseudized with  8 coefficients,  rinner =    1.000   1.000   1.000
                                                       1.000   1.000

     PseudoPot. # 2 for O  read from file:
     /storage/coda1/p-amedford6/0/shared/rich_project_chbe-medford/medford-share/data/pseudos_module/espresso/nninc/pbe/van/O.UPF
     MD5 check sum: 78c19812648e8988a0fe644b0f25305e
     Pseudo is Ultrasoft, Zval =  6.0
     Generated by new atomic code, or converted to UPF format
     Using radial grid of  737 points,  4 beta functions with:
                l(1) =   0
                l(2) =   0
                l(3) =   1
                l(4) =   1
     Q(r) pseudized with  8 coefficients,  rinner =    0.800   0.800   0.800

     PseudoPot. # 3 for N  read from file:
     /storage/coda1/p-amedford6/0/shared/rich_project_chbe-medford/medford-share/data/pseudos_module/espresso/nninc/pbe/van/N.UPF
     MD5 check sum: 90d10febe142ad51ac9d5be1deb811c4
     Pseudo is Ultrasoft, Zval =  5.0
     Generated by new atomic code, or converted to UPF format
     Using radial grid of  729 points,  4 beta functions with:
                l(1) =   0
                l(2) =   0
                l(3) =   1
                l(4) =   1
     Q(r) pseudized with  8 coefficients,  rinner =    0.800   0.800   0.800

     PseudoPot. # 4 for C  read from file:
     /storage/coda1/p-amedford6/0/shared/rich_project_chbe-medford/medford-share/data/pseudos_module/espresso/nninc/pbe/van/C.UPF
     MD5 check sum: 1a69bf6b8db32088f5b2163dbdb77a27
     Pseudo is Ultrasoft, Zval =  4.0
     Generated by new atomic code, or converted to UPF format
     Using radial grid of  721 points,  4 beta functions with:
                l(1) =   0
                l(2) =   0
                l(3) =   1
                l(4) =   1
     Q(r) pseudized with  8 coefficients,  rinner =    0.800   0.800   0.800

     PseudoPot. # 5 for H  read from file:
     /storage/coda1/p-amedford6/0/shared/rich_project_chbe-medford/medford-share/data/pseudos_module/espresso/nninc/pbe/van/H.UPF
     MD5 check sum: b5ee9d7bfd3a09ee7748110bda690ff7
     Pseudo is Ultrasoft, Zval =  1.0
     Generated by new atomic code, or converted to UPF format
     Using radial grid of  615 points,  1 beta functions with:
                l(1) =   0
     Q(r) pseudized with  8 coefficients,  rinner =    0.800

     atomic species   valence    mass     pseudopotential
        Ti1           12.00    47.86700     Ti( 1.00)
        O1             6.00    15.99900     O ( 1.00)
        N1             5.00    14.00700     N ( 1.00)
        C1             4.00    12.01100     C ( 1.00)
        H1             1.00     1.00800     H ( 1.00)

     No symmetry found

   Cartesian axes

     site n.     atom                  positions (alat units)
         1           Ti1 tau(   1) = (   0.0004258   2.9801865   6.0000000  )
         2           Ti1 tau(   2) = (   3.2906075   1.4906267   6.0002472  )
         3           O1  tau(   3) = (   0.0006271   0.0005054   7.9858123  )
         4           O1  tau(   4) = (   3.2906025   0.0005020   7.3038282  )
         5           O1  tau(   5) = (   4.5942328   1.4918067   9.2879030  )
         6           O1  tau(   6) = (   1.9868534   1.4903216   9.2879459  )
         7           Ti1 tau(   7) = (   3.2907910   2.8959150   9.1758416  )
         8           Ti1 tau(   8) = (   0.0015273   1.4827037   9.2680791  )
         9           O1  tau(   9) = (   3.3079035   5.9465650  11.3667630  )
        10           O1  tau(  10) = (   0.0116148   5.9584955  10.6183126  )
        11           O1  tau(  11) = (   1.3159687   1.4802111  12.6598234  )
        12           O1  tau(  12) = (   5.3141237   1.4785834  12.6569702  )
        13           Ti1 tau(  13) = (   0.0356438   2.9569522  12.5500042  )
        14           Ti1 tau(  14) = (   3.3321116   1.4682926  12.5176941  )
        15           O1  tau(  15) = (   0.0287262   5.9365737  14.6848071  )
        16           O1  tau(  16) = (   3.3260766   5.9477468  13.9918032  )
        17           O1  tau(  17) = (   4.5788076   1.5006004  16.1778977  )
        18           O1  tau(  18) = (   2.0653823   1.4932191  16.1519216  )
        19           Ti1 tau(  19) = (   3.3252840   2.9629899  15.7366588  )
        20           Ti1 tau(  20) = (   0.0567170   1.3280226  15.9864722  )
        21           O1  tau(  21) = (   3.2904802   0.0005063   4.7018136  )
        22           O1  tau(  22) = (   0.0395201   5.9563027  17.2132275  )
        23           O1  tau(  23) = (   1.3043587   1.4918075   6.0039043  )
        24           O1  tau(  24) = (   5.2767064   1.4903225   6.0039473  )
        25           Ti1 tau(  25) = (   0.0000382   5.9609847   6.0000000  )
        26           Ti1 tau(  26) = (   3.2902200   4.4714249   6.0002472  )
        27           O1  tau(  27) = (   0.0002396   2.9813036   7.9858123  )
        28           O1  tau(  28) = (   3.2902150   2.9813002   7.3038282  )
        29           O1  tau(  29) = (   4.5938453   4.4726049   9.2879030  )
        30           O1  tau(  30) = (   1.9864658   4.4711199   9.2879459  )
        31           Ti1 tau(  31) = (   3.2891106   5.8743827   9.1763621  )
        32           Ti1 tau(  32) = (   0.0006254   4.4649316   9.2693709  )
        33           O1  tau(  33) = (   3.3109971   2.9638951  11.3609806  )
        34           O1  tau(  34) = (   0.0092240   2.9805883  10.6323155  )
        35           O1  tau(  35) = (   1.3172493   4.4579999  12.6547637  )
        36           O1  tau(  36) = (   5.3123203   4.4599931  12.6537913  )
        37           Ti1 tau(  37) = (   0.0349292   5.9384232  12.5038109  )
        38           Ti1 tau(  38) = (   3.3308216   4.4462378  12.5132791  )
        39           O1  tau(  39) = (   0.0262156   2.9786664  14.8481040  )
        40           O1  tau(  40) = (   3.3240488   2.9673873  13.9486158  )
        41           O1  tau(  41) = (   4.5778164   4.4375445  16.1741249  )
        42           O1  tau(  42) = (   2.0647505   4.4412733  16.1578575  )
        43           Ti1 tau(  43) = (   3.3314326   5.9455663  15.7867969  )
        44           Ti1 tau(  44) = (   0.0345939   4.5236910  15.9072353  )
        45           O1  tau(  45) = (   3.2900926   2.9813045   4.7018136  )
        46           O1  tau(  46) = (   1.3039711   4.4726057   6.0039043  )
        47           O1  tau(  47) = (   5.2763189   4.4711207   6.0039473  )
        48           N1  tau(  48) = (   0.8943530   3.1395628  18.6524426  )
        49           C1  tau(  49) = (   1.8908588   3.1194352  19.2834450  )
        50           H1  tau(  50) = (   2.4245030   3.8971110  19.8100181  )
        51           N1  tau(  51) = (   6.5588057   2.9807634  17.7841789  )
        52           H1  tau(  52) = (   5.6432114   2.8891999  18.2270943  )

     number of k points=    10  Fermi-Dirac smearing, width (Ry)=  0.0073
                       cart. coord. in units 2pi/alat
        k(    1) = (   0.0000000   0.0000000   0.0000000), wk =   0.1250000
        k(    2) = (   0.0000000   0.0419351   0.0000000), wk =   0.2500000
        k(    3) = (   0.0000000  -0.0838702   0.0000000), wk =   0.1250000
        k(    4) = (   0.0379955   0.0000049   0.0000000), wk =   0.2500000
        k(    5) = (   0.0379955   0.0419400   0.0000000), wk =   0.2500000
        k(    6) = (   0.0379955  -0.0838652   0.0000000), wk =   0.2500000
        k(    7) = (   0.0379955  -0.0419301   0.0000000), wk =   0.2500000
        k(    8) = (  -0.0759910  -0.0000099   0.0000000), wk =   0.1250000
        k(    9) = (  -0.0759910   0.0419252   0.0000000), wk =   0.2500000
        k(   10) = (  -0.0759910  -0.0838800   0.0000000), wk =   0.1250000

     Initial potential from superposition of free atoms

     starting charge  377.99917, renormalised to  394.00000

     negative rho (up, down):  1.653E-02 0.000E+00

     %%%%%%%%%%%%%%%%%%%%%%%%%%%%%%%%%%%%%%%%%%%%%%%%%%%%%%%%%%%%%%%%%%%%%%%%
     %                                                                      %
     % You are using vdW-DF, which was implemented by the Thonhauser group. %
     % Please cite the following two papers that made this development      %
     % possible and the two reviews that describe the various versions:     %
     %                                                                      %
     %   T. Thonhauser et al., PRL 115, 136402 (2015).                      %
     %   T. Thonhauser et al., PRB 76, 125112 (2007).                       %
     %   K. Berland et al., Rep. Prog. Phys. 78, 066501 (2015).             %
     %   D.C. Langreth et al., J. Phys.: Condens. Matter 21, 084203 (2009). %
     %                                                                      %
     %                                                                      %
     % If you are calculating the stress with vdW-DF, please also cite:     %
     %                                                                      %
     %   R. Sabatini et al., J. Phys.: Condens. Matter 24, 424209 (2012).   %
     %                                                                      %
     %%%%%%%%%%%%%%%%%%%%%%%%%%%%%%%%%%%%%%%%%%%%%%%%%%%%%%%%%%%%%%%%%%%%%%%%

     Adding external electric field

     Computed dipole along edir(3) :
        Dipole               -8.4995 Ry au,        -21.6035 Debye
        Dipole field         -0.0160 Ry au,

        Potential amp.        1.4869 Ry
        Total length         46.3494 bohr

     Starting wfcs are  298 atomic wfcs
  @ DRIVER MODE: Message from server: STATUS
  @ DRIVER MODE: Message from server: POSDATA
  @ DRIVER MODE: Reading and sharing cell
  @ DRIVER MODE: Reading and sharing positions
  @ DRIVER MODE: Received positions

     Self-consistent Calculation

     iteration #  1     ecut=    29.40 Ry     beta= 0.05
     Davidson diagonalization with overlap
     c_bands:  1 eigenvalues not converged
     c_bands:  1 eigenvalues not converged
     c_bands:  2 eigenvalues not converged
     c_bands:  2 eigenvalues not converged
     c_bands:  2 eigenvalues not converged
     c_bands:  1 eigenvalues not converged
     ethr =  1.00E-05,  avg # of iterations = 19.0

[...]

     total energy              =   -2624.26169527 Ry
     estimated scf accuracy    <    3488.39717013 Ry

[...]

     iteration #  3     ecut=    29.40 Ry     beta= 0.05
     Davidson diagonalization with overlap
     ethr =  1.00E-02,  avg # of iterations = 15.1

[...]

     iteration # 84     ecut=    29.40 Ry     beta= 0.05
     Davidson diagonalization with overlap
     ethr =  5.90E-11,  avg # of iterations =  7.0

[...]

     total energy              =   -2937.80825047 Ry
     estimated scf accuracy    <       0.00000013 Ry

     iteration # 85     ecut=    29.40 Ry     beta= 0.05
     Davidson diagonalization with overlap
     c_bands:  1 eigenvalues not converged
     ethr =  3.42E-11,  avg # of iterations = 12.3

     negative rho (up, down):  1.627E-02 0.000E+00

     Adding external electric field

     Computed dipole along edir(3) :
        Dipole                1.3037 Ry au,          3.3137 Debye
        Dipole field          0.0025 Ry au,

        Potential amp.       -0.2281 Ry
        Total length         46.3494 bohr

     End of self-consistent calculation

          k = 0.0000 0.0000 0.0000 ( 18029 PWs)   bands (ev):

   -55.4278 -55.3918 -55.3914 -55.3573 -55.3213 -55.3054 -55.2625 -55.2406
   -55.2366 -55.2261 -55.2182 -55.2061 -55.1849 -55.1585 -54.4099 -54.3758
   -31.9968 -31.8820 -31.8215 -31.7912 -31.7474 -31.7397 -31.7298 -31.7211
   -31.6810 -31.6746 -31.6370 -31.6360 -31.6293 -31.6015 -31.5822 -31.5640
   -31.5598 -31.5534 -31.5448 -31.5393 -31.5045 -31.5035 -31.4942 -31.4856
   -31.4709 -31.4485 -31.4428 -31.4411 -31.4364 -31.4323 -31.4292 -31.4149
   -31.4070 -31.4009 -31.3949 -31.3898 -31.3690 -31.3552 -31.3537 -31.3475
   -31.3269 -31.2654 -30.8187 -30.7259 -30.7037 -30.6352 -30.5485 -30.4375
   -20.1754 -16.2427 -15.9706 -15.8281 -15.7030 -15.6182 -15.4916 -15.4603
   -15.3916 -15.3337 -15.2202 -15.1445 -15.0779 -15.0758 -15.0587 -15.0307
   -14.9793 -14.9629 -14.9605 -14.9182 -14.9161 -14.8740 -14.8545 -14.8205
   -14.8027 -14.7837 -14.7678 -14.6440 -14.5744 -14.5157 -14.1539 -12.9125
   -12.7953  -8.8059  -7.1806  -5.4116  -4.7127  -3.5877  -3.4277  -3.3415
    -3.3244  -3.3238  -3.1560  -3.0282  -2.8006  -2.7674  -2.6891  -2.6348
    -2.6168  -2.5953  -2.4178  -2.3933  -2.3332  -2.3070  -2.2685  -2.2382
    -2.2132  -2.1991  -2.1860  -2.1673  -2.1540  -1.9929  -1.8943  -1.8630
    -1.8276  -1.8137  -1.7540  -1.7215  -1.7155  -1.7132  -1.7042  -1.6610
    -1.6424  -1.5935  -1.4937  -1.4850  -1.4463  -1.3174  -1.2946  -1.1464
    -1.0605  -0.9760  -0.9686  -0.9018  -0.8980  -0.8629  -0.8117  -0.7877
    -0.7632  -0.6298  -0.5609  -0.5126  -0.4879  -0.4425  -0.3970  -0.3621
    -0.2688  -0.2035  -0.1959  -0.1840  -0.0192  -0.0060   0.0418   0.0914
     0.1149   0.1649   0.1884   0.2595   0.2933   0.3386   0.3688   0.4659
     0.5055   0.5258   0.5396   0.5593   0.5716   0.6320   0.6988   0.7174
     0.7655   0.8233   0.9336   1.1310   1.1932   1.2060   1.5224   1.5565
     1.6127   1.7980   2.1877   2.2353   3.6724   3.7437   3.8075   3.8227
     3.8312   3.9080   4.0826   4.1554   4.1712   4.1777   4.1890

[...]

          k = 0.0380-0.0419 0.0000 ( 17876 PWs)   bands (ev):

[...]

          k =-0.0760-0.0000 0.0000 ( 17886 PWs)   bands (ev):

[...]

          k =-0.0760-0.0839 0.0000 ( 17948 PWs)   bands (ev):

   -55.4109 -55.4084 -55.3745 -55.3741 -55.3180 -55.2969 -55.2710 -55.2322
   -55.2293 -55.2240 -55.2220 -55.2020 -55.2015 -55.1627 -54.3928 -54.3927
   -31.8018 -31.7988 -31.7399 -31.7205 -31.6973 -31.6969 -31.6857 -31.6666
   -31.6662 -31.6384 -31.6290 -31.6237 -31.6206 -31.5802 -31.5581 -31.5550
   -31.5549 -31.5471 -31.5466 -31.5360 -31.5236 -31.5139 -31.5036 -31.4998
   -31.4955 -31.4940 -31.4936 -31.4886 -31.4653 -31.4571 -31.4568 -31.4547
   -31.4378 -31.4356 -31.4352 -31.4261 -31.4248 -31.4201 -31.3821 -31.3815
   -31.3768 -31.3568 -30.7164 -30.7163 -30.6313 -30.6312 -30.5919 -30.5918
   -20.1741 -15.6974 -15.6780 -15.6189 -15.4389 -15.4123 -15.4020 -15.3953
   -15.3837 -15.2260 -15.2101 -15.1909 -15.1728 -15.1303 -15.1272 -15.1126
   -15.1026 -15.0014 -14.9992 -14.9971 -14.9957 -14.9332 -14.9253 -14.9115
   -14.8770 -14.8739 -14.8448 -14.7748 -14.7719 -14.6389 -14.4746 -12.8969
   -12.8968  -8.7910  -7.2003  -5.4101  -4.6971  -2.9533  -2.8829  -2.8395
    -2.6301  -2.6073  -2.5927  -2.5106  -2.4605  -2.3987  -2.3914  -2.3852
    -2.3255  -2.2907  -2.2770  -2.2584  -2.2503  -2.2339  -2.2115  -2.2008
    -2.1555  -2.1431  -2.1335  -2.0994  -2.0864  -2.0672  -2.0528  -2.0325
    -2.0086  -2.0032  -1.9851  -1.8231  -1.7737  -1.7269  -1.6854  -1.6662
    -1.6197  -1.6122  -1.5182  -1.4836  -1.4552  -1.4277  -1.4194  -1.2298
    -1.2124  -1.1593  -1.1549  -1.1317  -0.9765  -0.9551  -0.9400  -0.9225
    -0.8769  -0.7954  -0.7895  -0.7504  -0.6462  -0.6138  -0.6093  -0.5566
    -0.4380  -0.4137  -0.3913  -0.3852  -0.3791  -0.2904  -0.2715  -0.2653
    -0.2291  -0.1941  -0.1441  -0.1371  -0.0846   0.0982   0.1417   0.2083
     0.2874   0.4567   0.4953   0.5221   0.5638   0.6247   0.6981   0.7153
     0.7789   0.8726   0.8874   0.9170   0.9897   1.0427   1.0506   1.0749
     1.9707   1.9715   2.0553   2.0554   3.8433   3.8539   3.9162   3.9537
     4.0019   4.0915   4.1912   4.2077   4.2511   4.2523   4.3329

     the Fermi energy is     3.7262 ev

!    total energy              =   -2937.80825622 Ry
     estimated scf accuracy    <       0.00000006 Ry
     smearing contrib. (-TS)   =      -0.03814777 Ry
     internal energy E=F+TS    =   -2937.77010845 Ry

     The total energy is F=E-TS. E is the sum of the following terms:
     one-electron contribution =  -24092.43390146 Ry
     hartree contribution      =   12136.35960056 Ry
     xc contribution           =    -484.38983256 Ry
     ewald contribution        =    9502.69081756 Ry
     electric field correction =       0.00320745 Ry

     convergence has been achieved in  85 iterations

     Forces acting on atoms (cartesian axes, Ry/au):

     atom    1 type  1   force =     0.00006759   -0.00011886    0.09405275
     atom    2 type  1   force =    -0.00016442   -0.00023119   -0.17761870
     atom    3 type  2   force =     0.00011242   -0.00020140   -0.02139091
     atom    4 type  2   force =     0.00002603   -0.00183956    0.05753728
     atom    5 type  2   force =    -0.01069775   -0.00139242    0.00632718
     atom    6 type  2   force =     0.01276336   -0.00074559    0.00661138
     atom    7 type  1   force =     0.00011016    0.00196861   -0.01406190
     atom    8 type  1   force =    -0.00047629    0.00582206    0.00396494
     atom    9 type  2   force =     0.00036231    0.00022793   -0.00008784
     atom   10 type  2   force =    -0.00023885    0.00022145   -0.00511112
     atom   11 type  2   force =     0.00006245   -0.00014895   -0.00044975
     atom   12 type  2   force =    -0.00030140    0.00001033    0.00008285
     atom   13 type  1   force =    -0.00025446    0.00001256   -0.00026320
     atom   14 type  1   force =    -0.00008649    0.00013509   -0.00018866
     atom   15 type  2   force =    -0.00048224   -0.00035011   -0.00018289
     atom   16 type  2   force =    -0.00018418    0.00019052    0.00005894
     atom   17 type  2   force =    -0.00002777   -0.00015203   -0.00004410
     atom   18 type  2   force =    -0.00031568   -0.00013183   -0.00038969
     atom   19 type  1   force =    -0.00013207    0.00015257   -0.00056230
     atom   20 type  1   force =    -0.00034283    0.00021268    0.00109277
     atom   21 type  2   force =     0.00001813    0.00002096    0.10382121
     atom   22 type  2   force =     0.00007417    0.00012119   -0.00008629
     atom   23 type  2   force =    -0.07064655   -0.00008132   -0.02703848
     atom   24 type  2   force =     0.07054419    0.00036380   -0.02709294
     atom   25 type  1   force =     0.00000837   -0.00008556    0.09369658
     atom   26 type  1   force =    -0.00012593   -0.00015954   -0.17769501
     atom   27 type  2   force =     0.00013524   -0.00024661   -0.02037847
     atom   28 type  2   force =     0.00006874   -0.00155372    0.05701396
     atom   29 type  2   force =    -0.01103996   -0.00053919    0.00635225
     atom   30 type  2   force =     0.01296149   -0.00027511    0.00664568
     atom   31 type  1   force =     0.00030284    0.00520372   -0.01483538
     atom   32 type  1   force =    -0.00039609   -0.00656757    0.00412536
     atom   33 type  2   force =     0.00015958    0.00008115   -0.00031569
     atom   34 type  2   force =     0.00036090   -0.00102825   -0.00203246
     atom   35 type  2   force =    -0.00030206    0.00014608   -0.00021614
     atom   36 type  2   force =    -0.00004404   -0.00000323    0.00011231
     atom   37 type  1   force =    -0.00007169    0.00023337   -0.00012718
     atom   38 type  1   force =     0.00007034    0.00026454    0.00019903
     atom   39 type  2   force =    -0.00007147    0.00023083    0.00004849
     atom   40 type  2   force =    -0.00030142    0.00009467   -0.00017824
     atom   41 type  2   force =    -0.00029220   -0.00006620    0.00011754
     atom   42 type  2   force =    -0.00014672    0.00015948   -0.00011109
     atom   43 type  1   force =    -0.00012403    0.00010881   -0.00026669
     atom   44 type  1   force =    -0.00012923   -0.00081773    0.00044711
     atom   45 type  2   force =     0.00001335   -0.00000223    0.10383205
     atom   46 type  2   force =    -0.07067165   -0.00003819   -0.02705757
     atom   47 type  2   force =     0.07055010    0.00040270   -0.02709241
     atom   48 type  3   force =    -0.03713304   -0.00373998   -0.02368135
     atom   49 type  4   force =     0.02268374    0.00235773    0.01524961
     atom   50 type  5   force =     0.00142778   -0.00070938    0.00010480
     atom   51 type  3   force =     0.01070536    0.00173090    0.00508712
     atom   52 type  5   force =     0.00161185    0.00075203    0.00197526

     Total force =     0.369882     Total SCF correction =     0.000399
  @ DRIVER MODE: Message from server: STATUS
  @ DRIVER MODE: Message from server: GETFORCE
  @ DRIVER MODE: Returning v,forces,stress,ensemble

     Writing output data file ./calc.save/
  @ DRIVER MODE: Message from server: EXIT
  @ DRIVE MODE: Exiting

     General routines

     Parallel routines

   This run was terminated on:  22:46:45   8Sep2021

   JOB DONE.