     Program PWSCF v.6.7GPU starts on 23Sep2021 at 16:27:19

     R & G space division:  proc/nbgrp/npool/nimage =       8
     Reading input from /storage/home/hcoda1/3/ntian30/research/carbon/CxH_vib/H2O_calc/ads_slab/CH2NHNH2HO_a/out_0013/pw.inp
Warning: card &CELL ignored
Warning: card   CELL_DYNAMICS='IPI', ignored
Warning: card / ignored

     Current dimensions of program PWSCF are:
     Max number of different atomic species (ntypx) = 10
     Max number of k-points (npk) =  40000
     Max angular momentum in pseudopotentials (lmaxx) =  3
     Presently no symmetry can be used with electric field

     Message from routine cell_base_init:
     DEPRECATED: use true lattice parameter, not A to a.u. conversion factor

     IMPORTANT: XC functional enforced from input :
     Exchange-correlation= BEEF-VDW
                           (   1   4  43  14   2   0   0)
     Any further DFT definition will be discarded
     Please, verify this is what you really want

  @ DRIVER MODE: Connecting to
 qe_1139763_2947313.sched-torque.pace.gatech.edu4i4w1j06_scratch
  using UNIX socket
  @ DRIVER MODE: Message from server: STATUS
  @ DRIVER MODE: Message from server: INIT
  @ DRIVER MODE: Receiving replica           0          -1
  @ DRIVER MODE: Receiving encoded integer          25
  @ DRIVER MODE:  SCF:  T  FORCE:  T  STRESS:  F  VC:  F  ENSEMBLE:  F
  @ DRIVER MODE:  SCF:  T  FORCE:  T  STRESS:  F  VC:  F  ENSEMBLE:  F

     Using Slab Decomposition

     bravais-lattice index     =            0
     lattice parameter (alat)  =       1.8897  a.u.
     unit-cell volume          =    6658.9804 (a.u.)^3
     number of atoms/cell      =           57
     number of atomic types    =            5
     number of electrons       =       404.00
     number of Kohn-Sham states=          212
     kinetic-energy cutoff     =      29.3995  Ry
     charge density cutoff     =     293.9946  Ry
     scf convergence threshold =      7.3E-08
     mixing beta               =       0.0500
     number of iterations used =            8  plain     mixing
     Exchange-correlation= BEEF-VDW
                           (   1   4  43  14   2   0   0)

     celldm(1)=   1.889726  celldm(2)=   0.000000  celldm(3)=   0.000000
     celldm(4)=   0.000000  celldm(5)=   0.000000  celldm(6)=   0.000000

     crystal axes: (cart. coord. in units of alat)
               a(1) = (   6.579727   0.000000   0.000000 )
               a(2) = (  -0.000775   5.961596   0.000000 )
               a(3) = (   0.000000   0.000000  25.155947 )

     reciprocal axes: (cart. coord. in units 2 pi/alat)
               b(1) = (  0.151982  0.000020  0.000000 )
               b(2) = (  0.000000  0.167740  0.000000 )
               b(3) = (  0.000000  0.000000  0.039752 )

     PseudoPot. # 1 for Ti read from file:
     /storage/coda1/p-amedford6/0/shared/rich_project_chbe-medford/medford-share/data/pseudos_module/espresso/nninc/pbe/van/Ti.UPF
     MD5 check sum: 8e4df49b7f0d34bbd5052bf3f5ea0213
     Pseudo is Ultrasoft, Zval = 12.0
     Generated by new atomic code, or converted to UPF format
     Using radial grid of  851 points,  6 beta functions with:
                l(1) =   0
                l(2) =   0
                l(3) =   1
                l(4) =   1
                l(5) =   2
                l(6) =   2
     Q(r) pseudized with  8 coefficients,  rinner =    1.000   1.000   1.000
                                                       1.000   1.000

     PseudoPot. # 2 for O  read from file:
     /storage/coda1/p-amedford6/0/shared/rich_project_chbe-medford/medford-share/data/pseudos_module/espresso/nninc/pbe/van/O.UPF
     MD5 check sum: 78c19812648e8988a0fe644b0f25305e
     Pseudo is Ultrasoft, Zval =  6.0
     Generated by new atomic code, or converted to UPF format
     Using radial grid of  737 points,  4 beta functions with:
                l(1) =   0
                l(2) =   0
                l(3) =   1
                l(4) =   1
     Q(r) pseudized with  8 coefficients,  rinner =    0.800   0.800   0.800

     PseudoPot. # 3 for N  read from file:
     /storage/coda1/p-amedford6/0/shared/rich_project_chbe-medford/medford-share/data/pseudos_module/espresso/nninc/pbe/van/N.UPF
     MD5 check sum: 90d10febe142ad51ac9d5be1deb811c4
     Pseudo is Ultrasoft, Zval =  5.0
     Generated by new atomic code, or converted to UPF format
     Using radial grid of  729 points,  4 beta functions with:
                l(1) =   0
                l(2) =   0
                l(3) =   1
                l(4) =   1
     Q(r) pseudized with  8 coefficients,  rinner =    0.800   0.800   0.800

     PseudoPot. # 4 for C  read from file:
     /storage/coda1/p-amedford6/0/shared/rich_project_chbe-medford/medford-share/data/pseudos_module/espresso/nninc/pbe/van/C.UPF
     MD5 check sum: 1a69bf6b8db32088f5b2163dbdb77a27
     Pseudo is Ultrasoft, Zval =  4.0
     Generated by new atomic code, or converted to UPF format
     Using radial grid of  721 points,  4 beta functions with:
                l(1) =   0
                l(2) =   0
                l(3) =   1
                l(4) =   1
     Q(r) pseudized with  8 coefficients,  rinner =    0.800   0.800   0.800

     PseudoPot. # 5 for H  read from file:
     /storage/coda1/p-amedford6/0/shared/rich_project_chbe-medford/medford-share/data/pseudos_module/espresso/nninc/pbe/van/H.UPF
     MD5 check sum: b5ee9d7bfd3a09ee7748110bda690ff7
     Pseudo is Ultrasoft, Zval =  1.0
     Generated by new atomic code, or converted to UPF format
     Using radial grid of  615 points,  1 beta functions with:
                l(1) =   0
     Q(r) pseudized with  8 coefficients,  rinner =    0.800

     atomic species   valence    mass     pseudopotential
        Ti1           12.00    47.86700     Ti( 1.00)
        O1             6.00    15.99900     O ( 1.00)
        N1             5.00    14.00700     N ( 1.00)
        C1             4.00    12.01100     C ( 1.00)
        H1             1.00     1.00800     H ( 1.00)

     No symmetry found

   Cartesian axes

     site n.     atom                  positions (alat units)
         1           Ti1 tau(   1) = (   0.0004258   2.9801865   6.0000000  )
         2           Ti1 tau(   2) = (   3.2906075   1.4906267   6.0002472  )
         3           O1  tau(   3) = (   0.0006271   0.0005054   7.9858123  )
         4           O1  tau(   4) = (   3.2906025   0.0005020   7.3038282  )
         5           O1  tau(   5) = (   4.5942328   1.4918067   9.2879030  )
         6           O1  tau(   6) = (   1.9868534   1.4903216   9.2879459  )
         7           Ti1 tau(   7) = (   3.2907910   2.8959150   9.1758416  )
         8           Ti1 tau(   8) = (   0.0015273   1.4827037   9.2680791  )
         9           O1  tau(   9) = (   3.2769995   5.9424463  11.3879711  )
        10           O1  tau(  10) = (   0.0116148   5.9584955  10.6183126  )
        11           O1  tau(  11) = (   1.2559300   1.4809235  12.6914295  )
        12           O1  tau(  12) = (   5.2914439   1.4888754  12.6824943  )
        13           Ti1 tau(  13) = (   6.5693074   2.9549812  12.5071532  )
        14           Ti1 tau(  14) = (   3.2720578   1.2926143  12.7373905  )
        15           O1  tau(  15) = (   6.5263330   5.9075480  14.6758232  )
        16           O1  tau(  16) = (   3.2750150   0.0724425  14.0538047  )
        17           O1  tau(  17) = (   4.5404297   1.6145126  16.1214498  )
        18           O1  tau(  18) = (   1.9612862   1.5681812  16.1371236  )
        19           Ti1 tau(  19) = (   3.2615978   3.0295928  15.7214328  )
        20           Ti1 tau(  20) = (   6.4910920   1.3289874  15.8500745  )
        21           O1  tau(  21) = (   3.2904802   0.0005063   4.7018136  )
        22           O1  tau(  22) = (   6.5149858   0.1606772  17.2625446  )
        23           O1  tau(  23) = (   1.3043587   1.4918075   6.0039043  )
        24           O1  tau(  24) = (   5.2767064   1.4903225   6.0039473  )
        25           Ti1 tau(  25) = (   0.0000382   5.9609847   6.0000000  )
        26           Ti1 tau(  26) = (   3.2902200   4.4714249   6.0002472  )
        27           O1  tau(  27) = (   0.0002396   2.9813036   7.9858123  )
        28           O1  tau(  28) = (   3.2902150   2.9813002   7.3038282  )
        29           O1  tau(  29) = (   4.5938453   4.4726049   9.2879030  )
        30           O1  tau(  30) = (   1.9864658   4.4711199   9.2879459  )
        31           Ti1 tau(  31) = (   3.2891106   5.8743827   9.1763621  )
        32           Ti1 tau(  32) = (   0.0006254   4.4649316   9.2693709  )
        33           O1  tau(  33) = (   3.2749377   2.9871965  11.3337082  )
        34           O1  tau(  34) = (   0.0092240   2.9805883  10.6323155  )
        35           O1  tau(  35) = (   1.2597673   4.4587344  12.6634223  )
        36           O1  tau(  36) = (   5.2866262   4.4511231  12.6493885  )
        37           Ti1 tau(  37) = (   6.5604603   5.9292220  12.4937940  )
        38           Ti1 tau(  38) = (   3.2724722   4.3622713  12.4512132  )
        39           O1  tau(  39) = (   6.5737517   3.0258615  14.9025115  )
        40           O1  tau(  40) = (   3.2593133   3.0063273  13.9441864  )
        41           O1  tau(  41) = (   4.5441350   4.4310557  16.1689449  )
        42           O1  tau(  42) = (   1.9655774   4.4762250  16.2070539  )
        43           Ti1 tau(  43) = (   3.1776431   0.0563557  16.2565842  )
        44           Ti1 tau(  44) = (   6.5216753   4.5226504  15.9439936  )
        45           O1  tau(  45) = (   3.2900926   2.9813045   4.7018136  )
        46           O1  tau(  46) = (   1.3039711   4.4726057   6.0039043  )
        47           O1  tau(  47) = (   5.2763189   4.4711207   6.0039473  )
        48           N1  tau(  48) = (   0.8157702   2.5297039  18.7633901  )
        49           N1  tau(  49) = (   6.4302604   3.3580032  18.1334362  )
        50           C1  tau(  50) = (   1.9449655   3.0231469  19.2293773  )
        51           H1  tau(  51) = (   2.0901252   4.0892486  19.3254668  )
        52           H1  tau(  52) = (   2.7239663   2.3052050  19.4587972  )
        53           H1  tau(  53) = (   0.7490178   1.5515861  18.4517582  )
        54           H1  tau(  54) = (   6.4535031   4.2829477  18.5696568  )
        55           H1  tau(  55) = (   5.5068980   2.9516776  18.2836589  )
        56           O1  tau(  56) = (   3.3967406   0.0908776  18.1493316  )
        57           H1  tau(  57) = (   4.3453859   0.1513423  18.3540861  )

     number of k points=    10  Fermi-Dirac smearing, width (Ry)=  0.0073
                       cart. coord. in units 2pi/alat
        k(    1) = (   0.0000000   0.0000000   0.0000000), wk =   0.1250000
        k(    2) = (   0.0000000   0.0419351   0.0000000), wk =   0.2500000
        k(    3) = (   0.0000000  -0.0838702   0.0000000), wk =   0.1250000
        k(    4) = (   0.0379955   0.0000049   0.0000000), wk =   0.2500000
        k(    5) = (   0.0379955   0.0419400   0.0000000), wk =   0.2500000
        k(    6) = (   0.0379955  -0.0838652   0.0000000), wk =   0.2500000
        k(    7) = (   0.0379955  -0.0419301   0.0000000), wk =   0.2500000
        k(    8) = (  -0.0759910  -0.0000099   0.0000000), wk =   0.1250000
        k(    9) = (  -0.0759910   0.0419252   0.0000000), wk =   0.2500000
        k(   10) = (  -0.0759910  -0.0838800   0.0000000), wk =   0.1250000

     Initial potential from superposition of free atoms

     starting charge  387.99913, renormalised to  404.00000

     negative rho (up, down):  1.609E-02 0.000E+00

     %%%%%%%%%%%%%%%%%%%%%%%%%%%%%%%%%%%%%%%%%%%%%%%%%%%%%%%%%%%%%%%%%%%%%%%%
     %                                                                      %
     % You are using vdW-DF, which was implemented by the Thonhauser group. %
     % Please cite the following two papers that made this development      %
     % possible and the two reviews that describe the various versions:     %
     %                                                                      %
     %   T. Thonhauser et al., PRL 115, 136402 (2015).                      %
     %   T. Thonhauser et al., PRB 76, 125112 (2007).                       %
     %   K. Berland et al., Rep. Prog. Phys. 78, 066501 (2015).             %
     %   D.C. Langreth et al., J. Phys.: Condens. Matter 21, 084203 (2009). %
     %                                                                      %
     %                                                                      %
     % If you are calculating the stress with vdW-DF, please also cite:     %
     %                                                                      %
     %   R. Sabatini et al., J. Phys.: Condens. Matter 24, 424209 (2012).   %
     %                                                                      %
     %%%%%%%%%%%%%%%%%%%%%%%%%%%%%%%%%%%%%%%%%%%%%%%%%%%%%%%%%%%%%%%%%%%%%%%%

     Adding external electric field

     Computed dipole along edir(3) :
        Dipole              -13.8429 Ry au,        -35.1851 Debye
        Dipole field         -0.0261 Ry au,

        Potential amp.        2.4216 Ry
        Total length         46.3494 bohr

     Starting wfcs are  306 atomic wfcs
  @ DRIVER MODE: Message from server: STATUS
  @ DRIVER MODE: Message from server: POSDATA
  @ DRIVER MODE: Reading and sharing cell
  @ DRIVER MODE: Reading and sharing positions
  @ DRIVER MODE: Received positions

     Self-consistent Calculation

     iteration #  1     ecut=    29.40 Ry     beta= 0.05
     Davidson diagonalization with overlap
     c_bands:  1 eigenvalues not converged
     c_bands:  2 eigenvalues not converged
     c_bands:  1 eigenvalues not converged
     c_bands:  1 eigenvalues not converged
     c_bands:  1 eigenvalues not converged
     c_bands:  2 eigenvalues not converged
     c_bands:  5 eigenvalues not converged
     c_bands:  3 eigenvalues not converged
     ethr =  1.00E-05,  avg # of iterations = 32.8

[...]

     total energy              =   -2231.87750369 Ry
     estimated scf accuracy    <    8426.17523223 Ry

     iteration #  2     ecut=    29.40 Ry     beta= 0.05
     Davidson diagonalization with overlap
     ethr =  1.00E-02,  avg # of iterations = 28.1

[...]

     iteration # 67     ecut=    29.40 Ry     beta= 0.05
     Davidson diagonalization with overlap
     c_bands:  1 eigenvalues not converged
     ethr =  3.80E-08,  avg # of iterations = 11.6

[...]

     total energy              =   -2975.14992255 Ry
     estimated scf accuracy    <       0.00000015 Ry

     iteration # 86     ecut=    29.40 Ry     beta= 0.05
     Davidson diagonalization with overlap
     ethr =  3.77E-11,  avg # of iterations =  9.5

     negative rho (up, down):  1.520E-02 0.000E+00

     Adding external electric field

     Computed dipole along edir(3) :
        Dipole                1.1941 Ry au,          3.0351 Debye
        Dipole field          0.0023 Ry au,

        Potential amp.       -0.2089 Ry
        Total length         46.3494 bohr

     End of self-consistent calculation

          k = 0.0000 0.0000 0.0000 ( 18029 PWs)   bands (ev):

   -55.4095 -55.3258 -55.2917 -55.2212 -55.1830 -55.1720 -55.1580 -55.1557
   -55.1407 -55.1212 -55.0928 -55.0226 -55.0157 -54.9883 -54.3199 -54.2859
   -31.8138 -31.7645 -31.7361 -31.7071 -31.6611 -31.6595 -31.6244 -31.6156
   -31.6144 -31.6010 -31.5711 -31.5343 -31.4960 -31.4788 -31.4630 -31.4550
   -31.4388 -31.4355 -31.4344 -31.4003 -31.3834 -31.3718 -31.3674 -31.3623
   -31.3589 -31.3519 -31.3482 -31.3271 -31.3208 -31.3176 -31.3173 -31.2943
   -31.2855 -31.2818 -31.2697 -31.2455 -31.2294 -31.2248 -31.2023 -31.1922
   -31.1900 -31.1856 -30.7270 -30.6380 -30.6157 -30.5443 -30.4577 -30.3461
   -19.4313 -16.2702 -16.0425 -15.8768 -15.6615 -15.6163 -15.5241 -15.3619
   -15.2498 -15.1791 -15.0731 -14.9993 -14.9247 -14.8860 -14.8768 -14.8632
   -14.8582 -14.8068 -14.7990 -14.7953 -14.7839 -14.7730 -14.7633 -14.7225
   -14.6884 -14.6417 -14.6339 -14.4848 -14.4466 -14.4098 -14.2913 -14.2685
   -12.8192 -12.7024 -10.2132  -7.8464  -6.5968  -5.4410  -4.2269  -3.7856
    -3.6546  -3.3848  -3.2758  -3.2437  -3.1855  -3.1494  -2.8951  -2.7970
    -2.7773  -2.6405  -2.5217  -2.4753  -2.4152  -2.3440  -2.3126  -2.2899
    -2.2642  -2.2107  -2.1446  -2.1297  -2.1188  -2.0402  -2.0359  -1.9629
    -1.9130  -1.8990  -1.7946  -1.7240  -1.6906  -1.6770  -1.6662  -1.6488
    -1.6246  -1.6171  -1.5937  -1.5326  -1.4662  -1.4580  -1.3923  -1.3650
    -1.0976  -1.0323  -0.9633  -0.9343  -0.8592  -0.8351  -0.8020  -0.7811
    -0.7353  -0.7335  -0.7256  -0.6521  -0.5632  -0.4982  -0.4687  -0.4471
    -0.3946  -0.2828  -0.2635  -0.1518  -0.1225  -0.1169  -0.0747  -0.0279
     0.0138   0.0539   0.1132   0.1850   0.2343   0.2855   0.3171   0.3445
     0.3841   0.4186   0.4812   0.5590   0.5829   0.6276   0.6569   0.6774
     0.6869   0.7435   0.7605   0.8482   0.9287   0.9395   1.0348   1.0684
     1.1167   1.3059   1.3415   1.6419   1.6881   1.7061   1.8947   2.2759
     2.3223   3.7414   3.8646   3.8958   3.9061   3.9460   3.9787   4.0337
     4.2268   4.2400   4.3509   4.4313

[...]

          k = 0.0380-0.0419 0.0000 ( 17876 PWs)   bands (ev):

[...]

          k =-0.0760-0.0000 0.0000 ( 17886 PWs)   bands (ev):

[...]

          k =-0.0760-0.0839 0.0000 ( 17948 PWs)   bands (ev):

   -55.4086 -55.3089 -55.3085 -55.2099 -55.1941 -55.1696 -55.1589 -55.1382
   -55.1379 -55.1344 -55.0997 -55.0179 -55.0113 -54.9995 -54.3033 -54.3024
   -31.6766 -31.6673 -31.6486 -31.6291 -31.6288 -31.6150 -31.6011 -31.6007
   -31.5613 -31.5289 -31.5131 -31.4880 -31.4785 -31.4700 -31.4595 -31.4456
   -31.4443 -31.4394 -31.4356 -31.4288 -31.4284 -31.4194 -31.4032 -31.3958
   -31.3910 -31.3736 -31.3589 -31.3587 -31.3523 -31.3499 -31.3459 -31.3355
   -31.3205 -31.3165 -31.3152 -31.3123 -31.2794 -31.2769 -31.2386 -31.2328
   -31.2063 -31.1979 -30.6287 -30.6280 -30.5403 -30.5391 -30.5014 -30.5007
   -19.4268 -16.2417 -15.7473 -15.4789 -15.3522 -15.3403 -15.2194 -15.2050
   -15.1434 -15.1349 -15.1056 -15.0900 -15.0802 -15.0374 -15.0089 -14.9226
   -14.9076 -14.8662 -14.8627 -14.8170 -14.8146 -14.8133 -14.7910 -14.7696
   -14.7673 -14.7621 -14.7387 -14.6754 -14.6620 -14.5253 -14.4520 -14.3913
   -12.8044 -12.8038 -10.1842  -7.8135  -6.5882  -5.5222  -4.1872  -3.8044
    -3.6160  -2.8340  -2.6911  -2.5888  -2.4802  -2.4477  -2.3985  -2.3501
    -2.3357  -2.3040  -2.2349  -2.2039  -2.1892  -2.1536  -2.1523  -2.1288
    -2.1193  -2.0986  -2.0717  -2.0529  -2.0407  -2.0360  -2.0081  -1.9931
    -1.9776  -1.9533  -1.9248  -1.9043  -1.8901  -1.8835  -1.8340  -1.7288
    -1.6383  -1.5592  -1.5227  -1.4979  -1.4894  -1.4378  -1.4244  -1.4139
    -1.3772  -1.3546  -1.2228  -1.2003  -1.0652  -1.0042  -0.9707  -0.9274
    -0.8709  -0.8635  -0.8510  -0.8074  -0.7682  -0.6353  -0.6046  -0.5738
    -0.5203  -0.4369  -0.3492  -0.3351  -0.3120  -0.2935  -0.2580  -0.2407
    -0.2242  -0.1962  -0.1666  -0.0885  -0.0530  -0.0403  -0.0228   0.0755
     0.1738   0.2132   0.2771   0.3462   0.3902   0.4141   0.4432   0.6277
     0.6589   0.8024   0.8116   0.8162   0.9606   0.9618   1.0076   1.0549
     1.0879   1.1313   1.1595   1.1751   1.2102   2.0649   2.0733   2.1425
     2.1427   3.7784   3.9413   4.1656   4.1882   4.2475   4.2584   4.2894
     4.3151   4.3446   4.3849   4.4047

     the Fermi energy is     3.7912 ev

!    total energy              =   -2975.14992694 Ry
     estimated scf accuracy    <       0.00000005 Ry
     smearing contrib. (-TS)   =      -0.03334513 Ry
     internal energy E=F+TS    =   -2975.11658181 Ry

     The total energy is F=E-TS. E is the sum of the following terms:
     one-electron contribution =  -23380.10308552 Ry
     hartree contribution      =   11787.37301174 Ry
     xc contribution           =    -494.90769479 Ry
     ewald contribution        =    9112.51849600 Ry
     electric field correction =       0.00269075 Ry

     convergence has been achieved in  86 iterations

     Forces acting on atoms (cartesian axes, Ry/au):

     atom    1 type  1   force =     0.00028459   -0.00020102    0.09345967
     atom    2 type  1   force =    -0.00006184    0.00053226   -0.17633366
     atom    3 type  2   force =     0.00004308   -0.00029727   -0.02069412
     atom    4 type  2   force =     0.00001588   -0.00222287    0.05687534
     atom    5 type  2   force =    -0.00785415   -0.00263304    0.00513849
     atom    6 type  2   force =     0.00891909   -0.00211605    0.00325817
     atom    7 type  1   force =    -0.00077879   -0.00333215    0.00572573
     atom    8 type  1   force =     0.00086017    0.00107393   -0.00175138
     atom    9 type  2   force =    -0.00018703    0.00015645    0.00008754
     atom   10 type  2   force =    -0.00341898    0.00105558   -0.00643805
     atom   11 type  2   force =     0.00021764   -0.00013150    0.00032975
     atom   12 type  2   force =    -0.00015108   -0.00022826    0.00005155
     atom   13 type  1   force =     0.00000500   -0.00005045   -0.00027700
     atom   14 type  1   force =     0.00053350   -0.00036279   -0.00034194
     atom   15 type  2   force =    -0.00001164   -0.00104864   -0.00039596
     atom   16 type  2   force =     0.00019278    0.00060770    0.00097164
     atom   17 type  2   force =    -0.00123207    0.00036731   -0.00023317
     atom   18 type  2   force =     0.00118683    0.00013344   -0.00041927
     atom   19 type  1   force =     0.00014524    0.00061498   -0.00050943
     atom   20 type  1   force =     0.00046762    0.00039092   -0.00109248
     atom   21 type  2   force =     0.00011449    0.00005131    0.10355756
     atom   22 type  2   force =     0.00019861    0.00013610    0.00137541
     atom   23 type  2   force =    -0.07135179   -0.00017459   -0.02698998
     atom   24 type  2   force =     0.07134617    0.00027422   -0.02702084
     atom   25 type  1   force =     0.00006996   -0.00017546    0.09323079
     atom   26 type  1   force =     0.00008215   -0.00126328   -0.17653437
     atom   27 type  2   force =     0.00007669   -0.00015119   -0.01946317
     atom   28 type  2   force =     0.00001735   -0.00060092    0.05224066
     atom   29 type  2   force =    -0.00742317    0.00176833    0.00490000
     atom   30 type  2   force =     0.00835267    0.00235319    0.00300315
     atom   31 type  1   force =    -0.00098153    0.00885378   -0.00439331
     atom   32 type  1   force =     0.00094606   -0.00222086   -0.00241303
     atom   33 type  2   force =    -0.00022528   -0.00134228   -0.00061227
     atom   34 type  2   force =    -0.00214389   -0.00210641   -0.00763367
     atom   35 type  2   force =     0.00000413    0.00015504    0.00028193
     atom   36 type  2   force =     0.00015705    0.00015218    0.00022120
     atom   37 type  1   force =     0.00002763   -0.00031563    0.00008811
     atom   38 type  1   force =     0.00035054    0.00047962    0.00012861
     atom   39 type  2   force =    -0.00000661    0.00064012   -0.00008545
     atom   40 type  2   force =     0.00021193   -0.00016540    0.00051800
     atom   41 type  2   force =    -0.00043020   -0.00013684    0.00038655
     atom   42 type  2   force =     0.00075177   -0.00035553    0.00030024
     atom   43 type  1   force =     0.00049551   -0.00072079   -0.00080834
     atom   44 type  1   force =     0.00006957    0.00110249   -0.00018612
     atom   45 type  2   force =     0.00010037   -0.00009017    0.10331422
     atom   46 type  2   force =    -0.07139356   -0.00003261   -0.02702295
     atom   47 type  2   force =     0.07137023    0.00038261   -0.02705630
     atom   48 type  3   force =    -0.01285937   -0.00333286   -0.00550697
     atom   49 type  3   force =    -0.00096372    0.00023306    0.00023614
     atom   50 type  4   force =     0.02317866    0.00017255    0.00838954
     atom   51 type  5   force =    -0.00159604   -0.00211083   -0.00115180
     atom   52 type  5   force =    -0.00719869    0.00547309   -0.00214941
     atom   53 type  5   force =    -0.00033756   -0.00014231   -0.00007404
     atom   54 type  5   force =    -0.00008841    0.00033375   -0.00038021
     atom   55 type  5   force =    -0.00003645    0.00038141    0.00032518
     atom   56 type  2   force =     0.00081789    0.00086656    0.00043093
     atom   57 type  5   force =    -0.00087900   -0.00067998   -0.00085740

     Total force =     0.364314     Total SCF correction =     0.000944
  @ DRIVER MODE: Message from server: STATUS
  @ DRIVER MODE: Message from server: GETFORCE
  @ DRIVER MODE: Returning v,forces,stress,ensemble

     Writing output data file ./calc.save/
  @ DRIVER MODE: Message from server: EXIT
  @ DRIVE MODE: Exiting

     General routines

     Parallel routines

   This run was terminated on:  16:57: 6  23Sep2021

   JOB DONE.