     Program PWSCF v.6.7GPU starts on 12Oct2021 at  5:26:20

     R & G space division:  proc/nbgrp/npool/nimage =       8
     Reading input from /storage/home/hcoda1/3/ntian30/research/carbon/CxH_vib/CH2_calc/ads_slab/CH2NHH_b/out_0036/pw.inp
Warning: card &CELL ignored
Warning: card   CELL_DYNAMICS='IPI', ignored
Warning: card / ignored

     Current dimensions of program PWSCF are:
     Max number of different atomic species (ntypx) = 10
     Max number of k-points (npk) =  40000
     Max angular momentum in pseudopotentials (lmaxx) =  3
     Presently no symmetry can be used with electric field

     Message from routine cell_base_init:
     DEPRECATED: use true lattice parameter, not A to a.u. conversion factor

     IMPORTANT: XC functional enforced from input :
     Exchange-correlation= BEEF-VDW
                           (   1   4  43  14   2   0   0)
     Any further DFT definition will be discarded
     Please, verify this is what you really want

  @ DRIVER MODE: Connecting to
 qe_1139763_3171005.sched-torque.pace.gatech.eduqrhu6tg0_scratch
  using UNIX socket
  @ DRIVER MODE: Message from server: STATUS
  @ DRIVER MODE: Message from server: INIT
  @ DRIVER MODE: Receiving replica           0          -1
  @ DRIVER MODE: Receiving encoded integer          25
  @ DRIVER MODE:  SCF:  T  FORCE:  T  STRESS:  F  VC:  F  ENSEMBLE:  F
  @ DRIVER MODE:  SCF:  T  FORCE:  T  STRESS:  F  VC:  F  ENSEMBLE:  F

     Using Slab Decomposition

     bravais-lattice index     =            0
     lattice parameter (alat)  =       1.8897  a.u.
     unit-cell volume          =    6658.9804 (a.u.)^3
     number of atoms/cell      =           53
     number of atomic types    =            5
     number of electrons       =       391.00
     number of Kohn-Sham states=          205
     kinetic-energy cutoff     =      29.3995  Ry
     charge density cutoff     =     293.9946  Ry
     scf convergence threshold =      7.3E-08
     mixing beta               =       0.0500
     number of iterations used =            8  plain     mixing
     Exchange-correlation= BEEF-VDW
                           (   1   4  43  14   2   0   0)

     celldm(1)=   1.889726  celldm(2)=   0.000000  celldm(3)=   0.000000
     celldm(4)=   0.000000  celldm(5)=   0.000000  celldm(6)=   0.000000

     crystal axes: (cart. coord. in units of alat)
               a(1) = (   6.579727   0.000000   0.000000 )
               a(2) = (  -0.000775   5.961596   0.000000 )
               a(3) = (   0.000000   0.000000  25.155947 )

     reciprocal axes: (cart. coord. in units 2 pi/alat)
               b(1) = (  0.151982  0.000020  0.000000 )
               b(2) = (  0.000000  0.167740  0.000000 )
               b(3) = (  0.000000  0.000000  0.039752 )

     PseudoPot. # 1 for Ti read from file:
     /storage/coda1/p-amedford6/0/shared/rich_project_chbe-medford/medford-share/data/pseudos_module/espresso/nninc/pbe/van/Ti.UPF
     MD5 check sum: 8e4df49b7f0d34bbd5052bf3f5ea0213
     Pseudo is Ultrasoft, Zval = 12.0
     Generated by new atomic code, or converted to UPF format
     Using radial grid of  851 points,  6 beta functions with:
                l(1) =   0
                l(2) =   0
                l(3) =   1
                l(4) =   1
                l(5) =   2
                l(6) =   2
     Q(r) pseudized with  8 coefficients,  rinner =    1.000   1.000   1.000
                                                       1.000   1.000

     PseudoPot. # 2 for O  read from file:
     /storage/coda1/p-amedford6/0/shared/rich_project_chbe-medford/medford-share/data/pseudos_module/espresso/nninc/pbe/van/O.UPF
     MD5 check sum: 78c19812648e8988a0fe644b0f25305e
     Pseudo is Ultrasoft, Zval =  6.0
     Generated by new atomic code, or converted to UPF format
     Using radial grid of  737 points,  4 beta functions with:
                l(1) =   0
                l(2) =   0
                l(3) =   1
                l(4) =   1
     Q(r) pseudized with  8 coefficients,  rinner =    0.800   0.800   0.800

     PseudoPot. # 3 for H  read from file:
     /storage/coda1/p-amedford6/0/shared/rich_project_chbe-medford/medford-share/data/pseudos_module/espresso/nninc/pbe/van/H.UPF
     MD5 check sum: b5ee9d7bfd3a09ee7748110bda690ff7
     Pseudo is Ultrasoft, Zval =  1.0
     Generated by new atomic code, or converted to UPF format
     Using radial grid of  615 points,  1 beta functions with:
                l(1) =   0
     Q(r) pseudized with  8 coefficients,  rinner =    0.800

     PseudoPot. # 4 for N  read from file:
     /storage/coda1/p-amedford6/0/shared/rich_project_chbe-medford/medford-share/data/pseudos_module/espresso/nninc/pbe/van/N.UPF
     MD5 check sum: 90d10febe142ad51ac9d5be1deb811c4
     Pseudo is Ultrasoft, Zval =  5.0
     Generated by new atomic code, or converted to UPF format
     Using radial grid of  729 points,  4 beta functions with:
                l(1) =   0
                l(2) =   0
                l(3) =   1
                l(4) =   1
     Q(r) pseudized with  8 coefficients,  rinner =    0.800   0.800   0.800

     PseudoPot. # 5 for C  read from file:
     /storage/coda1/p-amedford6/0/shared/rich_project_chbe-medford/medford-share/data/pseudos_module/espresso/nninc/pbe/van/C.UPF
     MD5 check sum: 1a69bf6b8db32088f5b2163dbdb77a27
     Pseudo is Ultrasoft, Zval =  4.0
     Generated by new atomic code, or converted to UPF format
     Using radial grid of  721 points,  4 beta functions with:
                l(1) =   0
                l(2) =   0
                l(3) =   1
                l(4) =   1
     Q(r) pseudized with  8 coefficients,  rinner =    0.800   0.800   0.800

     atomic species   valence    mass     pseudopotential
        Ti1           12.00    47.86700     Ti( 1.00)
        O1             6.00    15.99900     O ( 1.00)
        H1             1.00     1.00800     H ( 1.00)
        N1             5.00    14.00700     N ( 1.00)
        C1             4.00    12.01100     C ( 1.00)

     No symmetry found

   Cartesian axes

     site n.     atom                  positions (alat units)
         1           Ti1 tau(   1) = (   0.0004258   2.9801865   6.0000000  )
         2           Ti1 tau(   2) = (   3.2906075   1.4906267   6.0002472  )
         3           O1  tau(   3) = (   0.0006271   0.0005054   7.9858123  )
         4           O1  tau(   4) = (   3.2906025   0.0005020   7.3038282  )
         5           O1  tau(   5) = (   4.5942328   1.4918067   9.2879030  )
         6           O1  tau(   6) = (   1.9868534   1.4903216   9.2879459  )
         7           Ti1 tau(   7) = (   3.2907910   2.8959150   9.1758416  )
         8           Ti1 tau(   8) = (   0.0015273   1.4827037   9.2680791  )
         9           O1  tau(   9) = (   3.3750462   0.0034689  11.3324641  )
        10           O1  tau(  10) = (   0.0116148   5.9584955  10.6183126  )
        11           O1  tau(  11) = (   1.3977860   1.4758343  12.6375763  )
        12           O1  tau(  12) = (   5.4232152   1.4913549  12.6657899  )
        13           Ti1 tau(  13) = (   0.0691229   2.9530050  12.5389017  )
        14           Ti1 tau(  14) = (   3.3643908   1.4039863  12.4577757  )
        15           O1  tau(  15) = (   0.1477665   0.0132832  14.6652528  )
        16           O1  tau(  16) = (   3.5189244   0.0045933  13.9158019  )
        17           O1  tau(  17) = (   4.7861523   1.5333885  16.1913275  )
        18           O1  tau(  18) = (   2.2541876   1.4026900  15.9427082  )
        19           Ti1 tau(  19) = (   3.5811307   2.9972434  16.0687679  )
        20           Ti1 tau(  20) = (   0.2998503   1.4255696  15.8726171  )
        21           O1  tau(  21) = (   3.2904802   0.0005063   4.7018136  )
        22           O1  tau(  22) = (   0.2643450   0.0038197  17.1846268  )
        23           O1  tau(  23) = (   1.3043587   1.4918075   6.0039043  )
        24           O1  tau(  24) = (   5.2767064   1.4903225   6.0039473  )
        25           Ti1 tau(  25) = (   0.0000382   5.9609847   6.0000000  )
        26           Ti1 tau(  26) = (   3.2902200   4.4714249   6.0002472  )
        27           O1  tau(  27) = (   0.0002396   2.9813036   7.9858123  )
        28           O1  tau(  28) = (   3.2902150   2.9813002   7.3038282  )
        29           O1  tau(  29) = (   4.5938453   4.4726049   9.2879030  )
        30           O1  tau(  30) = (   1.9864658   4.4711199   9.2879459  )
        31           Ti1 tau(  31) = (   3.2891106   5.8743827   9.1763621  )
        32           Ti1 tau(  32) = (   0.0006254   4.4649316   9.2693709  )
        33           O1  tau(  33) = (   3.3836021   2.9593565  11.3526375  )
        34           O1  tau(  34) = (   0.0092240   2.9805883  10.6323155  )
        35           O1  tau(  35) = (   1.3957467   4.4736095  12.6396340  )
        36           O1  tau(  36) = (   5.4261019   4.4541359  12.6685409  )
        37           Ti1 tau(  37) = (   0.0939275   5.9312067  12.4916740  )
        38           Ti1 tau(  38) = (   3.3665170   4.3046527  12.6650499  )
        39           O1  tau(  39) = (   0.1734719   2.9828917  14.8532074  )
        40           O1  tau(  40) = (   3.4150578   3.0309863  13.9715028  )
        41           O1  tau(  41) = (   4.7877001   4.4493464  16.1994792  )
        42           O1  tau(  42) = (   2.2536850   4.5881152  15.9586447  )
        43           Ti1 tau(  43) = (   3.5332629   0.0183730  15.6991940  )
        44           Ti1 tau(  44) = (   0.2986595   4.6220906  15.9451660  )
        45           O1  tau(  45) = (   3.2900926   2.9813045   4.7018136  )
        46           O1  tau(  46) = (   1.3039711   4.4726057   6.0039043  )
        47           O1  tau(  47) = (   5.2763189   4.4711207   6.0039473  )
        48           H1  tau(  48) = (   0.6716682   3.7174429  18.3617054  )
        49           H1  tau(  49) = (   0.7299512   2.1188458  18.2939656  )
        50           N1  tau(  50) = (   1.0883034   2.9530349  17.8291855  )
        51           C1  tau(  51) = (   2.6610371   2.9951180  18.0825860  )
        52           H1  tau(  52) = (   2.6895649   3.8224559  18.7561578  )
        53           H1  tau(  53) = (   2.7295784   2.2142559  18.8215579  )

     number of k points=    10  Fermi-Dirac smearing, width (Ry)=  0.0073
                       cart. coord. in units 2pi/alat
        k(    1) = (   0.0000000   0.0000000   0.0000000), wk =   0.1250000
        k(    2) = (   0.0000000   0.0419351   0.0000000), wk =   0.2500000
        k(    3) = (   0.0000000  -0.0838702   0.0000000), wk =   0.1250000
        k(    4) = (   0.0379955   0.0000049   0.0000000), wk =   0.2500000
        k(    5) = (   0.0379955   0.0419400   0.0000000), wk =   0.2500000
        k(    6) = (   0.0379955  -0.0838652   0.0000000), wk =   0.2500000
        k(    7) = (   0.0379955  -0.0419301   0.0000000), wk =   0.2500000
        k(    8) = (  -0.0759910  -0.0000099   0.0000000), wk =   0.1250000
        k(    9) = (  -0.0759910   0.0419252   0.0000000), wk =   0.2500000
        k(   10) = (  -0.0759910  -0.0838800   0.0000000), wk =   0.1250000

     Initial potential from superposition of free atoms

     starting charge  374.99916, renormalised to  391.00000

     negative rho (up, down):  1.819E-02 0.000E+00

     %%%%%%%%%%%%%%%%%%%%%%%%%%%%%%%%%%%%%%%%%%%%%%%%%%%%%%%%%%%%%%%%%%%%%%%%
     %                                                                      %
     % You are using vdW-DF, which was implemented by the Thonhauser group. %
     % Please cite the following two papers that made this development      %
     % possible and the two reviews that describe the various versions:     %
     %                                                                      %
     %   T. Thonhauser et al., PRL 115, 136402 (2015).                      %
     %   T. Thonhauser et al., PRB 76, 125112 (2007).                       %
     %   K. Berland et al., Rep. Prog. Phys. 78, 066501 (2015).             %
     %   D.C. Langreth et al., J. Phys.: Condens. Matter 21, 084203 (2009). %
     %                                                                      %
     %                                                                      %
     % If you are calculating the stress with vdW-DF, please also cite:     %
     %                                                                      %
     %   R. Sabatini et al., J. Phys.: Condens. Matter 24, 424209 (2012).   %
     %                                                                      %
     %%%%%%%%%%%%%%%%%%%%%%%%%%%%%%%%%%%%%%%%%%%%%%%%%%%%%%%%%%%%%%%%%%%%%%%%

     Adding external electric field

     Computed dipole along edir(3) :
        Dipole               -5.7430 Ry au,        -14.5972 Debye
        Dipole field         -0.0108 Ry au,

        Potential amp.        1.0046 Ry
        Total length         46.3494 bohr

     Starting wfcs are  296 atomic wfcs
  @ DRIVER MODE: Message from server: STATUS
  @ DRIVER MODE: Message from server: POSDATA
  @ DRIVER MODE: Reading and sharing cell
  @ DRIVER MODE: Reading and sharing positions
  @ DRIVER MODE: Received positions

     Self-consistent Calculation

     iteration #  1     ecut=    29.40 Ry     beta= 0.05
     Davidson diagonalization with overlap
     c_bands:  2 eigenvalues not converged
     c_bands:  1 eigenvalues not converged
     c_bands:  5 eigenvalues not converged
     c_bands:  1 eigenvalues not converged
     c_bands:  2 eigenvalues not converged
     c_bands:  2 eigenvalues not converged
     c_bands:  2 eigenvalues not converged
     ethr =  1.00E-05,  avg # of iterations = 20.9

[...]

     total energy              =   -2766.97453909 Ry
     estimated scf accuracy    <    1683.27279997 Ry

[...]

     iteration #  3     ecut=    29.40 Ry     beta= 0.05
     Davidson diagonalization with overlap
     ethr =  1.00E-02,  avg # of iterations = 15.0

[...]

     iteration # 51     ecut=    29.40 Ry     beta= 0.05
     Davidson diagonalization with overlap
     c_bands:  1 eigenvalues not converged
     ethr =  1.12E-09,  avg # of iterations = 12.3

[...]

     total energy              =   -2920.27066604 Ry
     estimated scf accuracy    <       0.00000011 Ry

     iteration # 58     ecut=    29.40 Ry     beta= 0.05
     Davidson diagonalization with overlap
     ethr =  2.32E-11,  avg # of iterations =  9.4

     negative rho (up, down):  1.843E-02 0.000E+00

     Adding external electric field

     Computed dipole along edir(3) :
        Dipole                0.8686 Ry au,          2.2078 Debye
        Dipole field          0.0016 Ry au,

        Potential amp.       -0.1520 Ry
        Total length         46.3494 bohr

     End of self-consistent calculation

          k = 0.0000 0.0000 0.0000 ( 18029 PWs)   bands (ev):

   -55.8848 -55.8507 -55.7549 -55.7165 -55.7117 -55.7092 -55.6974 -55.6777
   -55.6706 -55.6332 -55.6311 -55.6282 -55.5946 -55.5653 -54.8657 -54.8317
   -32.3705 -32.2815 -32.2449 -32.2141 -32.1781 -32.1756 -32.1575 -32.1571
   -32.1304 -32.0783 -32.0376 -32.0193 -32.0101 -31.9970 -31.9953 -31.9924
   -31.9798 -31.9491 -31.9424 -31.9317 -31.9230 -31.9113 -31.9005 -31.8916
   -31.8798 -31.8765 -31.8553 -31.8545 -31.8482 -31.8465 -31.8397 -31.8308
   -31.8239 -31.8235 -31.8214 -31.8063 -31.7932 -31.7823 -31.7805 -31.7689
   -31.7130 -31.6292 -31.2722 -31.1848 -31.1624 -31.0896 -31.0032 -30.8914
   -16.5744 -16.4035 -16.1966 -16.0697 -16.0520 -15.8586 -15.7658 -15.6884
   -15.4936 -15.4545 -15.4264 -15.4109 -15.3994 -15.3976 -15.3806 -15.3615
   -15.3413 -15.3315 -15.3102 -15.2576 -15.2513 -15.2403 -15.2178 -15.2149
   -15.0309 -15.0212 -14.9819 -14.9455 -14.8673 -14.5664 -13.3651 -13.2486
    -8.9046  -5.6244  -3.9586  -3.8906  -3.8177  -3.7924  -3.7773  -3.6579
    -3.4849  -3.2971  -3.2087  -3.1748  -3.0590  -3.0130  -2.9174  -2.8394
    -2.8254  -2.7633  -2.7223  -2.6997  -2.6734  -2.6607  -2.6083  -2.5856
    -2.5785  -2.4444  -2.3866  -2.3668  -2.3045  -2.2786  -2.2512  -2.2071
    -2.2020  -2.1879  -2.1715  -2.1344  -2.1055  -2.0885  -2.0073  -1.9363
    -1.8967  -1.8552  -1.6185  -1.5224  -1.5014  -1.4628  -1.4102  -1.3794
    -1.3359  -1.2970  -1.2811  -1.2625  -1.1937  -1.1042  -1.0233  -1.0156
    -0.9139  -0.8890  -0.8024  -0.7266  -0.7092  -0.6460  -0.6238  -0.6192
    -0.6150  -0.5226  -0.4719  -0.3887  -0.3395  -0.3021  -0.2359  -0.1701
    -0.1128  -0.1016  -0.0637  -0.0211   0.0215   0.0321   0.0572   0.0868
     0.1253   0.1631   0.2026   0.2841   0.3262   0.3611   0.4071   0.4196
     0.5219   0.7325   0.7721   0.9113   1.0911   1.1601   1.1857   1.2029
     1.3517   1.7284   1.7742   3.1969   3.3417   3.3594   3.4311   3.4611
     3.5138   3.6849   3.7712   3.8123   3.8696

[...]

          k = 0.0380-0.0419 0.0000 ( 17876 PWs)   bands (ev):

[...]

          k =-0.0760-0.0000 0.0000 ( 17886 PWs)   bands (ev):

[...]

          k =-0.0760-0.0839 0.0000 ( 17948 PWs)   bands (ev):

   -55.8678 -55.8675 -55.7437 -55.7275 -55.7067 -55.6947 -55.6944 -55.6929
   -55.6624 -55.6366 -55.6362 -55.6236 -55.6041 -55.5671 -54.8488 -54.8484
   -32.2057 -32.1859 -32.1857 -32.1612 -32.1608 -32.1009 -32.0682 -32.0501
   -32.0346 -32.0280 -32.0248 -32.0181 -32.0025 -31.9882 -31.9874 -31.9857
   -31.9776 -31.9697 -31.9624 -31.9489 -31.9470 -31.9378 -31.9345 -31.9263
   -31.9130 -31.9043 -31.9002 -31.8956 -31.8830 -31.8791 -31.8710 -31.8701
   -31.8696 -31.8624 -31.8583 -31.8488 -31.8453 -31.8330 -31.8143 -31.8139
   -31.7987 -31.6295 -31.1752 -31.1750 -31.0853 -31.0847 -31.0466 -31.0462
   -16.1467 -15.9781 -15.8692 -15.8544 -15.7912 -15.6809 -15.6684 -15.6413
   -15.6221 -15.5852 -15.5662 -15.5527 -15.5042 -15.4653 -15.4284 -15.4039
   -15.4001 -15.3533 -15.3490 -15.3393 -15.3172 -15.2828 -15.2741 -15.2099
   -15.2013 -15.1028 -15.0882 -15.0687 -15.0183 -14.8984 -13.3505 -13.3502
    -8.9107  -5.5945  -3.8097  -3.3052  -3.2075  -3.0711  -3.0033  -2.9629
    -2.9147  -2.8816  -2.8601  -2.8417  -2.7916  -2.7778  -2.7463  -2.7028
    -2.6848  -2.6677  -2.6474  -2.6209  -2.5999  -2.5882  -2.5696  -2.5518
    -2.5192  -2.5039  -2.4774  -2.4623  -2.4524  -2.4403  -2.4314  -2.4198
    -2.2355  -2.1443  -2.0526  -2.0403  -2.0340  -2.0075  -1.9791  -1.9660
    -1.9487  -1.9265  -1.9013  -1.8719  -1.8415  -1.5768  -1.5596  -1.5246
    -1.4664  -1.4288  -1.3811  -1.3645  -1.3343  -1.3054  -1.2244  -1.1882
    -1.1610  -1.0824  -1.0111  -0.9452  -0.9015  -0.8641  -0.8336  -0.8217
    -0.7820  -0.7432  -0.7343  -0.7100  -0.6937  -0.5874  -0.5855  -0.5827
    -0.4373  -0.3988  -0.3800  -0.2875  -0.2679  -0.0886  -0.0270   0.0015
     0.1349   0.1458   0.1826   0.2919   0.3193   0.3647   0.4211   0.4422
     0.5290   0.5809   0.6227   0.6622   0.6860   0.7026   1.1610   1.5224
     1.5282   1.5944   1.5945   3.5976   3.6388   3.7050   3.7308   3.7508
     3.7864   3.8089   3.8202   3.8655   3.8756

     the Fermi energy is     3.2357 ev

!    total energy              =   -2920.27071494 Ry
     estimated scf accuracy    <       0.00000005 Ry
     smearing contrib. (-TS)   =      -0.01953164 Ry
     internal energy E=F+TS    =   -2920.25118329 Ry

     The total energy is F=E-TS. E is the sum of the following terms:
     one-electron contribution =  -24543.13974249 Ry
     hartree contribution      =   12357.35533111 Ry
     xc contribution           =    -480.80692135 Ry
     ewald contribution        =    9746.33872557 Ry
     electric field correction =       0.00142387 Ry

     convergence has been achieved in  58 iterations

     Forces acting on atoms (cartesian axes, Ry/au):

     atom    1 type  1   force =     0.00006792   -0.00038132    0.09442061
     atom    2 type  1   force =    -0.00007451   -0.00123509   -0.17581267
     atom    3 type  2   force =     0.00046645   -0.00020702   -0.02135929
     atom    4 type  2   force =     0.00017601   -0.00092959    0.05146975
     atom    5 type  2   force =    -0.00541897    0.00099938   -0.00034776
     atom    6 type  2   force =     0.00990859    0.00143067    0.00528544
     atom    7 type  1   force =     0.00311862    0.00406824   -0.00383017
     atom    8 type  1   force =    -0.00264437    0.00537400    0.00463620
     atom    9 type  2   force =     0.00031941    0.00017822    0.00041488
     atom   10 type  2   force =     0.00290146    0.00077446   -0.01334416
     atom   11 type  2   force =     0.00010459    0.00027805   -0.00000773
     atom   12 type  2   force =    -0.00017291   -0.00005565   -0.00007888
     atom   13 type  1   force =    -0.00028260   -0.00029538    0.00138120
     atom   14 type  1   force =    -0.00061519    0.00040641   -0.00123432
     atom   15 type  2   force =     0.00027156   -0.00004525   -0.00005631
     atom   16 type  2   force =     0.00005173   -0.00016103    0.00021349
     atom   17 type  2   force =     0.00030730   -0.00083416    0.00062217
     atom   18 type  2   force =     0.00016080    0.00008503   -0.00029244
     atom   19 type  1   force =    -0.00016122    0.00010646   -0.00086558
     atom   20 type  1   force =    -0.00002572    0.00190705   -0.00030835
     atom   21 type  2   force =     0.00004922   -0.00009671    0.10310290
     atom   22 type  2   force =    -0.00064278    0.00068790    0.00076920
     atom   23 type  2   force =    -0.07168190   -0.00014379   -0.02718435
     atom   24 type  2   force =     0.07174416    0.00034921   -0.02733145
     atom   25 type  1   force =    -0.00008951   -0.00021848    0.09389926
     atom   26 type  1   force =     0.00003910    0.00040279   -0.17577596
     atom   27 type  2   force =     0.00046570   -0.00026343   -0.02045098
     atom   28 type  2   force =     0.00023837   -0.00170617    0.05409582
     atom   29 type  2   force =    -0.00646953   -0.00170145    0.00029191
     atom   30 type  2   force =     0.01070835   -0.00156071    0.00560439
     atom   31 type  1   force =     0.00345681    0.00044854    0.00536440
     atom   32 type  1   force =    -0.00266900   -0.00669066    0.00504679
     atom   33 type  2   force =     0.00024634    0.00031285    0.00054926
     atom   34 type  2   force =     0.00503829   -0.00078974   -0.00877026
     atom   35 type  2   force =     0.00012736   -0.00001166    0.00000748
     atom   36 type  2   force =    -0.00013532   -0.00002296   -0.00001450
     atom   37 type  1   force =     0.00074924   -0.00041639    0.00089147
     atom   38 type  1   force =    -0.00028200   -0.00117293   -0.00000484
     atom   39 type  2   force =    -0.00075286   -0.00015976    0.00040792
     atom   40 type  2   force =     0.00039202    0.00039296   -0.00000499
     atom   41 type  2   force =     0.00020524    0.00150742    0.00070174
     atom   42 type  2   force =     0.00057508    0.00027454    0.00008679
     atom   43 type  1   force =     0.00074789    0.00017187    0.00013676
     atom   44 type  1   force =    -0.00001706   -0.00174316   -0.00068468
     atom   45 type  2   force =     0.00005403   -0.00002059    0.10327515
     atom   46 type  2   force =    -0.07166620   -0.00015283   -0.02721317
     atom   47 type  2   force =     0.07170488    0.00030364   -0.02732313
     atom   48 type  3   force =     0.00034007   -0.00017351   -0.00041404
     atom   49 type  3   force =     0.00021087   -0.00083866   -0.00020124
     atom   50 type  4   force =     0.00003943    0.00069303    0.00050828
     atom   51 type  5   force =    -0.08457685   -0.00984443    0.00605356
     atom   52 type  3   force =     0.03099593    0.05222700   -0.00027740
     atom   53 type  3   force =     0.03239570   -0.04150721   -0.00604814

     Total force =     0.381441     Total SCF correction =     0.000514
  @ DRIVER MODE: Message from server: STATUS
  @ DRIVER MODE: Message from server: GETFORCE
  @ DRIVER MODE: Returning v,forces,stress,ensemble

     Writing output data file ./calc.save/
  @ DRIVER MODE: Message from server: EXIT
  @ DRIVE MODE: Exiting

     General routines

     Parallel routines

   This run was terminated on:   5:45:25  12Oct2021

   JOB DONE.