     Program PWSCF v.6.7GPU starts on  2Aug2021 at 20:55:27

     R & G space division:  proc/nbgrp/npool/nimage =      16
     Reading input from /storage/home/hcoda1/3/ntian30/research/carbon/02Aug_vib_paired/ads_slab/CH3NN_a/out_0027/pw.inp
Warning: card &CELL ignored
Warning: card   CELL_DYNAMICS='IPI', ignored
Warning: card / ignored

     Current dimensions of program PWSCF are:
     Max number of different atomic species (ntypx) = 10
     Max number of k-points (npk) =  40000
     Max angular momentum in pseudopotentials (lmaxx) =  3
     Presently no symmetry can be used with electric field

     Message from routine cell_base_init:
     DEPRECATED: use true lattice parameter, not A to a.u. conversion factor

     IMPORTANT: XC functional enforced from input :
     Exchange-correlation= BEEF-VDW
                           (   1   4  43  14   2   0   0)
     Any further DFT definition will be discarded
     Please, verify this is what you really want

  @ DRIVER MODE: Connecting to
 qe_1139763_2482546.sched-torque.pace.gatech.edufer65ul8_scratch
  using UNIX socket
  @ DRIVER MODE: Message from server: STATUS
  @ DRIVER MODE: Message from server: INIT
  @ DRIVER MODE: Receiving replica           0          -1
  @ DRIVER MODE: Receiving encoded integer          25
  @ DRIVER MODE:  SCF:  T  FORCE:  T  STRESS:  F  VC:  F  ENSEMBLE:  F
  @ DRIVER MODE:  SCF:  T  FORCE:  T  STRESS:  F  VC:  F  ENSEMBLE:  F

     Using Slab Decomposition

     bravais-lattice index     =            0
     lattice parameter (alat)  =       1.8897  a.u.
     unit-cell volume          =    6658.9804 (a.u.)^3
     number of atoms/cell      =           53
     number of atomic types    =            5
     number of electrons       =       395.00
     number of Kohn-Sham states=          207
     kinetic-energy cutoff     =      29.3995  Ry
     charge density cutoff     =     293.9946  Ry
     scf convergence threshold =      7.3E-08
     mixing beta               =       0.0500
     number of iterations used =            8  plain     mixing
     Exchange-correlation= BEEF-VDW
                           (   1   4  43  14   2   0   0)

     celldm(1)=   1.889726  celldm(2)=   0.000000  celldm(3)=   0.000000
     celldm(4)=   0.000000  celldm(5)=   0.000000  celldm(6)=   0.000000

     crystal axes: (cart. coord. in units of alat)
               a(1) = (   6.579727   0.000000   0.000000 )
               a(2) = (  -0.000775   5.961596   0.000000 )
               a(3) = (   0.000000   0.000000  25.155947 )

     reciprocal axes: (cart. coord. in units 2 pi/alat)
               b(1) = (  0.151982  0.000020  0.000000 )
               b(2) = (  0.000000  0.167740  0.000000 )
               b(3) = (  0.000000  0.000000  0.039752 )

     PseudoPot. # 1 for Ti read from file:
     /storage/coda1/p-amedford6/0/shared/rich_project_chbe-medford/medford-share/data/pseudos_module/espresso/nninc/pbe/van/Ti.UPF
     MD5 check sum: 8e4df49b7f0d34bbd5052bf3f5ea0213
     Pseudo is Ultrasoft, Zval = 12.0
     Generated by new atomic code, or converted to UPF format
     Using radial grid of  851 points,  6 beta functions with:
                l(1) =   0
                l(2) =   0
                l(3) =   1
                l(4) =   1
                l(5) =   2
                l(6) =   2
     Q(r) pseudized with  8 coefficients,  rinner =    1.000   1.000   1.000
                                                       1.000   1.000

     PseudoPot. # 2 for O  read from file:
     /storage/coda1/p-amedford6/0/shared/rich_project_chbe-medford/medford-share/data/pseudos_module/espresso/nninc/pbe/van/O.UPF
     MD5 check sum: 78c19812648e8988a0fe644b0f25305e
     Pseudo is Ultrasoft, Zval =  6.0
     Generated by new atomic code, or converted to UPF format
     Using radial grid of  737 points,  4 beta functions with:
                l(1) =   0
                l(2) =   0
                l(3) =   1
                l(4) =   1
     Q(r) pseudized with  8 coefficients,  rinner =    0.800   0.800   0.800

     PseudoPot. # 3 for N  read from file:
     /storage/coda1/p-amedford6/0/shared/rich_project_chbe-medford/medford-share/data/pseudos_module/espresso/nninc/pbe/van/N.UPF
     MD5 check sum: 90d10febe142ad51ac9d5be1deb811c4
     Pseudo is Ultrasoft, Zval =  5.0
     Generated by new atomic code, or converted to UPF format
     Using radial grid of  729 points,  4 beta functions with:
                l(1) =   0
                l(2) =   0
                l(3) =   1
                l(4) =   1
     Q(r) pseudized with  8 coefficients,  rinner =    0.800   0.800   0.800

     PseudoPot. # 4 for C  read from file:
     /storage/coda1/p-amedford6/0/shared/rich_project_chbe-medford/medford-share/data/pseudos_module/espresso/nninc/pbe/van/C.UPF
     MD5 check sum: 1a69bf6b8db32088f5b2163dbdb77a27
     Pseudo is Ultrasoft, Zval =  4.0
     Generated by new atomic code, or converted to UPF format
     Using radial grid of  721 points,  4 beta functions with:
                l(1) =   0
                l(2) =   0
                l(3) =   1
                l(4) =   1
     Q(r) pseudized with  8 coefficients,  rinner =    0.800   0.800   0.800

     PseudoPot. # 5 for H  read from file:
     /storage/coda1/p-amedford6/0/shared/rich_project_chbe-medford/medford-share/data/pseudos_module/espresso/nninc/pbe/van/H.UPF
     MD5 check sum: b5ee9d7bfd3a09ee7748110bda690ff7
     Pseudo is Ultrasoft, Zval =  1.0
     Generated by new atomic code, or converted to UPF format
     Using radial grid of  615 points,  1 beta functions with:
                l(1) =   0
     Q(r) pseudized with  8 coefficients,  rinner =    0.800

     atomic species   valence    mass     pseudopotential
        Ti1           12.00    47.86700     Ti( 1.00)
        O1             6.00    15.99900     O ( 1.00)
        N1             5.00    14.00700     N ( 1.00)
        C1             4.00    12.01100     C ( 1.00)
        H1             1.00     1.00800     H ( 1.00)

     No symmetry found

   Cartesian axes

     site n.     atom                  positions (alat units)
         1           Ti1 tau(   1) = (   0.0004258   2.9801865   6.0000000  )
         2           Ti1 tau(   2) = (   3.2906075   1.4906267   6.0002472  )
         3           O1  tau(   3) = (   0.0006271   0.0005054   7.9858123  )
         4           O1  tau(   4) = (   3.2906025   0.0005020   7.3038282  )
         5           O1  tau(   5) = (   4.5942328   1.4918067   9.2879030  )
         6           O1  tau(   6) = (   1.9868534   1.4903216   9.2879459  )
         7           Ti1 tau(   7) = (   3.2907910   2.8959150   9.1758416  )
         8           Ti1 tau(   8) = (   0.0015273   1.4827037   9.2680791  )
         9           O1  tau(   9) = (   3.2935944   5.9504131  11.3331737  )
        10           O1  tau(  10) = (   0.0116148   5.9584955  10.6183126  )
        11           O1  tau(  11) = (   1.3139784   1.4900993  12.6222913  )
        12           O1  tau(  12) = (   5.2991156   1.4868386  12.6236412  )
        13           Ti1 tau(  13) = (   6.5257823   2.9641578  12.6501544  )
        14           Ti1 tau(  14) = (   3.2087869   1.4768241  12.4812772  )
        15           O1  tau(  15) = (   0.0069532   0.0155221  14.6013729  )
        16           O1  tau(  16) = (   3.2989757   5.9447163  13.9218705  )
        17           O1  tau(  17) = (   4.5399408   1.4684032  16.0509043  )
        18           O1  tau(  18) = (   2.0534050   1.4785924  16.0487376  )
        19           Ti1 tau(  19) = (   3.3071538   2.9600697  15.7031993  )
        20           Ti1 tau(  20) = (   0.0179100   1.3679571  15.8029155  )
        21           O1  tau(  21) = (   3.2904802   0.0005063   4.7018136  )
        22           O1  tau(  22) = (   0.0297737   0.0076327  17.1327444  )
        23           O1  tau(  23) = (   1.3043587   1.4918075   6.0039043  )
        24           O1  tau(  24) = (   5.2767064   1.4903225   6.0039473  )
        25           Ti1 tau(  25) = (   0.0000382   5.9609847   6.0000000  )
        26           Ti1 tau(  26) = (   3.2902200   4.4714249   6.0002472  )
        27           O1  tau(  27) = (   0.0002396   2.9813036   7.9858123  )
        28           O1  tau(  28) = (   3.2902150   2.9813002   7.3038282  )
        29           O1  tau(  29) = (   4.5938453   4.4726049   9.2879030  )
        30           O1  tau(  30) = (   1.9864658   4.4711199   9.2879459  )
        31           Ti1 tau(  31) = (   3.2891106   5.8743827   9.1763621  )
        32           Ti1 tau(  32) = (   0.0006254   4.4649316   9.2693709  )
        33           O1  tau(  33) = (   3.2925666   2.9731923  11.3325550  )
        34           O1  tau(  34) = (   0.0092240   2.9805883  10.6323155  )
        35           O1  tau(  35) = (   1.3076969   4.4692784  12.6256357  )
        36           O1  tau(  36) = (   5.2992390   4.4652990  12.6273021  )
        37           Ti1 tau(  37) = (   6.5214685   5.9362284  12.5385417  )
        38           Ti1 tau(  38) = (   3.2054519   4.4560432  12.4842663  )
        39           O1  tau(  39) = (   0.0022752   2.9713357  14.7092999  )
        40           O1  tau(  40) = (   3.3007181   2.9764241  13.9083417  )
        41           O1  tau(  41) = (   4.5485645   4.4411382  16.0917119  )
        42           O1  tau(  42) = (   2.0537992   4.4371030  16.0853891  )
        43           Ti1 tau(  43) = (   3.2976414   5.9412218  15.7196561  )
        44           Ti1 tau(  44) = (   0.0123595   4.4653852  16.1631357  )
        45           O1  tau(  45) = (   3.2900926   2.9813045   4.7018136  )
        46           O1  tau(  46) = (   1.3039711   4.4726057   6.0039043  )
        47           O1  tau(  47) = (   5.2763189   4.4711207   6.0039473  )
        48           N1  tau(  48) = (   0.6591532   2.9890904  22.3781942  )
        49           C1  tau(  49) = (   6.5648715   3.0365617  17.8347222  )
        50           H1  tau(  50) = (   6.0219261   3.7962297  18.4082231  )
        51           H1  tau(  51) = (   6.0207922   2.1139738  18.0322221  )
        52           H1  tau(  52) = (   0.9815245   2.9332023  18.2699478  )
        53           N1  tau(  53) = (   6.1995506   3.0156182  22.7499213  )

     number of k points=    10  Fermi-Dirac smearing, width (Ry)=  0.0073
                       cart. coord. in units 2pi/alat
        k(    1) = (   0.0000000   0.0000000   0.0000000), wk =   0.1250000
        k(    2) = (   0.0000000   0.0419351   0.0000000), wk =   0.2500000
        k(    3) = (   0.0000000  -0.0838702   0.0000000), wk =   0.1250000
        k(    4) = (   0.0379955   0.0000049   0.0000000), wk =   0.2500000
        k(    5) = (   0.0379955   0.0419400   0.0000000), wk =   0.2500000
        k(    6) = (   0.0379955  -0.0838652   0.0000000), wk =   0.2500000
        k(    7) = (   0.0379955  -0.0419301   0.0000000), wk =   0.2500000
        k(    8) = (  -0.0759910  -0.0000099   0.0000000), wk =   0.1250000
        k(    9) = (  -0.0759910   0.0419252   0.0000000), wk =   0.2500000
        k(   10) = (  -0.0759910  -0.0838800   0.0000000), wk =   0.1250000

     Initial potential from superposition of free atoms

     starting charge  378.99916, renormalised to  395.00000

     negative rho (up, down):  1.028E-02 0.000E+00

     %%%%%%%%%%%%%%%%%%%%%%%%%%%%%%%%%%%%%%%%%%%%%%%%%%%%%%%%%%%%%%%%%%%%%%%%
     %                                                                      %
     % You are using vdW-DF, which was implemented by the Thonhauser group. %
     % Please cite the following two papers that made this development      %
     % possible and the two reviews that describe the various versions:     %
     %                                                                      %
     %   T. Thonhauser et al., PRL 115, 136402 (2015).                      %
     %   T. Thonhauser et al., PRB 76, 125112 (2007).                       %
     %   K. Berland et al., Rep. Prog. Phys. 78, 066501 (2015).             %
     %   D.C. Langreth et al., J. Phys.: Condens. Matter 21, 084203 (2009). %
     %                                                                      %
     %                                                                      %
     % If you are calculating the stress with vdW-DF, please also cite:     %
     %                                                                      %
     %   R. Sabatini et al., J. Phys.: Condens. Matter 24, 424209 (2012).   %
     %                                                                      %
     %%%%%%%%%%%%%%%%%%%%%%%%%%%%%%%%%%%%%%%%%%%%%%%%%%%%%%%%%%%%%%%%%%%%%%%%

     Adding external electric field

     Computed dipole along edir(3) :
        Dipole              -11.4336 Ry au,        -29.0614 Debye
        Dipole field         -0.0216 Ry au,

        Potential amp.        2.0001 Ry
        Total length         46.3494 bohr

     Starting wfcs are  299 atomic wfcs
  @ DRIVER MODE: Message from server: STATUS
  @ DRIVER MODE: Message from server: POSDATA
  @ DRIVER MODE: Reading and sharing cell
  @ DRIVER MODE: Reading and sharing positions
  @ DRIVER MODE: Received positions

     Self-consistent Calculation

     iteration #  1     ecut=    29.40 Ry     beta= 0.05
     Davidson diagonalization with overlap
     c_bands:  1 eigenvalues not converged
     c_bands:  1 eigenvalues not converged
     c_bands:  1 eigenvalues not converged
     c_bands:  1 eigenvalues not converged
     c_bands:  2 eigenvalues not converged
     c_bands:  2 eigenvalues not converged
     c_bands:  1 eigenvalues not converged
     ethr =  1.00E-05,  avg # of iterations = 19.3

[...]

     total energy              =   -2597.27082215 Ry
     estimated scf accuracy    <    3830.71808066 Ry

     iteration #  2     ecut=    29.40 Ry     beta= 0.05
     Davidson diagonalization with overlap
     ethr =  1.00E-02,  avg # of iterations = 22.9

[...]

     iteration # 57     ecut=    29.40 Ry     beta= 0.05
     Davidson diagonalization with overlap
     c_bands:  2 eigenvalues not converged
     ethr =  9.98E-08,  avg # of iterations = 16.5

[...]

     total energy              =   -2939.19606551 Ry
     estimated scf accuracy    <       0.00000010 Ry

     iteration # 73     ecut=    29.40 Ry     beta= 0.05
     Davidson diagonalization with overlap
     ethr =  2.63E-11,  avg # of iterations =  4.5

     negative rho (up, down):  1.218E-02 0.000E+00

     Adding external electric field

     Computed dipole along edir(3) :
        Dipole                0.4062 Ry au,          1.0325 Debye
        Dipole field          0.0008 Ry au,

        Potential amp.       -0.0711 Ry
        Total length         46.3494 bohr

     End of self-consistent calculation

          k = 0.0000 0.0000 0.0000 ( 18029 PWs)   bands (ev):

   -56.0208 -56.0098 -55.9867 -55.9738 -55.9029 -55.8788 -55.8573 -55.8356
   -55.8267 -55.7932 -55.7927 -55.7594 -55.5775 -55.4536 -54.9977 -54.9637
   -32.5654 -32.5030 -32.3744 -32.3566 -32.3266 -32.3257 -32.3136 -32.2836
   -32.2627 -32.2391 -32.2330 -32.2206 -32.1907 -32.1731 -32.1618 -32.1501
   -32.1340 -32.1249 -32.1086 -32.0826 -32.0797 -32.0780 -32.0401 -32.0317
   -32.0290 -32.0240 -32.0145 -32.0105 -31.9954 -31.9932 -31.9879 -31.9676
   -31.9671 -31.9608 -31.9458 -31.9302 -31.9050 -31.8621 -31.7909 -31.7364
   -31.6698 -31.5584 -31.4049 -31.3165 -31.2940 -31.2216 -31.1351 -31.0240
   -20.6276 -16.7670 -16.4960 -16.2728 -16.1743 -16.1484 -16.0314 -15.8635
   -15.7392 -15.6949 -15.5948 -15.5797 -15.5565 -15.5258 -15.5136 -15.5041
   -15.4689 -15.4616 -15.4441 -15.4323 -15.3813 -15.3635 -15.3537 -15.2423
   -15.1966 -15.1551 -15.1388 -15.0751 -15.0264 -14.6400 -13.5003 -13.3839
    -9.0848  -5.7949  -4.1392  -3.9790  -3.9266  -3.8826  -3.8521  -3.7544
    -3.7511  -3.6360  -3.5720  -3.2653  -3.2079  -3.1919  -3.1741  -3.1461
    -2.9863  -2.9202  -2.8560  -2.8326  -2.8274  -2.7988  -2.7907  -2.7771
    -2.7405  -2.7014  -2.6781  -2.6323  -2.5791  -2.5043  -2.5006  -2.4368
    -2.4140  -2.3346  -2.3143  -2.2901  -2.2621  -2.2481  -2.2384  -2.2175
    -2.1974  -2.1802  -1.9902  -1.9593  -1.8962  -1.8093  -1.8043  -1.6275
    -1.5279  -1.4981  -1.4735  -1.4467  -1.4121  -1.3966  -1.3194  -1.2085
    -1.1760  -1.1381  -1.0759  -1.0255  -0.9942  -0.8944  -0.8712  -0.7825
    -0.7813  -0.7567  -0.7032  -0.6082  -0.5061  -0.4762  -0.4582  -0.4114
    -0.3758  -0.3125  -0.2953  -0.2342  -0.1690  -0.1577  -0.0824  -0.0559
    -0.0511  -0.0268  -0.0157   0.0289   0.0436   0.1643   0.1875   0.2731
     0.3176   0.4133   0.5343   0.6387   0.6755   0.7349   0.9498   1.0242
     1.1238   1.1646   1.2165   1.5955   1.6411   3.1185   3.2017   3.2497
     3.2574   3.3510   3.3644   3.5666   3.5933   3.6240   3.6624

[...]

          k = 0.0380-0.0419 0.0000 ( 17876 PWs)   bands (ev):

[...]

          k =-0.0760-0.0000 0.0000 ( 17886 PWs)   bands (ev):

[...]

          k =-0.0760-0.0839 0.0000 ( 17948 PWs)   bands (ev):

   -56.0045 -56.0030 -55.9922 -55.9912 -55.8950 -55.8704 -55.8650 -55.8440
   -55.8106 -55.8083 -55.7782 -55.7746 -55.5755 -55.4555 -54.9808 -54.9805
   -32.3692 -32.3680 -32.3188 -32.3178 -32.2996 -32.2984 -32.2838 -32.2752
   -32.2278 -32.2133 -32.2107 -32.2059 -32.1694 -32.1528 -32.1501 -32.1393
   -32.1315 -32.1241 -32.1225 -32.1224 -32.1162 -32.1125 -32.0947 -32.0873
   -32.0626 -32.0604 -32.0558 -32.0306 -32.0109 -32.0096 -32.0081 -32.0062
   -31.9922 -31.9902 -31.9874 -31.9822 -31.9415 -31.8471 -31.7930 -31.7391
   -31.7100 -31.6086 -31.3068 -31.3067 -31.2177 -31.2175 -31.1784 -31.1783
   -20.6274 -16.2017 -16.1810 -15.9781 -15.9351 -15.9296 -15.9247 -15.8214
   -15.7180 -15.7157 -15.7140 -15.6436 -15.6191 -15.6078 -15.5588 -15.5560
   -15.5450 -15.5335 -15.5282 -15.4820 -15.4748 -15.4574 -15.4486 -15.3834
   -15.3366 -15.3320 -15.3105 -15.1213 -15.0004 -14.9230 -13.4859 -13.4855
    -9.0977  -5.7981  -3.7581  -3.7537  -3.4930  -3.4688  -3.2367  -3.1807
    -3.1683  -3.0946  -2.9521  -2.9161  -2.9099  -2.8975  -2.8638  -2.8512
    -2.8346  -2.8280  -2.8173  -2.7906  -2.7665  -2.7338  -2.7282  -2.7058
    -2.6893  -2.6717  -2.6477  -2.6385  -2.6197  -2.5945  -2.5814  -2.5585
    -2.5497  -2.5243  -2.4851  -2.3535  -2.2544  -2.2169  -2.1573  -2.1494
    -2.1258  -2.0960  -2.0822  -2.0649  -2.0614  -2.0060  -1.8477  -1.7415
    -1.7253  -1.6885  -1.6395  -1.6192  -1.5656  -1.4304  -1.4038  -1.3772
    -1.3150  -1.3027  -1.2561  -1.2337  -1.2208  -1.1398  -1.1225  -1.0616
    -1.0003  -0.9810  -0.9773  -0.9207  -0.8611  -0.7907  -0.7806  -0.7376
    -0.7003  -0.6492  -0.6295  -0.5957  -0.5264  -0.4903  -0.3707  -0.3218
    -0.0924  -0.0397   0.0265   0.0728   0.1312   0.1785   0.1827   0.2977
     0.3000   0.3148   0.4132   0.4183   0.5068   0.5240   0.5471   0.7368
     1.2623   1.3879   1.3888   1.4605   1.4611   3.3937   3.4120   3.4412
     3.4831   3.6192   3.6285   3.6471   3.6488   3.7748   3.7954

     the Fermi energy is     3.1146 ev

!    total energy              =   -2939.19607978 Ry
     estimated scf accuracy    <       0.00000007 Ry
     smearing contrib. (-TS)   =      -0.02186167 Ry
     internal energy E=F+TS    =   -2939.17421811 Ry

     The total energy is F=E-TS. E is the sum of the following terms:
     one-electron contribution =  -23189.46074999 Ry
     hartree contribution      =   11680.00031742 Ry
     xc contribution           =    -484.90455410 Ry
     ewald contribution        =    9055.19045715 Ry
     electric field correction =       0.00031141 Ry

     convergence has been achieved in  73 iterations

     Forces acting on atoms (cartesian axes, Ry/au):

     atom    1 type  1   force =    -0.00000369   -0.00019173    0.09686880
     atom    2 type  1   force =    -0.00000711   -0.00054660   -0.17524618
     atom    3 type  2   force =     0.00009538   -0.00001496   -0.02519856
     atom    4 type  2   force =    -0.00003048   -0.00140779    0.05281450
     atom    5 type  2   force =    -0.01239311   -0.00103826    0.00324082
     atom    6 type  2   force =     0.01387728   -0.00054036    0.00284395
     atom    7 type  1   force =     0.00060619    0.00044520   -0.01143345
     atom    8 type  1   force =     0.00025893    0.01542007    0.02921419
     atom    9 type  2   force =    -0.00019632    0.00078417    0.00002559
     atom   10 type  2   force =    -0.00283808    0.00140938   -0.01825178
     atom   11 type  2   force =     0.00079584    0.00002469   -0.00001674
     atom   12 type  2   force =    -0.00061453   -0.00016342   -0.00009740
     atom   13 type  1   force =     0.00060030   -0.00030455   -0.00000707
     atom   14 type  1   force =    -0.00039011    0.00029756   -0.00006299
     atom   15 type  2   force =     0.00016682   -0.00018348    0.00072273
     atom   16 type  2   force =    -0.00014866    0.00008281    0.00047813
     atom   17 type  2   force =     0.00021736   -0.00062692   -0.00026416
     atom   18 type  2   force =    -0.00002364   -0.00064349    0.00006166
     atom   19 type  1   force =    -0.00007609   -0.00147183   -0.00029549
     atom   20 type  1   force =     0.00000653    0.00032577   -0.00005742
     atom   21 type  2   force =     0.00002398    0.00005710    0.10323077
     atom   22 type  2   force =    -0.00021728    0.00044485   -0.00002384
     atom   23 type  2   force =    -0.07152827   -0.00009327   -0.02767438
     atom   24 type  2   force =     0.07139605    0.00039505   -0.02773418
     atom   25 type  1   force =     0.00004903   -0.00026297    0.09668123
     atom   26 type  1   force =     0.00003608   -0.00013532   -0.17541155
     atom   27 type  2   force =     0.00012934   -0.00011841   -0.02393307
     atom   28 type  2   force =    -0.00000719   -0.00118589    0.05299735
     atom   29 type  2   force =    -0.01258581    0.00055717    0.00299853
     atom   30 type  2   force =     0.01393645    0.00101079    0.00263027
     atom   31 type  1   force =     0.00052692    0.00341099   -0.01250285
     atom   32 type  1   force =     0.00028202   -0.01699432    0.02991958
     atom   33 type  2   force =    -0.00024735   -0.00052510   -0.00053314
     atom   34 type  2   force =    -0.00265588    0.00030965   -0.02240760
     atom   35 type  2   force =    -0.00006873   -0.00016873    0.00002370
     atom   36 type  2   force =     0.00001325   -0.00002184    0.00005930
     atom   37 type  1   force =     0.00028731   -0.00037612   -0.00056229
     atom   38 type  1   force =    -0.00022962    0.00040968    0.00023294
     atom   39 type  2   force =     0.00002426   -0.00038820    0.00032581
     atom   40 type  2   force =     0.00032717   -0.00050604    0.00000061
     atom   41 type  2   force =    -0.00030383    0.00011640    0.00005575
     atom   42 type  2   force =     0.00049575    0.00030402   -0.00012887
     atom   43 type  1   force =    -0.00023619    0.00070978    0.00002888
     atom   44 type  1   force =     0.00040004   -0.00049532   -0.00021097
     atom   45 type  2   force =     0.00002232    0.00002517    0.10321582
     atom   46 type  2   force =    -0.07152402   -0.00000702   -0.02766312
     atom   47 type  2   force =     0.07137109    0.00039874   -0.02772408
     atom   48 type  3   force =    -0.00087263    0.00017206   -0.00038837
     atom   49 type  4   force =     0.00243820   -0.00204701   -0.00088910
     atom   50 type  5   force =     0.00021201    0.00109869    0.00064033
     atom   51 type  5   force =    -0.00101457   -0.00037927   -0.00000530
     atom   52 type  5   force =    -0.00110053    0.00237983   -0.00020601
     atom   53 type  3   force =     0.00071784    0.00024858   -0.00038133

     Total force =     0.368808     Total SCF correction =     0.000943
  @ DRIVER MODE: Message from server: STATUS
  @ DRIVER MODE: Message from server: GETFORCE
  @ DRIVER MODE: Returning v,forces,stress,ensemble

     Writing output data file ./calc.save/
  @ DRIVER MODE: Message from server: EXIT
  @ DRIVE MODE: Exiting

     General routines

     Parallel routines

   This run was terminated on:  21:12:25   2Aug2021

   JOB DONE.