     Program PWSCF v.6.7GPU starts on 18Aug2021 at 20:33:13

     R & G space division:  proc/nbgrp/npool/nimage =       6
     Reading input from /storage/home/hcoda1/3/ntian30/research/carbon/CH3_vib_side_on/ads_slab/CH3N2_c/out_0018/pw.inp
Warning: card &CELL ignored
Warning: card   CELL_DYNAMICS='IPI', ignored
Warning: card / ignored

     Current dimensions of program PWSCF are:
     Max number of different atomic species (ntypx) = 10
     Max number of k-points (npk) =  40000
     Max angular momentum in pseudopotentials (lmaxx) =  3
     Presently no symmetry can be used with electric field

     Message from routine cell_base_init:
     DEPRECATED: use true lattice parameter, not A to a.u. conversion factor

     IMPORTANT: XC functional enforced from input :
     Exchange-correlation= BEEF-VDW
                           (   1   4  43  14   2   0   0)
     Any further DFT definition will be discarded
     Please, verify this is what you really want

  @ DRIVER MODE: Connecting to
 qe_1139763_2594174.sched-torque.pace.gatech.edukldi_bd6_scratch
  using UNIX socket
  @ DRIVER MODE: Message from server: STATUS
  @ DRIVER MODE: Message from server: INIT
  @ DRIVER MODE: Receiving replica           0          -1
  @ DRIVER MODE: Receiving encoded integer          25
  @ DRIVER MODE:  SCF:  T  FORCE:  T  STRESS:  F  VC:  F  ENSEMBLE:  F
  @ DRIVER MODE:  SCF:  T  FORCE:  T  STRESS:  F  VC:  F  ENSEMBLE:  F

     Using Slab Decomposition

     bravais-lattice index     =            0
     lattice parameter (alat)  =       1.8897  a.u.
     unit-cell volume          =    6658.9804 (a.u.)^3
     number of atoms/cell      =           53
     number of atomic types    =            5
     number of electrons       =       395.00
     number of Kohn-Sham states=          207
     kinetic-energy cutoff     =      29.3995  Ry
     charge density cutoff     =     293.9946  Ry
     scf convergence threshold =      7.3E-08
     mixing beta               =       0.0500
     number of iterations used =            8  plain     mixing
     Exchange-correlation= BEEF-VDW
                           (   1   4  43  14   2   0   0)

     celldm(1)=   1.889726  celldm(2)=   0.000000  celldm(3)=   0.000000
     celldm(4)=   0.000000  celldm(5)=   0.000000  celldm(6)=   0.000000

     crystal axes: (cart. coord. in units of alat)
               a(1) = (   6.579727   0.000000   0.000000 )
               a(2) = (  -0.000775   5.961596   0.000000 )
               a(3) = (   0.000000   0.000000  25.155947 )

     reciprocal axes: (cart. coord. in units 2 pi/alat)
               b(1) = (  0.151982  0.000020  0.000000 )
               b(2) = (  0.000000  0.167740  0.000000 )
               b(3) = (  0.000000  0.000000  0.039752 )

     PseudoPot. # 1 for Ti read from file:
     /storage/coda1/p-amedford6/0/shared/rich_project_chbe-medford/medford-share/data/pseudos_module/espresso/nninc/pbe/van/Ti.UPF
     MD5 check sum: 8e4df49b7f0d34bbd5052bf3f5ea0213
     Pseudo is Ultrasoft, Zval = 12.0
     Generated by new atomic code, or converted to UPF format
     Using radial grid of  851 points,  6 beta functions with:
                l(1) =   0
                l(2) =   0
                l(3) =   1
                l(4) =   1
                l(5) =   2
                l(6) =   2
     Q(r) pseudized with  8 coefficients,  rinner =    1.000   1.000   1.000
                                                       1.000   1.000

     PseudoPot. # 2 for O  read from file:
     /storage/coda1/p-amedford6/0/shared/rich_project_chbe-medford/medford-share/data/pseudos_module/espresso/nninc/pbe/van/O.UPF
     MD5 check sum: 78c19812648e8988a0fe644b0f25305e
     Pseudo is Ultrasoft, Zval =  6.0
     Generated by new atomic code, or converted to UPF format
     Using radial grid of  737 points,  4 beta functions with:
                l(1) =   0
                l(2) =   0
                l(3) =   1
                l(4) =   1
     Q(r) pseudized with  8 coefficients,  rinner =    0.800   0.800   0.800

     PseudoPot. # 3 for N  read from file:
     /storage/coda1/p-amedford6/0/shared/rich_project_chbe-medford/medford-share/data/pseudos_module/espresso/nninc/pbe/van/N.UPF
     MD5 check sum: 90d10febe142ad51ac9d5be1deb811c4
     Pseudo is Ultrasoft, Zval =  5.0
     Generated by new atomic code, or converted to UPF format
     Using radial grid of  729 points,  4 beta functions with:
                l(1) =   0
                l(2) =   0
                l(3) =   1
                l(4) =   1
     Q(r) pseudized with  8 coefficients,  rinner =    0.800   0.800   0.800

     PseudoPot. # 4 for C  read from file:
     /storage/coda1/p-amedford6/0/shared/rich_project_chbe-medford/medford-share/data/pseudos_module/espresso/nninc/pbe/van/C.UPF
     MD5 check sum: 1a69bf6b8db32088f5b2163dbdb77a27
     Pseudo is Ultrasoft, Zval =  4.0
     Generated by new atomic code, or converted to UPF format
     Using radial grid of  721 points,  4 beta functions with:
                l(1) =   0
                l(2) =   0
                l(3) =   1
                l(4) =   1
     Q(r) pseudized with  8 coefficients,  rinner =    0.800   0.800   0.800

     PseudoPot. # 5 for H  read from file:
     /storage/coda1/p-amedford6/0/shared/rich_project_chbe-medford/medford-share/data/pseudos_module/espresso/nninc/pbe/van/H.UPF
     MD5 check sum: b5ee9d7bfd3a09ee7748110bda690ff7
     Pseudo is Ultrasoft, Zval =  1.0
     Generated by new atomic code, or converted to UPF format
     Using radial grid of  615 points,  1 beta functions with:
                l(1) =   0
     Q(r) pseudized with  8 coefficients,  rinner =    0.800

     atomic species   valence    mass     pseudopotential
        Ti1           12.00    47.86700     Ti( 1.00)
        O1             6.00    15.99900     O ( 1.00)
        N1             5.00    14.00700     N ( 1.00)
        C1             4.00    12.01100     C ( 1.00)
        H1             1.00     1.00800     H ( 1.00)

     No symmetry found

   Cartesian axes

     site n.     atom                  positions (alat units)
         1           Ti1 tau(   1) = (   0.0004258   2.9801865   6.0000000  )
         2           Ti1 tau(   2) = (   3.2906075   1.4906267   6.0002472  )
         3           O1  tau(   3) = (   0.0006271   0.0005054   7.9858123  )
         4           O1  tau(   4) = (   3.2906025   0.0005020   7.3038282  )
         5           O1  tau(   5) = (   4.5942328   1.4918067   9.2879030  )
         6           O1  tau(   6) = (   1.9868534   1.4903216   9.2879459  )
         7           Ti1 tau(   7) = (   3.2907910   2.8959150   9.1758416  )
         8           Ti1 tau(   8) = (   0.0015273   1.4827037   9.2680791  )
         9           O1  tau(   9) = (   3.2868105   5.9447858  11.3346005  )
        10           O1  tau(  10) = (   0.0116148   5.9584955  10.6183126  )
        11           O1  tau(  11) = (   1.2897616   1.4699164  12.6258314  )
        12           O1  tau(  12) = (   5.2713851   1.4716199  12.6109895  )
        13           Ti1 tau(  13) = (   0.0629619   2.9460495  12.6207869  )
        14           Ti1 tau(  14) = (   3.3778125   1.4702366  12.4807322  )
        15           O1  tau(  15) = (   6.5741670   5.9392046  14.6271830  )
        16           O1  tau(  16) = (   3.2925211   5.9405975  13.9303826  )
        17           O1  tau(  17) = (   4.5331425   1.4971777  16.0590535  )
        18           O1  tau(  18) = (   2.0416154   1.4974824  16.0477615  )
        19           Ti1 tau(  19) = (   3.2901388   2.9722967  15.7036181  )
        20           Ti1 tau(  20) = (   6.5714728   1.5019933  15.8140906  )
        21           O1  tau(  21) = (   3.2904802   0.0005063   4.7018136  )
        22           O1  tau(  22) = (   6.5775371   0.0159386  17.1814867  )
        23           O1  tau(  23) = (   1.3043587   1.4918075   6.0039043  )
        24           O1  tau(  24) = (   5.2767064   1.4903225   6.0039473  )
        25           Ti1 tau(  25) = (   0.0000382   5.9609847   6.0000000  )
        26           Ti1 tau(  26) = (   3.2902200   4.4714249   6.0002472  )
        27           O1  tau(  27) = (   0.0002396   2.9813036   7.9858123  )
        28           O1  tau(  28) = (   3.2902150   2.9813002   7.3038282  )
        29           O1  tau(  29) = (   4.5938453   4.4726049   9.2879030  )
        30           O1  tau(  30) = (   1.9864658   4.4711199   9.2879459  )
        31           Ti1 tau(  31) = (   3.2891106   5.8743827   9.1763621  )
        32           Ti1 tau(  32) = (   0.0006254   4.4649316   9.2693709  )
        33           O1  tau(  33) = (   3.2909631   2.9655588  11.3316111  )
        34           O1  tau(  34) = (   0.0092240   2.9805883  10.6323155  )
        35           O1  tau(  35) = (   1.2884032   4.4536117  12.6269208  )
        36           O1  tau(  36) = (   5.2752684   4.4605011  12.6109535  )
        37           Ti1 tau(  37) = (   0.0626277   5.9200555  12.5524633  )
        38           Ti1 tau(  38) = (   3.3797810   4.4486816  12.4846537  )
        39           O1  tau(  39) = (   6.5720240   2.9440667  14.6479771  )
        40           O1  tau(  40) = (   3.2941106   2.9728877  13.9057494  )
        41           O1  tau(  41) = (   4.5311790   4.4530262  16.1020043  )
        42           O1  tau(  42) = (   2.0427069   4.4534008  16.0946336  )
        43           Ti1 tau(  43) = (   3.2818950   5.9508925  15.7274921  )
        44           Ti1 tau(  44) = (   6.5750914   4.6476268  16.0792144  )
        45           O1  tau(  45) = (   3.2900926   2.9813045   4.7018136  )
        46           O1  tau(  46) = (   1.3039711   4.4726057   6.0039043  )
        47           O1  tau(  47) = (   5.2763189   4.4711207   6.0039473  )
        48           N1  tau(  48) = (   0.0795740   2.6614725  18.6386781  )
        49           N1  tau(  49) = (   0.0132033   2.8794178  17.4383708  )
        50           C1  tau(  50) = (   0.1510961   3.8031638  19.5908395  )
        51           H1  tau(  51) = (   6.4701351   4.7592986  19.1328852  )
        52           H1  tau(  52) = (   6.0910372   3.5604803  20.4266230  )
        53           H1  tau(  53) = (   1.1812797   3.8285794  19.9476819  )

     number of k points=    10  Fermi-Dirac smearing, width (Ry)=  0.0073
                       cart. coord. in units 2pi/alat
        k(    1) = (   0.0000000   0.0000000   0.0000000), wk =   0.1250000
        k(    2) = (   0.0000000   0.0419351   0.0000000), wk =   0.2500000
        k(    3) = (   0.0000000  -0.0838702   0.0000000), wk =   0.1250000
        k(    4) = (   0.0379955   0.0000049   0.0000000), wk =   0.2500000
        k(    5) = (   0.0379955   0.0419400   0.0000000), wk =   0.2500000
        k(    6) = (   0.0379955  -0.0838652   0.0000000), wk =   0.2500000
        k(    7) = (   0.0379955  -0.0419301   0.0000000), wk =   0.2500000
        k(    8) = (  -0.0759910  -0.0000099   0.0000000), wk =   0.1250000
        k(    9) = (  -0.0759910   0.0419252   0.0000000), wk =   0.2500000
        k(   10) = (  -0.0759910  -0.0838800   0.0000000), wk =   0.1250000

     Initial potential from superposition of free atoms

     starting charge  378.99916, renormalised to  395.00000

     negative rho (up, down):  1.505E-02 0.000E+00

     %%%%%%%%%%%%%%%%%%%%%%%%%%%%%%%%%%%%%%%%%%%%%%%%%%%%%%%%%%%%%%%%%%%%%%%%
     %                                                                      %
     % You are using vdW-DF, which was implemented by the Thonhauser group. %
     % Please cite the following two papers that made this development      %
     % possible and the two reviews that describe the various versions:     %
     %                                                                      %
     %   T. Thonhauser et al., PRL 115, 136402 (2015).                      %
     %   T. Thonhauser et al., PRB 76, 125112 (2007).                       %
     %   K. Berland et al., Rep. Prog. Phys. 78, 066501 (2015).             %
     %   D.C. Langreth et al., J. Phys.: Condens. Matter 21, 084203 (2009). %
     %                                                                      %
     %                                                                      %
     % If you are calculating the stress with vdW-DF, please also cite:     %
     %                                                                      %
     %   R. Sabatini et al., J. Phys.: Condens. Matter 24, 424209 (2012).   %
     %                                                                      %
     %%%%%%%%%%%%%%%%%%%%%%%%%%%%%%%%%%%%%%%%%%%%%%%%%%%%%%%%%%%%%%%%%%%%%%%%

     Adding external electric field

     Computed dipole along edir(3) :
        Dipole               -8.8527 Ry au,        -22.5012 Debye
        Dipole field         -0.0167 Ry au,

        Potential amp.        1.5486 Ry
        Total length         46.3494 bohr

     Starting wfcs are  299 atomic wfcs
  @ DRIVER MODE: Message from server: STATUS
  @ DRIVER MODE: Message from server: POSDATA
  @ DRIVER MODE: Reading and sharing cell
  @ DRIVER MODE: Reading and sharing positions
  @ DRIVER MODE: Received positions

     Self-consistent Calculation

     iteration #  1     ecut=    29.40 Ry     beta= 0.05
     Davidson diagonalization with overlap
     c_bands:  1 eigenvalues not converged
     c_bands:  3 eigenvalues not converged
     c_bands:  1 eigenvalues not converged
     c_bands:  3 eigenvalues not converged
     c_bands:  3 eigenvalues not converged
     c_bands:  1 eigenvalues not converged
     ethr =  1.00E-05,  avg # of iterations = 18.9

[...]

     total energy              =   -2605.35892542 Ry
     estimated scf accuracy    <    3702.42723882 Ry

     iteration #  2     ecut=    29.40 Ry     beta= 0.05
     Davidson diagonalization with overlap
     ethr =  1.00E-02,  avg # of iterations = 22.3

[...]

     iteration # 70     ecut=    29.40 Ry     beta= 0.05
     Davidson diagonalization with overlap
     c_bands:  1 eigenvalues not converged
     ethr =  1.14E-10,  avg # of iterations = 12.0

[...]

     total energy              =   -2939.15459838 Ry
     estimated scf accuracy    <       0.00000017 Ry

     iteration # 71     ecut=    29.40 Ry     beta= 0.05
     Davidson diagonalization with overlap
     ethr =  4.34E-11,  avg # of iterations = 11.1

     negative rho (up, down):  1.566E-02 0.000E+00

     Adding external electric field

     Computed dipole along edir(3) :
        Dipole                0.7097 Ry au,          1.8039 Debye
        Dipole field          0.0013 Ry au,

        Potential amp.       -0.1241 Ry
        Total length         46.3494 bohr

     End of self-consistent calculation

          k = 0.0000 0.0000 0.0000 ( 18029 PWs)   bands (ev):

   -55.8941 -55.8789 -55.8600 -55.8430 -55.7946 -55.7287 -55.7032 -55.7023
   -55.6921 -55.6683 -55.6673 -55.6337 -55.2852 -55.0941 -54.8712 -54.8372
   -32.4331 -32.3764 -32.2288 -32.2267 -32.2011 -32.1979 -32.1871 -32.1579
   -32.1365 -32.1232 -32.1012 -32.0657 -32.0596 -32.0461 -32.0323 -32.0186
   -32.0167 -31.9983 -31.9836 -31.9511 -31.9429 -31.9384 -31.8975 -31.8928
   -31.8901 -31.8866 -31.8786 -31.8738 -31.8695 -31.8427 -31.8421 -31.8332
   -31.8322 -31.8203 -31.8088 -31.7795 -31.7769 -31.5654 -31.4587 -31.3564
   -31.3543 -31.3101 -31.2783 -31.1900 -31.1676 -31.0951 -31.0086 -30.8975
   -18.4341 -16.6317 -16.3669 -16.1384 -16.0443 -16.0121 -15.8940 -15.7316
   -15.6141 -15.5592 -15.4617 -15.4424 -15.4293 -15.3973 -15.3796 -15.3742
   -15.3401 -15.3355 -15.3172 -15.3021 -15.2535 -15.2298 -15.2085 -15.1090
   -15.0627 -15.0288 -15.0139 -14.9504 -14.9453 -14.4413 -13.3738 -13.2574
   -11.3495  -6.9258  -4.3289  -4.0014  -3.9000  -3.8599  -3.8461  -3.7994
    -3.7425  -3.6225  -3.4976  -3.4357  -3.1249  -3.0771  -3.0611  -3.0440
    -3.0061  -2.7987  -2.7476  -2.7072  -2.6833  -2.6755  -2.6644  -2.6570
    -2.6451  -2.6065  -2.5047  -2.4360  -2.4319  -2.3418  -2.2922  -2.2689
    -2.2058  -2.1862  -2.1646  -2.1416  -2.1297  -2.1093  -2.0888  -2.0781
    -1.9756  -1.8820  -1.7542  -1.6934  -1.6851  -1.6656  -1.6459  -1.5014
    -1.3692  -1.3370  -1.3295  -1.3191  -1.2854  -1.2739  -1.1905  -1.0627
    -1.0510  -1.0122  -0.9595  -0.9011  -0.8758  -0.7739  -0.7371  -0.6602
    -0.6550  -0.6382  -0.5860  -0.5363  -0.3752  -0.3334  -0.3077  -0.2850
    -0.2610  -0.1899  -0.1683  -0.0524  -0.0347  -0.0170   0.0432   0.0665
     0.0793   0.0894   0.1069   0.1252   0.1425   0.3096   0.3822   0.4336
     0.4579   0.5157   0.6409   0.7094   0.7649   0.8650   1.0765   1.1507
     1.2434   1.3428   1.7220   1.7676   2.6571   3.2455   3.3260   3.3752
     3.3900   3.4870   3.5204   3.6969   3.6981   3.7271   3.7973

[...]

          k = 0.0380-0.0419 0.0000 ( 17876 PWs)   bands (ev):

[...]

          k =-0.0760-0.0000 0.0000 ( 17886 PWs)   bands (ev):

[...]

          k =-0.0760-0.0839 0.0000 ( 17948 PWs)   bands (ev):

   -55.8776 -55.8764 -55.8611 -55.8606 -55.7912 -55.7167 -55.7064 -55.7042
   -55.6864 -55.6837 -55.6513 -55.6500 -55.2837 -55.0954 -54.8542 -54.8541
   -32.2377 -32.2358 -32.1921 -32.1913 -32.1730 -32.1719 -32.1685 -32.1329
   -32.0873 -32.0843 -32.0785 -32.0777 -32.0413 -32.0116 -32.0038 -32.0033
   -31.9970 -31.9968 -31.9964 -31.9957 -31.9921 -31.9900 -31.9876 -31.9364
   -31.9226 -31.9110 -31.9096 -31.8983 -31.8853 -31.8847 -31.8823 -31.8813
   -31.8658 -31.8651 -31.8559 -31.8532 -31.6938 -31.5671 -31.4669 -31.4135
   -31.3561 -31.3356 -31.1804 -31.1802 -31.0912 -31.0910 -31.0518 -31.0518
   -18.4298 -16.0675 -16.0415 -15.8415 -15.8084 -15.8043 -15.7899 -15.6814
   -15.5963 -15.5892 -15.5864 -15.5204 -15.4904 -15.4744 -15.4335 -15.4209
   -15.4136 -15.4019 -15.3920 -15.3544 -15.3470 -15.3298 -15.3224 -15.2386
   -15.2103 -15.2062 -15.1809 -15.0628 -14.9317 -14.6176 -13.3593 -13.3591
   -11.3472  -6.9373  -4.2369  -3.9109  -3.8313  -3.3569  -3.3281  -3.0880
    -3.0490  -3.0352  -2.9821  -2.8207  -2.7903  -2.7645  -2.7529  -2.7213
    -2.7160  -2.7041  -2.6988  -2.6788  -2.6380  -2.6197  -2.6005  -2.5809
    -2.5612  -2.5473  -2.5325  -2.5152  -2.5054  -2.4661  -2.4425  -2.4311
    -2.4125  -2.4008  -2.2441  -2.1212  -2.0866  -2.0319  -2.0216  -2.0007
    -1.9606  -1.9567  -1.9448  -1.8805  -1.8156  -1.6526  -1.6283  -1.5932
    -1.5768  -1.5578  -1.4994  -1.4597  -1.3720  -1.2986  -1.2739  -1.2695
    -1.2014  -1.1137  -1.1079  -1.0598  -1.0167  -1.0079  -0.9520  -0.8872
    -0.8563  -0.8520  -0.8010  -0.7318  -0.7128  -0.6622  -0.6554  -0.6109
    -0.5566  -0.5502  -0.5276  -0.4858  -0.4039  -0.3802  -0.2417  -0.1620
    -0.0391   0.0748   0.1690   0.1834   0.2631   0.3154   0.3988   0.4167
     0.4273   0.4364   0.4794   0.5623   0.6385   0.6532   0.6989   0.8199
     1.5144   1.5152   1.5872   1.5875   2.7155   3.4924   3.5371   3.5794
     3.6117   3.7177   3.7503   3.7737   3.7749   3.8028   3.9150

     the Fermi energy is     3.2407 ev

!    total energy              =   -2939.15462314 Ry
     estimated scf accuracy    <       0.00000007 Ry
     smearing contrib. (-TS)   =      -0.02248364 Ry
     internal energy E=F+TS    =   -2939.13213950 Ry

     The total energy is F=E-TS. E is the sum of the following terms:
     one-electron contribution =  -24174.46405152 Ry
     hartree contribution      =   12174.48907110 Ry
     xc contribution           =    -485.18384429 Ry
     ewald contribution        =    9546.02573473 Ry
     electric field correction =       0.00095047 Ry

     convergence has been achieved in  71 iterations

     Forces acting on atoms (cartesian axes, Ry/au):

     atom    1 type  1   force =     0.00012049   -0.00024252    0.09667692
     atom    2 type  1   force =    -0.00012335   -0.00049047   -0.17522464
     atom    3 type  2   force =     0.00000084   -0.00010035   -0.02500130
     atom    4 type  2   force =     0.00005415   -0.00149995    0.05296281
     atom    5 type  2   force =    -0.01214546   -0.00108140    0.00360485
     atom    6 type  2   force =     0.01369578   -0.00027569    0.00228061
     atom    7 type  1   force =    -0.00117626    0.00037126   -0.01148430
     atom    8 type  1   force =     0.00056614    0.00940658    0.02853963
     atom    9 type  2   force =     0.00019515    0.00052943   -0.00015986
     atom   10 type  2   force =    -0.00114594    0.00028714   -0.01824216
     atom   11 type  2   force =    -0.00013539    0.00000849   -0.00012951
     atom   12 type  2   force =     0.00015122    0.00021928    0.00018741
     atom   13 type  1   force =     0.00009414   -0.00030338    0.00012032
     atom   14 type  1   force =     0.00021180    0.00016930    0.00019916
     atom   15 type  2   force =     0.00022180    0.00000024   -0.00005131
     atom   16 type  2   force =    -0.00033107    0.00034087    0.00040433
     atom   17 type  2   force =    -0.00009334    0.00043967   -0.00009962
     atom   18 type  2   force =     0.00008657    0.00017381    0.00026829
     atom   19 type  1   force =    -0.00008049    0.00016574    0.00002660
     atom   20 type  1   force =    -0.00057142   -0.00040897    0.00000658
     atom   21 type  2   force =     0.00008727    0.00001670    0.10323711
     atom   22 type  2   force =    -0.00019278    0.00021512    0.00088380
     atom   23 type  2   force =    -0.07147550   -0.00006583   -0.02772246
     atom   24 type  2   force =     0.07144045    0.00035158   -0.02773230
     atom   25 type  1   force =     0.00007262   -0.00022130    0.09638467
     atom   26 type  1   force =    -0.00022669   -0.00027508   -0.17563351
     atom   27 type  2   force =     0.00007038   -0.00025544   -0.02401147
     atom   28 type  2   force =     0.00009629   -0.00126164    0.05283147
     atom   29 type  2   force =    -0.01238996    0.00004193    0.00352056
     atom   30 type  2   force =     0.01385629    0.00033554    0.00216674
     atom   31 type  1   force =    -0.00114278    0.00332476   -0.01189261
     atom   32 type  1   force =     0.00065220   -0.01116747    0.02913356
     atom   33 type  2   force =     0.00010864   -0.00019721   -0.00041995
     atom   34 type  2   force =    -0.00089699   -0.00094282   -0.02483310
     atom   35 type  2   force =    -0.00040564    0.00026481    0.00002747
     atom   36 type  2   force =     0.00073936    0.00029224    0.00034456
     atom   37 type  1   force =    -0.00001659   -0.00022750    0.00001615
     atom   38 type  1   force =    -0.00001721    0.00009954   -0.00001386
     atom   39 type  2   force =     0.00032719    0.00035149   -0.00042581
     atom   40 type  2   force =    -0.00030660    0.00010169    0.00018922
     atom   41 type  2   force =    -0.00040680    0.00051185    0.00016722
     atom   42 type  2   force =     0.00000550    0.00044482    0.00046975
     atom   43 type  1   force =    -0.00005584    0.00037198    0.00038409
     atom   44 type  1   force =    -0.00041230    0.00032221    0.00065327
     atom   45 type  2   force =     0.00008425   -0.00002649    0.10324745
     atom   46 type  2   force =    -0.07149372   -0.00003816   -0.02773811
     atom   47 type  2   force =     0.07146367    0.00037950   -0.02776005
     atom   48 type  3   force =     0.00005393   -0.00069011    0.00151956
     atom   49 type  3   force =     0.00092909    0.00132373    0.00287428
     atom   50 type  4   force =     0.00260544    0.00485100   -0.01899486
     atom   51 type  5   force =     0.00110353   -0.00288498    0.00337369
     atom   52 type  5   force =    -0.00602037   -0.00293992    0.00849930
     atom   53 type  5   force =     0.00216834   -0.00011560    0.00236938

     Total force =     0.369067     Total SCF correction =     0.000460
  @ DRIVER MODE: Message from server: STATUS
  @ DRIVER MODE: Message from server: GETFORCE
  @ DRIVER MODE: Returning v,forces,stress,ensemble

     Writing output data file ./calc.save/
  @ DRIVER MODE: Message from server: EXIT
  @ DRIVE MODE: Exiting

     General routines

     Parallel routines

   This run was terminated on:  21: 3:20  18Aug2021

   JOB DONE.