     Program PWSCF v.6.7GPU starts on 15Jul2021 at 19: 6: 9

     R & G space division:  proc/nbgrp/npool/nimage =      16
     Reading input from /storage/home/hcoda1/3/ntian30/research/carbon/15Jul_vib/ads_slab/CH3N2H_a/out_0004/pw.inp
Warning: card &CELL ignored
Warning: card   CELL_DYNAMICS='IPI', ignored
Warning: card / ignored

     Current dimensions of program PWSCF are:
     Max number of different atomic species (ntypx) = 10
     Max number of k-points (npk) =  40000
     Max angular momentum in pseudopotentials (lmaxx) =  3
     Presently no symmetry can be used with electric field

     Message from routine cell_base_init:
     DEPRECATED: use true lattice parameter, not A to a.u. conversion factor

     IMPORTANT: XC functional enforced from input :
     Exchange-correlation= BEEF-VDW
                           (   1   4  43  14   2   0   0)
     Any further DFT definition will be discarded
     Please, verify this is what you really want

  @ DRIVER MODE: Connecting to
 qe_1139763_2351646.sched-torque.pace.gatech.edudtzs7zi6_scratch
  using UNIX socket
  @ DRIVER MODE: Message from server: STATUS
  @ DRIVER MODE: Message from server: INIT
  @ DRIVER MODE: Receiving replica           0          -1
  @ DRIVER MODE: Receiving encoded integer          25
  @ DRIVER MODE:  SCF:  T  FORCE:  T  STRESS:  F  VC:  F  ENSEMBLE:  F
  @ DRIVER MODE:  SCF:  T  FORCE:  T  STRESS:  F  VC:  F  ENSEMBLE:  F

     Using Slab Decomposition

     bravais-lattice index     =            0
     lattice parameter (alat)  =       1.8897  a.u.
     unit-cell volume          =    6658.9804 (a.u.)^3
     number of atoms/cell      =           54
     number of atomic types    =            5
     number of electrons       =       396.00
     number of Kohn-Sham states=          208
     kinetic-energy cutoff     =      29.3995  Ry
     charge density cutoff     =     293.9946  Ry
     scf convergence threshold =      7.3E-08
     mixing beta               =       0.0500
     number of iterations used =            8  plain     mixing
     Exchange-correlation= BEEF-VDW
                           (   1   4  43  14   2   0   0)

     celldm(1)=   1.889726  celldm(2)=   0.000000  celldm(3)=   0.000000
     celldm(4)=   0.000000  celldm(5)=   0.000000  celldm(6)=   0.000000

     crystal axes: (cart. coord. in units of alat)
               a(1) = (   6.579727   0.000000   0.000000 )
               a(2) = (  -0.000775   5.961596   0.000000 )
               a(3) = (   0.000000   0.000000  25.155947 )

     reciprocal axes: (cart. coord. in units 2 pi/alat)
               b(1) = (  0.151982  0.000020  0.000000 )
               b(2) = (  0.000000  0.167740  0.000000 )
               b(3) = (  0.000000  0.000000  0.039752 )

     PseudoPot. # 1 for Ti read from file:
     /storage/coda1/p-amedford6/0/shared/rich_project_chbe-medford/medford-share/data/pseudos_module/espresso/nninc/pbe/van/Ti.UPF
     MD5 check sum: 8e4df49b7f0d34bbd5052bf3f5ea0213
     Pseudo is Ultrasoft, Zval = 12.0
     Generated by new atomic code, or converted to UPF format
     Using radial grid of  851 points,  6 beta functions with:
                l(1) =   0
                l(2) =   0
                l(3) =   1
                l(4) =   1
                l(5) =   2
                l(6) =   2
     Q(r) pseudized with  8 coefficients,  rinner =    1.000   1.000   1.000
                                                       1.000   1.000

     PseudoPot. # 2 for O  read from file:
     /storage/coda1/p-amedford6/0/shared/rich_project_chbe-medford/medford-share/data/pseudos_module/espresso/nninc/pbe/van/O.UPF
     MD5 check sum: 78c19812648e8988a0fe644b0f25305e
     Pseudo is Ultrasoft, Zval =  6.0
     Generated by new atomic code, or converted to UPF format
     Using radial grid of  737 points,  4 beta functions with:
                l(1) =   0
                l(2) =   0
                l(3) =   1
                l(4) =   1
     Q(r) pseudized with  8 coefficients,  rinner =    0.800   0.800   0.800

     PseudoPot. # 3 for N  read from file:
     /storage/coda1/p-amedford6/0/shared/rich_project_chbe-medford/medford-share/data/pseudos_module/espresso/nninc/pbe/van/N.UPF
     MD5 check sum: 90d10febe142ad51ac9d5be1deb811c4
     Pseudo is Ultrasoft, Zval =  5.0
     Generated by new atomic code, or converted to UPF format
     Using radial grid of  729 points,  4 beta functions with:
                l(1) =   0
                l(2) =   0
                l(3) =   1
                l(4) =   1
     Q(r) pseudized with  8 coefficients,  rinner =    0.800   0.800   0.800

     PseudoPot. # 4 for C  read from file:
     /storage/coda1/p-amedford6/0/shared/rich_project_chbe-medford/medford-share/data/pseudos_module/espresso/nninc/pbe/van/C.UPF
     MD5 check sum: 1a69bf6b8db32088f5b2163dbdb77a27
     Pseudo is Ultrasoft, Zval =  4.0
     Generated by new atomic code, or converted to UPF format
     Using radial grid of  721 points,  4 beta functions with:
                l(1) =   0
                l(2) =   0
                l(3) =   1
                l(4) =   1
     Q(r) pseudized with  8 coefficients,  rinner =    0.800   0.800   0.800

     PseudoPot. # 5 for H  read from file:
     /storage/coda1/p-amedford6/0/shared/rich_project_chbe-medford/medford-share/data/pseudos_module/espresso/nninc/pbe/van/H.UPF
     MD5 check sum: b5ee9d7bfd3a09ee7748110bda690ff7
     Pseudo is Ultrasoft, Zval =  1.0
     Generated by new atomic code, or converted to UPF format
     Using radial grid of  615 points,  1 beta functions with:
                l(1) =   0
     Q(r) pseudized with  8 coefficients,  rinner =    0.800

     atomic species   valence    mass     pseudopotential
        Ti1           12.00    47.86700     Ti( 1.00)
        O1             6.00    15.99900     O ( 1.00)
        N1             5.00    14.00700     N ( 1.00)
        C1             4.00    12.01100     C ( 1.00)
        H1             1.00     1.00800     H ( 1.00)

     Starting magnetic structure
     atomic species   magnetization
        Ti1          0.000
        O1           0.000
        N1           0.000
        C1           0.025
        H1           0.000

     No symmetry found

   Cartesian axes

     site n.     atom                  positions (alat units)
         1           Ti1 tau(   1) = (   0.0004258   2.9801865   6.0000000  )
         2           Ti1 tau(   2) = (   3.2906075   1.4906267   6.0002472  )
         3           O1  tau(   3) = (   0.0006271   0.0005054   7.9858123  )
         4           O1  tau(   4) = (   3.2906025   0.0005020   7.3038282  )
         5           O1  tau(   5) = (   4.5942328   1.4918067   9.2879030  )
         6           O1  tau(   6) = (   1.9868534   1.4903216   9.2879459  )
         7           Ti1 tau(   7) = (   3.2907910   2.8959150   9.1758416  )
         8           Ti1 tau(   8) = (   0.0015273   1.4827037   9.2680791  )
         9           O1  tau(   9) = (   3.3106937   0.0084137  11.2927479  )
        10           O1  tau(  10) = (   0.0116148   5.9584955  10.6183126  )
        11           O1  tau(  11) = (   1.3255326   1.5151957  12.5859258  )
        12           O1  tau(  12) = (   5.3246634   1.4871208  12.6441624  )
        13           Ti1 tau(  13) = (   6.5358624   2.9940264  12.7507449  )
        14           Ti1 tau(  14) = (   3.1828407   1.5032771  12.4528579  )
        15           O1  tau(  15) = (   0.1336207   0.0073438  14.6266748  )
        16           O1  tau(  16) = (   3.2550344   0.0288700  13.8306396  )
        17           O1  tau(  17) = (   4.6334483   1.5013943  15.9792279  )
        18           O1  tau(  18) = (   2.1409664   1.5470880  15.9954950  )
        19           Ti1 tau(  19) = (   3.4798582   3.0305884  15.6593850  )
        20           Ti1 tau(  20) = (   0.1386493   1.3724552  15.8613965  )
        21           O1  tau(  21) = (   3.2904802   0.0005063   4.7018136  )
        22           O1  tau(  22) = (   0.1429122   0.0333940  17.1908172  )
        23           O1  tau(  23) = (   1.3043587   1.4918075   6.0039043  )
        24           O1  tau(  24) = (   5.2767064   1.4903225   6.0039473  )
        25           Ti1 tau(  25) = (   0.0000382   5.9609847   6.0000000  )
        26           Ti1 tau(  26) = (   3.2902200   4.4714249   6.0002472  )
        27           O1  tau(  27) = (   0.0002396   2.9813036   7.9858123  )
        28           O1  tau(  28) = (   3.2902150   2.9813002   7.3038282  )
        29           O1  tau(  29) = (   4.5938453   4.4726049   9.2879030  )
        30           O1  tau(  30) = (   1.9864658   4.4711199   9.2879459  )
        31           Ti1 tau(  31) = (   3.2891106   5.8743827   9.1763621  )
        32           Ti1 tau(  32) = (   0.0006254   4.4649316   9.2693709  )
        33           O1  tau(  33) = (   3.3137399   2.9960163  11.2943833  )
        34           O1  tau(  34) = (   0.0092240   2.9805883  10.6323155  )
        35           O1  tau(  35) = (   1.3234708   4.4688006  12.5930975  )
        36           O1  tau(  36) = (   5.3222282   4.4932535  12.6449723  )
        37           Ti1 tau(  37) = (   6.5041614   0.0053836  12.5833808  )
        38           Ti1 tau(  38) = (   3.1843229   4.4812189  12.4522442  )
        39           O1  tau(  39) = (   0.0584892   2.9792810  14.6723703  )
        40           O1  tau(  40) = (   3.3232524   2.9928384  13.8523860  )
        41           O1  tau(  41) = (   4.6237859   4.5837569  15.7472905  )
        42           O1  tau(  42) = (   2.1882403   4.4693611  16.1038286  )
        43           Ti1 tau(  43) = (   3.3015484   0.0242660  15.6383815  )
        44           Ti1 tau(  44) = (   0.0181797   4.4930750  16.1931172  )
        45           O1  tau(  45) = (   3.2900926   2.9813045   4.7018136  )
        46           O1  tau(  46) = (   1.3039711   4.4726057   6.0039043  )
        47           O1  tau(  47) = (   5.2763189   4.4711207   6.0039473  )
        48           N1  tau(  48) = (   0.2677213   2.8860844  17.5655548  )
        49           C1  tau(  49) = (   1.2271684   2.7639891  18.6598760  )
        50           H1  tau(  50) = (   1.2930054   3.7106696  19.2072709  )
        51           H1  tau(  51) = (   0.8976878   1.9730418  19.3402421  )
        52           H1  tau(  52) = (   2.2102292   2.4972526  18.2850250  )
        53           N1  tau(  53) = (   5.6732178   3.4927010  17.8452151  )
        54           H1  tau(  54) = (   5.7345573   4.0058295  18.7343860  )

     number of k points=    10  Fermi-Dirac smearing, width (Ry)=  0.0073
                       cart. coord. in units 2pi/alat
        k(    1) = (   0.0000000   0.0000000   0.0000000), wk =   0.0625000
        k(    2) = (   0.0000000   0.0419351   0.0000000), wk =   0.1250000
        k(    3) = (   0.0000000  -0.0838702   0.0000000), wk =   0.0625000
        k(    4) = (   0.0379955   0.0000049   0.0000000), wk =   0.1250000
        k(    5) = (   0.0379955   0.0419400   0.0000000), wk =   0.1250000
        k(    6) = (   0.0379955  -0.0838652   0.0000000), wk =   0.1250000
        k(    7) = (   0.0379955  -0.0419301   0.0000000), wk =   0.1250000
[...]
     %                                                                      %
     % You are using vdW-DF, which was implemented by the Thonhauser group. %
     % Please cite the following two papers that made this development      %
     % possible and the two reviews that describe the various versions:     %
     %                                                                      %
     %   T. Thonhauser et al., PRL 115, 136402 (2015).                      %
     %   T. Thonhauser et al., PRB 76, 125112 (2007).                       %
     %   K. Berland et al., Rep. Prog. Phys. 78, 066501 (2015).             %
     %   D.C. Langreth et al., J. Phys.: Condens. Matter 21, 084203 (2009). %
     %                                                                      %
     %                                                                      %
     % If you are calculating the stress with vdW-DF, please also cite:     %
     %                                                                      %
     %   R. Sabatini et al., J. Phys.: Condens. Matter 24, 424209 (2012).   %
     %                                                                      %
     %%%%%%%%%%%%%%%%%%%%%%%%%%%%%%%%%%%%%%%%%%%%%%%%%%%%%%%%%%%%%%%%%%%%%%%%

     Adding external electric field

     Computed dipole along edir(3) :
        Dipole               -8.2222 Ry au,        -20.8988 Debye
        Dipole field         -0.0155 Ry au,

        Potential amp.        1.4384 Ry
        Total length         46.3494 bohr

[...]

     Starting wfcs are  300 atomic wfcs
  @ DRIVER MODE: Message from server: STATUS
  @ DRIVER MODE: Message from server: POSDATA
  @ DRIVER MODE: Reading and sharing cell
  @ DRIVER MODE: Reading and sharing positions
  @ DRIVER MODE: Received positions

     Self-consistent Calculation

     iteration #  1     ecut=    29.40 Ry     beta= 0.05
     Davidson diagonalization with overlap
     c_bands:  1 eigenvalues not converged
     c_bands:  1 eigenvalues not converged
     c_bands:  1 eigenvalues not converged
     c_bands:  1 eigenvalues not converged
     c_bands:  4 eigenvalues not converged
     c_bands:  1 eigenvalues not converged
     c_bands:  4 eigenvalues not converged
     c_bands:  2 eigenvalues not converged
     c_bands:  1 eigenvalues not converged
     c_bands:  1 eigenvalues not converged
     c_bands:  1 eigenvalues not converged
     c_bands:  1 eigenvalues not converged
     c_bands:  1 eigenvalues not converged
     c_bands:  1 eigenvalues not converged
     c_bands:  4 eigenvalues not converged
     c_bands:  1 eigenvalues not converged
     c_bands:  4 eigenvalues not converged
     c_bands:  2 eigenvalues not converged
     c_bands:  1 eigenvalues not converged
     c_bands:  1 eigenvalues not converged
     ethr =  1.00E-05,  avg # of iterations = 20.0

[...]

     total energy              =   -2607.56290930 Ry
     estimated scf accuracy    <    3675.47471880 Ry

     total magnetization       =     0.00 Bohr mag/cell
     absolute magnetization    =     0.03 Bohr mag/cell

[...]

     iteration #  3     ecut=    29.40 Ry     beta= 0.05
     Davidson diagonalization with overlap
     ethr =  1.00E-02,  avg # of iterations = 14.3

[...]

     iteration # 95     ecut=    29.40 Ry     beta= 0.05
     Davidson diagonalization with overlap
     c_bands:  1 eigenvalues not converged
     ethr =  1.22E-10,  avg # of iterations = 10.3

[...]

     total energy              =   -2940.35371330 Ry
     estimated scf accuracy    <       0.00000011 Ry

[...]

     iteration #110     ecut=    29.40 Ry     beta= 0.05
     Davidson diagonalization with overlap
     ethr =  2.00E-11,  avg # of iterations =  6.0

     negative rho (up, down):  8.755E-03 8.767E-03

[...]

     Adding external electric field

     Computed dipole along edir(3) :
        Dipole                0.7850 Ry au,          1.9952 Debye
        Dipole field          0.0015 Ry au,

        Potential amp.       -0.1373 Ry
        Total length         46.3494 bohr

     Magnetic moment per site  (integrated on atomic sphere of radius R)
     atom   1 (R=0.746)  charge=  8.1025  magn=  0.0000
     atom   2 (R=0.746)  charge=  8.0882  magn= -0.0000
     atom   3 (R=0.746)  charge=  5.0689  magn= -0.0000
     atom   4 (R=0.746)  charge=  5.1050  magn= -0.0000
     atom   5 (R=0.746)  charge=  5.0707  magn= -0.0000
     atom   6 (R=0.746)  charge=  5.0719  magn= -0.0000
     atom   7 (R=0.746)  charge=  8.0837  magn=  0.0000
     atom   8 (R=0.746)  charge=  8.0704  magn=  0.0002
     atom   9 (R=0.746)  charge=  5.0891  magn= -0.0001
     atom  10 (R=0.746)  charge=  5.0576  magn= -0.0001
     atom  11 (R=0.746)  charge=  5.0764  magn= -0.0002
     atom  12 (R=0.746)  charge=  5.0718  magn= -0.0001
     atom  13 (R=0.746)  charge=  8.0706  magn=  0.0006
     atom  14 (R=0.746)  charge=  8.0895  magn=  0.0006
     atom  15 (R=0.746)  charge=  5.0551  magn= -0.0037
     atom  16 (R=0.746)  charge=  5.0986  magn= -0.0002
     atom  17 (R=0.746)  charge=  5.0497  magn= -0.0009
     atom  18 (R=0.746)  charge=  5.0674  magn= -0.0005
     atom  19 (R=0.746)  charge=  8.1080  magn=  0.0001
     atom  20 (R=0.746)  charge=  8.0957  magn= -0.0018
     atom  21 (R=0.746)  charge=  4.9489  magn=  0.0000
     atom  22 (R=0.746)  charge=  5.0411  magn= -0.0048
     atom  23 (R=0.746)  charge=  5.0612  magn=  0.0000
     atom  24 (R=0.746)  charge=  5.0613  magn=  0.0000
     atom  25 (R=0.746)  charge=  8.1024  magn= -0.0000
     atom  26 (R=0.746)  charge=  8.0882  magn= -0.0000
     atom  27 (R=0.746)  charge=  5.0670  magn= -0.0000
     atom  28 (R=0.746)  charge=  5.1051  magn=  0.0000
     atom  29 (R=0.746)  charge=  5.0715  magn= -0.0000
     atom  30 (R=0.746)  charge=  5.0726  magn= -0.0000
     atom  31 (R=0.746)  charge=  8.0846  magn=  0.0000
     atom  32 (R=0.746)  charge=  8.0708  magn=  0.0001
     atom  33 (R=0.746)  charge=  5.0887  magn= -0.0001
     atom  34 (R=0.746)  charge=  5.0201  magn= -0.0002
     atom  35 (R=0.746)  charge=  5.0760  magn= -0.0002
     atom  36 (R=0.746)  charge=  5.0724  magn= -0.0002
     atom  37 (R=0.746)  charge=  8.0779  magn=  0.0013
     atom  38 (R=0.746)  charge=  8.0895  magn=  0.0005
     atom  39 (R=0.746)  charge=  5.0529  magn= -0.0007
     atom  40 (R=0.746)  charge=  5.0890  magn= -0.0006
     atom  41 (R=0.746)  charge=  5.0854  magn=  0.0001
     atom  42 (R=0.746)  charge=  5.0441  magn= -0.0042
     atom  43 (R=0.746)  charge=  8.1146  magn= -0.0001
     atom  44 (R=0.746)  charge=  8.1340  magn= -0.0580
     atom  45 (R=0.746)  charge=  4.9490  magn=  0.0000
     atom  46 (R=0.746)  charge=  5.0612  magn=  0.0000
     atom  47 (R=0.746)  charge=  5.0612  magn=  0.0000
     atom  48 (R=0.424)  charge=  1.3506  magn= -0.0466
     atom  49 (R=0.448)  charge=  0.8420  magn=  0.0017
     atom  50 (R=0.424)  charge=  0.4507  magn= -0.0023
     atom  51 (R=0.424)  charge=  0.4492  magn= -0.0033
     atom  52 (R=0.424)  charge=  0.4558  magn= -0.0002
     atom  53 (R=0.424)  charge=  1.3515  magn= -0.0560
     atom  54 (R=0.424)  charge=  0.4594  magn= -0.0013

     End of self-consistent calculation

 ------ SPIN UP ------------

          k = 0.0000 0.0000 0.0000 ( 18029 PWs)   bands (ev):

   -55.9666 -55.9326 -55.7858 -55.7473 -55.6766 -55.6521 -55.6421 -55.6181
   -55.5979 -55.5948 -55.5601 -55.5158 -55.2819 -54.8688 -54.8348 -54.8039
   -32.4342 -32.3287 -32.2604 -32.2377 -32.1546 -32.1430 -32.1210 -32.0847
   -32.0835 -32.0569 -32.0417 -32.0288 -32.0270 -31.9658 -31.9556 -31.9378
   -31.9292 -31.9130 -31.8956 -31.8795 -31.8731 -31.8488 -31.8254 -31.8238
   -31.8232 -31.8154 -31.8108 -31.7956 -31.7887 -31.7836 -31.7711 -31.7645
   -31.7487 -31.7139 -31.7074 -31.7004 -31.6384 -31.5064 -31.5054 -31.2723
   -31.2478 -31.1924 -31.1695 -31.0895 -31.0035 -31.0011 -30.9157 -30.8922
   -17.3389 -16.5395 -16.3295 -16.0426 -15.9220 -15.9088 -15.7799 -15.6577
   -15.5656 -15.4610 -15.4456 -15.3610 -15.3559 -15.3413 -15.2965 -15.2468
   -15.2358 -15.2015 -15.1877 -15.1533 -15.1413 -15.0802 -15.0695 -15.0550
   -14.9724 -14.9182 -14.8637 -14.7736 -14.5895 -14.4735 -13.3699 -13.2549
   -11.5621  -8.3327  -5.0618  -4.0403  -3.9221  -3.8339  -3.8268  -3.7535
    -3.6620  -3.4502  -3.3949  -3.3505  -3.0297  -2.9997  -2.9800  -2.9680
    -2.8833  -2.7125  -2.6904  -2.6458  -2.6303  -2.6075  -2.5976  -2.5746
    -2.5307  -2.5045  -2.4806  -2.4042  -2.2818  -2.2442  -2.2414  -2.2328
    -2.1695  -2.1443  -2.0825  -2.0528  -2.0322  -2.0016  -1.9895  -1.8765
    -1.8316  -1.7753  -1.6934  -1.5807  -1.4959  -1.4587  -1.3923  -1.3334
    -1.3186  -1.2380  -1.2172  -1.1680  -1.1130  -1.0717  -1.0450  -0.9725
    -0.8712  -0.8599  -0.8141  -0.7437  -0.6899  -0.6752  -0.6329  -0.6162
    -0.6021  -0.5897  -0.5794  -0.4188  -0.3487  -0.2136  -0.1676  -0.1521
    -0.0957  -0.0672  -0.0304   0.0094   0.0169   0.0735   0.0868   0.1171
     0.1562   0.1783   0.2061   0.2799   0.3185   0.3712   0.5044   0.5263
     0.6067   0.6874   0.7569   0.8217   0.8620   0.9633   1.0846   1.1107
     1.1536   1.3580   1.4343   1.7182   1.7608   3.1886   3.2242   3.3186
     3.4209   3.5364   3.5857   3.6619   3.7998   3.8108   3.8667   3.9551

[...]

          k =-0.0760-0.0000 0.0000 ( 17886 PWs)   bands (ev):

[...]

 ------ SPIN DOWN ----------

[...]

          k = 0.0380-0.0419 0.0000 ( 17876 PWs)   bands (ev):

[...]

          k =-0.0760-0.0839 0.0000 ( 17948 PWs)   bands (ev):

   -55.9506 -55.9486 -55.7725 -55.7586 -55.6626 -55.6553 -55.6343 -55.6325
   -55.5942 -55.5813 -55.5733 -55.5196 -55.2846 -54.9025 -54.8518 -54.8517
   -32.2505 -32.2495 -32.2464 -32.2446 -32.1351 -32.1236 -32.0731 -32.0709
   -32.0343 -32.0219 -32.0105 -31.9990 -31.9753 -31.9675 -31.9405 -31.9308
   -31.9277 -31.9254 -31.9189 -31.8958 -31.8658 -31.8638 -31.8596 -31.8567
   -31.8432 -31.8388 -31.8338 -31.8191 -31.8117 -31.8047 -31.7989 -31.7958
   -31.7907 -31.7885 -31.7827 -31.7272 -31.6512 -31.5140 -31.5087 -31.3273
   -31.1823 -31.1822 -31.1301 -31.0856 -31.0854 -31.0466 -31.0466 -31.0454
   -17.4895 -15.9662 -15.9368 -15.7933 -15.7722 -15.7081 -15.6931 -15.5740
   -15.5654 -15.5572 -15.5002 -15.4308 -15.4191 -15.3863 -15.3411 -15.3286
   -15.2955 -15.2750 -15.2691 -15.2646 -15.2565 -15.2154 -15.1518 -15.1464
   -15.1387 -15.0660 -14.9287 -14.8795 -14.7151 -14.5870 -13.3573 -13.3569
   -11.6729  -8.4437  -5.1346  -4.0302  -3.9499  -3.2682  -3.2324  -2.9882
    -2.9784  -2.9570  -2.9044  -2.7376  -2.7323  -2.7099  -2.6896  -2.6860
    -2.6571  -2.6406  -2.6290  -2.5717  -2.5580  -2.5198  -2.5020  -2.4975
    -2.4954  -2.4763  -2.4724  -2.4480  -2.4415  -2.4145  -2.3631  -2.3318
    -2.3050  -2.2085  -2.0972  -2.0213  -1.9837  -1.9736  -1.9639  -1.9522
    -1.9323  -1.9198  -1.8326  -1.6993  -1.6423  -1.5929  -1.5401  -1.5173
    -1.5109  -1.4409  -1.4144  -1.3240  -1.2557  -1.1739  -1.1538  -1.1173
    -1.1016  -1.0206  -0.9813  -0.9499  -0.9306  -0.8910  -0.8598  -0.8560
    -0.8088  -0.7419  -0.6961  -0.6365  -0.6178  -0.5883  -0.5769  -0.5544
    -0.4813  -0.3777  -0.3386  -0.3075  -0.2710  -0.2130  -0.1015  -0.0767
     0.0502   0.1944   0.2340   0.2707   0.3696   0.4249   0.4496   0.4645
     0.5239   0.5974   0.6280   0.6931   0.7381   0.7547   0.8126   0.9509
     1.0970   1.5270   1.5285   1.5792   1.5801   2.7142   3.6922   3.7146
     3.7196   3.7379   3.7524   3.7637   3.8057   3.8374   3.9698   3.9874

     the Fermi energy is     3.1900 ev

!    total energy              =   -2940.35371391 Ry
     estimated scf accuracy    <       0.00000007 Ry
     smearing contrib. (-TS)   =      -0.01703856 Ry
     internal energy E=F+TS    =   -2940.33667535 Ry

     The total energy is F=E-TS. E is the sum of the following terms:
     one-electron contribution =  -24662.11066526 Ry
     hartree contribution      =   12420.33998770 Ry
     xc contribution           =    -486.06345394 Ry
     ewald contribution        =    9787.49629339 Ry
     electric field correction =       0.00116276 Ry

     total magnetization       =    -0.47 Bohr mag/cell
     absolute magnetization    =     0.52 Bohr mag/cell

     convergence has been achieved in 110 iterations

     Forces acting on atoms (cartesian axes, Ry/au):

     atom    1 type  1   force =     0.00023369   -0.00036100    0.10116453
     atom    2 type  1   force =     0.00001329   -0.00086641   -0.17166300
     atom    3 type  2   force =     0.00029644    0.00021181   -0.03271235
     atom    4 type  2   force =     0.00003163   -0.00081327    0.04529630
     atom    5 type  2   force =    -0.01203143   -0.00024710   -0.00203946
     atom    6 type  2   force =     0.01444731    0.00033811   -0.00083047
     atom    7 type  1   force =     0.00140813   -0.00124498   -0.00551427
     atom    8 type  1   force =    -0.00075928    0.02224738    0.05484977
     atom    9 type  2   force =    -0.00003155   -0.00028601    0.00155955
     atom   10 type  2   force =    -0.00273059    0.00206411   -0.02377791
     atom   11 type  2   force =    -0.00020784    0.00026390    0.00059852
     atom   12 type  2   force =     0.00000274    0.00082333    0.00064044
     atom   13 type  1   force =     0.00001623    0.00023369   -0.00363530
     atom   14 type  1   force =     0.00048139    0.00029285   -0.00199435
     atom   15 type  2   force =     0.00044019    0.00081921    0.00300878
     atom   16 type  2   force =     0.00002308   -0.00014134    0.00309316
     atom   17 type  2   force =     0.00033975   -0.00066032    0.00072356
     atom   18 type  2   force =    -0.00016826   -0.00053892    0.00093337
     atom   19 type  1   force =    -0.00056738   -0.00060165   -0.00257520
     atom   20 type  1   force =     0.00003910   -0.00105407   -0.00391666
     atom   21 type  2   force =     0.00006542   -0.00001192    0.10218777
     atom   22 type  2   force =    -0.00049911   -0.00021875    0.00079351
     atom   23 type  2   force =    -0.07316159   -0.00016844   -0.02880583
     atom   24 type  2   force =     0.07311436    0.00033131   -0.02885373
     atom   25 type  1   force =    -0.00026244   -0.00029692    0.10160443
     atom   26 type  1   force =     0.00003664   -0.00019292   -0.17166691
     atom   27 type  2   force =     0.00035543   -0.00022975   -0.03143438
     atom   28 type  2   force =     0.00009211   -0.00060194    0.04592162
     atom   29 type  2   force =    -0.01217571    0.00210193   -0.00259187
     atom   30 type  2   force =     0.01447255    0.00226756   -0.00132610
     atom   31 type  1   force =     0.00159494    0.00100716   -0.00681722
     atom   32 type  1   force =    -0.00058775   -0.02477202    0.05587339
     atom   33 type  2   force =     0.00011176    0.00033909    0.00174249
     atom   34 type  2   force =    -0.00425555    0.00209984   -0.04641386
     atom   35 type  2   force =     0.00032739   -0.00061437    0.00064619
     atom   36 type  2   force =    -0.00048579   -0.00085374    0.00074901
     atom   37 type  1   force =     0.00017498    0.00059901   -0.00390588
     atom   38 type  1   force =     0.00027942   -0.00005009   -0.00201669
     atom   39 type  2   force =     0.00034432   -0.00027508    0.00279978
     atom   40 type  2   force =     0.00006627   -0.00004135    0.00218295
     atom   41 type  2   force =     0.00058654    0.00046774    0.00032259
     atom   42 type  2   force =    -0.00039582    0.00038809    0.00110158
     atom   43 type  1   force =    -0.00026590    0.00000829   -0.00199026
     atom   44 type  1   force =    -0.00012330    0.00139328   -0.00270642
     atom   45 type  2   force =     0.00004617   -0.00005191    0.10223749
     atom   46 type  2   force =    -0.07316946   -0.00009009   -0.02877750
     atom   47 type  2   force =     0.07312238    0.00027796   -0.02881510
     atom   48 type  3   force =     0.00464938   -0.00561069   -0.00013559
     atom   49 type  4   force =    -0.00063489    0.00126889    0.00065294
     atom   50 type  5   force =     0.00054678   -0.00040280    0.00049973
     atom   51 type  5   force =    -0.00107583   -0.00036985   -0.00024675
     atom   52 type  5   force =    -0.00055507   -0.00030024   -0.00016741
     atom   53 type  3   force =    -0.00220024    0.00238241    0.00397629
     atom   54 type  5   force =    -0.00141503   -0.00025901    0.00017074

     Total force =     0.377295     Total SCF correction =     0.000492
  @ DRIVER MODE: Message from server: STATUS
  @ DRIVER MODE: Message from server: GETFORCE
  @ DRIVER MODE: Returning v,forces,stress,ensemble

     Writing output data file ./calc.save/
  @ DRIVER MODE: Message from server: EXIT
  @ DRIVE MODE: Exiting

     General routines

     Parallel routines

   This run was terminated on:  19:45:49  15Jul2021

   JOB DONE.