     Program PWSCF v.6.7GPU starts on 24Sep2021 at  2:17:52

     R & G space division:  proc/nbgrp/npool/nimage =       8
     Reading input from /storage/home/hcoda1/3/ntian30/research/carbon/CxH_vib/H2O_calc/ads_slab/CH3NNHHHHO_a/out_0038/pw.inp
Warning: card &CELL ignored
Warning: card   CELL_DYNAMICS='IPI', ignored
Warning: card / ignored

     Current dimensions of program PWSCF are:
     Max number of different atomic species (ntypx) = 10
     Max number of k-points (npk) =  40000
     Max angular momentum in pseudopotentials (lmaxx) =  3
     Presently no symmetry can be used with electric field

     Message from routine cell_base_init:
     DEPRECATED: use true lattice parameter, not A to a.u. conversion factor

     IMPORTANT: XC functional enforced from input :
     Exchange-correlation= BEEF-VDW
                           (   1   4  43  14   2   0   0)
     Any further DFT definition will be discarded
     Please, verify this is what you really want

  @ DRIVER MODE: Connecting to
 qe_1139763_2947308.sched-torque.pace.gatech.edut0d51p9t_scratch
  using UNIX socket
  @ DRIVER MODE: Message from server: STATUS
  @ DRIVER MODE: Message from server: INIT
  @ DRIVER MODE: Receiving replica           0          -1
  @ DRIVER MODE: Receiving encoded integer          25
  @ DRIVER MODE:  SCF:  T  FORCE:  T  STRESS:  F  VC:  F  ENSEMBLE:  F
  @ DRIVER MODE:  SCF:  T  FORCE:  T  STRESS:  F  VC:  F  ENSEMBLE:  F

     Using Slab Decomposition

     bravais-lattice index     =            0
     lattice parameter (alat)  =       1.8897  a.u.
     unit-cell volume          =    6658.9804 (a.u.)^3
     number of atoms/cell      =           58
     number of atomic types    =            5
     number of electrons       =       405.00
     number of Kohn-Sham states=          212
     kinetic-energy cutoff     =      29.3995  Ry
     charge density cutoff     =     293.9946  Ry
     scf convergence threshold =      7.3E-08
     mixing beta               =       0.0500
     number of iterations used =            8  plain     mixing
     Exchange-correlation= BEEF-VDW
                           (   1   4  43  14   2   0   0)

     celldm(1)=   1.889726  celldm(2)=   0.000000  celldm(3)=   0.000000
     celldm(4)=   0.000000  celldm(5)=   0.000000  celldm(6)=   0.000000

     crystal axes: (cart. coord. in units of alat)
               a(1) = (   6.579727   0.000000   0.000000 )
               a(2) = (  -0.000775   5.961596   0.000000 )
               a(3) = (   0.000000   0.000000  25.155947 )

     reciprocal axes: (cart. coord. in units 2 pi/alat)
               b(1) = (  0.151982  0.000020  0.000000 )
               b(2) = (  0.000000  0.167740  0.000000 )
               b(3) = (  0.000000  0.000000  0.039752 )

     PseudoPot. # 1 for Ti read from file:
     /storage/coda1/p-amedford6/0/shared/rich_project_chbe-medford/medford-share/data/pseudos_module/espresso/nninc/pbe/van/Ti.UPF
     MD5 check sum: 8e4df49b7f0d34bbd5052bf3f5ea0213
     Pseudo is Ultrasoft, Zval = 12.0
     Generated by new atomic code, or converted to UPF format
     Using radial grid of  851 points,  6 beta functions with:
                l(1) =   0
                l(2) =   0
                l(3) =   1
                l(4) =   1
                l(5) =   2
                l(6) =   2
     Q(r) pseudized with  8 coefficients,  rinner =    1.000   1.000   1.000
                                                       1.000   1.000

     PseudoPot. # 2 for O  read from file:
     /storage/coda1/p-amedford6/0/shared/rich_project_chbe-medford/medford-share/data/pseudos_module/espresso/nninc/pbe/van/O.UPF
     MD5 check sum: 78c19812648e8988a0fe644b0f25305e
     Pseudo is Ultrasoft, Zval =  6.0
     Generated by new atomic code, or converted to UPF format
     Using radial grid of  737 points,  4 beta functions with:
                l(1) =   0
                l(2) =   0
                l(3) =   1
                l(4) =   1
     Q(r) pseudized with  8 coefficients,  rinner =    0.800   0.800   0.800

     PseudoPot. # 3 for N  read from file:
     /storage/coda1/p-amedford6/0/shared/rich_project_chbe-medford/medford-share/data/pseudos_module/espresso/nninc/pbe/van/N.UPF
     MD5 check sum: 90d10febe142ad51ac9d5be1deb811c4
     Pseudo is Ultrasoft, Zval =  5.0
     Generated by new atomic code, or converted to UPF format
     Using radial grid of  729 points,  4 beta functions with:
                l(1) =   0
                l(2) =   0
                l(3) =   1
                l(4) =   1
     Q(r) pseudized with  8 coefficients,  rinner =    0.800   0.800   0.800

     PseudoPot. # 4 for C  read from file:
     /storage/coda1/p-amedford6/0/shared/rich_project_chbe-medford/medford-share/data/pseudos_module/espresso/nninc/pbe/van/C.UPF
     MD5 check sum: 1a69bf6b8db32088f5b2163dbdb77a27
     Pseudo is Ultrasoft, Zval =  4.0
     Generated by new atomic code, or converted to UPF format
     Using radial grid of  721 points,  4 beta functions with:
                l(1) =   0
                l(2) =   0
                l(3) =   1
                l(4) =   1
     Q(r) pseudized with  8 coefficients,  rinner =    0.800   0.800   0.800

     PseudoPot. # 5 for H  read from file:
     /storage/coda1/p-amedford6/0/shared/rich_project_chbe-medford/medford-share/data/pseudos_module/espresso/nninc/pbe/van/H.UPF
     MD5 check sum: b5ee9d7bfd3a09ee7748110bda690ff7
     Pseudo is Ultrasoft, Zval =  1.0
     Generated by new atomic code, or converted to UPF format
     Using radial grid of  615 points,  1 beta functions with:
                l(1) =   0
     Q(r) pseudized with  8 coefficients,  rinner =    0.800

     atomic species   valence    mass     pseudopotential
        Ti1           12.00    47.86700     Ti( 1.00)
        O1             6.00    15.99900     O ( 1.00)
        N1             5.00    14.00700     N ( 1.00)
        C1             4.00    12.01100     C ( 1.00)
        H1             1.00     1.00800     H ( 1.00)

     No symmetry found

   Cartesian axes

     site n.     atom                  positions (alat units)
         1           Ti1 tau(   1) = (   0.0004258   2.9801865   6.0000000  )
         2           Ti1 tau(   2) = (   3.2906075   1.4906267   6.0002472  )
         3           O1  tau(   3) = (   0.0006271   0.0005054   7.9858123  )
         4           O1  tau(   4) = (   3.2906025   0.0005020   7.3038282  )
         5           O1  tau(   5) = (   4.5942328   1.4918067   9.2879030  )
         6           O1  tau(   6) = (   1.9868534   1.4903216   9.2879459  )
         7           Ti1 tau(   7) = (   3.2907910   2.8959150   9.1758416  )
         8           Ti1 tau(   8) = (   0.0015273   1.4827037   9.2680791  )
         9           O1  tau(   9) = (   3.3066316   0.0080679  11.3583267  )
        10           O1  tau(  10) = (   0.0116148   5.9584955  10.6183126  )
        11           O1  tau(  11) = (   1.3000076   1.5005770  12.6434233  )
        12           O1  tau(  12) = (   5.3281586   1.4930334  12.6431679  )
        13           Ti1 tau(  13) = (   0.0126194   3.0144704  12.5166071  )
        14           Ti1 tau(  14) = (   3.3185830   1.5708444  12.4374219  )
        15           O1  tau(  15) = (   0.0449490   0.0685618  14.6579901  )
        16           O1  tau(  16) = (   3.3164028   5.8986079  13.9921319  )
        17           O1  tau(  17) = (   4.5763498   1.4919541  16.1892649  )
        18           O1  tau(  18) = (   2.0390356   1.5007807  16.1677599  )
        19           Ti1 tau(  19) = (   3.3152479   2.9236451  15.6986563  )
        20           Ti1 tau(  20) = (   0.0808212   1.4292116  16.0039943  )
        21           O1  tau(  21) = (   3.2904802   0.0005063   4.7018136  )
        22           O1  tau(  22) = (   0.0303022   5.8046116  17.1736243  )
        23           O1  tau(  23) = (   1.3043587   1.4918075   6.0039043  )
        24           O1  tau(  24) = (   5.2767064   1.4903225   6.0039473  )
        25           Ti1 tau(  25) = (   0.0000382   5.9609847   6.0000000  )
        26           Ti1 tau(  26) = (   3.2902200   4.4714249   6.0002472  )
        27           O1  tau(  27) = (   0.0002396   2.9813036   7.9858123  )
        28           O1  tau(  28) = (   3.2902150   2.9813002   7.3038282  )
        29           O1  tau(  29) = (   4.5938453   4.4726049   9.2879030  )
        30           O1  tau(  30) = (   1.9864658   4.4711199   9.2879459  )
        31           Ti1 tau(  31) = (   3.2891106   5.8743827   9.1763621  )
        32           Ti1 tau(  32) = (   0.0006254   4.4649316   9.2693709  )
        33           O1  tau(  33) = (   3.3101163   2.9547251  11.3177968  )
        34           O1  tau(  34) = (   0.0092240   2.9805883  10.6323155  )
        35           O1  tau(  35) = (   1.2917786   4.4638488  12.6831265  )
        36           O1  tau(  36) = (   5.3332004   4.4701953  12.6833355  )
        37           Ti1 tau(  37) = (   0.0360484   0.0435164  12.5022323  )
        38           Ti1 tau(  38) = (   3.3166134   4.6596848  12.7231989  )
        39           O1  tau(  39) = (   6.5734590   2.9070644  14.8960501  )
        40           O1  tau(  40) = (   3.3256711   2.9499323  13.9293234  )
        41           O1  tau(  41) = (   4.5718193   4.3849529  16.1598725  )
        42           O1  tau(  42) = (   2.0293811   4.3548050  16.0908550  )
        43           Ti1 tau(  43) = (   3.3839698   5.9011270  16.3477160  )
        44           Ti1 tau(  44) = (   0.0762916   4.6312412  15.8077656  )
        45           O1  tau(  45) = (   3.2900926   2.9813045   4.7018136  )
        46           O1  tau(  46) = (   1.3039711   4.4726057   6.0039043  )
        47           O1  tau(  47) = (   5.2763189   4.4711207   6.0039473  )
        48           N1  tau(  48) = (   1.0338470   3.0145746  18.8549854  )
        49           N1  tau(  49) = (   6.4614719   2.5758313  18.0922931  )
        50           C1  tau(  50) = (   0.6385090   3.7489381  20.0602371  )
        51           H1  tau(  51) = (   6.5128770   4.5633600  19.8465500  )
        52           H1  tau(  52) = (   0.1876125   3.0656416  20.7809517  )
        53           H1  tau(  53) = (   1.5398112   4.1767214  20.4987412  )
        54           H1  tau(  54) = (   5.7134478   3.2665398  18.1448723  )
        55           H1  tau(  55) = (   6.1095767   1.7263867  18.5341855  )
        56           H1  tau(  56) = (   1.5400177   3.6533120  18.2466354  )
        57           O1  tau(  57) = (   3.2295176   5.8880611  18.1942677  )
        58           H1  tau(  58) = (   2.6769533   0.6239085  18.5854980  )

     number of k points=    10  Fermi-Dirac smearing, width (Ry)=  0.0073
                       cart. coord. in units 2pi/alat
        k(    1) = (   0.0000000   0.0000000   0.0000000), wk =   0.1250000
        k(    2) = (   0.0000000   0.0419351   0.0000000), wk =   0.2500000
        k(    3) = (   0.0000000  -0.0838702   0.0000000), wk =   0.1250000
        k(    4) = (   0.0379955   0.0000049   0.0000000), wk =   0.2500000
        k(    5) = (   0.0379955   0.0419400   0.0000000), wk =   0.2500000
        k(    6) = (   0.0379955  -0.0838652   0.0000000), wk =   0.2500000
        k(    7) = (   0.0379955  -0.0419301   0.0000000), wk =   0.2500000
        k(    8) = (  -0.0759910  -0.0000099   0.0000000), wk =   0.1250000
        k(    9) = (  -0.0759910   0.0419252   0.0000000), wk =   0.2500000
        k(   10) = (  -0.0759910  -0.0838800   0.0000000), wk =   0.1250000

     Initial potential from superposition of free atoms

     starting charge  388.99913, renormalised to  405.00000

     negative rho (up, down):  1.325E-02 0.000E+00

     %%%%%%%%%%%%%%%%%%%%%%%%%%%%%%%%%%%%%%%%%%%%%%%%%%%%%%%%%%%%%%%%%%%%%%%%
     %                                                                      %
     % You are using vdW-DF, which was implemented by the Thonhauser group. %
     % Please cite the following two papers that made this development      %
     % possible and the two reviews that describe the various versions:     %
     %                                                                      %
     %   T. Thonhauser et al., PRL 115, 136402 (2015).                      %
     %   T. Thonhauser et al., PRB 76, 125112 (2007).                       %
     %   K. Berland et al., Rep. Prog. Phys. 78, 066501 (2015).             %
     %   D.C. Langreth et al., J. Phys.: Condens. Matter 21, 084203 (2009). %
     %                                                                      %
     %                                                                      %
     % If you are calculating the stress with vdW-DF, please also cite:     %
     %                                                                      %
     %   R. Sabatini et al., J. Phys.: Condens. Matter 24, 424209 (2012).   %
     %                                                                      %
     %%%%%%%%%%%%%%%%%%%%%%%%%%%%%%%%%%%%%%%%%%%%%%%%%%%%%%%%%%%%%%%%%%%%%%%%

     Adding external electric field

     Computed dipole along edir(3) :
        Dipole              -14.7651 Ry au,        -37.5293 Debye
        Dipole field         -0.0279 Ry au,

        Potential amp.        2.5829 Ry
        Total length         46.3494 bohr

     Starting wfcs are  307 atomic wfcs
  @ DRIVER MODE: Message from server: STATUS
  @ DRIVER MODE: Message from server: POSDATA
  @ DRIVER MODE: Reading and sharing cell
  @ DRIVER MODE: Reading and sharing positions
  @ DRIVER MODE: Received positions

     Self-consistent Calculation

     iteration #  1     ecut=    29.40 Ry     beta= 0.05
     Davidson diagonalization with overlap
     c_bands:  3 eigenvalues not converged
     c_bands:  4 eigenvalues not converged
     c_bands:  2 eigenvalues not converged
     c_bands:  3 eigenvalues not converged
     c_bands:  3 eigenvalues not converged
     c_bands:  3 eigenvalues not converged
     ethr =  1.00E-05,  avg # of iterations = 23.2

[...]

     total energy              =   -2204.21231600 Ry
     estimated scf accuracy    <    8785.91165019 Ry

[...]

     iteration #  4     ecut=    29.40 Ry     beta= 0.05
     Davidson diagonalization with overlap
     ethr =  1.00E-02,  avg # of iterations = 12.3

[...]

     iteration # 44     ecut=    29.40 Ry     beta= 0.05
     Davidson diagonalization with overlap
     c_bands:  2 eigenvalues not converged
     ethr =  7.40E-07,  avg # of iterations =  7.8

[...]

     total energy              =   -2976.49813216 Ry
     estimated scf accuracy    <       0.00000010 Ry

     iteration # 62     ecut=    29.40 Ry     beta= 0.05
     Davidson diagonalization with overlap
     ethr =  2.48E-11,  avg # of iterations =  6.3

     negative rho (up, down):  1.443E-02 0.000E+00

     Adding external electric field

     Computed dipole along edir(3) :
        Dipole                0.9915 Ry au,          2.5201 Debye
        Dipole field          0.0019 Ry au,

        Potential amp.       -0.1734 Ry
        Total length         46.3494 bohr

     End of self-consistent calculation

          k = 0.0000 0.0000 0.0000 ( 18029 PWs)   bands (ev):

   -55.5822 -55.4990 -55.4650 -55.3647 -55.3429 -55.3270 -55.3131 -55.3064
   -55.2933 -55.2636 -55.2198 -55.0977 -55.0872 -55.0098 -54.4683 -54.4342
   -31.9835 -31.9187 -31.8784 -31.8306 -31.8289 -31.8095 -31.7990 -31.7900
   -31.7501 -31.7450 -31.7268 -31.6516 -31.6282 -31.6074 -31.6055 -31.6037
   -31.5980 -31.5859 -31.5835 -31.5566 -31.5504 -31.5251 -31.5245 -31.5129
   -31.4976 -31.4865 -31.4786 -31.4620 -31.4572 -31.4544 -31.4446 -31.4387
   -31.4349 -31.4156 -31.3736 -31.3718 -31.3015 -31.2942 -31.2805 -31.2594
   -31.2226 -31.2152 -30.8739 -30.7884 -30.7659 -30.6916 -30.6052 -30.4933
   -17.5964 -16.4003 -16.1400 -15.9775 -15.7616 -15.6762 -15.6477 -15.4552
   -15.3498 -15.2969 -15.1110 -15.0641 -15.0340 -15.0225 -15.0075 -14.9848
   -14.9649 -14.9268 -14.9183 -14.9081 -14.9025 -14.8639 -14.8415 -14.7909
   -14.7680 -14.7056 -14.6335 -14.5657 -14.5183 -14.2579 -14.2397 -12.9803
   -12.9664 -12.8502  -9.4629  -6.1899  -5.2063  -4.6372  -3.9619  -3.5046
    -3.4038  -3.3879  -3.3327  -3.2693  -3.1714  -2.9962  -2.8876  -2.8342
    -2.7330  -2.6257  -2.5707  -2.5073  -2.4796  -2.4309  -2.3978  -2.3860
    -2.3794  -2.2831  -2.2743  -2.2475  -2.2119  -2.1560  -2.1404  -2.0629
    -2.0261  -2.0177  -1.8929  -1.8806  -1.8148  -1.8105  -1.8042  -1.7706
    -1.7495  -1.7347  -1.7056  -1.6218  -1.5689  -1.4985  -1.4758  -1.4458
    -1.1866  -1.0947  -1.0571  -1.0291  -0.9314  -0.9160  -0.9021  -0.8982
    -0.8841  -0.8345  -0.7887  -0.7040  -0.5948  -0.5748  -0.5656  -0.5206
    -0.4554  -0.3734  -0.3000  -0.2706  -0.2333  -0.2200  -0.1539  -0.0767
    -0.0605  -0.0482   0.0606   0.0749   0.1572   0.2158   0.2299   0.2749
     0.3157   0.3481   0.4050   0.4414   0.4718   0.4777   0.5111   0.5555
     0.6112   0.6416   0.6695   0.7518   0.8073   0.8527   0.8804   1.0522
     1.0825   1.1412   1.1782   1.2653   1.5082   1.5585   1.5976   1.7528
     2.1248   2.1699   3.5855   3.7367   3.7517   3.8213   3.8464   3.9374
     4.0749   4.1425   4.2755   4.2828

[...]

          k = 0.0380-0.0419 0.0000 ( 17876 PWs)   bands (ev):

[...]

          k =-0.0760-0.0000 0.0000 ( 17886 PWs)   bands (ev):

[...]

          k =-0.0760-0.0839 0.0000 ( 17948 PWs)   bands (ev):

   -55.5815 -55.4821 -55.4817 -55.3634 -55.3298 -55.3195 -55.3136 -55.3102
   -55.3097 -55.2557 -55.2278 -55.0946 -55.0883 -55.0128 -54.4514 -54.4510
   -31.8659 -31.8081 -31.8038 -31.7990 -31.7987 -31.7841 -31.7756 -31.7752
   -31.7063 -31.6503 -31.6423 -31.6349 -31.6301 -31.6169 -31.6021 -31.6020
   -31.5998 -31.5998 -31.5852 -31.5748 -31.5672 -31.5588 -31.5376 -31.5193
   -31.5167 -31.5128 -31.5055 -31.5025 -31.4904 -31.4829 -31.4805 -31.4745
   -31.4694 -31.4507 -31.4449 -31.3678 -31.3564 -31.3418 -31.3034 -31.2983
   -31.2647 -31.2186 -30.7788 -30.7785 -30.6870 -30.6866 -30.6486 -30.6482
   -17.5904 -16.3861 -15.7484 -15.5700 -15.4739 -15.4675 -15.3367 -15.2707
   -15.2621 -15.2272 -15.2089 -15.1938 -15.1609 -15.1434 -15.1039 -15.0511
   -15.0178 -14.9952 -14.9836 -14.9465 -14.9340 -14.9120 -14.9047 -14.8961
   -14.8378 -14.8057 -14.7966 -14.7660 -14.5705 -14.5491 -14.3722 -12.9818
   -12.9521 -12.9520  -9.4605  -6.1749  -5.2079  -4.6473  -3.9581  -3.1729
    -2.9225  -2.7789  -2.7029  -2.5689  -2.5589  -2.5011  -2.4916  -2.4483
    -2.4398  -2.3988  -2.3448  -2.3289  -2.2856  -2.2806  -2.2499  -2.2374
    -2.2267  -2.2176  -2.1925  -2.1730  -2.1640  -2.1234  -2.1187  -2.1029
    -2.0832  -2.0669  -2.0393  -2.0282  -1.9880  -1.9489  -1.8834  -1.8096
    -1.7240  -1.6411  -1.6306  -1.6198  -1.5734  -1.5669  -1.5202  -1.5087
    -1.4612  -1.4100  -1.2958  -1.1734  -1.1329  -1.1067  -1.0746  -1.0427
    -0.9879  -0.9651  -0.9300  -0.8818  -0.8497  -0.7262  -0.7151  -0.6496
    -0.5657  -0.5320  -0.4560  -0.4429  -0.4283  -0.4120  -0.3902  -0.3734
    -0.3443  -0.3283  -0.2235  -0.1996  -0.1965  -0.1739  -0.1232  -0.0200
     0.0538   0.1366   0.2395   0.2893   0.3169   0.3505   0.4505   0.5687
     0.5939   0.6571   0.6890   0.7318   0.7990   0.8197   0.8676   0.9523
     1.0059   1.0384   1.0647   1.0697   1.1244   1.1576   1.9215   1.9300
     1.9902   1.9904   3.7988   4.0754   4.1011   4.1170   4.1543   4.1585
     4.1805   4.1950   4.2601   4.2756

     the Fermi energy is     3.6225 ev

!    total energy              =   -2976.49820682 Ry
     estimated scf accuracy    <       0.00000007 Ry
     smearing contrib. (-TS)   =      -0.01953023 Ry
     internal energy E=F+TS    =   -2976.47867659 Ry

     The total energy is F=E-TS. E is the sum of the following terms:
     one-electron contribution =  -23034.57727898 Ry
     hartree contribution      =   11613.64746782 Ry
     xc contribution           =    -495.71556787 Ry
     ewald contribution        =    8940.16484729 Ry
     electric field correction =       0.00185515 Ry

     convergence has been achieved in  62 iterations

     Forces acting on atoms (cartesian axes, Ry/au):

     atom    1 type  1   force =     0.00001298   -0.00023184    0.09406108
     atom    2 type  1   force =    -0.00016312    0.00025241   -0.17515724
     atom    3 type  2   force =     0.00007465   -0.00016621   -0.02117850
     atom    4 type  2   force =     0.00000414   -0.00104168    0.05352925
     atom    5 type  2   force =    -0.00454454   -0.00322164    0.00114572
     atom    6 type  2   force =     0.00660426   -0.00242077    0.00161158
     atom    7 type  1   force =     0.00037700    0.00457553    0.01038385
     atom    8 type  1   force =    -0.00056012    0.00198405    0.00311363
     atom    9 type  2   force =     0.00010387   -0.00050234   -0.00047686
     atom   10 type  2   force =    -0.00030872   -0.00004611   -0.01129025
     atom   11 type  2   force =    -0.00025085    0.00046471    0.00004132
     atom   12 type  2   force =    -0.00024955    0.00068151    0.00007948
     atom   13 type  1   force =     0.00061295   -0.00065720    0.00023495
     atom   14 type  1   force =    -0.00035865    0.00019382    0.00021347
     atom   15 type  2   force =    -0.00016308    0.00010081    0.00052662
     atom   16 type  2   force =     0.00004518   -0.00001497    0.00041504
     atom   17 type  2   force =    -0.00034856    0.00024011    0.00008304
     atom   18 type  2   force =     0.00000590    0.00008499    0.00024178
     atom   19 type  1   force =    -0.00007201    0.00055180   -0.00019955
     atom   20 type  1   force =     0.00000670   -0.00013543   -0.00015161
     atom   21 type  2   force =     0.00003057   -0.00001404    0.10313835
     atom   22 type  2   force =    -0.00008241   -0.00019151   -0.00028596
     atom   23 type  2   force =    -0.07215213   -0.00021215   -0.02728266
     atom   24 type  2   force =     0.07205762    0.00023336   -0.02736195
     atom   25 type  1   force =     0.00006801   -0.00034008    0.09404208
     atom   26 type  1   force =    -0.00000105   -0.00128632   -0.17518047
     atom   27 type  2   force =     0.00015604   -0.00021110   -0.01995526
     atom   28 type  2   force =     0.00008786   -0.00111185    0.04905265
     atom   29 type  2   force =    -0.00668134    0.00152114    0.00212394
     atom   30 type  2   force =     0.00855112    0.00170122    0.00249635
     atom   31 type  1   force =     0.00049428   -0.00019057    0.00053706
     atom   32 type  1   force =    -0.00020476   -0.00145865    0.00351364
     atom   33 type  2   force =    -0.00007801    0.00000016   -0.00001831
     atom   34 type  2   force =    -0.00088719    0.00246525   -0.01149477
     atom   35 type  2   force =     0.00002568   -0.00044129    0.00048237
     atom   36 type  2   force =    -0.00052105   -0.00041967    0.00033812
     atom   37 type  1   force =     0.00035888    0.00028208    0.00002696
     atom   38 type  1   force =    -0.00037955    0.00018495    0.00030478
     atom   39 type  2   force =    -0.00050709    0.00042800    0.00048850
     atom   40 type  2   force =    -0.00002172   -0.00006919   -0.00008923
     atom   41 type  2   force =    -0.00032247   -0.00027874    0.00025860
     atom   42 type  2   force =    -0.00026292   -0.00025012   -0.00026006
     atom   43 type  1   force =    -0.00002499   -0.00038743    0.00080694
     atom   44 type  1   force =    -0.00017483    0.00024225   -0.00004393
     atom   45 type  2   force =     0.00002003   -0.00001346    0.10299401
     atom   46 type  2   force =    -0.07216361   -0.00008692   -0.02727884
     atom   47 type  2   force =     0.07201884    0.00035284   -0.02732032
     atom   48 type  3   force =     0.00180357   -0.00099886   -0.00008250
     atom   49 type  3   force =     0.00743638   -0.00605391   -0.00019579
     atom   50 type  4   force =     0.00020640   -0.00025661    0.00009926
     atom   51 type  5   force =    -0.00032376    0.00029371    0.00011027
     atom   52 type  5   force =    -0.00010111   -0.00079369    0.00002359
     atom   53 type  5   force =     0.00019123   -0.00053272   -0.00000843
     atom   54 type  5   force =    -0.00881675    0.00649037   -0.00029308
     atom   55 type  5   force =    -0.00054428    0.00064796    0.00034250
     atom   56 type  5   force =     0.00036815    0.00014324   -0.00034973
     atom   57 type  2   force =    -0.00021158    0.00051474   -0.00072568
     atom   58 type  5   force =    -0.00024045   -0.00059397   -0.00017978

     Total force =     0.362041     Total SCF correction =     0.000964
  @ DRIVER MODE: Message from server: STATUS
  @ DRIVER MODE: Message from server: GETFORCE
  @ DRIVER MODE: Returning v,forces,stress,ensemble

     Writing output data file ./calc.save/
  @ DRIVER MODE: Message from server: EXIT
  @ DRIVE MODE: Exiting

     General routines

     Parallel routines

   This run was terminated on:   2:40:22  24Sep2021

   JOB DONE.