     Program PWSCF v.6.7GPU starts on 24Aug2021 at 15: 2:32

     R & G space division:  proc/nbgrp/npool/nimage =      72
     Reading input from /storage/home/hcoda1/3/ntian30/research/carbon/CH2_vib/ads_slab/CH2N_a/out_0019/pw.inp
Warning: card &CELL ignored
Warning: card   CELL_DYNAMICS='IPI', ignored
Warning: card / ignored

     Current dimensions of program PWSCF are:
     Max number of different atomic species (ntypx) = 10
     Max number of k-points (npk) =  40000
     Max angular momentum in pseudopotentials (lmaxx) =  3
     Presently no symmetry can be used with electric field

     Message from routine cell_base_init:
     DEPRECATED: use true lattice parameter, not A to a.u. conversion factor

     IMPORTANT: XC functional enforced from input :
     Exchange-correlation= BEEF-VDW
                           (   1   4  43  14   2   0   0)
     Any further DFT definition will be discarded
     Please, verify this is what you really want

  @ DRIVER MODE: Connecting to
 qe_1139763_2641441.sched-torque.pace.gatech.edunpbtvlhi_scratch
  using UNIX socket
  @ DRIVER MODE: Message from server: STATUS
  @ DRIVER MODE: Message from server: INIT
  @ DRIVER MODE: Receiving replica           0          -1
  @ DRIVER MODE: Receiving encoded integer          25
  @ DRIVER MODE:  SCF:  T  FORCE:  T  STRESS:  F  VC:  F  ENSEMBLE:  F
  @ DRIVER MODE:  SCF:  T  FORCE:  T  STRESS:  F  VC:  F  ENSEMBLE:  F

     Using Slab Decomposition

     bravais-lattice index     =            0
     lattice parameter (alat)  =       1.8897  a.u.
     unit-cell volume          =    6658.9804 (a.u.)^3
     number of atoms/cell      =           51
     number of atomic types    =            5
     number of electrons       =       389.00
     number of Kohn-Sham states=          204
     kinetic-energy cutoff     =      29.3995  Ry
     charge density cutoff     =     293.9946  Ry
     scf convergence threshold =      7.3E-08
     mixing beta               =       0.0500
     number of iterations used =            8  plain     mixing
     Exchange-correlation= BEEF-VDW
                           (   1   4  43  14   2   0   0)

     celldm(1)=   1.889726  celldm(2)=   0.000000  celldm(3)=   0.000000
     celldm(4)=   0.000000  celldm(5)=   0.000000  celldm(6)=   0.000000

     crystal axes: (cart. coord. in units of alat)
               a(1) = (   6.579727   0.000000   0.000000 )
               a(2) = (  -0.000775   5.961596   0.000000 )
               a(3) = (   0.000000   0.000000  25.155947 )

     reciprocal axes: (cart. coord. in units 2 pi/alat)
               b(1) = (  0.151982  0.000020  0.000000 )
               b(2) = (  0.000000  0.167740  0.000000 )
               b(3) = (  0.000000  0.000000  0.039752 )

     PseudoPot. # 1 for Ti read from file:
     /storage/coda1/p-amedford6/0/shared/rich_project_chbe-medford/medford-share/data/pseudos_module/espresso/nninc/pbe/van/Ti.UPF
     MD5 check sum: 8e4df49b7f0d34bbd5052bf3f5ea0213
     Pseudo is Ultrasoft, Zval = 12.0
     Generated by new atomic code, or converted to UPF format
     Using radial grid of  851 points,  6 beta functions with:
                l(1) =   0
                l(2) =   0
                l(3) =   1
                l(4) =   1
                l(5) =   2
                l(6) =   2
     Q(r) pseudized with  8 coefficients,  rinner =    1.000   1.000   1.000
                                                       1.000   1.000

     PseudoPot. # 2 for O  read from file:
     /storage/coda1/p-amedford6/0/shared/rich_project_chbe-medford/medford-share/data/pseudos_module/espresso/nninc/pbe/van/O.UPF
     MD5 check sum: 78c19812648e8988a0fe644b0f25305e
     Pseudo is Ultrasoft, Zval =  6.0
     Generated by new atomic code, or converted to UPF format
     Using radial grid of  737 points,  4 beta functions with:
                l(1) =   0
                l(2) =   0
                l(3) =   1
                l(4) =   1
     Q(r) pseudized with  8 coefficients,  rinner =    0.800   0.800   0.800

     PseudoPot. # 3 for N  read from file:
     /storage/coda1/p-amedford6/0/shared/rich_project_chbe-medford/medford-share/data/pseudos_module/espresso/nninc/pbe/van/N.UPF
     MD5 check sum: 90d10febe142ad51ac9d5be1deb811c4
     Pseudo is Ultrasoft, Zval =  5.0
     Generated by new atomic code, or converted to UPF format
     Using radial grid of  729 points,  4 beta functions with:
                l(1) =   0
                l(2) =   0
                l(3) =   1
                l(4) =   1
     Q(r) pseudized with  8 coefficients,  rinner =    0.800   0.800   0.800

     PseudoPot. # 4 for C  read from file:
     /storage/coda1/p-amedford6/0/shared/rich_project_chbe-medford/medford-share/data/pseudos_module/espresso/nninc/pbe/van/C.UPF
     MD5 check sum: 1a69bf6b8db32088f5b2163dbdb77a27
     Pseudo is Ultrasoft, Zval =  4.0
     Generated by new atomic code, or converted to UPF format
     Using radial grid of  721 points,  4 beta functions with:
                l(1) =   0
                l(2) =   0
                l(3) =   1
                l(4) =   1
     Q(r) pseudized with  8 coefficients,  rinner =    0.800   0.800   0.800

     PseudoPot. # 5 for H  read from file:
     /storage/coda1/p-amedford6/0/shared/rich_project_chbe-medford/medford-share/data/pseudos_module/espresso/nninc/pbe/van/H.UPF
     MD5 check sum: b5ee9d7bfd3a09ee7748110bda690ff7
     Pseudo is Ultrasoft, Zval =  1.0
     Generated by new atomic code, or converted to UPF format
     Using radial grid of  615 points,  1 beta functions with:
                l(1) =   0
     Q(r) pseudized with  8 coefficients,  rinner =    0.800

     atomic species   valence    mass     pseudopotential
        Ti1           12.00    47.86700     Ti( 1.00)
        O1             6.00    15.99900     O ( 1.00)
        N1             5.00    14.00700     N ( 1.00)
        C1             4.00    12.01100     C ( 1.00)
        H1             1.00     1.00800     H ( 1.00)

     No symmetry found

   Cartesian axes

     site n.     atom                  positions (alat units)
         1           Ti1 tau(   1) = (   0.0004258   2.9801865   6.0000000  )
         2           Ti1 tau(   2) = (   3.2906075   1.4906267   6.0002472  )
         3           O1  tau(   3) = (   0.0006271   0.0005054   7.9858123  )
         4           O1  tau(   4) = (   3.2906025   0.0005020   7.3038282  )
         5           O1  tau(   5) = (   4.5942328   1.4918067   9.2879030  )
         6           O1  tau(   6) = (   1.9868534   1.4903216   9.2879459  )
         7           Ti1 tau(   7) = (   3.2907910   2.8959150   9.1758416  )
         8           Ti1 tau(   8) = (   0.0015273   1.4827037   9.2680791  )
         9           O1  tau(   9) = (   3.3121109   0.0111249  11.3310253  )
        10           O1  tau(  10) = (   0.0116148   5.9584955  10.6183126  )
        11           O1  tau(  11) = (   1.3329579   1.5011098  12.6063046  )
        12           O1  tau(  12) = (   5.3158149   1.4916659  12.6245769  )
        13           Ti1 tau(  13) = (   6.5431557   2.9598450  12.6156978  )
        14           Ti1 tau(  14) = (   3.2273839   1.5049138  12.4779161  )
        15           O1  tau(  15) = (   0.0471551   0.0364395  14.6528705  )
        16           O1  tau(  16) = (   3.3160098   0.0207640  13.9215624  )
        17           O1  tau(  17) = (   4.5810600   1.5471256  16.0564497  )
        18           O1  tau(  18) = (   2.0947546   1.5446786  16.0656860  )
        19           Ti1 tau(  19) = (   3.3354243   3.0239694  15.7034691  )
        20           Ti1 tau(  20) = (   0.0419518   1.5622418  15.8401859  )
        21           O1  tau(  21) = (   3.2904802   0.0005063   4.7018136  )
        22           O1  tau(  22) = (   0.0415632   0.0558952  17.2248266  )
        23           O1  tau(  23) = (   1.3043587   1.4918075   6.0039043  )
        24           O1  tau(  24) = (   5.2767064   1.4903225   6.0039473  )
        25           Ti1 tau(  25) = (   0.0000382   5.9609847   6.0000000  )
        26           Ti1 tau(  26) = (   3.2902200   4.4714249   6.0002472  )
        27           O1  tau(  27) = (   0.0002396   2.9813036   7.9858123  )
        28           O1  tau(  28) = (   3.2902150   2.9813002   7.3038282  )
        29           O1  tau(  29) = (   4.5938453   4.4726049   9.2879030  )
        30           O1  tau(  30) = (   1.9864658   4.4711199   9.2879459  )
        31           Ti1 tau(  31) = (   3.2891106   5.8743827   9.1763621  )
        32           Ti1 tau(  32) = (   0.0006254   4.4649316   9.2693709  )
        33           O1  tau(  33) = (   3.3101407   2.9955762  11.3294870  )
        34           O1  tau(  34) = (   0.0092240   2.9805883  10.6323155  )
        35           O1  tau(  35) = (   1.3272401   4.4878838  12.6173354  )
        36           O1  tau(  36) = (   5.3164082   4.4812184  12.6342743  )
        37           Ti1 tau(  37) = (   6.5430856   5.9365306  12.5602028  )
        38           Ti1 tau(  38) = (   3.2246414   4.4845729  12.4831641  )
        39           O1  tau(  39) = (   0.0420920   2.9623338  14.6463429  )
        40           O1  tau(  40) = (   3.3182946   3.0055568  13.9055467  )
        41           O1  tau(  41) = (   4.5797692   4.5125808  16.0776662  )
        42           O1  tau(  42) = (   2.0972274   4.5146901  16.0918111  )
        43           Ti1 tau(  43) = (   3.3319946   0.0399457  15.7186693  )
        44           Ti1 tau(  44) = (   0.0407629   4.6953510  16.1098173  )
        45           O1  tau(  45) = (   3.2900926   2.9813045   4.7018136  )
        46           O1  tau(  46) = (   1.3039711   4.4726057   6.0039043  )
        47           O1  tau(  47) = (   5.2763189   4.4711207   6.0039473  )
        48           N1  tau(  48) = (   0.0554023   2.9932257  17.3910969  )
        49           C1  tau(  49) = (   0.1090839   2.9222626  18.6472186  )
        50           H1  tau(  50) = (   0.1225839   3.8204711  19.2773028  )
        51           H1  tau(  51) = (   0.1317253   1.9549180  19.1625725  )

     number of k points=    10  Fermi-Dirac smearing, width (Ry)=  0.0073
                       cart. coord. in units 2pi/alat
        k(    1) = (   0.0000000   0.0000000   0.0000000), wk =   0.1250000
        k(    2) = (   0.0000000   0.0419351   0.0000000), wk =   0.2500000
        k(    3) = (   0.0000000  -0.0838702   0.0000000), wk =   0.1250000
        k(    4) = (   0.0379955   0.0000049   0.0000000), wk =   0.2500000
        k(    5) = (   0.0379955   0.0419400   0.0000000), wk =   0.2500000
        k(    6) = (   0.0379955  -0.0838652   0.0000000), wk =   0.2500000
        k(    7) = (   0.0379955  -0.0419301   0.0000000), wk =   0.2500000
        k(    8) = (  -0.0759910  -0.0000099   0.0000000), wk =   0.1250000
        k(    9) = (  -0.0759910   0.0419252   0.0000000), wk =   0.2500000
        k(   10) = (  -0.0759910  -0.0838800   0.0000000), wk =   0.1250000

     Initial potential from superposition of free atoms

     starting charge  372.99918, renormalised to  389.00000

     negative rho (up, down):  1.813E-02 0.000E+00

     %%%%%%%%%%%%%%%%%%%%%%%%%%%%%%%%%%%%%%%%%%%%%%%%%%%%%%%%%%%%%%%%%%%%%%%%
     %                                                                      %
     % You are using vdW-DF, which was implemented by the Thonhauser group. %
     % Please cite the following two papers that made this development      %
     % possible and the two reviews that describe the various versions:     %
     %                                                                      %
     %   T. Thonhauser et al., PRL 115, 136402 (2015).                      %
     %   T. Thonhauser et al., PRB 76, 125112 (2007).                       %
     %   K. Berland et al., Rep. Prog. Phys. 78, 066501 (2015).             %
     %   D.C. Langreth et al., J. Phys.: Condens. Matter 21, 084203 (2009). %
     %                                                                      %
     %                                                                      %
     % If you are calculating the stress with vdW-DF, please also cite:     %
     %                                                                      %
     %   R. Sabatini et al., J. Phys.: Condens. Matter 24, 424209 (2012).   %
     %                                                                      %
     %%%%%%%%%%%%%%%%%%%%%%%%%%%%%%%%%%%%%%%%%%%%%%%%%%%%%%%%%%%%%%%%%%%%%%%%

     Adding external electric field

     Computed dipole along edir(3) :
        Dipole               -4.6856 Ry au,        -11.9097 Debye
        Dipole field         -0.0088 Ry au,

        Potential amp.        0.8197 Ry
        Total length         46.3494 bohr

     Starting wfcs are  294 atomic wfcs
  @ DRIVER MODE: Message from server: STATUS
  @ DRIVER MODE: Message from server: POSDATA
  @ DRIVER MODE: Reading and sharing cell
  @ DRIVER MODE: Reading and sharing positions
  @ DRIVER MODE: Received positions

     Self-consistent Calculation

     iteration #  1     ecut=    29.40 Ry     beta= 0.05
     Davidson diagonalization with overlap
     c_bands:  3 eigenvalues not converged
     c_bands:  1 eigenvalues not converged
     c_bands:  1 eigenvalues not converged
     c_bands:  3 eigenvalues not converged
     c_bands:  3 eigenvalues not converged
     c_bands:  2 eigenvalues not converged
     c_bands:  2 eigenvalues not converged
     ethr =  1.00E-05,  avg # of iterations = 19.8

[...]

     total energy              =   -2865.81770732 Ry
     estimated scf accuracy    <     593.95608942 Ry

     iteration #  2     ecut=    29.40 Ry     beta= 0.05
     Davidson diagonalization with overlap
     ethr =  1.00E-02,  avg # of iterations = 14.4

[...]

     iteration # 41     ecut=    29.40 Ry     beta= 0.05
     Davidson diagonalization with overlap
     c_bands:  1 eigenvalues not converged
     ethr =  3.44E-10,  avg # of iterations = 10.3

[...]

     total energy              =   -2917.92282777 Ry
     estimated scf accuracy    <       0.00000104 Ry

     iteration # 45     ecut=    29.40 Ry     beta= 0.05
     Davidson diagonalization with overlap
     ethr =  9.36E-11,  avg # of iterations =  8.6

     negative rho (up, down):  1.843E-02 0.000E+00

     Adding external electric field

     Computed dipole along edir(3) :
        Dipole                0.7705 Ry au,          1.9583 Debye
        Dipole field          0.0015 Ry au,

        Potential amp.       -0.1348 Ry
        Total length         46.3494 bohr

     End of self-consistent calculation

          k = 0.0000 0.0000 0.0000 ( 18029 PWs)   bands (ev):

   -55.9938 -55.9847 -55.9597 -55.9484 -55.8717 -55.8417 -55.8217 -55.8073
   -55.8028 -55.7689 -55.7664 -55.7327 -55.5208 -55.2471 -54.9709 -54.9368
   -32.5391 -32.4761 -32.3429 -32.3238 -32.3016 -32.2966 -32.2866 -32.2570
   -32.2363 -32.2115 -32.2047 -32.1826 -32.1648 -32.1460 -32.1378 -32.1246
   -32.1042 -32.0980 -32.0836 -32.0510 -32.0504 -32.0474 -32.0014 -32.0000
   -31.9988 -31.9970 -31.9907 -31.9830 -31.9687 -31.9566 -31.9490 -31.9420
   -31.9333 -31.9331 -31.9196 -31.9103 -31.8786 -31.7704 -31.7029 -31.5361
   -31.5017 -31.4594 -31.3780 -31.2897 -31.2673 -31.1948 -31.1082 -30.9972
   -16.7363 -16.4679 -16.2429 -16.1459 -16.1149 -15.9986 -15.8327 -15.7142
   -15.6632 -15.5652 -15.5515 -15.5298 -15.4961 -15.4656 -15.4635 -15.4372
   -15.4338 -15.4143 -15.4011 -15.3533 -15.3309 -15.2965 -15.1988 -15.1678
   -15.1280 -15.1000 -15.0589 -15.0495 -14.9250 -14.5611 -13.4736 -13.3572
    -7.5593  -4.3345  -4.1138  -4.0025  -3.9486  -3.8992  -3.8406  -3.6339
    -3.5428  -3.5195  -3.2242  -3.1776  -3.1602  -3.1478  -3.1093  -2.8938
    -2.8401  -2.8085  -2.7874  -2.7733  -2.7621  -2.7543  -2.7342  -2.7073
    -2.5940  -2.5382  -2.5350  -2.4118  -2.3841  -2.3272  -2.3058  -2.2589
    -2.2433  -2.2346  -2.2078  -2.1967  -2.1835  -2.1528  -2.0753  -1.9616
    -1.8109  -1.7918  -1.7563  -1.6304  -1.6009  -1.5397  -1.4493  -1.4338
    -1.4192  -1.3850  -1.3681  -1.2965  -1.1708  -1.1465  -1.1369  -1.0362
    -0.9894  -0.9710  -0.8745  -0.8390  -0.7691  -0.7578  -0.7464  -0.7092
    -0.5475  -0.4919  -0.4625  -0.3955  -0.3659  -0.3072  -0.2939  -0.2652
    -0.1828  -0.1306  -0.1104  -0.1040  -0.0553  -0.0190  -0.0023   0.0072
     0.0184   0.0326   0.2050   0.2780   0.2849   0.3640   0.3737   0.5348
     0.5957   0.6633   0.7714   0.9765   1.0510   1.1402   1.2433   1.4376
     1.6222   1.6678   3.1426   3.2261   3.2743   3.2838   3.3851   3.4216
     3.5959   3.6019   3.6162   3.6904

[...]

          k = 0.0380-0.0419 0.0000 ( 17876 PWs)   bands (ev):

[...]

          k =-0.0760-0.0000 0.0000 ( 17886 PWs)   bands (ev):

[...]

          k =-0.0760-0.0839 0.0000 ( 17948 PWs)   bands (ev):

   -55.9771 -55.9763 -55.9691 -55.9637 -55.8647 -55.8285 -55.8249 -55.8241
   -55.7864 -55.7848 -55.7505 -55.7488 -55.5198 -55.2480 -54.9539 -54.9537
   -32.3449 -32.3398 -32.2917 -32.2911 -32.2724 -32.2715 -32.2546 -32.2425
   -32.1945 -32.1883 -32.1821 -32.1754 -32.1387 -32.1202 -32.1153 -32.1139
   -32.1045 -32.0986 -32.0966 -32.0958 -32.0894 -32.0869 -32.0681 -32.0438
   -32.0402 -32.0298 -32.0201 -32.0065 -31.9853 -31.9849 -31.9821 -31.9806
   -31.9651 -31.9642 -31.9606 -31.9575 -31.8830 -31.7730 -31.6991 -31.6016
   -31.5033 -31.4801 -31.2800 -31.2799 -31.1909 -31.1907 -31.1516 -31.1515
   -16.1686 -16.1493 -15.9375 -15.9103 -15.9054 -15.8940 -15.7656 -15.7051
   -15.6886 -15.6866 -15.6080 -15.5862 -15.5648 -15.5372 -15.5256 -15.5132
   -15.5071 -15.4986 -15.4555 -15.4494 -15.4298 -15.4227 -15.3199 -15.3103
   -15.3062 -15.2505 -15.1767 -15.0381 -14.9421 -14.7291 -13.4591 -13.4590
    -7.5551  -4.3166  -3.6878  -3.4589  -3.4363  -3.1677  -3.1507  -3.1417
    -3.0816  -2.9089  -2.8930  -2.8699  -2.8490  -2.8204  -2.8185  -2.7973
    -2.7953  -2.7843  -2.7403  -2.7331  -2.7074  -2.6707  -2.6605  -2.6490
    -2.6404  -2.6165  -2.6062  -2.5643  -2.5348  -2.5276  -2.5128  -2.4892
    -2.3039  -2.2209  -2.1945  -2.1313  -2.1239  -2.0890  -2.0575  -2.0455
    -2.0297  -1.9790  -1.9013  -1.7268  -1.6939  -1.6758  -1.6181  -1.5894
    -1.5485  -1.4624  -1.3943  -1.3696  -1.3636  -1.3151  -1.2064  -1.1846
    -1.1709  -1.0972  -1.0620  -1.0435  -1.0023  -0.9872  -0.9540  -0.9486
    -0.8553  -0.8059  -0.7591  -0.7568  -0.7112  -0.6449  -0.6320  -0.6044
    -0.4956  -0.4766  -0.4054  -0.3780  -0.2761  -0.2073  -0.0100   0.0523
     0.0778   0.1362   0.2164   0.2974   0.3118   0.3257   0.3261   0.3735
     0.4425   0.5387   0.5481   0.6016   0.7063   1.3316   1.4147   1.4153
     1.4876   1.4876   3.4281   3.4380   3.4773   3.4992   3.6353   3.6509
     3.6740   3.6752   3.7299   3.8113

     the Fermi energy is     3.1401 ev

!    total energy              =   -2917.92299582 Ry
     estimated scf accuracy    <       0.00000007 Ry
     smearing contrib. (-TS)   =      -0.02181683 Ry
     internal energy E=F+TS    =   -2917.90117899 Ry

     The total energy is F=E-TS. E is the sum of the following terms:
     one-electron contribution =  -24778.20688086 Ry
     hartree contribution      =   12472.76343744 Ry
     xc contribution           =    -479.18571249 Ry
     ewald contribution        =    9866.72685671 Ry
     electric field correction =       0.00112021 Ry

     convergence has been achieved in  45 iterations

     Forces acting on atoms (cartesian axes, Ry/au):

     atom    1 type  1   force =     0.00017202   -0.00023709    0.09670964
     atom    2 type  1   force =     0.00007196   -0.00054098   -0.17540351
     atom    3 type  2   force =     0.00017942    0.00000538   -0.02477249
     atom    4 type  2   force =     0.00005599   -0.00133404    0.05290976
     atom    5 type  2   force =    -0.01178968    0.00012848    0.00259073
     atom    6 type  2   force =     0.01395829    0.00051447    0.00339299
     atom    7 type  1   force =     0.00129363    0.00072525   -0.01178150
     atom    8 type  1   force =    -0.00005586    0.00765663    0.02819985
     atom    9 type  2   force =    -0.00024553   -0.00023806   -0.00009011
     atom   10 type  2   force =    -0.00220731    0.00207359   -0.01527979
     atom   11 type  2   force =     0.00000439   -0.00009539    0.00023403
     atom   12 type  2   force =    -0.00002794    0.00014292   -0.00005562
     atom   13 type  1   force =    -0.00104483   -0.00025521   -0.00002898
     atom   14 type  1   force =    -0.00024440   -0.00026696    0.00058353
     atom   15 type  2   force =    -0.00030213   -0.00001229   -0.00020134
     atom   16 type  2   force =     0.00025430    0.00007243   -0.00054051
     atom   17 type  2   force =     0.00004623    0.00007135   -0.00022865
     atom   18 type  2   force =    -0.00015363    0.00032142   -0.00052789
     atom   19 type  1   force =    -0.00064456    0.00009341   -0.00035076
     atom   20 type  1   force =     0.00014431   -0.00102248    0.00018418
     atom   21 type  2   force =     0.00009149   -0.00005007    0.10324645
     atom   22 type  2   force =     0.00041491   -0.00027439   -0.00002958
     atom   23 type  2   force =    -0.07149663   -0.00015749   -0.02769164
     atom   24 type  2   force =     0.07148565    0.00033489   -0.02777619
     atom   25 type  1   force =     0.00019039   -0.00021987    0.09621837
     atom   26 type  1   force =     0.00011553   -0.00028296   -0.17552565
     atom   27 type  2   force =     0.00022259   -0.00011967   -0.02385651
     atom   28 type  2   force =     0.00008956   -0.00110068    0.05285742
     atom   29 type  2   force =    -0.01199585    0.00068088    0.00234247
     atom   30 type  2   force =     0.01402657    0.00103273    0.00319159
     atom   31 type  1   force =     0.00113460    0.00336113   -0.01210456
     atom   32 type  1   force =    -0.00024798   -0.00974513    0.02863865
     atom   33 type  2   force =    -0.00017975    0.00030965   -0.00006241
     atom   34 type  2   force =    -0.00173024    0.00175439   -0.02357027
     atom   35 type  2   force =     0.00000002    0.00009009    0.00023376
     atom   36 type  2   force =     0.00056026    0.00012109    0.00021465
     atom   37 type  1   force =    -0.00097520   -0.00037976    0.00024688
     atom   38 type  1   force =     0.00022171   -0.00012389    0.00051722
     atom   39 type  2   force =    -0.00007641   -0.00054636   -0.00074860
     atom   40 type  2   force =    -0.00004523    0.00025177    0.00045454
     atom   41 type  2   force =    -0.00063139   -0.00047456   -0.00014385
     atom   42 type  2   force =    -0.00007964   -0.00072016   -0.00075760
     atom   43 type  1   force =    -0.00049183    0.00001181   -0.00012051
     atom   44 type  1   force =     0.00021766    0.00031072    0.00039887
     atom   45 type  2   force =     0.00007018   -0.00006557    0.10326314
     atom   46 type  2   force =    -0.07149872   -0.00008330   -0.02769937
     atom   47 type  2   force =     0.07150775    0.00033902   -0.02778059
     atom   48 type  3   force =     0.00148547   -0.00054421    0.00012088
     atom   49 type  4   force =    -0.00322570   -0.00042589   -0.00042619
     atom   50 type  5   force =     0.00078681   -0.00019005    0.00012001
     atom   51 type  5   force =     0.00058877   -0.00089699    0.00068508

     Total force =     0.368000     Total SCF correction =     0.000641
  @ DRIVER MODE: Message from server: STATUS
  @ DRIVER MODE: Message from server: GETFORCE
  @ DRIVER MODE: Returning v,forces,stress,ensemble

     Writing output data file ./calc.save/
  @ DRIVER MODE: Message from server: EXIT
  @ DRIVE MODE: Exiting

     General routines

     Parallel routines

   This run was terminated on:  15:14:48  24Aug2021

   JOB DONE.