     Program PWSCF v.6.7GPU starts on 10Sep2021 at  7: 1:47

     R & G space division:  proc/nbgrp/npool/nimage =      10
     Reading input from /storage/home/hcoda1/3/ntian30/research/carbon/CxH_vib/CH3_calc/ads_slab/CH3N2H2O_e/out_0030/pw.inp
Warning: card &CELL ignored
Warning: card   CELL_DYNAMICS='IPI', ignored
Warning: card / ignored

     Current dimensions of program PWSCF are:
     Max number of different atomic species (ntypx) = 10
     Max number of k-points (npk) =  40000
     Max angular momentum in pseudopotentials (lmaxx) =  3
     Presently no symmetry can be used with electric field

     Message from routine cell_base_init:
     DEPRECATED: use true lattice parameter, not A to a.u. conversion factor

     IMPORTANT: XC functional enforced from input :
     Exchange-correlation= BEEF-VDW
                           (   1   4  43  14   2   0   0)
     Any further DFT definition will be discarded
     Please, verify this is what you really want

  @ DRIVER MODE: Connecting to
 qe_1139763_2779715.sched-torque.pace.gatech.eduyc6d90hk_scratch
  using UNIX socket
  @ DRIVER MODE: Message from server: STATUS
  @ DRIVER MODE: Message from server: INIT
  @ DRIVER MODE: Receiving replica           0          -1
  @ DRIVER MODE: Receiving encoded integer          25
  @ DRIVER MODE:  SCF:  T  FORCE:  T  STRESS:  F  VC:  F  ENSEMBLE:  F
  @ DRIVER MODE:  SCF:  T  FORCE:  T  STRESS:  F  VC:  F  ENSEMBLE:  F

     Using Slab Decomposition

     bravais-lattice index     =            0
     lattice parameter (alat)  =       1.8897  a.u.
     unit-cell volume          =    6658.9804 (a.u.)^3
     number of atoms/cell      =           56
     number of atomic types    =            5
     number of electrons       =       403.00
     number of Kohn-Sham states=          211
     kinetic-energy cutoff     =      29.3995  Ry
     charge density cutoff     =     293.9946  Ry
     scf convergence threshold =      7.3E-08
     mixing beta               =       0.0500
     number of iterations used =            8  plain     mixing
     Exchange-correlation= BEEF-VDW
                           (   1   4  43  14   2   0   0)

     celldm(1)=   1.889726  celldm(2)=   0.000000  celldm(3)=   0.000000
     celldm(4)=   0.000000  celldm(5)=   0.000000  celldm(6)=   0.000000

     crystal axes: (cart. coord. in units of alat)
               a(1) = (   6.579727   0.000000   0.000000 )
               a(2) = (  -0.000775   5.961596   0.000000 )
               a(3) = (   0.000000   0.000000  25.155947 )

     reciprocal axes: (cart. coord. in units 2 pi/alat)
               b(1) = (  0.151982  0.000020  0.000000 )
               b(2) = (  0.000000  0.167740  0.000000 )
               b(3) = (  0.000000  0.000000  0.039752 )

     PseudoPot. # 1 for Ti read from file:
     /storage/coda1/p-amedford6/0/shared/rich_project_chbe-medford/medford-share/data/pseudos_module/espresso/nninc/pbe/van/Ti.UPF
     MD5 check sum: 8e4df49b7f0d34bbd5052bf3f5ea0213
     Pseudo is Ultrasoft, Zval = 12.0
     Generated by new atomic code, or converted to UPF format
     Using radial grid of  851 points,  6 beta functions with:
                l(1) =   0
                l(2) =   0
                l(3) =   1
                l(4) =   1
                l(5) =   2
                l(6) =   2
     Q(r) pseudized with  8 coefficients,  rinner =    1.000   1.000   1.000
                                                       1.000   1.000

     PseudoPot. # 2 for O  read from file:
     /storage/coda1/p-amedford6/0/shared/rich_project_chbe-medford/medford-share/data/pseudos_module/espresso/nninc/pbe/van/O.UPF
     MD5 check sum: 78c19812648e8988a0fe644b0f25305e
     Pseudo is Ultrasoft, Zval =  6.0
     Generated by new atomic code, or converted to UPF format
     Using radial grid of  737 points,  4 beta functions with:
                l(1) =   0
                l(2) =   0
                l(3) =   1
                l(4) =   1
     Q(r) pseudized with  8 coefficients,  rinner =    0.800   0.800   0.800

     PseudoPot. # 3 for N  read from file:
     /storage/coda1/p-amedford6/0/shared/rich_project_chbe-medford/medford-share/data/pseudos_module/espresso/nninc/pbe/van/N.UPF
     MD5 check sum: 90d10febe142ad51ac9d5be1deb811c4
     Pseudo is Ultrasoft, Zval =  5.0
     Generated by new atomic code, or converted to UPF format
     Using radial grid of  729 points,  4 beta functions with:
                l(1) =   0
                l(2) =   0
                l(3) =   1
                l(4) =   1
     Q(r) pseudized with  8 coefficients,  rinner =    0.800   0.800   0.800

     PseudoPot. # 4 for C  read from file:
     /storage/coda1/p-amedford6/0/shared/rich_project_chbe-medford/medford-share/data/pseudos_module/espresso/nninc/pbe/van/C.UPF
     MD5 check sum: 1a69bf6b8db32088f5b2163dbdb77a27
     Pseudo is Ultrasoft, Zval =  4.0
     Generated by new atomic code, or converted to UPF format
     Using radial grid of  721 points,  4 beta functions with:
                l(1) =   0
                l(2) =   0
                l(3) =   1
                l(4) =   1
     Q(r) pseudized with  8 coefficients,  rinner =    0.800   0.800   0.800

     PseudoPot. # 5 for H  read from file:
     /storage/coda1/p-amedford6/0/shared/rich_project_chbe-medford/medford-share/data/pseudos_module/espresso/nninc/pbe/van/H.UPF
     MD5 check sum: b5ee9d7bfd3a09ee7748110bda690ff7
     Pseudo is Ultrasoft, Zval =  1.0
     Generated by new atomic code, or converted to UPF format
     Using radial grid of  615 points,  1 beta functions with:
                l(1) =   0
     Q(r) pseudized with  8 coefficients,  rinner =    0.800

     atomic species   valence    mass     pseudopotential
        Ti1           12.00    47.86700     Ti( 1.00)
        O1             6.00    15.99900     O ( 1.00)
        N1             5.00    14.00700     N ( 1.00)
        C1             4.00    12.01100     C ( 1.00)
        H1             1.00     1.00800     H ( 1.00)

     No symmetry found

   Cartesian axes

     site n.     atom                  positions (alat units)
         1           Ti1 tau(   1) = (   0.0004258   2.9801865   6.0000000  )
         2           Ti1 tau(   2) = (   3.2906075   1.4906267   6.0002472  )
         3           O1  tau(   3) = (   0.0006271   0.0005054   7.9858123  )
         4           O1  tau(   4) = (   3.2906025   0.0005020   7.3038282  )
         5           O1  tau(   5) = (   4.5942328   1.4918067   9.2879030  )
         6           O1  tau(   6) = (   1.9868534   1.4903216   9.2879459  )
         7           Ti1 tau(   7) = (   3.2907910   2.8959150   9.1758416  )
         8           Ti1 tau(   8) = (   0.0015273   1.4827037   9.2680791  )
         9           O1  tau(   9) = (   3.2823942   0.0140684  11.3428430  )
        10           O1  tau(  10) = (   0.0116148   5.9584955  10.6183126  )
        11           O1  tau(  11) = (   1.2742013   1.4978990  12.6323156  )
        12           O1  tau(  12) = (   5.2614901   1.5083079  12.6129891  )
        13           Ti1 tau(  13) = (   0.0550148   2.9595524  12.6160221  )
        14           Ti1 tau(  14) = (   3.3718896   1.5084997  12.4944496  )
        15           O1  tau(  15) = (   6.5380961   0.0278828  14.6255036  )
        16           O1  tau(  16) = (   3.2758616   0.0189586  13.9121306  )
        17           O1  tau(  17) = (   4.4976875   1.5333668  16.0433440  )
        18           O1  tau(  18) = (   1.9922867   1.5271532  16.0291573  )
        19           Ti1 tau(  19) = (   3.1858679   3.0241111  15.7732818  )
        20           Ti1 tau(  20) = (   6.4842391   1.5502874  15.8011710  )
        21           O1  tau(  21) = (   3.2904802   0.0005063   4.7018136  )
        22           O1  tau(  22) = (   6.5196731   0.0665875  17.1891134  )
        23           O1  tau(  23) = (   1.3043587   1.4918075   6.0039043  )
        24           O1  tau(  24) = (   5.2767064   1.4903225   6.0039473  )
        25           Ti1 tau(  25) = (   0.0000382   5.9609847   6.0000000  )
        26           Ti1 tau(  26) = (   3.2902200   4.4714249   6.0002472  )
        27           O1  tau(  27) = (   0.0002396   2.9813036   7.9858123  )
        28           O1  tau(  28) = (   3.2902150   2.9813002   7.3038282  )
        29           O1  tau(  29) = (   4.5938453   4.4726049   9.2879030  )
        30           O1  tau(  30) = (   1.9864658   4.4711199   9.2879459  )
        31           Ti1 tau(  31) = (   3.2891106   5.8743827   9.1763621  )
        32           Ti1 tau(  32) = (   0.0006254   4.4649316   9.2693709  )
        33           O1  tau(  33) = (   3.2807012   2.9937711  11.3380227  )
        34           O1  tau(  34) = (   0.0092240   2.9805883  10.6323155  )
        35           O1  tau(  35) = (   1.2734598   4.4826339  12.6318047  )
        36           O1  tau(  36) = (   5.2665626   4.4910389  12.6093644  )
        37           Ti1 tau(  37) = (   0.0550181   5.9329888  12.5453996  )
        38           Ti1 tau(  38) = (   3.3741151   4.4737790  12.4977360  )
        39           O1  tau(  39) = (   6.5373474   2.9946220  14.6524478  )
        40           O1  tau(  40) = (   3.2677173   3.0168568  13.9399215  )
        41           O1  tau(  41) = (   4.4884636   4.5316779  16.1079578  )
        42           O1  tau(  42) = (   1.9830865   4.5332738  16.0531499  )
        43           Ti1 tau(  43) = (   3.2469912   0.0413792  15.7000251  )
        44           Ti1 tau(  44) = (   6.5198411   4.7064707  16.0702691  )
        45           O1  tau(  45) = (   3.2900926   2.9813045   4.7018136  )
        46           O1  tau(  46) = (   1.3039711   4.4726057   6.0039043  )
        47           O1  tau(  47) = (   5.2763189   4.4711207   6.0039473  )
        48           N1  tau(  48) = (   0.0943371   2.6987919  18.6315974  )
        49           N1  tau(  49) = (   6.5718678   2.9345059  17.4339123  )
        50           C1  tau(  50) = (   0.1779456   3.8407003  19.5793842  )
        51           H1  tau(  51) = (   6.4148796   4.7858965  19.1557567  )
        52           H1  tau(  52) = (   6.1971438   3.5603257  20.4815321  )
        53           H1  tau(  53) = (   1.2306852   3.9282498  19.8556806  )
        54           O1  tau(  54) = (   3.3096034   3.0730741  18.2289406  )
        55           H1  tau(  55) = (   4.0988663   3.6297178  18.3192648  )
        56           H1  tau(  56) = (   3.5789210   2.1977314  18.5501991  )

     number of k points=    10  Fermi-Dirac smearing, width (Ry)=  0.0073
                       cart. coord. in units 2pi/alat
        k(    1) = (   0.0000000   0.0000000   0.0000000), wk =   0.1250000
        k(    2) = (   0.0000000   0.0419351   0.0000000), wk =   0.2500000
        k(    3) = (   0.0000000  -0.0838702   0.0000000), wk =   0.1250000
        k(    4) = (   0.0379955   0.0000049   0.0000000), wk =   0.2500000
        k(    5) = (   0.0379955   0.0419400   0.0000000), wk =   0.2500000
        k(    6) = (   0.0379955  -0.0838652   0.0000000), wk =   0.2500000
        k(    7) = (   0.0379955  -0.0419301   0.0000000), wk =   0.2500000
        k(    8) = (  -0.0759910  -0.0000099   0.0000000), wk =   0.1250000
        k(    9) = (  -0.0759910   0.0419252   0.0000000), wk =   0.2500000
        k(   10) = (  -0.0759910  -0.0838800   0.0000000), wk =   0.1250000

     Initial potential from superposition of free atoms

     starting charge  386.99914, renormalised to  403.00000

     negative rho (up, down):  1.476E-02 0.000E+00

     %%%%%%%%%%%%%%%%%%%%%%%%%%%%%%%%%%%%%%%%%%%%%%%%%%%%%%%%%%%%%%%%%%%%%%%%
     %                                                                      %
     % You are using vdW-DF, which was implemented by the Thonhauser group. %
     % Please cite the following two papers that made this development      %
     % possible and the two reviews that describe the various versions:     %
     %                                                                      %
     %   T. Thonhauser et al., PRL 115, 136402 (2015).                      %
     %   T. Thonhauser et al., PRB 76, 125112 (2007).                       %
     %   K. Berland et al., Rep. Prog. Phys. 78, 066501 (2015).             %
     %   D.C. Langreth et al., J. Phys.: Condens. Matter 21, 084203 (2009). %
     %                                                                      %
     %                                                                      %
     % If you are calculating the stress with vdW-DF, please also cite:     %
     %                                                                      %
     %   R. Sabatini et al., J. Phys.: Condens. Matter 24, 424209 (2012).   %
     %                                                                      %
     %%%%%%%%%%%%%%%%%%%%%%%%%%%%%%%%%%%%%%%%%%%%%%%%%%%%%%%%%%%%%%%%%%%%%%%%

     Adding external electric field

     Computed dipole along edir(3) :
        Dipole              -13.2308 Ry au,        -33.6294 Debye
        Dipole field         -0.0250 Ry au,

        Potential amp.        2.3145 Ry
        Total length         46.3494 bohr

     Starting wfcs are  305 atomic wfcs
  @ DRIVER MODE: Message from server: STATUS
  @ DRIVER MODE: Message from server: POSDATA
  @ DRIVER MODE: Reading and sharing cell
  @ DRIVER MODE: Reading and sharing positions
  @ DRIVER MODE: Received positions

     Self-consistent Calculation

     iteration #  1     ecut=    29.40 Ry     beta= 0.05
     Davidson diagonalization with overlap
     c_bands:  5 eigenvalues not converged
     c_bands:  2 eigenvalues not converged
     c_bands:  5 eigenvalues not converged
     c_bands:  5 eigenvalues not converged
     c_bands:  1 eigenvalues not converged
     c_bands:  1 eigenvalues not converged
     c_bands:  4 eigenvalues not converged
     c_bands:  2 eigenvalues not converged
     c_bands:  3 eigenvalues not converged
     ethr =  1.00E-05,  avg # of iterations = 26.9

[...]

     total energy              =   -2368.12020962 Ry
     estimated scf accuracy    <    6912.69229623 Ry

     iteration #  2     ecut=    29.40 Ry     beta= 0.05
     Davidson diagonalization with overlap
     ethr =  1.00E-02,  avg # of iterations = 24.7

[...]

     iteration # 51     ecut=    29.40 Ry     beta= 0.05
     Davidson diagonalization with overlap
     c_bands:  1 eigenvalues not converged
     ethr =  7.59E-10,  avg # of iterations = 15.6

[...]

     total energy              =   -2973.98633479 Ry
     estimated scf accuracy    <       0.00000014 Ry

     iteration # 57     ecut=    29.40 Ry     beta= 0.05
     Davidson diagonalization with overlap
     ethr =  3.59E-11,  avg # of iterations =  8.8

     negative rho (up, down):  1.503E-02 0.000E+00

     Adding external electric field

     Computed dipole along edir(3) :
        Dipole                0.9052 Ry au,          2.3008 Debye
        Dipole field          0.0017 Ry au,

        Potential amp.       -0.1584 Ry
        Total length         46.3494 bohr

     End of self-consistent calculation

          k = 0.0000 0.0000 0.0000 ( 18029 PWs)   bands (ev):

   -55.6041 -55.5700 -55.5675 -55.5317 -55.4992 -55.4490 -55.4392 -55.4150
   -55.4027 -55.3811 -55.3795 -55.3455 -55.0095 -54.8378 -54.5834 -54.5493
   -32.1123 -32.0869 -31.9594 -31.9432 -31.9137 -31.8969 -31.8816 -31.8692
   -31.8472 -31.8067 -31.7989 -31.7681 -31.7562 -31.7462 -31.7379 -31.7277
   -31.7088 -31.6984 -31.6964 -31.6611 -31.6568 -31.6463 -31.6334 -31.6079
   -31.6035 -31.5987 -31.5934 -31.5865 -31.5789 -31.5694 -31.5549 -31.5547
   -31.5459 -31.5324 -31.5217 -31.5097 -31.4912 -31.2866 -31.2001 -31.0983
   -31.0935 -31.0568 -30.9906 -30.9020 -30.8796 -30.8072 -30.7207 -30.6098
   -19.0387 -18.3030 -16.3182 -16.0773 -15.8751 -15.7603 -15.7193 -15.5267
   -15.4288 -15.3304 -15.2333 -15.1649 -15.1420 -15.1346 -15.1308 -15.1053
   -15.0800 -15.0684 -15.0474 -15.0308 -15.0160 -14.9563 -14.9428 -14.9338
   -14.8442 -14.7891 -14.7547 -14.7360 -14.6786 -14.6598 -14.1783 -13.0857
   -12.9693 -11.2762  -6.8765  -6.7248  -4.1975  -4.0509  -3.7934  -3.6883
    -3.5568  -3.5097  -3.4477  -3.4180  -3.2213  -3.1015  -3.0238  -2.8442
    -2.7868  -2.7592  -2.7296  -2.6580  -2.5221  -2.4717  -2.4199  -2.4142
    -2.4024  -2.3708  -2.3661  -2.3450  -2.2456  -2.2420  -2.1888  -2.1508
    -2.0814  -2.0017  -1.9824  -1.9351  -1.9167  -1.9041  -1.8763  -1.8528
    -1.8424  -1.8075  -1.7943  -1.7203  -1.6183  -1.5491  -1.4951  -1.4635
    -1.3978  -1.3852  -1.2183  -1.1532  -1.1080  -1.0715  -1.0532  -1.0327
    -0.9989  -0.9913  -0.8823  -0.7580  -0.7539  -0.6739  -0.6136  -0.5354
    -0.5268  -0.4491  -0.3924  -0.3741  -0.3618  -0.3508  -0.3216  -0.2485
    -0.1034  -0.0601  -0.0355  -0.0003   0.0292   0.0947   0.1382   0.2076
     0.2424   0.2836   0.3187   0.3428   0.3670   0.3745   0.3898   0.4019
     0.4212   0.6038   0.6636   0.6847   0.7498   0.7793   0.9222   0.9887
     1.0526   1.1595   1.3642   1.4389   1.5298   1.6310   2.0102   2.0560
     2.7720   3.5302   3.6153   3.6620   3.7043   3.7767   3.7947   3.9668
     3.9855   4.0289   4.1182

[...]

          k = 0.0380-0.0419 0.0000 ( 17876 PWs)   bands (ev):

[...]

          k =-0.0760-0.0000 0.0000 ( 17886 PWs)   bands (ev):

[...]

          k =-0.0760-0.0839 0.0000 ( 17948 PWs)   bands (ev):

   -55.5874 -55.5866 -55.5506 -55.5484 -55.4924 -55.4556 -55.4269 -55.4150
   -55.3985 -55.3970 -55.3653 -55.3599 -55.0080 -54.8393 -54.5664 -54.5662
   -31.9264 -31.9110 -31.9024 -31.9019 -31.8827 -31.8819 -31.8514 -31.8169
   -31.7945 -31.7910 -31.7819 -31.7617 -31.7588 -31.7399 -31.7186 -31.7139
   -31.7121 -31.7073 -31.7069 -31.7060 -31.7047 -31.7027 -31.6984 -31.6589
   -31.6478 -31.6345 -31.6245 -31.6110 -31.5983 -31.5976 -31.5956 -31.5881
   -31.5794 -31.5757 -31.5688 -31.5653 -31.4272 -31.2884 -31.2056 -31.1545
   -31.0994 -31.0828 -30.8924 -30.8923 -30.8034 -30.8033 -30.7640 -30.7640
   -19.0338 -18.3047 -15.7645 -15.6827 -15.5605 -15.5219 -15.4782 -15.4343
   -15.4143 -15.3213 -15.3016 -15.2922 -15.2407 -15.2266 -15.2037 -15.1601
   -15.1380 -15.1287 -15.1245 -15.0888 -15.0606 -15.0439 -15.0404 -15.0347
   -14.9723 -14.9236 -14.9215 -14.9166 -14.7899 -14.6609 -14.3569 -13.0711
   -13.0710 -11.2739  -6.8773  -6.7382  -4.1266  -3.8553  -3.7716  -3.2810
    -3.0494  -2.8879  -2.8182  -2.7277  -2.6985  -2.6910  -2.5475  -2.5150
    -2.4853  -2.4376  -2.4330  -2.4289  -2.4215  -2.4057  -2.3985  -2.3823
    -2.3313  -2.3188  -2.2941  -2.2799  -2.2738  -2.2563  -2.2344  -2.2243
    -2.2023  -2.1681  -2.1541  -2.1185  -2.1121  -2.0215  -1.8363  -1.8234
    -1.7790  -1.7464  -1.7322  -1.7069  -1.6702  -1.6567  -1.6482  -1.5969
    -1.4718  -1.4312  -1.3443  -1.2964  -1.2792  -1.2235  -1.1627  -1.1383
    -1.0681  -1.0241  -0.9875  -0.9653  -0.9422  -0.7978  -0.7857  -0.7319
    -0.7187  -0.6815  -0.6335  -0.5760  -0.5637  -0.5534  -0.5372  -0.5035
    -0.4352  -0.3659  -0.3541  -0.3261  -0.2750  -0.2585  -0.2152  -0.1265
    -0.1070  -0.0703   0.0275   0.1294   0.2209   0.3557   0.4416   0.4647
     0.5211   0.5981   0.6961   0.7059   0.7142   0.7505   0.7744   0.8345
     0.9280   0.9480   0.9750   1.0977   1.8024   1.8031   1.8756   1.8758
     2.8131   3.7917   3.8514   3.8970   3.9161   4.0084   4.0416   4.0632
     4.0656   4.1131   4.2029

     the Fermi energy is     3.5295 ev

!    total energy              =   -2973.98640520 Ry
     estimated scf accuracy    <       0.00000007 Ry
     smearing contrib. (-TS)   =      -0.02191265 Ry
     internal energy E=F+TS    =   -2973.96449255 Ry

     The total energy is F=E-TS. E is the sum of the following terms:
     one-electron contribution =  -23874.90784208 Ry
     hartree contribution      =   12031.90942668 Ry
     xc contribution           =    -494.07699835 Ry
     ewald contribution        =    9363.10937490 Ry
     electric field correction =       0.00154630 Ry

     convergence has been achieved in  57 iterations

     Forces acting on atoms (cartesian axes, Ry/au):

     atom    1 type  1   force =     0.00005994   -0.00017267    0.09645534
     atom    2 type  1   force =    -0.00015659   -0.00063510   -0.17543502
     atom    3 type  2   force =    -0.00003888    0.00001676   -0.02465566
     atom    4 type  2   force =     0.00005860   -0.00136453    0.05306563
     atom    5 type  2   force =    -0.01208297    0.00003738    0.00385475
     atom    6 type  2   force =     0.01329982    0.00071346    0.00206391
     atom    7 type  1   force =    -0.00148410    0.00064721   -0.01047128
     atom    8 type  1   force =     0.00072768    0.00971985    0.02660216
     atom    9 type  2   force =    -0.00040481    0.00008749   -0.00034958
     atom   10 type  2   force =    -0.00181353    0.00305912   -0.01773842
     atom   11 type  2   force =    -0.00015009   -0.00023615    0.00012081
     atom   12 type  2   force =    -0.00017473   -0.00029515   -0.00030174
     atom   13 type  1   force =    -0.00021691   -0.00020305   -0.00006771
     atom   14 type  1   force =    -0.00035266   -0.00018746   -0.00031490
     atom   15 type  2   force =     0.00003178   -0.00088523    0.00025070
     atom   16 type  2   force =     0.00005922    0.00015509   -0.00000751
     atom   17 type  2   force =    -0.00003192   -0.00056937    0.00020168
     atom   18 type  2   force =     0.00024681   -0.00041545    0.00036659
     atom   19 type  1   force =     0.00040789   -0.00020688   -0.00006058
     atom   20 type  1   force =     0.00031143   -0.00069689    0.00014750
     atom   21 type  2   force =     0.00008609   -0.00004764    0.10322175
     atom   22 type  2   force =     0.00053577   -0.00048995   -0.00032413
     atom   23 type  2   force =    -0.07147346   -0.00008488   -0.02775752
     atom   24 type  2   force =     0.07140959    0.00029767   -0.02775671
     atom   25 type  1   force =     0.00006430   -0.00028581    0.09594122
     atom   26 type  1   force =    -0.00025434   -0.00022839   -0.17572765
     atom   27 type  2   force =     0.00006957   -0.00008650   -0.02367867
     atom   28 type  2   force =     0.00006323   -0.00118799    0.05334856
     atom   29 type  2   force =    -0.01232053    0.00062108    0.00389320
     atom   30 type  2   force =     0.01347290    0.00110362    0.00206308
     atom   31 type  1   force =    -0.00129893    0.00372952   -0.00845375
     atom   32 type  1   force =     0.00085349   -0.01167025    0.02703991
     atom   33 type  2   force =    -0.00002255    0.00013556   -0.00013525
     atom   34 type  2   force =    -0.00128773    0.00169610   -0.02364620
     atom   35 type  2   force =    -0.00023708   -0.00003746    0.00004519
     atom   36 type  2   force =     0.00004735   -0.00002929    0.00018478
     atom   37 type  1   force =    -0.00001116   -0.00017749    0.00016956
     atom   38 type  1   force =    -0.00055962   -0.00029537    0.00057052
     atom   39 type  2   force =     0.00021947   -0.00060642    0.00051418
     atom   40 type  2   force =    -0.00001985   -0.00009844    0.00019990
     atom   41 type  2   force =     0.00020450   -0.00050493   -0.00034804
     atom   42 type  2   force =     0.00015236   -0.00036175   -0.00046036
     atom   43 type  1   force =     0.00074293   -0.00040090    0.00021544
     atom   44 type  1   force =    -0.00004937   -0.00019162   -0.00082874
     atom   45 type  2   force =     0.00009245   -0.00005713    0.10321194
     atom   46 type  2   force =    -0.07147169   -0.00007549   -0.02776017
     atom   47 type  2   force =     0.07141854    0.00035661   -0.02777019
     atom   48 type  3   force =    -0.00069969   -0.00084698    0.00197929
     atom   49 type  3   force =     0.00018130    0.00084350   -0.00038212
     atom   50 type  4   force =    -0.00448020   -0.00081183    0.00730214
     atom   51 type  5   force =     0.00115181   -0.00076195    0.00052266
     atom   52 type  5   force =     0.00458907    0.00217880   -0.00903635
     atom   53 type  5   force =     0.00013542   -0.00007146    0.00014305
     atom   54 type  2   force =    -0.00058241   -0.00114250   -0.00004497
     atom   55 type  5   force =     0.00042694    0.00029257    0.00031220
     atom   56 type  5   force =     0.00055554    0.00072892   -0.00049443

     Total force =     0.368057     Total SCF correction =     0.000665
  @ DRIVER MODE: Message from server: STATUS
  @ DRIVER MODE: Message from server: GETFORCE
  @ DRIVER MODE: Returning v,forces,stress,ensemble

     Writing output data file ./calc.save/
  @ DRIVER MODE: Message from server: EXIT
  @ DRIVE MODE: Exiting

     General routines

     Parallel routines

   This run was terminated on:   7:20:25  10Sep2021

   JOB DONE.