     Program PWSCF v.6.7GPU starts on 24Sep2021 at  6:32:34

     R & G space division:  proc/nbgrp/npool/nimage =       8
     Reading input from /storage/home/hcoda1/3/ntian30/research/carbon/CxH_vib/H2O_calc/ads_slab/CH3NNHHHHO_a/out_0048/pw.inp
Warning: card &CELL ignored
Warning: card   CELL_DYNAMICS='IPI', ignored
Warning: card / ignored

     Current dimensions of program PWSCF are:
     Max number of different atomic species (ntypx) = 10
     Max number of k-points (npk) =  40000
     Max angular momentum in pseudopotentials (lmaxx) =  3
     Presently no symmetry can be used with electric field

     Message from routine cell_base_init:
     DEPRECATED: use true lattice parameter, not A to a.u. conversion factor

     IMPORTANT: XC functional enforced from input :
     Exchange-correlation= BEEF-VDW
                           (   1   4  43  14   2   0   0)
     Any further DFT definition will be discarded
     Please, verify this is what you really want

  @ DRIVER MODE: Connecting to
 qe_1139763_2947308.sched-torque.pace.gatech.edupmdkf0bb_scratch
  using UNIX socket
  @ DRIVER MODE: Message from server: STATUS
  @ DRIVER MODE: Message from server: INIT
  @ DRIVER MODE: Receiving replica           0          -1
  @ DRIVER MODE: Receiving encoded integer          25
  @ DRIVER MODE:  SCF:  T  FORCE:  T  STRESS:  F  VC:  F  ENSEMBLE:  F
  @ DRIVER MODE:  SCF:  T  FORCE:  T  STRESS:  F  VC:  F  ENSEMBLE:  F

     Using Slab Decomposition

     bravais-lattice index     =            0
     lattice parameter (alat)  =       1.8897  a.u.
     unit-cell volume          =    6658.9804 (a.u.)^3
     number of atoms/cell      =           58
     number of atomic types    =            5
     number of electrons       =       405.00
     number of Kohn-Sham states=          212
     kinetic-energy cutoff     =      29.3995  Ry
     charge density cutoff     =     293.9946  Ry
     scf convergence threshold =      7.3E-08
     mixing beta               =       0.0500
     number of iterations used =            8  plain     mixing
     Exchange-correlation= BEEF-VDW
                           (   1   4  43  14   2   0   0)

     celldm(1)=   1.889726  celldm(2)=   0.000000  celldm(3)=   0.000000
     celldm(4)=   0.000000  celldm(5)=   0.000000  celldm(6)=   0.000000

     crystal axes: (cart. coord. in units of alat)
               a(1) = (   6.579727   0.000000   0.000000 )
               a(2) = (  -0.000775   5.961596   0.000000 )
               a(3) = (   0.000000   0.000000  25.155947 )

     reciprocal axes: (cart. coord. in units 2 pi/alat)
               b(1) = (  0.151982  0.000020  0.000000 )
               b(2) = (  0.000000  0.167740  0.000000 )
               b(3) = (  0.000000  0.000000  0.039752 )

     PseudoPot. # 1 for Ti read from file:
     /storage/coda1/p-amedford6/0/shared/rich_project_chbe-medford/medford-share/data/pseudos_module/espresso/nninc/pbe/van/Ti.UPF
     MD5 check sum: 8e4df49b7f0d34bbd5052bf3f5ea0213
     Pseudo is Ultrasoft, Zval = 12.0
     Generated by new atomic code, or converted to UPF format
     Using radial grid of  851 points,  6 beta functions with:
                l(1) =   0
                l(2) =   0
                l(3) =   1
                l(4) =   1
                l(5) =   2
                l(6) =   2
     Q(r) pseudized with  8 coefficients,  rinner =    1.000   1.000   1.000
                                                       1.000   1.000

     PseudoPot. # 2 for O  read from file:
     /storage/coda1/p-amedford6/0/shared/rich_project_chbe-medford/medford-share/data/pseudos_module/espresso/nninc/pbe/van/O.UPF
     MD5 check sum: 78c19812648e8988a0fe644b0f25305e
     Pseudo is Ultrasoft, Zval =  6.0
     Generated by new atomic code, or converted to UPF format
     Using radial grid of  737 points,  4 beta functions with:
                l(1) =   0
                l(2) =   0
                l(3) =   1
                l(4) =   1
     Q(r) pseudized with  8 coefficients,  rinner =    0.800   0.800   0.800

     PseudoPot. # 3 for N  read from file:
     /storage/coda1/p-amedford6/0/shared/rich_project_chbe-medford/medford-share/data/pseudos_module/espresso/nninc/pbe/van/N.UPF
     MD5 check sum: 90d10febe142ad51ac9d5be1deb811c4
     Pseudo is Ultrasoft, Zval =  5.0
     Generated by new atomic code, or converted to UPF format
     Using radial grid of  729 points,  4 beta functions with:
                l(1) =   0
                l(2) =   0
                l(3) =   1
                l(4) =   1
     Q(r) pseudized with  8 coefficients,  rinner =    0.800   0.800   0.800

     PseudoPot. # 4 for C  read from file:
     /storage/coda1/p-amedford6/0/shared/rich_project_chbe-medford/medford-share/data/pseudos_module/espresso/nninc/pbe/van/C.UPF
     MD5 check sum: 1a69bf6b8db32088f5b2163dbdb77a27
     Pseudo is Ultrasoft, Zval =  4.0
     Generated by new atomic code, or converted to UPF format
     Using radial grid of  721 points,  4 beta functions with:
                l(1) =   0
                l(2) =   0
                l(3) =   1
                l(4) =   1
     Q(r) pseudized with  8 coefficients,  rinner =    0.800   0.800   0.800

     PseudoPot. # 5 for H  read from file:
     /storage/coda1/p-amedford6/0/shared/rich_project_chbe-medford/medford-share/data/pseudos_module/espresso/nninc/pbe/van/H.UPF
     MD5 check sum: b5ee9d7bfd3a09ee7748110bda690ff7
     Pseudo is Ultrasoft, Zval =  1.0
     Generated by new atomic code, or converted to UPF format
     Using radial grid of  615 points,  1 beta functions with:
                l(1) =   0
     Q(r) pseudized with  8 coefficients,  rinner =    0.800

     atomic species   valence    mass     pseudopotential
        Ti1           12.00    47.86700     Ti( 1.00)
        O1             6.00    15.99900     O ( 1.00)
        N1             5.00    14.00700     N ( 1.00)
        C1             4.00    12.01100     C ( 1.00)
        H1             1.00     1.00800     H ( 1.00)

     No symmetry found

   Cartesian axes

     site n.     atom                  positions (alat units)
         1           Ti1 tau(   1) = (   0.0004258   2.9801865   6.0000000  )
         2           Ti1 tau(   2) = (   3.2906075   1.4906267   6.0002472  )
         3           O1  tau(   3) = (   0.0006271   0.0005054   7.9858123  )
         4           O1  tau(   4) = (   3.2906025   0.0005020   7.3038282  )
         5           O1  tau(   5) = (   4.5942328   1.4918067   9.2879030  )
         6           O1  tau(   6) = (   1.9868534   1.4903216   9.2879459  )
         7           Ti1 tau(   7) = (   3.2907910   2.8959150   9.1758416  )
         8           Ti1 tau(   8) = (   0.0015273   1.4827037   9.2680791  )
         9           O1  tau(   9) = (   3.3066316   0.0080679  11.3583267  )
        10           O1  tau(  10) = (   0.0116148   5.9584955  10.6183126  )
        11           O1  tau(  11) = (   1.3000076   1.5005770  12.6434233  )
        12           O1  tau(  12) = (   5.3281586   1.4930334  12.6431679  )
        13           Ti1 tau(  13) = (   0.0126194   3.0144704  12.5166071  )
        14           Ti1 tau(  14) = (   3.3185830   1.5708444  12.4374219  )
        15           O1  tau(  15) = (   0.0449490   0.0685618  14.6579901  )
        16           O1  tau(  16) = (   3.3164028   5.8986079  13.9921319  )
        17           O1  tau(  17) = (   4.5763498   1.4919541  16.1892649  )
        18           O1  tau(  18) = (   2.0390356   1.5007807  16.1677599  )
        19           Ti1 tau(  19) = (   3.3152479   2.9236451  15.6986563  )
        20           Ti1 tau(  20) = (   0.0808212   1.4292116  16.0039943  )
        21           O1  tau(  21) = (   3.2904802   0.0005063   4.7018136  )
        22           O1  tau(  22) = (   0.0303022   5.8046116  17.1736243  )
        23           O1  tau(  23) = (   1.3043587   1.4918075   6.0039043  )
        24           O1  tau(  24) = (   5.2767064   1.4903225   6.0039473  )
        25           Ti1 tau(  25) = (   0.0000382   5.9609847   6.0000000  )
        26           Ti1 tau(  26) = (   3.2902200   4.4714249   6.0002472  )
        27           O1  tau(  27) = (   0.0002396   2.9813036   7.9858123  )
        28           O1  tau(  28) = (   3.2902150   2.9813002   7.3038282  )
        29           O1  tau(  29) = (   4.5938453   4.4726049   9.2879030  )
        30           O1  tau(  30) = (   1.9864658   4.4711199   9.2879459  )
        31           Ti1 tau(  31) = (   3.2891106   5.8743827   9.1763621  )
        32           Ti1 tau(  32) = (   0.0006254   4.4649316   9.2693709  )
        33           O1  tau(  33) = (   3.3101163   2.9547251  11.3177968  )
        34           O1  tau(  34) = (   0.0092240   2.9805883  10.6323155  )
        35           O1  tau(  35) = (   1.2917786   4.4638488  12.6831265  )
        36           O1  tau(  36) = (   5.3332004   4.4701953  12.6833355  )
        37           Ti1 tau(  37) = (   0.0360484   0.0435164  12.5022323  )
        38           Ti1 tau(  38) = (   3.3166134   4.6596848  12.7231989  )
        39           O1  tau(  39) = (   6.5734590   2.9070644  14.8960501  )
        40           O1  tau(  40) = (   3.3256711   2.9499323  13.9293234  )
        41           O1  tau(  41) = (   4.5718193   4.3849529  16.1598725  )
        42           O1  tau(  42) = (   2.0293811   4.3548050  16.0908550  )
        43           Ti1 tau(  43) = (   3.3839698   5.9011270  16.3477160  )
        44           Ti1 tau(  44) = (   0.0762916   4.6312412  15.8077656  )
        45           O1  tau(  45) = (   3.2900926   2.9813045   4.7018136  )
        46           O1  tau(  46) = (   1.3039711   4.4726057   6.0039043  )
        47           O1  tau(  47) = (   5.2763189   4.4711207   6.0039473  )
        48           N1  tau(  48) = (   1.0338470   3.0145746  18.8549854  )
        49           N1  tau(  49) = (   6.4614719   2.5758313  18.0922931  )
        50           C1  tau(  50) = (   0.6385090   3.7489381  20.0602371  )
        51           H1  tau(  51) = (   6.5128770   4.5633600  19.8465500  )
        52           H1  tau(  52) = (   0.1876125   3.0656416  20.7809517  )
        53           H1  tau(  53) = (   1.5398112   4.1767214  20.4987412  )
        54           H1  tau(  54) = (   5.7034478   3.2665398  18.1448723  )
        55           H1  tau(  55) = (   6.1095767   1.7263867  18.5441855  )
        56           H1  tau(  56) = (   1.5400177   3.6533120  18.2466354  )
        57           O1  tau(  57) = (   3.2295176   5.8880611  18.1942677  )
        58           H1  tau(  58) = (   2.6769533   0.6239085  18.5854980  )

     number of k points=    10  Fermi-Dirac smearing, width (Ry)=  0.0073
                       cart. coord. in units 2pi/alat
        k(    1) = (   0.0000000   0.0000000   0.0000000), wk =   0.1250000
        k(    2) = (   0.0000000   0.0419351   0.0000000), wk =   0.2500000
        k(    3) = (   0.0000000  -0.0838702   0.0000000), wk =   0.1250000
        k(    4) = (   0.0379955   0.0000049   0.0000000), wk =   0.2500000
        k(    5) = (   0.0379955   0.0419400   0.0000000), wk =   0.2500000
        k(    6) = (   0.0379955  -0.0838652   0.0000000), wk =   0.2500000
        k(    7) = (   0.0379955  -0.0419301   0.0000000), wk =   0.2500000
        k(    8) = (  -0.0759910  -0.0000099   0.0000000), wk =   0.1250000
        k(    9) = (  -0.0759910   0.0419252   0.0000000), wk =   0.2500000
        k(   10) = (  -0.0759910  -0.0838800   0.0000000), wk =   0.1250000

     Initial potential from superposition of free atoms

     starting charge  388.99913, renormalised to  405.00000

     negative rho (up, down):  1.325E-02 0.000E+00

     %%%%%%%%%%%%%%%%%%%%%%%%%%%%%%%%%%%%%%%%%%%%%%%%%%%%%%%%%%%%%%%%%%%%%%%%
     %                                                                      %
     % You are using vdW-DF, which was implemented by the Thonhauser group. %
     % Please cite the following two papers that made this development      %
     % possible and the two reviews that describe the various versions:     %
     %                                                                      %
     %   T. Thonhauser et al., PRL 115, 136402 (2015).                      %
     %   T. Thonhauser et al., PRB 76, 125112 (2007).                       %
     %   K. Berland et al., Rep. Prog. Phys. 78, 066501 (2015).             %
     %   D.C. Langreth et al., J. Phys.: Condens. Matter 21, 084203 (2009). %
     %                                                                      %
     %                                                                      %
     % If you are calculating the stress with vdW-DF, please also cite:     %
     %                                                                      %
     %   R. Sabatini et al., J. Phys.: Condens. Matter 24, 424209 (2012).   %
     %                                                                      %
     %%%%%%%%%%%%%%%%%%%%%%%%%%%%%%%%%%%%%%%%%%%%%%%%%%%%%%%%%%%%%%%%%%%%%%%%

     Adding external electric field

     Computed dipole along edir(3) :
        Dipole              -14.7659 Ry au,        -37.5312 Debye
        Dipole field         -0.0279 Ry au,

        Potential amp.        2.5831 Ry
        Total length         46.3494 bohr

     Starting wfcs are  307 atomic wfcs
  @ DRIVER MODE: Message from server: STATUS
  @ DRIVER MODE: Message from server: POSDATA
  @ DRIVER MODE: Reading and sharing cell
  @ DRIVER MODE: Reading and sharing positions
  @ DRIVER MODE: Received positions

     Self-consistent Calculation

     iteration #  1     ecut=    29.40 Ry     beta= 0.05
     Davidson diagonalization with overlap
     c_bands:  3 eigenvalues not converged
     c_bands:  4 eigenvalues not converged
     c_bands:  2 eigenvalues not converged
     c_bands:  3 eigenvalues not converged
     c_bands:  3 eigenvalues not converged
     c_bands:  3 eigenvalues not converged
     ethr =  1.00E-05,  avg # of iterations = 23.2

[...]

     total energy              =   -2204.24523071 Ry
     estimated scf accuracy    <    8785.96010407 Ry

     iteration #  2     ecut=    29.40 Ry     beta= 0.05
     Davidson diagonalization with overlap
     ethr =  1.00E-02,  avg # of iterations = 31.5

[...]

     iteration # 66     ecut=    29.40 Ry     beta= 0.05
     Davidson diagonalization with overlap
     c_bands:  1 eigenvalues not converged
     ethr =  1.68E-10,  avg # of iterations = 15.8

[...]

     total energy              =   -2976.49822890 Ry
     estimated scf accuracy    <       0.00000030 Ry

     iteration # 69     ecut=    29.40 Ry     beta= 0.05
     Davidson diagonalization with overlap
     ethr =  7.43E-11,  avg # of iterations =  7.5

     negative rho (up, down):  1.443E-02 0.000E+00

     Adding external electric field

     Computed dipole along edir(3) :
        Dipole                0.9947 Ry au,          2.5282 Debye
        Dipole field          0.0019 Ry au,

        Potential amp.       -0.1740 Ry
        Total length         46.3494 bohr

     End of self-consistent calculation

          k = 0.0000 0.0000 0.0000 ( 18029 PWs)   bands (ev):

   -55.5808 -55.4971 -55.4631 -55.3621 -55.3410 -55.3250 -55.3112 -55.3046
   -55.2912 -55.2617 -55.2180 -55.0958 -55.0845 -55.0082 -54.4664 -54.4323
   -31.9816 -31.9172 -31.8759 -31.8286 -31.8270 -31.8081 -31.7977 -31.7880
   -31.7482 -31.7430 -31.7251 -31.6497 -31.6257 -31.6056 -31.6036 -31.6016
   -31.5956 -31.5839 -31.5815 -31.5547 -31.5485 -31.5234 -31.5224 -31.5108
   -31.4957 -31.4846 -31.4768 -31.4595 -31.4553 -31.4523 -31.4427 -31.4368
   -31.4329 -31.4137 -31.3718 -31.3699 -31.2991 -31.2923 -31.2778 -31.2578
   -31.2209 -31.2136 -30.8720 -30.7865 -30.7640 -30.6897 -30.6033 -30.4914
   -17.5806 -16.4000 -16.1380 -15.9755 -15.7597 -15.6742 -15.6458 -15.4532
   -15.3478 -15.2949 -15.1084 -15.0624 -15.0319 -15.0209 -15.0055 -14.9828
   -14.9630 -14.9247 -14.9163 -14.9060 -14.9004 -14.8619 -14.8394 -14.7889
   -14.7661 -14.7036 -14.6315 -14.5637 -14.5163 -14.2545 -14.2375 -12.9647
   -12.9570 -12.8484  -9.4611  -6.1505  -5.1797  -4.6393  -3.9616  -3.5027
    -3.4019  -3.3860  -3.3313  -3.2673  -3.1700  -2.9943  -2.8856  -2.8318
    -2.7311  -2.6237  -2.5689  -2.5057  -2.4803  -2.4290  -2.3959  -2.3843
    -2.3775  -2.2812  -2.2728  -2.2455  -2.2102  -2.1541  -2.1384  -2.0600
    -2.0242  -2.0155  -1.8912  -1.8783  -1.8128  -1.8085  -1.8023  -1.7687
    -1.7476  -1.7327  -1.7037  -1.6199  -1.5669  -1.4966  -1.4742  -1.4439
    -1.1855  -1.0927  -1.0550  -1.0273  -0.9295  -0.9151  -0.9013  -0.8963
    -0.8822  -0.8327  -0.7869  -0.7021  -0.5931  -0.5748  -0.5637  -0.5187
    -0.4534  -0.3714  -0.2984  -0.2687  -0.2314  -0.2181  -0.1522  -0.0744
    -0.0584  -0.0458   0.0625   0.0768   0.1592   0.2179   0.2318   0.2767
     0.3177   0.3501   0.4069   0.4434   0.4738   0.4796   0.5130   0.5574
     0.6132   0.6436   0.6715   0.7539   0.8093   0.8548   0.8824   1.0541
     1.0838   1.1396   1.1801   1.2674   1.5100   1.5603   1.5996   1.7547
     2.1266   2.1717   3.5876   3.7386   3.7537   3.8232   3.8484   3.9393
     4.0767   4.1446   4.2764   4.2854

[...]

          k = 0.0380-0.0419 0.0000 ( 17876 PWs)   bands (ev):

[...]

          k =-0.0760-0.0000 0.0000 ( 17886 PWs)   bands (ev):

[...]

          k =-0.0760-0.0839 0.0000 ( 17948 PWs)   bands (ev):

   -55.5801 -55.4803 -55.4798 -55.3608 -55.3279 -55.3176 -55.3118 -55.3081
   -55.3077 -55.2538 -55.2259 -55.0926 -55.0856 -55.0113 -54.4495 -54.4491
   -31.8645 -31.8068 -31.8015 -31.7971 -31.7968 -31.7825 -31.7737 -31.7732
   -31.7046 -31.6484 -31.6404 -31.6329 -31.6282 -31.6150 -31.6002 -31.6000
   -31.5978 -31.5971 -31.5832 -31.5728 -31.5652 -31.5566 -31.5358 -31.5175
   -31.5148 -31.5108 -31.5035 -31.5006 -31.4881 -31.4808 -31.4783 -31.4726
   -31.4675 -31.4488 -31.4431 -31.3660 -31.3536 -31.3400 -31.3010 -31.2964
   -31.2631 -31.2170 -30.7769 -30.7766 -30.6851 -30.6847 -30.6467 -30.6463
   -17.5746 -16.3859 -15.7461 -15.5682 -15.4719 -15.4654 -15.3347 -15.2690
   -15.2601 -15.2257 -15.2069 -15.1918 -15.1589 -15.1413 -15.1019 -15.0491
   -15.0158 -14.9932 -14.9816 -14.9445 -14.9320 -14.9101 -14.9027 -14.8941
   -14.8358 -14.8037 -14.7946 -14.7639 -14.5685 -14.5451 -14.3700 -12.9585
   -12.9504 -12.9502  -9.4586  -6.1361  -5.1815  -4.6493  -3.9576  -3.1716
    -2.9204  -2.7771  -2.7008  -2.5668  -2.5570  -2.4991  -2.4928  -2.4465
    -2.4380  -2.3968  -2.3428  -2.3271  -2.2837  -2.2788  -2.2479  -2.2355
    -2.2248  -2.2157  -2.1906  -2.1710  -2.1621  -2.1212  -2.1167  -2.1008
    -2.0813  -2.0649  -2.0373  -2.0263  -1.9861  -1.9465  -1.8815  -1.8076
    -1.7219  -1.6391  -1.6286  -1.6178  -1.5714  -1.5649  -1.5182  -1.5070
    -1.4596  -1.4084  -1.2938  -1.1717  -1.1313  -1.1048  -1.0727  -1.0406
    -0.9859  -0.9631  -0.9281  -0.8794  -0.8481  -0.7239  -0.7133  -0.6479
    -0.5656  -0.5306  -0.4541  -0.4410  -0.4267  -0.4102  -0.3884  -0.3717
    -0.3425  -0.3270  -0.2218  -0.1978  -0.1946  -0.1722  -0.1215  -0.0183
     0.0555   0.1389   0.2414   0.2911   0.3189   0.3525   0.4524   0.5706
     0.5960   0.6589   0.6909   0.7337   0.8009   0.8217   0.8695   0.9550
     1.0079   1.0404   1.0666   1.0716   1.1263   1.1550   1.9233   1.9318
     1.9920   1.9922   3.8014   4.0773   4.1029   4.1190   4.1562   4.1604
     4.1824   4.1969   4.2620   4.2779

     the Fermi energy is     3.6245 ev

!    total energy              =   -2976.49825550 Ry
     estimated scf accuracy    <       0.00000007 Ry
     smearing contrib. (-TS)   =      -0.01953016 Ry
     internal energy E=F+TS    =   -2976.47872534 Ry

     The total energy is F=E-TS. E is the sum of the following terms:
     one-electron contribution =  -23034.00024478 Ry
     hartree contribution      =   11613.37529702 Ry
     xc contribution           =    -495.70588064 Ry
     ewald contribution        =    8939.85023607 Ry
     electric field correction =       0.00186700 Ry

     convergence has been achieved in  69 iterations

     Forces acting on atoms (cartesian axes, Ry/au):

     atom    1 type  1   force =     0.00001153   -0.00022294    0.09406107
     atom    2 type  1   force =    -0.00016027    0.00025613   -0.17515324
     atom    3 type  2   force =     0.00007406   -0.00016000   -0.02115556
     atom    4 type  2   force =     0.00000399   -0.00104190    0.05355690
     atom    5 type  2   force =    -0.00455128   -0.00322668    0.00114846
     atom    6 type  2   force =     0.00660918   -0.00242605    0.00161210
     atom    7 type  1   force =     0.00037286    0.00456877    0.01036895
     atom    8 type  1   force =    -0.00056127    0.00199079    0.00311829
     atom    9 type  2   force =     0.00010297   -0.00049917   -0.00050316
     atom   10 type  2   force =    -0.00030942   -0.00004040   -0.01131064
     atom   11 type  2   force =    -0.00023251    0.00046065    0.00004211
     atom   12 type  2   force =    -0.00026977    0.00067569    0.00007987
     atom   13 type  1   force =     0.00061401   -0.00065558    0.00023336
     atom   14 type  1   force =    -0.00035783    0.00015960    0.00021059
     atom   15 type  2   force =    -0.00017008    0.00010993    0.00049959
     atom   16 type  2   force =     0.00004553   -0.00002081    0.00041758
     atom   17 type  2   force =    -0.00044687    0.00021525    0.00003038
     atom   18 type  2   force =     0.00003277    0.00009379    0.00025205
     atom   19 type  1   force =    -0.00006434    0.00049298   -0.00027648
     atom   20 type  1   force =    -0.00014558   -0.00025298    0.00030068
     atom   21 type  2   force =     0.00002916   -0.00001330    0.10311799
     atom   22 type  2   force =    -0.00004092   -0.00035894   -0.00044097
     atom   23 type  2   force =    -0.07214711   -0.00020567   -0.02725476
     atom   24 type  2   force =     0.07205169    0.00023749   -0.02733296
     atom   25 type  1   force =     0.00006972   -0.00034907    0.09404221
     atom   26 type  1   force =    -0.00000438   -0.00128905   -0.17518334
     atom   27 type  2   force =     0.00015392   -0.00021555   -0.01994158
     atom   28 type  2   force =     0.00008690   -0.00111032    0.04907318
     atom   29 type  2   force =    -0.00668770    0.00152730    0.00212186
     atom   30 type  2   force =     0.00855620    0.00170581    0.00249300
     atom   31 type  1   force =     0.00049764   -0.00020145    0.00052986
     atom   32 type  1   force =    -0.00020398   -0.00145649    0.00351377
     atom   33 type  2   force =    -0.00007838    0.00001089   -0.00005074
     atom   34 type  2   force =    -0.00088878    0.00246296   -0.01151720
     atom   35 type  2   force =     0.00003234   -0.00043163    0.00048085
     atom   36 type  2   force =    -0.00053073   -0.00040793    0.00033775
     atom   37 type  1   force =     0.00036889    0.00028637    0.00004231
     atom   38 type  1   force =    -0.00038065    0.00021493    0.00030995
     atom   39 type  2   force =    -0.00051081    0.00042215    0.00049831
     atom   40 type  2   force =    -0.00002040   -0.00007941   -0.00007612
     atom   41 type  2   force =    -0.00036335   -0.00028532    0.00028867
     atom   42 type  2   force =    -0.00022531   -0.00025914   -0.00022640
     atom   43 type  1   force =     0.00000260   -0.00031001    0.00066467
     atom   44 type  1   force =    -0.00017839    0.00038165    0.00006802
     atom   45 type  2   force =     0.00002126   -0.00001643    0.10298008
     atom   46 type  2   force =    -0.07215511   -0.00009142   -0.02725110
     atom   47 type  2   force =     0.07200984    0.00034601   -0.02729451
     atom   48 type  3   force =     0.00106708    0.00032588   -0.00044514
     atom   49 type  3   force =    -0.00268606   -0.00617984    0.00422183
     atom   50 type  4   force =     0.00039217   -0.00017551    0.00011537
     atom   51 type  5   force =    -0.00030972    0.00023984    0.00004981
     atom   52 type  5   force =    -0.00011809   -0.00082701    0.00003476
     atom   53 type  5   force =     0.00019836   -0.00053290    0.00004456
     atom   54 type  5   force =     0.00010290    0.00045134   -0.00052562
     atom   55 type  5   force =     0.00133452    0.00551349   -0.00385684
     atom   56 type  5   force =     0.00041144    0.00029744   -0.00033964
     atom   57 type  2   force =    -0.00021252    0.00051563   -0.00061147
     atom   58 type  5   force =    -0.00024194   -0.00061987   -0.00021333

     Total force =     0.361878     Total SCF correction =     0.000587
  @ DRIVER MODE: Message from server: STATUS
  @ DRIVER MODE: Message from server: GETFORCE
  @ DRIVER MODE: Returning v,forces,stress,ensemble

     Writing output data file ./calc.save/
  @ DRIVER MODE: Message from server: EXIT
  @ DRIVE MODE: Exiting

     General routines

     Parallel routines

   This run was terminated on:   6:56:35  24Sep2021

   JOB DONE.