     Program PWSCF v.7.0 starts on 16Aug2022 at 14:41:13

     R & G space division:  proc/nbgrp/npool/nimage =       6

     Reading input from /storage/coda1/p-amedford6/0/ntian30/BEEF_carbon_assisted/ads_slab/CH2NNHH_a/BEEF_carbon_assisted.log/pw.inp
Warning: card &CELL ignored
Warning: card   CELL_DYNAMICS='IPI', ignored
Warning: card / ignored

     Current dimensions of program PWSCF are:
     Max number of different atomic species (ntypx) = 10
     Max number of k-points (npk) =  40000
     Max angular momentum in pseudopotentials (lmaxx) =  4
     Presently no symmetry can be used with electric field

     Message from routine cell_base_init:
     DEPRECATED: use true lattice parameter, not A to a.u. conversion factor

     IMPORTANT: XC functional enforced from input :
     Exchange-correlation= BEEF-VDW
                           (   1   4  43  14   2   0   0)
     Any further DFT definition will be discarded
     Please, verify this is what you really want

  @ DRIVER MODE: Connecting to
 qe_1139763_4802503.sched-torque.pace.gatech.edumeiha0t8_scratch
  using UNIX socket
  @ DRIVER MODE: Message from server: STATUS
  @ DRIVER MODE: Message from server: INIT
  @ DRIVER MODE: Receiving replica           0          -1
  @ DRIVER MODE: Receiving parameter string
 lscf : 1, lforce : 1, lstress : 0, lmovecell : 0, lensemb : 0,

     Using Slab Decomposition

     bravais-lattice index     =            0
     lattice parameter (alat)  =       1.8897  a.u.
     unit-cell volume          =    6658.9804 (a.u.)^3
     number of atoms/cell      =           54
     number of atomic types    =            5
     number of electrons       =       396.00
     number of Kohn-Sham states=          208
     kinetic-energy cutoff     =      29.3995  Ry
     charge density cutoff     =     293.9946  Ry
     scf convergence threshold =      7.3E-08
     mixing beta               =       0.0500
     number of iterations used =            8  plain     mixing
     energy convergence thresh.=      1.0E-04
     force convergence thresh. =      1.0E-03
     Exchange-correlation= BEEF-VDW
                           (   1   4  43  14   2   0   0)
     nstep                     =           50

     celldm(1)=   1.889726  celldm(2)=   0.000000  celldm(3)=   0.000000
     celldm(4)=   0.000000  celldm(5)=   0.000000  celldm(6)=   0.000000

     crystal axes: (cart. coord. in units of alat)
               a(1) = (   6.579727   0.000000   0.000000 )
               a(2) = (  -0.000775   5.961596   0.000000 )
               a(3) = (   0.000000   0.000000  25.155947 )

     reciprocal axes: (cart. coord. in units 2 pi/alat)
               b(1) = (  0.151982  0.000020  0.000000 )
               b(2) = (  0.000000  0.167740  0.000000 )
               b(3) = (  0.000000  0.000000  0.039752 )

     PseudoPot. # 1 for Ti read from file:
     /storage/coda1/p-amedford6/0/shared/rich_project_chbe-medford/medford-share/data/pseudos_module/espresso/nninc/pbe/van/Ti.UPF
     MD5 check sum: 8e4df49b7f0d34bbd5052bf3f5ea0213
     Pseudo is Ultrasoft, Zval = 12.0
     Generated by new atomic code, or converted to UPF format
     Using radial grid of  851 points,  6 beta functions with:
                l(1) =   0
                l(2) =   0
                l(3) =   1
                l(4) =   1
                l(5) =   2
                l(6) =   2
     Q(r) pseudized with  8 coefficients,  rinner =    1.000   1.000   1.000
                                                       1.000   1.000

     PseudoPot. # 2 for O  read from file:
     /storage/coda1/p-amedford6/0/shared/rich_project_chbe-medford/medford-share/data/pseudos_module/espresso/nninc/pbe/van/O.UPF
     MD5 check sum: 78c19812648e8988a0fe644b0f25305e
     Pseudo is Ultrasoft, Zval =  6.0
     Generated by new atomic code, or converted to UPF format
     Using radial grid of  737 points,  4 beta functions with:
                l(1) =   0
                l(2) =   0
                l(3) =   1
                l(4) =   1
     Q(r) pseudized with  8 coefficients,  rinner =    0.800   0.800   0.800

     PseudoPot. # 3 for N  read from file:
     /storage/coda1/p-amedford6/0/shared/rich_project_chbe-medford/medford-share/data/pseudos_module/espresso/nninc/pbe/van/N.UPF
     MD5 check sum: 90d10febe142ad51ac9d5be1deb811c4
     Pseudo is Ultrasoft, Zval =  5.0
     Generated by new atomic code, or converted to UPF format
     Using radial grid of  729 points,  4 beta functions with:
                l(1) =   0
                l(2) =   0
                l(3) =   1
                l(4) =   1
     Q(r) pseudized with  8 coefficients,  rinner =    0.800   0.800   0.800

     PseudoPot. # 4 for C  read from file:
     /storage/coda1/p-amedford6/0/shared/rich_project_chbe-medford/medford-share/data/pseudos_module/espresso/nninc/pbe/van/C.UPF
     MD5 check sum: 1a69bf6b8db32088f5b2163dbdb77a27
     Pseudo is Ultrasoft, Zval =  4.0
     Generated by new atomic code, or converted to UPF format
     Using radial grid of  721 points,  4 beta functions with:
                l(1) =   0
                l(2) =   0
                l(3) =   1
                l(4) =   1
     Q(r) pseudized with  8 coefficients,  rinner =    0.800   0.800   0.800

     PseudoPot. # 5 for H  read from file:
     /storage/coda1/p-amedford6/0/shared/rich_project_chbe-medford/medford-share/data/pseudos_module/espresso/nninc/pbe/van/H.UPF
     MD5 check sum: b5ee9d7bfd3a09ee7748110bda690ff7
     Pseudo is Ultrasoft, Zval =  1.0
     Generated by new atomic code, or converted to UPF format
     Using radial grid of  615 points,  1 beta functions with:
                l(1) =   0
     Q(r) pseudized with  8 coefficients,  rinner =    0.800

     atomic species   valence    mass     pseudopotential
        Ti1           12.00    47.86700     Ti( 1.00)
        O1             6.00    15.99900     O ( 1.00)
        N1             5.00    14.00700     N ( 1.00)
        C1             4.00    12.01100     C ( 1.00)
        H1             1.00     1.00800     H ( 1.00)

     Starting magnetic structure
     atomic species   magnetization
        Ti1          0.083
        O1           0.167
        N1           0.200
        C1           0.250
        H1           1.000

     No symmetry found

   Cartesian axes

     site n.     atom                  positions (alat units)
         1           Ti1 tau(   1) = (   0.0004258   2.9801865   6.0000000  )
         2           Ti1 tau(   2) = (   3.2906075   1.4906267   6.0002472  )
         3           O1  tau(   3) = (   0.0006271   0.0005054   7.9858123  )
         4           O1  tau(   4) = (   3.2906025   0.0005020   7.3038282  )
         5           O1  tau(   5) = (   4.5942328   1.4918067   9.2879030  )
         6           O1  tau(   6) = (   1.9868534   1.4903216   9.2879459  )
         7           Ti1 tau(   7) = (   3.2907910   2.8959150   9.1758416  )
         8           Ti1 tau(   8) = (   0.0015273   1.4827037   9.2680791  )
         9           O1  tau(   9) = (   3.2741875   5.9357071  11.3735532  )
        10           O1  tau(  10) = (   0.0116148   5.9584955  10.6183126  )
        11           O1  tau(  11) = (   1.2759687   1.4857368  12.6615302  )
        12           O1  tau(  12) = (   5.2764777   1.4850508  12.6403612  )
        13           Ti1 tau(  13) = (   6.5724762   2.9646551  12.5117882  )
        14           Ti1 tau(  14) = (   3.2886223   1.4652571  12.5194246  )
        15           O1  tau(  15) = (   6.5416971   0.0664024  14.6986244  )
        16           O1  tau(  16) = (   3.2828258   5.9593040  13.9967703  )
        17           O1  tau(  17) = (   4.5136565   1.4796660  16.2299008  )
        18           O1  tau(  18) = (   2.0038615   1.4742267  16.2123189  )
        19           Ti1 tau(  19) = (   3.2480181   2.9445974  15.7466143  )
        20           Ti1 tau(  20) = (   6.5118905   1.3801257  16.1190456  )
        21           O1  tau(  21) = (   3.2904802   0.0005063   4.7018136  )
        22           O1  tau(  22) = (   6.5538845   5.8109167  17.2256470  )
        23           O1  tau(  23) = (   1.3043587   1.4918075   6.0039043  )
        24           O1  tau(  24) = (   5.2767064   1.4903225   6.0039473  )
        25           Ti1 tau(  25) = (   0.0000382   5.9609847   6.0000000  )
        26           Ti1 tau(  26) = (   3.2902200   4.4714249   6.0002472  )
        27           O1  tau(  27) = (   0.0002396   2.9813036   7.9858123  )
        28           O1  tau(  28) = (   3.2902150   2.9813002   7.3038282  )
        29           O1  tau(  29) = (   4.5938453   4.4726049   9.2879030  )
        30           O1  tau(  30) = (   1.9864658   4.4711199   9.2879459  )
        31           Ti1 tau(  31) = (   3.2891106   5.8743827   9.1763621  )
        32           Ti1 tau(  32) = (   0.0006254   4.4649316   9.2693709  )
        33           O1  tau(  33) = (   3.2754078   2.9701464  11.3677572  )
        34           O1  tau(  34) = (   0.0092240   2.9805883  10.6323155  )
        35           O1  tau(  35) = (   1.2711598   4.4556272  12.7031535  )
        36           O1  tau(  36) = (   5.2783420   4.4558858  12.6781970  )
        37           Ti1 tau(  37) = (   0.0002938   5.9583472  12.5066983  )
        38           Ti1 tau(  38) = (   3.2916940   4.4447674  12.5292973  )
        39           O1  tau(  39) = (   6.5347695   2.9176514  14.9891124  )
        40           O1  tau(  40) = (   3.2818703   2.9467213  13.9608579  )
        41           O1  tau(  41) = (   4.5039121   4.4250859  16.1805084  )
        42           O1  tau(  42) = (   2.0002864   4.4376668  16.1101511  )
        43           Ti1 tau(  43) = (   3.2613398   5.9375382  15.7939200  )
        44           Ti1 tau(  44) = (   0.0097882   4.6113729  15.8292928  )
        45           O1  tau(  45) = (   3.2900926   2.9813045   4.7018136  )
        46           O1  tau(  46) = (   1.3039711   4.4726057   6.0039043  )
        47           O1  tau(  47) = (   5.2763189   4.4711207   6.0039473  )
        48           N1  tau(  48) = (   6.5527080   2.6566917  18.2311642  )
        49           C1  tau(  49) = (   0.9950107   2.5313988  18.9921798  )
        50           H1  tau(  50) = (   0.9966315   2.9146593  20.0110098  )
        51           H1  tau(  51) = (   1.8622571   2.0164067  18.6108951  )
        52           N1  tau(  52) = (   5.4094651   3.2293427  18.7544413  )
        53           H1  tau(  53) = (   5.6216840   3.8708726  19.5154782  )
        54           H1  tau(  54) = (   4.9168071   3.7283298  18.0160565  )

     number of k points=    10  Fermi-Dirac smearing, width (Ry)=  0.0073
                       cart. coord. in units 2pi/alat
        k(    1) = (   0.0000000   0.0000000   0.0000000), wk =   0.0625000
        k(    2) = (   0.0000000   0.0419351   0.0000000), wk =   0.1250000
        k(    3) = (   0.0000000  -0.0838702   0.0000000), wk =   0.0625000
        k(    4) = (   0.0379955   0.0000049   0.0000000), wk =   0.1250000
        k(    5) = (   0.0379955   0.0419400   0.0000000), wk =   0.1250000
        k(    6) = (   0.0379955  -0.0838652   0.0000000), wk =   0.1250000
[...]
     atom  17 (R=0.737)  charge=  4.9977  magn= -0.0046
     atom  18 (R=0.737)  charge=  4.9920  magn= -0.0044
     atom  19 (R=0.737)  charge=  8.0556  magn=  0.0481
     atom  20 (R=0.737)  charge=  8.0320  magn=  0.0272
     atom  21 (R=0.737)  charge=  4.8913  magn= -0.0029
     atom  22 (R=0.737)  charge=  4.9749  magn= -0.0022
     atom  23 (R=0.737)  charge=  5.0032  magn= -0.0082
     atom  24 (R=0.737)  charge=  5.0033  magn= -0.0083
     atom  25 (R=0.737)  charge=  8.0352  magn=  0.0791
     atom  26 (R=0.737)  charge=  8.0167  magn=  0.0035
     atom  27 (R=0.737)  charge=  5.0056  magn= -0.0107
     atom  28 (R=0.737)  charge=  5.0429  magn= -0.0010
     atom  29 (R=0.737)  charge=  5.0128  magn= -0.0026
     atom  30 (R=0.737)  charge=  5.0131  magn= -0.0026
     atom  31 (R=0.737)  charge=  8.0167  magn=  0.0064
     atom  32 (R=0.737)  charge=  8.0179  magn=  0.0759
     atom  33 (R=0.737)  charge=  5.0183  magn= -0.0029
     atom  34 (R=0.737)  charge=  5.0152  magn= -0.0057
     atom  35 (R=0.737)  charge=  5.0065  magn= -0.0032
     atom  36 (R=0.737)  charge=  5.0073  magn= -0.0032
     atom  37 (R=0.737)  charge=  8.0197  magn=  0.0276
     atom  38 (R=0.737)  charge=  8.0227  magn=  0.0233
     atom  39 (R=0.737)  charge=  4.9957  magn= -0.0020
     atom  40 (R=0.737)  charge=  5.0302  magn= -0.0043
     atom  41 (R=0.737)  charge=  4.9910  magn= -0.0032
     atom  42 (R=0.737)  charge=  5.0039  magn= -0.0033
     atom  43 (R=0.737)  charge=  8.0529  magn=  0.0476
     atom  44 (R=0.737)  charge=  8.0666  magn=  0.0104
     atom  45 (R=0.737)  charge=  4.8913  magn= -0.0029
     atom  46 (R=0.737)  charge=  5.0032  magn= -0.0083
     atom  47 (R=0.737)  charge=  5.0033  magn= -0.0082
     atom  48 (R=0.420)  charge=  1.3233  magn= -0.0001
     atom  49 (R=0.445)  charge=  0.8406  magn=  0.0003
     atom  50 (R=0.420)  charge=  0.4403  magn= -0.0000
     atom  51 (R=0.420)  charge=  0.4405  magn= -0.0000
     atom  52 (R=0.420)  charge=  1.3387  magn= -0.0000
     atom  53 (R=0.420)  charge=  0.4568  magn=  0.0000
     atom  54 (R=0.420)  charge=  0.4467  magn= -0.0000

     End of self-consistent calculation

 ------ SPIN UP ------------

          k = 0.0000 0.0000 0.0000 ( 18029 PWs)   bands (ev):

   -55.4437 -55.4291 -55.4073 -55.3952 -55.3302 -55.3257 -55.3152 -55.2913
   -55.2624 -55.2572 -55.2427 -55.2279 -55.2092 -55.0631 -54.3976 -54.3636
   -32.0038 -31.8818 -31.8374 -31.8059 -31.7698 -31.7609 -31.7557 -31.7319
   -31.7298 -31.6850 -31.6756 -31.6544 -31.6511 -31.6172 -31.5990 -31.5929
   -31.5909 -31.5904 -31.5804 -31.5527 -31.5507 -31.5424 -31.5041 -31.5034
   -31.4987 -31.4978 -31.4757 -31.4654 -31.4582 -31.4488 -31.4458 -31.4371
   -31.4339 -31.4206 -31.4082 -31.3999 -31.3942 -31.3800 -31.3766 -31.3531
   -31.2857 -31.2254 -30.8053 -30.7137 -30.6910 -30.6233 -30.5366 -30.4240
   -18.5952 -16.2481 -15.9752 -15.8347 -15.7126 -15.6064 -15.4880 -15.4670
   -15.3359 -15.2451 -15.1406 -15.0942 -15.0827 -15.0812 -15.0501 -15.0221
   -14.9556 -14.9486 -14.9372 -14.9002 -14.8912 -14.8493 -14.8459 -14.8084
   -14.7847 -14.7803 -14.6636 -14.5701 -14.4931 -14.1813 -13.6752 -12.8936
   -12.7760  -8.7533  -6.4855  -6.0589  -3.9996  -3.5950  -3.4387  -3.3835
    -3.3423  -3.3073  -3.2043  -3.1688  -3.0267  -2.8317  -2.7822  -2.6901
    -2.6256  -2.6199  -2.6013  -2.4183  -2.4127  -2.3546  -2.3038  -2.2612
    -2.2415  -2.2235  -2.2050  -2.1811  -2.1702  -2.1618  -1.9845  -1.9712
    -1.9021  -1.8251  -1.8204  -1.7658  -1.7415  -1.7130  -1.7031  -1.6965
    -1.6532  -1.6321  -1.6035  -1.5547  -1.4278  -1.3393  -1.3095  -1.2270
    -1.1013  -1.0510  -1.0015  -0.9970  -0.9041  -0.8996  -0.8825  -0.7908
    -0.7619  -0.7139  -0.6393  -0.5706  -0.5140  -0.4550  -0.4079  -0.3962
    -0.3444  -0.2250  -0.1999  -0.1751  -0.1559  -0.0372  -0.0157   0.0239
     0.0969   0.1259   0.1280   0.2452   0.2694   0.3273   0.3340   0.4089
     0.4721   0.5132   0.5244   0.5419   0.5718   0.5793   0.6476   0.6610
     0.6952   0.7605   0.8259   0.9226   1.1497   1.1895   1.2015   1.5354
     1.5358   1.6301   1.8135   2.2092   2.2547   3.6048   3.7176   3.7458
     3.7922   3.7998   3.8925   4.1330   4.1406   4.1491   4.1617   4.2068

[...]

          k =-0.0760-0.0000 0.0000 ( 17886 PWs)   bands (ev):

[...]

 ------ SPIN DOWN ----------

[...]

          k = 0.0380-0.0419 0.0000 ( 17876 PWs)   bands (ev):

[...]

          k =-0.0760-0.0839 0.0000 ( 17948 PWs)   bands (ev):

   -55.3862 -55.3766 -55.2704 -55.2701 -55.2651 -55.2621 -55.2576 -55.2393
   -55.2165 -55.2127 -55.1743 -55.1078 -55.1058 -55.0456 -54.3742 -54.3741
   -31.7835 -31.7769 -31.7310 -31.6660 -31.6541 -31.6386 -31.6385 -31.6130
   -31.6041 -31.5900 -31.5829 -31.5475 -31.5466 -31.5465 -31.5430 -31.5297
   -31.5282 -31.5252 -31.5197 -31.5172 -31.4941 -31.4788 -31.4553 -31.4494
   -31.4490 -31.4448 -31.4402 -31.4372 -31.4367 -31.4339 -31.4262 -31.4087
   -31.4054 -31.3789 -31.3784 -31.3723 -31.3707 -31.3581 -31.2889 -31.2779
   -31.2764 -31.2667 -30.6961 -30.6961 -30.6142 -30.6141 -30.5734 -30.5733
   -18.5929 -15.7139 -15.6817 -15.6246 -15.4412 -15.4133 -15.4087 -15.3899
   -15.2578 -15.2423 -15.2112 -15.1819 -15.1503 -15.1251 -15.1207 -15.1034
   -15.0352 -15.0262 -15.0168 -15.0004 -14.9314 -14.9274 -14.9188 -14.9139
   -14.8661 -14.8633 -14.7674 -14.7659 -14.6691 -14.5535 -13.6809 -12.8833
   -12.8832  -8.7342  -6.4589  -6.0732  -4.0079  -3.2640  -2.9436  -2.8771
    -2.8430  -2.6389  -2.6279  -2.5859  -2.5274  -2.4439  -2.4197  -2.4131
    -2.4063  -2.3316  -2.3264  -2.2719  -2.2639  -2.2455  -2.2313  -2.2200
    -2.1918  -2.1626  -2.1380  -2.1291  -2.1199  -2.0656  -2.0529  -2.0361
    -2.0054  -1.9858  -1.9773  -1.9598  -1.8620  -1.7813  -1.7525  -1.7233
    -1.6180  -1.6137  -1.5331  -1.5151  -1.4844  -1.4417  -1.4317  -1.4116
    -1.2324  -1.2050  -1.1703  -1.1570  -1.1494  -1.0087  -0.9962  -0.9399
    -0.8988  -0.8908  -0.7851  -0.7598  -0.7369  -0.6600  -0.6266  -0.5906
    -0.5397  -0.4325  -0.4151  -0.4048  -0.3703  -0.3661  -0.3088  -0.2968
    -0.2220  -0.1765  -0.1469  -0.1330  -0.0895   0.0953   0.1190   0.1335
     0.2763   0.3302   0.4232   0.5235   0.5346   0.5889   0.6273   0.6966
     0.7580   0.8178   0.8705   0.8912   0.8926   0.9676   0.9851   1.0425
     1.0444   1.9843   1.9849   2.0730   2.0734   3.8782   3.9610   3.9808
     4.0110   4.0836   4.1513   4.2425   4.2682   4.2995   4.3028   4.3866

     the Fermi energy is     3.7378 ev

!    total energy              =   -2940.36725262 Ry
     estimated scf accuracy    <       0.00000007 Ry
     smearing contrib. (-TS)   =      -0.03584360 Ry
     internal energy E=F+TS    =   -2940.33140902 Ry

     total magnetization       =     0.76 Bohr mag/cell
     absolute magnetization    =     1.05 Bohr mag/cell

     convergence has been achieved in 113 iterations

     Forces acting on atoms (cartesian axes, Ry/au):

     atom    1 type  1   force =     0.00007792   -0.00014073    0.09336577
     atom    2 type  1   force =    -0.00004896   -0.00026526   -0.17828644
     atom    3 type  2   force =     0.00002336   -0.00016684   -0.02008922
     atom    4 type  2   force =     0.00000785   -0.00197069    0.05880587
     atom    5 type  2   force =    -0.01101113   -0.00122069    0.00878311
     atom    6 type  2   force =     0.01210353   -0.00056772    0.00690397
     atom    7 type  1   force =    -0.00090479    0.00286528   -0.01477258
     atom    8 type  1   force =     0.00064016   -0.00045185   -0.00415083
     atom    9 type  2   force =     0.00014357    0.00009731    0.00020219
     atom   10 type  2   force =    -0.00209575   -0.00119899    0.00134709
     atom   11 type  2   force =     0.00004940    0.00021335   -0.00006046
     atom   12 type  2   force =     0.00059672    0.00028839   -0.00001209
     atom   13 type  1   force =    -0.00011258    0.00030559   -0.00046379
     atom   14 type  1   force =     0.00012363    0.00047770   -0.00025435
     atom   15 type  2   force =     0.00001440    0.00034424   -0.00001014
     atom   16 type  2   force =     0.00042009    0.00015802   -0.00071830
     atom   17 type  2   force =     0.00056605   -0.00032382   -0.00026944
     atom   18 type  2   force =    -0.00011324   -0.00050592    0.00021819
     atom   19 type  1   force =    -0.00093552   -0.00033862    0.00034566
     atom   20 type  1   force =     0.00021487   -0.00000004   -0.00017509
     atom   21 type  2   force =     0.00009811    0.00000509    0.10398219
     atom   22 type  2   force =    -0.00020791    0.00009899    0.00009064
     atom   23 type  2   force =    -0.07034342   -0.00012027   -0.02695358
     atom   24 type  2   force =     0.07027220    0.00033356   -0.02699194
     atom   25 type  1   force =     0.00009564   -0.00020118    0.09291025
     atom   26 type  1   force =    -0.00004891   -0.00032437   -0.17828342
     atom   27 type  2   force =     0.00011209   -0.00034532   -0.01916683
     atom   28 type  2   force =     0.00004011   -0.00166481    0.05823144
     atom   29 type  2   force =    -0.01098746   -0.00122709    0.00811145
     atom   30 type  2   force =     0.01198662   -0.00083390    0.00616831
     atom   31 type  1   force =    -0.00089726    0.00479538   -0.01576412
     atom   32 type  1   force =     0.00081889    0.00016103   -0.00436521
     atom   33 type  2   force =     0.00010255    0.00047328    0.00033728
     atom   34 type  2   force =    -0.00177683    0.00106260    0.00141134
     atom   35 type  2   force =     0.00029848    0.00006690    0.00014430
     atom   36 type  2   force =     0.00026842   -0.00024759    0.00025221
     atom   37 type  1   force =    -0.00034557    0.00001225   -0.00066146
     atom   38 type  1   force =    -0.00023905    0.00049077   -0.00004134
     atom   39 type  2   force =     0.00049168   -0.00075342   -0.00004046
     atom   40 type  2   force =    -0.00014987    0.00009068   -0.00044811
     atom   41 type  2   force =     0.00033520   -0.00011122   -0.00010485
     atom   42 type  2   force =    -0.00010293    0.00010232    0.00002390
     atom   43 type  1   force =    -0.00024512    0.00008937    0.00015826
     atom   44 type  1   force =     0.00015658    0.00012052   -0.00011207
     atom   45 type  2   force =     0.00010889   -0.00002812    0.10395721
     atom   46 type  2   force =    -0.07035444   -0.00005338   -0.02695442
     atom   47 type  2   force =     0.07030104    0.00036988   -0.02696515
     atom   48 type  3   force =    -0.00075134    0.00015076   -0.00052862
     atom   49 type  4   force =     0.00108350   -0.00038685    0.00004715
     atom   50 type  5   force =     0.00053223   -0.00016634    0.00042625
     atom   51 type  5   force =    -0.00036842   -0.00005590   -0.00039835
     atom   52 type  3   force =     0.00049085    0.00084203    0.00011872
     atom   53 type  5   force =    -0.00027061   -0.00032539    0.00100925
     atom   54 type  5   force =    -0.00026355   -0.00001898   -0.00030934

     Total force =     0.366309     Total SCF correction =     0.000316
  @ DRIVER MODE: Message from server: STATUS
  @ DRIVER MODE: Message from server: GETFORCE
  @ DRIVER MODE: Returning v,forces,stress

     Writing config to output data dir ./calc.save/
  @ DRIVER MODE: Message from server: STATUS
  @ DRIVER MODE: Message from server: INIT
  @ DRIVER MODE: Receiving replica           0           0
  @ DRIVER MODE: Receiving parameter string
 lscf : 0, lforce : 0, lstress : 0, lmovecell : 0, lensemb : 1,
  @ DRIVER MODE: Message from server: STATUS
  @ DRIVER MODE: Message from server: POSDATA
  @ DRIVER MODE: Reading and sharing cell
  @ DRIVER MODE: Reading and sharing positions
  @ DRIVER MODE: Received positions
     NEW-OLD atomic charge density approx. for the potential

[...]

     Adding external electric field

     Computed dipole along edir(3) :
        Dipole                1.2685 Ry au,          3.2242 Debye
        Dipole field          0.0024 Ry au,

        Potential amp.       -0.2219 Ry
        Total length         46.3494 bohr

     Generating pointlists ...
  @ DRIVER MODE: BEEF-vdw

[...]

     negative rho (up, down):  8.253E-03 8.254E-03

     negative rho (up, down):  8.253E-03 8.254E-03
 BEEFens 2000 ensemble energies
             -0.348813941137846E+02
             -0.202614803333483E+01
             -0.719435470766130E+01
              0.242134319320638E+02
             -0.119895899125515E+02
             -0.927670437152054E+01
             -0.242013925307785E+02
             -0.506148070887616E+02
             -0.216026402322508E+02
             -0.227505930203642E+02
             -0.211143127150489E+02
              0.426771420607623E+01
              0.200032415224003E+01
             -0.105895836627644E+01
              0.174025865007629E+01
              0.266661980364852E+02
             -0.102865532719023E+02
             -0.726031056654276E+01
              0.118090918279320E+02
             -0.622945144865170E+02
              0.312311670127477E+02
             -0.133958700210831E+02
             -0.242514326519384E+01
             -0.563705127722146E+01
             -0.973617815924683E+00
             -0.214431340896061E+01
              0.483151167773651E+02
             -0.151046473221999E+02
             -0.404279900758928E+01
             -0.305515748191739E+02
              0.395003817577151E+02
             -0.437462800905226E+01
             -0.214988115002997E+02
              0.112914272923163E+02
             -0.206409568144988E+01
              0.130979409257648E+02
             -0.549723062492006E+00
              0.273937444402983E+01
              0.190461555228849E+02
             -0.549886371563590E+02
              0.306408010493329E+02
              0.816947977853962E+01
             -0.628495145590637E+01
             -0.175848877581010E+02
              0.693846116732314E+01
             -0.110084029685163E+02
              0.250557250302692E+02
              0.200107852083495E+02
             -0.129055845599046E+02
             -0.164661209854224E+02
             -0.174084450489206E+02
             -0.209153908989609E+02
              0.106215516147884E+02
             -0.272547863322635E+02
              0.834483553228006E+01
              0.348118689609295E+02
              0.401363754474298E+02
              0.186994180718560E+02
              0.835597239405148E+01
              0.174465137044593E+02
[...]
             -0.410479299705511E+02
              0.279244471889564E+01
             -0.144962999843408E+01
             -0.571497950462066E+01
              0.510002682722188E-01
             -0.365429484760759E+02
             -0.705791292098961E+01
              0.495602998716204E+01
              0.745603870513949E+01
              0.273893332000770E+02
             -0.239348127983713E+02
              0.312419635290543E+02
             -0.223707573014258E+02
              0.143770339608540E+02
              0.226271150254247E+02

 BEEF-vdW xc energy contributions
           1 :   -411.851953265597
           2 :    358.819345750466
           3 :   -273.272402276836
           4 :    184.021745525630
           5 :   -113.964459845559
           6 :    72.1019176784371
           7 :   -54.5962496601152
           8 :    51.3337632091767
           9 :   -52.8847042246547
          10 :    54.0275131831853
          11 :   -53.5301266931128
          12 :    51.9257807736711
          13 :   -49.6478065579462
          14 :    46.4726346068796
          15 :   -42.0653742997786
          16 :    36.6198207530779
          17 :   -31.0297781465313
          18 :    26.4526227211055
          19 :   -23.7214464732227
          20 :    22.9666709178250
          21 :   -23.6978945136146
          22 :    25.1424391262586
          23 :   -26.6035185113230
          24 :    27.5905809971263
          25 :   -27.8011231313545
          26 :    27.0544137172440
          27 :   -25.3198283163645
          28 :    22.7832114679260
          29 :   -19.8920543232493
          30 :    17.2552651279919
          31 :   -48.4520434002341
          32 :   -32.9078614554428
  @ DRIVER MODE: Message from server: STATUS
  @ DRIVER MODE: Message from server: GETFORCE
  @ DRIVER MODE: Returning v,forces,stress
  @ DRIVE MODE: Returning Ensemble Energies
  @ DRIVE MODE: Returning Ensemble Energies
  @ DRIVE MODE: Returning Ensemble Energies
  @ DRIVE MODE: Returning Ensemble Energies
  @ DRIVE MODE: Returning Ensemble Energies
  @ DRIVE MODE: Returning Ensemble Energies

     Writing config to output data dir ./calc.save/
  @ DRIVER MODE: Message from server: EXIT
  @ DRIVE MODE: Exiting

     General routines

     Parallel routines

   This run was terminated on:  16:12:13  16Aug2022

   JOB DONE.