     Program PWSCF v.6.7GPU starts on  9Sep2021 at 13:43:41

     R & G space division:  proc/nbgrp/npool/nimage =      10
     Reading input from /storage/home/hcoda1/3/ntian30/research/carbon/CxH_vib/CH2_calc/ads_slab/CH2NNHHH_a/out_0047/pw.inp
Warning: card &CELL ignored
Warning: card   CELL_DYNAMICS='IPI', ignored
Warning: card / ignored

     Current dimensions of program PWSCF are:
     Max number of different atomic species (ntypx) = 10
     Max number of k-points (npk) =  40000
     Max angular momentum in pseudopotentials (lmaxx) =  3
     Presently no symmetry can be used with electric field

     Message from routine cell_base_init:
     DEPRECATED: use true lattice parameter, not A to a.u. conversion factor

     IMPORTANT: XC functional enforced from input :
     Exchange-correlation= BEEF-VDW
                           (   1   4  43  14   2   0   0)
     Any further DFT definition will be discarded
     Please, verify this is what you really want

  @ DRIVER MODE: Connecting to
 qe_1139763_2767390.sched-torque.pace.gatech.edu695syvbn_scratch
  using UNIX socket
  @ DRIVER MODE: Message from server: STATUS
  @ DRIVER MODE: Message from server: INIT
  @ DRIVER MODE: Receiving replica           0          -1
  @ DRIVER MODE: Receiving encoded integer          25
  @ DRIVER MODE:  SCF:  T  FORCE:  T  STRESS:  F  VC:  F  ENSEMBLE:  F
  @ DRIVER MODE:  SCF:  T  FORCE:  T  STRESS:  F  VC:  F  ENSEMBLE:  F

     Using Slab Decomposition

     bravais-lattice index     =            0
     lattice parameter (alat)  =       1.8897  a.u.
     unit-cell volume          =    6658.9804 (a.u.)^3
     number of atoms/cell      =           55
     number of atomic types    =            5
     number of electrons       =       397.00
     number of Kohn-Sham states=          208
     kinetic-energy cutoff     =      29.3995  Ry
     charge density cutoff     =     293.9946  Ry
     scf convergence threshold =      7.3E-08
     mixing beta               =       0.0500
     number of iterations used =            8  plain     mixing
     Exchange-correlation= BEEF-VDW
                           (   1   4  43  14   2   0   0)

     celldm(1)=   1.889726  celldm(2)=   0.000000  celldm(3)=   0.000000
     celldm(4)=   0.000000  celldm(5)=   0.000000  celldm(6)=   0.000000

     crystal axes: (cart. coord. in units of alat)
               a(1) = (   6.579727   0.000000   0.000000 )
               a(2) = (  -0.000775   5.961596   0.000000 )
               a(3) = (   0.000000   0.000000  25.155947 )

     reciprocal axes: (cart. coord. in units 2 pi/alat)
               b(1) = (  0.151982  0.000020  0.000000 )
               b(2) = (  0.000000  0.167740  0.000000 )
               b(3) = (  0.000000  0.000000  0.039752 )

     PseudoPot. # 1 for Ti read from file:
     /storage/coda1/p-amedford6/0/shared/rich_project_chbe-medford/medford-share/data/pseudos_module/espresso/nninc/pbe/van/Ti.UPF
     MD5 check sum: 8e4df49b7f0d34bbd5052bf3f5ea0213
     Pseudo is Ultrasoft, Zval = 12.0
     Generated by new atomic code, or converted to UPF format
     Using radial grid of  851 points,  6 beta functions with:
                l(1) =   0
                l(2) =   0
                l(3) =   1
                l(4) =   1
                l(5) =   2
                l(6) =   2
     Q(r) pseudized with  8 coefficients,  rinner =    1.000   1.000   1.000
                                                       1.000   1.000

     PseudoPot. # 2 for O  read from file:
     /storage/coda1/p-amedford6/0/shared/rich_project_chbe-medford/medford-share/data/pseudos_module/espresso/nninc/pbe/van/O.UPF
     MD5 check sum: 78c19812648e8988a0fe644b0f25305e
     Pseudo is Ultrasoft, Zval =  6.0
     Generated by new atomic code, or converted to UPF format
     Using radial grid of  737 points,  4 beta functions with:
                l(1) =   0
                l(2) =   0
                l(3) =   1
                l(4) =   1
     Q(r) pseudized with  8 coefficients,  rinner =    0.800   0.800   0.800

     PseudoPot. # 3 for N  read from file:
     /storage/coda1/p-amedford6/0/shared/rich_project_chbe-medford/medford-share/data/pseudos_module/espresso/nninc/pbe/van/N.UPF
     MD5 check sum: 90d10febe142ad51ac9d5be1deb811c4
     Pseudo is Ultrasoft, Zval =  5.0
     Generated by new atomic code, or converted to UPF format
     Using radial grid of  729 points,  4 beta functions with:
                l(1) =   0
                l(2) =   0
                l(3) =   1
                l(4) =   1
     Q(r) pseudized with  8 coefficients,  rinner =    0.800   0.800   0.800

     PseudoPot. # 4 for C  read from file:
     /storage/coda1/p-amedford6/0/shared/rich_project_chbe-medford/medford-share/data/pseudos_module/espresso/nninc/pbe/van/C.UPF
     MD5 check sum: 1a69bf6b8db32088f5b2163dbdb77a27
     Pseudo is Ultrasoft, Zval =  4.0
     Generated by new atomic code, or converted to UPF format
     Using radial grid of  721 points,  4 beta functions with:
                l(1) =   0
                l(2) =   0
                l(3) =   1
                l(4) =   1
     Q(r) pseudized with  8 coefficients,  rinner =    0.800   0.800   0.800

     PseudoPot. # 5 for H  read from file:
     /storage/coda1/p-amedford6/0/shared/rich_project_chbe-medford/medford-share/data/pseudos_module/espresso/nninc/pbe/van/H.UPF
     MD5 check sum: b5ee9d7bfd3a09ee7748110bda690ff7
     Pseudo is Ultrasoft, Zval =  1.0
     Generated by new atomic code, or converted to UPF format
     Using radial grid of  615 points,  1 beta functions with:
                l(1) =   0
     Q(r) pseudized with  8 coefficients,  rinner =    0.800

     atomic species   valence    mass     pseudopotential
        Ti1           12.00    47.86700     Ti( 1.00)
        O1             6.00    15.99900     O ( 1.00)
        N1             5.00    14.00700     N ( 1.00)
        C1             4.00    12.01100     C ( 1.00)
        H1             1.00     1.00800     H ( 1.00)

     No symmetry found

   Cartesian axes

     site n.     atom                  positions (alat units)
         1           Ti1 tau(   1) = (   0.0004258   2.9801865   6.0000000  )
         2           Ti1 tau(   2) = (   3.2906075   1.4906267   6.0002472  )
         3           O1  tau(   3) = (   0.0006271   0.0005054   7.9858123  )
         4           O1  tau(   4) = (   3.2906025   0.0005020   7.3038282  )
         5           O1  tau(   5) = (   4.5942328   1.4918067   9.2879030  )
         6           O1  tau(   6) = (   1.9868534   1.4903216   9.2879459  )
         7           Ti1 tau(   7) = (   3.2907910   2.8959150   9.1758416  )
         8           Ti1 tau(   8) = (   0.0015273   1.4827037   9.2680791  )
         9           O1  tau(   9) = (   3.2797308   5.9473376  11.3602069  )
        10           O1  tau(  10) = (   0.0116148   5.9584955  10.6183126  )
        11           O1  tau(  11) = (   1.2902197   1.4970218  12.6485984  )
        12           O1  tau(  12) = (   5.2825647   1.4998509  12.6204812  )
        13           Ti1 tau(  13) = (   6.5707130   2.9731531  12.5352273  )
        14           Ti1 tau(  14) = (   3.2824754   1.4851695  12.4964603  )
        15           O1  tau(  15) = (   6.5335774   0.0914421  14.6722524  )
        16           O1  tau(  16) = (   3.3157438   0.0180770  13.9903400  )
        17           O1  tau(  17) = (   4.5084513   1.5196572  16.2619966  )
        18           O1  tau(  18) = (   2.0062152   1.4815140  16.1839734  )
        19           Ti1 tau(  19) = (   3.2259906   2.9465836  15.7211513  )
        20           Ti1 tau(  20) = (   6.5090593   1.4075841  16.1508600  )
        21           O1  tau(  21) = (   3.2904802   0.0005063   4.7018136  )
        22           O1  tau(  22) = (   6.5630310   5.8123487  17.2302531  )
        23           O1  tau(  23) = (   1.3043587   1.4918075   6.0039043  )
        24           O1  tau(  24) = (   5.2767064   1.4903225   6.0039473  )
        25           Ti1 tau(  25) = (   0.0000382   5.9609847   6.0000000  )
        26           Ti1 tau(  26) = (   3.2902200   4.4714249   6.0002472  )
        27           O1  tau(  27) = (   0.0002396   2.9813036   7.9858123  )
        28           O1  tau(  28) = (   3.2902150   2.9813002   7.3038282  )
        29           O1  tau(  29) = (   4.5938453   4.4726049   9.2879030  )
        30           O1  tau(  30) = (   1.9864658   4.4711199   9.2879459  )
        31           Ti1 tau(  31) = (   3.2891106   5.8743827   9.1763621  )
        32           Ti1 tau(  32) = (   0.0006254   4.4649316   9.2693709  )
        33           O1  tau(  33) = (   3.2783824   2.9878764  11.3535400  )
        34           O1  tau(  34) = (   0.0092240   2.9805883  10.6323155  )
        35           O1  tau(  35) = (   1.2857266   4.4729298  12.7006550  )
        36           O1  tau(  36) = (   5.2845514   4.4687958  12.6640455  )
        37           Ti1 tau(  37) = (   6.5734551   0.0101047  12.5124135  )
        38           Ti1 tau(  38) = (   3.2852174   4.4611384  12.5175569  )
        39           O1  tau(  39) = (   6.5279837   2.9480221  14.9030702  )
        40           O1  tau(  40) = (   3.2956390   2.9588503  13.9390168  )
        41           O1  tau(  41) = (   4.4992944   4.4159585  16.2207858  )
        42           O1  tau(  42) = (   2.0104883   4.4624356  16.0673450  )
        43           Ti1 tau(  43) = (   3.2790961   0.0058003  15.7788240  )
        44           Ti1 tau(  44) = (   0.0606790   4.6093333  15.7554573  )
        45           O1  tau(  45) = (   3.2900926   2.9813045   4.7018136  )
        46           O1  tau(  46) = (   1.3039711   4.4726057   6.0039043  )
        47           O1  tau(  47) = (   5.2763189   4.4711207   6.0039473  )
        48           N1  tau(  48) = (   0.0403274   2.7191540  18.0026804  )
        49           C1  tau(  49) = (   0.9398849   2.4944932  18.9664025  )
        50           H1  tau(  50) = (   0.9073005   3.0183022  19.9142263  )
        51           H1  tau(  51) = (   1.7098349   1.7704235  18.7615287  )
        52           N1  tau(  52) = (   5.5765855   3.6054979  18.4816711  )
        53           H1  tau(  53) = (   5.9881759   4.5320851  18.7147717  )
        54           H1  tau(  54) = (   4.9344470   3.8465857  17.6610935  )
        55           H1  tau(  55) = (   5.0674124   3.1947177  19.2667304  )

     number of k points=    10  Fermi-Dirac smearing, width (Ry)=  0.0073
                       cart. coord. in units 2pi/alat
        k(    1) = (   0.0000000   0.0000000   0.0000000), wk =   0.1250000
        k(    2) = (   0.0000000   0.0419351   0.0000000), wk =   0.2500000
        k(    3) = (   0.0000000  -0.0838702   0.0000000), wk =   0.1250000
        k(    4) = (   0.0379955   0.0000049   0.0000000), wk =   0.2500000
        k(    5) = (   0.0379955   0.0419400   0.0000000), wk =   0.2500000
        k(    6) = (   0.0379955  -0.0838652   0.0000000), wk =   0.2500000
        k(    7) = (   0.0379955  -0.0419301   0.0000000), wk =   0.2500000
        k(    8) = (  -0.0759910  -0.0000099   0.0000000), wk =   0.1250000
        k(    9) = (  -0.0759910   0.0419252   0.0000000), wk =   0.2500000
        k(   10) = (  -0.0759910  -0.0838800   0.0000000), wk =   0.1250000

     Initial potential from superposition of free atoms

     starting charge  380.99914, renormalised to  397.00000

     negative rho (up, down):  1.589E-02 0.000E+00

     %%%%%%%%%%%%%%%%%%%%%%%%%%%%%%%%%%%%%%%%%%%%%%%%%%%%%%%%%%%%%%%%%%%%%%%%
     %                                                                      %
     % You are using vdW-DF, which was implemented by the Thonhauser group. %
     % Please cite the following two papers that made this development      %
     % possible and the two reviews that describe the various versions:     %
     %                                                                      %
     %   T. Thonhauser et al., PRL 115, 136402 (2015).                      %
     %   T. Thonhauser et al., PRB 76, 125112 (2007).                       %
     %   K. Berland et al., Rep. Prog. Phys. 78, 066501 (2015).             %
     %   D.C. Langreth et al., J. Phys.: Condens. Matter 21, 084203 (2009). %
     %                                                                      %
     %                                                                      %
     % If you are calculating the stress with vdW-DF, please also cite:     %
     %                                                                      %
     %   R. Sabatini et al., J. Phys.: Condens. Matter 24, 424209 (2012).   %
     %                                                                      %
     %%%%%%%%%%%%%%%%%%%%%%%%%%%%%%%%%%%%%%%%%%%%%%%%%%%%%%%%%%%%%%%%%%%%%%%%

     Adding external electric field

     Computed dipole along edir(3) :
        Dipole              -10.3114 Ry au,        -26.2091 Debye
        Dipole field         -0.0195 Ry au,

        Potential amp.        1.8038 Ry
        Total length         46.3494 bohr

     Starting wfcs are  301 atomic wfcs
  @ DRIVER MODE: Message from server: STATUS
  @ DRIVER MODE: Message from server: POSDATA
  @ DRIVER MODE: Reading and sharing cell
  @ DRIVER MODE: Reading and sharing positions
  @ DRIVER MODE: Received positions

     Self-consistent Calculation

     iteration #  1     ecut=    29.40 Ry     beta= 0.05
     Davidson diagonalization with overlap
     c_bands:  3 eigenvalues not converged
     c_bands:  2 eigenvalues not converged
     c_bands:  3 eigenvalues not converged
     c_bands:  2 eigenvalues not converged
     c_bands:  3 eigenvalues not converged
     c_bands:  2 eigenvalues not converged
     c_bands:  3 eigenvalues not converged
     c_bands:  2 eigenvalues not converged
     c_bands:  2 eigenvalues not converged
     c_bands:  3 eigenvalues not converged
     ethr =  1.00E-05,  avg # of iterations = 20.0

[...]

     total energy              =   -2480.05181730 Ry
     estimated scf accuracy    <    5159.09573141 Ry

     iteration #  2     ecut=    29.40 Ry     beta= 0.05
     Davidson diagonalization with overlap
     ethr =  1.00E-02,  avg # of iterations = 22.5

[...]

     iteration # 66     ecut=    29.40 Ry     beta= 0.05
     Davidson diagonalization with overlap
     c_bands:  1 eigenvalues not converged
     c_bands:  1 eigenvalues not converged
     ethr =  3.65E-11,  avg # of iterations = 10.5

[...]

     total energy              =   -2941.49080227 Ry
     estimated scf accuracy    <       0.00000010 Ry

     iteration # 67     ecut=    29.40 Ry     beta= 0.05
     Davidson diagonalization with overlap
     ethr =  2.58E-11,  avg # of iterations =  9.8

     negative rho (up, down):  1.346E-02 0.000E+00

     Adding external electric field

     Computed dipole along edir(3) :
        Dipole                1.3654 Ry au,          3.4705 Debye
        Dipole field          0.0026 Ry au,

        Potential amp.       -0.2389 Ry
        Total length         46.3494 bohr

     End of self-consistent calculation

          k = 0.0000 0.0000 0.0000 ( 18029 PWs)   bands (ev):

   -55.2820 -55.2432 -55.2430 -55.2091 -55.1577 -55.1558 -55.1192 -55.0924
   -55.0752 -55.0740 -55.0577 -55.0407 -54.9544 -54.7889 -54.2612 -54.2271
   -31.8542 -31.7339 -31.6442 -31.6090 -31.5822 -31.5797 -31.5771 -31.5328
   -31.5301 -31.4899 -31.4883 -31.4877 -31.4552 -31.4524 -31.4384 -31.4169
   -31.4018 -31.3969 -31.3925 -31.3913 -31.3553 -31.3501 -31.3365 -31.3230
   -31.3001 -31.2950 -31.2886 -31.2846 -31.2722 -31.2690 -31.2593 -31.2492
   -31.2424 -31.2371 -31.2074 -31.2029 -31.1960 -31.1838 -31.1460 -31.1033
   -31.0597 -30.9303 -30.6700 -30.5772 -30.5550 -30.4864 -30.3997 -30.2888
   -19.2463 -16.1239 -15.8619 -15.7339 -15.5421 -15.4760 -15.3805 -15.2428
   -15.1914 -15.1313 -15.0809 -15.0408 -15.0274 -14.9618 -14.9047 -14.8162
   -14.8146 -14.7988 -14.7876 -14.7759 -14.7723 -14.7101 -14.7075 -14.6802
   -14.6656 -14.6553 -14.5147 -14.4307 -14.3692 -14.2906 -14.0254 -12.7637
   -12.6465  -9.1562  -7.8439  -7.0715  -6.0054  -3.8252  -3.4615  -3.2887
    -3.2424  -3.2017  -3.1768  -3.0083  -2.9267  -2.6593  -2.5917  -2.5517
    -2.5042  -2.4929  -2.4673  -2.2954  -2.2648  -2.2254  -2.1887  -2.1647
    -2.1249  -2.0969  -2.0809  -2.0518  -2.0388  -2.0367  -1.8544  -1.7840
    -1.7621  -1.7009  -1.6842  -1.6670  -1.6094  -1.5804  -1.5673  -1.5649
    -1.5424  -1.5251  -1.5024  -1.4597  -1.3740  -1.2810  -1.2373  -1.2155
    -1.1024  -1.0380  -0.9133  -0.8717  -0.8571  -0.8297  -0.7580  -0.6917
    -0.6637  -0.6280  -0.4882  -0.4835  -0.3989  -0.3895  -0.3161  -0.2995
    -0.2594  -0.2139  -0.1025  -0.0687  -0.0471   0.0043   0.0677   0.0898
     0.1717   0.2259   0.2827   0.2966   0.3761   0.4158   0.4535   0.4754
     0.5623   0.6042   0.6637   0.6701   0.7072   0.7105   0.7355   0.8220
     0.8354   0.8551   0.8959   1.0653   1.2653   1.3177   1.3386   1.6714
     1.6905   1.7615   1.9468   2.3362   2.3837   3.8190   3.8845   3.9551
     3.9695   3.9797   4.0514   4.0965   4.2864   4.3155   4.3185   4.3404

[...]

          k = 0.0380-0.0419 0.0000 ( 17876 PWs)   bands (ev):

[...]

          k =-0.0760-0.0000 0.0000 ( 17886 PWs)   bands (ev):

[...]

          k =-0.0760-0.0839 0.0000 ( 17948 PWs)   bands (ev):

   -55.2699 -55.2549 -55.2262 -55.2259 -55.1540 -55.1440 -55.1310 -55.0787
   -55.0761 -55.0732 -55.0578 -55.0574 -54.9528 -54.7903 -54.2441 -54.2440
   -31.6637 -31.6507 -31.5770 -31.5490 -31.5489 -31.5454 -31.5183 -31.5182
   -31.4908 -31.4822 -31.4777 -31.4739 -31.4195 -31.4106 -31.4105 -31.4071
   -31.4051 -31.4009 -31.3943 -31.3790 -31.3669 -31.3564 -31.3520 -31.3455
   -31.3453 -31.3432 -31.3420 -31.3262 -31.3095 -31.3065 -31.2902 -31.2874
   -31.2827 -31.2809 -31.2808 -31.2496 -31.2381 -31.2371 -31.1633 -31.0902
   -31.0605 -31.0080 -30.5677 -30.5677 -30.4826 -30.4825 -30.4431 -30.4430
   -19.2427 -15.5891 -15.5126 -15.4568 -15.3672 -15.2888 -15.2688 -15.2589
   -15.2258 -15.1590 -15.1359 -15.0704 -15.0354 -14.9896 -14.9868 -14.9717
   -14.8870 -14.8678 -14.8527 -14.8484 -14.7874 -14.7860 -14.7591 -14.7367
   -14.7300 -14.7263 -14.6264 -14.6254 -14.4617 -14.4357 -14.2081 -12.7481
   -12.7481  -9.1431  -7.8536  -7.0559  -6.0158  -3.8484  -2.8502  -2.7636
    -2.6742  -2.5178  -2.4805  -2.4704  -2.4162  -2.3247  -2.2987  -2.2853
    -2.2650  -2.2578  -2.1850  -2.1798  -2.1357  -2.1140  -2.1033  -2.0972
    -2.0635  -2.0504  -2.0366  -1.9998  -1.9914  -1.9754  -1.9409  -1.9212
    -1.8968  -1.8689  -1.8548  -1.8256  -1.7026  -1.6736  -1.6291  -1.5680
    -1.5422  -1.4750  -1.4698  -1.3694  -1.3555  -1.3448  -1.3036  -1.2896
    -1.2724  -1.1070  -1.0624  -1.0268  -1.0151  -1.0092  -0.8535  -0.8369
    -0.7688  -0.7534  -0.7383  -0.6618  -0.6204  -0.6049  -0.5242  -0.4844
    -0.4547  -0.4337  -0.2914  -0.2790  -0.2535  -0.2388  -0.2322  -0.1397
    -0.1192  -0.0832  -0.0490  -0.0111   0.0054   0.0645   0.2178   0.2443
     0.2809   0.4252   0.4407   0.5257   0.5729   0.7006   0.7651   0.7674
     0.8489   0.9189   1.0207   1.0332   1.0521   1.1384   1.1846   1.1896
     1.1908   2.1195   2.1204   2.2037   2.2040   3.6960   3.9585   4.0807
     4.0871   4.1295   4.2522   4.3358   4.3594   4.3974   4.3993   4.4731

     the Fermi energy is     3.8740 ev

!    total energy              =   -2941.49083079 Ry
     estimated scf accuracy    <       0.00000005 Ry
     smearing contrib. (-TS)   =      -0.04231718 Ry
     internal energy E=F+TS    =   -2941.44851361 Ry

     The total energy is F=E-TS. E is the sum of the following terms:
     one-electron contribution =  -23922.54078342 Ry
     hartree contribution      =   12054.46480742 Ry
     xc contribution           =    -486.86651794 Ry
     ewald contribution        =    9413.49046211 Ry
     electric field correction =       0.00351823 Ry

     convergence has been achieved in  67 iterations

     Forces acting on atoms (cartesian axes, Ry/au):

     atom    1 type  1   force =     0.00017449   -0.00017587    0.09405814
     atom    2 type  1   force =    -0.00005094   -0.00042802   -0.17753778
     atom    3 type  2   force =     0.00006655   -0.00005400   -0.02099907
     atom    4 type  2   force =     0.00001568   -0.00180478    0.05732581
     atom    5 type  2   force =    -0.01086595   -0.00090651    0.00782151
     atom    6 type  2   force =     0.01207500   -0.00033811    0.00621781
     atom    7 type  1   force =    -0.00065827    0.00290305   -0.01529231
     atom    8 type  1   force =     0.00059654    0.00229448    0.00235822
     atom    9 type  2   force =    -0.00010341    0.00013202    0.00092874
     atom   10 type  2   force =    -0.00165537   -0.00050623   -0.00378856
     atom   11 type  2   force =    -0.00004796   -0.00023712    0.00020839
     atom   12 type  2   force =    -0.00018988   -0.00039915    0.00027862
     atom   13 type  1   force =     0.00042732    0.00109319    0.00063397
     atom   14 type  1   force =     0.00020079   -0.00062169    0.00036095
     atom   15 type  2   force =    -0.00017179    0.00035060    0.00050655
     atom   16 type  2   force =    -0.00016497   -0.00025135   -0.00118066
     atom   17 type  2   force =     0.00008309   -0.00023104    0.00021174
     atom   18 type  2   force =    -0.00079124   -0.00032462    0.00011344
     atom   19 type  1   force =    -0.00057874    0.00106882   -0.00055179
     atom   20 type  1   force =    -0.00031840    0.00134532   -0.00117486
     atom   21 type  2   force =     0.00010723   -0.00004170    0.10378251
     atom   22 type  2   force =     0.00005427    0.00008345    0.00065820
     atom   23 type  2   force =    -0.07062101   -0.00018045   -0.02706306
     atom   24 type  2   force =     0.07056450    0.00029515   -0.02710182
     atom   25 type  1   force =     0.00015365   -0.00023698    0.09337945
     atom   26 type  1   force =    -0.00001036   -0.00037620   -0.17776468
     atom   27 type  2   force =     0.00010857   -0.00039230   -0.02000289
     atom   28 type  2   force =     0.00003335   -0.00146673    0.05680678
     atom   29 type  2   force =    -0.01076056   -0.00066178    0.00674124
     atom   30 type  2   force =     0.01187723   -0.00016832    0.00509940
     atom   31 type  1   force =    -0.00063145    0.00410953   -0.01559704
     atom   32 type  1   force =     0.00067408   -0.00274737    0.00213224
     atom   33 type  2   force =     0.00015704   -0.00021869   -0.00057927
     atom   34 type  2   force =    -0.00109262    0.00273156   -0.00203350
     atom   35 type  2   force =     0.00008743    0.00019881    0.00009913
     atom   36 type  2   force =    -0.00032901    0.00033875   -0.00007140
     atom   37 type  1   force =     0.00046586   -0.00008633    0.00031900
     atom   38 type  1   force =     0.00008998    0.00089895    0.00015853
     atom   39 type  2   force =    -0.00005678   -0.00095531    0.00041697
     atom   40 type  2   force =    -0.00023493   -0.00042929    0.00063428
     atom   41 type  2   force =    -0.00026582   -0.00008763   -0.00012962
     atom   42 type  2   force =     0.00012695   -0.00000009    0.00024742
     atom   43 type  1   force =    -0.00002693   -0.00145528    0.00083666
     atom   44 type  1   force =    -0.00004480   -0.00087019   -0.00150196
     atom   45 type  2   force =     0.00009496   -0.00008007    0.10376354
     atom   46 type  2   force =    -0.07064407   -0.00009477   -0.02707327
     atom   47 type  2   force =     0.07059567    0.00028873   -0.02711069
     atom   48 type  3   force =    -0.00046086   -0.00072804   -0.00055068
     atom   49 type  4   force =     0.00034546   -0.00058097    0.00148558
     atom   50 type  5   force =     0.00079891    0.00004797   -0.00100193
     atom   51 type  5   force =    -0.00020333    0.00060154   -0.00018185
     atom   52 type  3   force =     0.00401978    0.00449696   -0.00823094
     atom   53 type  5   force =     0.00014222   -0.00147302   -0.00035429
     atom   54 type  5   force =     0.00096855    0.00011713    0.00051058
     atom   55 type  5   force =    -0.00412570   -0.00378600    0.00877853

     Total force =     0.365998     Total SCF correction =     0.000558
  @ DRIVER MODE: Message from server: STATUS
  @ DRIVER MODE: Message from server: GETFORCE
  @ DRIVER MODE: Returning v,forces,stress,ensemble

     Writing output data file ./calc.save/
  @ DRIVER MODE: Message from server: EXIT
  @ DRIVE MODE: Exiting

     General routines

     Parallel routines

   This run was terminated on:  14: 1:46   9Sep2021

   JOB DONE.