     Program PWSCF v.6.7GPU starts on  9Sep2021 at  7:41:54

     R & G space division:  proc/nbgrp/npool/nimage =      10
     Reading input from /storage/home/hcoda1/3/ntian30/research/carbon/CxH_vib/CH3_calc/ads_slab/CH3NH2NH_c/out_0029/pw.inp
Warning: card &CELL ignored
Warning: card   CELL_DYNAMICS='IPI', ignored
Warning: card / ignored

     Current dimensions of program PWSCF are:
     Max number of different atomic species (ntypx) = 10
     Max number of k-points (npk) =  40000
     Max angular momentum in pseudopotentials (lmaxx) =  3
     Presently no symmetry can be used with electric field

     Message from routine cell_base_init:
     DEPRECATED: use true lattice parameter, not A to a.u. conversion factor

     IMPORTANT: XC functional enforced from input :
     Exchange-correlation= BEEF-VDW
                           (   1   4  43  14   2   0   0)
     Any further DFT definition will be discarded
     Please, verify this is what you really want

  @ DRIVER MODE: Connecting to
 qe_1139763_2767400.sched-torque.pace.gatech.eduazy8mx_d_scratch
  using UNIX socket
  @ DRIVER MODE: Message from server: STATUS
  @ DRIVER MODE: Message from server: INIT
  @ DRIVER MODE: Receiving replica           0          -1
  @ DRIVER MODE: Receiving encoded integer          25
  @ DRIVER MODE:  SCF:  T  FORCE:  T  STRESS:  F  VC:  F  ENSEMBLE:  F
  @ DRIVER MODE:  SCF:  T  FORCE:  T  STRESS:  F  VC:  F  ENSEMBLE:  F

     Using Slab Decomposition

     bravais-lattice index     =            0
     lattice parameter (alat)  =       1.8897  a.u.
     unit-cell volume          =    6658.9804 (a.u.)^3
     number of atoms/cell      =           56
     number of atomic types    =            5
     number of electrons       =       398.00
     number of Kohn-Sham states=          209
     kinetic-energy cutoff     =      29.3995  Ry
     charge density cutoff     =     293.9946  Ry
     scf convergence threshold =      7.3E-08
     mixing beta               =       0.0500
     number of iterations used =            8  plain     mixing
     Exchange-correlation= BEEF-VDW
                           (   1   4  43  14   2   0   0)

     celldm(1)=   1.889726  celldm(2)=   0.000000  celldm(3)=   0.000000
     celldm(4)=   0.000000  celldm(5)=   0.000000  celldm(6)=   0.000000

     crystal axes: (cart. coord. in units of alat)
               a(1) = (   6.579727   0.000000   0.000000 )
               a(2) = (  -0.000775   5.961596   0.000000 )
               a(3) = (   0.000000   0.000000  25.155947 )

     reciprocal axes: (cart. coord. in units 2 pi/alat)
               b(1) = (  0.151982  0.000020  0.000000 )
               b(2) = (  0.000000  0.167740  0.000000 )
               b(3) = (  0.000000  0.000000  0.039752 )

     PseudoPot. # 1 for Ti read from file:
     /storage/coda1/p-amedford6/0/shared/rich_project_chbe-medford/medford-share/data/pseudos_module/espresso/nninc/pbe/van/Ti.UPF
     MD5 check sum: 8e4df49b7f0d34bbd5052bf3f5ea0213
     Pseudo is Ultrasoft, Zval = 12.0
     Generated by new atomic code, or converted to UPF format
     Using radial grid of  851 points,  6 beta functions with:
                l(1) =   0
                l(2) =   0
                l(3) =   1
                l(4) =   1
                l(5) =   2
                l(6) =   2
     Q(r) pseudized with  8 coefficients,  rinner =    1.000   1.000   1.000
                                                       1.000   1.000

     PseudoPot. # 2 for O  read from file:
     /storage/coda1/p-amedford6/0/shared/rich_project_chbe-medford/medford-share/data/pseudos_module/espresso/nninc/pbe/van/O.UPF
     MD5 check sum: 78c19812648e8988a0fe644b0f25305e
     Pseudo is Ultrasoft, Zval =  6.0
     Generated by new atomic code, or converted to UPF format
     Using radial grid of  737 points,  4 beta functions with:
                l(1) =   0
                l(2) =   0
                l(3) =   1
                l(4) =   1
     Q(r) pseudized with  8 coefficients,  rinner =    0.800   0.800   0.800

     PseudoPot. # 3 for N  read from file:
     /storage/coda1/p-amedford6/0/shared/rich_project_chbe-medford/medford-share/data/pseudos_module/espresso/nninc/pbe/van/N.UPF
     MD5 check sum: 90d10febe142ad51ac9d5be1deb811c4
     Pseudo is Ultrasoft, Zval =  5.0
     Generated by new atomic code, or converted to UPF format
     Using radial grid of  729 points,  4 beta functions with:
                l(1) =   0
                l(2) =   0
                l(3) =   1
                l(4) =   1
     Q(r) pseudized with  8 coefficients,  rinner =    0.800   0.800   0.800

     PseudoPot. # 4 for C  read from file:
     /storage/coda1/p-amedford6/0/shared/rich_project_chbe-medford/medford-share/data/pseudos_module/espresso/nninc/pbe/van/C.UPF
     MD5 check sum: 1a69bf6b8db32088f5b2163dbdb77a27
     Pseudo is Ultrasoft, Zval =  4.0
     Generated by new atomic code, or converted to UPF format
     Using radial grid of  721 points,  4 beta functions with:
                l(1) =   0
                l(2) =   0
                l(3) =   1
                l(4) =   1
     Q(r) pseudized with  8 coefficients,  rinner =    0.800   0.800   0.800

     PseudoPot. # 5 for H  read from file:
     /storage/coda1/p-amedford6/0/shared/rich_project_chbe-medford/medford-share/data/pseudos_module/espresso/nninc/pbe/van/H.UPF
     MD5 check sum: b5ee9d7bfd3a09ee7748110bda690ff7
     Pseudo is Ultrasoft, Zval =  1.0
     Generated by new atomic code, or converted to UPF format
     Using radial grid of  615 points,  1 beta functions with:
                l(1) =   0
     Q(r) pseudized with  8 coefficients,  rinner =    0.800

     atomic species   valence    mass     pseudopotential
        Ti1           12.00    47.86700     Ti( 1.00)
        O1             6.00    15.99900     O ( 1.00)
        N1             5.00    14.00700     N ( 1.00)
        C1             4.00    12.01100     C ( 1.00)
        H1             1.00     1.00800     H ( 1.00)

     No symmetry found

   Cartesian axes

     site n.     atom                  positions (alat units)
         1           Ti1 tau(   1) = (   0.0004258   2.9801865   6.0000000  )
         2           Ti1 tau(   2) = (   3.2906075   1.4906267   6.0002472  )
         3           O1  tau(   3) = (   0.0006271   0.0005054   7.9858123  )
         4           O1  tau(   4) = (   3.2906025   0.0005020   7.3038282  )
         5           O1  tau(   5) = (   4.5942328   1.4918067   9.2879030  )
         6           O1  tau(   6) = (   1.9868534   1.4903216   9.2879459  )
         7           Ti1 tau(   7) = (   3.2907910   2.8959150   9.1758416  )
         8           Ti1 tau(   8) = (   0.0015273   1.4827037   9.2680791  )
         9           O1  tau(   9) = (   3.3032705   0.0110091  11.3485381  )
        10           O1  tau(  10) = (   0.0116148   5.9584955  10.6183126  )
        11           O1  tau(  11) = (   1.3020657   1.4959176  12.6398190  )
        12           O1  tau(  12) = (   5.2896457   1.4919019  12.6612249  )
        13           Ti1 tau(  13) = (   0.0353884   3.0012823  12.5523301  )
        14           Ti1 tau(  14) = (   3.3275346   1.5008247  12.4978572  )
        15           O1  tau(  15) = (   0.0424128   0.0047235  14.7277795  )
        16           O1  tau(  16) = (   3.2762846   0.0047332  13.9819514  )
        17           O1  tau(  17) = (   4.5591522   1.5298593  16.0930730  )
        18           O1  tau(  18) = (   2.0612242   1.5646392  16.2256692  )
        19           Ti1 tau(  19) = (   3.3170857   3.0293758  15.7013767  )
        20           Ti1 tau(  20) = (   6.5267591   1.5471840  15.7818195  )
        21           O1  tau(  21) = (   3.2904802   0.0005063   4.7018136  )
        22           O1  tau(  22) = (   0.0258072   0.0396315  17.3287798  )
        23           O1  tau(  23) = (   1.3043587   1.4918075   6.0039043  )
        24           O1  tau(  24) = (   5.2767064   1.4903225   6.0039473  )
        25           Ti1 tau(  25) = (   0.0000382   5.9609847   6.0000000  )
        26           Ti1 tau(  26) = (   3.2902200   4.4714249   6.0002472  )
        27           O1  tau(  27) = (   0.0002396   2.9813036   7.9858123  )
        28           O1  tau(  28) = (   3.2902150   2.9813002   7.3038282  )
        29           O1  tau(  29) = (   4.5938453   4.4726049   9.2879030  )
        30           O1  tau(  30) = (   1.9864658   4.4711199   9.2879459  )
        31           Ti1 tau(  31) = (   3.2891106   5.8743827   9.1763621  )
        32           Ti1 tau(  32) = (   0.0006254   4.4649316   9.2693709  )
        33           O1  tau(  33) = (   3.3047253   2.9863606  11.3412877  )
        34           O1  tau(  34) = (   0.0092240   2.9805883  10.6323155  )
        35           O1  tau(  35) = (   1.3023160   4.4818153  12.6295520  )
        36           O1  tau(  36) = (   5.2910779   4.4839738  12.6480862  )
        37           Ti1 tau(  37) = (   0.0306270   0.0097343  12.5156175  )
        38           Ti1 tau(  38) = (   3.3295341   4.4791655  12.4867326  )
        39           O1  tau(  39) = (   0.0319336   2.9935560  14.7343221  )
        40           O1  tau(  40) = (   3.2835893   3.0037955  13.9224844  )
        41           O1  tau(  41) = (   4.5669158   4.4809188  16.1713821  )
        42           O1  tau(  42) = (   2.0542530   4.4668402  16.2247519  )
        43           Ti1 tau(  43) = (   3.3000170   0.0150779  15.7669526  )
        44           Ti1 tau(  44) = (   0.0416703   4.6955124  16.1636639  )
        45           O1  tau(  45) = (   3.2900926   2.9813045   4.7018136  )
        46           O1  tau(  46) = (   1.3039711   4.4726057   6.0039043  )
        47           O1  tau(  47) = (   5.2763189   4.4711207   6.0039473  )
        48           N1  tau(  48) = (   0.9019483   2.4226080  18.4567899  )
        49           N1  tau(  49) = (   6.4923839   2.9153054  17.5348467  )
        50           C1  tau(  50) = (   1.2734633   3.3482217  19.5544901  )
        51           H1  tau(  51) = (   0.3921683   3.5464126  20.1615046  )
        52           H1  tau(  52) = (   2.0553077   2.8833093  20.1473268  )
        53           H1  tau(  53) = (   1.6239766   4.2728770  19.1044814  )
        54           H1  tau(  54) = (   0.5870980   1.4942747  18.7832689  )
        55           H1  tau(  55) = (   5.5983569   2.8486818  18.0159164  )
        56           H1  tau(  56) = (   1.7025450   2.1792920  17.8234971  )

     number of k points=    10  Fermi-Dirac smearing, width (Ry)=  0.0073
                       cart. coord. in units 2pi/alat
        k(    1) = (   0.0000000   0.0000000   0.0000000), wk =   0.1250000
        k(    2) = (   0.0000000   0.0419351   0.0000000), wk =   0.2500000
        k(    3) = (   0.0000000  -0.0838702   0.0000000), wk =   0.1250000
        k(    4) = (   0.0379955   0.0000049   0.0000000), wk =   0.2500000
        k(    5) = (   0.0379955   0.0419400   0.0000000), wk =   0.2500000
        k(    6) = (   0.0379955  -0.0838652   0.0000000), wk =   0.2500000
        k(    7) = (   0.0379955  -0.0419301   0.0000000), wk =   0.2500000
        k(    8) = (  -0.0759910  -0.0000099   0.0000000), wk =   0.1250000
        k(    9) = (  -0.0759910   0.0419252   0.0000000), wk =   0.2500000
        k(   10) = (  -0.0759910  -0.0838800   0.0000000), wk =   0.1250000

     Initial potential from superposition of free atoms

     starting charge  381.99914, renormalised to  398.00000

     negative rho (up, down):  1.485E-02 0.000E+00

     %%%%%%%%%%%%%%%%%%%%%%%%%%%%%%%%%%%%%%%%%%%%%%%%%%%%%%%%%%%%%%%%%%%%%%%%
     %                                                                      %
     % You are using vdW-DF, which was implemented by the Thonhauser group. %
     % Please cite the following two papers that made this development      %
     % possible and the two reviews that describe the various versions:     %
     %                                                                      %
     %   T. Thonhauser et al., PRL 115, 136402 (2015).                      %
     %   T. Thonhauser et al., PRB 76, 125112 (2007).                       %
     %   K. Berland et al., Rep. Prog. Phys. 78, 066501 (2015).             %
     %   D.C. Langreth et al., J. Phys.: Condens. Matter 21, 084203 (2009). %
     %                                                                      %
     %                                                                      %
     % If you are calculating the stress with vdW-DF, please also cite:     %
     %                                                                      %
     %   R. Sabatini et al., J. Phys.: Condens. Matter 24, 424209 (2012).   %
     %                                                                      %
     %%%%%%%%%%%%%%%%%%%%%%%%%%%%%%%%%%%%%%%%%%%%%%%%%%%%%%%%%%%%%%%%%%%%%%%%

     Adding external electric field

     Computed dipole along edir(3) :
        Dipole              -10.9098 Ry au,        -27.7300 Debye
        Dipole field         -0.0206 Ry au,

        Potential amp.        1.9085 Ry
        Total length         46.3494 bohr

     Starting wfcs are  302 atomic wfcs
  @ DRIVER MODE: Message from server: STATUS
  @ DRIVER MODE: Message from server: POSDATA
  @ DRIVER MODE: Reading and sharing cell
  @ DRIVER MODE: Reading and sharing positions
  @ DRIVER MODE: Received positions

     Self-consistent Calculation

     iteration #  1     ecut=    29.40 Ry     beta= 0.05
     Davidson diagonalization with overlap
     c_bands:  5 eigenvalues not converged
     c_bands:  3 eigenvalues not converged
     c_bands:  1 eigenvalues not converged
     c_bands:  2 eigenvalues not converged
     c_bands:  3 eigenvalues not converged
     c_bands:  4 eigenvalues not converged
     c_bands:  4 eigenvalues not converged
     ethr =  1.00E-05,  avg # of iterations = 24.4

[...]

     total energy              =   -2445.34593804 Ry
     estimated scf accuracy    <    5568.58465637 Ry

     iteration #  2     ecut=    29.40 Ry     beta= 0.05
     Davidson diagonalization with overlap
     ethr =  1.00E-02,  avg # of iterations = 22.5

[...]

     iteration # 73     ecut=    29.40 Ry     beta= 0.05
     Davidson diagonalization with overlap
     ethr =  3.62E-11,  avg # of iterations =  2.6

[...]

     total energy              =   -2942.84148139 Ry
     estimated scf accuracy    <       0.00000012 Ry

     iteration # 74     ecut=    29.40 Ry     beta= 0.05
     Davidson diagonalization with overlap
     c_bands:  1 eigenvalues not converged
     ethr =  3.12E-11,  avg # of iterations = 12.4

     negative rho (up, down):  1.048E-02 0.000E+00

     Adding external electric field

     Computed dipole along edir(3) :
        Dipole                1.5782 Ry au,          4.0113 Debye
        Dipole field          0.0030 Ry au,

        Potential amp.       -0.2761 Ry
        Total length         46.3494 bohr

     End of self-consistent calculation

          k = 0.0000 0.0000 0.0000 ( 18029 PWs)   bands (ev):

   -55.0905 -55.0550 -55.0514 -55.0209 -54.9677 -54.9652 -54.9277 -54.8910
   -54.8827 -54.8685 -54.8552 -54.8504 -54.8032 -54.7588 -54.0655 -54.0315
   -31.6644 -31.5445 -31.4547 -31.4248 -31.3858 -31.3812 -31.3796 -31.3498
   -31.3467 -31.3453 -31.3023 -31.3002 -31.2996 -31.2650 -31.2468 -31.2273
   -31.2075 -31.2038 -31.1945 -31.1925 -31.1661 -31.1487 -31.1472 -31.1212
   -31.1118 -31.0979 -31.0950 -31.0929 -31.0894 -31.0762 -31.0714 -31.0641
   -31.0516 -31.0409 -31.0221 -31.0143 -31.0067 -31.0008 -30.9964 -30.9906
   -30.9863 -30.9514 -30.4740 -30.3822 -30.3600 -30.2906 -30.2039 -30.0928
   -19.1622 -15.9332 -15.6587 -15.5360 -15.3254 -15.2760 -15.2029 -15.0077
   -14.9428 -14.8869 -14.8766 -14.8651 -14.8483 -14.7771 -14.6980 -14.6176
   -14.6151 -14.6081 -14.5970 -14.5795 -14.5723 -14.5097 -14.5025 -14.4707
   -14.4586 -14.4184 -14.3113 -14.2296 -14.1727 -14.0216 -13.3328 -12.5679
   -12.4508 -11.1140  -7.8800  -6.5563  -5.8671  -4.1202  -3.9568  -3.2784
    -3.0931  -3.0697  -3.0086  -2.9836  -2.8088  -2.7591  -2.5547  -2.4476
    -2.3602  -2.3212  -2.3089  -2.2923  -2.1420  -2.0743  -2.0399  -1.9926
    -1.9689  -1.9463  -1.9050  -1.8972  -1.8667  -1.8487  -1.8402  -1.6628
    -1.5870  -1.5382  -1.5082  -1.4703  -1.4206  -1.3922  -1.3741  -1.3695
    -1.3643  -1.3452  -1.3136  -1.2526  -1.2240  -1.1676  -1.0999  -1.0732
    -0.9834  -0.9013  -0.7141  -0.6683  -0.6506  -0.6145  -0.5544  -0.5055
    -0.4714  -0.4365  -0.4221  -0.3553  -0.2867  -0.2542  -0.1916  -0.1272
    -0.1166  -0.0538  -0.0467   0.1148   0.1266   0.1479   0.2392   0.3254
     0.3733   0.3814   0.4398   0.5138   0.5360   0.5458   0.5821   0.6026
     0.6791   0.7883   0.8130   0.8548   0.8662   0.8999   0.9229   0.9776
     1.0014   1.0641   1.0703   1.1748   1.2247   1.2567   1.5066   1.5394
     1.8699   1.9034   1.9572   2.1438   2.5312   2.5783   4.0177   4.0804
     4.0939   4.1434   4.1667   4.1856   4.2577   4.4785   4.5037   4.5099
     4.5173

[...]

          k = 0.0380-0.0419 0.0000 ( 17876 PWs)   bands (ev):

[...]

          k =-0.0760-0.0000 0.0000 ( 17886 PWs)   bands (ev):

[...]

          k =-0.0760-0.0839 0.0000 ( 17948 PWs)   bands (ev):

   -55.0784 -55.0633 -55.0380 -55.0378 -54.9646 -54.9541 -54.9388 -54.8739
   -54.8714 -54.8704 -54.8685 -54.8662 -54.7972 -54.7648 -54.0485 -54.0483
   -31.4721 -31.4625 -31.3997 -31.3597 -31.3596 -31.3583 -31.3308 -31.3306
   -31.2995 -31.2955 -31.2906 -31.2846 -31.2590 -31.2247 -31.2176 -31.2116
   -31.2096 -31.2057 -31.2049 -31.1961 -31.1640 -31.1629 -31.1592 -31.1572
   -31.1570 -31.1542 -31.1496 -31.1334 -31.1079 -31.1042 -31.0981 -31.0889
   -31.0870 -31.0850 -31.0840 -31.0680 -31.0496 -31.0483 -31.0371 -31.0315
   -31.0069 -30.9906 -30.3727 -30.3726 -30.2867 -30.2864 -30.2473 -30.2472
   -19.1583 -15.4164 -15.3261 -15.1777 -15.1582 -15.1091 -15.0611 -15.0446
   -15.0271 -14.9709 -14.9315 -14.8856 -14.8370 -14.7941 -14.7918 -14.7531
   -14.6811 -14.6596 -14.6576 -14.6430 -14.5922 -14.5814 -14.5539 -14.5351
   -14.5301 -14.4869 -14.4274 -14.4238 -14.3842 -14.2054 -13.3431 -12.5524
   -12.5524 -11.1165  -7.8902  -6.5402  -5.8562  -4.0933  -3.9486  -2.6854
    -2.5861  -2.5261  -2.4196  -2.3328  -2.2925  -2.2579  -2.1232  -2.1037
    -2.0851  -2.0591  -2.0461  -2.0119  -2.0041  -1.9561  -1.9269  -1.9166
    -1.9103  -1.8975  -1.8753  -1.8273  -1.8048  -1.7953  -1.7859  -1.7472
    -1.7333  -1.7014  -1.6954  -1.6565  -1.6350  -1.5498  -1.4607  -1.4209
    -1.3707  -1.3054  -1.2713  -1.2646  -1.1713  -1.1631  -1.1400  -1.1066
    -1.0612  -0.9407  -0.8834  -0.8205  -0.8167  -0.8035  -0.6966  -0.6589
    -0.6286  -0.5933  -0.5560  -0.5259  -0.4873  -0.4405  -0.3637  -0.3328
    -0.2934  -0.2571  -0.1846  -0.0967  -0.0776  -0.0466  -0.0424   0.0441
     0.0687   0.1072   0.1163   0.1354   0.1921   0.2052   0.2924   0.3824
     0.4469   0.5351   0.6486   0.6533   0.7306   0.8226   0.9104   0.9481
     0.9999   1.0652   1.0678   1.1012   1.2223   1.2295   1.3511   1.3898
     1.3986   1.4211   2.3162   2.3173   2.3984   2.3985   4.1467   4.2444
     4.2834   4.3245   4.3765   4.5220   4.5451   4.5911   4.5916   4.6629
     4.6755

     the Fermi energy is     4.0642 ev

!    total energy              =   -2942.84150407 Ry
     estimated scf accuracy    <       0.00000007 Ry
     smearing contrib. (-TS)   =      -0.03725100 Ry
     internal energy E=F+TS    =   -2942.80425307 Ry

     The total energy is F=E-TS. E is the sum of the following terms:
     one-electron contribution =  -23856.93915773 Ry
     hartree contribution      =   12023.80552865 Ry
     xc contribution           =    -487.75948821 Ry
     ewald contribution        =    9378.08416401 Ry
     electric field correction =       0.00470021 Ry

     convergence has been achieved in  74 iterations

     Forces acting on atoms (cartesian axes, Ry/au):

     atom    1 type  1   force =     0.00001724   -0.00023757    0.09432957
     atom    2 type  1   force =    -0.00015485   -0.00054684   -0.17709132
     atom    3 type  2   force =     0.00001628   -0.00024610   -0.02147129
     atom    4 type  2   force =    -0.00001504   -0.00167635    0.05644324
     atom    5 type  2   force =    -0.01049434   -0.00075524    0.00562277
     atom    6 type  2   force =     0.01225933   -0.00009812    0.00551669
     atom    7 type  1   force =    -0.00024001    0.00107306   -0.01569674
     atom    8 type  1   force =    -0.00007076    0.00525408    0.00656878
     atom    9 type  2   force =    -0.00030655    0.00055722    0.00019085
     atom   10 type  2   force =    -0.00199915    0.00265834   -0.00435325
     atom   11 type  2   force =     0.00039570   -0.00022160    0.00028062
     atom   12 type  2   force =    -0.00007506   -0.00029163   -0.00019391
     atom   13 type  1   force =    -0.00073282    0.00043851   -0.00003823
     atom   14 type  1   force =     0.00037980   -0.00017002    0.00004302
     atom   15 type  2   force =    -0.00018497   -0.00061371   -0.00039578
     atom   16 type  2   force =     0.00005011    0.00037782   -0.00031402
     atom   17 type  2   force =     0.00078881    0.00015422    0.00038823
     atom   18 type  2   force =    -0.00015854    0.00008218   -0.00013458
     atom   19 type  1   force =     0.00031150    0.00076353    0.00032538
     atom   20 type  1   force =    -0.00048812    0.00023283    0.00058178
     atom   21 type  2   force =    -0.00001853   -0.00011641    0.10367869
     atom   22 type  2   force =     0.00017947    0.00034610    0.00040053
     atom   23 type  2   force =    -0.07091878   -0.00021435   -0.02718940
     atom   24 type  2   force =     0.07071900    0.00023905   -0.02724047
     atom   25 type  1   force =     0.00001262   -0.00027278    0.09399641
     atom   26 type  1   force =    -0.00025210   -0.00054977   -0.17736795
     atom   27 type  2   force =     0.00005889   -0.00008122   -0.02061076
     atom   28 type  2   force =     0.00002506   -0.00136294    0.05574089
     atom   29 type  2   force =    -0.01079681   -0.00000430    0.00591656
     atom   30 type  2   force =     0.01248488    0.00028159    0.00576904
     atom   31 type  1   force =    -0.00017249    0.00517356   -0.01627303
     atom   32 type  1   force =    -0.00009155   -0.00625521    0.00670821
     atom   33 type  2   force =    -0.00009709   -0.00047746    0.00022226
     atom   34 type  2   force =    -0.00163651    0.00066717   -0.00774975
     atom   35 type  2   force =    -0.00033444    0.00005537    0.00041938
     atom   36 type  2   force =     0.00058449    0.00005367   -0.00007005
     atom   37 type  1   force =    -0.00082546   -0.00077849   -0.00008954
     atom   38 type  1   force =     0.00048514    0.00001780    0.00044018
     atom   39 type  2   force =    -0.00028755   -0.00018787    0.00057575
     atom   40 type  2   force =    -0.00005664   -0.00019698   -0.00023364
     atom   41 type  2   force =     0.00012975   -0.00047551    0.00028074
     atom   42 type  2   force =    -0.00019418   -0.00029071    0.00050777
     atom   43 type  1   force =     0.00001855   -0.00068329   -0.00019234
     atom   44 type  1   force =     0.00026653    0.00040753    0.00035338
     atom   45 type  2   force =    -0.00002442   -0.00011777    0.10365509
     atom   46 type  2   force =    -0.07092463   -0.00014304   -0.02716383
     atom   47 type  2   force =     0.07072969    0.00027903   -0.02723642
     atom   48 type  3   force =    -0.00090250    0.00151573   -0.00013525
     atom   49 type  3   force =     0.00031882   -0.00105547    0.00062528
     atom   50 type  4   force =    -0.00291199    0.00211600   -0.00473770
     atom   51 type  5   force =     0.00067788   -0.00082380    0.00110956
     atom   52 type  5   force =     0.00386137   -0.00197581    0.00517030
     atom   53 type  5   force =     0.00009564   -0.00028780    0.00003640
     atom   54 type  5   force =     0.00016823   -0.00025008   -0.00000059
     atom   55 type  5   force =    -0.00017223   -0.00055933    0.00015028
     atom   56 type  5   force =     0.00050335   -0.00072679   -0.00006780

     Total force =     0.365797     Total SCF correction =     0.000566
  @ DRIVER MODE: Message from server: STATUS
  @ DRIVER MODE: Message from server: GETFORCE
  @ DRIVER MODE: Returning v,forces,stress,ensemble

     Writing output data file ./calc.save/
  @ DRIVER MODE: Message from server: EXIT
  @ DRIVE MODE: Exiting

     General routines

     Parallel routines

   This run was terminated on:   8: 2:28   9Sep2021

   JOB DONE.