     Program PWSCF v.6.7GPU starts on 23Sep2021 at 17:44:15

     R & G space division:  proc/nbgrp/npool/nimage =       8
     Reading input from /storage/home/hcoda1/3/ntian30/research/carbon/CxH_vib/H2O_calc/ads_slab/CH3NHNH2HO_a/out_0016/pw.inp
Warning: card &CELL ignored
Warning: card   CELL_DYNAMICS='IPI', ignored
Warning: card / ignored

     Current dimensions of program PWSCF are:
     Max number of different atomic species (ntypx) = 10
     Max number of k-points (npk) =  40000
     Max angular momentum in pseudopotentials (lmaxx) =  3
     Presently no symmetry can be used with electric field

     Message from routine cell_base_init:
     DEPRECATED: use true lattice parameter, not A to a.u. conversion factor

     IMPORTANT: XC functional enforced from input :
     Exchange-correlation= BEEF-VDW
                           (   1   4  43  14   2   0   0)
     Any further DFT definition will be discarded
     Please, verify this is what you really want

  @ DRIVER MODE: Connecting to
 qe_1139763_2947307.sched-torque.pace.gatech.eduy5a94i2__scratch
  using UNIX socket
  @ DRIVER MODE: Message from server: STATUS
  @ DRIVER MODE: Message from server: INIT
  @ DRIVER MODE: Receiving replica           0          -1
  @ DRIVER MODE: Receiving encoded integer          25
  @ DRIVER MODE:  SCF:  T  FORCE:  T  STRESS:  F  VC:  F  ENSEMBLE:  F
  @ DRIVER MODE:  SCF:  T  FORCE:  T  STRESS:  F  VC:  F  ENSEMBLE:  F

     Using Slab Decomposition

     bravais-lattice index     =            0
     lattice parameter (alat)  =       1.8897  a.u.
     unit-cell volume          =    6658.9804 (a.u.)^3
     number of atoms/cell      =           58
     number of atomic types    =            5
     number of electrons       =       405.00
     number of Kohn-Sham states=          212
     kinetic-energy cutoff     =      29.3995  Ry
     charge density cutoff     =     293.9946  Ry
     scf convergence threshold =      7.3E-08
     mixing beta               =       0.0500
     number of iterations used =            8  plain     mixing
     Exchange-correlation= BEEF-VDW
                           (   1   4  43  14   2   0   0)

     celldm(1)=   1.889726  celldm(2)=   0.000000  celldm(3)=   0.000000
     celldm(4)=   0.000000  celldm(5)=   0.000000  celldm(6)=   0.000000

     crystal axes: (cart. coord. in units of alat)
               a(1) = (   6.579727   0.000000   0.000000 )
               a(2) = (  -0.000775   5.961596   0.000000 )
               a(3) = (   0.000000   0.000000  25.155947 )

     reciprocal axes: (cart. coord. in units 2 pi/alat)
               b(1) = (  0.151982  0.000020  0.000000 )
               b(2) = (  0.000000  0.167740  0.000000 )
               b(3) = (  0.000000  0.000000  0.039752 )

     PseudoPot. # 1 for Ti read from file:
     /storage/coda1/p-amedford6/0/shared/rich_project_chbe-medford/medford-share/data/pseudos_module/espresso/nninc/pbe/van/Ti.UPF
     MD5 check sum: 8e4df49b7f0d34bbd5052bf3f5ea0213
     Pseudo is Ultrasoft, Zval = 12.0
     Generated by new atomic code, or converted to UPF format
     Using radial grid of  851 points,  6 beta functions with:
                l(1) =   0
                l(2) =   0
                l(3) =   1
                l(4) =   1
                l(5) =   2
                l(6) =   2
     Q(r) pseudized with  8 coefficients,  rinner =    1.000   1.000   1.000
                                                       1.000   1.000

     PseudoPot. # 2 for O  read from file:
     /storage/coda1/p-amedford6/0/shared/rich_project_chbe-medford/medford-share/data/pseudos_module/espresso/nninc/pbe/van/O.UPF
     MD5 check sum: 78c19812648e8988a0fe644b0f25305e
     Pseudo is Ultrasoft, Zval =  6.0
     Generated by new atomic code, or converted to UPF format
     Using radial grid of  737 points,  4 beta functions with:
                l(1) =   0
                l(2) =   0
                l(3) =   1
                l(4) =   1
     Q(r) pseudized with  8 coefficients,  rinner =    0.800   0.800   0.800

     PseudoPot. # 3 for N  read from file:
     /storage/coda1/p-amedford6/0/shared/rich_project_chbe-medford/medford-share/data/pseudos_module/espresso/nninc/pbe/van/N.UPF
     MD5 check sum: 90d10febe142ad51ac9d5be1deb811c4
     Pseudo is Ultrasoft, Zval =  5.0
     Generated by new atomic code, or converted to UPF format
     Using radial grid of  729 points,  4 beta functions with:
                l(1) =   0
                l(2) =   0
                l(3) =   1
                l(4) =   1
     Q(r) pseudized with  8 coefficients,  rinner =    0.800   0.800   0.800

     PseudoPot. # 4 for C  read from file:
     /storage/coda1/p-amedford6/0/shared/rich_project_chbe-medford/medford-share/data/pseudos_module/espresso/nninc/pbe/van/C.UPF
     MD5 check sum: 1a69bf6b8db32088f5b2163dbdb77a27
     Pseudo is Ultrasoft, Zval =  4.0
     Generated by new atomic code, or converted to UPF format
     Using radial grid of  721 points,  4 beta functions with:
                l(1) =   0
                l(2) =   0
                l(3) =   1
                l(4) =   1
     Q(r) pseudized with  8 coefficients,  rinner =    0.800   0.800   0.800

     PseudoPot. # 5 for H  read from file:
     /storage/coda1/p-amedford6/0/shared/rich_project_chbe-medford/medford-share/data/pseudos_module/espresso/nninc/pbe/van/H.UPF
     MD5 check sum: b5ee9d7bfd3a09ee7748110bda690ff7
     Pseudo is Ultrasoft, Zval =  1.0
     Generated by new atomic code, or converted to UPF format
     Using radial grid of  615 points,  1 beta functions with:
                l(1) =   0
     Q(r) pseudized with  8 coefficients,  rinner =    0.800

     atomic species   valence    mass     pseudopotential
        Ti1           12.00    47.86700     Ti( 1.00)
        O1             6.00    15.99900     O ( 1.00)
        N1             5.00    14.00700     N ( 1.00)
        C1             4.00    12.01100     C ( 1.00)
        H1             1.00     1.00800     H ( 1.00)

     No symmetry found

   Cartesian axes

     site n.     atom                  positions (alat units)
         1           Ti1 tau(   1) = (   0.0004258   2.9801865   6.0000000  )
         2           Ti1 tau(   2) = (   3.2906075   1.4906267   6.0002472  )
         3           O1  tau(   3) = (   0.0006271   0.0005054   7.9858123  )
         4           O1  tau(   4) = (   3.2906025   0.0005020   7.3038282  )
         5           O1  tau(   5) = (   4.5942328   1.4918067   9.2879030  )
         6           O1  tau(   6) = (   1.9868534   1.4903216   9.2879459  )
         7           Ti1 tau(   7) = (   3.2907910   2.8959150   9.1758416  )
         8           Ti1 tau(   8) = (   0.0015273   1.4827037   9.2680791  )
         9           O1  tau(   9) = (   3.3003128   0.0493987  11.3625472  )
        10           O1  tau(  10) = (   0.0116148   5.9584955  10.6183126  )
        11           O1  tau(  11) = (   1.2863924   1.5188706  12.6959087  )
        12           O1  tau(  12) = (   5.3173592   1.5183023  12.6957539  )
        13           Ti1 tau(  13) = (   0.0130489   2.9571150  12.5182267  )
        14           Ti1 tau(  14) = (   3.3124343   1.5987737  12.4587140  )
        15           O1  tau(  15) = (   0.0455642   5.8537743  14.6515032  )
        16           O1  tau(  16) = (   3.3135256   5.8999501  14.0036581  )
        17           O1  tau(  17) = (   4.5824137   1.5787328  16.0473457  )
        18           O1  tau(  18) = (   2.0456054   1.5356268  16.0652349  )
        19           Ti1 tau(  19) = (   3.2855744   2.9948502  15.7047272  )
        20           Ti1 tau(  20) = (   0.0729980   1.3194477  15.7501807  )
        21           O1  tau(  21) = (   3.2904802   0.0005063   4.7018136  )
        22           O1  tau(  22) = (   6.5643345   0.1786488  17.1561759  )
        23           O1  tau(  23) = (   1.3043587   1.4918075   6.0039043  )
        24           O1  tau(  24) = (   5.2767064   1.4903225   6.0039473  )
        25           Ti1 tau(  25) = (   0.0000382   5.9609847   6.0000000  )
        26           Ti1 tau(  26) = (   3.2902200   4.4714249   6.0002472  )
        27           O1  tau(  27) = (   0.0002396   2.9813036   7.9858123  )
        28           O1  tau(  28) = (   3.2902150   2.9813002   7.3038282  )
        29           O1  tau(  29) = (   4.5938453   4.4726049   9.2879030  )
        30           O1  tau(  30) = (   1.9864658   4.4711199   9.2879459  )
        31           Ti1 tau(  31) = (   3.2891106   5.8743827   9.1763621  )
        32           Ti1 tau(  32) = (   0.0006254   4.4649316   9.2693709  )
        33           O1  tau(  33) = (   3.3044115   2.9646987  11.3227374  )
        34           O1  tau(  34) = (   0.0092240   2.9805883  10.6323155  )
        35           O1  tau(  35) = (   1.2889249   4.4812606  12.6373974  )
        36           O1  tau(  36) = (   5.3198440   4.4849614  12.6453916  )
        37           Ti1 tau(  37) = (   0.0274371   5.9167426  12.5032498  )
        38           Ti1 tau(  38) = (   3.3124303   4.6827448  12.7121475  )
        39           O1  tau(  39) = (   0.0064664   3.0605765  14.9143048  )
        40           O1  tau(  40) = (   3.2921723   3.0190953  13.9337278  )
        41           O1  tau(  41) = (   4.5343043   4.4484976  16.2223827  )
        42           O1  tau(  42) = (   2.0055671   4.4324605  16.2273083  )
        43           Ti1 tau(  43) = (   3.3963104   0.0511244  16.3072024  )
        44           Ti1 tau(  44) = (   0.1011521   4.5293608  16.0606835  )
        45           O1  tau(  45) = (   3.2900926   2.9813045   4.7018136  )
        46           O1  tau(  46) = (   1.3039711   4.4726057   6.0039043  )
        47           O1  tau(  47) = (   5.2763189   4.4711207   6.0039473  )
        48           N1  tau(  48) = (   0.7799224   3.1460235  19.0808133  )
        49           N1  tau(  49) = (   6.3029119   3.3142126  18.0946246  )
        50           C1  tau(  50) = (   0.9829876   4.3911599  19.8296872  )
        51           H1  tau(  51) = (   0.0599524   4.7630682  20.2995108  )
        52           H1  tau(  52) = (   1.7087173   4.1728717  20.6153690  )
        53           H1  tau(  53) = (   1.3778604   5.1510331  19.1745456  )
        54           H1  tau(  54) = (   0.4845774   2.4057476  19.7140978  )
        55           H1  tau(  55) = (   5.5451363   3.8924421  18.4761980  )
        56           H1  tau(  56) = (   5.8791802   2.3931312  17.9634808  )
        57           O1  tau(  57) = (   3.3895457   0.1916509  18.1699706  )
        58           H1  tau(  58) = (   3.8128180   5.4341384  18.6581559  )

     number of k points=    10  Fermi-Dirac smearing, width (Ry)=  0.0073
                       cart. coord. in units 2pi/alat
        k(    1) = (   0.0000000   0.0000000   0.0000000), wk =   0.1250000
        k(    2) = (   0.0000000   0.0419351   0.0000000), wk =   0.2500000
        k(    3) = (   0.0000000  -0.0838702   0.0000000), wk =   0.1250000
        k(    4) = (   0.0379955   0.0000049   0.0000000), wk =   0.2500000
        k(    5) = (   0.0379955   0.0419400   0.0000000), wk =   0.2500000
        k(    6) = (   0.0379955  -0.0838652   0.0000000), wk =   0.2500000
        k(    7) = (   0.0379955  -0.0419301   0.0000000), wk =   0.2500000
        k(    8) = (  -0.0759910  -0.0000099   0.0000000), wk =   0.1250000
        k(    9) = (  -0.0759910   0.0419252   0.0000000), wk =   0.2500000
        k(   10) = (  -0.0759910  -0.0838800   0.0000000), wk =   0.1250000

     Initial potential from superposition of free atoms

     starting charge  388.99913, renormalised to  405.00000

     negative rho (up, down):  1.368E-02 0.000E+00

     %%%%%%%%%%%%%%%%%%%%%%%%%%%%%%%%%%%%%%%%%%%%%%%%%%%%%%%%%%%%%%%%%%%%%%%%
     %                                                                      %
     % You are using vdW-DF, which was implemented by the Thonhauser group. %
     % Please cite the following two papers that made this development      %
     % possible and the two reviews that describe the various versions:     %
     %                                                                      %
     %   T. Thonhauser et al., PRL 115, 136402 (2015).                      %
     %   T. Thonhauser et al., PRB 76, 125112 (2007).                       %
     %   K. Berland et al., Rep. Prog. Phys. 78, 066501 (2015).             %
     %   D.C. Langreth et al., J. Phys.: Condens. Matter 21, 084203 (2009). %
     %                                                                      %
     %                                                                      %
     % If you are calculating the stress with vdW-DF, please also cite:     %
     %                                                                      %
     %   R. Sabatini et al., J. Phys.: Condens. Matter 24, 424209 (2012).   %
     %                                                                      %
     %%%%%%%%%%%%%%%%%%%%%%%%%%%%%%%%%%%%%%%%%%%%%%%%%%%%%%%%%%%%%%%%%%%%%%%%

     Adding external electric field

     Computed dipole along edir(3) :
        Dipole              -14.8124 Ry au,        -37.6493 Debye
        Dipole field         -0.0280 Ry au,

        Potential amp.        2.5912 Ry
        Total length         46.3494 bohr

     Starting wfcs are  307 atomic wfcs
  @ DRIVER MODE: Message from server: STATUS
  @ DRIVER MODE: Message from server: POSDATA
  @ DRIVER MODE: Reading and sharing cell
  @ DRIVER MODE: Reading and sharing positions
  @ DRIVER MODE: Received positions

     Self-consistent Calculation

     iteration #  1     ecut=    29.40 Ry     beta= 0.05
     Davidson diagonalization with overlap
     c_bands:  4 eigenvalues not converged
     c_bands:  4 eigenvalues not converged
     c_bands:  5 eigenvalues not converged
     c_bands:  2 eigenvalues not converged
     c_bands:  3 eigenvalues not converged
     c_bands:  4 eigenvalues not converged
     c_bands:  2 eigenvalues not converged
     ethr =  1.00E-05,  avg # of iterations = 22.9

[...]

     total energy              =   -2202.99342214 Ry
     estimated scf accuracy    <    8803.82758234 Ry

     iteration #  2     ecut=    29.40 Ry     beta= 0.05
     Davidson diagonalization with overlap
     ethr =  1.00E-02,  avg # of iterations = 30.1

[...]

     iteration # 74     ecut=    29.40 Ry     beta= 0.05
     Davidson diagonalization with overlap
     c_bands:  2 eigenvalues not converged
     ethr =  6.32E-11,  avg # of iterations = 13.4

[...]

     total energy              =   -2976.46387982 Ry
     estimated scf accuracy    <       0.00000008 Ry

     iteration # 79     ecut=    29.40 Ry     beta= 0.05
     Davidson diagonalization with overlap
     ethr =  2.00E-11,  avg # of iterations = 10.4

     negative rho (up, down):  1.441E-02 0.000E+00

     Adding external electric field

     Computed dipole along edir(3) :
        Dipole                1.2295 Ry au,          3.1251 Debye
        Dipole field          0.0023 Ry au,

        Potential amp.       -0.2151 Ry
        Total length         46.3494 bohr

     End of self-consistent calculation

          k = 0.0000 0.0000 0.0000 ( 18029 PWs)   bands (ev):

   -55.4435 -55.3551 -55.3210 -55.2163 -55.2134 -55.1859 -55.1836 -55.1758
   -55.1518 -55.1287 -55.0856 -54.9839 -54.9356 -54.8920 -54.3297 -54.2956
   -31.8402 -31.7897 -31.7201 -31.7026 -31.6886 -31.6742 -31.6536 -31.6459
   -31.6148 -31.6013 -31.5952 -31.5076 -31.4927 -31.4854 -31.4657 -31.4622
   -31.4582 -31.4490 -31.4485 -31.4187 -31.4125 -31.3909 -31.3839 -31.3740
   -31.3691 -31.3530 -31.3521 -31.3202 -31.3198 -31.3133 -31.3125 -31.3067
   -31.2985 -31.2804 -31.2566 -31.2380 -31.1729 -31.1513 -31.1394 -31.1312
   -31.1104 -31.1012 -30.7357 -30.6493 -30.6269 -30.5532 -30.4668 -30.3550
   -17.7186 -16.3674 -16.0094 -15.8455 -15.6307 -15.5380 -15.5110 -15.3121
   -15.2172 -15.1589 -14.9577 -14.9305 -14.8928 -14.8800 -14.8711 -14.8501
   -14.8466 -14.7949 -14.7795 -14.7695 -14.7660 -14.7358 -14.7087 -14.6695
   -14.6096 -14.5961 -14.4935 -14.4381 -14.3982 -14.1569 -14.1370 -13.1395
   -12.8288 -12.7125  -9.4614  -6.4292  -5.7333  -4.2500  -3.9341  -3.3675
    -3.2661  -3.2544  -3.1986  -3.1304  -2.9578  -2.8827  -2.7938  -2.7466
    -2.6390  -2.5966  -2.4906  -2.4419  -2.3695  -2.3226  -2.2816  -2.2476
    -2.2198  -2.1631  -2.1407  -2.1146  -2.1039  -2.0308  -2.0127  -1.9232
    -1.8899  -1.8767  -1.7589  -1.7246  -1.6898  -1.6765  -1.6672  -1.6618
    -1.6180  -1.6068  -1.5962  -1.5549  -1.4537  -1.4460  -1.4281  -1.3375
    -1.2404  -0.9899  -0.9586  -0.9083  -0.8968  -0.8186  -0.7799  -0.7483
    -0.7158  -0.6461  -0.6351  -0.6088  -0.5475  -0.4718  -0.4175  -0.3699
    -0.3358  -0.2239  -0.1739  -0.1300  -0.0972  -0.0604   0.0025   0.0419
     0.0661   0.1093   0.1969   0.2598   0.2875   0.3042   0.3547   0.3965
     0.4346   0.4748   0.5468   0.5694   0.5795   0.6188   0.6273   0.6483
     0.7437   0.7621   0.8216   0.8488   0.9368   0.9678   1.0119   1.1817
     1.2508   1.3094   1.3881   1.4779   1.6417   1.6961   1.7212   1.8902
     2.2635   2.3089   3.7287   3.8762   3.8924   3.9700   3.9870   4.0512
     4.2177   4.2768   4.4144   4.4247

[...]

          k = 0.0380-0.0419 0.0000 ( 17876 PWs)   bands (ev):

[...]

          k =-0.0760-0.0000 0.0000 ( 17886 PWs)   bands (ev):

[...]

          k =-0.0760-0.0839 0.0000 ( 17948 PWs)   bands (ev):

   -55.4427 -55.3382 -55.3378 -55.2150 -55.2017 -55.1874 -55.1843 -55.1700
   -55.1672 -55.1206 -55.0937 -54.9808 -54.9366 -54.8950 -54.3126 -54.3126
   -31.7284 -31.6683 -31.6557 -31.6554 -31.6547 -31.6404 -31.6316 -31.6312
   -31.5741 -31.5292 -31.5078 -31.4970 -31.4916 -31.4863 -31.4637 -31.4580
   -31.4574 -31.4544 -31.4480 -31.4354 -31.4287 -31.4259 -31.4143 -31.3883
   -31.3836 -31.3818 -31.3743 -31.3665 -31.3481 -31.3427 -31.3392 -31.3388
   -31.3361 -31.3158 -31.3143 -31.2499 -31.2328 -31.2053 -31.1772 -31.1536
   -31.1473 -31.1060 -30.6396 -30.6396 -30.5487 -30.5484 -30.5101 -30.5099
   -17.7144 -16.3575 -15.5900 -15.4450 -15.3366 -15.3262 -15.2023 -15.1351
   -15.1254 -15.0918 -15.0690 -15.0470 -15.0285 -15.0134 -14.9586 -14.9189
   -14.8875 -14.8602 -14.8555 -14.8126 -14.8029 -14.7916 -14.7736 -14.7620
   -14.7069 -14.6706 -14.6609 -14.6026 -14.4635 -14.4435 -14.2871 -13.1406
   -12.8144 -12.8142  -9.4807  -6.4133  -5.7394  -4.2368  -3.9221  -2.9418
    -2.8025  -2.6594  -2.6495  -2.5612  -2.4479  -2.4258  -2.3654  -2.3152
    -2.2909  -2.2693  -2.2178  -2.2073  -2.1611  -2.1450  -2.1213  -2.1063
    -2.0897  -2.0833  -2.0551  -2.0394  -2.0291  -2.0155  -1.9891  -1.9781
    -1.9598  -1.9311  -1.9108  -1.9018  -1.8684  -1.8261  -1.7655  -1.6548
    -1.5814  -1.5699  -1.5257  -1.5006  -1.4843  -1.4434  -1.4308  -1.3898
    -1.3724  -1.3063  -1.1485  -1.1238  -1.1087  -0.9661  -0.9589  -0.9300
    -0.8560  -0.8142  -0.7924  -0.7346  -0.7051  -0.6651  -0.5875  -0.5443
    -0.4906  -0.4240  -0.3240  -0.3164  -0.3002  -0.2804  -0.2641  -0.2562
    -0.2231  -0.1858  -0.1128  -0.0663  -0.0575  -0.0515  -0.0005   0.0794
     0.1303   0.2447   0.3909   0.3953   0.4621   0.4632   0.6626   0.6715
     0.7483   0.7834   0.8182   0.8454   0.9391   0.9572   0.9948   1.0774
     1.1413   1.1707   1.1917   1.1964   1.2496   1.4627   2.0585   2.0663
     2.1292   2.1293   3.9699   4.2027   4.2432   4.2563   4.2746   4.3011
     4.3148   4.3291   4.3956   4.4193

     the Fermi energy is     3.7660 ev

!    total energy              =   -2976.46389275 Ry
     estimated scf accuracy    <       0.00000007 Ry
     smearing contrib. (-TS)   =      -0.01955636 Ry
     internal energy E=F+TS    =   -2976.44433639 Ry

     The total energy is F=E-TS. E is the sum of the following terms:
     one-electron contribution =  -23037.18232110 Ry
     hartree contribution      =   11616.32473576 Ry
     xc contribution           =    -495.72470660 Ry
     ewald contribution        =    8940.13510271 Ry
     electric field correction =       0.00285283 Ry

     convergence has been achieved in  79 iterations

     Forces acting on atoms (cartesian axes, Ry/au):

     atom    1 type  1   force =     0.00016007   -0.00023333    0.09415327
     atom    2 type  1   force =    -0.00009926    0.00018573   -0.17536089
     atom    3 type  2   force =     0.00005485   -0.00049185   -0.02102404
     atom    4 type  2   force =    -0.00002367   -0.00093840    0.05425732
     atom    5 type  2   force =    -0.00489094   -0.00215949    0.00106028
     atom    6 type  2   force =     0.00671422   -0.00138458    0.00107622
     atom    7 type  1   force =     0.00006248    0.00330900    0.00864085
     atom    8 type  1   force =    -0.00010132    0.00119830    0.00271393
     atom    9 type  2   force =    -0.00021879   -0.00030976   -0.00060086
     atom   10 type  2   force =    -0.00111810    0.00429308   -0.01025970
     atom   11 type  2   force =    -0.00007896   -0.00055395   -0.00010734
     atom   12 type  2   force =     0.00062296   -0.00031929   -0.00026915
     atom   13 type  1   force =    -0.00142959    0.00019754   -0.00057031
     atom   14 type  1   force =     0.00071016    0.00017452   -0.00046464
     atom   15 type  2   force =     0.00012896    0.00001377    0.00004296
     atom   16 type  2   force =    -0.00009502   -0.00069938   -0.00029120
     atom   17 type  2   force =    -0.00045282    0.00065875    0.00006928
     atom   18 type  2   force =    -0.00075493    0.00028967   -0.00021948
     atom   19 type  1   force =     0.00040912   -0.00092192    0.00061192
     atom   20 type  1   force =    -0.00069364    0.00000165    0.00052142
     atom   21 type  2   force =     0.00003851   -0.00000972    0.10319163
     atom   22 type  2   force =    -0.00008910   -0.00000647    0.00050747
     atom   23 type  2   force =    -0.07197563   -0.00019422   -0.02723523
     atom   24 type  2   force =     0.07185329    0.00026161   -0.02730715
     atom   25 type  1   force =     0.00007289   -0.00016414    0.09388737
     atom   26 type  1   force =    -0.00011722   -0.00136372   -0.17549947
     atom   27 type  2   force =     0.00011196   -0.00005507   -0.01983927
     atom   28 type  2   force =     0.00006456   -0.00105066    0.04980684
     atom   29 type  2   force =    -0.00747408    0.00209412    0.00338560
     atom   30 type  2   force =     0.00907859    0.00223604    0.00330309
     atom   31 type  1   force =     0.00019581    0.00151325    0.00004414
     atom   32 type  1   force =    -0.00008858   -0.00226109    0.00302472
     atom   33 type  2   force =    -0.00017650   -0.00030524   -0.00003923
     atom   34 type  2   force =    -0.00117072   -0.00218477   -0.00965510
     atom   35 type  2   force =     0.00063968    0.00005755   -0.00022376
     atom   36 type  2   force =     0.00037689    0.00011783   -0.00035269
     atom   37 type  1   force =    -0.00096150    0.00024679    0.00035676
     atom   38 type  1   force =     0.00096510   -0.00024354    0.00020596
     atom   39 type  2   force =    -0.00016677   -0.00053915    0.00008170
     atom   40 type  2   force =    -0.00019836   -0.00018718   -0.00016445
     atom   41 type  2   force =     0.00022395   -0.00028661   -0.00011147
     atom   42 type  2   force =    -0.00064855    0.00008459   -0.00010154
     atom   43 type  1   force =     0.00024885    0.00091633    0.00033419
     atom   44 type  1   force =    -0.00041314    0.00072107    0.00008516
     atom   45 type  2   force =     0.00002464    0.00003455    0.10300862
     atom   46 type  2   force =    -0.07192651   -0.00008326   -0.02718981
     atom   47 type  2   force =     0.07181731    0.00034689   -0.02727255
     atom   48 type  3   force =     0.00139833    0.00590607    0.00056462
     atom   49 type  3   force =    -0.00056784   -0.00035116   -0.00040626
     atom   50 type  4   force =    -0.00017574   -0.01899308    0.00333042
     atom   51 type  5   force =    -0.00300656    0.00228994    0.00135588
     atom   52 type  5   force =    -0.00074235    0.00216661   -0.00100211
     atom   53 type  5   force =     0.00241660    0.00728481   -0.00515800
     atom   54 type  5   force =     0.00056121    0.00070950    0.00090450
     atom   55 type  5   force =     0.00047231   -0.00072266   -0.00012212
     atom   56 type  5   force =     0.00052866   -0.00000533   -0.00012618
     atom   57 type  2   force =     0.00068282   -0.00122057    0.00025474
     atom   58 type  5   force =    -0.00077857    0.00093001    0.00019315

     Total force =     0.362659     Total SCF correction =     0.001046
  @ DRIVER MODE: Message from server: STATUS
  @ DRIVER MODE: Message from server: GETFORCE
  @ DRIVER MODE: Returning v,forces,stress,ensemble

     Writing output data file ./calc.save/
  @ DRIVER MODE: Message from server: EXIT
  @ DRIVE MODE: Exiting

     General routines

     Parallel routines

   This run was terminated on:  18:14: 1  23Sep2021

   JOB DONE.