     Program PWSCF v.6.7GPU starts on 22Sep2021 at  0:13:22

     R & G space division:  proc/nbgrp/npool/nimage =      10
     Reading input from /storage/home/hcoda1/3/ntian30/research/carbon/CxH_vib/CH_calc/ads_slab/CHNHNHH2O_b/out_0006/pw.inp
Warning: card &CELL ignored
Warning: card   CELL_DYNAMICS='IPI', ignored
Warning: card / ignored

     Current dimensions of program PWSCF are:
     Max number of different atomic species (ntypx) = 10
     Max number of k-points (npk) =  40000
     Max angular momentum in pseudopotentials (lmaxx) =  3
     Presently no symmetry can be used with electric field

     Message from routine cell_base_init:
     DEPRECATED: use true lattice parameter, not A to a.u. conversion factor

     IMPORTANT: XC functional enforced from input :
     Exchange-correlation= BEEF-VDW
                           (   1   4  43  14   2   0   0)
     Any further DFT definition will be discarded
     Please, verify this is what you really want

  @ DRIVER MODE: Connecting to
 qe_1139763_2927424.sched-torque.pace.gatech.eduyck7b2wy_scratch
  using UNIX socket
  @ DRIVER MODE: Message from server: STATUS
  @ DRIVER MODE: Message from server: INIT
  @ DRIVER MODE: Receiving replica           0          -1
  @ DRIVER MODE: Receiving encoded integer          25
  @ DRIVER MODE:  SCF:  T  FORCE:  T  STRESS:  F  VC:  F  ENSEMBLE:  F
  @ DRIVER MODE:  SCF:  T  FORCE:  T  STRESS:  F  VC:  F  ENSEMBLE:  F

     Using Slab Decomposition

     bravais-lattice index     =            0
     lattice parameter (alat)  =       1.8897  a.u.
     unit-cell volume          =    6658.9804 (a.u.)^3
     number of atoms/cell      =           56
     number of atomic types    =            5
     number of electrons       =       403.00
     number of Kohn-Sham states=          211
     kinetic-energy cutoff     =      29.3995  Ry
     charge density cutoff     =     293.9946  Ry
     scf convergence threshold =      7.3E-08
     mixing beta               =       0.0500
     number of iterations used =            8  plain     mixing
     Exchange-correlation= BEEF-VDW
                           (   1   4  43  14   2   0   0)

     celldm(1)=   1.889726  celldm(2)=   0.000000  celldm(3)=   0.000000
     celldm(4)=   0.000000  celldm(5)=   0.000000  celldm(6)=   0.000000

     crystal axes: (cart. coord. in units of alat)
               a(1) = (   6.579727   0.000000   0.000000 )
               a(2) = (  -0.000775   5.961596   0.000000 )
               a(3) = (   0.000000   0.000000  25.155947 )

     reciprocal axes: (cart. coord. in units 2 pi/alat)
               b(1) = (  0.151982  0.000020  0.000000 )
               b(2) = (  0.000000  0.167740  0.000000 )
               b(3) = (  0.000000  0.000000  0.039752 )

     PseudoPot. # 1 for Ti read from file:
     /storage/coda1/p-amedford6/0/shared/rich_project_chbe-medford/medford-share/data/pseudos_module/espresso/nninc/pbe/van/Ti.UPF
     MD5 check sum: 8e4df49b7f0d34bbd5052bf3f5ea0213
     Pseudo is Ultrasoft, Zval = 12.0
     Generated by new atomic code, or converted to UPF format
     Using radial grid of  851 points,  6 beta functions with:
                l(1) =   0
                l(2) =   0
                l(3) =   1
                l(4) =   1
                l(5) =   2
                l(6) =   2
     Q(r) pseudized with  8 coefficients,  rinner =    1.000   1.000   1.000
                                                       1.000   1.000

     PseudoPot. # 2 for O  read from file:
     /storage/coda1/p-amedford6/0/shared/rich_project_chbe-medford/medford-share/data/pseudos_module/espresso/nninc/pbe/van/O.UPF
     MD5 check sum: 78c19812648e8988a0fe644b0f25305e
     Pseudo is Ultrasoft, Zval =  6.0
     Generated by new atomic code, or converted to UPF format
     Using radial grid of  737 points,  4 beta functions with:
                l(1) =   0
                l(2) =   0
                l(3) =   1
                l(4) =   1
     Q(r) pseudized with  8 coefficients,  rinner =    0.800   0.800   0.800

     PseudoPot. # 3 for N  read from file:
     /storage/coda1/p-amedford6/0/shared/rich_project_chbe-medford/medford-share/data/pseudos_module/espresso/nninc/pbe/van/N.UPF
     MD5 check sum: 90d10febe142ad51ac9d5be1deb811c4
     Pseudo is Ultrasoft, Zval =  5.0
     Generated by new atomic code, or converted to UPF format
     Using radial grid of  729 points,  4 beta functions with:
                l(1) =   0
                l(2) =   0
                l(3) =   1
                l(4) =   1
     Q(r) pseudized with  8 coefficients,  rinner =    0.800   0.800   0.800

     PseudoPot. # 4 for C  read from file:
     /storage/coda1/p-amedford6/0/shared/rich_project_chbe-medford/medford-share/data/pseudos_module/espresso/nninc/pbe/van/C.UPF
     MD5 check sum: 1a69bf6b8db32088f5b2163dbdb77a27
     Pseudo is Ultrasoft, Zval =  4.0
     Generated by new atomic code, or converted to UPF format
     Using radial grid of  721 points,  4 beta functions with:
                l(1) =   0
                l(2) =   0
                l(3) =   1
                l(4) =   1
     Q(r) pseudized with  8 coefficients,  rinner =    0.800   0.800   0.800

     PseudoPot. # 5 for H  read from file:
     /storage/coda1/p-amedford6/0/shared/rich_project_chbe-medford/medford-share/data/pseudos_module/espresso/nninc/pbe/van/H.UPF
     MD5 check sum: b5ee9d7bfd3a09ee7748110bda690ff7
     Pseudo is Ultrasoft, Zval =  1.0
     Generated by new atomic code, or converted to UPF format
     Using radial grid of  615 points,  1 beta functions with:
                l(1) =   0
     Q(r) pseudized with  8 coefficients,  rinner =    0.800

     atomic species   valence    mass     pseudopotential
        Ti1           12.00    47.86700     Ti( 1.00)
        O1             6.00    15.99900     O ( 1.00)
        N1             5.00    14.00700     N ( 1.00)
        C1             4.00    12.01100     C ( 1.00)
        H1             1.00     1.00800     H ( 1.00)

     No symmetry found

   Cartesian axes

     site n.     atom                  positions (alat units)
         1           Ti1 tau(   1) = (   0.0004258   2.9801865   6.0000000  )
         2           Ti1 tau(   2) = (   3.2906075   1.4906267   6.0002472  )
         3           O1  tau(   3) = (   0.0006271   0.0005054   7.9858123  )
         4           O1  tau(   4) = (   3.2906025   0.0005020   7.3038282  )
         5           O1  tau(   5) = (   4.5942328   1.4918067   9.2879030  )
         6           O1  tau(   6) = (   1.9868534   1.4903216   9.2879459  )
         7           Ti1 tau(   7) = (   3.2907910   2.8959150   9.1758416  )
         8           Ti1 tau(   8) = (   0.0015273   1.4827037   9.2680791  )
         9           O1  tau(   9) = (   3.2780774   5.9605562  11.3537357  )
        10           O1  tau(  10) = (   0.0116148   5.9584955  10.6183126  )
        11           O1  tau(  11) = (   1.2922713   1.4781662  12.6511241  )
        12           O1  tau(  12) = (   5.2965393   1.5043564  12.6031353  )
        13           Ti1 tau(  13) = (   6.5273184   3.0207086  12.5807821  )
        14           Ti1 tau(  14) = (   3.2344070   1.4559942  12.5004267  )
        15           O1  tau(  15) = (   6.4759410   0.0295824  14.6525783  )
        16           O1  tau(  16) = (   3.3604338   0.0238249  13.9383540  )
        17           O1  tau(  17) = (   4.5324113   1.5808541  16.1066768  )
        18           O1  tau(  18) = (   1.9684897   1.4712893  15.8817925  )
        19           Ti1 tau(  19) = (   3.2566353   3.0739815  15.8599551  )
        20           Ti1 tau(  20) = (   6.5466614   1.5318677  15.7800735  )
        21           O1  tau(  21) = (   3.2904802   0.0005063   4.7018136  )
        22           O1  tau(  22) = (   6.5744325   0.0155309  17.2227980  )
        23           O1  tau(  23) = (   1.3043587   1.4918075   6.0039043  )
        24           O1  tau(  24) = (   5.2767064   1.4903225   6.0039473  )
        25           Ti1 tau(  25) = (   0.0000382   5.9609847   6.0000000  )
        26           Ti1 tau(  26) = (   3.2902200   4.4714249   6.0002472  )
        27           O1  tau(  27) = (   0.0002396   2.9813036   7.9858123  )
        28           O1  tau(  28) = (   3.2902150   2.9813002   7.3038282  )
        29           O1  tau(  29) = (   4.5938453   4.4726049   9.2879030  )
        30           O1  tau(  30) = (   1.9864658   4.4711199   9.2879459  )
        31           Ti1 tau(  31) = (   3.2891106   5.8743827   9.1763621  )
        32           Ti1 tau(  32) = (   0.0006254   4.4649316   9.2693709  )
        33           O1  tau(  33) = (   3.2727763   2.9788165  11.3438337  )
        34           O1  tau(  34) = (   0.0092240   2.9805883  10.6323155  )
        35           O1  tau(  35) = (   1.2865780   4.4896361  12.6556599  )
        36           O1  tau(  36) = (   5.2967437   4.4749066  12.6066920  )
        37           Ti1 tau(  37) = (   6.5467059   0.0356701  12.5108493  )
        38           Ti1 tau(  38) = (   3.2305653   4.4019604  12.5605372  )
        39           O1  tau(  39) = (   6.5199767   2.9846217  14.6905747  )
        40           O1  tau(  40) = (   3.2851694   3.0254550  13.9321539  )
        41           O1  tau(  41) = (   4.5310495   4.4602642  16.1636806  )
        42           O1  tau(  42) = (   1.9842988   4.5744318  15.9411167  )
        43           Ti1 tau(  43) = (   3.2691225   0.1036042  15.7405456  )
        44           Ti1 tau(  44) = (   6.5697781   4.6877429  16.0360384  )
        45           O1  tau(  45) = (   3.2900926   2.9813045   4.7018136  )
        46           O1  tau(  46) = (   1.3039711   4.4726057   6.0039043  )
        47           O1  tau(  47) = (   5.2763189   4.4711207   6.0039473  )
        48           N1  tau(  48) = (   1.2792381   2.8578196  18.3796018  )
        49           N1  tau(  49) = (   0.1888888   2.9646215  17.5057353  )
        50           C1  tau(  50) = (   2.5352320   2.9081513  18.0382144  )
        51           H1  tau(  51) = (   3.1442446   2.7411670  18.9317345  )
        52           H1  tau(  52) = (   1.0014291   2.6635404  19.3302151  )
        53           H1  tau(  53) = (   5.9397212   2.8571719  18.0851170  )
        54           O1  tau(  54) = (   3.2630597   0.0341043  18.2348460  )
        55           H1  tau(  55) = (   4.0455299   5.4198958  18.2485053  )
        56           H1  tau(  56) = (   2.4923979   5.4091459  18.3156537  )

     number of k points=    10  Fermi-Dirac smearing, width (Ry)=  0.0073
                       cart. coord. in units 2pi/alat
        k(    1) = (   0.0000000   0.0000000   0.0000000), wk =   0.1250000
        k(    2) = (   0.0000000   0.0419351   0.0000000), wk =   0.2500000
        k(    3) = (   0.0000000  -0.0838702   0.0000000), wk =   0.1250000
        k(    4) = (   0.0379955   0.0000049   0.0000000), wk =   0.2500000
        k(    5) = (   0.0379955   0.0419400   0.0000000), wk =   0.2500000
        k(    6) = (   0.0379955  -0.0838652   0.0000000), wk =   0.2500000
        k(    7) = (   0.0379955  -0.0419301   0.0000000), wk =   0.2500000
        k(    8) = (  -0.0759910  -0.0000099   0.0000000), wk =   0.1250000
        k(    9) = (  -0.0759910   0.0419252   0.0000000), wk =   0.2500000
        k(   10) = (  -0.0759910  -0.0838800   0.0000000), wk =   0.1250000

     Initial potential from superposition of free atoms

     starting charge  386.99914, renormalised to  403.00000

     negative rho (up, down):  1.738E-02 0.000E+00

     %%%%%%%%%%%%%%%%%%%%%%%%%%%%%%%%%%%%%%%%%%%%%%%%%%%%%%%%%%%%%%%%%%%%%%%%
     %                                                                      %
     % You are using vdW-DF, which was implemented by the Thonhauser group. %
     % Please cite the following two papers that made this development      %
     % possible and the two reviews that describe the various versions:     %
     %                                                                      %
     %   T. Thonhauser et al., PRL 115, 136402 (2015).                      %
     %   T. Thonhauser et al., PRB 76, 125112 (2007).                       %
     %   K. Berland et al., Rep. Prog. Phys. 78, 066501 (2015).             %
     %   D.C. Langreth et al., J. Phys.: Condens. Matter 21, 084203 (2009). %
     %                                                                      %
     %                                                                      %
     % If you are calculating the stress with vdW-DF, please also cite:     %
     %                                                                      %
     %   R. Sabatini et al., J. Phys.: Condens. Matter 24, 424209 (2012).   %
     %                                                                      %
     %%%%%%%%%%%%%%%%%%%%%%%%%%%%%%%%%%%%%%%%%%%%%%%%%%%%%%%%%%%%%%%%%%%%%%%%

     Adding external electric field

     Computed dipole along edir(3) :
        Dipole              -12.3502 Ry au,        -31.3910 Debye
        Dipole field         -0.0233 Ry au,

        Potential amp.        2.1605 Ry
        Total length         46.3494 bohr

     Starting wfcs are  305 atomic wfcs
  @ DRIVER MODE: Message from server: STATUS
  @ DRIVER MODE: Message from server: POSDATA
  @ DRIVER MODE: Reading and sharing cell
  @ DRIVER MODE: Reading and sharing positions
  @ DRIVER MODE: Received positions

     Self-consistent Calculation

     iteration #  1     ecut=    29.40 Ry     beta= 0.05
     Davidson diagonalization with overlap
     c_bands:  5 eigenvalues not converged
     c_bands:  3 eigenvalues not converged
     c_bands:  3 eigenvalues not converged
     c_bands:  1 eigenvalues not converged
     c_bands:  2 eigenvalues not converged
     c_bands:  2 eigenvalues not converged
     c_bands:  5 eigenvalues not converged
     c_bands:  2 eigenvalues not converged
     c_bands:  4 eigenvalues not converged
     ethr =  1.00E-05,  avg # of iterations = 29.3

[...]

     total energy              =   -2358.71976810 Ry
     estimated scf accuracy    <    6971.48858521 Ry

     iteration #  2     ecut=    29.40 Ry     beta= 0.05
     Davidson diagonalization with overlap
     ethr =  1.00E-02,  avg # of iterations = 26.2

[...]

     iteration # 57     ecut=    29.40 Ry     beta= 0.05
     Davidson diagonalization with overlap
     c_bands:  3 eigenvalues not converged
     ethr =  5.48E-11,  avg # of iterations = 10.3

[...]

     total energy              =   -2973.93987305 Ry
     estimated scf accuracy    <       0.00000008 Ry

     iteration # 65     ecut=    29.40 Ry     beta= 0.05
     Davidson diagonalization with overlap
     ethr =  1.94E-11,  avg # of iterations =  8.2

     negative rho (up, down):  1.726E-02 0.000E+00

     Adding external electric field

     Computed dipole along edir(3) :
        Dipole                1.3989 Ry au,          3.5556 Debye
        Dipole field          0.0026 Ry au,

        Potential amp.       -0.2447 Ry
        Total length         46.3494 bohr

     End of self-consistent calculation

          k = 0.0000 0.0000 0.0000 ( 18029 PWs)   bands (ev):

   -55.3200 -55.2859 -55.2111 -55.1862 -55.1681 -55.1562 -55.1409 -55.1190
   -55.1071 -55.1067 -55.0982 -55.0637 -54.9905 -54.8317 -54.3005 -54.2665
   -31.8042 -31.7321 -31.6579 -31.6507 -31.6407 -31.6120 -31.5879 -31.5652
   -31.5205 -31.4994 -31.4723 -31.4647 -31.4563 -31.4415 -31.4260 -31.4221
   -31.3987 -31.3811 -31.3772 -31.3658 -31.3368 -31.3336 -31.3294 -31.3266
   -31.3239 -31.3198 -31.3155 -31.2977 -31.2898 -31.2798 -31.2733 -31.2729
   -31.2645 -31.2614 -31.2527 -31.2488 -31.2383 -31.2134 -31.2108 -31.0877
   -31.0732 -31.0474 -30.7074 -30.6193 -30.5969 -30.5243 -30.4379 -30.3266
   -18.8770 -18.6090 -15.9785 -15.7945 -15.6134 -15.4746 -15.3925 -15.1609
   -15.1021 -15.0640 -14.9830 -14.9597 -14.8595 -14.8408 -14.8391 -14.8211
   -14.8182 -14.7632 -14.7472 -14.7432 -14.6947 -14.6880 -14.6627 -14.6474
   -14.5940 -14.5159 -14.5079 -14.4610 -14.4158 -14.3694 -14.0202 -13.3804
   -12.8013 -12.6848  -8.8773  -7.2327  -6.6174  -4.2818  -3.7627  -3.3606
    -3.2836  -3.2499  -3.2249  -3.0892  -2.9720  -2.8588  -2.7591  -2.6715
    -2.5851  -2.4808  -2.4243  -2.3787  -2.3184  -2.2583  -2.2319  -2.1462
    -2.1263  -2.1069  -2.0851  -2.0587  -2.0292  -1.9915  -1.8696  -1.8589
    -1.7772  -1.7204  -1.6822  -1.6640  -1.6394  -1.6342  -1.6011  -1.5816
    -1.5733  -1.5619  -1.5600  -1.5245  -1.3863  -1.3634  -1.3330  -1.3094
    -1.1632  -1.0268  -0.9370  -0.9351  -0.8258  -0.7612  -0.7579  -0.7194
    -0.7038  -0.6007  -0.5163  -0.4793  -0.4547  -0.3766  -0.3192  -0.2625
    -0.2112  -0.1758  -0.1102  -0.0856  -0.0691  -0.0521   0.0177   0.0795
     0.1409   0.2257   0.2697   0.2935   0.3848   0.3991   0.4215   0.4869
     0.5184   0.5635   0.5988   0.6279   0.6517   0.6819   0.7072   0.7504
     0.7877   0.9144   0.9330   0.9610   0.9826   1.1567   1.2070   1.3005
     1.3389   1.4462   1.4833   1.6619   1.7234   1.8027   1.9153   2.2935
     2.3393   3.7891   3.9005   3.9345   3.9596   3.9990   4.0500   4.2568
     4.3298   4.3708   4.4273

[...]

          k = 0.0380-0.0419 0.0000 ( 17876 PWs)   bands (ev):

[...]

          k =-0.0760-0.0000 0.0000 ( 17886 PWs)   bands (ev):

[...]

          k =-0.0760-0.0839 0.0000 ( 17948 PWs)   bands (ev):

   -55.3031 -55.3026 -55.2016 -55.1827 -55.1767 -55.1447 -55.1309 -55.1241
   -55.1233 -55.1105 -55.0850 -55.0770 -54.9888 -54.8333 -54.2835 -54.2834
   -31.6196 -31.6193 -31.5976 -31.5972 -31.5663 -31.5341 -31.5026 -31.4906
   -31.4834 -31.4682 -31.4494 -31.4456 -31.4403 -31.4314 -31.4260 -31.4226
   -31.4225 -31.4222 -31.4174 -31.4017 -31.3901 -31.3768 -31.3667 -31.3637
   -31.3585 -31.3542 -31.3447 -31.3324 -31.3264 -31.3250 -31.3098 -31.3007
   -31.2972 -31.2967 -31.2950 -31.2920 -31.2644 -31.2318 -31.2178 -31.1443
   -31.0900 -31.0762 -30.6096 -30.6096 -30.5202 -30.5201 -30.4812 -30.4811
   -18.8677 -18.6139 -15.3553 -15.3208 -15.2830 -15.2555 -15.2390 -15.1186
   -15.1046 -15.0689 -15.0273 -15.0144 -14.9840 -14.9554 -14.9063 -14.8980
   -14.8640 -14.8444 -14.8049 -14.7788 -14.7595 -14.7551 -14.7385 -14.7168
   -14.6736 -14.6517 -14.6389 -14.6346 -14.5826 -14.4875 -14.2049 -13.4031
   -12.7867 -12.7866  -8.8736  -7.1567  -6.6184  -4.4912  -3.5366  -2.8653
    -2.6739  -2.6310  -2.5792  -2.4895  -2.4420  -2.3199  -2.3130  -2.2908
    -2.2453  -2.2321  -2.1909  -2.1509  -2.1451  -2.1174  -2.1049  -2.0604
    -2.0492  -2.0457  -2.0317  -1.9979  -1.9926  -1.9721  -1.9476  -1.9447
    -1.9340  -1.9181  -1.8847  -1.8776  -1.8498  -1.8312  -1.6805  -1.6072
    -1.5631  -1.4863  -1.4632  -1.4464  -1.4271  -1.3925  -1.3722  -1.3467
    -1.3182  -1.1714  -1.0317  -0.9973  -0.9729  -0.8744  -0.8586  -0.8390
    -0.7943  -0.7514  -0.7149  -0.6561  -0.6490  -0.6004  -0.5809  -0.4603
    -0.4231  -0.3241  -0.2887  -0.2866  -0.2691  -0.2549  -0.2369  -0.2113
    -0.1630  -0.0906  -0.0752  -0.0265  -0.0027  -0.0001   0.0129   0.1595
     0.2296   0.2497   0.3540   0.3826   0.5578   0.7213   0.7331   0.8010
     0.8642   0.9203   0.9527   0.9928   1.0023   1.0685   1.0924   1.1959
     1.2079   1.2572   1.2577   1.3448   1.3538   2.0871   2.0888   2.1592
     2.1594   4.1534   4.1661   4.1968   4.2597   4.3032   4.3148   4.3524
     4.3562   4.4592   4.4749

     the Fermi energy is     3.8072 ev

!    total energy              =   -2973.93990127 Ry
     estimated scf accuracy    <       0.00000004 Ry
     smearing contrib. (-TS)   =      -0.02073093 Ry
     internal energy E=F+TS    =   -2973.91917034 Ry

     The total energy is F=E-TS. E is the sum of the following terms:
     one-electron contribution =  -24336.34470329 Ry
     hartree contribution      =   12265.88213376 Ry
     xc contribution           =    -494.11649768 Ry
     ewald contribution        =    9590.65620408 Ry
     electric field correction =       0.00369279 Ry

     convergence has been achieved in  65 iterations

     Forces acting on atoms (cartesian axes, Ry/au):

     atom    1 type  1   force =     0.00002529   -0.00009545    0.09507644
     atom    2 type  1   force =     0.00018425   -0.00068668   -0.17564646
     atom    3 type  2   force =     0.00008933   -0.00004545   -0.02293715
     atom    4 type  2   force =     0.00002248   -0.00143479    0.05291445
     atom    5 type  2   force =    -0.01001136   -0.00031578    0.00381105
     atom    6 type  2   force =     0.01113558    0.00020122    0.00206541
     atom    7 type  1   force =    -0.00020947    0.00178835   -0.00590875
     atom    8 type  1   force =     0.00080587    0.01009126    0.01603896
     atom    9 type  2   force =    -0.00015191    0.00086402    0.00034094
     atom   10 type  2   force =    -0.00227159    0.00217889   -0.01802913
     atom   11 type  2   force =     0.00024970   -0.00002393    0.00006999
     atom   12 type  2   force =    -0.00035567   -0.00018143    0.00054854
     atom   13 type  1   force =    -0.00001927    0.00125465    0.00024183
     atom   14 type  1   force =    -0.00012365    0.00003800   -0.00000683
     atom   15 type  2   force =     0.00012126    0.00023741   -0.00011628
     atom   16 type  2   force =    -0.00037574    0.00044286   -0.00025596
     atom   17 type  2   force =    -0.00030151   -0.00017593   -0.00003401
     atom   18 type  2   force =     0.00013434    0.00006747    0.00049627
     atom   19 type  1   force =    -0.00082316    0.00030850   -0.00056224
     atom   20 type  1   force =    -0.00007459   -0.00003110    0.00075054
     atom   21 type  2   force =     0.00009123   -0.00008599    0.10319375
     atom   22 type  2   force =     0.00035780   -0.00004983    0.00039717
     atom   23 type  2   force =    -0.07159474   -0.00016702   -0.02758038
     atom   24 type  2   force =     0.07155414    0.00024706   -0.02762873
     atom   25 type  1   force =     0.00023440   -0.00039012    0.09516698
     atom   26 type  1   force =    -0.00004637   -0.00020163   -0.17580020
     atom   27 type  2   force =     0.00012242   -0.00012444   -0.02196552
     atom   28 type  2   force =     0.00001415   -0.00140012    0.05324489
     atom   29 type  2   force =    -0.01035851   -0.00022953    0.00365357
     atom   30 type  2   force =     0.01139541    0.00042260    0.00192210
     atom   31 type  1   force =    -0.00030872    0.00266741   -0.00010968
     atom   32 type  1   force =     0.00067417   -0.01114505    0.01691945
     atom   33 type  2   force =     0.00036944   -0.00026735    0.00002557
     atom   34 type  2   force =    -0.00033810    0.00144052   -0.01895040
     atom   35 type  2   force =     0.00000449   -0.00036155   -0.00017507
     atom   36 type  2   force =    -0.00000795   -0.00025163    0.00042382
     atom   37 type  1   force =    -0.00005867   -0.00123008    0.00042059
     atom   38 type  1   force =    -0.00039787    0.00095079    0.00003644
     atom   39 type  2   force =     0.00008344    0.00010713    0.00006864
     atom   40 type  2   force =    -0.00045625   -0.00057924    0.00021420
     atom   41 type  2   force =     0.00005238   -0.00019948    0.00027645
     atom   42 type  2   force =    -0.00001028   -0.00033199   -0.00022825
     atom   43 type  1   force =    -0.00024892   -0.00022316    0.00044641
     atom   44 type  1   force =     0.00023026   -0.00041460    0.00079527
     atom   45 type  2   force =     0.00010059   -0.00010308    0.10321379
     atom   46 type  2   force =    -0.07157971   -0.00016869   -0.02757054
     atom   47 type  2   force =     0.07158042    0.00024237   -0.02758418
     atom   48 type  3   force =     0.00454784    0.00344134   -0.02547467
     atom   49 type  3   force =     0.00289146   -0.00054205    0.00578592
     atom   50 type  4   force =    -0.00414143   -0.00100039    0.00591254
     atom   51 type  5   force =     0.00120579   -0.00049898   -0.00017511
     atom   52 type  5   force =    -0.00338579   -0.00371317    0.01282860
     atom   53 type  5   force =    -0.00066719   -0.00035371   -0.00084694
     atom   54 type  2   force =    -0.00008333    0.00102267   -0.00010969
     atom   55 type  5   force =     0.00019515   -0.00021717   -0.00000053
     atom   56 type  5   force =    -0.00007134   -0.00077392    0.00039610

     Total force =     0.366518     Total SCF correction =     0.000472
  @ DRIVER MODE: Message from server: STATUS
  @ DRIVER MODE: Message from server: GETFORCE
  @ DRIVER MODE: Returning v,forces,stress,ensemble

     Writing output data file ./calc.save/
  @ DRIVER MODE: Message from server: EXIT
  @ DRIVE MODE: Exiting

     General routines

     Parallel routines

   This run was terminated on:   0:33:38  22Sep2021

   JOB DONE.