     Program PWSCF v.6.7GPU starts on 11Sep2021 at  8:15: 3

     R & G space division:  proc/nbgrp/npool/nimage =      10
     Reading input from /storage/home/hcoda1/3/ntian30/research/carbon/CxH_vib/CH2_calc/ads_slab/CH2NHNH2_a/out_0040/pw.inp
Warning: card &CELL ignored
Warning: card   CELL_DYNAMICS='IPI', ignored
Warning: card / ignored

     Current dimensions of program PWSCF are:
     Max number of different atomic species (ntypx) = 10
     Max number of k-points (npk) =  40000
     Max angular momentum in pseudopotentials (lmaxx) =  3
     Presently no symmetry can be used with electric field

     Message from routine cell_base_init:
     DEPRECATED: use true lattice parameter, not A to a.u. conversion factor

     IMPORTANT: XC functional enforced from input :
     Exchange-correlation= BEEF-VDW
                           (   1   4  43  14   2   0   0)
     Any further DFT definition will be discarded
     Please, verify this is what you really want

  @ DRIVER MODE: Connecting to
 qe_1139763_2792044.sched-torque.pace.gatech.edubem8_p5q_scratch
  using UNIX socket
  @ DRIVER MODE: Message from server: STATUS
  @ DRIVER MODE: Message from server: INIT
  @ DRIVER MODE: Receiving replica           0          -1
  @ DRIVER MODE: Receiving encoded integer          25
  @ DRIVER MODE:  SCF:  T  FORCE:  T  STRESS:  F  VC:  F  ENSEMBLE:  F
  @ DRIVER MODE:  SCF:  T  FORCE:  T  STRESS:  F  VC:  F  ENSEMBLE:  F

     Using Slab Decomposition

     bravais-lattice index     =            0
     lattice parameter (alat)  =       1.8897  a.u.
     unit-cell volume          =    6658.9804 (a.u.)^3
     number of atoms/cell      =           55
     number of atomic types    =            5
     number of electrons       =       397.00
     number of Kohn-Sham states=          208
     kinetic-energy cutoff     =      29.3995  Ry
     charge density cutoff     =     293.9946  Ry
     scf convergence threshold =      7.3E-08
     mixing beta               =       0.0500
     number of iterations used =            8  plain     mixing
     Exchange-correlation= BEEF-VDW
                           (   1   4  43  14   2   0   0)

     celldm(1)=   1.889726  celldm(2)=   0.000000  celldm(3)=   0.000000
     celldm(4)=   0.000000  celldm(5)=   0.000000  celldm(6)=   0.000000

     crystal axes: (cart. coord. in units of alat)
               a(1) = (   6.579727   0.000000   0.000000 )
               a(2) = (  -0.000775   5.961596   0.000000 )
               a(3) = (   0.000000   0.000000  25.155947 )

     reciprocal axes: (cart. coord. in units 2 pi/alat)
               b(1) = (  0.151982  0.000020  0.000000 )
               b(2) = (  0.000000  0.167740  0.000000 )
               b(3) = (  0.000000  0.000000  0.039752 )

     PseudoPot. # 1 for Ti read from file:
     /storage/coda1/p-amedford6/0/shared/rich_project_chbe-medford/medford-share/data/pseudos_module/espresso/nninc/pbe/van/Ti.UPF
     MD5 check sum: 8e4df49b7f0d34bbd5052bf3f5ea0213
     Pseudo is Ultrasoft, Zval = 12.0
     Generated by new atomic code, or converted to UPF format
     Using radial grid of  851 points,  6 beta functions with:
                l(1) =   0
                l(2) =   0
                l(3) =   1
                l(4) =   1
                l(5) =   2
                l(6) =   2
     Q(r) pseudized with  8 coefficients,  rinner =    1.000   1.000   1.000
                                                       1.000   1.000

     PseudoPot. # 2 for O  read from file:
     /storage/coda1/p-amedford6/0/shared/rich_project_chbe-medford/medford-share/data/pseudos_module/espresso/nninc/pbe/van/O.UPF
     MD5 check sum: 78c19812648e8988a0fe644b0f25305e
     Pseudo is Ultrasoft, Zval =  6.0
     Generated by new atomic code, or converted to UPF format
     Using radial grid of  737 points,  4 beta functions with:
                l(1) =   0
                l(2) =   0
                l(3) =   1
                l(4) =   1
     Q(r) pseudized with  8 coefficients,  rinner =    0.800   0.800   0.800

     PseudoPot. # 3 for N  read from file:
     /storage/coda1/p-amedford6/0/shared/rich_project_chbe-medford/medford-share/data/pseudos_module/espresso/nninc/pbe/van/N.UPF
     MD5 check sum: 90d10febe142ad51ac9d5be1deb811c4
     Pseudo is Ultrasoft, Zval =  5.0
     Generated by new atomic code, or converted to UPF format
     Using radial grid of  729 points,  4 beta functions with:
                l(1) =   0
                l(2) =   0
                l(3) =   1
                l(4) =   1
     Q(r) pseudized with  8 coefficients,  rinner =    0.800   0.800   0.800

     PseudoPot. # 4 for C  read from file:
     /storage/coda1/p-amedford6/0/shared/rich_project_chbe-medford/medford-share/data/pseudos_module/espresso/nninc/pbe/van/C.UPF
     MD5 check sum: 1a69bf6b8db32088f5b2163dbdb77a27
     Pseudo is Ultrasoft, Zval =  4.0
     Generated by new atomic code, or converted to UPF format
     Using radial grid of  721 points,  4 beta functions with:
                l(1) =   0
                l(2) =   0
                l(3) =   1
                l(4) =   1
     Q(r) pseudized with  8 coefficients,  rinner =    0.800   0.800   0.800

     PseudoPot. # 5 for H  read from file:
     /storage/coda1/p-amedford6/0/shared/rich_project_chbe-medford/medford-share/data/pseudos_module/espresso/nninc/pbe/van/H.UPF
     MD5 check sum: b5ee9d7bfd3a09ee7748110bda690ff7
     Pseudo is Ultrasoft, Zval =  1.0
     Generated by new atomic code, or converted to UPF format
     Using radial grid of  615 points,  1 beta functions with:
                l(1) =   0
     Q(r) pseudized with  8 coefficients,  rinner =    0.800

     atomic species   valence    mass     pseudopotential
        Ti1           12.00    47.86700     Ti( 1.00)
        O1             6.00    15.99900     O ( 1.00)
        N1             5.00    14.00700     N ( 1.00)
        C1             4.00    12.01100     C ( 1.00)
        H1             1.00     1.00800     H ( 1.00)

     No symmetry found

   Cartesian axes

     site n.     atom                  positions (alat units)
         1           Ti1 tau(   1) = (   0.0004258   2.9801865   6.0000000  )
         2           Ti1 tau(   2) = (   3.2906075   1.4906267   6.0002472  )
         3           O1  tau(   3) = (   0.0006271   0.0005054   7.9858123  )
         4           O1  tau(   4) = (   3.2906025   0.0005020   7.3038282  )
         5           O1  tau(   5) = (   4.5942328   1.4918067   9.2879030  )
         6           O1  tau(   6) = (   1.9868534   1.4903216   9.2879459  )
         7           Ti1 tau(   7) = (   3.2907910   2.8959150   9.1758416  )
         8           Ti1 tau(   8) = (   0.0015273   1.4827037   9.2680791  )
         9           O1  tau(   9) = (   3.2904964   5.9585769  11.3857690  )
        10           O1  tau(  10) = (   0.0116148   5.9584955  10.6183126  )
        11           O1  tau(  11) = (   1.2878431   1.4867815  12.6991744  )
        12           O1  tau(  12) = (   5.2968392   1.4897239  12.6840540  )
        13           Ti1 tau(  13) = (   0.0031652   2.9724310  12.5021289  )
        14           Ti1 tau(  14) = (   3.2974598   1.4750309  12.5411678  )
        15           O1  tau(  15) = (   6.5490940   5.8844369  14.7025010  )
        16           O1  tau(  16) = (   3.3056738   5.9474069  14.0077327  )
        17           O1  tau(  17) = (   4.5358307   1.5199601  16.1809847  )
        18           O1  tau(  18) = (   2.0145668   1.5037208  16.1256758  )
        19           Ti1 tau(  19) = (   3.2722398   2.9952086  15.7861162  )
        20           Ti1 tau(  20) = (   6.5630583   1.3046800  15.8709962  )
        21           O1  tau(  21) = (   3.2904802   0.0005063   4.7018136  )
        22           O1  tau(  22) = (   0.0019326   0.1554656  17.2922311  )
        23           O1  tau(  23) = (   1.3043587   1.4918075   6.0039043  )
        24           O1  tau(  24) = (   5.2767064   1.4903225   6.0039473  )
        25           Ti1 tau(  25) = (   0.0000382   5.9609847   6.0000000  )
        26           Ti1 tau(  26) = (   3.2902200   4.4714249   6.0002472  )
        27           O1  tau(  27) = (   0.0002396   2.9813036   7.9858123  )
        28           O1  tau(  28) = (   3.2902150   2.9813002   7.3038282  )
        29           O1  tau(  29) = (   4.5938453   4.4726049   9.2879030  )
        30           O1  tau(  30) = (   1.9864658   4.4711199   9.2879459  )
        31           Ti1 tau(  31) = (   3.2891106   5.8743827   9.1763621  )
        32           Ti1 tau(  32) = (   0.0006254   4.4649316   9.2693709  )
        33           O1  tau(  33) = (   3.2902589   2.9648534  11.3782866  )
        34           O1  tau(  34) = (   0.0092240   2.9805883  10.6323155  )
        35           O1  tau(  35) = (   1.2907939   4.4579819  12.6664495  )
        36           O1  tau(  36) = (   5.2949113   4.4550998  12.6520156  )
        37           Ti1 tau(  37) = (   0.0082621   5.9437129  12.5015890  )
        38           Ti1 tau(  38) = (   3.2989848   4.4491302  12.5337562  )
        39           O1  tau(  39) = (   6.5545586   3.0159292  14.9830317  )
        40           O1  tau(  40) = (   3.2960925   2.9977268  13.9872472  )
        41           O1  tau(  41) = (   4.5245867   4.4695491  16.2648171  )
        42           O1  tau(  42) = (   2.0004542   4.4779941  16.2115700  )
        43           Ti1 tau(  43) = (   3.2998562   0.0139781  15.8031611  )
        44           Ti1 tau(  44) = (   0.0298651   4.5190837  16.0363964  )
        45           O1  tau(  45) = (   3.2900926   2.9813045   4.7018136  )
        46           O1  tau(  46) = (   1.3039711   4.4726057   6.0039043  )
        47           O1  tau(  47) = (   5.2763189   4.4711207   6.0039473  )
        48           N1  tau(  48) = (   0.7490466   2.5008218  18.8353846  )
        49           N1  tau(  49) = (   6.4369825   3.4131575  18.1751453  )
        50           C1  tau(  50) = (   1.9829018   2.9174465  19.1941100  )
        51           H1  tau(  51) = (   2.1359794   3.9544348  19.4490303  )
        52           H1  tau(  52) = (   2.6935556   2.1521737  19.4548401  )
        53           H1  tau(  53) = (   0.6355624   1.5475814  18.4636284  )
        54           H1  tau(  54) = (   6.4936903   4.3258724  18.6511896  )
        55           H1  tau(  55) = (   5.4890587   3.0624770  18.3097170  )

     number of k points=    10  Fermi-Dirac smearing, width (Ry)=  0.0073
                       cart. coord. in units 2pi/alat
        k(    1) = (   0.0000000   0.0000000   0.0000000), wk =   0.1250000
        k(    2) = (   0.0000000   0.0419351   0.0000000), wk =   0.2500000
        k(    3) = (   0.0000000  -0.0838702   0.0000000), wk =   0.1250000
        k(    4) = (   0.0379955   0.0000049   0.0000000), wk =   0.2500000
        k(    5) = (   0.0379955   0.0419400   0.0000000), wk =   0.2500000
        k(    6) = (   0.0379955  -0.0838652   0.0000000), wk =   0.2500000
        k(    7) = (   0.0379955  -0.0419301   0.0000000), wk =   0.2500000
        k(    8) = (  -0.0759910  -0.0000099   0.0000000), wk =   0.1250000
        k(    9) = (  -0.0759910   0.0419252   0.0000000), wk =   0.2500000
        k(   10) = (  -0.0759910  -0.0838800   0.0000000), wk =   0.1250000

     Initial potential from superposition of free atoms

     starting charge  380.99914, renormalised to  397.00000

     negative rho (up, down):  1.606E-02 0.000E+00

     %%%%%%%%%%%%%%%%%%%%%%%%%%%%%%%%%%%%%%%%%%%%%%%%%%%%%%%%%%%%%%%%%%%%%%%%
     %                                                                      %
     % You are using vdW-DF, which was implemented by the Thonhauser group. %
     % Please cite the following two papers that made this development      %
     % possible and the two reviews that describe the various versions:     %
     %                                                                      %
     %   T. Thonhauser et al., PRL 115, 136402 (2015).                      %
     %   T. Thonhauser et al., PRB 76, 125112 (2007).                       %
     %   K. Berland et al., Rep. Prog. Phys. 78, 066501 (2015).             %
     %   D.C. Langreth et al., J. Phys.: Condens. Matter 21, 084203 (2009). %
     %                                                                      %
     %                                                                      %
     % If you are calculating the stress with vdW-DF, please also cite:     %
     %                                                                      %
     %   R. Sabatini et al., J. Phys.: Condens. Matter 24, 424209 (2012).   %
     %                                                                      %
     %%%%%%%%%%%%%%%%%%%%%%%%%%%%%%%%%%%%%%%%%%%%%%%%%%%%%%%%%%%%%%%%%%%%%%%%

     Adding external electric field

     Computed dipole along edir(3) :
        Dipole              -10.6770 Ry au,        -27.1381 Debye
        Dipole field         -0.0201 Ry au,

        Potential amp.        1.8678 Ry
        Total length         46.3494 bohr

     Starting wfcs are  301 atomic wfcs
  @ DRIVER MODE: Message from server: STATUS
  @ DRIVER MODE: Message from server: POSDATA
  @ DRIVER MODE: Reading and sharing cell
  @ DRIVER MODE: Reading and sharing positions
  @ DRIVER MODE: Received positions

     Self-consistent Calculation

     iteration #  1     ecut=    29.40 Ry     beta= 0.05
     Davidson diagonalization with overlap
     c_bands:  2 eigenvalues not converged
     c_bands:  3 eigenvalues not converged
     c_bands:  1 eigenvalues not converged
     c_bands:  4 eigenvalues not converged
     c_bands:  4 eigenvalues not converged
     c_bands:  4 eigenvalues not converged
     c_bands:  1 eigenvalues not converged
     c_bands:  2 eigenvalues not converged
     c_bands:  2 eigenvalues not converged
     ethr =  1.00E-05,  avg # of iterations = 20.0

[...]

     total energy              =   -2465.33106765 Ry
     estimated scf accuracy    <    5331.44054425 Ry

     iteration #  2     ecut=    29.40 Ry     beta= 0.05
     Davidson diagonalization with overlap
     ethr =  1.00E-02,  avg # of iterations = 22.7

[...]

     iteration # 89     ecut=    29.40 Ry     beta= 0.05
     Davidson diagonalization with overlap
     c_bands:  1 eigenvalues not converged
     ethr =  2.65E-11,  avg # of iterations = 11.1

[...]

     total energy              =   -2941.51052994 Ry
     estimated scf accuracy    <       0.00000008 Ry

     iteration # 90     ecut=    29.40 Ry     beta= 0.05
     Davidson diagonalization with overlap
     ethr =  2.12E-11,  avg # of iterations =  6.1

     negative rho (up, down):  1.514E-02 0.000E+00

     Adding external electric field

     Computed dipole along edir(3) :
        Dipole                1.2012 Ry au,          3.0532 Debye
        Dipole field          0.0023 Ry au,

        Potential amp.       -0.2101 Ry
        Total length         46.3494 bohr

     End of self-consistent calculation

          k = 0.0000 0.0000 0.0000 ( 18029 PWs)   bands (ev):

   -55.3826 -55.3457 -55.3369 -55.3028 -55.2643 -55.2583 -55.2297 -55.2112
   -55.1870 -55.1845 -55.1769 -55.1674 -55.1337 -55.0329 -54.3696 -54.3355
   -31.9455 -31.8302 -31.7778 -31.7516 -31.7003 -31.6900 -31.6843 -31.6739
   -31.6256 -31.6172 -31.5948 -31.5816 -31.5725 -31.5482 -31.5418 -31.5348
   -31.5224 -31.5063 -31.5049 -31.4896 -31.4888 -31.4520 -31.4515 -31.4416
   -31.4415 -31.4136 -31.3947 -31.3941 -31.3938 -31.3890 -31.3731 -31.3662
   -31.3653 -31.3591 -31.3590 -31.3565 -31.3245 -31.3005 -31.2952 -31.2788
   -31.2479 -31.2029 -30.7792 -30.6845 -30.6625 -30.5955 -30.5087 -30.3978
   -18.8832 -16.2148 -15.9613 -15.8143 -15.7067 -15.5891 -15.4805 -15.4256
   -15.3193 -15.2479 -15.1346 -15.0848 -15.0684 -15.0364 -15.0273 -15.0151
   -14.9353 -14.9290 -14.9113 -14.8881 -14.8824 -14.8404 -14.8288 -14.7878
   -14.7629 -14.7566 -14.6356 -14.5496 -14.4749 -14.3157 -14.3031 -12.8724
   -12.7549  -9.8490  -7.4598  -6.2448  -4.9855  -4.0116  -3.5969  -3.5472
    -3.4084  -3.3002  -3.2793  -3.2423  -3.1429  -2.9622  -2.8255  -2.7924
    -2.6760  -2.5953  -2.5821  -2.5516  -2.4264  -2.3895  -2.3509  -2.2861
    -2.2564  -2.1938  -2.1750  -2.1638  -2.1447  -2.1207  -2.0960  -1.9952
    -1.9562  -1.8605  -1.8208  -1.7871  -1.7460  -1.7288  -1.7085  -1.6778
    -1.6677  -1.6135  -1.6001  -1.5857  -1.5367  -1.4191  -1.2980  -1.2646
    -1.1763  -1.0279  -0.9910  -0.9707  -0.9140  -0.8784  -0.8562  -0.8258
    -0.7650  -0.7259  -0.6661  -0.6086  -0.5409  -0.4968  -0.4493  -0.4124
    -0.3780  -0.2936  -0.2126  -0.1679  -0.1547  -0.1379  -0.0383  -0.0020
     0.0521   0.1292   0.1311   0.1433   0.1856   0.2683   0.3456   0.3627
     0.3864   0.4915   0.4961   0.5391   0.5416   0.5618   0.5960   0.6302
     0.6808   0.7079   0.7951   0.8917   1.1171   1.2185   1.2223   1.5455
     1.5567   1.6529   1.8359   2.2296   2.2780   3.7093   3.7798   3.8016
     3.8572   3.8601   3.9299   3.9466   4.1922   4.2177   4.2182   4.2373

[...]

          k = 0.0380-0.0419 0.0000 ( 17876 PWs)   bands (ev):

[...]

          k =-0.0760-0.0000 0.0000 ( 17886 PWs)   bands (ev):

[...]

          k =-0.0760-0.0839 0.0000 ( 17948 PWs)   bands (ev):

   -55.3686 -55.3595 -55.3199 -55.3197 -55.2539 -55.2491 -55.2448 -55.1955
   -55.1922 -55.1903 -55.1832 -55.1510 -55.1502 -55.0351 -54.3526 -54.3523
   -31.7546 -31.7455 -31.6866 -31.6623 -31.6453 -31.6452 -31.6272 -31.6109
   -31.6108 -31.5942 -31.5863 -31.5781 -31.5627 -31.5308 -31.5284 -31.5241
   -31.5236 -31.5224 -31.5110 -31.5068 -31.4777 -31.4652 -31.4613 -31.4515
   -31.4459 -31.4422 -31.4397 -31.4395 -31.4366 -31.4279 -31.4252 -31.4081
   -31.4071 -31.4046 -31.3852 -31.3836 -31.3833 -31.3734 -31.3315 -31.3306
   -31.2972 -31.2497 -30.6752 -30.6750 -30.5917 -30.5915 -30.5522 -30.5520
   -18.8770 -15.7665 -15.5976 -15.5785 -15.4341 -15.3979 -15.3551 -15.3441
   -15.2502 -15.2152 -15.1889 -15.1579 -15.1369 -15.1012 -15.0877 -15.0709
   -15.0137 -14.9913 -14.9857 -14.9659 -14.9067 -14.9023 -14.8947 -14.8918
   -14.8370 -14.8338 -14.8259 -14.7431 -14.7402 -14.6273 -14.2314 -12.8564
   -12.8562  -9.8183  -7.4204  -6.2410  -5.0832  -3.9540  -3.6213  -2.8550
    -2.8487  -2.8353  -2.6502  -2.5674  -2.5447  -2.5393  -2.4493  -2.4118
    -2.3668  -2.3641  -2.3111  -2.3047  -2.2773  -2.2367  -2.2252  -2.2052
    -2.1865  -2.1778  -2.1422  -2.1188  -2.1089  -2.0790  -2.0481  -2.0324
    -2.0242  -2.0026  -1.9719  -1.9524  -1.9403  -1.8871  -1.7753  -1.7600
    -1.6649  -1.5978  -1.5935  -1.5202  -1.4961  -1.4541  -1.4462  -1.4214
    -1.3764  -1.1978  -1.1661  -1.1348  -1.1271  -1.0416  -0.9891  -0.9176
    -0.9120  -0.8862  -0.8509  -0.7579  -0.7215  -0.7021  -0.6266  -0.6031
    -0.5363  -0.4935  -0.4291  -0.3984  -0.3442  -0.3423  -0.3069  -0.2934
    -0.2713  -0.2046  -0.1584  -0.1241  -0.1117  -0.0799   0.1169   0.1264
     0.1422   0.2498   0.2958   0.4429   0.4578   0.5206   0.6265   0.6526
     0.7230   0.7478   0.9039   0.9161   0.9299   0.9845   0.9926   1.0624
     1.0718   2.0090   2.0095   2.0979   2.0981   3.6776   3.8960   3.9673
     3.9825   4.0152   4.1397   4.2087   4.2269   4.2952   4.2980   4.3278

     the Fermi energy is     3.7752 ev

!    total energy              =   -2941.51053243 Ry
     estimated scf accuracy    <       0.00000006 Ry
     smearing contrib. (-TS)   =      -0.04441387 Ry
     internal energy E=F+TS    =   -2941.46611856 Ry

     The total energy is F=E-TS. E is the sum of the following terms:
     one-electron contribution =  -23633.64052019 Ry
     hartree contribution      =   11909.11027662 Ry
     xc contribution           =    -486.87910428 Ry
     ewald contribution        =    9269.94050620 Ry
     electric field correction =       0.00272309 Ry

     convergence has been achieved in  90 iterations

     Forces acting on atoms (cartesian axes, Ry/au):

     atom    1 type  1   force =     0.00013233   -0.00019231    0.09301177
     atom    2 type  1   force =    -0.00008844   -0.00044982   -0.17843485
     atom    3 type  2   force =     0.00004749   -0.00037205   -0.02005963
     atom    4 type  2   force =    -0.00001003   -0.00202088    0.05933119
     atom    5 type  2   force =    -0.01031001   -0.00098654    0.00816450
     atom    6 type  2   force =     0.01174136   -0.00038702    0.00730540
     atom    7 type  1   force =    -0.00038225    0.00238874   -0.01419620
     atom    8 type  1   force =     0.00023181   -0.00122932   -0.00618826
     atom    9 type  2   force =    -0.00023245    0.00021915    0.00013459
     atom   10 type  2   force =    -0.00162413    0.00148220    0.00162273
     atom   11 type  2   force =    -0.00004804   -0.00016117    0.00009570
     atom   12 type  2   force =    -0.00017773   -0.00016256   -0.00001246
     atom   13 type  1   force =     0.00007168   -0.00027441    0.00005482
     atom   14 type  1   force =     0.00017759    0.00018824    0.00028321
     atom   15 type  2   force =    -0.00006252    0.00023436   -0.00028936
     atom   16 type  2   force =     0.00017500   -0.00021780    0.00012996
     atom   17 type  2   force =     0.00001149   -0.00002376    0.00044706
     atom   18 type  2   force =    -0.00027591   -0.00005359   -0.00012844
     atom   19 type  1   force =    -0.00009892   -0.00007735    0.00022079
     atom   20 type  1   force =    -0.00014498    0.00017582    0.00004669
     atom   21 type  2   force =     0.00005855   -0.00008662    0.10405128
     atom   22 type  2   force =     0.00008969   -0.00024728   -0.00003587
     atom   23 type  2   force =    -0.07032859   -0.00016513   -0.02688555
     atom   24 type  2   force =     0.07021317    0.00028197   -0.02691151
     atom   25 type  1   force =    -0.00001520   -0.00013992    0.09258045
     atom   26 type  1   force =    -0.00006707   -0.00039699   -0.17858682
     atom   27 type  2   force =     0.00009633   -0.00030215   -0.01915907
     atom   28 type  2   force =     0.00003854   -0.00178832    0.05866935
     atom   29 type  2   force =    -0.01080659   -0.00126162    0.00871041
     atom   30 type  2   force =     0.01216035   -0.00086098    0.00781222
     atom   31 type  1   force =    -0.00028715    0.00613285   -0.01443197
     atom   32 type  1   force =     0.00028879    0.00070581   -0.00650878
     atom   33 type  2   force =    -0.00022701   -0.00025353   -0.00000344
     atom   34 type  2   force =    -0.00093497   -0.00222871   -0.00017207
     atom   35 type  2   force =    -0.00040476    0.00023343    0.00014549
     atom   36 type  2   force =     0.00011511    0.00019285   -0.00027497
     atom   37 type  1   force =     0.00017677   -0.00001537    0.00004822
     atom   38 type  1   force =     0.00032317    0.00019408    0.00009605
     atom   39 type  2   force =    -0.00026227    0.00006530   -0.00025449
     atom   40 type  2   force =    -0.00009268   -0.00015640   -0.00008151
     atom   41 type  2   force =    -0.00002885    0.00032554    0.00002079
     atom   42 type  2   force =    -0.00023552    0.00010663    0.00005520
     atom   43 type  1   force =     0.00044874   -0.00001953    0.00017954
     atom   44 type  1   force =     0.00007580   -0.00027892   -0.00028434
     atom   45 type  2   force =     0.00004453   -0.00008739    0.10405398
     atom   46 type  2   force =    -0.07030941   -0.00011538   -0.02684216
     atom   47 type  2   force =     0.07018618    0.00030151   -0.02687858
     atom   48 type  3   force =     0.00109407    0.00085600    0.00028063
     atom   49 type  3   force =     0.00143828    0.01074888    0.00460767
     atom   50 type  4   force =    -0.00087296    0.00015200   -0.00112467
     atom   51 type  5   force =     0.00042291   -0.00097061    0.00010901
     atom   52 type  5   force =     0.00034702    0.00042962    0.00016879
     atom   53 type  5   force =    -0.00052939    0.00141724    0.00017518
     atom   54 type  5   force =    -0.00074037   -0.01082476   -0.00510969
     atom   55 type  5   force =    -0.00060849   -0.00002402    0.00024203

     Total force =     0.366874     Total SCF correction =     0.001112
  @ DRIVER MODE: Message from server: STATUS
  @ DRIVER MODE: Message from server: GETFORCE
  @ DRIVER MODE: Returning v,forces,stress,ensemble

     Writing output data file ./calc.save/
  @ DRIVER MODE: Message from server: EXIT
  @ DRIVE MODE: Exiting

     General routines

     Parallel routines

   This run was terminated on:   8:38:11  11Sep2021

   JOB DONE.