     Program PWSCF v.6.7GPU starts on  3Aug2021 at  1:33:36

     R & G space division:  proc/nbgrp/npool/nimage =      16
     Reading input from /storage/home/hcoda1/3/ntian30/research/carbon/02Aug_vib_paired/ads_slab/CH3NHHH_a/out_0044/pw.inp
Warning: card &CELL ignored
Warning: card   CELL_DYNAMICS='IPI', ignored
Warning: card / ignored

     Current dimensions of program PWSCF are:
     Max number of different atomic species (ntypx) = 10
     Max number of k-points (npk) =  40000
     Max angular momentum in pseudopotentials (lmaxx) =  3
     Presently no symmetry can be used with electric field

     Message from routine cell_base_init:
     DEPRECATED: use true lattice parameter, not A to a.u. conversion factor

     IMPORTANT: XC functional enforced from input :
     Exchange-correlation= BEEF-VDW
                           (   1   4  43  14   2   0   0)
     Any further DFT definition will be discarded
     Please, verify this is what you really want

  @ DRIVER MODE: Connecting to
 qe_1139763_2482537.sched-torque.pace.gatech.edu7kogu9kf_scratch
  using UNIX socket
  @ DRIVER MODE: Message from server: STATUS
  @ DRIVER MODE: Message from server: INIT
  @ DRIVER MODE: Receiving replica           0          -1
  @ DRIVER MODE: Receiving encoded integer          25
  @ DRIVER MODE:  SCF:  T  FORCE:  T  STRESS:  F  VC:  F  ENSEMBLE:  F
  @ DRIVER MODE:  SCF:  T  FORCE:  T  STRESS:  F  VC:  F  ENSEMBLE:  F

     Using Slab Decomposition

     bravais-lattice index     =            0
     lattice parameter (alat)  =       1.8897  a.u.
     unit-cell volume          =    6658.9804 (a.u.)^3
     number of atoms/cell      =           55
     number of atomic types    =            5
     number of electrons       =       393.00
     number of Kohn-Sham states=          206
     kinetic-energy cutoff     =      29.3995  Ry
     charge density cutoff     =     293.9946  Ry
     scf convergence threshold =      7.3E-08
     mixing beta               =       0.0500
     number of iterations used =            8  plain     mixing
     Exchange-correlation= BEEF-VDW
                           (   1   4  43  14   2   0   0)

     celldm(1)=   1.889726  celldm(2)=   0.000000  celldm(3)=   0.000000
     celldm(4)=   0.000000  celldm(5)=   0.000000  celldm(6)=   0.000000

     crystal axes: (cart. coord. in units of alat)
               a(1) = (   6.579727   0.000000   0.000000 )
               a(2) = (  -0.000775   5.961596   0.000000 )
               a(3) = (   0.000000   0.000000  25.155947 )

     reciprocal axes: (cart. coord. in units 2 pi/alat)
               b(1) = (  0.151982  0.000020  0.000000 )
               b(2) = (  0.000000  0.167740  0.000000 )
               b(3) = (  0.000000  0.000000  0.039752 )

     PseudoPot. # 1 for Ti read from file:
     /storage/coda1/p-amedford6/0/shared/rich_project_chbe-medford/medford-share/data/pseudos_module/espresso/nninc/pbe/van/Ti.UPF
     MD5 check sum: 8e4df49b7f0d34bbd5052bf3f5ea0213
     Pseudo is Ultrasoft, Zval = 12.0
     Generated by new atomic code, or converted to UPF format
     Using radial grid of  851 points,  6 beta functions with:
                l(1) =   0
                l(2) =   0
                l(3) =   1
                l(4) =   1
                l(5) =   2
                l(6) =   2
     Q(r) pseudized with  8 coefficients,  rinner =    1.000   1.000   1.000
                                                       1.000   1.000

     PseudoPot. # 2 for O  read from file:
     /storage/coda1/p-amedford6/0/shared/rich_project_chbe-medford/medford-share/data/pseudos_module/espresso/nninc/pbe/van/O.UPF
     MD5 check sum: 78c19812648e8988a0fe644b0f25305e
     Pseudo is Ultrasoft, Zval =  6.0
     Generated by new atomic code, or converted to UPF format
     Using radial grid of  737 points,  4 beta functions with:
                l(1) =   0
                l(2) =   0
                l(3) =   1
                l(4) =   1
     Q(r) pseudized with  8 coefficients,  rinner =    0.800   0.800   0.800

     PseudoPot. # 3 for N  read from file:
     /storage/coda1/p-amedford6/0/shared/rich_project_chbe-medford/medford-share/data/pseudos_module/espresso/nninc/pbe/van/N.UPF
     MD5 check sum: 90d10febe142ad51ac9d5be1deb811c4
     Pseudo is Ultrasoft, Zval =  5.0
     Generated by new atomic code, or converted to UPF format
     Using radial grid of  729 points,  4 beta functions with:
                l(1) =   0
                l(2) =   0
                l(3) =   1
                l(4) =   1
     Q(r) pseudized with  8 coefficients,  rinner =    0.800   0.800   0.800

     PseudoPot. # 4 for C  read from file:
     /storage/coda1/p-amedford6/0/shared/rich_project_chbe-medford/medford-share/data/pseudos_module/espresso/nninc/pbe/van/C.UPF
     MD5 check sum: 1a69bf6b8db32088f5b2163dbdb77a27
     Pseudo is Ultrasoft, Zval =  4.0
     Generated by new atomic code, or converted to UPF format
     Using radial grid of  721 points,  4 beta functions with:
                l(1) =   0
                l(2) =   0
                l(3) =   1
                l(4) =   1
     Q(r) pseudized with  8 coefficients,  rinner =    0.800   0.800   0.800

     PseudoPot. # 5 for H  read from file:
     /storage/coda1/p-amedford6/0/shared/rich_project_chbe-medford/medford-share/data/pseudos_module/espresso/nninc/pbe/van/H.UPF
     MD5 check sum: b5ee9d7bfd3a09ee7748110bda690ff7
     Pseudo is Ultrasoft, Zval =  1.0
     Generated by new atomic code, or converted to UPF format
     Using radial grid of  615 points,  1 beta functions with:
                l(1) =   0
     Q(r) pseudized with  8 coefficients,  rinner =    0.800

     atomic species   valence    mass     pseudopotential
        Ti1           12.00    47.86700     Ti( 1.00)
        O1             6.00    15.99900     O ( 1.00)
        N1             5.00    14.00700     N ( 1.00)
        C1             4.00    12.01100     C ( 1.00)
        H1             1.00     1.00800     H ( 1.00)

     No symmetry found

   Cartesian axes

     site n.     atom                  positions (alat units)
         1           Ti1 tau(   1) = (   0.0004258   2.9801865   6.0000000  )
         2           Ti1 tau(   2) = (   3.2906075   1.4906267   6.0002472  )
         3           O1  tau(   3) = (   0.0006271   0.0005054   7.9858123  )
         4           O1  tau(   4) = (   3.2906025   0.0005020   7.3038282  )
         5           O1  tau(   5) = (   4.5942328   1.4918067   9.2879030  )
         6           O1  tau(   6) = (   1.9868534   1.4903216   9.2879459  )
         7           Ti1 tau(   7) = (   3.2907910   2.8959150   9.1758416  )
         8           Ti1 tau(   8) = (   0.0015273   1.4827037   9.2680791  )
         9           O1  tau(   9) = (   3.2636084   5.9406443  11.4082010  )
        10           O1  tau(  10) = (   0.0116148   5.9584955  10.6183126  )
        11           O1  tau(  11) = (   1.2642105   1.4849797  12.6947803  )
        12           O1  tau(  12) = (   5.2691575   1.4821021  12.6650678  )
        13           Ti1 tau(  13) = (   6.5574234   2.9640577  12.4921542  )
        14           Ti1 tau(  14) = (   3.2619390   1.4709553  12.5527290  )
        15           O1  tau(  15) = (   6.5247406   5.9594380  14.6832748  )
        16           O1  tau(  16) = (   3.2695906   5.9428997  14.0562986  )
        17           O1  tau(  17) = (   4.5175969   1.4707097  16.2986306  )
        18           O1  tau(  18) = (   1.9406912   1.4777946  16.2473769  )
        19           Ti1 tau(  19) = (   3.2491105   2.9422209  15.8109686  )
        20           Ti1 tau(  20) = (   6.5361480   1.3378720  15.9626387  )
        21           O1  tau(  21) = (   3.2904802   0.0005063   4.7018136  )
        22           O1  tau(  22) = (   6.5280740   5.8897732  17.4332532  )
        23           O1  tau(  23) = (   1.3043587   1.4918075   6.0039043  )
        24           O1  tau(  24) = (   5.2767064   1.4903225   6.0039473  )
        25           Ti1 tau(  25) = (   0.0000382   5.9609847   6.0000000  )
        26           Ti1 tau(  26) = (   3.2902200   4.4714249   6.0002472  )
        27           O1  tau(  27) = (   0.0002396   2.9813036   7.9858123  )
        28           O1  tau(  28) = (   3.2902150   2.9813002   7.3038282  )
        29           O1  tau(  29) = (   4.5938453   4.4726049   9.2879030  )
        30           O1  tau(  30) = (   1.9864658   4.4711199   9.2879459  )
        31           Ti1 tau(  31) = (   3.2891106   5.8743827   9.1763621  )
        32           Ti1 tau(  32) = (   0.0006254   4.4649316   9.2693709  )
        33           O1  tau(  33) = (   3.2649920   2.9642658  11.3997388  )
        34           O1  tau(  34) = (   0.0092240   2.9805883  10.6323155  )
        35           O1  tau(  35) = (   1.2634527   4.4478426  12.7061968  )
        36           O1  tau(  36) = (   5.2693862   4.4495813  12.6755241  )
        37           Ti1 tau(  37) = (   6.5522441   5.9483113  12.5008436  )
        38           Ti1 tau(  38) = (   3.2626494   4.4468850  12.5575576  )
        39           O1  tau(  39) = (   6.4970557   2.9363996  15.0046851  )
        40           O1  tau(  40) = (   3.2722650   2.9529576  14.0194401  )
        41           O1  tau(  41) = (   4.5170401   4.4205294  16.2730734  )
        42           O1  tau(  42) = (   1.9466746   4.4191161  16.2235312  )
        43           Ti1 tau(  43) = (   3.2419262   5.9323414  15.8513663  )
        44           Ti1 tau(  44) = (   6.5549466   4.5556212  15.8889459  )
        45           O1  tau(  45) = (   3.2900926   2.9813045   4.7018136  )
        46           O1  tau(  46) = (   1.3039711   4.4726057   6.0039043  )
        47           O1  tau(  47) = (   5.2763189   4.4711207   6.0039473  )
        48           N1  tau(  48) = (   4.8657738   4.5798987  19.4796958  )
        49           C1  tau(  49) = (   5.7271871   3.4329544  19.8049648  )
        50           H1  tau(  50) = (   6.3241292   3.1721029  18.9298488  )
        51           H1  tau(  51) = (   6.4229137   3.7195585  20.5942015  )
        52           H1  tau(  52) = (   5.1874390   2.5328885  20.1195193  )
        53           H1  tau(  53) = (   5.9066942   5.7389963  18.1772939  )
        54           H1  tau(  54) = (   4.2103208   4.3266459  18.7469397  )
        55           H1  tau(  55) = (   4.3287305   4.8545830  20.2870342  )

     number of k points=    10  Fermi-Dirac smearing, width (Ry)=  0.0073
                       cart. coord. in units 2pi/alat
        k(    1) = (   0.0000000   0.0000000   0.0000000), wk =   0.1250000
        k(    2) = (   0.0000000   0.0419351   0.0000000), wk =   0.2500000
        k(    3) = (   0.0000000  -0.0838702   0.0000000), wk =   0.1250000
        k(    4) = (   0.0379955   0.0000049   0.0000000), wk =   0.2500000
        k(    5) = (   0.0379955   0.0419400   0.0000000), wk =   0.2500000
        k(    6) = (   0.0379955  -0.0838652   0.0000000), wk =   0.2500000
        k(    7) = (   0.0379955  -0.0419301   0.0000000), wk =   0.2500000
        k(    8) = (  -0.0759910  -0.0000099   0.0000000), wk =   0.1250000
        k(    9) = (  -0.0759910   0.0419252   0.0000000), wk =   0.2500000
        k(   10) = (  -0.0759910  -0.0838800   0.0000000), wk =   0.1250000

     Initial potential from superposition of free atoms

     starting charge  376.99914, renormalised to  393.00000

     negative rho (up, down):  1.330E-02 0.000E+00

     %%%%%%%%%%%%%%%%%%%%%%%%%%%%%%%%%%%%%%%%%%%%%%%%%%%%%%%%%%%%%%%%%%%%%%%%
     %                                                                      %
     % You are using vdW-DF, which was implemented by the Thonhauser group. %
     % Please cite the following two papers that made this development      %
     % possible and the two reviews that describe the various versions:     %
     %                                                                      %
     %   T. Thonhauser et al., PRL 115, 136402 (2015).                      %
     %   T. Thonhauser et al., PRB 76, 125112 (2007).                       %
     %   K. Berland et al., Rep. Prog. Phys. 78, 066501 (2015).             %
     %   D.C. Langreth et al., J. Phys.: Condens. Matter 21, 084203 (2009). %
     %                                                                      %
     %                                                                      %
     % If you are calculating the stress with vdW-DF, please also cite:     %
     %                                                                      %
     %   R. Sabatini et al., J. Phys.: Condens. Matter 24, 424209 (2012).   %
     %                                                                      %
     %%%%%%%%%%%%%%%%%%%%%%%%%%%%%%%%%%%%%%%%%%%%%%%%%%%%%%%%%%%%%%%%%%%%%%%%

     Adding external electric field

     Computed dipole along edir(3) :
        Dipole               -9.4918 Ry au,        -24.1257 Debye
        Dipole field         -0.0179 Ry au,

        Potential amp.        1.6604 Ry
        Total length         46.3494 bohr

     Starting wfcs are  298 atomic wfcs
  @ DRIVER MODE: Message from server: STATUS
  @ DRIVER MODE: Message from server: POSDATA
  @ DRIVER MODE: Reading and sharing cell
  @ DRIVER MODE: Reading and sharing positions
  @ DRIVER MODE: Received positions

     Self-consistent Calculation

     iteration #  1     ecut=    29.40 Ry     beta= 0.05
     Davidson diagonalization with overlap
     c_bands:  2 eigenvalues not converged
     c_bands:  1 eigenvalues not converged
     c_bands:  2 eigenvalues not converged
     c_bands:  3 eigenvalues not converged
     c_bands:  3 eigenvalues not converged
     c_bands:  1 eigenvalues not converged
     ethr =  1.00E-05,  avg # of iterations = 18.9

[...]

     total energy              =   -2620.43448037 Ry
     estimated scf accuracy    <    3390.30407491 Ry

[...]

     iteration #  3     ecut=    29.40 Ry     beta= 0.05
     Davidson diagonalization with overlap
     ethr =  1.00E-02,  avg # of iterations = 14.6

[...]

     iteration # 67     ecut=    29.40 Ry     beta= 0.05
     Davidson diagonalization with overlap
     c_bands:  1 eigenvalues not converged
     ethr =  1.92E-11,  avg # of iterations = 15.0

[...]

     total energy              =   -2922.77375052 Ry
     estimated scf accuracy    <       0.00000013 Ry

     iteration # 68     ecut=    29.40 Ry     beta= 0.05
     Davidson diagonalization with overlap
     ethr =  1.92E-11,  avg # of iterations =  8.7

     negative rho (up, down):  1.445E-02 0.000E+00

     Adding external electric field

     Computed dipole along edir(3) :
        Dipole                1.4055 Ry au,          3.5724 Debye
        Dipole field          0.0027 Ry au,

        Potential amp.       -0.2459 Ry
        Total length         46.3494 bohr

     End of self-consistent calculation

          k = 0.0000 0.0000 0.0000 ( 18029 PWs)   bands (ev):

   -55.3079 -55.2720 -55.2562 -55.2220 -55.1718 -55.1478 -55.1468 -55.1374
   -55.1134 -55.0834 -55.0724 -55.0494 -55.0307 -54.9726 -54.2998 -54.2657
   -31.8749 -31.7505 -31.6883 -31.6601 -31.6357 -31.6149 -31.5903 -31.5498
   -31.5456 -31.5442 -31.5151 -31.5040 -31.5001 -31.4755 -31.4649 -31.4598
   -31.4465 -31.4365 -31.4091 -31.4006 -31.3965 -31.3801 -31.3717 -31.3544
   -31.3519 -31.3143 -31.3134 -31.3041 -31.3021 -31.2889 -31.2840 -31.2820
   -31.2753 -31.2745 -31.2595 -31.2565 -31.2242 -31.2107 -31.1998 -31.1940
   -31.1812 -31.1063 -30.7100 -30.6137 -30.5918 -30.5261 -30.4392 -30.3286
   -16.8237 -16.1468 -15.8905 -15.7697 -15.6608 -15.6047 -15.5199 -15.4408
   -15.3570 -15.2564 -15.1950 -15.0900 -15.0553 -15.0157 -15.0012 -14.9820
   -14.9551 -14.8750 -14.8641 -14.8534 -14.8278 -14.8094 -14.7813 -14.7724
   -14.7657 -14.7263 -14.6890 -14.5767 -14.4862 -14.4007 -12.8030 -12.6853
   -10.0155  -5.8886  -4.7412  -4.4196  -3.5195  -3.4742  -3.3427  -3.2377
    -3.2041  -3.1962  -3.0751  -2.8922  -2.7970  -2.7700  -2.6989  -2.6290
    -2.5331  -2.5293  -2.4890  -2.3887  -2.3508  -2.3242  -2.2410  -2.2142
    -2.1679  -2.1169  -2.1067  -2.1035  -2.0830  -2.0425  -2.0038  -1.8849
    -1.8001  -1.7783  -1.7047  -1.6884  -1.6823  -1.6541  -1.6111  -1.5919
    -1.5426  -1.5256  -1.4849  -1.4162  -1.3549  -1.2728  -1.2357  -1.1989
    -0.9928  -0.9639  -0.9134  -0.9109  -0.8827  -0.8141  -0.7845  -0.7549
    -0.6888  -0.6865  -0.6580  -0.5517  -0.5090  -0.3881  -0.3175  -0.2380
    -0.1161  -0.1030  -0.0791  -0.0296  -0.0059   0.0537   0.1136   0.1504
     0.1898   0.2025   0.2898   0.3193   0.3963   0.4111   0.4494   0.5122
     0.5288   0.5547   0.5727   0.5844   0.6186   0.6344   0.6686   0.7353
     0.7674   0.8687   0.9174   1.2012   1.2867   1.5956   1.6190   1.7224
     1.9037   2.3008   2.3500   3.7865   3.8476   3.8882   3.9308   3.9344
     4.0161   4.1468   4.2896   4.2992   4.3104   4.3172

[...]

          k = 0.0380-0.0419 0.0000 ( 17876 PWs)   bands (ev):

[...]

          k =-0.0760-0.0000 0.0000 ( 17886 PWs)   bands (ev):

[...]

          k =-0.0760-0.0839 0.0000 ( 17948 PWs)   bands (ev):

   -55.2913 -55.2884 -55.2395 -55.2386 -55.1551 -55.1541 -55.1428 -55.1326
   -55.1283 -55.0762 -55.0677 -55.0651 -55.0236 -54.9797 -54.2828 -54.2826
   -31.6826 -31.6775 -31.5875 -31.5819 -31.5658 -31.5652 -31.5562 -31.5299
   -31.5291 -31.5085 -31.5037 -31.5018 -31.4886 -31.4624 -31.4575 -31.4563
   -31.4305 -31.4299 -31.4234 -31.4025 -31.3800 -31.3778 -31.3677 -31.3638
   -31.3632 -31.3590 -31.3582 -31.3495 -31.3478 -31.3418 -31.3380 -31.3228
   -31.3200 -31.3072 -31.3041 -31.2930 -31.2645 -31.2474 -31.2453 -31.2427
   -31.2257 -31.1727 -30.6044 -30.6043 -30.5225 -30.5223 -30.4827 -30.4827
   -16.7623 -15.8197 -15.6058 -15.5396 -15.4986 -15.4039 -15.3302 -15.2992
   -15.2891 -15.2760 -15.1500 -15.1218 -15.1123 -15.0842 -15.0525 -15.0279
   -15.0241 -14.9891 -14.9320 -14.9258 -14.9180 -14.9097 -14.8460 -14.8378
   -14.8340 -14.8272 -14.7617 -14.7593 -14.6774 -14.6754 -12.7867 -12.7867
   -10.0251  -5.8889  -4.8688  -4.4008  -3.5322  -2.8232  -2.7956  -2.7441
    -2.7154  -2.6123  -2.5268  -2.4995  -2.4630  -2.4052  -2.3529  -2.3056
    -2.3035  -2.2679  -2.2482  -2.2295  -2.1858  -2.1641  -2.1417  -2.1234
    -2.1087  -2.0550  -2.0521  -2.0430  -2.0187  -1.9845  -1.9672  -1.9539
    -1.9375  -1.9192  -1.8937  -1.8745  -1.7315  -1.7106  -1.6701  -1.5529
    -1.5349  -1.5314  -1.4984  -1.4546  -1.4299  -1.4223  -1.3483  -1.3412
    -1.3086  -1.1517  -1.0793  -1.0775  -1.0543  -1.0303  -0.9352  -0.8837
    -0.8433  -0.7934  -0.7177  -0.6863  -0.6675  -0.5951  -0.5681  -0.4766
    -0.3873  -0.3604  -0.3522  -0.2748  -0.2733  -0.2399  -0.2268  -0.1578
    -0.0975  -0.0460  -0.0420  -0.0379   0.0907   0.1277   0.2078   0.3220
     0.4023   0.4108   0.4620   0.5223   0.6066   0.6515   0.6677   0.7890
     0.7910   0.9774   0.9807   1.0291   1.0441   1.1245   1.1296   2.0765
     2.0772   2.1696   2.1699   3.7618   3.9449   3.9991   4.0720   4.0974
     4.1954   4.2803   4.3140   4.3440   4.3661   4.3722

     the Fermi energy is     3.8550 ev

!    total energy              =   -2922.77376962 Ry
     estimated scf accuracy    <       0.00000002 Ry
     smearing contrib. (-TS)   =      -0.04552037 Ry
     internal energy E=F+TS    =   -2922.72824924 Ry

     The total energy is F=E-TS. E is the sum of the following terms:
     one-electron contribution =  -23201.72551370 Ry
     hartree contribution      =   11691.15066869 Ry
     xc contribution           =    -482.55285491 Ry
     ewald contribution        =    9070.39572290 Ry
     electric field correction =       0.00372778 Ry

     convergence has been achieved in  68 iterations

     Forces acting on atoms (cartesian axes, Ry/au):

     atom    1 type  1   force =     0.00016664   -0.00007975    0.09300098
     atom    2 type  1   force =    -0.00000495   -0.00014292   -0.17882328
     atom    3 type  2   force =     0.00002060   -0.00029954   -0.02021810
     atom    4 type  2   force =    -0.00000238   -0.00224015    0.06098062
     atom    5 type  2   force =    -0.01150642   -0.00128092    0.01054430
     atom    6 type  2   force =     0.01241766   -0.00058554    0.00810629
     atom    7 type  1   force =    -0.00124632    0.00346614   -0.01488577
     atom    8 type  1   force =     0.00122906   -0.00358614   -0.00845197
     atom    9 type  2   force =     0.00001664   -0.00004941   -0.00025237
     atom   10 type  2   force =    -0.00281477   -0.00047924    0.00153737
     atom   11 type  2   force =     0.00010630   -0.00023826   -0.00029943
     atom   12 type  2   force =     0.00001844    0.00008260   -0.00010882
     atom   13 type  1   force =    -0.00019154   -0.00031521   -0.00062431
     atom   14 type  1   force =    -0.00003523   -0.00004371    0.00019927
     atom   15 type  2   force =    -0.00011559   -0.00023870   -0.00012425
     atom   16 type  2   force =     0.00032519    0.00034880   -0.00010308
     atom   17 type  2   force =     0.00078051    0.00028995   -0.00023224
     atom   18 type  2   force =     0.00009601   -0.00027031   -0.00003822
     atom   19 type  1   force =     0.00025285    0.00043961   -0.00039357
     atom   20 type  1   force =     0.00011172    0.00006208    0.00050632
     atom   21 type  2   force =     0.00012419   -0.00003384    0.10426884
     atom   22 type  2   force =    -0.00049316    0.00019591    0.00013900
     atom   23 type  2   force =    -0.06992003   -0.00011286   -0.02679442
     atom   24 type  2   force =     0.06989146    0.00034388   -0.02679600
     atom   25 type  1   force =     0.00019256   -0.00021199    0.09228604
     atom   26 type  1   force =    -0.00007312   -0.00036603   -0.17902503
     atom   27 type  2   force =     0.00004035   -0.00025684   -0.01894550
     atom   28 type  2   force =     0.00006605   -0.00192846    0.06022571
     atom   29 type  2   force =    -0.01169482   -0.00162378    0.01033694
     atom   30 type  2   force =     0.01248090   -0.00120600    0.00786724
     atom   31 type  1   force =    -0.00101359    0.00608494   -0.01577673
     atom   32 type  1   force =     0.00116591    0.00333743   -0.00863304
     atom   33 type  2   force =     0.00003202    0.00020057   -0.00024347
     atom   34 type  2   force =    -0.00240787   -0.00053671    0.00058571
     atom   35 type  2   force =    -0.00001293    0.00000083    0.00004467
     atom   36 type  2   force =     0.00005196   -0.00007464    0.00035843
     atom   37 type  1   force =     0.00035776   -0.00003580   -0.00005124
     atom   38 type  1   force =    -0.00034876   -0.00030198    0.00044983
     atom   39 type  2   force =     0.00036337   -0.00014918    0.00063054
     atom   40 type  2   force =     0.00025262   -0.00017504    0.00004439
     atom   41 type  2   force =     0.00004638    0.00034796   -0.00036557
     atom   42 type  2   force =     0.00050655    0.00021596   -0.00017835
     atom   43 type  1   force =     0.00024724   -0.00017661   -0.00035486
     atom   44 type  1   force =     0.00015864   -0.00128572    0.00061477
     atom   45 type  2   force =     0.00011740   -0.00005642    0.10421753
     atom   46 type  2   force =    -0.06993310   -0.00005352   -0.02678588
     atom   47 type  2   force =     0.06992161    0.00035154   -0.02680671
     atom   48 type  3   force =     0.00702253   -0.00281534   -0.00753702
     atom   49 type  4   force =     0.00106008    0.00115227   -0.00131674
     atom   50 type  5   force =     0.00016554   -0.00010538    0.00000630
     atom   51 type  5   force =    -0.00066455   -0.00028611    0.00023012
     atom   52 type  5   force =    -0.00022100   -0.00032471    0.00030385
     atom   53 type  5   force =     0.00013726    0.00068291   -0.00100196
     atom   54 type  5   force =    -0.00078513    0.00062120    0.00036156
     atom   55 type  5   force =    -0.00645877    0.00374214    0.00732128

     Total force =     0.367908     Total SCF correction =     0.000358
  @ DRIVER MODE: Message from server: STATUS
  @ DRIVER MODE: Message from server: GETFORCE
  @ DRIVER MODE: Returning v,forces,stress,ensemble

     Writing output data file ./calc.save/
  @ DRIVER MODE: Message from server: EXIT
  @ DRIVE MODE: Exiting

     General routines

     Parallel routines

   This run was terminated on:   1:49:14   3Aug2021

   JOB DONE.