     Program PWSCF v.6.7GPU starts on 24Aug2021 at 10:13: 8

     R & G space division:  proc/nbgrp/npool/nimage =      72
     Reading input from /storage/home/hcoda1/3/ntian30/research/carbon/CH2_vib/ads_slab/CH2NHH_a/out_0001/pw.inp
Warning: card &CELL ignored
Warning: card   CELL_DYNAMICS='IPI', ignored
Warning: card / ignored

     Current dimensions of program PWSCF are:
     Max number of different atomic species (ntypx) = 10
     Max number of k-points (npk) =  40000
     Max angular momentum in pseudopotentials (lmaxx) =  3
     Presently no symmetry can be used with electric field

     Message from routine cell_base_init:
     DEPRECATED: use true lattice parameter, not A to a.u. conversion factor

     IMPORTANT: XC functional enforced from input :
     Exchange-correlation= BEEF-VDW
                           (   1   4  43  14   2   0   0)
     Any further DFT definition will be discarded
     Please, verify this is what you really want

  @ DRIVER MODE: Connecting to
 qe_1139763_2641439.sched-torque.pace.gatech.edu9up9rj0i_scratch
  using UNIX socket
  @ DRIVER MODE: Message from server: STATUS
  @ DRIVER MODE: Message from server: INIT
  @ DRIVER MODE: Receiving replica           0          -1
  @ DRIVER MODE: Receiving encoded integer          25
  @ DRIVER MODE:  SCF:  T  FORCE:  T  STRESS:  F  VC:  F  ENSEMBLE:  F
  @ DRIVER MODE:  SCF:  T  FORCE:  T  STRESS:  F  VC:  F  ENSEMBLE:  F

     Using Slab Decomposition

     bravais-lattice index     =            0
     lattice parameter (alat)  =       1.8897  a.u.
     unit-cell volume          =    6658.9804 (a.u.)^3
     number of atoms/cell      =           53
     number of atomic types    =            5
     number of electrons       =       391.00
     number of Kohn-Sham states=          205
     kinetic-energy cutoff     =      29.3995  Ry
     charge density cutoff     =     293.9946  Ry
     scf convergence threshold =      7.3E-08
     mixing beta               =       0.0500
     number of iterations used =            8  plain     mixing
     Exchange-correlation= BEEF-VDW
                           (   1   4  43  14   2   0   0)

     celldm(1)=   1.889726  celldm(2)=   0.000000  celldm(3)=   0.000000
     celldm(4)=   0.000000  celldm(5)=   0.000000  celldm(6)=   0.000000

     crystal axes: (cart. coord. in units of alat)
               a(1) = (   6.579727   0.000000   0.000000 )
               a(2) = (  -0.000775   5.961596   0.000000 )
               a(3) = (   0.000000   0.000000  25.155947 )

     reciprocal axes: (cart. coord. in units 2 pi/alat)
               b(1) = (  0.151982  0.000020  0.000000 )
               b(2) = (  0.000000  0.167740  0.000000 )
               b(3) = (  0.000000  0.000000  0.039752 )

     PseudoPot. # 1 for Ti read from file:
     /storage/coda1/p-amedford6/0/shared/rich_project_chbe-medford/medford-share/data/pseudos_module/espresso/nninc/pbe/van/Ti.UPF
     MD5 check sum: 8e4df49b7f0d34bbd5052bf3f5ea0213
     Pseudo is Ultrasoft, Zval = 12.0
     Generated by new atomic code, or converted to UPF format
     Using radial grid of  851 points,  6 beta functions with:
                l(1) =   0
                l(2) =   0
                l(3) =   1
                l(4) =   1
                l(5) =   2
                l(6) =   2
     Q(r) pseudized with  8 coefficients,  rinner =    1.000   1.000   1.000
                                                       1.000   1.000

     PseudoPot. # 2 for O  read from file:
     /storage/coda1/p-amedford6/0/shared/rich_project_chbe-medford/medford-share/data/pseudos_module/espresso/nninc/pbe/van/O.UPF
     MD5 check sum: 78c19812648e8988a0fe644b0f25305e
     Pseudo is Ultrasoft, Zval =  6.0
     Generated by new atomic code, or converted to UPF format
     Using radial grid of  737 points,  4 beta functions with:
                l(1) =   0
                l(2) =   0
                l(3) =   1
                l(4) =   1
     Q(r) pseudized with  8 coefficients,  rinner =    0.800   0.800   0.800

     PseudoPot. # 3 for N  read from file:
     /storage/coda1/p-amedford6/0/shared/rich_project_chbe-medford/medford-share/data/pseudos_module/espresso/nninc/pbe/van/N.UPF
     MD5 check sum: 90d10febe142ad51ac9d5be1deb811c4
     Pseudo is Ultrasoft, Zval =  5.0
     Generated by new atomic code, or converted to UPF format
     Using radial grid of  729 points,  4 beta functions with:
                l(1) =   0
                l(2) =   0
                l(3) =   1
                l(4) =   1
     Q(r) pseudized with  8 coefficients,  rinner =    0.800   0.800   0.800

     PseudoPot. # 4 for C  read from file:
     /storage/coda1/p-amedford6/0/shared/rich_project_chbe-medford/medford-share/data/pseudos_module/espresso/nninc/pbe/van/C.UPF
     MD5 check sum: 1a69bf6b8db32088f5b2163dbdb77a27
     Pseudo is Ultrasoft, Zval =  4.0
     Generated by new atomic code, or converted to UPF format
     Using radial grid of  721 points,  4 beta functions with:
                l(1) =   0
                l(2) =   0
                l(3) =   1
                l(4) =   1
     Q(r) pseudized with  8 coefficients,  rinner =    0.800   0.800   0.800

     PseudoPot. # 5 for H  read from file:
     /storage/coda1/p-amedford6/0/shared/rich_project_chbe-medford/medford-share/data/pseudos_module/espresso/nninc/pbe/van/H.UPF
     MD5 check sum: b5ee9d7bfd3a09ee7748110bda690ff7
     Pseudo is Ultrasoft, Zval =  1.0
     Generated by new atomic code, or converted to UPF format
     Using radial grid of  615 points,  1 beta functions with:
                l(1) =   0
     Q(r) pseudized with  8 coefficients,  rinner =    0.800

     atomic species   valence    mass     pseudopotential
        Ti1           12.00    47.86700     Ti( 1.00)
        O1             6.00    15.99900     O ( 1.00)
        N1             5.00    14.00700     N ( 1.00)
        C1             4.00    12.01100     C ( 1.00)
        H1             1.00     1.00800     H ( 1.00)

     No symmetry found

   Cartesian axes

     site n.     atom                  positions (alat units)
         1           Ti1 tau(   1) = (   0.0004258   2.9801865   6.0000000  )
         2           Ti1 tau(   2) = (   3.2906075   1.4906267   6.0002472  )
         3           O1  tau(   3) = (   0.0006271   0.0005054   7.9858123  )
         4           O1  tau(   4) = (   3.2906025   0.0005020   7.3038282  )
         5           O1  tau(   5) = (   4.5942328   1.4918067   9.2879030  )
         6           O1  tau(   6) = (   1.9868534   1.4903216   9.2879459  )
         7           Ti1 tau(   7) = (   3.2907910   2.8959150   9.1758416  )
         8           Ti1 tau(   8) = (   0.0015273   1.4827037   9.2680791  )
         9           O1  tau(   9) = (   3.2941312   5.9515177  11.3840049  )
        10           O1  tau(  10) = (   0.0116148   5.9584955  10.6183126  )
        11           O1  tau(  11) = (   1.2915503   1.4777401  12.6967708  )
        12           O1  tau(  12) = (   5.3002239   1.4803738  12.6794006  )
        13           Ti1 tau(  13) = (   0.0161863   2.9610389  12.5056540  )
        14           Ti1 tau(  14) = (   3.3199580   1.4690355  12.5397617  )
        15           O1  tau(  15) = (   6.5577523   5.8663973  14.6994336  )
        16           O1  tau(  16) = (   3.3105950   5.9380289  14.0083265  )
        17           O1  tau(  17) = (   4.5355139   1.5078041  16.1868020  )
        18           O1  tau(  18) = (   2.0231344   1.4922588  16.1350940  )
        19           Ti1 tau(  19) = (   3.2781988   2.9761027  15.7713632  )
        20           Ti1 tau(  20) = (   0.0162001   1.2772015  15.8797579  )
        21           O1  tau(  21) = (   3.2904802   0.0005063   4.7018136  )
        22           O1  tau(  22) = (   6.5682446   0.1140876  17.2519115  )
        23           O1  tau(  23) = (   1.3043587   1.4918075   6.0039043  )
        24           O1  tau(  24) = (   5.2767064   1.4903225   6.0039473  )
        25           Ti1 tau(  25) = (   0.0000382   5.9609847   6.0000000  )
        26           Ti1 tau(  26) = (   3.2902200   4.4714249   6.0002472  )
        27           O1  tau(  27) = (   0.0002396   2.9813036   7.9858123  )
        28           O1  tau(  28) = (   3.2902150   2.9813002   7.3038282  )
        29           O1  tau(  29) = (   4.5938453   4.4726049   9.2879030  )
        30           O1  tau(  30) = (   1.9864658   4.4711199   9.2879459  )
        31           Ti1 tau(  31) = (   3.2891106   5.8743827   9.1763621  )
        32           Ti1 tau(  32) = (   0.0006254   4.4649316   9.2693709  )
        33           O1  tau(  33) = (   3.2958891   2.9587481  11.3780895  )
        34           O1  tau(  34) = (   0.0092240   2.9805883  10.6323155  )
        35           O1  tau(  35) = (   1.2947421   4.4484190  12.6652604  )
        36           O1  tau(  36) = (   5.2996063   4.4466420  12.6515021  )
        37           Ti1 tau(  37) = (   0.0283143   5.9336383  12.5061025  )
        38           Ti1 tau(  38) = (   3.3214233   4.4478814  12.5310514  )
        39           O1  tau(  39) = (   6.5589476   3.0029366  14.9874712  )
        40           O1  tau(  40) = (   3.3011147   2.9794859  13.9794371  )
        41           O1  tau(  41) = (   4.5155863   4.4560770  16.2359875  )
        42           O1  tau(  42) = (   2.0187475   4.4548860  16.2131175  )
        43           Ti1 tau(  43) = (   3.3138217   5.9556645  15.8088081  )
        44           Ti1 tau(  44) = (   0.0451788   4.5003401  16.0524233  )
        45           O1  tau(  45) = (   3.2900926   2.9813045   4.7018136  )
        46           O1  tau(  46) = (   1.3039711   4.4726057   6.0039043  )
        47           O1  tau(  47) = (   5.2763189   4.4711207   6.0039473  )
        48           N1  tau(  48) = (   6.1913940   3.4221407  18.2524812  )
        49           C1  tau(  49) = (   0.6861764   3.1362451  19.0985974  )
        50           H1  tau(  50) = (   1.2250757   3.9700495  19.5149693  )
        51           H1  tau(  51) = (   1.1126790   2.1486344  19.0481404  )
        52           H1  tau(  52) = (   5.7034377   4.2789310  18.4761913  )
        53           H1  tau(  53) = (   5.5430662   2.6552022  18.1284619  )

     number of k points=    10  Fermi-Dirac smearing, width (Ry)=  0.0073
                       cart. coord. in units 2pi/alat
        k(    1) = (   0.0000000   0.0000000   0.0000000), wk =   0.1250000
        k(    2) = (   0.0000000   0.0419351   0.0000000), wk =   0.2500000
        k(    3) = (   0.0000000  -0.0838702   0.0000000), wk =   0.1250000
        k(    4) = (   0.0379955   0.0000049   0.0000000), wk =   0.2500000
        k(    5) = (   0.0379955   0.0419400   0.0000000), wk =   0.2500000
        k(    6) = (   0.0379955  -0.0838652   0.0000000), wk =   0.2500000
        k(    7) = (   0.0379955  -0.0419301   0.0000000), wk =   0.2500000
        k(    8) = (  -0.0759910  -0.0000099   0.0000000), wk =   0.1250000
        k(    9) = (  -0.0759910   0.0419252   0.0000000), wk =   0.2500000
        k(   10) = (  -0.0759910  -0.0838800   0.0000000), wk =   0.1250000

     Initial potential from superposition of free atoms

     starting charge  374.99916, renormalised to  391.00000

     negative rho (up, down):  1.684E-02 0.000E+00

     %%%%%%%%%%%%%%%%%%%%%%%%%%%%%%%%%%%%%%%%%%%%%%%%%%%%%%%%%%%%%%%%%%%%%%%%
     %                                                                      %
     % You are using vdW-DF, which was implemented by the Thonhauser group. %
     % Please cite the following two papers that made this development      %
     % possible and the two reviews that describe the various versions:     %
     %                                                                      %
     %   T. Thonhauser et al., PRL 115, 136402 (2015).                      %
     %   T. Thonhauser et al., PRB 76, 125112 (2007).                       %
     %   K. Berland et al., Rep. Prog. Phys. 78, 066501 (2015).             %
     %   D.C. Langreth et al., J. Phys.: Condens. Matter 21, 084203 (2009). %
     %                                                                      %
     %                                                                      %
     % If you are calculating the stress with vdW-DF, please also cite:     %
     %                                                                      %
     %   R. Sabatini et al., J. Phys.: Condens. Matter 24, 424209 (2012).   %
     %                                                                      %
     %%%%%%%%%%%%%%%%%%%%%%%%%%%%%%%%%%%%%%%%%%%%%%%%%%%%%%%%%%%%%%%%%%%%%%%%

     Adding external electric field

     Computed dipole along edir(3) :
        Dipole               -6.9321 Ry au,        -17.6197 Debye
        Dipole field         -0.0131 Ry au,

        Potential amp.        1.2127 Ry
        Total length         46.3494 bohr

     Starting wfcs are  296 atomic wfcs
  @ DRIVER MODE: Message from server: STATUS
  @ DRIVER MODE: Message from server: POSDATA
  @ DRIVER MODE: Reading and sharing cell
  @ DRIVER MODE: Reading and sharing positions
  @ DRIVER MODE: Received positions

     Self-consistent Calculation

     iteration #  1     ecut=    29.40 Ry     beta= 0.05
     Davidson diagonalization with overlap
     c_bands:  1 eigenvalues not converged
     ethr =  1.00E-05,  avg # of iterations = 15.4

[...]

     total energy              =   -2713.44577892 Ry
     estimated scf accuracy    <    2282.59357284 Ry

[...]

     iteration #  3     ecut=    29.40 Ry     beta= 0.05
     Davidson diagonalization with overlap
     ethr =  1.00E-02,  avg # of iterations = 14.9

[...]

     iteration # 61     ecut=    29.40 Ry     beta= 0.05
     Davidson diagonalization with overlap
     ethr =  8.79E-11,  avg # of iterations =  8.3

[...]

     total energy              =   -2920.25676473 Ry
     estimated scf accuracy    <       0.00000009 Ry

     iteration # 63     ecut=    29.40 Ry     beta= 0.05
     Davidson diagonalization with overlap
     c_bands:  1 eigenvalues not converged
     ethr =  2.31E-11,  avg # of iterations = 15.8

     negative rho (up, down):  1.610E-02 0.000E+00

     Adding external electric field

     Computed dipole along edir(3) :
        Dipole                0.8890 Ry au,          2.2597 Debye
        Dipole field          0.0017 Ry au,

        Potential amp.       -0.1555 Ry
        Total length         46.3494 bohr

     End of self-consistent calculation

          k = 0.0000 0.0000 0.0000 ( 18029 PWs)   bands (ev):

   -55.7265 -55.6905 -55.6783 -55.6441 -55.6152 -55.6066 -55.5722 -55.5506
   -55.5421 -55.5162 -55.5098 -55.4761 -55.4685 -55.3084 -54.7103 -54.6762
   -32.2917 -32.1713 -32.0946 -32.0610 -32.0462 -32.0396 -32.0360 -32.0158
   -31.9672 -31.9608 -31.9383 -31.9319 -31.9232 -31.8954 -31.8800 -31.8780
   -31.8652 -31.8533 -31.8461 -31.8308 -31.8253 -31.7927 -31.7852 -31.7812
   -31.7530 -31.7490 -31.7387 -31.7354 -31.7295 -31.7245 -31.7092 -31.7075
   -31.6991 -31.6963 -31.6750 -31.6640 -31.6607 -31.6455 -31.6377 -31.6213
   -31.5287 -31.4763 -31.1198 -31.0252 -31.0032 -30.9362 -30.8494 -30.7385
   -16.6504 -16.5294 -16.2764 -16.1152 -16.0220 -15.9262 -15.7943 -15.7665
   -15.6507 -15.5742 -15.4322 -15.4006 -15.3855 -15.3644 -15.3464 -15.3328
   -15.2741 -15.2681 -15.2480 -15.2227 -15.2193 -15.1724 -15.1677 -15.1273
   -15.1034 -15.0477 -14.9724 -14.8882 -14.8155 -14.4922 -13.2133 -13.0958
    -9.5104  -6.8948  -4.9067  -3.8906  -3.7473  -3.6763  -3.6281  -3.6203
    -3.4786  -3.3041  -3.1626  -3.1412  -3.1022  -2.9992  -2.9315  -2.9175
    -2.8925  -2.7482  -2.7356  -2.6788  -2.6542  -2.5760  -2.5735  -2.5313
    -2.5123  -2.4768  -2.4720  -2.4433  -2.2989  -2.2947  -2.2483  -2.1938
    -2.1343  -2.1325  -2.0775  -2.0584  -2.0171  -2.0080  -1.9968  -1.9542
    -1.9508  -1.9172  -1.8207  -1.7519  -1.6242  -1.5879  -1.4442  -1.3678
    -1.3199  -1.2995  -1.2185  -1.2108  -1.1495  -1.1064  -1.1059  -1.0653
    -0.9536  -0.8711  -0.8190  -0.7619  -0.7272  -0.7112  -0.6262  -0.5289
    -0.5061  -0.4936  -0.4572  -0.3569  -0.3325  -0.2704  -0.2075  -0.1953
    -0.1824  -0.0962  -0.0596   0.0127   0.0634   0.0836   0.1598   0.1821
     0.2055   0.2113   0.2426   0.2576   0.3301   0.3488   0.3735   0.4611
     0.5822   0.8250   0.8826   0.8928   1.2117   1.2165   1.3121   1.4953
     1.8887   1.9370   3.3668   3.3847   3.4482   3.5164   3.5202   3.5831
     3.6072   3.8538   3.8730   3.8810   3.8988

[...]

          k = 0.0380-0.0419 0.0000 ( 17876 PWs)   bands (ev):

[...]

          k =-0.0760-0.0000 0.0000 ( 17886 PWs)   bands (ev):

[...]

          k =-0.0760-0.0839 0.0000 ( 17948 PWs)   bands (ev):

   -55.7098 -55.7070 -55.6612 -55.6611 -55.6109 -55.5901 -55.5887 -55.5462
   -55.5351 -55.5313 -55.4933 -55.4928 -55.4664 -55.3105 -54.6933 -54.6930
   -32.0973 -32.0948 -32.0036 -31.9865 -31.9863 -31.9827 -31.9728 -31.9526
   -31.9524 -31.9362 -31.9296 -31.9225 -31.9177 -31.8780 -31.8703 -31.8673
   -31.8631 -31.8584 -31.8540 -31.8491 -31.8344 -31.8158 -31.8046 -31.8036
   -31.7853 -31.7814 -31.7809 -31.7807 -31.7681 -31.7642 -31.7478 -31.7454
   -31.7438 -31.7339 -31.7263 -31.7236 -31.6892 -31.6735 -31.6732 -31.6532
   -31.5685 -31.5308 -31.0159 -31.0157 -30.9324 -30.9322 -30.8928 -30.8927
   -16.6119 -16.0419 -15.9494 -15.9115 -15.7641 -15.7264 -15.6907 -15.6783
   -15.5558 -15.5288 -15.5032 -15.4835 -15.4470 -15.4319 -15.4248 -15.3748
   -15.3452 -15.3262 -15.3204 -15.3084 -15.2457 -15.2377 -15.2338 -15.2268
   -15.1775 -15.1739 -15.0829 -15.0799 -15.0660 -14.7775 -13.1973 -13.1972
    -9.5119  -6.8773  -4.8873  -3.2192  -3.1981  -3.1646  -3.1437  -2.9821
    -2.9127  -2.8938  -2.8783  -2.7947  -2.7583  -2.7382  -2.6970  -2.6837
    -2.6346  -2.6073  -2.5789  -2.5648  -2.5600  -2.5439  -2.5229  -2.4880
    -2.4589  -2.4571  -2.4465  -2.4051  -2.3789  -2.3650  -2.3310  -2.3216
    -2.3136  -2.2848  -2.2242  -2.1152  -2.0947  -2.0584  -1.9638  -1.9356
    -1.9306  -1.8505  -1.8201  -1.7622  -1.7587  -1.7462  -1.5990  -1.5185
    -1.4759  -1.4733  -1.4508  -1.3235  -1.3148  -1.2299  -1.2075  -1.1974
    -1.1053  -1.0844  -1.0468  -1.0211  -0.9390  -0.9131  -0.8474  -0.7595
    -0.7228  -0.7148  -0.6842  -0.6814  -0.6319  -0.6205  -0.5393  -0.4973
    -0.4611  -0.4510  -0.4095  -0.2237  -0.2078  -0.1644  -0.0364   0.0100
     0.1424   0.1597   0.2243   0.3009   0.3337   0.3863   0.4226   0.5684
     0.5782   0.6122   0.6551   0.6646   0.7241   0.7332   1.6683   1.6690
     1.7569   1.7571   3.3866   3.6171   3.6225   3.6615   3.6839   3.8372
     3.8870   3.9256   3.9508   3.9557   3.9722

     the Fermi energy is     3.4343 ev

!    total energy              =   -2920.25679647 Ry
     estimated scf accuracy    <       0.00000006 Ry
     smearing contrib. (-TS)   =      -0.04293347 Ry
     internal energy E=F+TS    =   -2920.21386301 Ry

     The total energy is F=E-TS. E is the sum of the following terms:
     one-electron contribution =  -24043.83919155 Ry
     hartree contribution      =   12108.01394210 Ry
     xc contribution           =    -480.85819089 Ry
     ewald contribution        =    9496.46808574 Ry
     electric field correction =       0.00149160 Ry

     convergence has been achieved in  63 iterations

     Forces acting on atoms (cartesian axes, Ry/au):

     atom    1 type  1   force =     0.00008642   -0.00016576    0.09320377
     atom    2 type  1   force =    -0.00021142   -0.00023618   -0.17847984
     atom    3 type  2   force =     0.00003854   -0.00037054   -0.02007134
     atom    4 type  2   force =    -0.00002086   -0.00199548    0.05916660
     atom    5 type  2   force =    -0.01042506   -0.00113616    0.00790250
     atom    6 type  2   force =     0.01198673   -0.00051875    0.00732500
     atom    7 type  1   force =    -0.00041925    0.00230020   -0.01385898
     atom    8 type  1   force =     0.00004120   -0.00144856   -0.00478767
     atom    9 type  2   force =     0.00000194   -0.00028843   -0.00033443
     atom   10 type  2   force =    -0.00082810    0.00065916    0.00151554
     atom   11 type  2   force =     0.00009007   -0.00004209    0.00024367
     atom   12 type  2   force =    -0.00006843    0.00008866    0.00032553
     atom   13 type  1   force =    -0.00058820    0.00061766   -0.00006540
     atom   14 type  1   force =     0.00026076    0.00021818    0.00012559
     atom   15 type  2   force =    -0.00018442    0.00044122    0.00042630
     atom   16 type  2   force =    -0.00016794   -0.00005316   -0.00017188
     atom   17 type  2   force =    -0.00022885   -0.00010950   -0.00016026
     atom   18 type  2   force =    -0.00015866   -0.00014491   -0.00053456
     atom   19 type  1   force =    -0.00001397    0.00025033    0.00002279
     atom   20 type  1   force =    -0.00008567   -0.00008920    0.00002802
     atom   21 type  2   force =     0.00001131   -0.00001405    0.10397120
     atom   22 type  2   force =    -0.00000341    0.00035937    0.00044240
     atom   23 type  2   force =    -0.07036717   -0.00010962   -0.02689723
     atom   24 type  2   force =     0.07018110    0.00032146   -0.02695480
     atom   25 type  1   force =    -0.00000397   -0.00012612    0.09259166
     atom   26 type  1   force =    -0.00017993   -0.00039984   -0.17851835
     atom   27 type  2   force =     0.00009459   -0.00026512   -0.01914960
     atom   28 type  2   force =     0.00002754   -0.00176293    0.05849076
     atom   29 type  2   force =    -0.01091138   -0.00132923    0.00843564
     atom   30 type  2   force =     0.01236650   -0.00099026    0.00778603
     atom   31 type  1   force =    -0.00022772    0.00599134   -0.01473174
     atom   32 type  1   force =     0.00005262    0.00098645   -0.00535425
     atom   33 type  2   force =    -0.00030661    0.00024092    0.00016788
     atom   34 type  2   force =    -0.00022481   -0.00290901    0.00009149
     atom   35 type  2   force =     0.00059472    0.00022385   -0.00005095
     atom   36 type  2   force =    -0.00064538    0.00018220   -0.00027689
     atom   37 type  1   force =    -0.00054664   -0.00047059   -0.00008745
     atom   38 type  1   force =     0.00016327   -0.00049382    0.00015799
     atom   39 type  2   force =     0.00006185   -0.00024140    0.00030460
     atom   40 type  2   force =    -0.00000705    0.00043432   -0.00062287
     atom   41 type  2   force =    -0.00053662    0.00065158   -0.00060363
     atom   42 type  2   force =     0.00024478    0.00057715   -0.00026367
     atom   43 type  1   force =    -0.00001239    0.00020518   -0.00053903
     atom   44 type  1   force =    -0.00078002   -0.00043605    0.00098026
     atom   45 type  2   force =     0.00000204   -0.00002518    0.10394604
     atom   46 type  2   force =    -0.07034456   -0.00004857   -0.02686162
     atom   47 type  2   force =     0.07017895    0.00037847   -0.02691133
     atom   48 type  3   force =     0.02079625   -0.00078189    0.00507228
     atom   49 type  4   force =    -0.00612522    0.00113584   -0.00606497
     atom   50 type  5   force =    -0.00023681    0.00014667   -0.00099140
     atom   51 type  5   force =    -0.00071519    0.00065268   -0.00032872
     atom   52 type  5   force =    -0.00468760    0.00485447    0.00165637
     atom   53 type  5   force =    -0.00701786   -0.00491498   -0.00070707

     Total force =     0.367295     Total SCF correction =     0.000814
  @ DRIVER MODE: Message from server: STATUS
  @ DRIVER MODE: Message from server: GETFORCE
  @ DRIVER MODE: Returning v,forces,stress,ensemble

     Writing output data file ./calc.save/
  @ DRIVER MODE: Message from server: EXIT
  @ DRIVE MODE: Exiting

     General routines

     Parallel routines

   This run was terminated on:  10:34:18  24Aug2021

   JOB DONE.