     Program PWSCF v.6.7GPU starts on 27Sep2021 at  6:47:29

     R & G space division:  proc/nbgrp/npool/nimage =       8
     Reading input from /storage/home/hcoda1/3/ntian30/research/carbon/CxH_vib/CH_calc/ads_slab/CHONHNH2_b/out_0045/pw.inp
Warning: card &CELL ignored
Warning: card   CELL_DYNAMICS='IPI', ignored
Warning: card / ignored

     Current dimensions of program PWSCF are:
     Max number of different atomic species (ntypx) = 10
     Max number of k-points (npk) =  40000
     Max angular momentum in pseudopotentials (lmaxx) =  3
     Presently no symmetry can be used with electric field

     Message from routine cell_base_init:
     DEPRECATED: use true lattice parameter, not A to a.u. conversion factor

     IMPORTANT: XC functional enforced from input :
     Exchange-correlation= BEEF-VDW
                           (   1   4  43  14   2   0   0)
     Any further DFT definition will be discarded
     Please, verify this is what you really want

  @ DRIVER MODE: Connecting to
 qe_1139763_2982672.sched-torque.pace.gatech.edu7yf92tk5_scratch
  using UNIX socket
  @ DRIVER MODE: Message from server: STATUS
  @ DRIVER MODE: Message from server: INIT
  @ DRIVER MODE: Receiving replica           0          -1
  @ DRIVER MODE: Receiving encoded integer          25
  @ DRIVER MODE:  SCF:  T  FORCE:  T  STRESS:  F  VC:  F  ENSEMBLE:  F
  @ DRIVER MODE:  SCF:  T  FORCE:  T  STRESS:  F  VC:  F  ENSEMBLE:  F

     Using Slab Decomposition

     bravais-lattice index     =            0
     lattice parameter (alat)  =       1.8897  a.u.
     unit-cell volume          =    6658.9804 (a.u.)^3
     number of atoms/cell      =           55
     number of atomic types    =            5
     number of electrons       =       402.00
     number of Kohn-Sham states=          211
     kinetic-energy cutoff     =      29.3995  Ry
     charge density cutoff     =     293.9946  Ry
     scf convergence threshold =      7.3E-08
     mixing beta               =       0.0500
     number of iterations used =            8  plain     mixing
     Exchange-correlation= BEEF-VDW
                           (   1   4  43  14   2   0   0)

     celldm(1)=   1.889726  celldm(2)=   0.000000  celldm(3)=   0.000000
     celldm(4)=   0.000000  celldm(5)=   0.000000  celldm(6)=   0.000000

     crystal axes: (cart. coord. in units of alat)
               a(1) = (   6.579727   0.000000   0.000000 )
               a(2) = (  -0.000775   5.961596   0.000000 )
               a(3) = (   0.000000   0.000000  25.155947 )

     reciprocal axes: (cart. coord. in units 2 pi/alat)
               b(1) = (  0.151982  0.000020  0.000000 )
               b(2) = (  0.000000  0.167740  0.000000 )
               b(3) = (  0.000000  0.000000  0.039752 )

     PseudoPot. # 1 for O  read from file:
     /storage/coda1/p-amedford6/0/shared/rich_project_chbe-medford/medford-share/data/pseudos_module/espresso/nninc/pbe/van/O.UPF
     MD5 check sum: 78c19812648e8988a0fe644b0f25305e
     Pseudo is Ultrasoft, Zval =  6.0
     Generated by new atomic code, or converted to UPF format
     Using radial grid of  737 points,  4 beta functions with:
                l(1) =   0
                l(2) =   0
                l(3) =   1
                l(4) =   1
     Q(r) pseudized with  8 coefficients,  rinner =    0.800   0.800   0.800

     PseudoPot. # 2 for Ti read from file:
     /storage/coda1/p-amedford6/0/shared/rich_project_chbe-medford/medford-share/data/pseudos_module/espresso/nninc/pbe/van/Ti.UPF
     MD5 check sum: 8e4df49b7f0d34bbd5052bf3f5ea0213
     Pseudo is Ultrasoft, Zval = 12.0
     Generated by new atomic code, or converted to UPF format
     Using radial grid of  851 points,  6 beta functions with:
                l(1) =   0
                l(2) =   0
                l(3) =   1
                l(4) =   1
                l(5) =   2
                l(6) =   2
     Q(r) pseudized with  8 coefficients,  rinner =    1.000   1.000   1.000
                                                       1.000   1.000

     PseudoPot. # 3 for N  read from file:
     /storage/coda1/p-amedford6/0/shared/rich_project_chbe-medford/medford-share/data/pseudos_module/espresso/nninc/pbe/van/N.UPF
     MD5 check sum: 90d10febe142ad51ac9d5be1deb811c4
     Pseudo is Ultrasoft, Zval =  5.0
     Generated by new atomic code, or converted to UPF format
     Using radial grid of  729 points,  4 beta functions with:
                l(1) =   0
                l(2) =   0
                l(3) =   1
                l(4) =   1
     Q(r) pseudized with  8 coefficients,  rinner =    0.800   0.800   0.800

     PseudoPot. # 4 for H  read from file:
     /storage/coda1/p-amedford6/0/shared/rich_project_chbe-medford/medford-share/data/pseudos_module/espresso/nninc/pbe/van/H.UPF
     MD5 check sum: b5ee9d7bfd3a09ee7748110bda690ff7
     Pseudo is Ultrasoft, Zval =  1.0
     Generated by new atomic code, or converted to UPF format
     Using radial grid of  615 points,  1 beta functions with:
                l(1) =   0
     Q(r) pseudized with  8 coefficients,  rinner =    0.800

     PseudoPot. # 5 for C  read from file:
     /storage/coda1/p-amedford6/0/shared/rich_project_chbe-medford/medford-share/data/pseudos_module/espresso/nninc/pbe/van/C.UPF
     MD5 check sum: 1a69bf6b8db32088f5b2163dbdb77a27
     Pseudo is Ultrasoft, Zval =  4.0
     Generated by new atomic code, or converted to UPF format
     Using radial grid of  721 points,  4 beta functions with:
                l(1) =   0
                l(2) =   0
                l(3) =   1
                l(4) =   1
     Q(r) pseudized with  8 coefficients,  rinner =    0.800   0.800   0.800

     atomic species   valence    mass     pseudopotential
        O1             6.00    15.99900     O ( 1.00)
        Ti1           12.00    47.86700     Ti( 1.00)
        N1             5.00    14.00700     N ( 1.00)
        H1             1.00     1.00800     H ( 1.00)
        C1             4.00    12.01100     C ( 1.00)

     No symmetry found

   Cartesian axes

     site n.     atom                  positions (alat units)
         1           O1  tau(   1) = (   3.2904802   0.0005063   4.7018136  )
         2           O1  tau(   2) = (   3.2900926   2.9813045   4.7018136  )
         3           Ti1 tau(   3) = (   0.0004258   2.9801865   6.0000000  )
         4           Ti1 tau(   4) = (   0.0000382   5.9609847   6.0000000  )
         5           Ti1 tau(   5) = (   3.2906075   1.4906267   6.0002472  )
         6           Ti1 tau(   6) = (   3.2902200   4.4714249   6.0002472  )
         7           O1  tau(   7) = (   1.3043587   1.4918075   6.0039043  )
         8           O1  tau(   8) = (   1.3039711   4.4726057   6.0039043  )
         9           O1  tau(   9) = (   5.2767064   1.4903225   6.0039473  )
        10           O1  tau(  10) = (   5.2763189   4.4711207   6.0039473  )
        11           O1  tau(  11) = (   3.2906025   0.0005020   7.3038282  )
        12           O1  tau(  12) = (   3.2902150   2.9813002   7.3038282  )
        13           O1  tau(  13) = (   0.0006271   0.0005054   7.9858123  )
        14           O1  tau(  14) = (   0.0002396   2.9813036   7.9858123  )
        15           Ti1 tau(  15) = (   3.2907910   2.8959150   9.1758416  )
        16           Ti1 tau(  16) = (   3.2891106   5.8743827   9.1763621  )
        17           Ti1 tau(  17) = (   0.0015273   1.4827037   9.2680791  )
        18           Ti1 tau(  18) = (   0.0006254   4.4649316   9.2693709  )
        19           O1  tau(  19) = (   4.5942328   1.4918067   9.2879030  )
        20           O1  tau(  20) = (   4.5938453   4.4726049   9.2879030  )
        21           O1  tau(  21) = (   1.9868534   1.4903216   9.2879459  )
        22           O1  tau(  22) = (   1.9864658   4.4711199   9.2879459  )
        23           O1  tau(  23) = (   0.0116148   5.9584955  10.6183126  )
        24           O1  tau(  24) = (   0.0092240   2.9805883  10.6323155  )
        25           O1  tau(  25) = (   3.2729272   2.9749101  11.3358637  )
        26           O1  tau(  26) = (   3.2774458   5.9577983  11.3358029  )
        27           Ti1 tau(  27) = (   6.5123228   0.0223980  12.5466522  )
        28           Ti1 tau(  28) = (   6.5139447   2.9993280  12.6164542  )
        29           Ti1 tau(  29) = (   3.1950650   4.4673527  12.4897579  )
        30           Ti1 tau(  30) = (   3.1950454   1.4921031  12.4944583  )
        31           O1  tau(  31) = (   5.2839716   4.4726476  12.6140382  )
        32           O1  tau(  32) = (   1.2968206   4.4781603  12.6268461  )
        33           O1  tau(  33) = (   5.2856119   1.4917077  12.6233973  )
        34           O1  tau(  34) = (   1.2888650   1.4770595  12.6372879  )
        35           O1  tau(  35) = (   3.2788258   2.9629383  13.9230881  )
        36           O1  tau(  36) = (   3.2980453   5.9500611  13.9147740  )
        37           O1  tau(  37) = (   6.5334376   5.9389224  14.6738689  )
        38           O1  tau(  38) = (   6.5776160   3.0156023  14.6540868  )
        39           Ti1 tau(  39) = (   3.2542760   2.9504115  15.7371360  )
        40           Ti1 tau(  40) = (   3.3062714   5.9309079  15.7116640  )
        41           Ti1 tau(  41) = (   6.5650095   1.2976281  16.1142359  )
        42           Ti1 tau(  42) = (   0.0079766   4.4268374  15.8391656  )
        43           O1  tau(  43) = (   2.0280489   1.4492115  16.0660627  )
        44           O1  tau(  44) = (   4.5116609   1.4624326  16.0993158  )
        45           O1  tau(  45) = (   2.0244938   4.4513709  16.0356871  )
        46           O1  tau(  46) = (   4.5113612   4.4342832  16.0730653  )
        47           O1  tau(  47) = (   6.5716746   5.9215154  17.2308814  )
        48           N1  tau(  48) = (   5.9800345   2.9984367  18.5879729  )
        49           H1  tau(  49) = (   4.9797160   2.8240766  18.4383897  )
        50           H1  tau(  50) = (   1.6245422   1.3425840  19.0439533  )
        51           H1  tau(  51) = (   6.0578502   3.9810051  18.8619266  )
        52           N1  tau(  52) = (   2.1403542   1.9713023  19.6616680  )
        53           C1  tau(  53) = (   2.8938676   2.8537551  19.2737185  )
        54           H1  tau(  54) = (   3.3792091   3.5764479  19.9483559  )
        55           O1  tau(  55) = (   6.5521836   2.9566373  17.2729174  )

     number of k points=    10  Fermi-Dirac smearing, width (Ry)=  0.0073
                       cart. coord. in units 2pi/alat
        k(    1) = (   0.0000000   0.0000000   0.0000000), wk =   0.1250000
        k(    2) = (   0.0000000   0.0419351   0.0000000), wk =   0.2500000
        k(    3) = (   0.0000000  -0.0838702   0.0000000), wk =   0.1250000
        k(    4) = (   0.0379955   0.0000049   0.0000000), wk =   0.2500000
        k(    5) = (   0.0379955   0.0419400   0.0000000), wk =   0.2500000
        k(    6) = (   0.0379955  -0.0838652   0.0000000), wk =   0.2500000
        k(    7) = (   0.0379955  -0.0419301   0.0000000), wk =   0.2500000
        k(    8) = (  -0.0759910  -0.0000099   0.0000000), wk =   0.1250000
        k(    9) = (  -0.0759910   0.0419252   0.0000000), wk =   0.2500000
        k(   10) = (  -0.0759910  -0.0838800   0.0000000), wk =   0.1250000

     Initial potential from superposition of free atoms

     starting charge  385.99915, renormalised to  402.00000

     negative rho (up, down):  1.542E-02 0.000E+00

     %%%%%%%%%%%%%%%%%%%%%%%%%%%%%%%%%%%%%%%%%%%%%%%%%%%%%%%%%%%%%%%%%%%%%%%%
     %                                                                      %
     % You are using vdW-DF, which was implemented by the Thonhauser group. %
     % Please cite the following two papers that made this development      %
     % possible and the two reviews that describe the various versions:     %
     %                                                                      %
     %   T. Thonhauser et al., PRL 115, 136402 (2015).                      %
     %   T. Thonhauser et al., PRB 76, 125112 (2007).                       %
     %   K. Berland et al., Rep. Prog. Phys. 78, 066501 (2015).             %
     %   D.C. Langreth et al., J. Phys.: Condens. Matter 21, 084203 (2009). %
     %                                                                      %
     %                                                                      %
     % If you are calculating the stress with vdW-DF, please also cite:     %
     %                                                                      %
     %   R. Sabatini et al., J. Phys.: Condens. Matter 24, 424209 (2012).   %
     %                                                                      %
     %%%%%%%%%%%%%%%%%%%%%%%%%%%%%%%%%%%%%%%%%%%%%%%%%%%%%%%%%%%%%%%%%%%%%%%%

     Adding external electric field

     Computed dipole along edir(3) :
        Dipole              -12.8629 Ry au,        -32.6941 Debye
        Dipole field         -0.0243 Ry au,

        Potential amp.        2.2502 Ry
        Total length         46.3494 bohr

     Starting wfcs are  304 atomic wfcs
  @ DRIVER MODE: Message from server: STATUS
  @ DRIVER MODE: Message from server: POSDATA
  @ DRIVER MODE: Reading and sharing cell
  @ DRIVER MODE: Reading and sharing positions
  @ DRIVER MODE: Received positions

     Self-consistent Calculation

     iteration #  1     ecut=    29.40 Ry     beta= 0.05
     Davidson diagonalization with overlap
     c_bands:  5 eigenvalues not converged
     c_bands:  2 eigenvalues not converged
     c_bands:  2 eigenvalues not converged
     c_bands:  5 eigenvalues not converged
     c_bands:  3 eigenvalues not converged
     c_bands:  3 eigenvalues not converged
     c_bands:  2 eigenvalues not converged
     c_bands:  3 eigenvalues not converged
     c_bands:  1 eigenvalues not converged
     ethr =  1.00E-05,  avg # of iterations = 21.5

[...]

     total energy              =   -2369.74029533 Ry
     estimated scf accuracy    <    6837.19242376 Ry

     iteration #  2     ecut=    29.40 Ry     beta= 0.05
     Davidson diagonalization with overlap
     ethr =  1.00E-02,  avg # of iterations = 23.1

[...]

     iteration # 60     ecut=    29.40 Ry     beta= 0.05
     Davidson diagonalization with overlap
     c_bands:  1 eigenvalues not converged
     c_bands:  2 eigenvalues not converged
     ethr =  5.66E-09,  avg # of iterations = 13.9

[...]

     total energy              =   -2972.58420126 Ry
     estimated scf accuracy    <       0.00000009 Ry

     iteration # 72     ecut=    29.40 Ry     beta= 0.05
     Davidson diagonalization with overlap
     ethr =  2.26E-11,  avg # of iterations = 11.0

     negative rho (up, down):  1.520E-02 0.000E+00

     Adding external electric field

     Computed dipole along edir(3) :
        Dipole                0.4798 Ry au,          1.2195 Debye
        Dipole field          0.0009 Ry au,

        Potential amp.       -0.0839 Ry
        Total length         46.3494 bohr

     End of self-consistent calculation

          k = 0.0000 0.0000 0.0000 ( 18029 PWs)   bands (ev):

   -55.8914 -55.8716 -55.8574 -55.8335 -55.7522 -55.7323 -55.7170 -55.7029
   -55.6905 -55.6689 -55.6675 -55.6335 -55.5273 -55.3000 -54.8704 -54.8364
   -32.4168 -32.3741 -32.2505 -32.2019 -32.1921 -32.1842 -32.1679 -32.1577
   -32.1348 -32.1020 -32.0567 -32.0461 -32.0437 -32.0413 -32.0255 -32.0047
   -31.9982 -31.9960 -31.9850 -31.9724 -31.9615 -31.9501 -31.9487 -31.9063
   -31.8993 -31.8940 -31.8922 -31.8826 -31.8719 -31.8676 -31.8633 -31.8434
   -31.8339 -31.8206 -31.8097 -31.7997 -31.7796 -31.7629 -31.7328 -31.5728
   -31.5349 -31.5151 -31.2775 -31.1891 -31.1666 -31.0943 -31.0078 -30.8967
   -18.6526 -16.6126 -16.3621 -16.1198 -16.0390 -16.0041 -15.8843 -15.8523
   -15.7299 -15.6190 -15.5245 -15.4490 -15.4295 -15.4282 -15.3887 -15.3767
   -15.3512 -15.3361 -15.3270 -15.3100 -15.2855 -15.2495 -15.2343 -15.2272
   -15.1362 -15.0595 -15.0259 -14.9785 -14.9729 -14.9490 -14.5601 -13.3728
   -13.2564 -12.2344  -8.1488  -5.3082  -4.9639  -4.5167  -3.9867  -3.8479
    -3.7975  -3.7296  -3.6864  -3.5105  -3.4004  -3.1453  -3.0713  -3.0514
    -3.0286  -2.9815  -2.8770  -2.8000  -2.7030  -2.6972  -2.6947  -2.6617
    -2.6518  -2.6351  -2.5934  -2.5728  -2.5051  -2.4339  -2.3947  -2.2907
    -2.2823  -2.2508  -2.2043  -2.1953  -2.1508  -2.1297  -2.1151  -2.1088
    -2.0954  -2.0582  -2.0251  -1.9160  -1.8790  -1.7995  -1.6843  -1.6085
    -1.5003  -1.4834  -1.3653  -1.3573  -1.3321  -1.3184  -1.2841  -1.2358
    -1.1797  -1.0758  -1.0481  -1.0181  -1.0115  -0.9116  -0.8524  -0.8277
    -0.7630  -0.6899  -0.6628  -0.6508  -0.6403  -0.6070  -0.3905  -0.3490
    -0.3296  -0.2973  -0.2507  -0.1961  -0.1591  -0.1117  -0.0713  -0.0060
     0.0032   0.0546   0.0790   0.0919   0.1082   0.1190   0.1355   0.2326
     0.3227   0.3606   0.3821   0.4581   0.4634   0.6352   0.7031   0.7644
     0.8765   1.0779   1.1517   1.2364   1.3438   1.7229   1.7629   1.7687
     3.2373   3.2393   3.3302   3.3726   3.3812   3.4816   3.5332   3.6942
     3.7273   3.7588   3.7969

[...]

          k = 0.0380-0.0419 0.0000 ( 17876 PWs)   bands (ev):

[...]

          k =-0.0760-0.0000 0.0000 ( 17886 PWs)   bands (ev):

[...]

          k =-0.0760-0.0839 0.0000 ( 17948 PWs)   bands (ev):

   -55.8748 -55.8738 -55.8589 -55.8460 -55.7383 -55.7309 -55.7231 -55.6995
   -55.6869 -55.6845 -55.6530 -55.6481 -55.5261 -55.3011 -54.8534 -54.8533
   -32.2272 -32.2140 -32.1898 -32.1890 -32.1700 -32.1691 -32.1204 -32.1120
   -32.0946 -32.0854 -32.0473 -32.0383 -32.0182 -32.0104 -32.0069 -32.0054
   -31.9993 -31.9945 -31.9934 -31.9910 -31.9873 -31.9843 -31.9495 -31.9474
   -31.9417 -31.9253 -31.9187 -31.9089 -31.8871 -31.8860 -31.8847 -31.8834
   -31.8776 -31.8675 -31.8642 -31.8621 -31.8565 -31.7605 -31.7362 -31.6453
   -31.5622 -31.5214 -31.1794 -31.1793 -31.0904 -31.0902 -31.0511 -31.0510
   -18.6373 -16.0314 -16.0102 -15.8859 -15.8469 -15.8104 -15.7709 -15.7589
   -15.6827 -15.6026 -15.5820 -15.5770 -15.4967 -15.4760 -15.4632 -15.4283
   -15.4153 -15.4049 -15.3991 -15.3596 -15.3487 -15.3395 -15.3312 -15.3236
   -15.2464 -15.2107 -15.2059 -15.1905 -15.0808 -14.9558 -14.7354 -13.3583
   -13.3581 -12.2470  -8.1491  -5.3043  -4.9693  -4.4412  -3.3179  -3.2853
    -3.1052  -3.0210  -3.0054  -2.9877  -2.8790  -2.8008  -2.7949  -2.7586
    -2.7278  -2.7204  -2.7104  -2.7073  -2.6838  -2.6734  -2.6232  -2.6021
    -2.5883  -2.5631  -2.5506  -2.5481  -2.5173  -2.5041  -2.4660  -2.4453
    -2.4261  -2.4142  -2.3923  -2.3257  -2.2068  -2.1247  -2.0930  -2.0338
    -2.0234  -1.9925  -1.9588  -1.9448  -1.9215  -1.8885  -1.8604  -1.7462
    -1.6370  -1.5820  -1.5800  -1.5040  -1.4682  -1.4249  -1.3774  -1.3240
    -1.2903  -1.2793  -1.2306  -1.1680  -1.1502  -1.0758  -1.0328  -1.0028
    -0.9603  -0.9362  -0.8643  -0.8518  -0.8492  -0.8160  -0.7271  -0.7103
    -0.6536  -0.6470  -0.6200  -0.5640  -0.5457  -0.5143  -0.3908  -0.3679
    -0.2419  -0.1752  -0.0862   0.0628   0.0851   0.1786   0.2164   0.2458
     0.3030   0.4046   0.4225   0.4350   0.4531   0.4847   0.5159   0.6383
     0.6523   0.6870   0.8069   1.5154   1.5159   1.5881   1.5887   1.6100
     3.2238   3.5698   3.5756   3.5968   3.6236   3.7564   3.7581   3.7764
     3.7778   3.9137   3.9302

     the Fermi energy is     3.2409 ev

!    total energy              =   -2972.58422354 Ry
     estimated scf accuracy    <       0.00000005 Ry
     smearing contrib. (-TS)   =      -0.03080512 Ry
     internal energy E=F+TS    =   -2972.55341842 Ry

     The total energy is F=E-TS. E is the sum of the following terms:
     one-electron contribution =  -23745.00295555 Ry
     hartree contribution      =   11963.80225375 Ry
     xc contribution           =    -493.07171346 Ry
     ewald contribution        =    9301.71856244 Ry
     electric field correction =       0.00043439 Ry

     convergence has been achieved in  72 iterations

     Forces acting on atoms (cartesian axes, Ry/au):

     atom    1 type  1   force =     0.00004375   -0.00002741    0.10322479
     atom    2 type  1   force =     0.00005010   -0.00004422    0.10326127
     atom    3 type  2   force =     0.00007807   -0.00022897    0.09624425
     atom    4 type  2   force =    -0.00001705   -0.00030289    0.09604411
     atom    5 type  2   force =     0.00003444   -0.00063721   -0.17554101
     atom    6 type  2   force =    -0.00001886   -0.00024417   -0.17550892
     atom    7 type  1   force =    -0.07153593   -0.00014265   -0.02766300
     atom    8 type  1   force =    -0.07151844   -0.00012706   -0.02763743
     atom    9 type  1   force =     0.07138087    0.00028579   -0.02773150
     atom   10 type  1   force =     0.07136797    0.00031586   -0.02769340
     atom   11 type  1   force =    -0.00005675   -0.00144994    0.05287996
     atom   12 type  1   force =    -0.00002681   -0.00125899    0.05322629
     atom   13 type  1   force =     0.00000656   -0.00000344   -0.02440270
     atom   14 type  1   force =     0.00010104   -0.00022817   -0.02343361
     atom   15 type  2   force =     0.00002684    0.00048313   -0.01063609
     atom   16 type  2   force =     0.00014530    0.00349771   -0.00997134
     atom   17 type  2   force =     0.00069453    0.01061096    0.02595054
     atom   18 type  2   force =     0.00083597   -0.01140104    0.02626234
     atom   19 type  1   force =    -0.01196669   -0.00052008    0.00383923
     atom   20 type  1   force =    -0.01231113   -0.00009112    0.00374964
     atom   21 type  1   force =     0.01293170   -0.00008869    0.00217881
     atom   22 type  1   force =     0.01317518    0.00047749    0.00213406
     atom   23 type  1   force =    -0.00431689    0.00133165   -0.01322382
     atom   24 type  1   force =    -0.00236742    0.00055015   -0.02177755
     atom   25 type  1   force =     0.00024146   -0.00090987    0.00015275
     atom   26 type  1   force =     0.00001484    0.00044535    0.00079718
     atom   27 type  2   force =    -0.00042970    0.00037665   -0.00000727
     atom   28 type  2   force =    -0.00068284   -0.00051907   -0.00012138
     atom   29 type  2   force =     0.00098942    0.00003149   -0.00019246
     atom   30 type  2   force =     0.00036505   -0.00074246   -0.00019302
     atom   31 type  1   force =     0.00085121    0.00010080    0.00023892
     atom   32 type  1   force =    -0.00045557   -0.00003104    0.00012924
     atom   33 type  1   force =     0.00042270   -0.00036708   -0.00000228
     atom   34 type  1   force =     0.00126077   -0.00021008    0.00000459
     atom   35 type  1   force =     0.00030558   -0.00026644    0.00014302
     atom   36 type  1   force =     0.00026762    0.00022969   -0.00042375
     atom   37 type  1   force =     0.00026732   -0.00131380   -0.00096551
     atom   38 type  1   force =     0.00021229    0.00033694    0.00000043
     atom   39 type  2   force =    -0.00078556   -0.00026542   -0.00039600
     atom   40 type  2   force =    -0.00070798    0.00051293    0.00049737
     atom   41 type  2   force =     0.00023259   -0.00073897   -0.00048803
     atom   42 type  2   force =     0.00063210    0.00021127    0.00025418
     atom   43 type  1   force =     0.00075068    0.00015144   -0.00058704
     atom   44 type  1   force =    -0.00024577   -0.00019695   -0.00035843
     atom   45 type  1   force =    -0.00006784    0.00005045    0.00021933
     atom   46 type  1   force =     0.00052645    0.00028270    0.00033281
     atom   47 type  1   force =     0.00007510   -0.00109462   -0.00015598
     atom   48 type  3   force =    -0.00155475   -0.00181776   -0.00079886
     atom   49 type  4   force =     0.00106194    0.00047037    0.00046376
     atom   50 type  4   force =     0.00004150   -0.00032909   -0.00053852
     atom   51 type  4   force =     0.00039025    0.00088483   -0.00161911
     atom   52 type  3   force =    -0.00087051   -0.00107707   -0.00015006
     atom   53 type  5   force =     0.00085659    0.00162964    0.00050818
     atom   54 type  4   force =    -0.00066267   -0.00102364   -0.00114095
     atom   55 type  1   force =    -0.00003861    0.00443210    0.00062197

     Total force =     0.367324     Total SCF correction =     0.000552
  @ DRIVER MODE: Message from server: STATUS
  @ DRIVER MODE: Message from server: GETFORCE
  @ DRIVER MODE: Returning v,forces,stress,ensemble

     Writing output data file ./calc.save/
  @ DRIVER MODE: Message from server: EXIT
  @ DRIVE MODE: Exiting

     General routines

     Parallel routines

   This run was terminated on:   7:10:29  27Sep2021

   JOB DONE.