     Program PWSCF v.6.7GPU starts on 23Sep2021 at 15:38:20

     R & G space division:  proc/nbgrp/npool/nimage =       8
     Reading input from /storage/home/hcoda1/3/ntian30/research/carbon/CxH_vib/H2O_calc/ads_slab/CH3NHHO_a/out_0013/pw.inp
Warning: card &CELL ignored
Warning: card   CELL_DYNAMICS='IPI', ignored
Warning: card / ignored

     Current dimensions of program PWSCF are:
     Max number of different atomic species (ntypx) = 10
     Max number of k-points (npk) =  40000
     Max angular momentum in pseudopotentials (lmaxx) =  3
     Presently no symmetry can be used with electric field

     Message from routine cell_base_init:
     DEPRECATED: use true lattice parameter, not A to a.u. conversion factor

     IMPORTANT: XC functional enforced from input :
     Exchange-correlation= BEEF-VDW
                           (   1   4  43  14   2   0   0)
     Any further DFT definition will be discarded
     Please, verify this is what you really want

  @ DRIVER MODE: Connecting to
 qe_1139763_2947309.sched-torque.pace.gatech.edusacfv8pf_scratch
  using UNIX socket
  @ DRIVER MODE: Message from server: STATUS
  @ DRIVER MODE: Message from server: INIT
  @ DRIVER MODE: Receiving replica           0          -1
  @ DRIVER MODE: Receiving encoded integer          25
  @ DRIVER MODE:  SCF:  T  FORCE:  T  STRESS:  F  VC:  F  ENSEMBLE:  F
  @ DRIVER MODE:  SCF:  T  FORCE:  T  STRESS:  F  VC:  F  ENSEMBLE:  F

     Using Slab Decomposition

     bravais-lattice index     =            0
     lattice parameter (alat)  =       1.8897  a.u.
     unit-cell volume          =    6658.9804 (a.u.)^3
     number of atoms/cell      =           55
     number of atomic types    =            5
     number of electrons       =       398.00
     number of Kohn-Sham states=          209
     kinetic-energy cutoff     =      29.3995  Ry
     charge density cutoff     =     293.9946  Ry
     scf convergence threshold =      7.3E-08
     mixing beta               =       0.0500
     number of iterations used =            8  plain     mixing
     Exchange-correlation= BEEF-VDW
                           (   1   4  43  14   2   0   0)

     celldm(1)=   1.889726  celldm(2)=   0.000000  celldm(3)=   0.000000
     celldm(4)=   0.000000  celldm(5)=   0.000000  celldm(6)=   0.000000

     crystal axes: (cart. coord. in units of alat)
               a(1) = (   6.579727   0.000000   0.000000 )
               a(2) = (  -0.000775   5.961596   0.000000 )
               a(3) = (   0.000000   0.000000  25.155947 )

     reciprocal axes: (cart. coord. in units 2 pi/alat)
               b(1) = (  0.151982  0.000020  0.000000 )
               b(2) = (  0.000000  0.167740  0.000000 )
               b(3) = (  0.000000  0.000000  0.039752 )

     PseudoPot. # 1 for Ti read from file:
     /storage/coda1/p-amedford6/0/shared/rich_project_chbe-medford/medford-share/data/pseudos_module/espresso/nninc/pbe/van/Ti.UPF
     MD5 check sum: 8e4df49b7f0d34bbd5052bf3f5ea0213
     Pseudo is Ultrasoft, Zval = 12.0
     Generated by new atomic code, or converted to UPF format
     Using radial grid of  851 points,  6 beta functions with:
                l(1) =   0
                l(2) =   0
                l(3) =   1
                l(4) =   1
                l(5) =   2
                l(6) =   2
     Q(r) pseudized with  8 coefficients,  rinner =    1.000   1.000   1.000
                                                       1.000   1.000

     PseudoPot. # 2 for O  read from file:
     /storage/coda1/p-amedford6/0/shared/rich_project_chbe-medford/medford-share/data/pseudos_module/espresso/nninc/pbe/van/O.UPF
     MD5 check sum: 78c19812648e8988a0fe644b0f25305e
     Pseudo is Ultrasoft, Zval =  6.0
     Generated by new atomic code, or converted to UPF format
     Using radial grid of  737 points,  4 beta functions with:
                l(1) =   0
                l(2) =   0
                l(3) =   1
                l(4) =   1
     Q(r) pseudized with  8 coefficients,  rinner =    0.800   0.800   0.800

     PseudoPot. # 3 for H  read from file:
     /storage/coda1/p-amedford6/0/shared/rich_project_chbe-medford/medford-share/data/pseudos_module/espresso/nninc/pbe/van/H.UPF
     MD5 check sum: b5ee9d7bfd3a09ee7748110bda690ff7
     Pseudo is Ultrasoft, Zval =  1.0
     Generated by new atomic code, or converted to UPF format
     Using radial grid of  615 points,  1 beta functions with:
                l(1) =   0
     Q(r) pseudized with  8 coefficients,  rinner =    0.800

     PseudoPot. # 4 for N  read from file:
     /storage/coda1/p-amedford6/0/shared/rich_project_chbe-medford/medford-share/data/pseudos_module/espresso/nninc/pbe/van/N.UPF
     MD5 check sum: 90d10febe142ad51ac9d5be1deb811c4
     Pseudo is Ultrasoft, Zval =  5.0
     Generated by new atomic code, or converted to UPF format
     Using radial grid of  729 points,  4 beta functions with:
                l(1) =   0
                l(2) =   0
                l(3) =   1
                l(4) =   1
     Q(r) pseudized with  8 coefficients,  rinner =    0.800   0.800   0.800

     PseudoPot. # 5 for C  read from file:
     /storage/coda1/p-amedford6/0/shared/rich_project_chbe-medford/medford-share/data/pseudos_module/espresso/nninc/pbe/van/C.UPF
     MD5 check sum: 1a69bf6b8db32088f5b2163dbdb77a27
     Pseudo is Ultrasoft, Zval =  4.0
     Generated by new atomic code, or converted to UPF format
     Using radial grid of  721 points,  4 beta functions with:
                l(1) =   0
                l(2) =   0
                l(3) =   1
                l(4) =   1
     Q(r) pseudized with  8 coefficients,  rinner =    0.800   0.800   0.800

     atomic species   valence    mass     pseudopotential
        Ti1           12.00    47.86700     Ti( 1.00)
        O1             6.00    15.99900     O ( 1.00)
        H1             1.00     1.00800     H ( 1.00)
        N1             5.00    14.00700     N ( 1.00)
        C1             4.00    12.01100     C ( 1.00)

     No symmetry found

   Cartesian axes

     site n.     atom                  positions (alat units)
         1           Ti1 tau(   1) = (   0.0004258   2.9801865   6.0000000  )
         2           Ti1 tau(   2) = (   3.2906075   1.4906267   6.0002472  )
         3           O1  tau(   3) = (   0.0006271   0.0005054   7.9858123  )
         4           O1  tau(   4) = (   3.2906025   0.0005020   7.3038282  )
         5           O1  tau(   5) = (   4.5942328   1.4918067   9.2879030  )
         6           O1  tau(   6) = (   1.9868534   1.4903216   9.2879459  )
         7           Ti1 tau(   7) = (   3.2907910   2.8959150   9.1758416  )
         8           Ti1 tau(   8) = (   0.0015273   1.4827037   9.2680791  )
         9           O1  tau(   9) = (   3.2831040   5.9360571  11.2641146  )
        10           O1  tau(  10) = (   0.0116148   5.9584955  10.6183126  )
        11           O1  tau(  11) = (   1.2851963   1.4867209  12.6255510  )
        12           O1  tau(  12) = (   5.2924406   1.4772461  12.6192171  )
        13           Ti1 tau(  13) = (   0.0036382   2.8404764  12.7021481  )
        14           Ti1 tau(  14) = (   3.2814461   1.2926050  12.6442039  )
        15           O1  tau(  15) = (   6.5789252   5.9354829  14.6389027  )
        16           O1  tau(  16) = (   3.2852549   0.0163589  13.8648689  )
        17           O1  tau(  17) = (   4.5445832   1.5164849  16.0197972  )
        18           O1  tau(  18) = (   2.0258823   1.4930055  16.0750729  )
        19           Ti1 tau(  19) = (   3.3156224   2.9699746  15.6194889  )
        20           Ti1 tau(  20) = (   0.0515760   1.3234122  16.0730098  )
        21           O1  tau(  21) = (   3.2904802   0.0005063   4.7018136  )
        22           O1  tau(  22) = (   6.5454194   5.9222349  17.1870725  )
        23           O1  tau(  23) = (   1.3043587   1.4918075   6.0039043  )
        24           O1  tau(  24) = (   5.2767064   1.4903225   6.0039473  )
        25           Ti1 tau(  25) = (   0.0000382   5.9609847   6.0000000  )
        26           Ti1 tau(  26) = (   3.2902200   4.4714249   6.0002472  )
        27           O1  tau(  27) = (   0.0002396   2.9813036   7.9858123  )
        28           O1  tau(  28) = (   3.2902150   2.9813002   7.3038282  )
        29           O1  tau(  29) = (   4.5938453   4.4726049   9.2879030  )
        30           O1  tau(  30) = (   1.9864658   4.4711199   9.2879459  )
        31           Ti1 tau(  31) = (   3.2891106   5.8743827   9.1763621  )
        32           Ti1 tau(  32) = (   0.0006254   4.4649316   9.2693709  )
        33           O1  tau(  33) = (   3.2861177   3.0127509  11.2320142  )
        34           O1  tau(  34) = (   0.0092240   2.9805883  10.6323155  )
        35           O1  tau(  35) = (   1.2872320   4.4646868  12.6147789  )
        36           O1  tau(  36) = (   5.2799320   4.4658550  12.6114028  )
        37           Ti1 tau(  37) = (   6.5510365   5.8261734  12.6423015  )
        38           Ti1 tau(  38) = (   3.2652589   4.3917841  12.4002916  )
        39           O1  tau(  39) = (   0.0003569   2.9920414  14.6539809  )
        40           O1  tau(  40) = (   3.2835110   2.9651371  13.8409569  )
        41           O1  tau(  41) = (   4.5245492   4.4030193  16.0142317  )
        42           O1  tau(  42) = (   2.0132503   4.4096711  16.0494848  )
        43           Ti1 tau(  43) = (   3.3389516   5.9588577  16.2858146  )
        44           Ti1 tau(  44) = (   0.0865397   4.4271626  15.8895714  )
        45           O1  tau(  45) = (   3.2900926   2.9813045   4.7018136  )
        46           O1  tau(  46) = (   1.3039711   4.4726057   6.0039043  )
        47           O1  tau(  47) = (   5.2763189   4.4711207   6.0039473  )
        48           H1  tau(  48) = (   5.5649379   3.0085428  17.7754687  )
        49           N1  tau(  49) = (   6.5266086   2.9804045  17.4451690  )
        50           C1  tau(  50) = (   0.8152436   3.0135910  18.6253707  )
        51           H1  tau(  51) = (   0.7415300   3.9712607  19.1474969  )
        52           H1  tau(  52) = (   0.5789590   2.2014881  19.3161603  )
        53           H1  tau(  53) = (   1.8636945   2.8847911  18.3311598  )
        54           O1  tau(  54) = (   3.4430348   5.9447220  18.1074838  )
        55           H1  tau(  55) = (   4.3135669   5.8364121  18.5244127  )

     number of k points=    10  Fermi-Dirac smearing, width (Ry)=  0.0073
                       cart. coord. in units 2pi/alat
        k(    1) = (   0.0000000   0.0000000   0.0000000), wk =   0.1250000
        k(    2) = (   0.0000000   0.0419351   0.0000000), wk =   0.2500000
        k(    3) = (   0.0000000  -0.0838702   0.0000000), wk =   0.1250000
        k(    4) = (   0.0379955   0.0000049   0.0000000), wk =   0.2500000
        k(    5) = (   0.0379955   0.0419400   0.0000000), wk =   0.2500000
        k(    6) = (   0.0379955  -0.0838652   0.0000000), wk =   0.2500000
        k(    7) = (   0.0379955  -0.0419301   0.0000000), wk =   0.2500000
        k(    8) = (  -0.0759910  -0.0000099   0.0000000), wk =   0.1250000
        k(    9) = (  -0.0759910   0.0419252   0.0000000), wk =   0.2500000
        k(   10) = (  -0.0759910  -0.0838800   0.0000000), wk =   0.1250000

     Initial potential from superposition of free atoms

     starting charge  381.99915, renormalised to  398.00000

     negative rho (up, down):  1.687E-02 0.000E+00

     %%%%%%%%%%%%%%%%%%%%%%%%%%%%%%%%%%%%%%%%%%%%%%%%%%%%%%%%%%%%%%%%%%%%%%%%
     %                                                                      %
     % You are using vdW-DF, which was implemented by the Thonhauser group. %
     % Please cite the following two papers that made this development      %
     % possible and the two reviews that describe the various versions:     %
     %                                                                      %
     %   T. Thonhauser et al., PRL 115, 136402 (2015).                      %
     %   T. Thonhauser et al., PRB 76, 125112 (2007).                       %
     %   K. Berland et al., Rep. Prog. Phys. 78, 066501 (2015).             %
     %   D.C. Langreth et al., J. Phys.: Condens. Matter 21, 084203 (2009). %
     %                                                                      %
     %                                                                      %
     % If you are calculating the stress with vdW-DF, please also cite:     %
     %                                                                      %
     %   R. Sabatini et al., J. Phys.: Condens. Matter 24, 424209 (2012).   %
     %                                                                      %
     %%%%%%%%%%%%%%%%%%%%%%%%%%%%%%%%%%%%%%%%%%%%%%%%%%%%%%%%%%%%%%%%%%%%%%%%

     Adding external electric field

     Computed dipole along edir(3) :
        Dipole               -8.7629 Ry au,        -22.2732 Debye
        Dipole field         -0.0165 Ry au,

        Potential amp.        1.5329 Ry
        Total length         46.3494 bohr

     Starting wfcs are  301 atomic wfcs
  @ DRIVER MODE: Message from server: STATUS
  @ DRIVER MODE: Message from server: POSDATA
  @ DRIVER MODE: Reading and sharing cell
  @ DRIVER MODE: Reading and sharing positions
  @ DRIVER MODE: Received positions

     Self-consistent Calculation

     iteration #  1     ecut=    29.40 Ry     beta= 0.05
     Davidson diagonalization with overlap
     c_bands:  2 eigenvalues not converged
     c_bands:  1 eigenvalues not converged
     c_bands:  1 eigenvalues not converged
     c_bands:  2 eigenvalues not converged
     ethr =  1.00E-05,  avg # of iterations = 18.0

[...]

     total energy              =   -2565.24842780 Ry
     estimated scf accuracy    <    4294.61140695 Ry

     iteration #  2     ecut=    29.40 Ry     beta= 0.05
     Davidson diagonalization with overlap
     ethr =  1.00E-02,  avg # of iterations = 23.2

[...]

     iteration # 50     ecut=    29.40 Ry     beta= 0.05
     Davidson diagonalization with overlap
     c_bands:  1 eigenvalues not converged
     ethr =  9.36E-08,  avg # of iterations =  8.1

[...]

     total energy              =   -2954.01272072 Ry
     estimated scf accuracy    <       0.00000009 Ry

     iteration # 72     ecut=    29.40 Ry     beta= 0.05
     Davidson diagonalization with overlap
     ethr =  2.38E-11,  avg # of iterations =  5.0

     negative rho (up, down):  1.731E-02 0.000E+00

     Adding external electric field

     Computed dipole along edir(3) :
        Dipole                0.2138 Ry au,          0.5434 Debye
        Dipole field          0.0004 Ry au,

        Potential amp.       -0.0374 Ry
        Total length         46.3494 bohr

     End of self-consistent calculation

          k = 0.0000 0.0000 0.0000 ( 18029 PWs)   bands (ev):

   -56.9314 -56.8978 -56.0306 -55.9958 -55.7954 -55.7275 -55.6380 -55.4829
   -55.4491 -55.4094 -55.3958 -55.3314 -55.3255 -55.2814 -55.1346 -55.0585
   -33.3505 -33.2033 -33.1752 -33.1099 -33.0197 -32.9775 -32.5135 -32.2711
   -32.2514 -32.2254 -32.1730 -32.1680 -32.1424 -32.0311 -32.0112 -31.9641
   -31.9451 -31.9320 -31.9130 -31.8927 -31.8906 -31.8667 -31.8620 -31.8301
   -31.8299 -31.8056 -31.7599 -31.7209 -31.6873 -31.6795 -31.6196 -31.6101
   -31.6067 -31.5892 -31.5778 -31.5494 -31.5289 -31.5234 -31.5096 -31.5030
   -31.4951 -31.4449 -31.4002 -31.3768 -31.3383 -31.3136 -31.3076 -31.2414
   -17.0377 -16.4922 -16.4447 -16.2493 -16.1463 -16.1267 -16.0893 -16.0394
   -15.8403 -15.7895 -15.7526 -15.6867 -15.5890 -15.4330 -15.3360 -15.1629
   -15.1130 -15.0805 -15.0639 -15.0581 -15.0509 -15.0386 -14.9844 -14.9283
   -14.8879 -14.8052 -14.7490 -14.6399 -14.4137 -14.3845 -13.9803 -13.8733
   -13.8465  -8.4672  -4.6115  -4.1070  -3.9753  -3.9451  -3.7823  -3.6288
    -3.5042  -3.4511  -3.4255  -3.3168  -3.3002  -3.2905  -3.2010  -3.0719
    -3.0024  -2.9901  -2.9275  -2.9083  -2.8791  -2.8654  -2.6984  -2.6666
    -2.5715  -2.5179  -2.4982  -2.4172  -2.4076  -2.3461  -2.2987  -2.2858
    -2.2623  -2.2047  -2.2005  -2.1302  -2.0884  -2.0254  -2.0019  -1.9704
    -1.9471  -1.8744  -1.7991  -1.7650  -1.6109  -1.5727  -1.5394  -1.5053
    -1.4896  -1.4091  -1.3381  -1.2562  -1.2223  -1.1552  -1.1062  -1.0665
    -1.0533  -0.9385  -0.9133  -0.8569  -0.7925  -0.7767  -0.7698  -0.7226
    -0.6099  -0.5301  -0.5165  -0.4905  -0.4370  -0.4170  -0.3795  -0.3543
    -0.2780  -0.2609  -0.1522  -0.0812  -0.0491  -0.0242   0.0773   0.1566
     0.1768   0.2197   0.2647   0.3046   0.3341   0.3774   0.4451   0.4931
     0.5163   0.5385   0.5681   0.6637   0.7148   0.7511   0.8074   0.8224
     0.8878   0.9580   0.9855   1.0736   1.1179   1.4840   1.6347   2.3618
     2.5325   2.8085   2.9818   3.2976   3.3476   3.3635   3.3650   3.6512
     3.7754

[...]

          k = 0.0380-0.0419 0.0000 ( 17876 PWs)   bands (ev):

[...]

          k =-0.0760-0.0000 0.0000 ( 17886 PWs)   bands (ev):

[...]

          k =-0.0760-0.0839 0.0000 ( 17948 PWs)   bands (ev):

   -56.9152 -56.9138 -56.0179 -56.0084 -55.7909 -55.7319 -55.6371 -55.4665
   -55.4654 -55.4053 -55.3964 -55.3351 -55.3242 -55.2801 -55.1360 -55.0596
   -33.1897 -33.1883 -33.1684 -33.1671 -33.0640 -33.0629 -32.3375 -32.3294
   -32.2128 -32.2032 -32.2022 -32.1964 -32.0944 -32.0487 -32.0243 -32.0100
   -31.9589 -31.9580 -31.9096 -31.8777 -31.8661 -31.8191 -31.8182 -31.7742
   -31.7372 -31.7044 -31.6865 -31.6849 -31.6798 -31.6769 -31.6477 -31.6467
   -31.6366 -31.6317 -31.6094 -31.5999 -31.5768 -31.5680 -31.5374 -31.5269
   -31.5178 -31.4855 -31.4405 -31.4017 -31.3772 -31.3427 -31.3155 -31.2689
   -16.4314 -16.3985 -16.3964 -16.3493 -16.3477 -16.0929 -16.0883 -15.8424
   -15.8104 -15.6884 -15.5362 -15.5069 -15.4695 -15.4199 -15.3736 -15.3033
   -15.2851 -15.2431 -15.2099 -15.1545 -15.1291 -15.0516 -15.0175 -14.9586
   -14.9226 -14.8339 -14.7871 -14.7807 -14.5604 -14.5435 -13.9779 -13.9773
   -13.8637  -8.4721  -4.0714  -4.0042  -3.4715  -3.4664  -3.4455  -3.4362
    -3.2218  -3.2161  -3.0482  -3.0053  -2.9863  -2.9452  -2.9287  -2.8569
    -2.8227  -2.7893  -2.7523  -2.7474  -2.7382  -2.7207  -2.6737  -2.6649
    -2.6246  -2.4873  -2.4729  -2.4530  -2.3945  -2.3308  -2.2996  -2.2479
    -2.2211  -2.2068  -2.1795  -2.1725  -2.1659  -2.1381  -2.1104  -1.9535
    -1.9106  -1.8103  -1.7780  -1.7535  -1.7320  -1.6776  -1.6741  -1.6435
    -1.6210  -1.5891  -1.5289  -1.4955  -1.4539  -1.3198  -1.3078  -1.2632
    -1.2480  -1.1918  -1.0946  -1.0044  -0.9879  -0.9499  -0.9290  -0.8848
    -0.8704  -0.8414  -0.7604  -0.7031  -0.5970  -0.5677  -0.5553  -0.5324
    -0.5027  -0.4606  -0.4126  -0.3447  -0.3294  -0.2104  -0.1407  -0.0923
    -0.0270   0.0370   0.0767   0.1197   0.1697   0.2657   0.2844   0.3595
     0.3730   0.4929   0.6016   0.6196   0.7728   0.8051   0.8733   0.9137
     0.9185   0.9291   0.9467   0.9583   1.0109   1.0871   1.5836   2.9534
     2.9564   3.0136   3.0194   3.3293   3.3302   3.4402   3.4420   3.7575
     3.7673

     the Fermi energy is     2.0620 ev

!    total energy              =   -2954.01274115 Ry
     estimated scf accuracy    <       0.00000005 Ry
     smearing contrib. (-TS)   =      -0.00173240 Ry
     internal energy E=F+TS    =   -2954.01100875 Ry

     The total energy is F=E-TS. E is the sum of the following terms:
     one-electron contribution =  -24214.05525427 Ry
     hartree contribution      =   12197.09125643 Ry
     xc contribution           =    -488.74917752 Ry
     ewald contribution        =    9551.70208036 Ry
     electric field correction =       0.00008624 Ry

     convergence has been achieved in  72 iterations

     Forces acting on atoms (cartesian axes, Ry/au):

     atom    1 type  1   force =     0.00017712   -0.00052589    0.12567026
     atom    2 type  1   force =     0.00000546    0.00026544   -0.15443221
     atom    3 type  2   force =     0.00002178   -0.00022363   -0.06672070
     atom    4 type  2   force =    -0.00001996    0.00008608    0.01671745
     atom    5 type  2   force =    -0.00390780   -0.00229177   -0.01290605
     atom    6 type  2   force =     0.00530227   -0.00149614   -0.01431393
     atom    7 type  1   force =    -0.00049178   -0.00698685    0.05720699
     atom    8 type  1   force =     0.00071819    0.00722928    0.09827382
     atom    9 type  2   force =     0.00002808    0.00008512   -0.00009126
     atom   10 type  2   force =    -0.00290110    0.00059273   -0.06190245
     atom   11 type  2   force =    -0.00003903   -0.00005566   -0.00000259
     atom   12 type  2   force =    -0.00004930    0.00016019    0.00017177
     atom   13 type  1   force =     0.00010814    0.00016058   -0.00013052
     atom   14 type  1   force =     0.00000786   -0.00006989    0.00015205
     atom   15 type  2   force =    -0.00000073    0.00001606    0.00007146
     atom   16 type  2   force =     0.00005596    0.00016504   -0.00022290
     atom   17 type  2   force =     0.00004429    0.00010059    0.00014968
     atom   18 type  2   force =    -0.00012892    0.00023831   -0.00009717
     atom   19 type  1   force =    -0.00015402   -0.00000292    0.00036285
     atom   20 type  1   force =     0.00029371   -0.00006380    0.00004322
     atom   21 type  2   force =     0.00007020    0.00021788    0.09780337
     atom   22 type  2   force =     0.00038616    0.00000034   -0.00001263
     atom   23 type  2   force =    -0.08272770    0.00009228   -0.03302185
     atom   24 type  2   force =     0.08268485    0.00050748   -0.03306942
     atom   25 type  1   force =     0.00010069   -0.00059901    0.12551891
     atom   26 type  1   force =     0.00000191   -0.00169732   -0.15484856
     atom   27 type  2   force =     0.00008786   -0.00076950   -0.06515649
     atom   28 type  2   force =     0.00004984    0.00188441    0.01157029
     atom   29 type  2   force =    -0.00250896    0.00468030   -0.01584802
     atom   30 type  2   force =     0.00367729    0.00501708   -0.01727548
     atom   31 type  1   force =    -0.00029419    0.00180468    0.04009217
     atom   32 type  1   force =     0.00091306   -0.01042406    0.09792403
     atom   33 type  2   force =    -0.00004341   -0.00002850    0.00010813
     atom   34 type  2   force =    -0.00230153    0.00077905   -0.07399439
     atom   35 type  2   force =     0.00009876    0.00002998    0.00003686
     atom   36 type  2   force =    -0.00008351   -0.00007489   -0.00001839
     atom   37 type  1   force =     0.00035270    0.00005777    0.00007117
     atom   38 type  1   force =     0.00012045   -0.00006926   -0.00025059
     atom   39 type  2   force =     0.00014743   -0.00009113    0.00005068
     atom   40 type  2   force =     0.00001623    0.00004614   -0.00019016
     atom   41 type  2   force =     0.00002865    0.00017911    0.00006667
     atom   42 type  2   force =    -0.00015412    0.00005312    0.00006344
     atom   43 type  1   force =     0.00016751   -0.00017118    0.00006793
     atom   44 type  1   force =     0.00035303    0.00037070    0.00004937
     atom   45 type  2   force =     0.00004363    0.00004541    0.09758603
     atom   46 type  2   force =    -0.08278933    0.00004886   -0.03303820
     atom   47 type  2   force =     0.08271576    0.00048264   -0.03305602
     atom   48 type  3   force =    -0.00104075    0.00000234   -0.00124798
     atom   49 type  4   force =    -0.00432483    0.00012434   -0.00120985
     atom   50 type  5   force =     0.01948664   -0.00074293   -0.00188905
     atom   51 type  3   force =    -0.00194337    0.00093860    0.00070526
     atom   52 type  3   force =    -0.00252359   -0.00126197    0.00149884
     atom   53 type  3   force =    -0.00985575    0.00139915    0.00299285
     atom   54 type  2   force =     0.00039623   -0.00063843    0.00078708
     atom   55 type  3   force =    -0.00037808    0.00042366   -0.00086577

     Total force =     0.417808     Total SCF correction =     0.000913
  @ DRIVER MODE: Message from server: STATUS
  @ DRIVER MODE: Message from server: GETFORCE
  @ DRIVER MODE: Returning v,forces,stress,ensemble

     Writing output data file ./calc.save/
  @ DRIVER MODE: Message from server: EXIT
  @ DRIVE MODE: Exiting

     General routines

     Parallel routines

   This run was terminated on:  16: 0: 7  23Sep2021

   JOB DONE.