     Program PWSCF v.6.7GPU starts on 22Sep2021 at 21:17:59

     R & G space division:  proc/nbgrp/npool/nimage =      10
     Reading input from /storage/home/hcoda1/3/ntian30/research/carbon/CxH_vib/H2O_calc/ads_slab/CHNHHHO_a/out_0017/pw.inp
Warning: card &CELL ignored
Warning: card   CELL_DYNAMICS='IPI', ignored
Warning: card / ignored

     Current dimensions of program PWSCF are:
     Max number of different atomic species (ntypx) = 10
     Max number of k-points (npk) =  40000
     Max angular momentum in pseudopotentials (lmaxx) =  3
     Presently no symmetry can be used with electric field

     Message from routine cell_base_init:
     DEPRECATED: use true lattice parameter, not A to a.u. conversion factor

     IMPORTANT: XC functional enforced from input :
     Exchange-correlation= BEEF-VDW
                           (   1   4  43  14   2   0   0)
     Any further DFT definition will be discarded
     Please, verify this is what you really want

  @ DRIVER MODE: Connecting to
 qe_1139763_2937313.sched-torque.pace.gatech.edurfb48qqo_scratch
  using UNIX socket
  @ DRIVER MODE: Message from server: STATUS
  @ DRIVER MODE: Message from server: INIT
  @ DRIVER MODE: Receiving replica           0          -1
  @ DRIVER MODE: Receiving encoded integer          25
  @ DRIVER MODE:  SCF:  T  FORCE:  T  STRESS:  F  VC:  F  ENSEMBLE:  F
  @ DRIVER MODE:  SCF:  T  FORCE:  T  STRESS:  F  VC:  F  ENSEMBLE:  F

     Using Slab Decomposition

     bravais-lattice index     =            0
     lattice parameter (alat)  =       1.8897  a.u.
     unit-cell volume          =    6658.9804 (a.u.)^3
     number of atoms/cell      =           54
     number of atomic types    =            5
     number of electrons       =       397.00
     number of Kohn-Sham states=          208
     kinetic-energy cutoff     =      29.3995  Ry
     charge density cutoff     =     293.9946  Ry
     scf convergence threshold =      7.3E-08
     mixing beta               =       0.0500
     number of iterations used =            8  plain     mixing
     Exchange-correlation= BEEF-VDW
                           (   1   4  43  14   2   0   0)

     celldm(1)=   1.889726  celldm(2)=   0.000000  celldm(3)=   0.000000
     celldm(4)=   0.000000  celldm(5)=   0.000000  celldm(6)=   0.000000

     crystal axes: (cart. coord. in units of alat)
               a(1) = (   6.579727   0.000000   0.000000 )
               a(2) = (  -0.000775   5.961596   0.000000 )
               a(3) = (   0.000000   0.000000  25.155947 )

     reciprocal axes: (cart. coord. in units 2 pi/alat)
               b(1) = (  0.151982  0.000020  0.000000 )
               b(2) = (  0.000000  0.167740  0.000000 )
               b(3) = (  0.000000  0.000000  0.039752 )

     PseudoPot. # 1 for Ti read from file:
     /storage/coda1/p-amedford6/0/shared/rich_project_chbe-medford/medford-share/data/pseudos_module/espresso/nninc/pbe/van/Ti.UPF
     MD5 check sum: 8e4df49b7f0d34bbd5052bf3f5ea0213
     Pseudo is Ultrasoft, Zval = 12.0
     Generated by new atomic code, or converted to UPF format
     Using radial grid of  851 points,  6 beta functions with:
                l(1) =   0
                l(2) =   0
                l(3) =   1
                l(4) =   1
                l(5) =   2
                l(6) =   2
     Q(r) pseudized with  8 coefficients,  rinner =    1.000   1.000   1.000
                                                       1.000   1.000

     PseudoPot. # 2 for O  read from file:
     /storage/coda1/p-amedford6/0/shared/rich_project_chbe-medford/medford-share/data/pseudos_module/espresso/nninc/pbe/van/O.UPF
     MD5 check sum: 78c19812648e8988a0fe644b0f25305e
     Pseudo is Ultrasoft, Zval =  6.0
     Generated by new atomic code, or converted to UPF format
     Using radial grid of  737 points,  4 beta functions with:
                l(1) =   0
                l(2) =   0
                l(3) =   1
                l(4) =   1
     Q(r) pseudized with  8 coefficients,  rinner =    0.800   0.800   0.800

     PseudoPot. # 3 for N  read from file:
     /storage/coda1/p-amedford6/0/shared/rich_project_chbe-medford/medford-share/data/pseudos_module/espresso/nninc/pbe/van/N.UPF
     MD5 check sum: 90d10febe142ad51ac9d5be1deb811c4
     Pseudo is Ultrasoft, Zval =  5.0
     Generated by new atomic code, or converted to UPF format
     Using radial grid of  729 points,  4 beta functions with:
                l(1) =   0
                l(2) =   0
                l(3) =   1
                l(4) =   1
     Q(r) pseudized with  8 coefficients,  rinner =    0.800   0.800   0.800

     PseudoPot. # 4 for C  read from file:
     /storage/coda1/p-amedford6/0/shared/rich_project_chbe-medford/medford-share/data/pseudos_module/espresso/nninc/pbe/van/C.UPF
     MD5 check sum: 1a69bf6b8db32088f5b2163dbdb77a27
     Pseudo is Ultrasoft, Zval =  4.0
     Generated by new atomic code, or converted to UPF format
     Using radial grid of  721 points,  4 beta functions with:
                l(1) =   0
                l(2) =   0
                l(3) =   1
                l(4) =   1
     Q(r) pseudized with  8 coefficients,  rinner =    0.800   0.800   0.800

     PseudoPot. # 5 for H  read from file:
     /storage/coda1/p-amedford6/0/shared/rich_project_chbe-medford/medford-share/data/pseudos_module/espresso/nninc/pbe/van/H.UPF
     MD5 check sum: b5ee9d7bfd3a09ee7748110bda690ff7
     Pseudo is Ultrasoft, Zval =  1.0
     Generated by new atomic code, or converted to UPF format
     Using radial grid of  615 points,  1 beta functions with:
                l(1) =   0
     Q(r) pseudized with  8 coefficients,  rinner =    0.800

     atomic species   valence    mass     pseudopotential
        Ti1           12.00    47.86700     Ti( 1.00)
        O1             6.00    15.99900     O ( 1.00)
        N1             5.00    14.00700     N ( 1.00)
        C1             4.00    12.01100     C ( 1.00)
        H1             1.00     1.00800     H ( 1.00)

     No symmetry found

   Cartesian axes

     site n.     atom                  positions (alat units)
         1           Ti1 tau(   1) = (   0.0004258   2.9801865   6.0000000  )
         2           Ti1 tau(   2) = (   3.2906075   1.4906267   6.0002472  )
         3           O1  tau(   3) = (   0.0006271   0.0005054   7.9858123  )
         4           O1  tau(   4) = (   3.2906025   0.0005020   7.3038282  )
         5           O1  tau(   5) = (   4.5942328   1.4918067   9.2879030  )
         6           O1  tau(   6) = (   1.9868534   1.4903216   9.2879459  )
         7           Ti1 tau(   7) = (   3.2907910   2.8959150   9.1758416  )
         8           Ti1 tau(   8) = (   0.0015273   1.4827037   9.2680791  )
         9           O1  tau(   9) = (   3.2973591   5.9237820  11.3497511  )
        10           O1  tau(  10) = (   0.0116148   5.9584955  10.6183126  )
        11           O1  tau(  11) = (   1.2811460   1.4768824  12.6391447  )
        12           O1  tau(  12) = (   5.3079631   1.4871840  12.6405626  )
        13           Ti1 tau(  13) = (   6.5754896   2.9244875  12.5445406  )
        14           Ti1 tau(  14) = (   3.3102182   1.2813077  12.7057081  )
        15           O1  tau(  15) = (   6.5763362   0.0566486  14.6337039  )
        16           O1  tau(  16) = (   3.2990834   0.0566264  13.9960278  )
        17           O1  tau(  17) = (   4.5749688   1.5338778  16.1314031  )
        18           O1  tau(  18) = (   2.0677763   1.5208417  16.2171153  )
        19           Ti1 tau(  19) = (   3.2830944   2.9922577  15.6820260  )
        20           Ti1 tau(  20) = (   6.5002293   1.4748383  16.0237708  )
        21           O1  tau(  21) = (   3.2904802   0.0005063   4.7018136  )
        22           O1  tau(  22) = (   0.0234767   5.8639946  17.1540191  )
        23           O1  tau(  23) = (   1.3043587   1.4918075   6.0039043  )
        24           O1  tau(  24) = (   5.2767064   1.4903225   6.0039473  )
        25           Ti1 tau(  25) = (   0.0000382   5.9609847   6.0000000  )
        26           Ti1 tau(  26) = (   3.2902200   4.4714249   6.0002472  )
        27           O1  tau(  27) = (   0.0002396   2.9813036   7.9858123  )
        28           O1  tau(  28) = (   3.2902150   2.9813002   7.3038282  )
        29           O1  tau(  29) = (   4.5938453   4.4726049   9.2879030  )
        30           O1  tau(  30) = (   1.9864658   4.4711199   9.2879459  )
        31           Ti1 tau(  31) = (   3.2891106   5.8743827   9.1763621  )
        32           Ti1 tau(  32) = (   0.0006254   4.4649316   9.2693709  )
        33           O1  tau(  33) = (   3.2952530   2.9960894  11.3054589  )
        34           O1  tau(  34) = (   0.0092240   2.9805883  10.6323155  )
        35           O1  tau(  35) = (   1.2848436   4.4566134  12.6628561  )
        36           O1  tau(  36) = (   5.3073415   4.4462911  12.6631571  )
        37           Ti1 tau(  37) = (   0.0411484   5.9123939  12.5136797  )
        38           Ti1 tau(  38) = (   3.3147701   4.3652790  12.4361622  )
        39           O1  tau(  39) = (   0.0290229   2.9306538  14.8412286  )
        40           O1  tau(  40) = (   3.2875986   2.9640914  13.9120161  )
        41           O1  tau(  41) = (   4.5659564   4.3862643  16.1232528  )
        42           O1  tau(  42) = (   2.0245242   4.4195217  16.0560026  )
        43           Ti1 tau(  43) = (   3.2475481   5.9608109  16.2864591  )
        44           Ti1 tau(  44) = (   0.0132903   4.6514137  15.7972829  )
        45           O1  tau(  45) = (   3.2900926   2.9813045   4.7018136  )
        46           O1  tau(  46) = (   1.3039711   4.4726057   6.0039043  )
        47           O1  tau(  47) = (   5.2763189   4.4711207   6.0039473  )
        48           N1  tau(  48) = (   5.7184149   3.3872802  18.6644769  )
        49           C1  tau(  49) = (   6.5536674   2.6142045  18.0347456  )
        50           H1  tau(  50) = (   0.7520291   2.2354638  18.6952436  )
        51           H1  tau(  51) = (   4.9873861   3.8928837  18.1615307  )
        52           H1  tau(  52) = (   5.8197376   3.6397576  19.6419508  )
        53           O1  tau(  53) = (   3.3578172   5.8156178  18.1613732  )
        54           H1  tau(  54) = (   2.9124532   0.5526369  18.6599525  )

     number of k points=    10  Fermi-Dirac smearing, width (Ry)=  0.0073
                       cart. coord. in units 2pi/alat
        k(    1) = (   0.0000000   0.0000000   0.0000000), wk =   0.1250000
        k(    2) = (   0.0000000   0.0419351   0.0000000), wk =   0.2500000
        k(    3) = (   0.0000000  -0.0838702   0.0000000), wk =   0.1250000
        k(    4) = (   0.0379955   0.0000049   0.0000000), wk =   0.2500000
        k(    5) = (   0.0379955   0.0419400   0.0000000), wk =   0.2500000
        k(    6) = (   0.0379955  -0.0838652   0.0000000), wk =   0.2500000
        k(    7) = (   0.0379955  -0.0419301   0.0000000), wk =   0.2500000
        k(    8) = (  -0.0759910  -0.0000099   0.0000000), wk =   0.1250000
        k(    9) = (  -0.0759910   0.0419252   0.0000000), wk =   0.2500000
        k(   10) = (  -0.0759910  -0.0838800   0.0000000), wk =   0.1250000

     Initial potential from superposition of free atoms

     starting charge  380.99916, renormalised to  397.00000

     negative rho (up, down):  1.675E-02 0.000E+00

     %%%%%%%%%%%%%%%%%%%%%%%%%%%%%%%%%%%%%%%%%%%%%%%%%%%%%%%%%%%%%%%%%%%%%%%%
     %                                                                      %
     % You are using vdW-DF, which was implemented by the Thonhauser group. %
     % Please cite the following two papers that made this development      %
     % possible and the two reviews that describe the various versions:     %
     %                                                                      %
     %   T. Thonhauser et al., PRL 115, 136402 (2015).                      %
     %   T. Thonhauser et al., PRB 76, 125112 (2007).                       %
     %   K. Berland et al., Rep. Prog. Phys. 78, 066501 (2015).             %
     %   D.C. Langreth et al., J. Phys.: Condens. Matter 21, 084203 (2009). %
     %                                                                      %
     %                                                                      %
     % If you are calculating the stress with vdW-DF, please also cite:     %
     %                                                                      %
     %   R. Sabatini et al., J. Phys.: Condens. Matter 24, 424209 (2012).   %
     %                                                                      %
     %%%%%%%%%%%%%%%%%%%%%%%%%%%%%%%%%%%%%%%%%%%%%%%%%%%%%%%%%%%%%%%%%%%%%%%%

     Adding external electric field

     Computed dipole along edir(3) :
        Dipole               -9.3081 Ry au,        -23.6588 Debye
        Dipole field         -0.0176 Ry au,

        Potential amp.        1.6283 Ry
        Total length         46.3494 bohr

     Starting wfcs are  300 atomic wfcs
  @ DRIVER MODE: Message from server: STATUS
  @ DRIVER MODE: Message from server: POSDATA
  @ DRIVER MODE: Reading and sharing cell
  @ DRIVER MODE: Reading and sharing positions
  @ DRIVER MODE: Received positions

     Self-consistent Calculation

     iteration #  1     ecut=    29.40 Ry     beta= 0.05
     Davidson diagonalization with overlap
     c_bands:  1 eigenvalues not converged
     c_bands:  2 eigenvalues not converged
     c_bands:  1 eigenvalues not converged
     c_bands:  1 eigenvalues not converged
     c_bands:  1 eigenvalues not converged
     c_bands:  2 eigenvalues not converged
     c_bands:  1 eigenvalues not converged
     c_bands:  1 eigenvalues not converged
     c_bands:  2 eigenvalues not converged
     ethr =  1.00E-05,  avg # of iterations = 19.6

[...]

     total energy              =   -2539.06706894 Ry
     estimated scf accuracy    <    4593.60367945 Ry

     iteration #  2     ecut=    29.40 Ry     beta= 0.05
     Davidson diagonalization with overlap
     ethr =  1.00E-02,  avg # of iterations = 24.3

[...]

     iteration # 70     ecut=    29.40 Ry     beta= 0.05
     Davidson diagonalization with overlap
     c_bands:  1 eigenvalues not converged
     ethr =  1.29E-09,  avg # of iterations = 15.5

[...]

     total energy              =   -2952.67094946 Ry
     estimated scf accuracy    <       0.00000013 Ry

     iteration # 84     ecut=    29.40 Ry     beta= 0.05
     Davidson diagonalization with overlap
     ethr =  1.92E-11,  avg # of iterations = 11.3

     negative rho (up, down):  1.682E-02 0.000E+00

     Adding external electric field

     Computed dipole along edir(3) :
        Dipole                1.3060 Ry au,          3.3196 Debye
        Dipole field          0.0025 Ry au,

        Potential amp.       -0.2285 Ry
        Total length         46.3494 bohr

     End of self-consistent calculation

          k = 0.0000 0.0000 0.0000 ( 18029 PWs)   bands (ev):

   -55.6257 -55.5462 -55.5122 -55.3633 -55.3393 -55.3293 -55.3039 -55.2963
   -55.2789 -55.2284 -55.1402 -55.1063 -55.0297 -55.0042 -54.4974 -54.4634
   -32.0275 -31.9578 -31.8654 -31.8489 -31.8380 -31.8256 -31.8245 -31.7911
   -31.7625 -31.7189 -31.6987 -31.6690 -31.6497 -31.6266 -31.6208 -31.6094
   -31.6039 -31.5866 -31.5528 -31.5376 -31.5219 -31.5178 -31.5034 -31.5023
   -31.4913 -31.4809 -31.4761 -31.4759 -31.4469 -31.4360 -31.4259 -31.4026
   -31.3862 -31.3848 -31.3834 -31.3059 -31.2964 -31.2755 -31.2432 -31.2343
   -31.2235 -31.1522 -30.9022 -30.8188 -30.7962 -30.7200 -30.6338 -30.5218
   -17.3025 -16.4851 -16.1310 -15.9664 -15.7694 -15.6648 -15.5953 -15.4067
   -15.3224 -15.2652 -15.0742 -15.0707 -15.0398 -15.0216 -14.9952 -14.9660
   -14.9585 -14.9527 -14.9258 -14.8924 -14.8756 -14.8475 -14.8299 -14.7717
   -14.7442 -14.7274 -14.6673 -14.5716 -14.5078 -14.2950 -14.1467 -12.9955
   -12.8796  -9.6451  -7.3148  -4.8153  -4.0644  -3.5002  -3.4330  -3.3718
    -3.3231  -3.2475  -3.0160  -2.8684  -2.7634  -2.7352  -2.6491  -2.6169
    -2.5704  -2.4918  -2.4244  -2.4011  -2.3550  -2.3177  -2.2867  -2.2647
    -2.2390  -2.2173  -2.1620  -2.1231  -2.0463  -1.9976  -1.9286  -1.9063
    -1.8492  -1.8108  -1.8083  -1.7933  -1.7567  -1.7513  -1.7427  -1.7230
    -1.6163  -1.5844  -1.5346  -1.4919  -1.3270  -1.1400  -1.1197  -1.0247
    -0.9880  -0.9504  -0.9228  -0.9076  -0.8818  -0.8588  -0.7638  -0.7450
    -0.6633  -0.6014  -0.5567  -0.5069  -0.4069  -0.3390  -0.3103  -0.2657
    -0.2600  -0.2290  -0.2129  -0.1248  -0.0483  -0.0013   0.0118   0.0632
     0.1489   0.1668   0.2222   0.2524   0.2941   0.3286   0.4009   0.4271
     0.4493   0.4611   0.4786   0.5357   0.5746   0.6075   0.6771   0.7792
     0.7875   0.8613   0.8641   0.8740   1.0737   1.1625   1.1821   1.2644
     1.4881   1.5292   1.6208   1.7253   2.0937   2.1380   3.5569   3.7005
     3.7182   3.7829   3.8314   3.9435   3.9555   4.0418   4.1700   4.2551

[...]

          k = 0.0380-0.0419 0.0000 ( 17876 PWs)   bands (ev):

[...]

          k =-0.0760-0.0000 0.0000 ( 17886 PWs)   bands (ev):

[...]

          k =-0.0760-0.0839 0.0000 ( 17948 PWs)   bands (ev):

   -55.6250 -55.5294 -55.5288 -55.3464 -55.3459 -55.3257 -55.3173 -55.2968
   -55.2724 -55.2348 -55.1380 -55.1026 -55.0333 -55.0063 -54.4808 -54.4799
   -31.9034 -31.8431 -31.8427 -31.8377 -31.8270 -31.8238 -31.8232 -31.6998
   -31.6716 -31.6652 -31.6494 -31.6487 -31.6430 -31.6342 -31.6209 -31.6020
   -31.5952 -31.5928 -31.5584 -31.5575 -31.5402 -31.5385 -31.5242 -31.5221
   -31.5150 -31.5104 -31.5025 -31.5008 -31.4906 -31.4844 -31.4585 -31.4523
   -31.4063 -31.3881 -31.3805 -31.3634 -31.3096 -31.3000 -31.2831 -31.2439
   -31.2382 -31.2257 -30.8092 -30.8086 -30.7158 -30.7146 -30.6773 -30.6766
   -17.2982 -16.4755 -15.5928 -15.5827 -15.4724 -15.4556 -15.3535 -15.2863
   -15.2527 -15.2285 -15.2087 -15.1774 -15.1722 -15.1256 -15.0798 -15.0641
   -15.0333 -15.0075 -14.9904 -14.9532 -14.9228 -14.9061 -14.8823 -14.8446
   -14.8381 -14.8232 -14.8098 -14.6399 -14.5935 -14.4487 -14.4217 -12.9819
   -12.9813  -9.6468  -7.3142  -4.8104  -4.0612  -2.8579  -2.7988  -2.6822
    -2.6445  -2.5850  -2.5103  -2.4772  -2.4636  -2.3768  -2.3660  -2.3618
    -2.3231  -2.2985  -2.2800  -2.2519  -2.2482  -2.2392  -2.2042  -2.1974
    -2.1800  -2.1590  -2.1425  -2.1272  -2.1126  -2.1038  -2.0807  -2.0579
    -2.0317  -1.9885  -1.8313  -1.7935  -1.7656  -1.6493  -1.6397  -1.6219
    -1.6107  -1.5975  -1.5657  -1.4996  -1.4813  -1.4751  -1.3152  -1.2307
    -1.1900  -1.1252  -1.1038  -1.0761  -0.9866  -0.9738  -0.9452  -0.9079
    -0.8602  -0.7881  -0.6890  -0.6815  -0.6381  -0.5301  -0.4791  -0.4670
    -0.4640  -0.4139  -0.4036  -0.3869  -0.3463  -0.2742  -0.2579  -0.2323
    -0.2004  -0.1852  -0.1437  -0.0743   0.0275   0.1104   0.2149   0.2505
     0.3323   0.3581   0.3736   0.5244   0.5886   0.6269   0.6759   0.6831
     0.7859   0.7969   0.8110   0.8917   0.9893   1.0090   1.0698   1.0870
     1.1063   1.1445   1.8945   1.9025   1.9582   1.9585   3.7454   4.0317
     4.0840   4.0940   4.1149   4.1297   4.1354   4.1642   4.2205   4.2539

     the Fermi energy is     3.5817 ev

!    total energy              =   -2952.67095537 Ry
     estimated scf accuracy    <       0.00000006 Ry
     smearing contrib. (-TS)   =      -0.02000844 Ry
     internal energy E=F+TS    =   -2952.65094692 Ry

     The total energy is F=E-TS. E is the sum of the following terms:
     one-electron contribution =  -23943.86782093 Ry
     hartree contribution      =   12064.87152527 Ry
     xc contribution           =    -487.98145741 Ry
     ewald contribution        =    9414.32358717 Ry
     electric field correction =       0.00321899 Ry

     convergence has been achieved in  84 iterations

     Forces acting on atoms (cartesian axes, Ry/au):

     atom    1 type  1   force =     0.00003871   -0.00030874    0.09544953
     atom    2 type  1   force =    -0.00014007    0.00031402   -0.17424778
     atom    3 type  2   force =    -0.00002025   -0.00015448   -0.02260063
     atom    4 type  2   force =     0.00003755   -0.00185546    0.05177100
     atom    5 type  2   force =    -0.00667590   -0.00270441    0.00167473
     atom    6 type  2   force =     0.00823315   -0.00219423    0.00115343
     atom    7 type  1   force =    -0.00012718   -0.00382623    0.01181167
     atom    8 type  1   force =     0.00015462    0.00376979    0.01274239
     atom    9 type  2   force =     0.00021061    0.00038420    0.00082679
     atom   10 type  2   force =    -0.00197475   -0.00130173   -0.01615669
     atom   11 type  2   force =     0.00118482   -0.00021241   -0.00029645
     atom   12 type  2   force =    -0.00062788    0.00012686   -0.00025331
     atom   13 type  1   force =    -0.00022320   -0.00146387    0.00058494
     atom   14 type  1   force =     0.00008967   -0.00042663   -0.00007019
     atom   15 type  2   force =     0.00010777    0.00029440   -0.00096942
     atom   16 type  2   force =     0.00004536    0.00106046   -0.00047955
     atom   17 type  2   force =    -0.00026624    0.00015116    0.00009427
     atom   18 type  2   force =     0.00004888    0.00025208   -0.00005737
     atom   19 type  1   force =    -0.00017478    0.00001624    0.00017178
     atom   20 type  1   force =    -0.00001396    0.00048329   -0.00045843
     atom   21 type  2   force =     0.00006068    0.00010324    0.10287544
     atom   22 type  2   force =    -0.00028909    0.00052903    0.00059080
     atom   23 type  2   force =    -0.07252008   -0.00013682   -0.02754889
     atom   24 type  2   force =     0.07242507    0.00027423   -0.02757589
     atom   25 type  1   force =     0.00009076   -0.00014271    0.09505926
     atom   26 type  1   force =    -0.00011161   -0.00128813   -0.17426646
     atom   27 type  2   force =     0.00015882   -0.00025949   -0.02135228
     atom   28 type  2   force =     0.00004927   -0.00014917    0.04737441
     atom   29 type  2   force =    -0.00545607    0.00230226   -0.00005562
     atom   30 type  2   force =     0.00703498    0.00274064   -0.00056420
     atom   31 type  1   force =    -0.00016728    0.00659184    0.00050005
     atom   32 type  1   force =     0.00008101   -0.00557310    0.01180560
     atom   33 type  2   force =    -0.00014550   -0.00039323    0.00012126
     atom   34 type  2   force =    -0.00121677    0.00016560   -0.01569756
     atom   35 type  2   force =    -0.00035835    0.00043230    0.00014587
     atom   36 type  2   force =     0.00101027    0.00058807    0.00040994
     atom   37 type  1   force =    -0.00023769    0.00176952    0.00023302
     atom   38 type  1   force =    -0.00005819    0.00024907    0.00039323
     atom   39 type  2   force =    -0.00009251    0.00010081   -0.00028729
     atom   40 type  2   force =     0.00037441   -0.00032942   -0.00020162
     atom   41 type  2   force =    -0.00053644    0.00040534    0.00030029
     atom   42 type  2   force =     0.00068212    0.00018323    0.00028341
     atom   43 type  1   force =     0.00029570    0.00016497    0.00031431
     atom   44 type  1   force =     0.00027804    0.00000198    0.00081434
     atom   45 type  2   force =     0.00006247   -0.00008872    0.10267041
     atom   46 type  2   force =    -0.07257090   -0.00005062   -0.02757354
     atom   47 type  2   force =     0.07249860    0.00040657   -0.02759978
     atom   48 type  3   force =     0.00096064   -0.00104430   -0.00020033
     atom   49 type  4   force =    -0.00519870    0.00246629   -0.00659537
     atom   50 type  5   force =     0.00391551   -0.00237751    0.00531767
     atom   51 type  5   force =     0.00037983    0.00004736    0.00000161
     atom   52 type  5   force =    -0.00018161    0.00066346    0.00048755
     atom   53 type  2   force =    -0.00007213   -0.00001491   -0.00075249
     atom   54 type  5   force =    -0.00105219   -0.00074202   -0.00011785

     Total force =     0.362487     Total SCF correction =     0.000589
  @ DRIVER MODE: Message from server: STATUS
  @ DRIVER MODE: Message from server: GETFORCE
  @ DRIVER MODE: Returning v,forces,stress,ensemble

     Writing output data file ./calc.save/
  @ DRIVER MODE: Message from server: EXIT
  @ DRIVE MODE: Exiting

     General routines

     Parallel routines

   This run was terminated on:  21:39:47  22Sep2021

   JOB DONE.