     Program PWSCF v.6.7GPU starts on 15Sep2021 at 19:59:18

     R & G space division:  proc/nbgrp/npool/nimage =      10
     Reading input from /storage/home/hcoda1/3/ntian30/research/carbon/CxH_vib/H2O_calc/ads_slab/CHNNHHH2O_a/out_0013/pw.inp
Warning: card &CELL ignored
Warning: card   CELL_DYNAMICS='IPI', ignored
Warning: card / ignored

     Current dimensions of program PWSCF are:
     Max number of different atomic species (ntypx) = 10
     Max number of k-points (npk) =  40000
     Max angular momentum in pseudopotentials (lmaxx) =  3
     Presently no symmetry can be used with electric field

     Message from routine cell_base_init:
     DEPRECATED: use true lattice parameter, not A to a.u. conversion factor

     IMPORTANT: XC functional enforced from input :
     Exchange-correlation= BEEF-VDW
                           (   1   4  43  14   2   0   0)
     Any further DFT definition will be discarded
     Please, verify this is what you really want

  @ DRIVER MODE: Connecting to
 qe_1139763_2852630.sched-torque.pace.gatech.edu81q9kwkq_scratch
  using UNIX socket
  @ DRIVER MODE: Message from server: STATUS
  @ DRIVER MODE: Message from server: INIT
  @ DRIVER MODE: Receiving replica           0          -1
  @ DRIVER MODE: Receiving encoded integer          25
  @ DRIVER MODE:  SCF:  T  FORCE:  T  STRESS:  F  VC:  F  ENSEMBLE:  F
  @ DRIVER MODE:  SCF:  T  FORCE:  T  STRESS:  F  VC:  F  ENSEMBLE:  F

     Using Slab Decomposition

     bravais-lattice index     =            0
     lattice parameter (alat)  =       1.8897  a.u.
     unit-cell volume          =    6658.9804 (a.u.)^3
     number of atoms/cell      =           56
     number of atomic types    =            5
     number of electrons       =       403.00
     number of Kohn-Sham states=          211
     kinetic-energy cutoff     =      29.3995  Ry
     charge density cutoff     =     293.9946  Ry
     scf convergence threshold =      7.3E-08
     mixing beta               =       0.0500
     number of iterations used =            8  plain     mixing
     Exchange-correlation= BEEF-VDW
                           (   1   4  43  14   2   0   0)

     celldm(1)=   1.889726  celldm(2)=   0.000000  celldm(3)=   0.000000
     celldm(4)=   0.000000  celldm(5)=   0.000000  celldm(6)=   0.000000

     crystal axes: (cart. coord. in units of alat)
               a(1) = (   6.579727   0.000000   0.000000 )
               a(2) = (  -0.000775   5.961596   0.000000 )
               a(3) = (   0.000000   0.000000  25.155947 )

     reciprocal axes: (cart. coord. in units 2 pi/alat)
               b(1) = (  0.151982  0.000020  0.000000 )
               b(2) = (  0.000000  0.167740  0.000000 )
               b(3) = (  0.000000  0.000000  0.039752 )

     PseudoPot. # 1 for Ti read from file:
     /storage/coda1/p-amedford6/0/shared/rich_project_chbe-medford/medford-share/data/pseudos_module/espresso/nninc/pbe/van/Ti.UPF
     MD5 check sum: 8e4df49b7f0d34bbd5052bf3f5ea0213
     Pseudo is Ultrasoft, Zval = 12.0
     Generated by new atomic code, or converted to UPF format
     Using radial grid of  851 points,  6 beta functions with:
                l(1) =   0
                l(2) =   0
                l(3) =   1
                l(4) =   1
                l(5) =   2
                l(6) =   2
     Q(r) pseudized with  8 coefficients,  rinner =    1.000   1.000   1.000
                                                       1.000   1.000

     PseudoPot. # 2 for O  read from file:
     /storage/coda1/p-amedford6/0/shared/rich_project_chbe-medford/medford-share/data/pseudos_module/espresso/nninc/pbe/van/O.UPF
     MD5 check sum: 78c19812648e8988a0fe644b0f25305e
     Pseudo is Ultrasoft, Zval =  6.0
     Generated by new atomic code, or converted to UPF format
     Using radial grid of  737 points,  4 beta functions with:
                l(1) =   0
                l(2) =   0
                l(3) =   1
                l(4) =   1
     Q(r) pseudized with  8 coefficients,  rinner =    0.800   0.800   0.800

     PseudoPot. # 3 for N  read from file:
     /storage/coda1/p-amedford6/0/shared/rich_project_chbe-medford/medford-share/data/pseudos_module/espresso/nninc/pbe/van/N.UPF
     MD5 check sum: 90d10febe142ad51ac9d5be1deb811c4
     Pseudo is Ultrasoft, Zval =  5.0
     Generated by new atomic code, or converted to UPF format
     Using radial grid of  729 points,  4 beta functions with:
                l(1) =   0
                l(2) =   0
                l(3) =   1
                l(4) =   1
     Q(r) pseudized with  8 coefficients,  rinner =    0.800   0.800   0.800

     PseudoPot. # 4 for C  read from file:
     /storage/coda1/p-amedford6/0/shared/rich_project_chbe-medford/medford-share/data/pseudos_module/espresso/nninc/pbe/van/C.UPF
     MD5 check sum: 1a69bf6b8db32088f5b2163dbdb77a27
     Pseudo is Ultrasoft, Zval =  4.0
     Generated by new atomic code, or converted to UPF format
     Using radial grid of  721 points,  4 beta functions with:
                l(1) =   0
                l(2) =   0
                l(3) =   1
                l(4) =   1
     Q(r) pseudized with  8 coefficients,  rinner =    0.800   0.800   0.800

     PseudoPot. # 5 for H  read from file:
     /storage/coda1/p-amedford6/0/shared/rich_project_chbe-medford/medford-share/data/pseudos_module/espresso/nninc/pbe/van/H.UPF
     MD5 check sum: b5ee9d7bfd3a09ee7748110bda690ff7
     Pseudo is Ultrasoft, Zval =  1.0
     Generated by new atomic code, or converted to UPF format
     Using radial grid of  615 points,  1 beta functions with:
                l(1) =   0
     Q(r) pseudized with  8 coefficients,  rinner =    0.800

     atomic species   valence    mass     pseudopotential
        Ti1           12.00    47.86700     Ti( 1.00)
        O1             6.00    15.99900     O ( 1.00)
        N1             5.00    14.00700     N ( 1.00)
        C1             4.00    12.01100     C ( 1.00)
        H1             1.00     1.00800     H ( 1.00)

     No symmetry found

   Cartesian axes

     site n.     atom                  positions (alat units)
         1           Ti1 tau(   1) = (   0.0004258   2.9801865   6.0000000  )
         2           Ti1 tau(   2) = (   3.2906075   1.4906267   6.0002472  )
         3           O1  tau(   3) = (   0.0006271   0.0005054   7.9858123  )
         4           O1  tau(   4) = (   3.2906025   0.0005020   7.3038282  )
         5           O1  tau(   5) = (   4.5942328   1.4918067   9.2879030  )
         6           O1  tau(   6) = (   1.9868534   1.4903216   9.2879459  )
         7           Ti1 tau(   7) = (   3.2907910   2.8959150   9.1758416  )
         8           Ti1 tau(   8) = (   0.0015273   1.4827037   9.2680791  )
         9           O1  tau(   9) = (   3.3295752   5.9394884  11.3365386  )
        10           O1  tau(  10) = (   0.0116148   5.9584955  10.6183126  )
        11           O1  tau(  11) = (   1.3416459   1.4853116  12.6004455  )
        12           O1  tau(  12) = (   5.3426426   1.4786053  12.6369034  )
        13           Ti1 tau(  13) = (   0.0116414   2.9353973  12.6160321  )
        14           Ti1 tau(  14) = (   3.2634613   1.4579052  12.5012998  )
        15           O1  tau(  15) = (   0.1064876   0.0498873  14.6156690  )
        16           O1  tau(  16) = (   3.3207907   0.0021492  13.9347054  )
        17           O1  tau(  17) = (   4.6463059   1.4619937  15.9920056  )
        18           O1  tau(  18) = (   2.1466462   1.4989335  16.1123926  )
        19           Ti1 tau(  19) = (   3.4306617   2.9592634  15.6863987  )
        20           Ti1 tau(  20) = (   0.1411245   1.4409179  16.1562347  )
        21           O1  tau(  21) = (   3.2904802   0.0005063   4.7018136  )
        22           O1  tau(  22) = (   0.1093408   5.8617090  17.1288626  )
        23           O1  tau(  23) = (   1.3043587   1.4918075   6.0039043  )
        24           O1  tau(  24) = (   5.2767064   1.4903225   6.0039473  )
        25           Ti1 tau(  25) = (   0.0000382   5.9609847   6.0000000  )
        26           Ti1 tau(  26) = (   3.2902200   4.4714249   6.0002472  )
        27           O1  tau(  27) = (   0.0002396   2.9813036   7.9858123  )
        28           O1  tau(  28) = (   3.2902150   2.9813002   7.3038282  )
        29           O1  tau(  29) = (   4.5938453   4.4726049   9.2879030  )
        30           O1  tau(  30) = (   1.9864658   4.4711199   9.2879459  )
        31           Ti1 tau(  31) = (   3.2891106   5.8743827   9.1763621  )
        32           Ti1 tau(  32) = (   0.0006254   4.4649316   9.2693709  )
        33           O1  tau(  33) = (   3.3252478   2.9725824  11.3426849  )
        34           O1  tau(  34) = (   0.0092240   2.9805883  10.6323155  )
        35           O1  tau(  35) = (   1.3395427   4.4601989  12.6346899  )
        36           O1  tau(  36) = (   5.3460148   4.4586474  12.6692756  )
        37           Ti1 tau(  37) = (   6.5637397   5.9322234  12.5160321  )
        38           Ti1 tau(  38) = (   3.2635149   4.4558096  12.5102435  )
        39           O1  tau(  39) = (   0.1109093   2.9345503  14.7784033  )
        40           O1  tau(  40) = (   3.3425673   2.9461413  13.8942005  )
        41           O1  tau(  41) = (   4.6672108   4.4449251  15.9191901  )
        42           O1  tau(  42) = (   2.1284166   4.4082335  15.9970045  )
        43           Ti1 tau(  43) = (   3.3925976   5.9399099  15.7906296  )
        44           Ti1 tau(  44) = (   0.1175887   4.6074924  15.7225956  )
        45           O1  tau(  45) = (   3.2900926   2.9813045   4.7018136  )
        46           O1  tau(  46) = (   1.3039711   4.4726057   6.0039043  )
        47           O1  tau(  47) = (   5.2763189   4.4711207   6.0039473  )
        48           N1  tau(  48) = (   6.3322197   2.6896666  17.8857888  )
        49           C1  tau(  49) = (   0.7408832   3.1023054  18.6049742  )
        50           H1  tau(  50) = (   1.6725283   2.9574642  18.0630083  )
        51           N1  tau(  51) = (   5.0062801   2.8267163  18.4728511  )
        52           H1  tau(  52) = (   5.1803530   3.0494745  19.4549233  )
        53           H1  tau(  53) = (   4.5789568   1.9025856  18.4370215  )
        54           O1  tau(  54) = (   3.4803961   5.7297960  18.1507158  )
        55           H1  tau(  55) = (   4.0125945   4.9267423  18.3304466  )
        56           H1  tau(  56) = (   2.5980622   5.5532332  18.5227279  )

     number of k points=    10  Fermi-Dirac smearing, width (Ry)=  0.0073
                       cart. coord. in units 2pi/alat
        k(    1) = (   0.0000000   0.0000000   0.0000000), wk =   0.1250000
        k(    2) = (   0.0000000   0.0419351   0.0000000), wk =   0.2500000
        k(    3) = (   0.0000000  -0.0838702   0.0000000), wk =   0.1250000
        k(    4) = (   0.0379955   0.0000049   0.0000000), wk =   0.2500000
        k(    5) = (   0.0379955   0.0419400   0.0000000), wk =   0.2500000
        k(    6) = (   0.0379955  -0.0838652   0.0000000), wk =   0.2500000
        k(    7) = (   0.0379955  -0.0419301   0.0000000), wk =   0.2500000
        k(    8) = (  -0.0759910  -0.0000099   0.0000000), wk =   0.1250000
        k(    9) = (  -0.0759910   0.0419252   0.0000000), wk =   0.2500000
        k(   10) = (  -0.0759910  -0.0838800   0.0000000), wk =   0.1250000

     Initial potential from superposition of free atoms

     starting charge  386.99914, renormalised to  403.00000

     negative rho (up, down):  1.683E-02 0.000E+00

     %%%%%%%%%%%%%%%%%%%%%%%%%%%%%%%%%%%%%%%%%%%%%%%%%%%%%%%%%%%%%%%%%%%%%%%%
     %                                                                      %
     % You are using vdW-DF, which was implemented by the Thonhauser group. %
     % Please cite the following two papers that made this development      %
     % possible and the two reviews that describe the various versions:     %
     %                                                                      %
     %   T. Thonhauser et al., PRL 115, 136402 (2015).                      %
     %   T. Thonhauser et al., PRB 76, 125112 (2007).                       %
     %   K. Berland et al., Rep. Prog. Phys. 78, 066501 (2015).             %
     %   D.C. Langreth et al., J. Phys.: Condens. Matter 21, 084203 (2009). %
     %                                                                      %
     %                                                                      %
     % If you are calculating the stress with vdW-DF, please also cite:     %
     %                                                                      %
     %   R. Sabatini et al., J. Phys.: Condens. Matter 24, 424209 (2012).   %
     %                                                                      %
     %%%%%%%%%%%%%%%%%%%%%%%%%%%%%%%%%%%%%%%%%%%%%%%%%%%%%%%%%%%%%%%%%%%%%%%%

     Adding external electric field

     Computed dipole along edir(3) :
        Dipole              -12.6658 Ry au,        -32.1932 Debye
        Dipole field         -0.0239 Ry au,

        Potential amp.        2.2157 Ry
        Total length         46.3494 bohr

     Starting wfcs are  305 atomic wfcs
  @ DRIVER MODE: Message from server: STATUS
  @ DRIVER MODE: Message from server: POSDATA
  @ DRIVER MODE: Reading and sharing cell
  @ DRIVER MODE: Reading and sharing positions
  @ DRIVER MODE: Received positions

     Self-consistent Calculation

     iteration #  1     ecut=    29.40 Ry     beta= 0.05
     Davidson diagonalization with overlap
     c_bands:  3 eigenvalues not converged
     c_bands:  2 eigenvalues not converged
     c_bands:  5 eigenvalues not converged
     c_bands:  1 eigenvalues not converged
     c_bands:  5 eigenvalues not converged
     c_bands:  1 eigenvalues not converged
     c_bands:  2 eigenvalues not converged
     ethr =  1.00E-05,  avg # of iterations = 26.8

[...]

     total energy              =   -2339.52911869 Ry
     estimated scf accuracy    <    7190.30272089 Ry

     iteration #  2     ecut=    29.40 Ry     beta= 0.05
     Davidson diagonalization with overlap
     ethr =  1.00E-02,  avg # of iterations = 22.6

[...]

     iteration # 46     ecut=    29.40 Ry     beta= 0.05
     Davidson diagonalization with overlap
     c_bands:  1 eigenvalues not converged
     ethr =  7.38E-08,  avg # of iterations =  9.9

[...]

     total energy              =   -2973.87560180 Ry
     estimated scf accuracy    <       0.00000019 Ry

     iteration # 65     ecut=    29.40 Ry     beta= 0.05
     Davidson diagonalization with overlap
     ethr =  4.02E-11,  avg # of iterations = 11.1

     negative rho (up, down):  1.574E-02 0.000E+00

     Adding external electric field

     Computed dipole along edir(3) :
        Dipole                0.4390 Ry au,          1.1158 Debye
        Dipole field          0.0008 Ry au,

        Potential amp.       -0.0768 Ry
        Total length         46.3494 bohr

     End of self-consistent calculation

          k = 0.0000 0.0000 0.0000 ( 18029 PWs)   bands (ev):

   -55.9086 -55.8745 -55.8724 -55.8349 -55.7935 -55.7919 -55.7362 -55.7255
   -55.6986 -55.6915 -55.6911 -55.6577 -55.4672 -55.3798 -54.8908 -54.8568
   -32.4133 -32.3927 -32.2796 -32.2354 -32.2255 -32.2006 -32.1819 -32.1626
   -32.1531 -32.1106 -32.0623 -32.0609 -32.0467 -32.0367 -32.0265 -32.0252
   -32.0146 -32.0102 -32.0060 -31.9956 -31.9881 -31.9742 -31.9658 -31.9320
   -31.9229 -31.9197 -31.9178 -31.9125 -31.8894 -31.8886 -31.8811 -31.8683
   -31.8585 -31.8454 -31.8377 -31.8312 -31.8039 -31.7596 -31.6971 -31.6352
   -31.5937 -31.5215 -31.2980 -31.2095 -31.1871 -31.1149 -31.0284 -30.9171
   -18.8464 -17.1773 -16.6228 -16.3864 -16.1495 -16.0707 -16.0454 -15.8161
   -15.7208 -15.6653 -15.5682 -15.5068 -15.4781 -15.4484 -15.4251 -15.4036
   -15.3632 -15.3509 -15.3313 -15.3302 -15.3034 -15.2944 -15.2572 -15.2513
   -15.2036 -15.0808 -15.0472 -15.0416 -15.0116 -14.9739 -14.5308 -13.3926
   -13.2761 -12.8312  -7.1360  -6.5630  -5.4970  -4.0031  -3.8690  -3.8617
    -3.8174  -3.7520  -3.6055  -3.5749  -3.3762  -3.2444  -3.1770  -3.0959
    -3.0789  -3.0409  -3.0150  -2.9109  -2.8254  -2.7907  -2.7221  -2.7067
    -2.6815  -2.6736  -2.6444  -2.6207  -2.5351  -2.5162  -2.4759  -2.4424
    -2.3267  -2.3082  -2.2521  -2.2240  -2.2162  -2.1972  -2.1734  -2.1643
    -2.1495  -2.1380  -2.0789  -2.0509  -1.9682  -1.9022  -1.8389  -1.7034
    -1.5632  -1.5220  -1.5091  -1.4099  -1.3837  -1.3488  -1.3295  -1.3056
    -1.2896  -1.1667  -1.0880  -1.0242  -1.0177  -0.9472  -0.8543  -0.7942
    -0.7367  -0.6795  -0.6734  -0.6526  -0.6477  -0.6132  -0.5400  -0.4039
    -0.3658  -0.3257  -0.2921  -0.2045  -0.1955  -0.1504  -0.1189  -0.0982
    -0.0653   0.0131   0.0248   0.0556   0.0772   0.0983   0.1212   0.1795
     0.3081   0.3299   0.3484   0.4057   0.4425   0.6016   0.7421   0.7856
     0.8877   1.0608   1.1321   1.1600   1.2232   1.3235   1.7030   1.7489
     2.7590   3.2074   3.3112   3.3451   3.3525   3.4534   3.4785   3.6690
     3.7135   3.7501   3.7810

[...]

          k = 0.0380-0.0419 0.0000 ( 17876 PWs)   bands (ev):

[...]

          k =-0.0760-0.0000 0.0000 ( 17886 PWs)   bands (ev):

[...]

          k =-0.0760-0.0839 0.0000 ( 17948 PWs)   bands (ev):

   -55.8919 -55.8910 -55.8591 -55.8479 -55.7903 -55.7861 -55.7420 -55.7102
   -55.7062 -55.7017 -55.6749 -55.6743 -55.4644 -55.3825 -54.8739 -54.8737
   -32.2298 -32.2082 -32.2078 -32.2077 -32.1863 -32.1858 -32.1282 -32.1204
   -32.1000 -32.0928 -32.0900 -32.0378 -32.0368 -32.0290 -32.0250 -32.0241
   -32.0185 -32.0149 -32.0127 -32.0113 -32.0101 -32.0077 -31.9954 -31.9923
   -31.9754 -31.9537 -31.9524 -31.9128 -31.9108 -31.9036 -31.9024 -31.9005
   -31.8940 -31.8907 -31.8901 -31.8842 -31.8813 -31.7758 -31.6952 -31.6416
   -31.5974 -31.5881 -31.1998 -31.1997 -31.1108 -31.1106 -31.0717 -31.0716
   -18.8440 -17.1686 -16.0496 -15.9644 -15.9261 -15.8371 -15.7910 -15.7576
   -15.6980 -15.6250 -15.5866 -15.5816 -15.5556 -15.4974 -15.4826 -15.4546
   -15.4369 -15.4253 -15.4208 -15.3688 -15.3626 -15.3534 -15.3488 -15.3354
   -15.3331 -15.3075 -15.2326 -15.2298 -15.1074 -14.8962 -14.8718 -13.3780
   -13.3777 -12.8472  -7.0953  -6.5537  -5.4359  -3.6797  -3.3935  -3.3296
    -3.2260  -3.1154  -3.0148  -3.0075  -2.9713  -2.9263  -2.8565  -2.8316
    -2.7758  -2.7545  -2.7415  -2.7249  -2.7206  -2.7096  -2.6765  -2.6536
    -2.5974  -2.5927  -2.5855  -2.5770  -2.5650  -2.5571  -2.5355  -2.5292
    -2.5026  -2.4767  -2.4381  -2.4058  -2.3237  -2.2476  -2.1707  -2.1211
    -2.0911  -2.0593  -2.0528  -2.0085  -1.9890  -1.9775  -1.9604  -1.8958
    -1.7957  -1.6761  -1.6197  -1.5967  -1.5479  -1.5119  -1.4886  -1.3814
    -1.3320  -1.3175  -1.2157  -1.1941  -1.1685  -1.1162  -1.0510  -1.0360
    -0.9935  -0.9498  -0.9074  -0.8672  -0.8620  -0.8114  -0.7663  -0.7390
    -0.6578  -0.6481  -0.6037  -0.5936  -0.5814  -0.5431  -0.4956  -0.4156
    -0.3194  -0.2742  -0.2227  -0.0691   0.0043   0.1396   0.1923   0.2576
     0.2742   0.3736   0.4018   0.4040   0.4857   0.5299   0.5861   0.6180
     0.6228   0.6352   0.8003   1.1083   1.4956   1.4966   1.5686   1.5690
     2.7185   3.5406   3.5980   3.6114   3.6376   3.7239   3.7475   3.7576
     3.7593   3.8790   3.8954

     the Fermi energy is     3.2201 ev

!    total energy              =   -2973.87563622 Ry
     estimated scf accuracy    <       0.00000006 Ry
     smearing contrib. (-TS)   =      -0.02177738 Ry
     internal energy E=F+TS    =   -2973.85385883 Ry

     The total energy is F=E-TS. E is the sum of the following terms:
     one-electron contribution =  -24185.17699173 Ry
     hartree contribution      =   12184.11979393 Ry
     xc contribution           =    -494.00571951 Ry
     ewald contribution        =    9521.20869477 Ry
     electric field correction =       0.00036370 Ry

     convergence has been achieved in  65 iterations

     Forces acting on atoms (cartesian axes, Ry/au):

     atom    1 type  1   force =     0.00016322   -0.00030896    0.09558344
     atom    2 type  1   force =     0.00004874   -0.00045271   -0.17581358
     atom    3 type  2   force =     0.00023185    0.00002015   -0.02351523
     atom    4 type  2   force =     0.00008553   -0.00152839    0.05313270
     atom    5 type  2   force =    -0.01025425   -0.00137167    0.00262214
     atom    6 type  2   force =     0.01292210   -0.00102106    0.00440297
     atom    7 type  1   force =     0.00139792    0.00129237   -0.00566209
     atom    8 type  1   force =    -0.00059924    0.01374414    0.01966743
     atom    9 type  2   force =     0.00024088   -0.00056245    0.00103139
     atom   10 type  2   force =    -0.00153815   -0.00072314   -0.01580181
     atom   11 type  2   force =    -0.00105037    0.00026249   -0.00022268
     atom   12 type  2   force =     0.00040444    0.00000420    0.00013559
     atom   13 type  1   force =     0.00055486    0.00083580    0.00032918
     atom   14 type  1   force =    -0.00022533   -0.00005918    0.00046365
     atom   15 type  2   force =    -0.00037053   -0.00002281   -0.00043788
     atom   16 type  2   force =    -0.00000449   -0.00085737   -0.00041166
     atom   17 type  2   force =    -0.00063792   -0.00022390   -0.00030048
     atom   18 type  2   force =     0.00001510   -0.00014973   -0.00028626
     atom   19 type  1   force =     0.00077803   -0.00057267   -0.00093114
     atom   20 type  1   force =    -0.00070099   -0.00078587   -0.00041864
     atom   21 type  2   force =     0.00007196    0.00001674    0.10324011
     atom   22 type  2   force =    -0.00006925    0.00120875    0.00041143
     atom   23 type  2   force =    -0.07149016   -0.00007729   -0.02758557
     atom   24 type  2   force =     0.07145560    0.00038080   -0.02763830
     atom   25 type  1   force =     0.00009836   -0.00026416    0.09539412
     atom   26 type  1   force =     0.00004230   -0.00022820   -0.17588180
     atom   27 type  2   force =     0.00024713   -0.00036721   -0.02227426
     atom   28 type  2   force =     0.00008078   -0.00122176    0.05318267
     atom   29 type  2   force =    -0.01029740    0.00029729    0.00173258
     atom   30 type  2   force =     0.01288643    0.00085569    0.00359321
     atom   31 type  1   force =     0.00161513    0.00306396   -0.01051433
     atom   32 type  1   force =    -0.00067742   -0.01565271    0.01964381
     atom   33 type  2   force =     0.00053528    0.00064432    0.00017948
     atom   34 type  2   force =    -0.00085206    0.00099485   -0.01348181
     atom   35 type  2   force =     0.00110624    0.00005019   -0.00044901
     atom   36 type  2   force =    -0.00120028    0.00012945   -0.00021504
     atom   37 type  1   force =    -0.00031174   -0.00044637    0.00011034
     atom   38 type  1   force =    -0.00091226    0.00036414   -0.00038474
     atom   39 type  2   force =    -0.00046055   -0.00052562    0.00012805
     atom   40 type  2   force =     0.00009516    0.00095588    0.00013008
     atom   41 type  2   force =    -0.00121446    0.00047429    0.00052279
     atom   42 type  2   force =     0.00104393   -0.00033170    0.00055919
     atom   43 type  1   force =    -0.00010761    0.00089613   -0.00035325
     atom   44 type  1   force =    -0.00047738    0.00055849   -0.00157795
     atom   45 type  2   force =     0.00007293    0.00000977    0.10324502
     atom   46 type  2   force =    -0.07148718   -0.00004442   -0.02758157
     atom   47 type  2   force =     0.07145305    0.00038107   -0.02761880
     atom   48 type  3   force =    -0.00127080    0.00054953    0.00089646
     atom   49 type  4   force =    -0.00813143    0.00079764    0.00314890
     atom   50 type  5   force =     0.00871635   -0.00143495   -0.00394992
     atom   51 type  3   force =     0.00030751    0.00010761   -0.00168471
     atom   52 type  5   force =    -0.00019371   -0.00018040    0.00089569
     atom   53 type  5   force =    -0.00076841   -0.00101157    0.00142355
     atom   54 type  2   force =    -0.00097186   -0.00029657    0.00103143
     atom   55 type  5   force =    -0.00078332    0.00143095   -0.00073170
     atom   56 type  5   force =     0.00038771    0.00039617   -0.00111317

     Total force =     0.366319     Total SCF correction =     0.000581
  @ DRIVER MODE: Message from server: STATUS
  @ DRIVER MODE: Message from server: GETFORCE
  @ DRIVER MODE: Returning v,forces,stress,ensemble

     Writing output data file ./calc.save/
  @ DRIVER MODE: Message from server: EXIT
  @ DRIVE MODE: Exiting

     General routines

     Parallel routines

   This run was terminated on:  20:17:29  15Sep2021

   JOB DONE.