     Program PWSCF v.6.7GPU starts on 10Sep2021 at 13:42:49

     R & G space division:  proc/nbgrp/npool/nimage =      10
     Reading input from /storage/home/hcoda1/3/ntian30/research/carbon/CxH_vib/CH3_calc/ads_slab/CH3N2H2O_e/out_0049/pw.inp
Warning: card &CELL ignored
Warning: card   CELL_DYNAMICS='IPI', ignored
Warning: card / ignored

     Current dimensions of program PWSCF are:
     Max number of different atomic species (ntypx) = 10
     Max number of k-points (npk) =  40000
     Max angular momentum in pseudopotentials (lmaxx) =  3
     Presently no symmetry can be used with electric field

     Message from routine cell_base_init:
     DEPRECATED: use true lattice parameter, not A to a.u. conversion factor

     IMPORTANT: XC functional enforced from input :
     Exchange-correlation= BEEF-VDW
                           (   1   4  43  14   2   0   0)
     Any further DFT definition will be discarded
     Please, verify this is what you really want

  @ DRIVER MODE: Connecting to
 qe_1139763_2779715.sched-torque.pace.gatech.edufroe536s_scratch
  using UNIX socket
  @ DRIVER MODE: Message from server: STATUS
  @ DRIVER MODE: Message from server: INIT
  @ DRIVER MODE: Receiving replica           0          -1
  @ DRIVER MODE: Receiving encoded integer          25
  @ DRIVER MODE:  SCF:  T  FORCE:  T  STRESS:  F  VC:  F  ENSEMBLE:  F
  @ DRIVER MODE:  SCF:  T  FORCE:  T  STRESS:  F  VC:  F  ENSEMBLE:  F

     Using Slab Decomposition

     bravais-lattice index     =            0
     lattice parameter (alat)  =       1.8897  a.u.
     unit-cell volume          =    6658.9804 (a.u.)^3
     number of atoms/cell      =           56
     number of atomic types    =            5
     number of electrons       =       403.00
     number of Kohn-Sham states=          211
     kinetic-energy cutoff     =      29.3995  Ry
     charge density cutoff     =     293.9946  Ry
     scf convergence threshold =      7.3E-08
     mixing beta               =       0.0500
     number of iterations used =            8  plain     mixing
     Exchange-correlation= BEEF-VDW
                           (   1   4  43  14   2   0   0)

     celldm(1)=   1.889726  celldm(2)=   0.000000  celldm(3)=   0.000000
     celldm(4)=   0.000000  celldm(5)=   0.000000  celldm(6)=   0.000000

     crystal axes: (cart. coord. in units of alat)
               a(1) = (   6.579727   0.000000   0.000000 )
               a(2) = (  -0.000775   5.961596   0.000000 )
               a(3) = (   0.000000   0.000000  25.155947 )

     reciprocal axes: (cart. coord. in units 2 pi/alat)
               b(1) = (  0.151982  0.000020  0.000000 )
               b(2) = (  0.000000  0.167740  0.000000 )
               b(3) = (  0.000000  0.000000  0.039752 )

     PseudoPot. # 1 for Ti read from file:
     /storage/coda1/p-amedford6/0/shared/rich_project_chbe-medford/medford-share/data/pseudos_module/espresso/nninc/pbe/van/Ti.UPF
     MD5 check sum: 8e4df49b7f0d34bbd5052bf3f5ea0213
     Pseudo is Ultrasoft, Zval = 12.0
     Generated by new atomic code, or converted to UPF format
     Using radial grid of  851 points,  6 beta functions with:
                l(1) =   0
                l(2) =   0
                l(3) =   1
                l(4) =   1
                l(5) =   2
                l(6) =   2
     Q(r) pseudized with  8 coefficients,  rinner =    1.000   1.000   1.000
                                                       1.000   1.000

     PseudoPot. # 2 for O  read from file:
     /storage/coda1/p-amedford6/0/shared/rich_project_chbe-medford/medford-share/data/pseudos_module/espresso/nninc/pbe/van/O.UPF
     MD5 check sum: 78c19812648e8988a0fe644b0f25305e
     Pseudo is Ultrasoft, Zval =  6.0
     Generated by new atomic code, or converted to UPF format
     Using radial grid of  737 points,  4 beta functions with:
                l(1) =   0
                l(2) =   0
                l(3) =   1
                l(4) =   1
     Q(r) pseudized with  8 coefficients,  rinner =    0.800   0.800   0.800

     PseudoPot. # 3 for N  read from file:
     /storage/coda1/p-amedford6/0/shared/rich_project_chbe-medford/medford-share/data/pseudos_module/espresso/nninc/pbe/van/N.UPF
     MD5 check sum: 90d10febe142ad51ac9d5be1deb811c4
     Pseudo is Ultrasoft, Zval =  5.0
     Generated by new atomic code, or converted to UPF format
     Using radial grid of  729 points,  4 beta functions with:
                l(1) =   0
                l(2) =   0
                l(3) =   1
                l(4) =   1
     Q(r) pseudized with  8 coefficients,  rinner =    0.800   0.800   0.800

     PseudoPot. # 4 for C  read from file:
     /storage/coda1/p-amedford6/0/shared/rich_project_chbe-medford/medford-share/data/pseudos_module/espresso/nninc/pbe/van/C.UPF
     MD5 check sum: 1a69bf6b8db32088f5b2163dbdb77a27
     Pseudo is Ultrasoft, Zval =  4.0
     Generated by new atomic code, or converted to UPF format
     Using radial grid of  721 points,  4 beta functions with:
                l(1) =   0
                l(2) =   0
                l(3) =   1
                l(4) =   1
     Q(r) pseudized with  8 coefficients,  rinner =    0.800   0.800   0.800

     PseudoPot. # 5 for H  read from file:
     /storage/coda1/p-amedford6/0/shared/rich_project_chbe-medford/medford-share/data/pseudos_module/espresso/nninc/pbe/van/H.UPF
     MD5 check sum: b5ee9d7bfd3a09ee7748110bda690ff7
     Pseudo is Ultrasoft, Zval =  1.0
     Generated by new atomic code, or converted to UPF format
     Using radial grid of  615 points,  1 beta functions with:
                l(1) =   0
     Q(r) pseudized with  8 coefficients,  rinner =    0.800

     atomic species   valence    mass     pseudopotential
        Ti1           12.00    47.86700     Ti( 1.00)
        O1             6.00    15.99900     O ( 1.00)
        N1             5.00    14.00700     N ( 1.00)
        C1             4.00    12.01100     C ( 1.00)
        H1             1.00     1.00800     H ( 1.00)

     No symmetry found

   Cartesian axes

     site n.     atom                  positions (alat units)
         1           Ti1 tau(   1) = (   0.0004258   2.9801865   6.0000000  )
         2           Ti1 tau(   2) = (   3.2906075   1.4906267   6.0002472  )
         3           O1  tau(   3) = (   0.0006271   0.0005054   7.9858123  )
         4           O1  tau(   4) = (   3.2906025   0.0005020   7.3038282  )
         5           O1  tau(   5) = (   4.5942328   1.4918067   9.2879030  )
         6           O1  tau(   6) = (   1.9868534   1.4903216   9.2879459  )
         7           Ti1 tau(   7) = (   3.2907910   2.8959150   9.1758416  )
         8           Ti1 tau(   8) = (   0.0015273   1.4827037   9.2680791  )
         9           O1  tau(   9) = (   3.2823942   0.0140684  11.3428430  )
        10           O1  tau(  10) = (   0.0116148   5.9584955  10.6183126  )
        11           O1  tau(  11) = (   1.2742013   1.4978990  12.6323156  )
        12           O1  tau(  12) = (   5.2614901   1.5083079  12.6129891  )
        13           Ti1 tau(  13) = (   0.0550148   2.9595524  12.6160221  )
        14           Ti1 tau(  14) = (   3.3718896   1.5084997  12.4944496  )
        15           O1  tau(  15) = (   6.5380961   0.0278828  14.6255036  )
        16           O1  tau(  16) = (   3.2758616   0.0189586  13.9121306  )
        17           O1  tau(  17) = (   4.4976875   1.5333668  16.0433440  )
        18           O1  tau(  18) = (   1.9922867   1.5271532  16.0291573  )
        19           Ti1 tau(  19) = (   3.1858679   3.0241111  15.7732818  )
        20           Ti1 tau(  20) = (   6.4842391   1.5502874  15.8011710  )
        21           O1  tau(  21) = (   3.2904802   0.0005063   4.7018136  )
        22           O1  tau(  22) = (   6.5196731   0.0665875  17.1891134  )
        23           O1  tau(  23) = (   1.3043587   1.4918075   6.0039043  )
        24           O1  tau(  24) = (   5.2767064   1.4903225   6.0039473  )
        25           Ti1 tau(  25) = (   0.0000382   5.9609847   6.0000000  )
        26           Ti1 tau(  26) = (   3.2902200   4.4714249   6.0002472  )
        27           O1  tau(  27) = (   0.0002396   2.9813036   7.9858123  )
        28           O1  tau(  28) = (   3.2902150   2.9813002   7.3038282  )
        29           O1  tau(  29) = (   4.5938453   4.4726049   9.2879030  )
        30           O1  tau(  30) = (   1.9864658   4.4711199   9.2879459  )
        31           Ti1 tau(  31) = (   3.2891106   5.8743827   9.1763621  )
        32           Ti1 tau(  32) = (   0.0006254   4.4649316   9.2693709  )
        33           O1  tau(  33) = (   3.2807012   2.9937711  11.3380227  )
        34           O1  tau(  34) = (   0.0092240   2.9805883  10.6323155  )
        35           O1  tau(  35) = (   1.2734598   4.4826339  12.6318047  )
        36           O1  tau(  36) = (   5.2665626   4.4910389  12.6093644  )
        37           Ti1 tau(  37) = (   0.0550181   5.9329888  12.5453996  )
        38           Ti1 tau(  38) = (   3.3741151   4.4737790  12.4977360  )
        39           O1  tau(  39) = (   6.5373474   2.9946220  14.6524478  )
        40           O1  tau(  40) = (   3.2677173   3.0168568  13.9399215  )
        41           O1  tau(  41) = (   4.4884636   4.5316779  16.1079578  )
        42           O1  tau(  42) = (   1.9830865   4.5332738  16.0531499  )
        43           Ti1 tau(  43) = (   3.2469912   0.0413792  15.7000251  )
        44           Ti1 tau(  44) = (   6.5198411   4.7064707  16.0702691  )
        45           O1  tau(  45) = (   3.2900926   2.9813045   4.7018136  )
        46           O1  tau(  46) = (   1.3039711   4.4726057   6.0039043  )
        47           O1  tau(  47) = (   5.2763189   4.4711207   6.0039473  )
        48           N1  tau(  48) = (   0.0943371   2.6987919  18.6315974  )
        49           N1  tau(  49) = (   6.5718678   2.9345059  17.4339123  )
        50           C1  tau(  50) = (   0.1779456   3.8407003  19.5793842  )
        51           H1  tau(  51) = (   6.4148796   4.7858965  19.1557567  )
        52           H1  tau(  52) = (   6.1971438   3.5603257  20.4715321  )
        53           H1  tau(  53) = (   1.2306852   3.9282498  19.8556806  )
        54           O1  tau(  54) = (   3.3096034   3.0730741  18.2289406  )
        55           H1  tau(  55) = (   4.0988663   3.6297178  18.3192648  )
        56           H1  tau(  56) = (   3.5689210   2.1977314  18.5501991  )

     number of k points=    10  Fermi-Dirac smearing, width (Ry)=  0.0073
                       cart. coord. in units 2pi/alat
        k(    1) = (   0.0000000   0.0000000   0.0000000), wk =   0.1250000
        k(    2) = (   0.0000000   0.0419351   0.0000000), wk =   0.2500000
        k(    3) = (   0.0000000  -0.0838702   0.0000000), wk =   0.1250000
        k(    4) = (   0.0379955   0.0000049   0.0000000), wk =   0.2500000
        k(    5) = (   0.0379955   0.0419400   0.0000000), wk =   0.2500000
        k(    6) = (   0.0379955  -0.0838652   0.0000000), wk =   0.2500000
        k(    7) = (   0.0379955  -0.0419301   0.0000000), wk =   0.2500000
        k(    8) = (  -0.0759910  -0.0000099   0.0000000), wk =   0.1250000
        k(    9) = (  -0.0759910   0.0419252   0.0000000), wk =   0.2500000
        k(   10) = (  -0.0759910  -0.0838800   0.0000000), wk =   0.1250000

     Initial potential from superposition of free atoms

     starting charge  386.99914, renormalised to  403.00000

     negative rho (up, down):  1.478E-02 0.000E+00

     %%%%%%%%%%%%%%%%%%%%%%%%%%%%%%%%%%%%%%%%%%%%%%%%%%%%%%%%%%%%%%%%%%%%%%%%
     %                                                                      %
     % You are using vdW-DF, which was implemented by the Thonhauser group. %
     % Please cite the following two papers that made this development      %
     % possible and the two reviews that describe the various versions:     %
     %                                                                      %
     %   T. Thonhauser et al., PRL 115, 136402 (2015).                      %
     %   T. Thonhauser et al., PRB 76, 125112 (2007).                       %
     %   K. Berland et al., Rep. Prog. Phys. 78, 066501 (2015).             %
     %   D.C. Langreth et al., J. Phys.: Condens. Matter 21, 084203 (2009). %
     %                                                                      %
     %                                                                      %
     % If you are calculating the stress with vdW-DF, please also cite:     %
     %                                                                      %
     %   R. Sabatini et al., J. Phys.: Condens. Matter 24, 424209 (2012).   %
     %                                                                      %
     %%%%%%%%%%%%%%%%%%%%%%%%%%%%%%%%%%%%%%%%%%%%%%%%%%%%%%%%%%%%%%%%%%%%%%%%

     Adding external electric field

     Computed dipole along edir(3) :
        Dipole              -13.2300 Ry au,        -33.6274 Debye
        Dipole field         -0.0250 Ry au,

        Potential amp.        2.3144 Ry
        Total length         46.3494 bohr

     Starting wfcs are  305 atomic wfcs
  @ DRIVER MODE: Message from server: STATUS
  @ DRIVER MODE: Message from server: POSDATA
  @ DRIVER MODE: Reading and sharing cell
  @ DRIVER MODE: Reading and sharing positions
  @ DRIVER MODE: Received positions

     Self-consistent Calculation

     iteration #  1     ecut=    29.40 Ry     beta= 0.05
     Davidson diagonalization with overlap
     c_bands:  5 eigenvalues not converged
     c_bands:  2 eigenvalues not converged
     c_bands:  5 eigenvalues not converged
     c_bands:  5 eigenvalues not converged
     c_bands:  1 eigenvalues not converged
     c_bands:  1 eigenvalues not converged
     c_bands:  4 eigenvalues not converged
     c_bands:  2 eigenvalues not converged
     c_bands:  1 eigenvalues not converged
     ethr =  1.00E-05,  avg # of iterations = 26.9

[...]

     total energy              =   -2368.08090041 Ry
     estimated scf accuracy    <    6912.85166863 Ry

     iteration #  2     ecut=    29.40 Ry     beta= 0.05
     Davidson diagonalization with overlap
     ethr =  1.00E-02,  avg # of iterations = 23.2

[...]

     iteration # 64     ecut=    29.40 Ry     beta= 0.05
     Davidson diagonalization with overlap
     c_bands:  1 eigenvalues not converged
     c_bands:  2 eigenvalues not converged
     ethr =  4.34E-11,  avg # of iterations = 18.1

[...]

     total energy              =   -2973.98642532 Ry
     estimated scf accuracy    <       0.00000013 Ry

     iteration # 66     ecut=    29.40 Ry     beta= 0.05
     Davidson diagonalization with overlap
     ethr =  3.23E-11,  avg # of iterations =  6.4

     negative rho (up, down):  1.504E-02 0.000E+00

     Adding external electric field

     Computed dipole along edir(3) :
        Dipole                0.9067 Ry au,          2.3047 Debye
        Dipole field          0.0017 Ry au,

        Potential amp.       -0.1586 Ry
        Total length         46.3494 bohr

     End of self-consistent calculation

          k = 0.0000 0.0000 0.0000 ( 18029 PWs)   bands (ev):

   -55.6034 -55.5693 -55.5674 -55.5316 -55.4991 -55.4488 -55.4389 -55.4147
   -55.4025 -55.3807 -55.3791 -55.3451 -55.0089 -54.8375 -54.5830 -54.5489
   -32.1123 -32.0860 -31.9593 -31.9429 -31.9133 -31.8962 -31.8815 -31.8689
   -31.8466 -31.8065 -31.7987 -31.7680 -31.7556 -31.7462 -31.7377 -31.7276
   -31.7079 -31.6984 -31.6960 -31.6606 -31.6565 -31.6461 -31.6332 -31.6076
   -31.6031 -31.5985 -31.5932 -31.5862 -31.5785 -31.5692 -31.5545 -31.5544
   -31.5456 -31.5320 -31.5213 -31.5092 -31.4909 -31.2860 -31.1996 -31.0980
   -31.0930 -31.0564 -30.9902 -30.9016 -30.8792 -30.8069 -30.7204 -30.6094
   -19.0473 -18.3017 -16.3179 -16.0769 -15.8748 -15.7598 -15.7190 -15.5264
   -15.4284 -15.3299 -15.2330 -15.1646 -15.1415 -15.1342 -15.1305 -15.1048
   -15.0797 -15.0682 -15.0469 -15.0304 -15.0156 -14.9558 -14.9423 -14.9333
   -14.8437 -14.7889 -14.7544 -14.7355 -14.6780 -14.6593 -14.1777 -13.0854
   -12.9689 -11.2889  -6.8873  -6.7587  -4.1964  -4.0550  -3.8017  -3.6882
    -3.5565  -3.5092  -3.4477  -3.4179  -3.2209  -3.1012  -3.0172  -2.8438
    -2.7864  -2.7589  -2.7293  -2.6573  -2.5216  -2.4714  -2.4200  -2.4137
    -2.4019  -2.3704  -2.3658  -2.3445  -2.2455  -2.2419  -2.1901  -2.1503
    -2.0809  -2.0014  -1.9819  -1.9350  -1.9163  -1.9041  -1.8760  -1.8527
    -1.8420  -1.8071  -1.7943  -1.7210  -1.6180  -1.5497  -1.4975  -1.4633
    -1.3975  -1.3847  -1.2179  -1.1532  -1.1080  -1.0714  -1.0528  -1.0323
    -0.9985  -0.9909  -0.8819  -0.7576  -0.7535  -0.6736  -0.6132  -0.5352
    -0.5269  -0.4492  -0.3921  -0.3737  -0.3614  -0.3504  -0.3216  -0.2485
    -0.1030  -0.0597  -0.0354   0.0001   0.0295   0.0951   0.1386   0.2080
     0.2428   0.2840   0.3191   0.3431   0.3674   0.3750   0.3902   0.4023
     0.4216   0.6041   0.6640   0.6852   0.7503   0.7797   0.9226   0.9891
     1.0530   1.1598   1.3645   1.4392   1.5302   1.6314   2.0106   2.0564
     2.7725   3.5308   3.6157   3.6626   3.7046   3.7772   3.7948   3.9673
     3.9863   4.0291   4.1186

[...]

          k = 0.0380-0.0419 0.0000 ( 17876 PWs)   bands (ev):

[...]

          k =-0.0760-0.0000 0.0000 ( 17886 PWs)   bands (ev):

[...]

          k =-0.0760-0.0839 0.0000 ( 17948 PWs)   bands (ev):

   -55.5867 -55.5858 -55.5505 -55.5483 -55.4923 -55.4554 -55.4266 -55.4148
   -55.3982 -55.3967 -55.3649 -55.3595 -55.0073 -54.8389 -54.5660 -54.5658
   -31.9264 -31.9110 -31.9016 -31.9010 -31.8820 -31.8812 -31.8512 -31.8169
   -31.7944 -31.7907 -31.7817 -31.7616 -31.7587 -31.7397 -31.7183 -31.7137
   -31.7118 -31.7071 -31.7064 -31.7053 -31.7045 -31.7023 -31.6981 -31.6587
   -31.6475 -31.6343 -31.6243 -31.6106 -31.5979 -31.5972 -31.5952 -31.5878
   -31.5789 -31.5753 -31.5685 -31.5650 -31.4267 -31.2878 -31.2051 -31.1540
   -31.0991 -31.0824 -30.8920 -30.8918 -30.8031 -30.8029 -30.7637 -30.7636
   -19.0424 -18.3034 -15.7643 -15.6824 -15.5600 -15.5215 -15.4778 -15.4340
   -15.4139 -15.3209 -15.3012 -15.2918 -15.2403 -15.2261 -15.2036 -15.1599
   -15.1376 -15.1283 -15.1242 -15.0885 -15.0601 -15.0434 -15.0400 -15.0342
   -14.9719 -14.9231 -14.9210 -14.9161 -14.7894 -14.6605 -14.3564 -13.0708
   -13.0706 -11.2866  -6.8841  -6.7761  -4.1255  -3.8658  -3.7818  -3.2668
    -3.0492  -2.8853  -2.8178  -2.7274  -2.6981  -2.6907  -2.5472  -2.5147
    -2.4850  -2.4373  -2.4326  -2.4286  -2.4213  -2.4056  -2.3987  -2.3826
    -2.3309  -2.3187  -2.2938  -2.2807  -2.2734  -2.2559  -2.2341  -2.2239
    -2.2019  -2.1678  -2.1537  -2.1182  -2.1113  -2.0213  -1.8359  -1.8244
    -1.7790  -1.7460  -1.7318  -1.7065  -1.6697  -1.6562  -1.6481  -1.5965
    -1.4733  -1.4316  -1.3439  -1.2960  -1.2788  -1.2258  -1.1624  -1.1382
    -1.0683  -1.0238  -0.9872  -0.9650  -0.9419  -0.7975  -0.7853  -0.7316
    -0.7184  -0.6813  -0.6336  -0.5756  -0.5633  -0.5532  -0.5368  -0.5031
    -0.4348  -0.3655  -0.3538  -0.3256  -0.2746  -0.2581  -0.2147  -0.1266
    -0.1066  -0.0703   0.0277   0.1298   0.2213   0.3560   0.4419   0.4650
     0.5214   0.5984   0.6965   0.7063   0.7147   0.7509   0.7747   0.8349
     0.9285   0.9485   0.9755   1.0981   1.8027   1.8034   1.8760   1.8762
     2.8136   3.7919   3.8516   3.8973   3.9163   4.0088   4.0420   4.0638
     4.0663   4.1135   4.2032

     the Fermi energy is     3.5300 ev

!    total energy              =   -2973.98646105 Ry
     estimated scf accuracy    <       0.00000005 Ry
     smearing contrib. (-TS)   =      -0.02192079 Ry
     internal energy E=F+TS    =   -2973.96454026 Ry

     The total energy is F=E-TS. E is the sum of the following terms:
     one-electron contribution =  -23875.35356756 Ry
     hartree contribution      =   12032.13514528 Ry
     xc contribution           =    -494.08505160 Ry
     ewald contribution        =    9363.33738204 Ry
     electric field correction =       0.00155158 Ry

     convergence has been achieved in  66 iterations

     Forces acting on atoms (cartesian axes, Ry/au):

     atom    1 type  1   force =     0.00006490   -0.00017509    0.09645407
     atom    2 type  1   force =    -0.00015710   -0.00063649   -0.17544305
     atom    3 type  2   force =    -0.00003675    0.00001885   -0.02463468
     atom    4 type  2   force =     0.00005840   -0.00136628    0.05308815
     atom    5 type  2   force =    -0.01208786    0.00003378    0.00386781
     atom    6 type  2   force =     0.01330632    0.00071220    0.00207367
     atom    7 type  1   force =    -0.00148221    0.00064587   -0.01048331
     atom    8 type  1   force =     0.00072447    0.00972303    0.02661269
     atom    9 type  2   force =    -0.00040495    0.00008790   -0.00032395
     atom   10 type  2   force =    -0.00181014    0.00306174   -0.01773140
     atom   11 type  2   force =    -0.00015056   -0.00023580    0.00012073
     atom   12 type  2   force =    -0.00017818   -0.00028960   -0.00030046
     atom   13 type  1   force =    -0.00021143   -0.00021077   -0.00007785
     atom   14 type  1   force =    -0.00036129   -0.00018617   -0.00034175
     atom   15 type  2   force =     0.00003583   -0.00089739    0.00024908
     atom   16 type  2   force =     0.00005953    0.00015474   -0.00001992
     atom   17 type  2   force =    -0.00005923   -0.00058087    0.00017107
     atom   18 type  2   force =     0.00024731   -0.00041620    0.00043728
     atom   19 type  1   force =     0.00044475   -0.00017996   -0.00008178
     atom   20 type  1   force =     0.00023844   -0.00069353    0.00014079
     atom   21 type  2   force =     0.00008484   -0.00004833    0.10321581
     atom   22 type  2   force =     0.00055158   -0.00049206   -0.00033358
     atom   23 type  2   force =    -0.07147161   -0.00008451   -0.02774558
     atom   24 type  2   force =     0.07140888    0.00030056   -0.02774919
     atom   25 type  1   force =     0.00006937   -0.00028693    0.09593307
     atom   26 type  1   force =    -0.00024904   -0.00023238   -0.17572145
     atom   27 type  2   force =     0.00007104   -0.00008885   -0.02365634
     atom   28 type  2   force =     0.00006213   -0.00118903    0.05337041
     atom   29 type  2   force =    -0.01232498    0.00061780    0.00390640
     atom   30 type  2   force =     0.01348048    0.00109972    0.00207478
     atom   31 type  1   force =    -0.00129786    0.00372995   -0.00846439
     atom   32 type  1   force =     0.00085263   -0.01167514    0.02703892
     atom   33 type  2   force =    -0.00002145    0.00013255   -0.00010879
     atom   34 type  2   force =    -0.00128267    0.00169411   -0.02364135
     atom   35 type  2   force =    -0.00023551   -0.00003746    0.00004051
     atom   36 type  2   force =     0.00004572   -0.00002904    0.00018269
     atom   37 type  1   force =    -0.00000054   -0.00018162    0.00016399
     atom   38 type  1   force =    -0.00056534   -0.00029056    0.00054831
     atom   39 type  2   force =     0.00022260   -0.00060473    0.00050845
     atom   40 type  2   force =    -0.00002254   -0.00009525    0.00018835
     atom   41 type  2   force =     0.00018525   -0.00053243   -0.00028402
     atom   42 type  2   force =     0.00014658   -0.00033369   -0.00049307
     atom   43 type  1   force =     0.00076200   -0.00041664    0.00014336
     atom   44 type  1   force =    -0.00002033   -0.00018424   -0.00084635
     atom   45 type  2   force =     0.00009045   -0.00005656    0.10320638
     atom   46 type  2   force =    -0.07146762   -0.00007753   -0.02775227
     atom   47 type  2   force =     0.07141401    0.00035574   -0.02776635
     atom   48 type  3   force =    -0.00036000   -0.00067512    0.00107122
     atom   49 type  3   force =     0.00019653    0.00063595   -0.00040697
     atom   50 type  4   force =    -0.00052219    0.00135920   -0.00039380
     atom   51 type  5   force =     0.00138097   -0.00071606    0.00025836
     atom   52 type  5   force =     0.00023742    0.00006570   -0.00038033
     atom   53 type  5   force =    -0.00002545   -0.00010641    0.00041115
     atom   54 type  2   force =    -0.00337605    0.00413894   -0.00245994
     atom   55 type  5   force =     0.00066009   -0.00112473    0.00074066
     atom   56 type  5   force =     0.00308036   -0.00314090    0.00142376

     Total force =     0.367881     Total SCF correction =     0.000522
  @ DRIVER MODE: Message from server: STATUS
  @ DRIVER MODE: Message from server: GETFORCE
  @ DRIVER MODE: Returning v,forces,stress,ensemble

     Writing output data file ./calc.save/
  @ DRIVER MODE: Message from server: EXIT
  @ DRIVE MODE: Exiting

     General routines

     Parallel routines

   This run was terminated on:  14: 2:59  10Sep2021

   JOB DONE.