     Program PWSCF v.6.7GPU starts on 28Sep2021 at  5:50:20

     R & G space division:  proc/nbgrp/npool/nimage =       8
     Reading input from /storage/home/hcoda1/3/ntian30/research/carbon/CxH_vib/H2O_calc/ads_slab/CHNHO_a/out_0020/pw.inp
Warning: card &CELL ignored
Warning: card   CELL_DYNAMICS='IPI', ignored
Warning: card / ignored

     Current dimensions of program PWSCF are:
     Max number of different atomic species (ntypx) = 10
     Max number of k-points (npk) =  40000
     Max angular momentum in pseudopotentials (lmaxx) =  3
     Presently no symmetry can be used with electric field

     Message from routine cell_base_init:
     DEPRECATED: use true lattice parameter, not A to a.u. conversion factor

     IMPORTANT: XC functional enforced from input :
     Exchange-correlation= BEEF-VDW
                           (   1   4  43  14   2   0   0)
     Any further DFT definition will be discarded
     Please, verify this is what you really want

  @ DRIVER MODE: Connecting to
 qe_1139763_3003541.sched-torque.pace.gatech.edusr_a_ku8_scratch
  using UNIX socket
  @ DRIVER MODE: Message from server: STATUS
  @ DRIVER MODE: Message from server: INIT
  @ DRIVER MODE: Receiving replica           0          -1
  @ DRIVER MODE: Receiving encoded integer          25
  @ DRIVER MODE:  SCF:  T  FORCE:  T  STRESS:  F  VC:  F  ENSEMBLE:  F
  @ DRIVER MODE:  SCF:  T  FORCE:  T  STRESS:  F  VC:  F  ENSEMBLE:  F

     Using Slab Decomposition

     bravais-lattice index     =            0
     lattice parameter (alat)  =       1.8897  a.u.
     unit-cell volume          =    6658.9804 (a.u.)^3
     number of atoms/cell      =           52
     number of atomic types    =            5
     number of electrons       =       395.00
     number of Kohn-Sham states=          207
     kinetic-energy cutoff     =      29.3995  Ry
     charge density cutoff     =     293.9946  Ry
     scf convergence threshold =      7.3E-08
     mixing beta               =       0.0500
     number of iterations used =            8  plain     mixing
     Exchange-correlation= BEEF-VDW
                           (   1   4  43  14   2   0   0)

     celldm(1)=   1.889726  celldm(2)=   0.000000  celldm(3)=   0.000000
     celldm(4)=   0.000000  celldm(5)=   0.000000  celldm(6)=   0.000000

     crystal axes: (cart. coord. in units of alat)
               a(1) = (   6.579727   0.000000   0.000000 )
               a(2) = (  -0.000775   5.961596   0.000000 )
               a(3) = (   0.000000   0.000000  25.155947 )

     reciprocal axes: (cart. coord. in units 2 pi/alat)
               b(1) = (  0.151982  0.000020  0.000000 )
               b(2) = (  0.000000  0.167740  0.000000 )
               b(3) = (  0.000000  0.000000  0.039752 )

     PseudoPot. # 1 for Ti read from file:
     /storage/coda1/p-amedford6/0/shared/rich_project_chbe-medford/medford-share/data/pseudos_module/espresso/nninc/pbe/van/Ti.UPF
     MD5 check sum: 8e4df49b7f0d34bbd5052bf3f5ea0213
     Pseudo is Ultrasoft, Zval = 12.0
     Generated by new atomic code, or converted to UPF format
     Using radial grid of  851 points,  6 beta functions with:
                l(1) =   0
                l(2) =   0
                l(3) =   1
                l(4) =   1
                l(5) =   2
                l(6) =   2
     Q(r) pseudized with  8 coefficients,  rinner =    1.000   1.000   1.000
                                                       1.000   1.000

     PseudoPot. # 2 for O  read from file:
     /storage/coda1/p-amedford6/0/shared/rich_project_chbe-medford/medford-share/data/pseudos_module/espresso/nninc/pbe/van/O.UPF
     MD5 check sum: 78c19812648e8988a0fe644b0f25305e
     Pseudo is Ultrasoft, Zval =  6.0
     Generated by new atomic code, or converted to UPF format
     Using radial grid of  737 points,  4 beta functions with:
                l(1) =   0
                l(2) =   0
                l(3) =   1
                l(4) =   1
     Q(r) pseudized with  8 coefficients,  rinner =    0.800   0.800   0.800

     PseudoPot. # 3 for N  read from file:
     /storage/coda1/p-amedford6/0/shared/rich_project_chbe-medford/medford-share/data/pseudos_module/espresso/nninc/pbe/van/N.UPF
     MD5 check sum: 90d10febe142ad51ac9d5be1deb811c4
     Pseudo is Ultrasoft, Zval =  5.0
     Generated by new atomic code, or converted to UPF format
     Using radial grid of  729 points,  4 beta functions with:
                l(1) =   0
                l(2) =   0
                l(3) =   1
                l(4) =   1
     Q(r) pseudized with  8 coefficients,  rinner =    0.800   0.800   0.800

     PseudoPot. # 4 for C  read from file:
     /storage/coda1/p-amedford6/0/shared/rich_project_chbe-medford/medford-share/data/pseudos_module/espresso/nninc/pbe/van/C.UPF
     MD5 check sum: 1a69bf6b8db32088f5b2163dbdb77a27
     Pseudo is Ultrasoft, Zval =  4.0
     Generated by new atomic code, or converted to UPF format
     Using radial grid of  721 points,  4 beta functions with:
                l(1) =   0
                l(2) =   0
                l(3) =   1
                l(4) =   1
     Q(r) pseudized with  8 coefficients,  rinner =    0.800   0.800   0.800

     PseudoPot. # 5 for H  read from file:
     /storage/coda1/p-amedford6/0/shared/rich_project_chbe-medford/medford-share/data/pseudos_module/espresso/nninc/pbe/van/H.UPF
     MD5 check sum: b5ee9d7bfd3a09ee7748110bda690ff7
     Pseudo is Ultrasoft, Zval =  1.0
     Generated by new atomic code, or converted to UPF format
     Using radial grid of  615 points,  1 beta functions with:
                l(1) =   0
     Q(r) pseudized with  8 coefficients,  rinner =    0.800

     atomic species   valence    mass     pseudopotential
        Ti1           12.00    47.86700     Ti( 1.00)
        O1             6.00    15.99900     O ( 1.00)
        N1             5.00    14.00700     N ( 1.00)
        C1             4.00    12.01100     C ( 1.00)
        H1             1.00     1.00800     H ( 1.00)

     No symmetry found

   Cartesian axes

     site n.     atom                  positions (alat units)
         1           Ti1 tau(   1) = (   0.0004258   2.9801865   6.0000000  )
         2           Ti1 tau(   2) = (   3.2906075   1.4906267   6.0002472  )
         3           O1  tau(   3) = (   0.0006271   0.0005054   7.9858123  )
         4           O1  tau(   4) = (   3.2906025   0.0005020   7.3038282  )
         5           O1  tau(   5) = (   4.5942328   1.4918067   9.2879030  )
         6           O1  tau(   6) = (   1.9868534   1.4903216   9.2879459  )
         7           Ti1 tau(   7) = (   3.2907910   2.8959150   9.1758416  )
         8           Ti1 tau(   8) = (   0.0015273   1.4827037   9.2680791  )
         9           O1  tau(   9) = (   3.2959632   0.0395795  11.3506057  )
        10           O1  tau(  10) = (   0.0116148   5.9584955  10.6183126  )
        11           O1  tau(  11) = (   1.2788542   1.5152540  12.6826201  )
        12           O1  tau(  12) = (   5.3118026   1.5181145  12.6771052  )
        13           Ti1 tau(  13) = (   6.5565567   2.9614743  12.5245697  )
        14           Ti1 tau(  14) = (   3.2956814   1.5864178  12.4516600  )
        15           O1  tau(  15) = (   0.0252471   5.9065102  14.6673769  )
        16           O1  tau(  16) = (   3.3061784   5.9134112  13.9760755  )
        17           O1  tau(  17) = (   4.5493393   1.5513651  16.1111979  )
        18           O1  tau(  18) = (   2.0154464   1.5530992  16.0877549  )
        19           Ti1 tau(  19) = (   3.2773477   2.9896638  15.7021987  )
        20           Ti1 tau(  20) = (   0.0480268   1.3694702  15.7882682  )
        21           O1  tau(  21) = (   3.2904802   0.0005063   4.7018136  )
        22           O1  tau(  22) = (   6.5727385   0.1062933  17.1740559  )
        23           O1  tau(  23) = (   1.3043587   1.4918075   6.0039043  )
        24           O1  tau(  24) = (   5.2767064   1.4903225   6.0039473  )
        25           Ti1 tau(  25) = (   0.0000382   5.9609847   6.0000000  )
        26           Ti1 tau(  26) = (   3.2902200   4.4714249   6.0002472  )
        27           O1  tau(  27) = (   0.0002396   2.9813036   7.9858123  )
        28           O1  tau(  28) = (   3.2902150   2.9813002   7.3038282  )
        29           O1  tau(  29) = (   4.5938453   4.4726049   9.2879030  )
        30           O1  tau(  30) = (   1.9864658   4.4711199   9.2879459  )
        31           Ti1 tau(  31) = (   3.2891106   5.8743827   9.1763621  )
        32           Ti1 tau(  32) = (   0.0006254   4.4649316   9.2693709  )
        33           O1  tau(  33) = (   3.2965180   2.9598593  11.3174316  )
        34           O1  tau(  34) = (   0.0092240   2.9805883  10.6323155  )
        35           O1  tau(  35) = (   1.2824442   4.4846720  12.6503842  )
        36           O1  tau(  36) = (   5.3188658   4.4853930  12.6478368  )
        37           Ti1 tau(  37) = (   0.0485215   5.9261111  12.5025588  )
        38           Ti1 tau(  38) = (   3.3111372   4.6778342  12.7091208  )
        39           O1  tau(  39) = (   6.5585416   3.0335453  14.9077256  )
        40           O1  tau(  40) = (   3.2962521   3.0064119  13.9315977  )
        41           O1  tau(  41) = (   4.5433468   4.4479239  16.1972702  )
        42           O1  tau(  42) = (   2.0131479   4.4365031  16.1967174  )
        43           Ti1 tau(  43) = (   3.3705753   0.0290894  16.3529554  )
        44           Ti1 tau(  44) = (   0.0540424   4.5922997  16.0496824  )
        45           O1  tau(  45) = (   3.2900926   2.9813045   4.7018136  )
        46           O1  tau(  46) = (   1.3039711   4.4726057   6.0039043  )
        47           O1  tau(  47) = (   5.2763189   4.4711207   6.0039473  )
        48           N1  tau(  48) = (   6.5754701   3.2032128  17.9785674  )
        49           C1  tau(  49) = (   6.5468619   2.3444050  18.7439128  )
        50           H1  tau(  50) = (   6.5191205   1.5204410  19.4189644  )
        51           O1  tau(  51) = (   3.3283073   0.1146119  18.2142577  )
        52           H1  tau(  52) = (   3.2686675   5.2273609  18.6755658  )

     number of k points=    10  Fermi-Dirac smearing, width (Ry)=  0.0073
                       cart. coord. in units 2pi/alat
        k(    1) = (   0.0000000   0.0000000   0.0000000), wk =   0.1250000
        k(    2) = (   0.0000000   0.0419351   0.0000000), wk =   0.2500000
        k(    3) = (   0.0000000  -0.0838702   0.0000000), wk =   0.1250000
        k(    4) = (   0.0379955   0.0000049   0.0000000), wk =   0.2500000
        k(    5) = (   0.0379955   0.0419400   0.0000000), wk =   0.2500000
        k(    6) = (   0.0379955  -0.0838652   0.0000000), wk =   0.2500000
        k(    7) = (   0.0379955  -0.0419301   0.0000000), wk =   0.2500000
        k(    8) = (  -0.0759910  -0.0000099   0.0000000), wk =   0.1250000
        k(    9) = (  -0.0759910   0.0419252   0.0000000), wk =   0.2500000
        k(   10) = (  -0.0759910  -0.0838800   0.0000000), wk =   0.1250000

     Initial potential from superposition of free atoms

     starting charge  378.99918, renormalised to  395.00000

     negative rho (up, down):  1.719E-02 0.000E+00

     %%%%%%%%%%%%%%%%%%%%%%%%%%%%%%%%%%%%%%%%%%%%%%%%%%%%%%%%%%%%%%%%%%%%%%%%
     %                                                                      %
     % You are using vdW-DF, which was implemented by the Thonhauser group. %
     % Please cite the following two papers that made this development      %
     % possible and the two reviews that describe the various versions:     %
     %                                                                      %
     %   T. Thonhauser et al., PRL 115, 136402 (2015).                      %
     %   T. Thonhauser et al., PRB 76, 125112 (2007).                       %
     %   K. Berland et al., Rep. Prog. Phys. 78, 066501 (2015).             %
     %   D.C. Langreth et al., J. Phys.: Condens. Matter 21, 084203 (2009). %
     %                                                                      %
     %                                                                      %
     % If you are calculating the stress with vdW-DF, please also cite:     %
     %                                                                      %
     %   R. Sabatini et al., J. Phys.: Condens. Matter 24, 424209 (2012).   %
     %                                                                      %
     %%%%%%%%%%%%%%%%%%%%%%%%%%%%%%%%%%%%%%%%%%%%%%%%%%%%%%%%%%%%%%%%%%%%%%%%

     Adding external electric field

     Computed dipole along edir(3) :
        Dipole               -8.1496 Ry au,        -20.7143 Debye
        Dipole field         -0.0154 Ry au,

        Potential amp.        1.4257 Ry
        Total length         46.3494 bohr

     Starting wfcs are  298 atomic wfcs
  @ DRIVER MODE: Message from server: STATUS
  @ DRIVER MODE: Message from server: POSDATA
  @ DRIVER MODE: Reading and sharing cell
  @ DRIVER MODE: Reading and sharing positions
  @ DRIVER MODE: Received positions

     Self-consistent Calculation

     iteration #  1     ecut=    29.40 Ry     beta= 0.05
     Davidson diagonalization with overlap
     c_bands:  1 eigenvalues not converged
     c_bands:  2 eigenvalues not converged
     c_bands:  2 eigenvalues not converged
     c_bands:  3 eigenvalues not converged
     c_bands:  3 eigenvalues not converged
     c_bands:  1 eigenvalues not converged
     c_bands:  1 eigenvalues not converged
     ethr =  1.00E-05,  avg # of iterations = 19.3

[...]

     total energy              =   -2615.12140373 Ry
     estimated scf accuracy    <    3704.54608979 Ry

     iteration #  2     ecut=    29.40 Ry     beta= 0.05
     Davidson diagonalization with overlap
     ethr =  1.00E-02,  avg # of iterations = 22.6

[...]

     iteration # 47     ecut=    29.40 Ry     beta= 0.05
     Davidson diagonalization with overlap
     c_bands:  1 eigenvalues not converged
     c_bands:  2 eigenvalues not converged
     c_bands:  1 eigenvalues not converged
     c_bands:  1 eigenvalues not converged
     ethr =  1.06E-06,  avg # of iterations = 17.0

[...]

     total energy              =   -2950.24120792 Ry
     estimated scf accuracy    <       0.00000010 Ry

     iteration # 67     ecut=    29.40 Ry     beta= 0.05
     Davidson diagonalization with overlap
     ethr =  2.57E-11,  avg # of iterations =  5.8

     negative rho (up, down):  1.736E-02 0.000E+00

     Adding external electric field

     Computed dipole along edir(3) :
        Dipole                1.2372 Ry au,          3.1447 Debye
        Dipole field          0.0023 Ry au,

        Potential amp.       -0.2164 Ry
        Total length         46.3494 bohr

     End of self-consistent calculation

          k = 0.0000 0.0000 0.0000 ( 18029 PWs)   bands (ev):

   -55.6677 -55.6175 -55.5834 -55.4458 -55.4418 -55.4410 -55.4092 -55.4085
   -55.4085 -55.3682 -55.3250 -55.2879 -55.2055 -55.0966 -54.5806 -54.5466
   -32.1012 -32.0167 -32.0123 -31.9455 -31.9333 -31.9086 -31.8908 -31.8806
   -31.8632 -31.8549 -31.8189 -31.7699 -31.7292 -31.7232 -31.7142 -31.7076
   -31.6974 -31.6908 -31.6750 -31.6534 -31.6495 -31.6406 -31.6376 -31.6208
   -31.6176 -31.5903 -31.5901 -31.5864 -31.5699 -31.5652 -31.5577 -31.5429
   -31.5412 -31.5211 -31.4898 -31.4786 -31.4753 -31.4193 -31.3991 -31.3481
   -31.3161 -31.3071 -30.9859 -30.9013 -30.8788 -30.8037 -30.7174 -30.6054
   -17.2617 -16.5923 -16.2425 -16.0791 -15.8602 -15.7799 -15.7482 -15.5620
   -15.4501 -15.4019 -15.1911 -15.1487 -15.1307 -15.1142 -15.0906 -15.0865
   -15.0712 -15.0321 -15.0317 -15.0148 -14.9954 -14.9609 -14.9442 -14.8952
   -14.8158 -14.8088 -14.7470 -14.6721 -14.6259 -14.3542 -14.3323 -13.0787
   -12.9625  -8.7385  -4.4751  -4.1502  -3.5979  -3.5149  -3.4862  -3.4404
    -3.3676  -3.2700  -3.0985  -3.0902  -2.9784  -2.9214  -2.8143  -2.7155
    -2.6450  -2.5987  -2.5410  -2.5080  -2.4712  -2.4279  -2.3915  -2.3513
    -2.3246  -2.3157  -2.2569  -2.2279  -2.1307  -2.1239  -2.0861  -1.9933
    -1.9752  -1.9289  -1.9212  -1.9176  -1.8637  -1.8487  -1.8321  -1.7976
    -1.6771  -1.6528  -1.6468  -1.5878  -1.5236  -1.2128  -1.2033  -1.1439
    -1.0676  -1.0364  -1.0102  -0.9920  -0.9310  -0.8927  -0.8789  -0.8611
    -0.7873  -0.6926  -0.6602  -0.6119  -0.4585  -0.4517  -0.3974  -0.3785
    -0.3516  -0.3124  -0.2599  -0.1907  -0.1634  -0.1406  -0.0105   0.0106
     0.0592   0.0755   0.1183   0.1669   0.2009   0.2676   0.3180   0.3395
     0.3570   0.3679   0.4006   0.4206   0.5124   0.5450   0.5944   0.6604
     0.7191   0.7360   0.7889   0.9467   1.0421   1.0700   1.1805   1.3994
     1.4462   1.4988   1.6422   2.0118   2.0566   3.4718   3.6210   3.6381
     3.7279   3.7392   3.8249   3.9590   4.0533   4.1643   4.1743

[...]

          k = 0.0380-0.0419 0.0000 ( 17876 PWs)   bands (ev):

[...]

          k =-0.0760-0.0000 0.0000 ( 17886 PWs)   bands (ev):

[...]

          k =-0.0760-0.0839 0.0000 ( 17948 PWs)   bands (ev):

   -55.6670 -55.6005 -55.6002 -55.4395 -55.4308 -55.4264 -55.4248 -55.4223
   -55.4091 -55.3601 -55.3331 -55.2899 -55.2029 -55.0991 -54.5636 -54.5635
   -31.9552 -31.9435 -31.9166 -31.9164 -31.8942 -31.8939 -31.8931 -31.8689
   -31.7989 -31.7569 -31.7551 -31.7477 -31.7348 -31.7204 -31.7200 -31.7075
   -31.7020 -31.6994 -31.6936 -31.6709 -31.6705 -31.6574 -31.6428 -31.6280
   -31.6263 -31.6235 -31.6151 -31.6057 -31.6045 -31.5980 -31.5951 -31.5798
   -31.5731 -31.5563 -31.5493 -31.5065 -31.4942 -31.4679 -31.4366 -31.4030
   -31.3539 -31.3115 -30.8915 -30.8915 -30.7990 -30.7987 -30.7607 -30.7605
   -17.2546 -16.5835 -15.8701 -15.6497 -15.5803 -15.5751 -15.4400 -15.3700
   -15.3474 -15.3181 -15.3018 -15.2656 -15.2414 -15.2247 -15.1821 -15.1590
   -15.1254 -15.1073 -15.0923 -15.0533 -15.0427 -15.0173 -15.0080 -14.9917
   -14.9346 -14.9130 -14.9039 -14.7711 -14.7361 -14.6640 -14.4724 -13.0645
   -13.0644  -8.7363  -4.4556  -4.1630  -3.3016  -3.1067  -3.0212  -2.8617
    -2.7957  -2.6734  -2.6491  -2.6130  -2.5459  -2.5295  -2.4990  -2.4541
    -2.3940  -2.3723  -2.3668  -2.3421  -2.3319  -2.3011  -2.2859  -2.2757
    -2.2705  -2.2446  -2.2299  -2.2175  -2.1920  -2.1617  -2.1593  -2.1428
    -2.1260  -2.0527  -1.9885  -1.9401  -1.8162  -1.7617  -1.7507  -1.7366
    -1.7216  -1.6841  -1.6774  -1.6387  -1.6132  -1.5013  -1.4214  -1.3780
    -1.3068  -1.1969  -1.1772  -1.1686  -1.1056  -1.0736  -1.0395  -1.0377
    -0.9324  -0.9021  -0.8164  -0.7623  -0.7283  -0.6619  -0.5710  -0.5559
    -0.5463  -0.5236  -0.5032  -0.4878  -0.4613  -0.4238  -0.3420  -0.3050
    -0.3003  -0.2993  -0.2476  -0.1741  -0.1100   0.0767   0.1641   0.1719
     0.2198   0.2578   0.4512   0.4861   0.5136   0.5305   0.5766   0.6289
     0.6927   0.7090   0.7569   0.8224   0.9124   0.9384   0.9711   0.9822
     1.0286   1.8105   1.8181   1.8769   1.8770   3.6419   3.9482   3.9871
     4.0053   4.0137   4.0518   4.0560   4.0749   4.1532   4.1631

     the Fermi energy is     3.5057 ev

!    total energy              =   -2950.24122947 Ry
     estimated scf accuracy    <       0.00000005 Ry
     smearing contrib. (-TS)   =      -0.01957012 Ry
     internal energy E=F+TS    =   -2950.22165935 Ry

     The total energy is F=E-TS. E is the sum of the following terms:
     one-electron contribution =  -23960.78987771 Ry
     hartree contribution      =   12071.38189389 Ry
     xc contribution           =    -486.32548992 Ry
     ewald contribution        =    9425.50892570 Ry
     electric field correction =       0.00288869 Ry

     convergence has been achieved in  67 iterations

     Forces acting on atoms (cartesian axes, Ry/au):

     atom    1 type  1   force =     0.00007361   -0.00022894    0.09446017
     atom    2 type  1   force =     0.00000724    0.00017294   -0.17483651
     atom    3 type  2   force =     0.00002932   -0.00043226   -0.02144942
     atom    4 type  2   force =     0.00004018   -0.00080017    0.05272003
     atom    5 type  2   force =    -0.00429831   -0.00228767    0.00043274
     atom    6 type  2   force =     0.00596308   -0.00163760    0.00006558
     atom    7 type  1   force =    -0.00011948    0.00326351    0.01151261
     atom    8 type  1   force =     0.00014164    0.00253884    0.00476284
     atom    9 type  2   force =    -0.00017536    0.00027153   -0.00024988
     atom   10 type  2   force =    -0.00077728    0.00345305   -0.01164503
     atom   11 type  2   force =     0.00053578   -0.00039724    0.00028307
     atom   12 type  2   force =    -0.00003101   -0.00024186    0.00012310
     atom   13 type  1   force =    -0.00102811   -0.00038561    0.00000917
     atom   14 type  1   force =     0.00081148    0.00050388   -0.00016648
     atom   15 type  2   force =     0.00022548   -0.00009889   -0.00061592
     atom   16 type  2   force =    -0.00032305   -0.00072153    0.00084527
     atom   17 type  2   force =     0.00067933    0.00009142   -0.00069123
     atom   18 type  2   force =    -0.00046420   -0.00022378    0.00034116
     atom   19 type  1   force =     0.00074835    0.00088931    0.00026424
     atom   20 type  1   force =     0.00005501   -0.00029133   -0.00019600
     atom   21 type  2   force =     0.00008854    0.00000563    0.10301065
     atom   22 type  2   force =     0.00024316    0.00081861   -0.00019304
     atom   23 type  2   force =    -0.07228942   -0.00016746   -0.02738388
     atom   24 type  2   force =     0.07226614    0.00024142   -0.02743336
     atom   25 type  1   force =     0.00014014   -0.00025401    0.09437613
     atom   26 type  1   force =    -0.00008620   -0.00124390   -0.17481482
     atom   27 type  2   force =     0.00020632   -0.00006559   -0.02023626
     atom   28 type  2   force =     0.00009445   -0.00095859    0.04852080
     atom   29 type  2   force =    -0.00683640    0.00193590    0.00269410
     atom   30 type  2   force =     0.00838670    0.00227106    0.00215578
     atom   31 type  1   force =     0.00004717    0.00103674    0.00138515
     atom   32 type  1   force =     0.00010117   -0.00336551    0.00511950
     atom   33 type  2   force =    -0.00015817   -0.00021372    0.00010765
     atom   34 type  2   force =    -0.00192430   -0.00083916   -0.01111743
     atom   35 type  2   force =     0.00067952   -0.00019541    0.00002390
     atom   36 type  2   force =    -0.00004765    0.00010964    0.00001435
     atom   37 type  1   force =    -0.00124903   -0.00010933   -0.00037822
     atom   38 type  1   force =     0.00068740    0.00014371    0.00068309
     atom   39 type  2   force =     0.00029207   -0.00079471    0.00007371
     atom   40 type  2   force =    -0.00036903   -0.00014273    0.00023634
     atom   41 type  2   force =    -0.00076926   -0.00079787   -0.00010746
     atom   42 type  2   force =     0.00050584   -0.00028189    0.00012561
     atom   43 type  1   force =     0.00081522   -0.00005662   -0.00013896
     atom   44 type  1   force =    -0.00114654   -0.00033361    0.00004538
     atom   45 type  2   force =     0.00008190    0.00003864    0.10285265
     atom   46 type  2   force =    -0.07222078   -0.00009097   -0.02731896
     atom   47 type  2   force =     0.07221879    0.00037231   -0.02737230
     atom   48 type  3   force =     0.00004177    0.00032624   -0.00087145
     atom   49 type  4   force =    -0.00010131   -0.00064008    0.00052228
     atom   50 type  5   force =    -0.00034037    0.00026533    0.00001196
     atom   51 type  2   force =    -0.00104171   -0.00019464   -0.00059948
     atom   52 type  5   force =    -0.00040983   -0.00025702    0.00003710

     Total force =     0.361581     Total SCF correction =     0.000774
  @ DRIVER MODE: Message from server: STATUS
  @ DRIVER MODE: Message from server: GETFORCE
  @ DRIVER MODE: Returning v,forces,stress,ensemble

     Writing output data file ./calc.save/
  @ DRIVER MODE: Message from server: EXIT
  @ DRIVE MODE: Exiting

     General routines

     Parallel routines

   This run was terminated on:   6:11: 5  28Sep2021

   JOB DONE.