     Program PWSCF v.6.7GPU starts on 28Sep2021 at  1:39:51

     R & G space division:  proc/nbgrp/npool/nimage =       8
     Reading input from /storage/home/hcoda1/3/ntian30/research/carbon/CxH_vib/CH_calc/ads_slab/CHONH_a/out_0009/pw.inp
Warning: card &CELL ignored
Warning: card   CELL_DYNAMICS='IPI', ignored
Warning: card / ignored

     Current dimensions of program PWSCF are:
     Max number of different atomic species (ntypx) = 10
     Max number of k-points (npk) =  40000
     Max angular momentum in pseudopotentials (lmaxx) =  3
     Presently no symmetry can be used with electric field

     Message from routine cell_base_init:
     DEPRECATED: use true lattice parameter, not A to a.u. conversion factor

     IMPORTANT: XC functional enforced from input :
     Exchange-correlation= BEEF-VDW
                           (   1   4  43  14   2   0   0)
     Any further DFT definition will be discarded
     Please, verify this is what you really want

  @ DRIVER MODE: Connecting to
 qe_1139763_3003539.sched-torque.pace.gatech.eduvcs801tz_scratch
  using UNIX socket
  @ DRIVER MODE: Message from server: STATUS
  @ DRIVER MODE: Message from server: INIT
  @ DRIVER MODE: Receiving replica           0          -1
  @ DRIVER MODE: Receiving encoded integer          25
  @ DRIVER MODE:  SCF:  T  FORCE:  T  STRESS:  F  VC:  F  ENSEMBLE:  F
  @ DRIVER MODE:  SCF:  T  FORCE:  T  STRESS:  F  VC:  F  ENSEMBLE:  F

     Using Slab Decomposition

     bravais-lattice index     =            0
     lattice parameter (alat)  =       1.8897  a.u.
     unit-cell volume          =    6658.9804 (a.u.)^3
     number of atoms/cell      =           52
     number of atomic types    =            5
     number of electrons       =       395.00
     number of Kohn-Sham states=          207
     kinetic-energy cutoff     =      29.3995  Ry
     charge density cutoff     =     293.9946  Ry
     scf convergence threshold =      7.3E-08
     mixing beta               =       0.0500
     number of iterations used =            8  plain     mixing
     Exchange-correlation= BEEF-VDW
                           (   1   4  43  14   2   0   0)

     celldm(1)=   1.889726  celldm(2)=   0.000000  celldm(3)=   0.000000
     celldm(4)=   0.000000  celldm(5)=   0.000000  celldm(6)=   0.000000

     crystal axes: (cart. coord. in units of alat)
               a(1) = (   6.579727   0.000000   0.000000 )
               a(2) = (  -0.000775   5.961596   0.000000 )
               a(3) = (   0.000000   0.000000  25.155947 )

     reciprocal axes: (cart. coord. in units 2 pi/alat)
               b(1) = (  0.151982  0.000020  0.000000 )
               b(2) = (  0.000000  0.167740  0.000000 )
               b(3) = (  0.000000  0.000000  0.039752 )

     PseudoPot. # 1 for O  read from file:
     /storage/coda1/p-amedford6/0/shared/rich_project_chbe-medford/medford-share/data/pseudos_module/espresso/nninc/pbe/van/O.UPF
     MD5 check sum: 78c19812648e8988a0fe644b0f25305e
     Pseudo is Ultrasoft, Zval =  6.0
     Generated by new atomic code, or converted to UPF format
     Using radial grid of  737 points,  4 beta functions with:
                l(1) =   0
                l(2) =   0
                l(3) =   1
                l(4) =   1
     Q(r) pseudized with  8 coefficients,  rinner =    0.800   0.800   0.800

     PseudoPot. # 2 for Ti read from file:
     /storage/coda1/p-amedford6/0/shared/rich_project_chbe-medford/medford-share/data/pseudos_module/espresso/nninc/pbe/van/Ti.UPF
     MD5 check sum: 8e4df49b7f0d34bbd5052bf3f5ea0213
     Pseudo is Ultrasoft, Zval = 12.0
     Generated by new atomic code, or converted to UPF format
     Using radial grid of  851 points,  6 beta functions with:
                l(1) =   0
                l(2) =   0
                l(3) =   1
                l(4) =   1
                l(5) =   2
                l(6) =   2
     Q(r) pseudized with  8 coefficients,  rinner =    1.000   1.000   1.000
                                                       1.000   1.000

     PseudoPot. # 3 for N  read from file:
     /storage/coda1/p-amedford6/0/shared/rich_project_chbe-medford/medford-share/data/pseudos_module/espresso/nninc/pbe/van/N.UPF
     MD5 check sum: 90d10febe142ad51ac9d5be1deb811c4
     Pseudo is Ultrasoft, Zval =  5.0
     Generated by new atomic code, or converted to UPF format
     Using radial grid of  729 points,  4 beta functions with:
                l(1) =   0
                l(2) =   0
                l(3) =   1
                l(4) =   1
     Q(r) pseudized with  8 coefficients,  rinner =    0.800   0.800   0.800

     PseudoPot. # 4 for H  read from file:
     /storage/coda1/p-amedford6/0/shared/rich_project_chbe-medford/medford-share/data/pseudos_module/espresso/nninc/pbe/van/H.UPF
     MD5 check sum: b5ee9d7bfd3a09ee7748110bda690ff7
     Pseudo is Ultrasoft, Zval =  1.0
     Generated by new atomic code, or converted to UPF format
     Using radial grid of  615 points,  1 beta functions with:
                l(1) =   0
     Q(r) pseudized with  8 coefficients,  rinner =    0.800

     PseudoPot. # 5 for C  read from file:
     /storage/coda1/p-amedford6/0/shared/rich_project_chbe-medford/medford-share/data/pseudos_module/espresso/nninc/pbe/van/C.UPF
     MD5 check sum: 1a69bf6b8db32088f5b2163dbdb77a27
     Pseudo is Ultrasoft, Zval =  4.0
     Generated by new atomic code, or converted to UPF format
     Using radial grid of  721 points,  4 beta functions with:
                l(1) =   0
                l(2) =   0
                l(3) =   1
                l(4) =   1
     Q(r) pseudized with  8 coefficients,  rinner =    0.800   0.800   0.800

     atomic species   valence    mass     pseudopotential
        O1             6.00    15.99900     O ( 1.00)
        Ti1           12.00    47.86700     Ti( 1.00)
        N1             5.00    14.00700     N ( 1.00)
        H1             1.00     1.00800     H ( 1.00)
        C1             4.00    12.01100     C ( 1.00)

     No symmetry found

   Cartesian axes

     site n.     atom                  positions (alat units)
         1           O1  tau(   1) = (   3.2904802   0.0005063   4.7018136  )
         2           O1  tau(   2) = (   3.2900926   2.9813045   4.7018136  )
         3           Ti1 tau(   3) = (   0.0004258   2.9801865   6.0000000  )
         4           Ti1 tau(   4) = (   0.0000382   5.9609847   6.0000000  )
         5           Ti1 tau(   5) = (   3.2906075   1.4906267   6.0002472  )
         6           Ti1 tau(   6) = (   3.2902200   4.4714249   6.0002472  )
         7           O1  tau(   7) = (   1.3043587   1.4918075   6.0039043  )
         8           O1  tau(   8) = (   1.3039711   4.4726057   6.0039043  )
         9           O1  tau(   9) = (   5.2767064   1.4903225   6.0039473  )
        10           O1  tau(  10) = (   5.2763189   4.4711207   6.0039473  )
        11           O1  tau(  11) = (   3.2906025   0.0005020   7.3038282  )
        12           O1  tau(  12) = (   3.2902150   2.9813002   7.3038282  )
        13           O1  tau(  13) = (   0.0006271   0.0005054   7.9858123  )
        14           O1  tau(  14) = (   0.0002396   2.9813036   7.9858123  )
        15           Ti1 tau(  15) = (   3.2907910   2.8959150   9.1758416  )
        16           Ti1 tau(  16) = (   3.2891106   5.8743827   9.1763621  )
        17           Ti1 tau(  17) = (   0.0015273   1.4827037   9.2680791  )
        18           Ti1 tau(  18) = (   0.0006254   4.4649316   9.2693709  )
        19           O1  tau(  19) = (   4.5942328   1.4918067   9.2879030  )
        20           O1  tau(  20) = (   4.5938453   4.4726049   9.2879030  )
        21           O1  tau(  21) = (   1.9868534   1.4903216   9.2879459  )
        22           O1  tau(  22) = (   1.9864658   4.4711199   9.2879459  )
        23           O1  tau(  23) = (   0.0116148   5.9584955  10.6183126  )
        24           O1  tau(  24) = (   0.0092240   2.9805883  10.6323155  )
        25           O1  tau(  25) = (   3.2907787   2.9729778  11.3304428  )
        26           O1  tau(  26) = (   3.2919079   5.9474133  11.3321580  )
        27           Ti1 tau(  27) = (   3.2097987   4.4572658  12.4865812  )
        28           Ti1 tau(  28) = (   3.2119315   1.4761680  12.4799496  )
        29           Ti1 tau(  29) = (   6.5264509   5.9216213  12.6328416  )
        30           O1  tau(  30) = (   5.2968352   1.4901136  12.6152109  )
        31           O1  tau(  31) = (   1.3135328   1.4919602  12.6192607  )
        32           O1  tau(  32) = (   5.3002941   4.4568025  12.6330795  )
        33           O1  tau(  33) = (   1.3069994   4.4674097  12.6333468  )
        34           Ti1 tau(  34) = (   6.5276633   2.9456522  12.5459445  )
        35           O1  tau(  35) = (   3.2998384   2.9660209  13.9106595  )
        36           O1  tau(  36) = (   3.3025942   5.9420417  13.9122833  )
        37           O1  tau(  37) = (   6.5640883   0.0415230  14.6395465  )
        38           O1  tau(  38) = (   0.0106891   2.9491072  14.6900936  )
        39           Ti1 tau(  39) = (   3.2736000   2.9502234  15.7069571  )
        40           Ti1 tau(  40) = (   3.3003751   5.9266233  15.7109206  )
        41           Ti1 tau(  41) = (   6.5634422   4.2760099  16.1499291  )
        42           O1  tau(  42) = (   2.0584629   4.4329444  16.0623798  )
        43           O1  tau(  43) = (   4.5473560   4.4405029  16.0785460  )
        44           O1  tau(  44) = (   2.0586626   1.4574935  16.0341320  )
        45           O1  tau(  45) = (   4.5465401   1.4531303  16.0599029  )
        46           Ti1 tau(  46) = (   6.5663670   1.4428561  15.8472210  )
        47           O1  tau(  47) = (   0.0528285   5.9376273  17.3175539  )
        48           N1  tau(  48) = (   2.9241058   0.2315137  18.9516947  )
        49           H1  tau(  49) = (   0.7823102   0.0178888  17.9584184  )
        50           H1  tau(  50) = (   4.9006910   1.2352932  19.1031722  )
        51           C1  tau(  51) = (   3.9482889   0.7533229  19.0539995  )
        52           O1  tau(  52) = (   0.0046524   2.9249380  17.2371169  )

     number of k points=    10  Fermi-Dirac smearing, width (Ry)=  0.0073
                       cart. coord. in units 2pi/alat
        k(    1) = (   0.0000000   0.0000000   0.0000000), wk =   0.1250000
        k(    2) = (   0.0000000   0.0419351   0.0000000), wk =   0.2500000
        k(    3) = (   0.0000000  -0.0838702   0.0000000), wk =   0.1250000
        k(    4) = (   0.0379955   0.0000049   0.0000000), wk =   0.2500000
        k(    5) = (   0.0379955   0.0419400   0.0000000), wk =   0.2500000
        k(    6) = (   0.0379955  -0.0838652   0.0000000), wk =   0.2500000
        k(    7) = (   0.0379955  -0.0419301   0.0000000), wk =   0.2500000
        k(    8) = (  -0.0759910  -0.0000099   0.0000000), wk =   0.1250000
        k(    9) = (  -0.0759910   0.0419252   0.0000000), wk =   0.2500000
        k(   10) = (  -0.0759910  -0.0838800   0.0000000), wk =   0.1250000

     Initial potential from superposition of free atoms

     starting charge  378.99918, renormalised to  395.00000

     negative rho (up, down):  1.730E-02 0.000E+00

     %%%%%%%%%%%%%%%%%%%%%%%%%%%%%%%%%%%%%%%%%%%%%%%%%%%%%%%%%%%%%%%%%%%%%%%%
     %                                                                      %
     % You are using vdW-DF, which was implemented by the Thonhauser group. %
     % Please cite the following two papers that made this development      %
     % possible and the two reviews that describe the various versions:     %
     %                                                                      %
     %   T. Thonhauser et al., PRL 115, 136402 (2015).                      %
     %   T. Thonhauser et al., PRB 76, 125112 (2007).                       %
     %   K. Berland et al., Rep. Prog. Phys. 78, 066501 (2015).             %
     %   D.C. Langreth et al., J. Phys.: Condens. Matter 21, 084203 (2009). %
     %                                                                      %
     %                                                                      %
     % If you are calculating the stress with vdW-DF, please also cite:     %
     %                                                                      %
     %   R. Sabatini et al., J. Phys.: Condens. Matter 24, 424209 (2012).   %
     %                                                                      %
     %%%%%%%%%%%%%%%%%%%%%%%%%%%%%%%%%%%%%%%%%%%%%%%%%%%%%%%%%%%%%%%%%%%%%%%%

     Adding external electric field

     Computed dipole along edir(3) :
        Dipole               -8.2751 Ry au,        -21.0333 Debye
        Dipole field         -0.0156 Ry au,

        Potential amp.        1.4476 Ry
        Total length         46.3494 bohr

     Starting wfcs are  298 atomic wfcs
  @ DRIVER MODE: Message from server: STATUS
  @ DRIVER MODE: Message from server: POSDATA
  @ DRIVER MODE: Reading and sharing cell
  @ DRIVER MODE: Reading and sharing positions
  @ DRIVER MODE: Received positions

     Self-consistent Calculation

     iteration #  1     ecut=    29.40 Ry     beta= 0.05
     Davidson diagonalization with overlap
     c_bands:  1 eigenvalues not converged
     c_bands:  1 eigenvalues not converged
     c_bands:  1 eigenvalues not converged
     c_bands:  3 eigenvalues not converged
     c_bands:  3 eigenvalues not converged
     c_bands:  2 eigenvalues not converged
     c_bands:  1 eigenvalues not converged
     ethr =  1.00E-05,  avg # of iterations = 19.3

[...]

     total energy              =   -2630.93344052 Ry
     estimated scf accuracy    <    3535.03395571 Ry

[...]

     iteration #  3     ecut=    29.40 Ry     beta= 0.05
     Davidson diagonalization with overlap
     ethr =  1.00E-02,  avg # of iterations = 14.5

[...]

     iteration # 48     ecut=    29.40 Ry     beta= 0.05
     Davidson diagonalization with overlap
     c_bands:  1 eigenvalues not converged
     ethr =  2.23E-07,  avg # of iterations = 11.6

[...]

     total energy              =   -2950.31366867 Ry
     estimated scf accuracy    <       0.00000008 Ry

     iteration # 67     ecut=    29.40 Ry     beta= 0.05
     Davidson diagonalization with overlap
     ethr =  1.96E-11,  avg # of iterations =  2.9

     negative rho (up, down):  1.724E-02 0.000E+00

     Adding external electric field

     Computed dipole along edir(3) :
        Dipole                0.6453 Ry au,          1.6402 Debye
        Dipole field          0.0012 Ry au,

        Potential amp.       -0.1129 Ry
        Total length         46.3494 bohr

     End of self-consistent calculation

          k = 0.0000 0.0000 0.0000 ( 18029 PWs)   bands (ev):

   -55.9721 -55.9654 -55.9380 -55.9294 -55.8471 -55.8240 -55.8087 -55.7894
   -55.7812 -55.7472 -55.7468 -55.7129 -55.6711 -55.4337 -54.9496 -54.9156
   -32.5194 -32.4545 -32.3231 -32.3056 -32.2804 -32.2771 -32.2651 -32.2374
   -32.2149 -32.1893 -32.1802 -32.1693 -32.1451 -32.1242 -32.1164 -32.1160
   -32.1048 -32.0856 -32.0763 -32.0632 -32.0358 -32.0295 -32.0291 -31.9835
   -31.9801 -31.9779 -31.9704 -31.9696 -31.9613 -31.9485 -31.9374 -31.9217
   -31.9151 -31.9145 -31.8997 -31.8903 -31.8856 -31.8821 -31.8589 -31.6989
   -31.6661 -31.6507 -31.3567 -31.2684 -31.2459 -31.1735 -31.0870 -30.9759
   -17.0761 -16.7074 -16.4440 -16.2047 -16.1491 -16.1107 -16.0890 -15.9791
   -15.8130 -15.6930 -15.6404 -15.5396 -15.5311 -15.5083 -15.4744 -15.4578
   -15.4228 -15.4160 -15.4061 -15.3945 -15.3810 -15.3321 -15.3130 -15.2995
   -15.1974 -15.1469 -15.1070 -15.0863 -15.0293 -15.0176 -14.6528 -13.4522
   -13.3358  -7.8326  -4.8098  -4.0881  -3.9296  -3.8781  -3.8288  -3.8111
    -3.5811  -3.5225  -3.2118  -3.1572  -3.1423  -3.1231  -3.0930  -2.8817
    -2.8517  -2.8012  -2.7829  -2.7623  -2.7503  -2.7318  -2.7188  -2.6984
    -2.6686  -2.6125  -2.5280  -2.4814  -2.3948  -2.3632  -2.3461  -2.3042
    -2.2842  -2.2433  -2.2225  -2.2125  -2.2067  -2.1692  -2.1636  -2.1016
    -2.0450  -1.9944  -1.9659  -1.9012  -1.8348  -1.7695  -1.7042  -1.5796
    -1.4591  -1.4429  -1.4004  -1.3727  -1.3636  -1.2742  -1.2196  -1.1540
    -1.1268  -1.1219  -1.0373  -0.9925  -0.9509  -0.9383  -0.8494  -0.8165
    -0.7384  -0.7329  -0.7201  -0.6790  -0.4597  -0.4244  -0.3925  -0.3717
    -0.3166  -0.2581  -0.2249  -0.1932  -0.1527  -0.0920  -0.0766  -0.0293
    -0.0064   0.0017   0.0218   0.0414   0.0683   0.1842   0.2164   0.2770
     0.3083   0.3807   0.4339   0.5708   0.6101   0.6853   0.7929   0.9986
     1.0722   1.1600   1.2644   1.6436   1.6892   3.1634   3.2496   3.2953
     3.3030   3.4043   3.4095   3.6151   3.6364   3.6495   3.7063

[...]

          k = 0.0380-0.0419 0.0000 ( 17876 PWs)   bands (ev):

[...]

          k =-0.0760-0.0000 0.0000 ( 17886 PWs)   bands (ev):

[...]

          k =-0.0760-0.0839 0.0000 ( 17948 PWs)   bands (ev):

   -55.9559 -55.9540 -55.9490 -55.9456 -55.8363 -55.8194 -55.8090 -55.8042
   -55.7647 -55.7632 -55.7321 -55.7277 -55.6699 -55.4348 -54.9325 -54.9325
   -32.3245 -32.3204 -32.2703 -32.2692 -32.2510 -32.2499 -32.2322 -32.2256
   -32.1740 -32.1679 -32.1615 -32.1563 -32.1163 -32.1052 -32.0999 -32.0939
   -32.0827 -32.0804 -32.0754 -32.0733 -32.0708 -32.0658 -32.0422 -32.0312
   -32.0286 -32.0175 -32.0166 -32.0041 -31.9815 -31.9658 -31.9632 -31.9624
   -31.9594 -31.9470 -31.9431 -31.9398 -31.9367 -31.8901 -31.8865 -31.7611
   -31.6833 -31.6669 -31.2587 -31.2586 -31.1695 -31.1694 -31.1303 -31.1302
   -17.0135 -16.1631 -16.1426 -16.1291 -15.9179 -15.8930 -15.8808 -15.8749
   -15.7556 -15.6771 -15.6668 -15.6647 -15.5917 -15.5677 -15.5627 -15.5115
   -15.5036 -15.4964 -15.4851 -15.4575 -15.4336 -15.4277 -15.4090 -15.4038
   -15.3228 -15.2889 -15.2856 -15.2578 -15.1367 -15.0154 -14.8236 -13.4378
   -13.4375  -7.8307  -4.7662  -3.4334  -3.4253  -3.1714  -3.1286  -3.1210
    -3.0644  -2.9144  -2.8775  -2.8716  -2.8366  -2.8172  -2.7996  -2.7925
    -2.7805  -2.7591  -2.7336  -2.7127  -2.7039  -2.6689  -2.6419  -2.6309
    -2.6182  -2.6012  -2.5853  -2.5685  -2.5502  -2.5263  -2.5090  -2.4945
    -2.4560  -2.3113  -2.2216  -2.1736  -2.1162  -2.1029  -2.0988  -2.0877
    -2.0608  -2.0356  -2.0261  -1.9726  -1.9357  -1.8280  -1.7704  -1.7067
    -1.6695  -1.6566  -1.5823  -1.5314  -1.4695  -1.4047  -1.3768  -1.3602
    -1.3098  -1.2535  -1.1896  -1.1719  -1.1412  -1.0954  -1.0483  -0.9703
    -0.9614  -0.9314  -0.9280  -0.8876  -0.8240  -0.7626  -0.7361  -0.7351
    -0.7078  -0.6481  -0.5867  -0.5680  -0.4618  -0.4555  -0.3385  -0.2962
    -0.0494   0.0077   0.0513   0.0997   0.1136   0.1786   0.2134   0.3330
     0.3425   0.3539   0.3928   0.4097   0.4268   0.5607   0.5743   0.6035
     0.7418   1.4363   1.4365   1.5086   1.5094   3.4639   3.4719   3.4989
     3.5166   3.6712   3.6745   3.6952   3.6966   3.8174   3.8393

     the Fermi energy is     3.1619 ev

!    total energy              =   -2950.31369121 Ry
     estimated scf accuracy    <       0.00000006 Ry
     smearing contrib. (-TS)   =      -0.02172857 Ry
     internal energy E=F+TS    =   -2950.29196264 Ry

     The total energy is F=E-TS. E is the sum of the following terms:
     one-electron contribution =  -24387.21531810 Ry
     hartree contribution      =   12280.65444476 Ry
     xc contribution           =    -486.34003281 Ry
     ewald contribution        =    9642.60815770 Ry
     electric field correction =       0.00078580 Ry

     convergence has been achieved in  67 iterations

     Forces acting on atoms (cartesian axes, Ry/au):

     atom    1 type  1   force =     0.00006406    0.00002545    0.10321914
     atom    2 type  1   force =     0.00007349    0.00004305    0.10319177
     atom    3 type  2   force =     0.00013778   -0.00032243    0.09681162
     atom    4 type  2   force =    -0.00007658   -0.00021560    0.09609679
     atom    5 type  2   force =     0.00012354   -0.00039528   -0.17540077
     atom    6 type  2   force =    -0.00001222   -0.00041205   -0.17550354
     atom    7 type  1   force =    -0.07148805   -0.00008943   -0.02769035
     atom    8 type  1   force =    -0.07152525   -0.00004255   -0.02770266
     atom    9 type  1   force =     0.07139464    0.00035485   -0.02776059
     atom   10 type  1   force =     0.07142021    0.00042418   -0.02775003
     atom   11 type  1   force =    -0.00001323   -0.00141136    0.05316174
     atom   12 type  1   force =     0.00000981   -0.00120748    0.05254243
     atom   13 type  1   force =     0.00009065   -0.00014040   -0.02454835
     atom   14 type  1   force =     0.00019383   -0.00011876   -0.02389754
     atom   15 type  2   force =     0.00043095    0.00061840   -0.01182526
     atom   16 type  2   force =     0.00057437    0.00307697   -0.01205043
     atom   17 type  2   force =     0.00034660   -0.01476735    0.02783501
     atom   18 type  2   force =     0.00037231    0.01325878    0.02790348
     atom   19 type  1   force =    -0.01210914    0.00072825    0.00324831
     atom   20 type  1   force =    -0.01222924   -0.00138884    0.00303421
     atom   21 type  1   force =     0.01360694    0.00130748    0.00276059
     atom   22 type  1   force =     0.01359807   -0.00099072    0.00247064
     atom   23 type  1   force =    -0.00335920    0.00070785   -0.01816606
     atom   24 type  1   force =    -0.00198247    0.00036576   -0.02018348
     atom   25 type  1   force =    -0.00014054    0.00000247    0.00003634
     atom   26 type  1   force =    -0.00001834    0.00010214    0.00003571
     atom   27 type  2   force =     0.00004869   -0.00003063   -0.00007289
     atom   28 type  2   force =     0.00010079    0.00003911   -0.00000214
     atom   29 type  2   force =    -0.00012237    0.00000218   -0.00005821
     atom   30 type  1   force =     0.00006347   -0.00003788   -0.00000189
     atom   31 type  1   force =     0.00006310   -0.00000460    0.00003196
     atom   32 type  1   force =     0.00001876   -0.00009943   -0.00005820
     atom   33 type  1   force =     0.00004309    0.00004332    0.00005529
     atom   34 type  2   force =    -0.00007019   -0.00010755    0.00007334
     atom   35 type  1   force =     0.00004216    0.00006818   -0.00006562
     atom   36 type  1   force =    -0.00003235    0.00002033   -0.00019017
     atom   37 type  1   force =    -0.00000626   -0.00006142   -0.00005466
     atom   38 type  1   force =     0.00009082   -0.00012417   -0.00012934
     atom   39 type  2   force =    -0.00003310    0.00002204   -0.00013948
     atom   40 type  2   force =     0.00009734    0.00009005    0.00006903
     atom   41 type  2   force =    -0.00008233    0.00004401   -0.00022471
     atom   42 type  1   force =    -0.00000791    0.00007129    0.00005812
     atom   43 type  1   force =     0.00001218    0.00000953    0.00003629
     atom   44 type  1   force =     0.00013292    0.00003728    0.00007191
     atom   45 type  1   force =     0.00012174    0.00003095    0.00002099
     atom   46 type  2   force =     0.00023873    0.00010988    0.00016524
     atom   47 type  1   force =    -0.00051049   -0.00088881   -0.00044214
     atom   48 type  3   force =    -0.00030237    0.00138543    0.00091209
     atom   49 type  4   force =     0.00052182    0.00090585    0.00065839
     atom   50 type  4   force =     0.00014762   -0.00061837   -0.00025285
     atom   51 type  5   force =    -0.00019015   -0.00057840   -0.00027330
     atom   52 type  1   force =     0.00013132    0.00015843   -0.00005579

     Total force =     0.368034     Total SCF correction =     0.001152
  @ DRIVER MODE: Message from server: STATUS
  @ DRIVER MODE: Message from server: GETFORCE
  @ DRIVER MODE: Returning v,forces,stress,ensemble

     Writing output data file ./calc.save/
  @ DRIVER MODE: Message from server: EXIT
  @ DRIVE MODE: Exiting

     General routines

     Parallel routines

   This run was terminated on:   2: 3:22  28Sep2021

   JOB DONE.