     Program PWSCF v.6.7GPU starts on 26Sep2021 at  3:56:32

     R & G space division:  proc/nbgrp/npool/nimage =       8
     Reading input from /storage/home/hcoda1/3/ntian30/research/carbon/CxH_vib/H2O_calc/ads_slab/CH3N2OHHO_l/out_0027/pw.inp
Warning: card &CELL ignored
Warning: card   CELL_DYNAMICS='IPI', ignored
Warning: card / ignored

     Current dimensions of program PWSCF are:
     Max number of different atomic species (ntypx) = 10
     Max number of k-points (npk) =  40000
     Max angular momentum in pseudopotentials (lmaxx) =  3
     Presently no symmetry can be used with electric field

     Message from routine cell_base_init:
     DEPRECATED: use true lattice parameter, not A to a.u. conversion factor

     IMPORTANT: XC functional enforced from input :
     Exchange-correlation= BEEF-VDW
                           (   1   4  43  14   2   0   0)
     Any further DFT definition will be discarded
     Please, verify this is what you really want

  @ DRIVER MODE: Connecting to
 qe_1139763_2971669.sched-torque.pace.gatech.eduaf7g3e6h_scratch
  using UNIX socket
  @ DRIVER MODE: Message from server: STATUS
  @ DRIVER MODE: Message from server: INIT
  @ DRIVER MODE: Receiving replica           0          -1
  @ DRIVER MODE: Receiving encoded integer          25
  @ DRIVER MODE:  SCF:  T  FORCE:  T  STRESS:  F  VC:  F  ENSEMBLE:  F
  @ DRIVER MODE:  SCF:  T  FORCE:  T  STRESS:  F  VC:  F  ENSEMBLE:  F

     Using Slab Decomposition

     bravais-lattice index     =            0
     lattice parameter (alat)  =       1.8897  a.u.
     unit-cell volume          =    6658.9804 (a.u.)^3
     number of atoms/cell      =           57
     number of atomic types    =            5
     number of electrons       =       409.00
     number of Kohn-Sham states=          214
     kinetic-energy cutoff     =      29.3995  Ry
     charge density cutoff     =     293.9946  Ry
     scf convergence threshold =      7.3E-08
     mixing beta               =       0.0500
     number of iterations used =            8  plain     mixing
     Exchange-correlation= BEEF-VDW
                           (   1   4  43  14   2   0   0)

     celldm(1)=   1.889726  celldm(2)=   0.000000  celldm(3)=   0.000000
     celldm(4)=   0.000000  celldm(5)=   0.000000  celldm(6)=   0.000000

     crystal axes: (cart. coord. in units of alat)
               a(1) = (   6.579727   0.000000   0.000000 )
               a(2) = (  -0.000775   5.961596   0.000000 )
               a(3) = (   0.000000   0.000000  25.155947 )

     reciprocal axes: (cart. coord. in units 2 pi/alat)
               b(1) = (  0.151982  0.000020  0.000000 )
               b(2) = (  0.000000  0.167740  0.000000 )
               b(3) = (  0.000000  0.000000  0.039752 )

     PseudoPot. # 1 for Ti read from file:
     /storage/coda1/p-amedford6/0/shared/rich_project_chbe-medford/medford-share/data/pseudos_module/espresso/nninc/pbe/van/Ti.UPF
     MD5 check sum: 8e4df49b7f0d34bbd5052bf3f5ea0213
     Pseudo is Ultrasoft, Zval = 12.0
     Generated by new atomic code, or converted to UPF format
     Using radial grid of  851 points,  6 beta functions with:
                l(1) =   0
                l(2) =   0
                l(3) =   1
                l(4) =   1
                l(5) =   2
                l(6) =   2
     Q(r) pseudized with  8 coefficients,  rinner =    1.000   1.000   1.000
                                                       1.000   1.000

     PseudoPot. # 2 for O  read from file:
     /storage/coda1/p-amedford6/0/shared/rich_project_chbe-medford/medford-share/data/pseudos_module/espresso/nninc/pbe/van/O.UPF
     MD5 check sum: 78c19812648e8988a0fe644b0f25305e
     Pseudo is Ultrasoft, Zval =  6.0
     Generated by new atomic code, or converted to UPF format
     Using radial grid of  737 points,  4 beta functions with:
                l(1) =   0
                l(2) =   0
                l(3) =   1
                l(4) =   1
     Q(r) pseudized with  8 coefficients,  rinner =    0.800   0.800   0.800

     PseudoPot. # 3 for N  read from file:
     /storage/coda1/p-amedford6/0/shared/rich_project_chbe-medford/medford-share/data/pseudos_module/espresso/nninc/pbe/van/N.UPF
     MD5 check sum: 90d10febe142ad51ac9d5be1deb811c4
     Pseudo is Ultrasoft, Zval =  5.0
     Generated by new atomic code, or converted to UPF format
     Using radial grid of  729 points,  4 beta functions with:
                l(1) =   0
                l(2) =   0
                l(3) =   1
                l(4) =   1
     Q(r) pseudized with  8 coefficients,  rinner =    0.800   0.800   0.800

     PseudoPot. # 4 for C  read from file:
     /storage/coda1/p-amedford6/0/shared/rich_project_chbe-medford/medford-share/data/pseudos_module/espresso/nninc/pbe/van/C.UPF
     MD5 check sum: 1a69bf6b8db32088f5b2163dbdb77a27
     Pseudo is Ultrasoft, Zval =  4.0
     Generated by new atomic code, or converted to UPF format
     Using radial grid of  721 points,  4 beta functions with:
                l(1) =   0
                l(2) =   0
                l(3) =   1
                l(4) =   1
     Q(r) pseudized with  8 coefficients,  rinner =    0.800   0.800   0.800

     PseudoPot. # 5 for H  read from file:
     /storage/coda1/p-amedford6/0/shared/rich_project_chbe-medford/medford-share/data/pseudos_module/espresso/nninc/pbe/van/H.UPF
     MD5 check sum: b5ee9d7bfd3a09ee7748110bda690ff7
     Pseudo is Ultrasoft, Zval =  1.0
     Generated by new atomic code, or converted to UPF format
     Using radial grid of  615 points,  1 beta functions with:
                l(1) =   0
     Q(r) pseudized with  8 coefficients,  rinner =    0.800

     atomic species   valence    mass     pseudopotential
        Ti1           12.00    47.86700     Ti( 1.00)
        O1             6.00    15.99900     O ( 1.00)
        N1             5.00    14.00700     N ( 1.00)
        C1             4.00    12.01100     C ( 1.00)
        H1             1.00     1.00800     H ( 1.00)

     No symmetry found

   Cartesian axes

     site n.     atom                  positions (alat units)
         1           Ti1 tau(   1) = (   0.0004258   2.9801865   6.0000000  )
         2           Ti1 tau(   2) = (   3.2906075   1.4906267   6.0002472  )
         3           O1  tau(   3) = (   0.0006271   0.0005054   7.9858123  )
         4           O1  tau(   4) = (   3.2906025   0.0005020   7.3038282  )
         5           O1  tau(   5) = (   4.5942328   1.4918067   9.2879030  )
         6           O1  tau(   6) = (   1.9868534   1.4903216   9.2879459  )
         7           Ti1 tau(   7) = (   3.2907910   2.8959150   9.1758416  )
         8           Ti1 tau(   8) = (   0.0015273   1.4827037   9.2680791  )
         9           O1  tau(   9) = (   3.2779673   5.9607700  11.3423085  )
        10           O1  tau(  10) = (   0.0116148   5.9584955  10.6183126  )
        11           O1  tau(  11) = (   1.2787083   1.4818767  12.6451794  )
        12           O1  tau(  12) = (   5.2707140   1.4872516  12.6060838  )
        13           Ti1 tau(  13) = (   0.0520196   2.9452147  12.6012095  )
        14           Ti1 tau(  14) = (   3.3669591   1.4706787  12.5087448  )
        15           O1  tau(  15) = (   6.5166736   5.9505275  14.6414754  )
        16           O1  tau(  16) = (   3.3002175   0.0041348  13.9548274  )
        17           O1  tau(  17) = (   4.5235890   1.5203341  16.0633414  )
        18           O1  tau(  18) = (   1.9992342   1.5602939  15.9747780  )
        19           Ti1 tau(  19) = (   3.2541499   3.0080313  15.6961896  )
        20           Ti1 tau(  20) = (   6.5591015   1.5323982  15.7823192  )
        21           O1  tau(  21) = (   3.2904802   0.0005063   4.7018136  )
        22           O1  tau(  22) = (   0.0960927   0.0099221  17.2178370  )
        23           O1  tau(  23) = (   1.3043587   1.4918075   6.0039043  )
        24           O1  tau(  24) = (   5.2767064   1.4903225   6.0039473  )
        25           Ti1 tau(  25) = (   0.0000382   5.9609847   6.0000000  )
        26           Ti1 tau(  26) = (   3.2902200   4.4714249   6.0002472  )
        27           O1  tau(  27) = (   0.0002396   2.9813036   7.9858123  )
        28           O1  tau(  28) = (   3.2902150   2.9813002   7.3038282  )
        29           O1  tau(  29) = (   4.5938453   4.4726049   9.2879030  )
        30           O1  tau(  30) = (   1.9864658   4.4711199   9.2879459  )
        31           Ti1 tau(  31) = (   3.2891106   5.8743827   9.1763621  )
        32           Ti1 tau(  32) = (   0.0006254   4.4649316   9.2693709  )
        33           O1  tau(  33) = (   3.2807211   2.9768430  11.3440791  )
        34           O1  tau(  34) = (   0.0092240   2.9805883  10.6323155  )
        35           O1  tau(  35) = (   1.2789702   4.4681595  12.6395138  )
        36           O1  tau(  36) = (   5.2737968   4.4775610  12.6008310  )
        37           Ti1 tau(  37) = (   0.0460201   5.9176504  12.5434570  )
        38           Ti1 tau(  38) = (   3.3658678   4.4646095  12.4976877  )
        39           O1  tau(  39) = (   6.5297297   2.9761478  14.6509524  )
        40           O1  tau(  40) = (   3.3085871   2.9961499  13.9017917  )
        41           O1  tau(  41) = (   4.5138497   4.4896837  16.1272785  )
        42           O1  tau(  42) = (   1.9961282   4.4344792  16.0060688  )
        43           Ti1 tau(  43) = (   3.3116018   0.0224549  15.7990204  )
        44           Ti1 tau(  44) = (   6.5775847   4.6577750  16.0638065  )
        45           O1  tau(  45) = (   3.2900926   2.9813045   4.7018136  )
        46           O1  tau(  46) = (   1.3039711   4.4726057   6.0039043  )
        47           O1  tau(  47) = (   5.2763189   4.4711207   6.0039473  )
        48           N1  tau(  48) = (   6.5065777   2.6139801  18.6303060  )
        49           N1  tau(  49) = (   6.5364102   2.8728423  17.4370429  )
        50           C1  tau(  50) = (   6.4341180   3.7235584  19.6105657  )
        51           H1  tau(  51) = (   6.3066687   4.7022679  19.1488110  )
        52           H1  tau(  52) = (   5.6164842   3.4705663  20.2913871  )
        53           H1  tau(  53) = (   0.7823074   3.6964598  20.1845303  )
        54           O1  tau(  54) = (   3.0314481   5.0835218  18.9911038  )
        55           H1  tau(  55) = (   1.7414717   0.2044793  18.0242669  )
        56           O1  tau(  56) = (   2.7372941   0.2572207  18.0778760  )
        57           H1  tau(  57) = (   3.9343361   5.3466317  19.2487757  )

     number of k points=    10  Fermi-Dirac smearing, width (Ry)=  0.0073
                       cart. coord. in units 2pi/alat
        k(    1) = (   0.0000000   0.0000000   0.0000000), wk =   0.1250000
        k(    2) = (   0.0000000   0.0419351   0.0000000), wk =   0.2500000
        k(    3) = (   0.0000000  -0.0838702   0.0000000), wk =   0.1250000
        k(    4) = (   0.0379955   0.0000049   0.0000000), wk =   0.2500000
        k(    5) = (   0.0379955   0.0419400   0.0000000), wk =   0.2500000
        k(    6) = (   0.0379955  -0.0838652   0.0000000), wk =   0.2500000
        k(    7) = (   0.0379955  -0.0419301   0.0000000), wk =   0.2500000
        k(    8) = (  -0.0759910  -0.0000099   0.0000000), wk =   0.1250000
        k(    9) = (  -0.0759910   0.0419252   0.0000000), wk =   0.2500000
        k(   10) = (  -0.0759910  -0.0838800   0.0000000), wk =   0.1250000

     Initial potential from superposition of free atoms

     starting charge  392.99914, renormalised to  409.00000

     negative rho (up, down):  1.422E-02 0.000E+00

     %%%%%%%%%%%%%%%%%%%%%%%%%%%%%%%%%%%%%%%%%%%%%%%%%%%%%%%%%%%%%%%%%%%%%%%%
     %                                                                      %
     % You are using vdW-DF, which was implemented by the Thonhauser group. %
     % Please cite the following two papers that made this development      %
     % possible and the two reviews that describe the various versions:     %
     %                                                                      %
     %   T. Thonhauser et al., PRL 115, 136402 (2015).                      %
     %   T. Thonhauser et al., PRB 76, 125112 (2007).                       %
     %   K. Berland et al., Rep. Prog. Phys. 78, 066501 (2015).             %
     %   D.C. Langreth et al., J. Phys.: Condens. Matter 21, 084203 (2009). %
     %                                                                      %
     %                                                                      %
     % If you are calculating the stress with vdW-DF, please also cite:     %
     %                                                                      %
     %   R. Sabatini et al., J. Phys.: Condens. Matter 24, 424209 (2012).   %
     %                                                                      %
     %%%%%%%%%%%%%%%%%%%%%%%%%%%%%%%%%%%%%%%%%%%%%%%%%%%%%%%%%%%%%%%%%%%%%%%%

     Adding external electric field

     Computed dipole along edir(3) :
        Dipole              -16.7505 Ry au,        -42.5754 Debye
        Dipole field         -0.0316 Ry au,

        Potential amp.        2.9302 Ry
        Total length         46.3494 bohr

     Starting wfcs are  309 atomic wfcs
  @ DRIVER MODE: Message from server: STATUS
  @ DRIVER MODE: Message from server: POSDATA
  @ DRIVER MODE: Reading and sharing cell
  @ DRIVER MODE: Reading and sharing positions
  @ DRIVER MODE: Received positions

     Self-consistent Calculation

     iteration #  1     ecut=    29.40 Ry     beta= 0.05
     Davidson diagonalization with overlap
     c_bands:  5 eigenvalues not converged
     c_bands:  5 eigenvalues not converged
     c_bands:  3 eigenvalues not converged
     c_bands:  1 eigenvalues not converged
     c_bands:  4 eigenvalues not converged
     c_bands:  2 eigenvalues not converged
     c_bands:  5 eigenvalues not converged
     ethr =  1.00E-05,  avg # of iterations = 26.6

[...]

     total energy              =   -2110.47028728 Ry
     estimated scf accuracy    <   10326.52368399 Ry

     iteration #  2     ecut=    29.40 Ry     beta= 0.05
     Davidson diagonalization with overlap
     ethr =  1.00E-02,  avg # of iterations = 31.7

[...]

     iteration # 46     ecut=    29.40 Ry     beta= 0.05
     Davidson diagonalization with overlap
     c_bands:  1 eigenvalues not converged
     c_bands:  2 eigenvalues not converged
     c_bands:  1 eigenvalues not converged
     c_bands:  3 eigenvalues not converged
     c_bands:  1 eigenvalues not converged
     ethr =  2.15E-06,  avg # of iterations = 17.5

[...]

     total energy              =   -3006.13721107 Ry
     estimated scf accuracy    <       0.00000014 Ry

     iteration # 68     ecut=    29.40 Ry     beta= 0.05
     Davidson diagonalization with overlap
     ethr =  3.45E-11,  avg # of iterations = 12.4

     negative rho (up, down):  1.469E-02 0.000E+00

     Adding external electric field

     Computed dipole along edir(3) :
        Dipole                0.8082 Ry au,          2.0542 Debye
        Dipole field          0.0015 Ry au,

        Potential amp.       -0.1414 Ry
        Total length         46.3494 bohr

     End of self-consistent calculation

          k = 0.0000 0.0000 0.0000 ( 18029 PWs)   bands (ev):

   -55.6046 -55.5706 -55.5626 -55.5340 -55.5264 -55.4407 -55.4191 -55.4038
   -55.3852 -55.3830 -55.3658 -55.3493 -54.9882 -54.9181 -54.5853 -54.5513
   -32.1033 -32.0878 -31.9486 -31.9405 -31.9176 -31.8973 -31.8729 -31.8598
   -31.8486 -31.7942 -31.7793 -31.7638 -31.7569 -31.7403 -31.7288 -31.7186
   -31.7096 -31.7010 -31.6895 -31.6625 -31.6618 -31.6419 -31.6100 -31.6087
   -31.5994 -31.5949 -31.5924 -31.5817 -31.5637 -31.5594 -31.5537 -31.5487
   -31.5380 -31.5363 -31.5269 -31.5152 -31.4951 -31.2660 -31.2096 -31.1784
   -31.1249 -31.1023 -30.9925 -30.9039 -30.8815 -30.8093 -30.7228 -30.6117
   -20.7374 -18.2966 -16.3049 -16.0787 -15.8950 -15.7652 -15.7103 -15.5538
   -15.4954 -15.4095 -15.3389 -15.2023 -15.1499 -15.1412 -15.1354 -15.1164
   -15.1106 -15.0503 -15.0393 -15.0378 -15.0267 -14.9990 -14.9600 -14.9466
   -14.9418 -14.8590 -14.7658 -14.7428 -14.7225 -14.7193 -14.6614 -14.2760
   -13.0874 -12.9709 -11.2805  -6.8057  -5.7522  -5.3636  -4.1805  -3.8063
    -3.7686  -3.6722  -3.5497  -3.5108  -3.4314  -3.3848  -3.2304  -3.0792
    -3.0262  -2.8514  -2.7826  -2.7552  -2.7117  -2.6282  -2.5208  -2.4677
    -2.4123  -2.4083  -2.3944  -2.3778  -2.3611  -2.3444  -2.2373  -2.2184
    -2.1657  -2.1456  -2.1197  -1.9844  -1.9565  -1.9284  -1.9181  -1.8906
    -1.8777  -1.8640  -1.8371  -1.8185  -1.7788  -1.7548  -1.6239  -1.5808
    -1.5408  -1.4483  -1.3881  -1.3280  -1.2328  -1.2006  -1.1321  -1.0616
    -1.0559  -1.0360  -1.0028  -0.9946  -0.8682  -0.7640  -0.7538  -0.6802
    -0.6189  -0.5690  -0.5277  -0.4625  -0.3790  -0.3614  -0.3537  -0.3333
    -0.2814  -0.2569  -0.0976  -0.0591  -0.0107   0.0145   0.0717   0.1049
     0.1478   0.1879   0.2278   0.2777   0.3120   0.3451   0.3634   0.3777
     0.3931   0.4244   0.4451   0.6108   0.6461   0.6694   0.7306   0.7597
     0.8461   0.9031   0.9669   1.0508   1.1589   1.3643   1.4372   1.5284
     1.6291   2.0085   2.0543   2.8303   3.5246   3.6165   3.6576   3.6878
     3.7694   3.7809   3.9825   4.0043   4.0338   4.1101

[...]

          k = 0.0380-0.0419 0.0000 ( 17876 PWs)   bands (ev):

[...]

          k =-0.0760-0.0000 0.0000 ( 17886 PWs)   bands (ev):

[...]

          k =-0.0760-0.0839 0.0000 ( 17948 PWs)   bands (ev):

   -55.5880 -55.5870 -55.5474 -55.5414 -55.5321 -55.4289 -55.4156 -55.4023
   -55.4015 -55.3676 -55.3675 -55.3649 -54.9842 -54.9219 -54.5684 -54.5681
   -31.9175 -31.9034 -31.9027 -31.9002 -31.8831 -31.8822 -31.8261 -31.8175
   -31.8051 -31.7854 -31.7769 -31.7532 -31.7485 -31.7224 -31.7166 -31.7159
   -31.7076 -31.7071 -31.7068 -31.7053 -31.7030 -31.7010 -31.6743 -31.6460
   -31.6322 -31.6283 -31.6195 -31.6032 -31.6022 -31.5972 -31.5919 -31.5830
   -31.5799 -31.5725 -31.5716 -31.5698 -31.4171 -31.2677 -31.2483 -31.1865
   -31.1638 -31.1261 -30.8943 -30.8941 -30.8054 -30.8051 -30.7661 -30.7660
   -20.7368 -18.2926 -15.7424 -15.6959 -15.6307 -15.5637 -15.5285 -15.4584
   -15.4150 -15.3730 -15.3211 -15.2830 -15.2740 -15.2145 -15.1941 -15.1614
   -15.1521 -15.1226 -15.1130 -15.1109 -15.0572 -15.0513 -15.0452 -15.0382
   -15.0320 -14.9733 -14.9334 -14.9252 -14.9203 -14.8221 -14.6998 -14.4447
   -13.0728 -13.0726 -11.2788  -6.8286  -5.7495  -5.3401  -4.1090  -3.8027
    -3.7597  -3.1137  -3.0209  -2.8273  -2.7970  -2.7141  -2.7100  -2.6672
    -2.5450  -2.5120  -2.4661  -2.4480  -2.4268  -2.4181  -2.4125  -2.3922
    -2.3861  -2.3678  -2.3387  -2.3183  -2.2856  -2.2733  -2.2603  -2.2519
    -2.2379  -2.2150  -2.2128  -2.1645  -2.1441  -2.1254  -2.0623  -2.0292
    -1.8428  -1.7937  -1.7486  -1.7417  -1.7210  -1.6896  -1.6744  -1.6576
    -1.6109  -1.5895  -1.5123  -1.4693  -1.3275  -1.3092  -1.2931  -1.2726
    -1.2061  -1.1481  -1.0982  -1.0121  -1.0071  -0.9580  -0.8652  -0.8060
    -0.7979  -0.7664  -0.7111  -0.7014  -0.6611  -0.5677  -0.5621  -0.5443
    -0.5382  -0.4630  -0.4182  -0.3558  -0.3477  -0.3278  -0.2969  -0.2689
    -0.2356  -0.1966  -0.1008  -0.0675   0.0260   0.1316   0.2083   0.3438
     0.4626   0.4751   0.5599   0.5843   0.6854   0.6971   0.7093   0.7505
     0.7863   0.8107   0.9307   0.9446   0.9673   0.9949   1.0820   1.8006
     1.8015   1.8740   1.8742   2.8198   3.7661   3.8800   3.9118   3.9225
     4.0076   4.0445   4.0634   4.0653   4.1304   4.2026

     the Fermi energy is     3.5273 ev

!    total energy              =   -3006.13725843 Ry
     estimated scf accuracy    <       0.00000005 Ry
     smearing contrib. (-TS)   =      -0.02166956 Ry
     internal energy E=F+TS    =   -3006.11558886 Ry

     The total energy is F=E-TS. E is the sum of the following terms:
     one-electron contribution =  -23513.92836031 Ry
     hartree contribution      =   11854.94165831 Ry
     xc contribution           =    -501.16655105 Ry
     ewald contribution        =    9154.03643155 Ry
     electric field correction =       0.00123264 Ry

     convergence has been achieved in  68 iterations

     Forces acting on atoms (cartesian axes, Ry/au):

     atom    1 type  1   force =     0.00020730   -0.00032072    0.09618220
     atom    2 type  1   force =    -0.00012217   -0.00050926   -0.17557534
     atom    3 type  2   force =    -0.00003014   -0.00015894   -0.02418390
     atom    4 type  2   force =     0.00000649   -0.00155828    0.05345345
     atom    5 type  2   force =    -0.01167145   -0.00075597    0.00383926
     atom    6 type  2   force =     0.01286120   -0.00002244    0.00195327
     atom    7 type  1   force =    -0.00131849    0.00026391   -0.00662400
     atom    8 type  1   force =     0.00074473    0.00793784    0.02423834
     atom    9 type  2   force =     0.00000813    0.00002920    0.00001570
     atom   10 type  2   force =    -0.00082582    0.00166352   -0.01690907
     atom   11 type  2   force =    -0.00002591    0.00003390   -0.00000621
     atom   12 type  2   force =    -0.00000305    0.00001892   -0.00000837
     atom   13 type  1   force =     0.00001530   -0.00000550    0.00002051
     atom   14 type  1   force =     0.00001015    0.00003801    0.00000540
     atom   15 type  2   force =    -0.00000494    0.00000041    0.00001068
     atom   16 type  2   force =    -0.00000946   -0.00003270   -0.00004368
     atom   17 type  2   force =    -0.00002050   -0.00000937    0.00003864
     atom   18 type  2   force =    -0.00003183   -0.00000018   -0.00001511
     atom   19 type  1   force =     0.00006350   -0.00008192    0.00003656
     atom   20 type  1   force =     0.00001399    0.00006393   -0.00004224
     atom   21 type  2   force =     0.00005636   -0.00004966    0.10323290
     atom   22 type  2   force =    -0.00002035   -0.00005008    0.00000718
     atom   23 type  2   force =    -0.07148646   -0.00011589   -0.02771727
     atom   24 type  2   force =     0.07139017    0.00029084   -0.02772636
     atom   25 type  1   force =    -0.00003032   -0.00028382    0.09581217
     atom   26 type  1   force =    -0.00023230   -0.00034630   -0.17583355
     atom   27 type  2   force =     0.00004999   -0.00017364   -0.02323586
     atom   28 type  2   force =     0.00007165   -0.00125870    0.05305824
     atom   29 type  2   force =    -0.01201796    0.00042771    0.00401552
     atom   30 type  2   force =     0.01310593    0.00077125    0.00210226
     atom   31 type  1   force =    -0.00118140    0.00400646   -0.00993707
     atom   32 type  1   force =     0.00067548   -0.01005192    0.02470741
     atom   33 type  2   force =     0.00001658   -0.00001164    0.00000089
     atom   34 type  2   force =    -0.00024909    0.00012838   -0.02260821
     atom   35 type  2   force =    -0.00001227   -0.00000652   -0.00001990
     atom   36 type  2   force =    -0.00000725    0.00001624   -0.00002693
     atom   37 type  1   force =    -0.00000202   -0.00004364    0.00000794
     atom   38 type  1   force =     0.00002901    0.00007621    0.00004871
     atom   39 type  2   force =    -0.00005571   -0.00001820   -0.00001841
     atom   40 type  2   force =    -0.00000457   -0.00004186   -0.00000704
     atom   41 type  2   force =     0.00001289   -0.00000994   -0.00000885
     atom   42 type  2   force =    -0.00001598   -0.00001576   -0.00000504
     atom   43 type  1   force =     0.00004276   -0.00002368   -0.00006035
     atom   44 type  1   force =     0.00002454   -0.00005569   -0.00000921
     atom   45 type  2   force =     0.00004572   -0.00009022    0.10323829
     atom   46 type  2   force =    -0.07150218   -0.00008552   -0.02773699
     atom   47 type  2   force =     0.07141563    0.00035493   -0.02772898
     atom   48 type  3   force =     0.00080880    0.00013798   -0.00051566
     atom   49 type  3   force =    -0.00002852   -0.00007282   -0.00027310
     atom   50 type  4   force =    -0.00177381   -0.00236788    0.00153937
     atom   51 type  5   force =    -0.00080072   -0.00010975    0.00057967
     atom   52 type  5   force =     0.00183937    0.00244393   -0.00136032
     atom   53 type  5   force =    -0.00004971    0.00001164    0.00000137
     atom   54 type  2   force =     0.00097597   -0.00004115   -0.00128667
     atom   55 type  5   force =    -0.00010442    0.00000917   -0.00004971
     atom   56 type  2   force =    -0.00113126    0.00000986    0.00135460
     atom   57 type  5   force =     0.00027844    0.00004532    0.00007287

     Total force =     0.367153     Total SCF correction =     0.000617
  @ DRIVER MODE: Message from server: STATUS
  @ DRIVER MODE: Message from server: GETFORCE
  @ DRIVER MODE: Returning v,forces,stress,ensemble

     Writing output data file ./calc.save/
  @ DRIVER MODE: Message from server: EXIT
  @ DRIVE MODE: Exiting

     General routines

     Parallel routines

   This run was terminated on:   4:24:23  26Sep2021

   JOB DONE.