     Program PWSCF v.6.7GPU starts on 25Aug2021 at  5:52:21

     R & G space division:  proc/nbgrp/npool/nimage =       6
     Reading input from /storage/home/hcoda1/3/ntian30/research/carbon/CH3_vib_end_on/ads_slab/CH3NHNH2_a/out_0024/pw.inp
Warning: card &CELL ignored
Warning: card   CELL_DYNAMICS='IPI', ignored
Warning: card / ignored

     Current dimensions of program PWSCF are:
     Max number of different atomic species (ntypx) = 10
     Max number of k-points (npk) =  40000
     Max angular momentum in pseudopotentials (lmaxx) =  3
     Presently no symmetry can be used with electric field

     Message from routine cell_base_init:
     DEPRECATED: use true lattice parameter, not A to a.u. conversion factor

     IMPORTANT: XC functional enforced from input :
     Exchange-correlation= BEEF-VDW
                           (   1   4  43  14   2   0   0)
     Any further DFT definition will be discarded
     Please, verify this is what you really want

  @ DRIVER MODE: Connecting to
 qe_1139763_2643871.sched-torque.pace.gatech.edu5a_5uzv7_scratch
  using UNIX socket
  @ DRIVER MODE: Message from server: STATUS
  @ DRIVER MODE: Message from server: INIT
  @ DRIVER MODE: Receiving replica           0          -1
  @ DRIVER MODE: Receiving encoded integer          25
  @ DRIVER MODE:  SCF:  T  FORCE:  T  STRESS:  F  VC:  F  ENSEMBLE:  F
  @ DRIVER MODE:  SCF:  T  FORCE:  T  STRESS:  F  VC:  F  ENSEMBLE:  F

     Using Slab Decomposition

     bravais-lattice index     =            0
     lattice parameter (alat)  =       1.8897  a.u.
     unit-cell volume          =    6658.9804 (a.u.)^3
     number of atoms/cell      =           56
     number of atomic types    =            5
     number of electrons       =       398.00
     number of Kohn-Sham states=          209
     kinetic-energy cutoff     =      29.3995  Ry
     charge density cutoff     =     293.9946  Ry
     scf convergence threshold =      7.3E-08
     mixing beta               =       0.0500
     number of iterations used =            8  plain     mixing
     Exchange-correlation= BEEF-VDW
                           (   1   4  43  14   2   0   0)

     celldm(1)=   1.889726  celldm(2)=   0.000000  celldm(3)=   0.000000
     celldm(4)=   0.000000  celldm(5)=   0.000000  celldm(6)=   0.000000

     crystal axes: (cart. coord. in units of alat)
               a(1) = (   6.579727   0.000000   0.000000 )
               a(2) = (  -0.000775   5.961596   0.000000 )
               a(3) = (   0.000000   0.000000  25.155947 )

     reciprocal axes: (cart. coord. in units 2 pi/alat)
               b(1) = (  0.151982  0.000020  0.000000 )
               b(2) = (  0.000000  0.167740  0.000000 )
               b(3) = (  0.000000  0.000000  0.039752 )

     PseudoPot. # 1 for Ti read from file:
     /storage/coda1/p-amedford6/0/shared/rich_project_chbe-medford/medford-share/data/pseudos_module/espresso/nninc/pbe/van/Ti.UPF
     MD5 check sum: 8e4df49b7f0d34bbd5052bf3f5ea0213
     Pseudo is Ultrasoft, Zval = 12.0
     Generated by new atomic code, or converted to UPF format
     Using radial grid of  851 points,  6 beta functions with:
                l(1) =   0
                l(2) =   0
                l(3) =   1
                l(4) =   1
                l(5) =   2
                l(6) =   2
     Q(r) pseudized with  8 coefficients,  rinner =    1.000   1.000   1.000
                                                       1.000   1.000

     PseudoPot. # 2 for O  read from file:
     /storage/coda1/p-amedford6/0/shared/rich_project_chbe-medford/medford-share/data/pseudos_module/espresso/nninc/pbe/van/O.UPF
     MD5 check sum: 78c19812648e8988a0fe644b0f25305e
     Pseudo is Ultrasoft, Zval =  6.0
     Generated by new atomic code, or converted to UPF format
     Using radial grid of  737 points,  4 beta functions with:
                l(1) =   0
                l(2) =   0
                l(3) =   1
                l(4) =   1
     Q(r) pseudized with  8 coefficients,  rinner =    0.800   0.800   0.800

     PseudoPot. # 3 for N  read from file:
     /storage/coda1/p-amedford6/0/shared/rich_project_chbe-medford/medford-share/data/pseudos_module/espresso/nninc/pbe/van/N.UPF
     MD5 check sum: 90d10febe142ad51ac9d5be1deb811c4
     Pseudo is Ultrasoft, Zval =  5.0
     Generated by new atomic code, or converted to UPF format
     Using radial grid of  729 points,  4 beta functions with:
                l(1) =   0
                l(2) =   0
                l(3) =   1
                l(4) =   1
     Q(r) pseudized with  8 coefficients,  rinner =    0.800   0.800   0.800

     PseudoPot. # 4 for C  read from file:
     /storage/coda1/p-amedford6/0/shared/rich_project_chbe-medford/medford-share/data/pseudos_module/espresso/nninc/pbe/van/C.UPF
     MD5 check sum: 1a69bf6b8db32088f5b2163dbdb77a27
     Pseudo is Ultrasoft, Zval =  4.0
     Generated by new atomic code, or converted to UPF format
     Using radial grid of  721 points,  4 beta functions with:
                l(1) =   0
                l(2) =   0
                l(3) =   1
                l(4) =   1
     Q(r) pseudized with  8 coefficients,  rinner =    0.800   0.800   0.800

     PseudoPot. # 5 for H  read from file:
     /storage/coda1/p-amedford6/0/shared/rich_project_chbe-medford/medford-share/data/pseudos_module/espresso/nninc/pbe/van/H.UPF
     MD5 check sum: b5ee9d7bfd3a09ee7748110bda690ff7
     Pseudo is Ultrasoft, Zval =  1.0
     Generated by new atomic code, or converted to UPF format
     Using radial grid of  615 points,  1 beta functions with:
                l(1) =   0
     Q(r) pseudized with  8 coefficients,  rinner =    0.800

     atomic species   valence    mass     pseudopotential
        Ti1           12.00    47.86700     Ti( 1.00)
        O1             6.00    15.99900     O ( 1.00)
        N1             5.00    14.00700     N ( 1.00)
        C1             4.00    12.01100     C ( 1.00)
        H1             1.00     1.00800     H ( 1.00)

     No symmetry found

   Cartesian axes

     site n.     atom                  positions (alat units)
         1           Ti1 tau(   1) = (   0.0004258   2.9801865   6.0000000  )
         2           Ti1 tau(   2) = (   3.2906075   1.4906267   6.0002472  )
         3           O1  tau(   3) = (   0.0006271   0.0005054   7.9858123  )
         4           O1  tau(   4) = (   3.2906025   0.0005020   7.3038282  )
         5           O1  tau(   5) = (   4.5942328   1.4918067   9.2879030  )
         6           O1  tau(   6) = (   1.9868534   1.4903216   9.2879459  )
         7           Ti1 tau(   7) = (   3.2907910   2.8959150   9.1758416  )
         8           Ti1 tau(   8) = (   0.0015273   1.4827037   9.2680791  )
         9           O1  tau(   9) = (   3.2714441   0.0289406  11.3813764  )
        10           O1  tau(  10) = (   0.0116148   5.9584955  10.6183126  )
        11           O1  tau(  11) = (   1.2692032   1.5162281  12.7122965  )
        12           O1  tau(  12) = (   5.2779133   1.5159715  12.6811497  )
        13           Ti1 tau(  13) = (   6.5579218   3.0031650  12.5037829  )
        14           Ti1 tau(  14) = (   3.2791490   1.5128154  12.5375672  )
        15           O1  tau(  15) = (   6.5208524   5.8954130  14.6845636  )
        16           O1  tau(  16) = (   3.2849572   0.0099931  14.0031570  )
        17           O1  tau(  17) = (   4.4884262   1.5607690  16.1641467  )
        18           O1  tau(  18) = (   1.9729656   1.5430890  16.0903287  )
        19           Ti1 tau(  19) = (   3.2372663   3.0309179  15.7728032  )
        20           Ti1 tau(  20) = (   6.5553692   1.3539605  15.8053163  )
        21           O1  tau(  21) = (   3.2904802   0.0005063   4.7018136  )
        22           O1  tau(  22) = (   6.5123495   0.2165906  17.2215032  )
        23           O1  tau(  23) = (   1.3043587   1.4918075   6.0039043  )
        24           O1  tau(  24) = (   5.2767064   1.4903225   6.0039473  )
        25           Ti1 tau(  25) = (   0.0000382   5.9609847   6.0000000  )
        26           Ti1 tau(  26) = (   3.2902200   4.4714249   6.0002472  )
        27           O1  tau(  27) = (   0.0002396   2.9813036   7.9858123  )
        28           O1  tau(  28) = (   3.2902150   2.9813002   7.3038282  )
        29           O1  tau(  29) = (   4.5938453   4.4726049   9.2879030  )
        30           O1  tau(  30) = (   1.9864658   4.4711199   9.2879459  )
        31           Ti1 tau(  31) = (   3.2891106   5.8743827   9.1763621  )
        32           Ti1 tau(  32) = (   0.0006254   4.4649316   9.2693709  )
        33           O1  tau(  33) = (   3.2699379   2.9911670  11.3762017  )
        34           O1  tau(  34) = (   0.0092240   2.9805883  10.6323155  )
        35           O1  tau(  35) = (   1.2730946   4.4825978  12.6662957  )
        36           O1  tau(  36) = (   5.2742290   4.4829497  12.6320226  )
        37           Ti1 tau(  37) = (   6.5783117   0.0079037  12.5026730  )
        38           Ti1 tau(  38) = (   3.2784283   4.4905194  12.5286134  )
        39           O1  tau(  39) = (   6.5033290   3.0824797  14.9867588  )
        40           O1  tau(  40) = (   3.2824109   3.0350539  13.9807796  )
        41           O1  tau(  41) = (   4.4804250   4.5097483  16.2808085  )
        42           O1  tau(  42) = (   1.9642025   4.5165872  16.2225063  )
        43           Ti1 tau(  43) = (   3.2609991   0.0502580  15.7998297  )
        44           Ti1 tau(  44) = (   6.5501253   4.5826093  16.0954727  )
        45           O1  tau(  45) = (   3.2900926   2.9813045   4.7018136  )
        46           O1  tau(  46) = (   1.3039711   4.4726057   6.0039043  )
        47           O1  tau(  47) = (   5.2763189   4.4711207   6.0039473  )
        48           N1  tau(  48) = (   0.8845045   3.2634721  19.1145209  )
        49           N1  tau(  49) = (   6.3504243   3.3997271  18.1887592  )
        50           C1  tau(  50) = (   1.2927081   4.5631590  19.6429350  )
        51           H1  tau(  51) = (   0.4658632   5.1229972  20.1156819  )
        52           H1  tau(  52) = (   2.0600825   4.3818216  20.3958833  )
        53           H1  tau(  53) = (   1.7018904   5.1738364  18.8453250  )
        54           H1  tau(  54) = (   0.5628611   2.6866381  19.8888112  )
        55           H1  tau(  55) = (   5.6051421   3.9827062  18.5884547  )
        56           H1  tau(  56) = (   5.9567982   2.4624696  18.0937858  )

     number of k points=    10  Fermi-Dirac smearing, width (Ry)=  0.0073
                       cart. coord. in units 2pi/alat
        k(    1) = (   0.0000000   0.0000000   0.0000000), wk =   0.1250000
        k(    2) = (   0.0000000   0.0419351   0.0000000), wk =   0.2500000
        k(    3) = (   0.0000000  -0.0838702   0.0000000), wk =   0.1250000
        k(    4) = (   0.0379955   0.0000049   0.0000000), wk =   0.2500000
        k(    5) = (   0.0379955   0.0419400   0.0000000), wk =   0.2500000
        k(    6) = (   0.0379955  -0.0838652   0.0000000), wk =   0.2500000
        k(    7) = (   0.0379955  -0.0419301   0.0000000), wk =   0.2500000
        k(    8) = (  -0.0759910  -0.0000099   0.0000000), wk =   0.1250000
        k(    9) = (  -0.0759910   0.0419252   0.0000000), wk =   0.2500000
        k(   10) = (  -0.0759910  -0.0838800   0.0000000), wk =   0.1250000

     Initial potential from superposition of free atoms

     starting charge  381.99914, renormalised to  398.00000

     negative rho (up, down):  1.415E-02 0.000E+00

     %%%%%%%%%%%%%%%%%%%%%%%%%%%%%%%%%%%%%%%%%%%%%%%%%%%%%%%%%%%%%%%%%%%%%%%%
     %                                                                      %
     % You are using vdW-DF, which was implemented by the Thonhauser group. %
     % Please cite the following two papers that made this development      %
     % possible and the two reviews that describe the various versions:     %
     %                                                                      %
     %   T. Thonhauser et al., PRL 115, 136402 (2015).                      %
     %   T. Thonhauser et al., PRB 76, 125112 (2007).                       %
     %   K. Berland et al., Rep. Prog. Phys. 78, 066501 (2015).             %
     %   D.C. Langreth et al., J. Phys.: Condens. Matter 21, 084203 (2009). %
     %                                                                      %
     %                                                                      %
     % If you are calculating the stress with vdW-DF, please also cite:     %
     %                                                                      %
     %   R. Sabatini et al., J. Phys.: Condens. Matter 24, 424209 (2012).   %
     %                                                                      %
     %%%%%%%%%%%%%%%%%%%%%%%%%%%%%%%%%%%%%%%%%%%%%%%%%%%%%%%%%%%%%%%%%%%%%%%%

     Adding external electric field

     Computed dipole along edir(3) :
        Dipole              -11.7178 Ry au,        -29.7838 Debye
        Dipole field         -0.0221 Ry au,

        Potential amp.        2.0499 Ry
        Total length         46.3494 bohr

     Starting wfcs are  302 atomic wfcs
  @ DRIVER MODE: Message from server: STATUS
  @ DRIVER MODE: Message from server: POSDATA
  @ DRIVER MODE: Reading and sharing cell
  @ DRIVER MODE: Reading and sharing positions
  @ DRIVER MODE: Received positions

     Self-consistent Calculation

     iteration #  1     ecut=    29.40 Ry     beta= 0.05
     Davidson diagonalization with overlap
     c_bands:  3 eigenvalues not converged
     c_bands:  1 eigenvalues not converged
     c_bands:  1 eigenvalues not converged
     c_bands:  4 eigenvalues not converged
     c_bands:  1 eigenvalues not converged
     c_bands:  4 eigenvalues not converged
     c_bands:  5 eigenvalues not converged
     c_bands:  2 eigenvalues not converged
     ethr =  1.00E-05,  avg # of iterations = 21.9

[...]

     total energy              =   -2424.56917104 Ry
     estimated scf accuracy    <    5830.32259741 Ry

     iteration #  2     ecut=    29.40 Ry     beta= 0.05
     Davidson diagonalization with overlap
     ethr =  1.00E-02,  avg # of iterations = 22.6

[...]

     iteration # 62     ecut=    29.40 Ry     beta= 0.05
     Davidson diagonalization with overlap
     c_bands:  1 eigenvalues not converged
     ethr =  5.44E-11,  avg # of iterations = 10.7

[...]

     total energy              =   -2942.84389041 Ry
     estimated scf accuracy    <       0.00000007 Ry

     iteration # 65     ecut=    29.40 Ry     beta= 0.05
     Davidson diagonalization with overlap
     ethr =  1.87E-11,  avg # of iterations =  2.0

     negative rho (up, down):  1.512E-02 0.000E+00

     Adding external electric field

     Computed dipole along edir(3) :
        Dipole                1.4953 Ry au,          3.8006 Debye
        Dipole field          0.0028 Ry au,

        Potential amp.       -0.2616 Ry
        Total length         46.3494 bohr

     End of self-consistent calculation

          k = 0.0000 0.0000 0.0000 ( 18029 PWs)   bands (ev):

   -55.2019 -55.1648 -55.1541 -55.1253 -55.1200 -55.0832 -55.0804 -55.0455
   -55.0261 -55.0131 -54.9918 -54.9867 -54.9531 -54.8563 -54.1866 -54.1525
   -31.7682 -31.6520 -31.6470 -31.5684 -31.5154 -31.5142 -31.5115 -31.4928
   -31.4431 -31.4395 -31.4116 -31.4095 -31.3992 -31.3822 -31.3691 -31.3635
   -31.3563 -31.3467 -31.3393 -31.3225 -31.3067 -31.3041 -31.2721 -31.2684
   -31.2579 -31.2569 -31.2381 -31.2288 -31.2113 -31.2108 -31.2063 -31.1856
   -31.1855 -31.1823 -31.1753 -31.1728 -31.1395 -31.1298 -31.1151 -31.0982
   -31.0695 -31.0502 -30.5962 -30.5015 -30.4795 -30.4124 -30.3256 -30.2148
   -17.9604 -16.0353 -15.7730 -15.6277 -15.5155 -15.4042 -15.2846 -15.2538
   -15.1341 -15.0580 -14.9240 -14.8977 -14.8755 -14.8518 -14.8399 -14.8273
   -14.7516 -14.7450 -14.7291 -14.7007 -14.6989 -14.6537 -14.6439 -14.6046
   -14.5796 -14.5584 -14.4537 -14.3654 -14.2916 -14.0746 -13.4400 -12.6893
   -12.5718  -9.7027  -6.5986  -6.0882  -4.5813  -3.3738  -3.2450  -3.2256
    -3.1383  -3.1051  -3.0964  -3.0050  -2.9510  -2.7922  -2.6498  -2.6237
    -2.4931  -2.4181  -2.4016  -2.3772  -2.2475  -2.2123  -2.1611  -2.1223
    -2.0630  -2.0328  -2.0088  -1.9931  -1.9620  -1.9528  -1.9277  -1.8386
    -1.7792  -1.6861  -1.6689  -1.6015  -1.5932  -1.5607  -1.5396  -1.4945
    -1.4842  -1.4345  -1.4272  -1.4146  -1.3947  -1.2663  -1.2231  -1.1133
    -1.0521  -0.9645  -0.8439  -0.8036  -0.7896  -0.6989  -0.6900  -0.6580
    -0.5817  -0.5784  -0.5478  -0.4396  -0.3746  -0.3110  -0.2521  -0.2257
    -0.1926  -0.1151  -0.0242   0.0119   0.0286   0.0517   0.1519   0.1869
     0.2426   0.3094   0.3209   0.3341   0.4140   0.4549   0.5302   0.5667
     0.5844   0.6731   0.6995   0.7274   0.7279   0.7657   0.7799   0.8196
     0.8683   0.8951   0.9816   1.0421   1.1025   1.3472   1.3999   1.4057
     1.7320   1.7397   1.8360   2.0195   2.4126   2.4610   3.8945   3.9632
     4.0390   4.0440   4.0664   4.1303   4.3682   4.3912   4.4002   4.4024
     4.4290

[...]

          k = 0.0380-0.0419 0.0000 ( 17876 PWs)   bands (ev):

[...]

          k =-0.0760-0.0000 0.0000 ( 17886 PWs)   bands (ev):

[...]

          k =-0.0760-0.0839 0.0000 ( 17948 PWs)   bands (ev):

   -55.1880 -55.1784 -55.1371 -55.1368 -55.1239 -55.0789 -55.0659 -55.0599
   -55.0174 -55.0103 -55.0072 -54.9702 -54.9698 -54.8574 -54.1697 -54.1693
   -31.5763 -31.5754 -31.5686 -31.4839 -31.4622 -31.4620 -31.4590 -31.4284
   -31.4283 -31.4129 -31.4021 -31.4004 -31.3917 -31.3660 -31.3567 -31.3438
   -31.3428 -31.3390 -31.3357 -31.3300 -31.3282 -31.3222 -31.2831 -31.2798
   -31.2796 -31.2783 -31.2604 -31.2593 -31.2568 -31.2565 -31.2520 -31.2433
   -31.2404 -31.2234 -31.2201 -31.2041 -31.2032 -31.2004 -31.1509 -31.1506
   -31.1260 -31.0739 -30.4922 -30.4919 -30.4088 -30.4085 -30.3691 -30.3690
   -17.9572 -15.5602 -15.4303 -15.4012 -15.2448 -15.2087 -15.1753 -15.1620
   -15.0411 -15.0039 -14.9792 -14.9698 -14.9522 -14.9118 -14.9062 -14.8992
   -14.8287 -14.8095 -14.8052 -14.7829 -14.7247 -14.7158 -14.7119 -14.7043
   -14.6538 -14.6501 -14.5695 -14.5595 -14.5562 -14.3761 -13.4434 -12.6733
   -12.6732  -9.7187  -6.5827  -6.0883  -4.5606  -3.2150  -2.9640  -2.6927
    -2.6878  -2.6598  -2.4588  -2.3960  -2.3654  -2.3598  -2.2625  -2.2260
    -2.2015  -2.1979  -2.1324  -2.1179  -2.0873  -2.0571  -2.0410  -2.0270
    -2.0114  -1.9973  -1.9718  -1.9343  -1.9262  -1.9179  -1.8860  -1.8645
    -1.8415  -1.8191  -1.8057  -1.7872  -1.7613  -1.7387  -1.6020  -1.5703
    -1.5001  -1.4567  -1.4136  -1.4093  -1.3376  -1.3011  -1.2510  -1.2389
    -1.2218  -1.0819  -1.0237  -0.9727  -0.9528  -0.9418  -0.8128  -0.7987
    -0.7255  -0.7080  -0.6917  -0.6163  -0.5660  -0.5278  -0.5142  -0.4209
    -0.4055  -0.3391  -0.2370  -0.2143  -0.2003  -0.1598  -0.1568  -0.1094
    -0.1024  -0.0183   0.0259   0.0610   0.0718   0.1076   0.3005   0.3165
     0.3265   0.4795   0.4955   0.6370   0.6805   0.7471   0.8059   0.8448
     0.9064   0.9436   1.0526   1.0859   1.1015   1.1092   1.1712   1.1831
     1.2459   1.2566   2.1921   2.1928   2.2809   2.2811   4.0404   4.1478
     4.1555   4.1971   4.3170   4.3474   4.4095   4.4368   4.4783   4.4817
     4.5414

     the Fermi energy is     3.9578 ev

!    total energy              =   -2942.84391779 Ry
     estimated scf accuracy    <       0.00000006 Ry
     smearing contrib. (-TS)   =      -0.03707599 Ry
     internal energy E=F+TS    =   -2942.80684180 Ry

     The total energy is F=E-TS. E is the sum of the following terms:
     one-electron contribution =  -23366.27095848 Ry
     hartree contribution      =   11777.30892678 Ry
     xc contribution           =    -487.73776276 Ry
     ewald contribution        =    9133.88873336 Ry
     electric field correction =       0.00421931 Ry

     convergence has been achieved in  65 iterations

     Forces acting on atoms (cartesian axes, Ry/au):

     atom    1 type  1   force =     0.00017538   -0.00032755    0.09330698
     atom    2 type  1   force =    -0.00006120   -0.00042022   -0.17822103
     atom    3 type  2   force =     0.00002737   -0.00032152   -0.02003495
     atom    4 type  2   force =     0.00002174   -0.00183136    0.05924314
     atom    5 type  2   force =    -0.01046116   -0.00026127    0.00864857
     atom    6 type  2   force =     0.01147631    0.00040904    0.00646012
     atom    7 type  1   force =    -0.00100382    0.00212967   -0.01397855
     atom    8 type  1   force =     0.00081626   -0.00094275   -0.00574890
     atom    9 type  2   force =    -0.00009751    0.00012396    0.00000035
     atom   10 type  2   force =    -0.00185551    0.00411378    0.00026964
     atom   11 type  2   force =    -0.00006964   -0.00064819    0.00028479
     atom   12 type  2   force =    -0.00000806   -0.00041875    0.00054006
     atom   13 type  1   force =     0.00004190    0.00008726    0.00031819
     atom   14 type  1   force =    -0.00037574   -0.00000140    0.00007571
     atom   15 type  2   force =     0.00052204    0.00023011   -0.00033424
     atom   16 type  2   force =     0.00032061   -0.00035062   -0.00006860
     atom   17 type  2   force =    -0.00058832   -0.00001892   -0.00003132
     atom   18 type  2   force =     0.00054213   -0.00019231    0.00001234
     atom   19 type  1   force =    -0.00001755   -0.00054282    0.00020517
     atom   20 type  1   force =     0.00068829    0.00007980    0.00092403
     atom   21 type  2   force =     0.00012536   -0.00012632    0.10400368
     atom   22 type  2   force =    -0.00039370    0.00021385   -0.00033044
     atom   23 type  2   force =    -0.07027401   -0.00021814   -0.02686227
     atom   24 type  2   force =     0.07026454    0.00021667   -0.02688591
     atom   25 type  1   force =     0.00007726   -0.00032398    0.09261899
     atom   26 type  1   force =    -0.00003755   -0.00059451   -0.17833534
     atom   27 type  2   force =     0.00013080   -0.00016672   -0.01908931
     atom   28 type  2   force =     0.00005160   -0.00163419    0.05860169
     atom   29 type  2   force =    -0.01106196   -0.00055541    0.00932677
     atom   30 type  2   force =     0.01198236   -0.00001951    0.00721582
     atom   31 type  1   force =    -0.00093366    0.00647386   -0.01504667
     atom   32 type  1   force =     0.00085757    0.00101374   -0.00588863
     atom   33 type  2   force =     0.00017529   -0.00057054   -0.00003545
     atom   34 type  2   force =    -0.00185781   -0.00052250   -0.00049340
     atom   35 type  2   force =    -0.00045051    0.00006839   -0.00043550
     atom   36 type  2   force =     0.00035089   -0.00011161    0.00018135
     atom   37 type  1   force =    -0.00051199   -0.00024581    0.00019451
     atom   38 type  1   force =    -0.00004488   -0.00015421   -0.00009098
     atom   39 type  2   force =     0.00029758   -0.00059253   -0.00000948
     atom   40 type  2   force =    -0.00060309   -0.00051348    0.00025335
     atom   41 type  2   force =    -0.00023445   -0.00073501   -0.00069805
     atom   42 type  2   force =     0.00046436   -0.00008812   -0.00009218
     atom   43 type  1   force =     0.00024280   -0.00019807   -0.00021781
     atom   44 type  1   force =     0.00052069    0.00007565    0.00082938
     atom   45 type  2   force =     0.00013529   -0.00014236    0.10397036
     atom   46 type  2   force =    -0.07027484   -0.00016219   -0.02683491
     atom   47 type  2   force =     0.07024551    0.00025857   -0.02689131
     atom   48 type  3   force =     0.00084395    0.00200757   -0.00025962
     atom   49 type  3   force =    -0.00026254   -0.00096601   -0.00001006
     atom   50 type  4   force =    -0.00225238   -0.00015528    0.00335852
     atom   51 type  5   force =     0.00222963   -0.00055905   -0.00273182
     atom   52 type  5   force =     0.00098222   -0.00064650   -0.00055512
     atom   53 type  5   force =     0.00005400    0.00084686   -0.00089662
     atom   54 type  5   force =     0.00001679   -0.00179329    0.00068802
     atom   55 type  5   force =     0.00009661   -0.00053453   -0.00015312
     atom   56 type  5   force =    -0.00104527    0.00025880   -0.00026992

     Total force =     0.366350     Total SCF correction =     0.000657
  @ DRIVER MODE: Message from server: STATUS
  @ DRIVER MODE: Message from server: GETFORCE
  @ DRIVER MODE: Returning v,forces,stress,ensemble

     Writing output data file ./calc.save/
  @ DRIVER MODE: Message from server: EXIT
  @ DRIVE MODE: Exiting

     General routines

     Parallel routines

   This run was terminated on:   6:21:50  25Aug2021

   JOB DONE.