     Program PWSCF v.6.7GPU starts on 23Sep2021 at  6:28: 7

     R & G space division:  proc/nbgrp/npool/nimage =      10
     Reading input from /storage/home/hcoda1/3/ntian30/research/carbon/CxH_vib/H2O_calc/ads_slab/CH2NHHHO_a/out_0041/pw.inp
Warning: card &CELL ignored
Warning: card   CELL_DYNAMICS='IPI', ignored
Warning: card / ignored

     Current dimensions of program PWSCF are:
     Max number of different atomic species (ntypx) = 10
     Max number of k-points (npk) =  40000
     Max angular momentum in pseudopotentials (lmaxx) =  3
     Presently no symmetry can be used with electric field

     Message from routine cell_base_init:
     DEPRECATED: use true lattice parameter, not A to a.u. conversion factor

     IMPORTANT: XC functional enforced from input :
     Exchange-correlation= BEEF-VDW
                           (   1   4  43  14   2   0   0)
     Any further DFT definition will be discarded
     Please, verify this is what you really want

  @ DRIVER MODE: Connecting to
 qe_1139763_2937325.sched-torque.pace.gatech.edukj7iogme_scratch
  using UNIX socket
  @ DRIVER MODE: Message from server: STATUS
  @ DRIVER MODE: Message from server: INIT
  @ DRIVER MODE: Receiving replica           0          -1
  @ DRIVER MODE: Receiving encoded integer          25
  @ DRIVER MODE:  SCF:  T  FORCE:  T  STRESS:  F  VC:  F  ENSEMBLE:  F
  @ DRIVER MODE:  SCF:  T  FORCE:  T  STRESS:  F  VC:  F  ENSEMBLE:  F

     Using Slab Decomposition

     bravais-lattice index     =            0
     lattice parameter (alat)  =       1.8897  a.u.
     unit-cell volume          =    6658.9804 (a.u.)^3
     number of atoms/cell      =           55
     number of atomic types    =            5
     number of electrons       =       398.00
     number of Kohn-Sham states=          209
     kinetic-energy cutoff     =      29.3995  Ry
     charge density cutoff     =     293.9946  Ry
     scf convergence threshold =      7.3E-08
     mixing beta               =       0.0500
     number of iterations used =            8  plain     mixing
     Exchange-correlation= BEEF-VDW
                           (   1   4  43  14   2   0   0)

     celldm(1)=   1.889726  celldm(2)=   0.000000  celldm(3)=   0.000000
     celldm(4)=   0.000000  celldm(5)=   0.000000  celldm(6)=   0.000000

     crystal axes: (cart. coord. in units of alat)
               a(1) = (   6.579727   0.000000   0.000000 )
               a(2) = (  -0.000775   5.961596   0.000000 )
               a(3) = (   0.000000   0.000000  25.155947 )

     reciprocal axes: (cart. coord. in units 2 pi/alat)
               b(1) = (  0.151982  0.000020  0.000000 )
               b(2) = (  0.000000  0.167740  0.000000 )
               b(3) = (  0.000000  0.000000  0.039752 )

     PseudoPot. # 1 for Ti read from file:
     /storage/coda1/p-amedford6/0/shared/rich_project_chbe-medford/medford-share/data/pseudos_module/espresso/nninc/pbe/van/Ti.UPF
     MD5 check sum: 8e4df49b7f0d34bbd5052bf3f5ea0213
     Pseudo is Ultrasoft, Zval = 12.0
     Generated by new atomic code, or converted to UPF format
     Using radial grid of  851 points,  6 beta functions with:
                l(1) =   0
                l(2) =   0
                l(3) =   1
                l(4) =   1
                l(5) =   2
                l(6) =   2
     Q(r) pseudized with  8 coefficients,  rinner =    1.000   1.000   1.000
                                                       1.000   1.000

     PseudoPot. # 2 for O  read from file:
     /storage/coda1/p-amedford6/0/shared/rich_project_chbe-medford/medford-share/data/pseudos_module/espresso/nninc/pbe/van/O.UPF
     MD5 check sum: 78c19812648e8988a0fe644b0f25305e
     Pseudo is Ultrasoft, Zval =  6.0
     Generated by new atomic code, or converted to UPF format
     Using radial grid of  737 points,  4 beta functions with:
                l(1) =   0
                l(2) =   0
                l(3) =   1
                l(4) =   1
     Q(r) pseudized with  8 coefficients,  rinner =    0.800   0.800   0.800

     PseudoPot. # 3 for N  read from file:
     /storage/coda1/p-amedford6/0/shared/rich_project_chbe-medford/medford-share/data/pseudos_module/espresso/nninc/pbe/van/N.UPF
     MD5 check sum: 90d10febe142ad51ac9d5be1deb811c4
     Pseudo is Ultrasoft, Zval =  5.0
     Generated by new atomic code, or converted to UPF format
     Using radial grid of  729 points,  4 beta functions with:
                l(1) =   0
                l(2) =   0
                l(3) =   1
                l(4) =   1
     Q(r) pseudized with  8 coefficients,  rinner =    0.800   0.800   0.800

     PseudoPot. # 4 for C  read from file:
     /storage/coda1/p-amedford6/0/shared/rich_project_chbe-medford/medford-share/data/pseudos_module/espresso/nninc/pbe/van/C.UPF
     MD5 check sum: 1a69bf6b8db32088f5b2163dbdb77a27
     Pseudo is Ultrasoft, Zval =  4.0
     Generated by new atomic code, or converted to UPF format
     Using radial grid of  721 points,  4 beta functions with:
                l(1) =   0
                l(2) =   0
                l(3) =   1
                l(4) =   1
     Q(r) pseudized with  8 coefficients,  rinner =    0.800   0.800   0.800

     PseudoPot. # 5 for H  read from file:
     /storage/coda1/p-amedford6/0/shared/rich_project_chbe-medford/medford-share/data/pseudos_module/espresso/nninc/pbe/van/H.UPF
     MD5 check sum: b5ee9d7bfd3a09ee7748110bda690ff7
     Pseudo is Ultrasoft, Zval =  1.0
     Generated by new atomic code, or converted to UPF format
     Using radial grid of  615 points,  1 beta functions with:
                l(1) =   0
     Q(r) pseudized with  8 coefficients,  rinner =    0.800

     atomic species   valence    mass     pseudopotential
        Ti1           12.00    47.86700     Ti( 1.00)
        O1             6.00    15.99900     O ( 1.00)
        N1             5.00    14.00700     N ( 1.00)
        C1             4.00    12.01100     C ( 1.00)
        H1             1.00     1.00800     H ( 1.00)

     No symmetry found

   Cartesian axes

     site n.     atom                  positions (alat units)
         1           Ti1 tau(   1) = (   0.0004258   2.9801865   6.0000000  )
         2           Ti1 tau(   2) = (   3.2906075   1.4906267   6.0002472  )
         3           O1  tau(   3) = (   0.0006271   0.0005054   7.9858123  )
         4           O1  tau(   4) = (   3.2906025   0.0005020   7.3038282  )
         5           O1  tau(   5) = (   4.5942328   1.4918067   9.2879030  )
         6           O1  tau(   6) = (   1.9868534   1.4903216   9.2879459  )
         7           Ti1 tau(   7) = (   3.2907910   2.8959150   9.1758416  )
         8           Ti1 tau(   8) = (   0.0015273   1.4827037   9.2680791  )
         9           O1  tau(   9) = (   3.3134935   5.9450930  11.3716456  )
        10           O1  tau(  10) = (   0.0116148   5.9584955  10.6183126  )
        11           O1  tau(  11) = (   1.3009377   1.4930576  12.6823270  )
        12           O1  tau(  12) = (   5.3410967   1.4903504  12.6863499  )
        13           Ti1 tau(  13) = (   0.0342001   2.9430440  12.5112676  )
        14           Ti1 tau(  14) = (   3.3297267   1.2953541  12.7310232  )
        15           O1  tau(  15) = (   0.0493764   5.9086628  14.6689690  )
        16           O1  tau(  16) = (   3.3288597   0.0714287  14.0177558  )
        17           O1  tau(  17) = (   4.6153468   1.5975901  16.1787110  )
        18           O1  tau(  18) = (   2.0592605   1.5839887  16.0909148  )
        19           Ti1 tau(  19) = (   3.3163104   3.0362344  15.7082748  )
        20           Ti1 tau(  20) = (   0.1120434   1.3330501  15.8434463  )
        21           O1  tau(  21) = (   3.2904802   0.0005063   4.7018136  )
        22           O1  tau(  22) = (   0.0690725   0.1374024  17.2087871  )
        23           O1  tau(  23) = (   1.3043587   1.4918075   6.0039043  )
        24           O1  tau(  24) = (   5.2767064   1.4903225   6.0039473  )
        25           Ti1 tau(  25) = (   0.0000382   5.9609847   6.0000000  )
        26           Ti1 tau(  26) = (   3.2902200   4.4714249   6.0002472  )
        27           O1  tau(  27) = (   0.0002396   2.9813036   7.9858123  )
        28           O1  tau(  28) = (   3.2902150   2.9813002   7.3038282  )
        29           O1  tau(  29) = (   4.5938453   4.4726049   9.2879030  )
        30           O1  tau(  30) = (   1.9864658   4.4711199   9.2879459  )
        31           Ti1 tau(  31) = (   3.2891106   5.8743827   9.1763621  )
        32           Ti1 tau(  32) = (   0.0006254   4.4649316   9.2693709  )
        33           O1  tau(  33) = (   3.3165203   3.0043058  11.3207354  )
        34           O1  tau(  34) = (   0.0092240   2.9805883  10.6323155  )
        35           O1  tau(  35) = (   1.3050136   4.4578615  12.6552238  )
        36           O1  tau(  36) = (   5.3353050   4.4620295  12.6594116  )
        37           Ti1 tau(  37) = (   0.0330755   5.9154870  12.5003292  )
        38           Ti1 tau(  38) = (   3.3291962   4.3779952  12.4454333  )
        39           O1  tau(  39) = (   0.0233967   3.0352723  14.9286183  )
        40           O1  tau(  40) = (   3.3272303   3.0068708  13.9347379  )
        41           O1  tau(  41) = (   4.5962338   4.4808180  16.1645836  )
        42           O1  tau(  42) = (   2.0526765   4.4464907  16.1857218  )
        43           Ti1 tau(  43) = (   3.4309460   0.0633718  16.3216252  )
        44           Ti1 tau(  44) = (   0.1034465   4.5521166  15.9739525  )
        45           O1  tau(  45) = (   3.2900926   2.9813045   4.7018136  )
        46           O1  tau(  46) = (   1.3039711   4.4726057   6.0039043  )
        47           O1  tau(  47) = (   5.2763189   4.4711207   6.0039473  )
        48           N1  tau(  48) = (   6.1597698   3.4535781  18.2989460  )
        49           C1  tau(  49) = (   0.6557129   3.1470513  19.0816575  )
        50           H1  tau(  50) = (   1.2037892   3.9510289  19.5415217  )
        51           H1  tau(  51) = (   1.0557295   2.1499681  19.0337936  )
        52           H1  tau(  52) = (   5.6880836   4.3337965  18.4846543  )
        53           H1  tau(  53) = (   5.5056413   2.7003945  18.1017309  )
        54           O1  tau(  54) = (   3.2744276   0.0793712  18.1657868  )
        55           H1  tau(  55) = (   2.3604784   5.9194474  18.4805682  )

     number of k points=    10  Fermi-Dirac smearing, width (Ry)=  0.0073
                       cart. coord. in units 2pi/alat
        k(    1) = (   0.0000000   0.0000000   0.0000000), wk =   0.1250000
        k(    2) = (   0.0000000   0.0419351   0.0000000), wk =   0.2500000
        k(    3) = (   0.0000000  -0.0838702   0.0000000), wk =   0.1250000
        k(    4) = (   0.0379955   0.0000049   0.0000000), wk =   0.2500000
        k(    5) = (   0.0379955   0.0419400   0.0000000), wk =   0.2500000
        k(    6) = (   0.0379955  -0.0838652   0.0000000), wk =   0.2500000
        k(    7) = (   0.0379955  -0.0419301   0.0000000), wk =   0.2500000
        k(    8) = (  -0.0759910  -0.0000099   0.0000000), wk =   0.1250000
        k(    9) = (  -0.0759910   0.0419252   0.0000000), wk =   0.2500000
        k(   10) = (  -0.0759910  -0.0838800   0.0000000), wk =   0.1250000

     Initial potential from superposition of free atoms

     starting charge  381.99915, renormalised to  398.00000

     negative rho (up, down):  1.645E-02 0.000E+00

     %%%%%%%%%%%%%%%%%%%%%%%%%%%%%%%%%%%%%%%%%%%%%%%%%%%%%%%%%%%%%%%%%%%%%%%%
     %                                                                      %
     % You are using vdW-DF, which was implemented by the Thonhauser group. %
     % Please cite the following two papers that made this development      %
     % possible and the two reviews that describe the various versions:     %
     %                                                                      %
     %   T. Thonhauser et al., PRL 115, 136402 (2015).                      %
     %   T. Thonhauser et al., PRB 76, 125112 (2007).                       %
     %   K. Berland et al., Rep. Prog. Phys. 78, 066501 (2015).             %
     %   D.C. Langreth et al., J. Phys.: Condens. Matter 21, 084203 (2009). %
     %                                                                      %
     %                                                                      %
     % If you are calculating the stress with vdW-DF, please also cite:     %
     %                                                                      %
     %   R. Sabatini et al., J. Phys.: Condens. Matter 24, 424209 (2012).   %
     %                                                                      %
     %%%%%%%%%%%%%%%%%%%%%%%%%%%%%%%%%%%%%%%%%%%%%%%%%%%%%%%%%%%%%%%%%%%%%%%%

     Adding external electric field

     Computed dipole along edir(3) :
        Dipole              -10.2274 Ry au,        -25.9955 Debye
        Dipole field         -0.0193 Ry au,

        Potential amp.        1.7891 Ry
        Total length         46.3494 bohr

     Starting wfcs are  301 atomic wfcs
  @ DRIVER MODE: Message from server: STATUS
  @ DRIVER MODE: Message from server: POSDATA
  @ DRIVER MODE: Reading and sharing cell
  @ DRIVER MODE: Reading and sharing positions
  @ DRIVER MODE: Received positions

     Self-consistent Calculation

     iteration #  1     ecut=    29.40 Ry     beta= 0.05
     Davidson diagonalization with overlap
     c_bands:  1 eigenvalues not converged
     c_bands:  3 eigenvalues not converged
     c_bands:  2 eigenvalues not converged
     c_bands:  1 eigenvalues not converged
     c_bands:  4 eigenvalues not converged
     c_bands:  4 eigenvalues not converged
     c_bands:  4 eigenvalues not converged
     c_bands:  2 eigenvalues not converged
     c_bands:  3 eigenvalues not converged
     c_bands:  4 eigenvalues not converged
     ethr =  1.00E-05,  avg # of iterations = 20.0

[...]

     total energy              =   -2477.31350275 Ry
     estimated scf accuracy    <    5313.83002743 Ry

     iteration #  2     ecut=    29.40 Ry     beta= 0.05
     Davidson diagonalization with overlap
     ethr =  1.00E-02,  avg # of iterations = 23.5

[...]

     iteration # 56     ecut=    29.40 Ry     beta= 0.05
     Davidson diagonalization with overlap
     c_bands:  1 eigenvalues not converged
     ethr =  3.99E-07,  avg # of iterations = 11.3

[...]

     total energy              =   -2953.88662448 Ry
     estimated scf accuracy    <       0.00000009 Ry

     iteration # 81     ecut=    29.40 Ry     beta= 0.05
     Davidson diagonalization with overlap
     ethr =  2.19E-11,  avg # of iterations =  5.2

     negative rho (up, down):  1.574E-02 0.000E+00

     Adding external electric field

     Computed dipole along edir(3) :
        Dipole                0.8629 Ry au,          2.1932 Debye
        Dipole field          0.0016 Ry au,

        Potential amp.       -0.1509 Ry
        Total length         46.3494 bohr

     End of self-consistent calculation

          k = 0.0000 0.0000 0.0000 ( 18029 PWs)   bands (ev):

   -55.7554 -55.7083 -55.6742 -55.5767 -55.5380 -55.5371 -55.5221 -55.5035
   -55.4948 -55.4446 -55.4438 -55.3314 -55.3034 -55.2577 -54.6867 -54.6527
   -32.1941 -32.0750 -32.0617 -32.0560 -32.0408 -32.0224 -31.9988 -31.9796
   -31.9777 -31.9541 -31.9383 -31.8610 -31.8457 -31.8444 -31.8235 -31.8165
   -31.8160 -31.7860 -31.7658 -31.7399 -31.7387 -31.7304 -31.7209 -31.7173
   -31.7155 -31.7094 -31.6813 -31.6720 -31.6643 -31.6629 -31.6561 -31.6507
   -31.6398 -31.6319 -31.6091 -31.5998 -31.5259 -31.5238 -31.5033 -31.4704
   -31.4624 -31.4560 -31.0929 -31.0061 -30.9837 -30.9104 -30.8240 -30.7122
   -16.8765 -16.6308 -16.3731 -16.2075 -15.9843 -15.9319 -15.8715 -15.6993
   -15.5840 -15.5290 -15.3445 -15.2742 -15.2484 -15.2354 -15.2291 -15.2136
   -15.2002 -15.1574 -15.1397 -15.1378 -15.1322 -15.0971 -15.0702 -15.0286
   -14.9801 -14.9455 -14.8501 -14.7947 -14.7548 -14.5088 -14.4784 -13.1851
   -13.0686  -9.7953  -7.0594  -5.3335  -4.1895  -3.7361  -3.6225  -3.6117
    -3.5498  -3.4955  -3.3331  -3.2170  -3.1363  -3.1201  -2.9677  -2.8543
    -2.8087  -2.7428  -2.7079  -2.6687  -2.6312  -2.6200  -2.5881  -2.4969
    -2.4748  -2.4607  -2.3988  -2.3732  -2.3061  -2.2836  -2.2516  -2.2394
    -2.1318  -2.0784  -2.0459  -2.0378  -2.0216  -1.9934  -1.9667  -1.9601
    -1.9316  -1.8489  -1.7964  -1.7387  -1.7123  -1.6964  -1.3978  -1.3215
    -1.2869  -1.2504  -1.1591  -1.1417  -1.1071  -1.0943  -1.0754  -1.0657
    -0.9532  -0.8924  -0.8255  -0.7941  -0.7505  -0.7222  -0.6047  -0.5604
    -0.5021  -0.4617  -0.4490  -0.4242  -0.3373  -0.3104  -0.2957  -0.1982
    -0.1502  -0.0854  -0.0187  -0.0032   0.0461   0.0771   0.1104   0.1526
     0.2103   0.2433   0.2603   0.3030   0.3438   0.3544   0.4125   0.4289
     0.5244   0.6091   0.6281   0.6890   0.7883   0.8336   0.9525   1.0162
     1.2862   1.3401   1.3536   1.5316   1.9074   1.9530   3.3692   3.4055
     3.5224   3.5355   3.6137   3.6233   3.7074   3.8625   3.9158   4.0258
     4.0596

[...]

          k = 0.0380-0.0419 0.0000 ( 17876 PWs)   bands (ev):

[...]

          k =-0.0760-0.0000 0.0000 ( 17886 PWs)   bands (ev):

[...]

          k =-0.0760-0.0839 0.0000 ( 17948 PWs)   bands (ev):

   -55.7546 -55.6914 -55.6909 -55.5660 -55.5481 -55.5227 -55.5208 -55.5197
   -55.4885 -55.4501 -55.4421 -55.3276 -55.3058 -55.2614 -54.6701 -54.6692
   -32.0198 -32.0096 -32.0092 -32.0048 -31.9845 -31.9840 -31.9825 -31.9686
   -31.9079 -31.8837 -31.8661 -31.8534 -31.8488 -31.8286 -31.8133 -31.8114
   -31.8107 -31.8075 -31.8040 -31.7986 -31.7733 -31.7471 -31.7380 -31.7319
   -31.7236 -31.7221 -31.7074 -31.7057 -31.7040 -31.6958 -31.6952 -31.6756
   -31.6731 -31.6685 -31.6386 -31.6066 -31.5881 -31.5525 -31.5298 -31.5259
   -31.5108 -31.4660 -30.9967 -30.9960 -30.9064 -30.9051 -30.8676 -30.8668
   -16.8580 -16.6214 -16.0459 -15.7953 -15.7043 -15.6940 -15.5614 -15.4942
   -15.4836 -15.4416 -15.4204 -15.3986 -15.3932 -15.3690 -15.3276 -15.2752
   -15.2453 -15.2189 -15.2125 -15.1730 -15.1655 -15.1465 -15.1446 -15.1230
   -15.0726 -15.0323 -15.0187 -15.0026 -14.8180 -14.7668 -14.6319 -13.1706
   -13.1702  -9.7959  -7.0513  -5.3178  -4.1749  -3.3609  -3.1703  -3.0060
    -2.9358  -2.8791  -2.7859  -2.7443  -2.7292  -2.6835  -2.6611  -2.6382
    -2.5584  -2.5427  -2.5142  -2.5032  -2.4737  -2.4587  -2.4524  -2.4426
    -2.3990  -2.3900  -2.3797  -2.3479  -2.3404  -2.3295  -2.2909  -2.2691
    -2.2594  -2.2488  -2.2001  -2.1761  -2.1013  -2.0585  -1.9615  -1.8785
    -1.8679  -1.8447  -1.7973  -1.7855  -1.7431  -1.7271  -1.6837  -1.6095
    -1.5251  -1.4622  -1.3460  -1.3042  -1.2909  -1.2332  -1.2151  -1.1585
    -1.1283  -1.0976  -1.0724  -0.9643  -0.9336  -0.8806  -0.7601  -0.6944
    -0.6820  -0.6595  -0.6494  -0.6129  -0.5922  -0.5773  -0.5498  -0.4641
    -0.4281  -0.4139  -0.4028  -0.3694  -0.2399  -0.1182  -0.0766  -0.0204
     0.0511   0.0639   0.1209   0.1586   0.3170   0.3506   0.4447   0.4623
     0.4837   0.5962   0.6029   0.6792   0.7263   0.7723   0.8000   0.8320
     0.8371   0.8769   1.7014   1.7098   1.7733   1.7735   3.3787   3.7528
     3.8546   3.8699   3.8870   3.9282   3.9420   3.9707   3.9766   4.0405
     4.0588

     the Fermi energy is     3.4112 ev

!    total energy              =   -2953.88663402 Ry
     estimated scf accuracy    <       0.00000004 Ry
     smearing contrib. (-TS)   =      -0.02900674 Ry
     internal energy E=F+TS    =   -2953.85762728 Ry

     The total energy is F=E-TS. E is the sum of the following terms:
     one-electron contribution =  -23673.13828196 Ry
     hartree contribution      =   11927.58217930 Ry
     xc contribution           =    -488.85515136 Ry
     ewald contribution        =    9280.55222167 Ry
     electric field correction =       0.00140507 Ry

     convergence has been achieved in  81 iterations

     Forces acting on atoms (cartesian axes, Ry/au):

     atom    1 type  1   force =    -0.00001728   -0.00028909    0.09377544
     atom    2 type  1   force =    -0.00009706    0.00048761   -0.17553445
     atom    3 type  2   force =     0.00011060   -0.00024460   -0.02088648
     atom    4 type  2   force =     0.00001271   -0.00197650    0.05496277
     atom    5 type  2   force =    -0.00644512   -0.00243933    0.00277008
     atom    6 type  2   force =     0.00860570   -0.00177075    0.00361014
     atom    7 type  1   force =     0.00059105   -0.00336415    0.00974296
     atom    8 type  1   force =    -0.00066495    0.00048489    0.00113072
     atom    9 type  2   force =    -0.00001193    0.00057615   -0.00103531
     atom   10 type  2   force =    -0.00024936    0.00115230   -0.00784034
     atom   11 type  2   force =    -0.00016591   -0.00000940    0.00015411
     atom   12 type  2   force =    -0.00036979   -0.00017463    0.00001541
     atom   13 type  1   force =    -0.00028121   -0.00000280   -0.00040874
     atom   14 type  1   force =    -0.00061977    0.00031622    0.00057411
     atom   15 type  2   force =    -0.00004141    0.00108606   -0.00001998
     atom   16 type  2   force =    -0.00011743    0.00014507   -0.00059884
     atom   17 type  2   force =    -0.00019954    0.00090640   -0.00048455
     atom   18 type  2   force =    -0.00005344    0.00094181   -0.00038457
     atom   19 type  1   force =     0.00012047   -0.00014024    0.00055884
     atom   20 type  1   force =    -0.00012708   -0.00035624   -0.00002407
     atom   21 type  2   force =     0.00001756    0.00008613    0.10329170
     atom   22 type  2   force =    -0.00003000    0.00022706    0.00013761
     atom   23 type  2   force =    -0.07187884   -0.00017300   -0.02714109
     atom   24 type  2   force =     0.07174442    0.00029980   -0.02722122
     atom   25 type  1   force =     0.00009447   -0.00020433    0.09356791
     atom   26 type  1   force =    -0.00025229   -0.00137887   -0.17567078
     atom   27 type  2   force =     0.00015212   -0.00016039   -0.01963929
     atom   28 type  2   force =     0.00011170   -0.00028404    0.05020499
     atom   29 type  2   force =    -0.00550780    0.00259531    0.00166093
     atom   30 type  2   force =     0.00765617    0.00268985    0.00255271
     atom   31 type  1   force =     0.00070681    0.00798114   -0.00200617
     atom   32 type  1   force =    -0.00070873   -0.00206877    0.00023062
     atom   33 type  2   force =    -0.00017231   -0.00073142   -0.00016922
     atom   34 type  2   force =     0.00011494   -0.00173106   -0.00876664
     atom   35 type  2   force =    -0.00007232   -0.00011799   -0.00059444
     atom   36 type  2   force =    -0.00016175   -0.00019034   -0.00040026
     atom   37 type  1   force =     0.00045093    0.00067190   -0.00069601
     atom   38 type  1   force =    -0.00062237   -0.00048215    0.00027827
     atom   39 type  2   force =    -0.00001165    0.00012964    0.00024214
     atom   40 type  2   force =     0.00011095    0.00003021    0.00057998
     atom   41 type  2   force =    -0.00041831   -0.00060254   -0.00007082
     atom   42 type  2   force =     0.00042452   -0.00016703   -0.00084968
     atom   43 type  1   force =     0.00017522    0.00040373   -0.00579512
     atom   44 type  1   force =    -0.00007573   -0.00134492    0.00016309
     atom   45 type  2   force =     0.00001705   -0.00005396    0.10307006
     atom   46 type  2   force =    -0.07188961   -0.00002324   -0.02715443
     atom   47 type  2   force =     0.07179680    0.00039824   -0.02724182
     atom   48 type  3   force =     0.00015154    0.00006072   -0.00082149
     atom   49 type  4   force =     0.00121287    0.00009681    0.00120150
     atom   50 type  5   force =    -0.00042572    0.00014461    0.00014944
     atom   51 type  5   force =    -0.00002942   -0.00053073    0.00061084
     atom   52 type  5   force =     0.00003411    0.00055565   -0.00063561
     atom   53 type  5   force =    -0.00061865   -0.00110385    0.00000322
     atom   54 type  2   force =    -0.00767156   -0.00133820    0.00826365
     atom   55 type  5   force =     0.00559564    0.00098721   -0.00141182

     Total force =     0.362322     Total SCF correction =     0.000438
  @ DRIVER MODE: Message from server: STATUS
  @ DRIVER MODE: Message from server: GETFORCE
  @ DRIVER MODE: Returning v,forces,stress,ensemble

     Writing output data file ./calc.save/
  @ DRIVER MODE: Message from server: EXIT
  @ DRIVE MODE: Exiting

     General routines

     Parallel routines

   This run was terminated on:   6:49:25  23Sep2021

   JOB DONE.