     Program PWSCF v.6.7GPU starts on 15Sep2021 at 18:55:31

     R & G space division:  proc/nbgrp/npool/nimage =      10
     Reading input from /storage/home/hcoda1/3/ntian30/research/carbon/CxH_vib/H2O_calc/ads_slab/CHOH2O_a/out_0011/pw.inp
Warning: card &CELL ignored
Warning: card   CELL_DYNAMICS='IPI', ignored
Warning: card / ignored

     Current dimensions of program PWSCF are:
     Max number of different atomic species (ntypx) = 10
     Max number of k-points (npk) =  40000
     Max angular momentum in pseudopotentials (lmaxx) =  3
     Presently no symmetry can be used with electric field

     Message from routine cell_base_init:
     DEPRECATED: use true lattice parameter, not A to a.u. conversion factor

     IMPORTANT: XC functional enforced from input :
     Exchange-correlation= BEEF-VDW
                           (   1   4  43  14   2   0   0)
     Any further DFT definition will be discarded
     Please, verify this is what you really want

  @ DRIVER MODE: Connecting to
 qe_1139763_2852631.sched-torque.pace.gatech.eduzewu8wgt_scratch
  using UNIX socket
  @ DRIVER MODE: Message from server: STATUS
  @ DRIVER MODE: Message from server: INIT
  @ DRIVER MODE: Receiving replica           0          -1
  @ DRIVER MODE: Receiving encoded integer          25
  @ DRIVER MODE:  SCF:  T  FORCE:  T  STRESS:  F  VC:  F  ENSEMBLE:  F
  @ DRIVER MODE:  SCF:  T  FORCE:  T  STRESS:  F  VC:  F  ENSEMBLE:  F

     Using Slab Decomposition

     bravais-lattice index     =            0
     lattice parameter (alat)  =       1.8897  a.u.
     unit-cell volume          =    6658.9804 (a.u.)^3
     number of atoms/cell      =           53
     number of atomic types    =            4
     number of electrons       =       397.00
     number of Kohn-Sham states=          208
     kinetic-energy cutoff     =      29.3995  Ry
     charge density cutoff     =     293.9946  Ry
     scf convergence threshold =      7.3E-08
     mixing beta               =       0.0500
     number of iterations used =            8  plain     mixing
     Exchange-correlation= BEEF-VDW
                           (   1   4  43  14   2   0   0)

     celldm(1)=   1.889726  celldm(2)=   0.000000  celldm(3)=   0.000000
     celldm(4)=   0.000000  celldm(5)=   0.000000  celldm(6)=   0.000000

     crystal axes: (cart. coord. in units of alat)
               a(1) = (   6.579727   0.000000   0.000000 )
               a(2) = (  -0.000775   5.961596   0.000000 )
               a(3) = (   0.000000   0.000000  25.155947 )

     reciprocal axes: (cart. coord. in units 2 pi/alat)
               b(1) = (  0.151982  0.000020  0.000000 )
               b(2) = (  0.000000  0.167740  0.000000 )
               b(3) = (  0.000000  0.000000  0.039752 )

     PseudoPot. # 1 for O  read from file:
     /storage/coda1/p-amedford6/0/shared/rich_project_chbe-medford/medford-share/data/pseudos_module/espresso/nninc/pbe/van/O.UPF
     MD5 check sum: 78c19812648e8988a0fe644b0f25305e
     Pseudo is Ultrasoft, Zval =  6.0
     Generated by new atomic code, or converted to UPF format
     Using radial grid of  737 points,  4 beta functions with:
                l(1) =   0
                l(2) =   0
                l(3) =   1
                l(4) =   1
     Q(r) pseudized with  8 coefficients,  rinner =    0.800   0.800   0.800

     PseudoPot. # 2 for Ti read from file:
     /storage/coda1/p-amedford6/0/shared/rich_project_chbe-medford/medford-share/data/pseudos_module/espresso/nninc/pbe/van/Ti.UPF
     MD5 check sum: 8e4df49b7f0d34bbd5052bf3f5ea0213
     Pseudo is Ultrasoft, Zval = 12.0
     Generated by new atomic code, or converted to UPF format
     Using radial grid of  851 points,  6 beta functions with:
                l(1) =   0
                l(2) =   0
                l(3) =   1
                l(4) =   1
                l(5) =   2
                l(6) =   2
     Q(r) pseudized with  8 coefficients,  rinner =    1.000   1.000   1.000
                                                       1.000   1.000

     PseudoPot. # 3 for C  read from file:
     /storage/coda1/p-amedford6/0/shared/rich_project_chbe-medford/medford-share/data/pseudos_module/espresso/nninc/pbe/van/C.UPF
     MD5 check sum: 1a69bf6b8db32088f5b2163dbdb77a27
     Pseudo is Ultrasoft, Zval =  4.0
     Generated by new atomic code, or converted to UPF format
     Using radial grid of  721 points,  4 beta functions with:
                l(1) =   0
                l(2) =   0
                l(3) =   1
                l(4) =   1
     Q(r) pseudized with  8 coefficients,  rinner =    0.800   0.800   0.800

     PseudoPot. # 4 for H  read from file:
     /storage/coda1/p-amedford6/0/shared/rich_project_chbe-medford/medford-share/data/pseudos_module/espresso/nninc/pbe/van/H.UPF
     MD5 check sum: b5ee9d7bfd3a09ee7748110bda690ff7
     Pseudo is Ultrasoft, Zval =  1.0
     Generated by new atomic code, or converted to UPF format
     Using radial grid of  615 points,  1 beta functions with:
                l(1) =   0
     Q(r) pseudized with  8 coefficients,  rinner =    0.800

     atomic species   valence    mass     pseudopotential
        O1             6.00    15.99900     O ( 1.00)
        Ti1           12.00    47.86700     Ti( 1.00)
        C1             4.00    12.01100     C ( 1.00)
        H1             1.00     1.00800     H ( 1.00)

     No symmetry found

   Cartesian axes

     site n.     atom                  positions (alat units)
         1           O1  tau(   1) = (   3.2904802   0.0005063   4.7018136  )
         2           O1  tau(   2) = (   3.2900926   2.9813045   4.7018136  )
         3           Ti1 tau(   3) = (   0.0004258   2.9801865   6.0000000  )
         4           Ti1 tau(   4) = (   0.0000382   5.9609847   6.0000000  )
         5           Ti1 tau(   5) = (   3.2906075   1.4906267   6.0002472  )
         6           Ti1 tau(   6) = (   3.2902200   4.4714249   6.0002472  )
         7           O1  tau(   7) = (   1.3043587   1.4918075   6.0039043  )
         8           O1  tau(   8) = (   1.3039711   4.4726057   6.0039043  )
         9           O1  tau(   9) = (   5.2767064   1.4903225   6.0039473  )
        10           O1  tau(  10) = (   5.2763189   4.4711207   6.0039473  )
        11           O1  tau(  11) = (   3.2906025   0.0005020   7.3038282  )
        12           O1  tau(  12) = (   3.2902150   2.9813002   7.3038282  )
        13           O1  tau(  13) = (   0.0006271   0.0005054   7.9858123  )
        14           O1  tau(  14) = (   0.0002396   2.9813036   7.9858123  )
        15           Ti1 tau(  15) = (   3.2898052   0.0549011   9.1556235  )
        16           Ti1 tau(  16) = (   3.3203827   3.0319468   9.1649589  )
        17           Ti1 tau(  17) = (   0.0233352   4.5284096   9.2575609  )
        18           Ti1 tau(  18) = (   0.0173867   1.6076536   9.3607995  )
        19           O1  tau(  19) = (   4.5942328   1.4918067   9.2879030  )
        20           O1  tau(  20) = (   4.5938453   4.4726049   9.2879030  )
        21           O1  tau(  21) = (   1.9868534   1.4903216   9.2879459  )
        22           O1  tau(  22) = (   1.9864658   4.4711199   9.2879459  )
        23           O1  tau(  23) = (   0.0034721   0.0125384  10.6021848  )
        24           O1  tau(  24) = (   0.0020335   2.9928551  10.5785608  )
        25           O1  tau(  25) = (   3.2937812   2.9995440  11.3622203  )
        26           O1  tau(  26) = (   3.2898347   0.0201518  11.3605052  )
        27           Ti1 tau(  27) = (   0.0300534   0.0302837  12.4945235  )
        28           Ti1 tau(  28) = (   3.3347356   4.5017157  12.5123549  )
        29           Ti1 tau(  29) = (   3.3349302   1.5071924  12.5110355  )
        30           Ti1 tau(  30) = (   0.0295963   3.0145660  12.7881340  )
        31           O1  tau(  31) = (   1.2797855   4.4923438  12.6426172  )
        32           O1  tau(  32) = (   1.2799313   1.5104473  12.6443552  )
        33           O1  tau(  33) = (   5.2866386   4.4922094  12.6434695  )
        34           O1  tau(  34) = (   5.2866683   1.5083124  12.6439979  )
        35           O1  tau(  35) = (   3.2814828   3.0070543  13.9178409  )
        36           O1  tau(  36) = (   3.2867003   0.0227894  13.9786966  )
        37           O1  tau(  37) = (   0.0021618   0.0175046  14.6784646  )
        38           O1  tau(  38) = (   0.0002945   3.0143855  14.7103493  )
        39           Ti1 tau(  39) = (   3.2869621   3.0144872  15.7052805  )
        40           Ti1 tau(  40) = (   3.3044863   0.0423327  15.8215216  )
        41           Ti1 tau(  41) = (   0.0135451   4.5796903  15.9522020  )
        42           Ti1 tau(  42) = (   0.0105102   1.3838334  15.9764479  )
        43           O1  tau(  43) = (   4.5519026   4.4709862  16.0573678  )
        44           O1  tau(  44) = (   4.5564327   1.5473262  16.0430495  )
        45           O1  tau(  45) = (   2.0152543   1.5518810  16.0555283  )
        46           O1  tau(  46) = (   2.0123771   4.4621050  16.0713562  )
        47           O1  tau(  47) = (   0.0008539   0.0298781  17.1953024  )
        48           O1  tau(  48) = (   6.5358978   3.0350243  17.4695059  )
        49           C1  tau(  49) = (   6.3916590   3.0774531  18.7259330  )
        50           H1  tau(  50) = (   6.4332689   2.0249999  19.1325638  )
        51           O1  tau(  51) = (   3.2941481   0.0813851  18.1811625  )
        52           H1  tau(  52) = (   4.0521942   5.5777154  18.5714528  )
        53           H1  tau(  53) = (   2.4879692   5.6555715  18.5615442  )

     number of k points=    10  Fermi-Dirac smearing, width (Ry)=  0.0073
                       cart. coord. in units 2pi/alat
        k(    1) = (   0.0000000   0.0000000   0.0000000), wk =   0.1250000
        k(    2) = (   0.0000000   0.0419351   0.0000000), wk =   0.2500000
        k(    3) = (   0.0000000  -0.0838702   0.0000000), wk =   0.1250000
        k(    4) = (   0.0379955   0.0000049   0.0000000), wk =   0.2500000
        k(    5) = (   0.0379955   0.0419400   0.0000000), wk =   0.2500000
        k(    6) = (   0.0379955  -0.0838652   0.0000000), wk =   0.2500000
        k(    7) = (   0.0379955  -0.0419301   0.0000000), wk =   0.2500000
        k(    8) = (  -0.0759910  -0.0000099   0.0000000), wk =   0.1250000
        k(    9) = (  -0.0759910   0.0419252   0.0000000), wk =   0.2500000
        k(   10) = (  -0.0759910  -0.0838800   0.0000000), wk =   0.1250000

     Initial potential from superposition of free atoms

     starting charge  380.99918, renormalised to  397.00000

     negative rho (up, down):  1.752E-02 0.000E+00

     %%%%%%%%%%%%%%%%%%%%%%%%%%%%%%%%%%%%%%%%%%%%%%%%%%%%%%%%%%%%%%%%%%%%%%%%
     %                                                                      %
     % You are using vdW-DF, which was implemented by the Thonhauser group. %
     % Please cite the following two papers that made this development      %
     % possible and the two reviews that describe the various versions:     %
     %                                                                      %
     %   T. Thonhauser et al., PRL 115, 136402 (2015).                      %
     %   T. Thonhauser et al., PRB 76, 125112 (2007).                       %
     %   K. Berland et al., Rep. Prog. Phys. 78, 066501 (2015).             %
     %   D.C. Langreth et al., J. Phys.: Condens. Matter 21, 084203 (2009). %
     %                                                                      %
     %                                                                      %
     % If you are calculating the stress with vdW-DF, please also cite:     %
     %                                                                      %
     %   R. Sabatini et al., J. Phys.: Condens. Matter 24, 424209 (2012).   %
     %                                                                      %
     %%%%%%%%%%%%%%%%%%%%%%%%%%%%%%%%%%%%%%%%%%%%%%%%%%%%%%%%%%%%%%%%%%%%%%%%

     Adding external electric field

     Computed dipole along edir(3) :
        Dipole               -8.9459 Ry au,        -22.7381 Debye
        Dipole field         -0.0169 Ry au,

        Potential amp.        1.5649 Ry
        Total length         46.3494 bohr

     Starting wfcs are  299 atomic wfcs
  @ DRIVER MODE: Message from server: STATUS
  @ DRIVER MODE: Message from server: POSDATA
  @ DRIVER MODE: Reading and sharing cell
  @ DRIVER MODE: Reading and sharing positions
  @ DRIVER MODE: Received positions

     Self-consistent Calculation

     iteration #  1     ecut=    29.40 Ry     beta= 0.05
     Davidson diagonalization with overlap
     c_bands:  1 eigenvalues not converged
     c_bands:  1 eigenvalues not converged
     c_bands:  1 eigenvalues not converged
     c_bands:  1 eigenvalues not converged
     c_bands:  2 eigenvalues not converged
     ethr =  1.00E-05,  avg # of iterations = 19.3

[...]

     total energy              =   -2583.15189599 Ry
     estimated scf accuracy    <    4233.57910784 Ry

     iteration #  2     ecut=    29.40 Ry     beta= 0.05
     Davidson diagonalization with overlap
     ethr =  1.00E-02,  avg # of iterations = 24.1

[...]

     iteration # 78     ecut=    29.40 Ry     beta= 0.05
     Davidson diagonalization with overlap
     c_bands:  1 eigenvalues not converged
     ethr =  3.42E-11,  avg # of iterations = 10.2

[...]

     total energy              =   -2963.67518601 Ry
     estimated scf accuracy    <       0.00000008 Ry

     iteration # 79     ecut=    29.40 Ry     beta= 0.05
     Davidson diagonalization with overlap
     ethr =  2.07E-11,  avg # of iterations = 13.5

     negative rho (up, down):  1.624E-02 0.000E+00

     Adding external electric field

     Computed dipole along edir(3) :
        Dipole                0.4729 Ry au,          1.2020 Debye
        Dipole field          0.0009 Ry au,

        Potential amp.       -0.0827 Ry
        Total length         46.3494 bohr

     End of self-consistent calculation

          k = 0.0000 0.0000 0.0000 ( 18029 PWs)   bands (ev):

   -56.0069 -55.9700 -55.9699 -55.9491 -55.9338 -55.8899 -55.8558 -55.8226
   -55.7890 -55.7857 -55.7734 -55.7497 -55.7399 -55.6797 -55.0158 -54.9817
   -32.5231 -32.4777 -32.4025 -32.3668 -32.3582 -32.3026 -32.2829 -32.2722
   -32.2519 -32.2393 -32.2008 -32.1947 -32.1848 -32.1653 -32.1652 -32.1522
   -32.1262 -32.1121 -32.0996 -32.0983 -32.0788 -32.0699 -32.0645 -32.0577
   -32.0453 -32.0367 -32.0327 -32.0209 -32.0047 -31.9952 -31.9911 -31.9798
   -31.9611 -31.9535 -31.9489 -31.9482 -31.9179 -31.9000 -31.8925 -31.8789
   -31.8662 -31.8621 -31.4252 -31.3294 -31.3070 -31.2417 -31.1556 -31.0445
   -19.5934 -19.1213 -16.7283 -16.4672 -16.3102 -16.1885 -16.1398 -15.9231
   -15.8403 -15.7909 -15.7039 -15.6262 -15.5965 -15.5828 -15.5481 -15.5318
   -15.5253 -15.5088 -15.4525 -15.4359 -15.4134 -15.4081 -15.3962 -15.3774
   -15.2956 -15.2274 -15.1612 -15.1284 -15.0570 -15.0161 -14.9826 -13.5168
   -13.3989  -7.9187  -6.9279  -4.7212  -4.0866  -3.9471  -3.9252  -3.8952
    -3.8254  -3.6571  -3.6105  -3.4666  -3.3619  -3.3039  -3.1818  -3.1421
    -3.1247  -3.0619  -3.0350  -2.9755  -2.8465  -2.8300  -2.8181  -2.8013
    -2.7916  -2.7500  -2.7298  -2.6933  -2.6471  -2.5996  -2.5246  -2.5029
    -2.4098  -2.4066  -2.3671  -2.3104  -2.3083  -2.2840  -2.2674  -2.2400
    -2.1908  -2.1756  -2.1684  -2.0640  -1.9732  -1.8625  -1.7027  -1.6788
    -1.6743  -1.5529  -1.4997  -1.4488  -1.4126  -1.4105  -1.3604  -1.3126
    -1.2681  -1.2478  -1.1442  -1.0313  -1.0011  -0.9400  -0.9114  -0.7876
    -0.7352  -0.7289  -0.7217  -0.7161  -0.6925  -0.6239  -0.5048  -0.4331
    -0.4245  -0.3310  -0.3118  -0.2963  -0.2387  -0.2292  -0.2084  -0.1535
    -0.1107  -0.0601  -0.0437  -0.0128   0.0239   0.0291   0.1584   0.2066
     0.2355   0.2584   0.2961   0.4619   0.5092   0.6397   0.7433   0.9158
     1.0081   1.0727   1.1826   1.5937   1.6510   2.8623   3.1705   3.2142
     3.2276   3.2421   3.3057   3.4074   3.5521   3.6234   3.6381   3.6735

[...]

          k = 0.0380-0.0419 0.0000 ( 17876 PWs)   bands (ev):

[...]

          k =-0.0760-0.0000 0.0000 ( 17886 PWs)   bands (ev):

[...]

          k =-0.0760-0.0839 0.0000 ( 17948 PWs)   bands (ev):

   -55.9957 -55.9811 -55.9530 -55.9506 -55.9470 -55.8779 -55.8677 -55.8182
   -55.7874 -55.7858 -55.7585 -55.7551 -55.7539 -55.6824 -54.9992 -54.9981
   -32.3380 -32.3175 -32.3148 -32.3019 -32.2892 -32.2860 -32.2660 -32.2398
   -32.2312 -32.2198 -32.2098 -32.2029 -32.1617 -32.1518 -32.1442 -32.1325
   -32.1198 -32.1154 -32.1105 -32.1088 -32.1050 -32.1046 -32.0862 -32.0817
   -32.0811 -32.0744 -32.0685 -32.0431 -32.0257 -32.0198 -32.0126 -32.0087
   -32.0005 -31.9875 -31.9780 -31.9697 -31.9695 -31.9645 -31.9541 -31.9427
   -31.9067 -31.8760 -31.3204 -31.3190 -31.2386 -31.2376 -31.1991 -31.1982
   -19.5856 -19.1205 -16.1809 -16.0747 -16.0639 -15.8891 -15.8753 -15.8534
   -15.8114 -15.8022 -15.7088 -15.7063 -15.6622 -15.6506 -15.6244 -15.5903
   -15.5848 -15.5218 -15.5212 -15.5168 -15.4620 -15.4554 -15.4334 -15.4181
   -15.3994 -15.3867 -15.3411 -15.3296 -15.2663 -15.2036 -15.1848 -13.5013
   -13.4991  -7.9199  -6.9212  -4.6698  -3.7269  -3.4631  -3.3535  -3.3160
    -3.2246  -3.1257  -3.0993  -3.0609  -3.0176  -2.9742  -2.9235  -2.8668
    -2.8400  -2.8372  -2.8268  -2.8201  -2.8008  -2.7957  -2.7578  -2.7304
    -2.7002  -2.6711  -2.6511  -2.6308  -2.6276  -2.6218  -2.5862  -2.5684
    -2.5563  -2.5485  -2.4803  -2.4657  -2.3441  -2.3232  -2.2381  -2.2086
    -2.1444  -2.1390  -2.1139  -2.0713  -2.0628  -2.0472  -1.8750  -1.8555
    -1.7406  -1.7352  -1.7127  -1.6824  -1.5978  -1.5261  -1.4927  -1.4711
    -1.4180  -1.4031  -1.3310  -1.2637  -1.2059  -1.1676  -1.0995  -1.0683
    -1.0528  -0.9738  -0.9635  -0.9297  -0.9031  -0.8872  -0.7659  -0.7584
    -0.7241  -0.6872  -0.6567  -0.6077  -0.5566  -0.5398  -0.5050  -0.4520
    -0.3836  -0.3553  -0.1644   0.0180   0.0234   0.0526   0.1446   0.1815
     0.3020   0.3312   0.3369   0.3747   0.4153   0.5102   0.5329   0.5404
     0.6137   1.3684   1.3694   1.4558   1.4668   2.7270   3.3570   3.4192
     3.4822   3.5194   3.6240   3.6416   3.6563   3.6675   3.7020   3.8050

     the Fermi energy is     3.1441 ev

!    total energy              =   -2963.67519333 Ry
     estimated scf accuracy    <       0.00000003 Ry
     smearing contrib. (-TS)   =      -0.02614001 Ry
     internal energy E=F+TS    =   -2963.64905331 Ry

     The total energy is F=E-TS. E is the sum of the following terms:
     one-electron contribution =  -24425.20566232 Ry
     hartree contribution      =   12300.06710698 Ry
     xc contribution           =    -489.20072573 Ry
     ewald contribution        =    9650.68980576 Ry
     electric field correction =       0.00042200 Ry

     convergence has been achieved in  79 iterations

     Forces acting on atoms (cartesian axes, Ry/au):

     atom    1 type  1   force =    -0.00006476    0.00006640    0.10401857
     atom    2 type  1   force =    -0.00005663    0.00005664    0.10403648
     atom    3 type  2   force =    -0.00018092   -0.00196068    0.10279025
     atom    4 type  2   force =    -0.00008001    0.00160801    0.11470069
     atom    5 type  2   force =    -0.00026473    0.00155585   -0.17902902
     atom    6 type  2   force =    -0.00013989   -0.00104528   -0.17940629
     atom    7 type  1   force =    -0.06953986    0.00065783   -0.02928705
     atom    8 type  1   force =    -0.06908242   -0.00122097   -0.02933137
     atom    9 type  1   force =     0.06921618    0.00118599   -0.02934206
     atom   10 type  1   force =     0.06884153   -0.00085442   -0.02941364
     atom   11 type  1   force =     0.00005884    0.00064020    0.04734975
     atom   12 type  1   force =     0.00063807    0.00090390    0.04972350
     atom   13 type  1   force =     0.00021820   -0.00562617   -0.03311952
     atom   14 type  1   force =     0.00028251    0.00398017   -0.02651725
     atom   15 type  2   force =    -0.00015704   -0.00004075   -0.00071938
     atom   16 type  2   force =    -0.00019900   -0.00005157   -0.00076680
     atom   17 type  2   force =     0.00009213   -0.00093553   -0.00007446
     atom   18 type  2   force =     0.00011531    0.00110912   -0.00010955
     atom   19 type  1   force =    -0.01879972   -0.00006092    0.00452718
     atom   20 type  1   force =    -0.01689589    0.00164768    0.00398220
     atom   21 type  1   force =     0.01837856   -0.00109797    0.00451233
     atom   22 type  1   force =     0.01749050    0.00197484    0.00384009
     atom   23 type  1   force =     0.00018368    0.00006414   -0.00072380
     atom   24 type  1   force =     0.00011414   -0.00022211   -0.00023276
     atom   25 type  1   force =    -0.00031579    0.00016217   -0.00067211
     atom   26 type  1   force =    -0.00019428   -0.00004335   -0.00084798
     atom   27 type  2   force =    -0.00021074    0.00044599    0.00023616
     atom   28 type  2   force =     0.00026170    0.00065357    0.00071904
     atom   29 type  2   force =     0.00027734   -0.00012121    0.00089632
     atom   30 type  2   force =    -0.00019274   -0.00023145   -0.00006579
     atom   31 type  1   force =     0.00026341   -0.00009682   -0.00032613
     atom   32 type  1   force =     0.00004512    0.00014333   -0.00005675
     atom   33 type  1   force =    -0.00010438   -0.00018820   -0.00068599
     atom   34 type  1   force =     0.00003677    0.00014008   -0.00039157
     atom   35 type  1   force =     0.00010271   -0.00003518   -0.00102706
     atom   36 type  1   force =     0.00012721   -0.00053321    0.00048951
     atom   37 type  1   force =    -0.00019053    0.00016208    0.00039600
     atom   38 type  1   force =     0.00015182   -0.00005020   -0.00014433
     atom   39 type  2   force =    -0.00012429   -0.00049588    0.00036455
     atom   40 type  2   force =    -0.00001672   -0.00078526   -0.00030158
     atom   41 type  2   force =     0.00031810    0.00021217   -0.00202448
     atom   42 type  2   force =     0.00005610   -0.00047776   -0.00155819
     atom   43 type  1   force =    -0.00054639   -0.00062933    0.00039907
     atom   44 type  1   force =     0.00013555    0.00001171    0.00035407
     atom   45 type  1   force =    -0.00011148   -0.00017697    0.00043370
     atom   46 type  1   force =     0.00051854   -0.00029393    0.00033192
     atom   47 type  1   force =    -0.00030276    0.00031204    0.00062196
     atom   48 type  1   force =     0.00188146   -0.00009487   -0.01541870
     atom   49 type  3   force =    -0.00189767   -0.00188803    0.01808263
     atom   50 type  4   force =    -0.00065720    0.00315279   -0.00190583
     atom   51 type  1   force =    -0.00017892   -0.00004796   -0.00094778
     atom   52 type  4   force =     0.00092941   -0.00116991    0.00115211
     atom   53 type  4   force =    -0.00023012   -0.00037078    0.00048914

     Total force =     0.375154     Total SCF correction =     0.000405
  @ DRIVER MODE: Message from server: STATUS
  @ DRIVER MODE: Message from server: GETFORCE
  @ DRIVER MODE: Returning v,forces,stress,ensemble

     Writing output data file ./calc.save/
  @ DRIVER MODE: Message from server: EXIT
  @ DRIVE MODE: Exiting

     General routines

     Parallel routines

   This run was terminated on:  19:15: 8  15Sep2021

   JOB DONE.