     Program PWSCF v.6.7GPU starts on 23Jul2021 at  0:58:37

     R & G space division:  proc/nbgrp/npool/nimage =      16
     Reading input from /storage/home/hcoda1/3/ntian30/research/carbon/1Jul_vib/slab/rutile_O_br_vacant/out_0023/pw.inp
Warning: card &CELL ignored
Warning: card   CELL_DYNAMICS='IPI', ignored
Warning: card / ignored

     Current dimensions of program PWSCF are:
     Max number of different atomic species (ntypx) = 10
     Max number of k-points (npk) =  40000
     Max angular momentum in pseudopotentials (lmaxx) =  3
     Presently no symmetry can be used with electric field

     Message from routine cell_base_init:
     DEPRECATED: use true lattice parameter, not A to a.u. conversion factor

     IMPORTANT: XC functional enforced from input :
     Exchange-correlation= BEEF-VDW
                           (   1   4  43  14   2   0   0)
     Any further DFT definition will be discarded
     Please, verify this is what you really want

  @ DRIVER MODE: Connecting to
 qe_1139763_2402406.sched-torque.pace.gatech.edu11mfhwgg_scratch
  using UNIX socket
  @ DRIVER MODE: Message from server: STATUS
  @ DRIVER MODE: Message from server: INIT
  @ DRIVER MODE: Receiving replica           0          -1
  @ DRIVER MODE: Receiving encoded integer          25
  @ DRIVER MODE:  SCF:  T  FORCE:  T  STRESS:  F  VC:  F  ENSEMBLE:  F
  @ DRIVER MODE:  SCF:  T  FORCE:  T  STRESS:  F  VC:  F  ENSEMBLE:  F

     Using Slab Decomposition

     bravais-lattice index     =            0
     lattice parameter (alat)  =       1.8897  a.u.
     unit-cell volume          =    6658.9804 (a.u.)^3
     number of atoms/cell      =           47
     number of atomic types    =            2
     number of electrons       =       378.00
     number of Kohn-Sham states=          199
     kinetic-energy cutoff     =      29.3995  Ry
     charge density cutoff     =     293.9946  Ry
     scf convergence threshold =      7.3E-08
     mixing beta               =       0.0500
     number of iterations used =            8  plain     mixing
     Exchange-correlation= BEEF-VDW
                           (   1   4  43  14   2   0   0)

     celldm(1)=   1.889726  celldm(2)=   0.000000  celldm(3)=   0.000000
     celldm(4)=   0.000000  celldm(5)=   0.000000  celldm(6)=   0.000000

     crystal axes: (cart. coord. in units of alat)
               a(1) = (   6.579727   0.000000   0.000000 )
               a(2) = (  -0.000775   5.961596   0.000000 )
               a(3) = (   0.000000   0.000000  25.155947 )

     reciprocal axes: (cart. coord. in units 2 pi/alat)
               b(1) = (  0.151982  0.000020  0.000000 )
               b(2) = (  0.000000  0.167740  0.000000 )
               b(3) = (  0.000000  0.000000  0.039752 )

     PseudoPot. # 1 for Ti read from file:
     /storage/coda1/p-amedford6/0/shared/rich_project_chbe-medford/medford-share/data/pseudos_module/espresso/nninc/pbe/van/Ti.UPF
     MD5 check sum: 8e4df49b7f0d34bbd5052bf3f5ea0213
     Pseudo is Ultrasoft, Zval = 12.0
     Generated by new atomic code, or converted to UPF format
     Using radial grid of  851 points,  6 beta functions with:
                l(1) =   0
                l(2) =   0
                l(3) =   1
                l(4) =   1
                l(5) =   2
                l(6) =   2
     Q(r) pseudized with  8 coefficients,  rinner =    1.000   1.000   1.000
                                                       1.000   1.000

     PseudoPot. # 2 for O  read from file:
     /storage/coda1/p-amedford6/0/shared/rich_project_chbe-medford/medford-share/data/pseudos_module/espresso/nninc/pbe/van/O.UPF
     MD5 check sum: 78c19812648e8988a0fe644b0f25305e
     Pseudo is Ultrasoft, Zval =  6.0
     Generated by new atomic code, or converted to UPF format
     Using radial grid of  737 points,  4 beta functions with:
                l(1) =   0
                l(2) =   0
                l(3) =   1
                l(4) =   1
     Q(r) pseudized with  8 coefficients,  rinner =    0.800   0.800   0.800

     atomic species   valence    mass     pseudopotential
        Ti1           12.00    47.86700     Ti( 1.00)
        O1             6.00    15.99900     O ( 1.00)

     Starting magnetic structure
     atomic species   magnetization
        Ti1          0.000
        O1           0.000

     No symmetry found

   Cartesian axes

     site n.     atom                  positions (alat units)
         1           Ti1 tau(   1) = (   0.0004258   2.9801865   6.0000000  )
         2           Ti1 tau(   2) = (   3.2906075   1.4906267   6.0002472  )
         3           O1  tau(   3) = (   0.0006271   0.0005054   7.9858123  )
         4           O1  tau(   4) = (   3.2906025   0.0005020   7.3038282  )
         5           O1  tau(   5) = (   4.5942328   1.4918067   9.2879030  )
         6           O1  tau(   6) = (   1.9868534   1.4903216   9.2879459  )
         7           Ti1 tau(   7) = (   3.2895655   2.9803496   9.1561551  )
         8           Ti1 tau(   8) = (   6.5792279   1.4901203   9.2542590  )
         9           O1  tau(   9) = (   3.2908496   0.0003861  11.3974292  )
        10           O1  tau(  10) = (   0.0009741   0.0005107  10.6121890  )
        11           O1  tau(  11) = (   1.2851668   1.4970119  12.6717501  )
        12           O1  tau(  12) = (   5.2960956   1.4969944  12.6716611  )
        13           Ti1 tau(  13) = (   0.0014209   2.9817635  12.4865077  )
        14           Ti1 tau(  14) = (   3.2920103   1.4923710  12.5431595  )
        15           O1  tau(  15) = (   0.0005111   0.0003601  14.6908606  )
        16           O1  tau(  16) = (   3.2907661   0.0003422  14.0280135  )
        17           O1  tau(  17) = (   4.5563287   1.5043111  16.1972802  )
        18           O1  tau(  18) = (   2.0238984   1.5042417  16.1969189  )
        19           Ti1 tau(  19) = (   3.2900530   2.9812534  15.7923096  )
        20           Ti1 tau(  20) = (   0.0002900   1.3462356  15.9516996  )
        21           O1  tau(  21) = (   3.2904802   0.0005063   4.7018136  )
        22           O1  tau(  22) = (   0.0005067   0.0002908  17.2230471  )
        23           O1  tau(  23) = (   1.3043587   1.4918075   6.0039043  )
        24           O1  tau(  24) = (   5.2767064   1.4903225   6.0039473  )
        25           Ti1 tau(  25) = (   0.0000382   5.9609847   6.0000000  )
        26           Ti1 tau(  26) = (   3.2902200   4.4714249   6.0002472  )
        27           O1  tau(  27) = (   0.0002396   2.9813036   7.9858123  )
        28           O1  tau(  28) = (   3.2902150   2.9813002   7.3038282  )
        29           O1  tau(  29) = (   4.5938453   4.4726049   9.2879030  )
        30           O1  tau(  30) = (   1.9864658   4.4711199   9.2879459  )
        31           Ti1 tau(  31) = (   3.2890184   5.9611387   9.1545655  )
        32           Ti1 tau(  32) = (   6.5788211   4.4731772   9.2541010  )
        33           O1  tau(  33) = (   3.2904314   2.9811918  11.3932170  )
        34           O1  tau(  34) = (   0.0006808   2.9813391  10.6259032  )
        35           O1  tau(  35) = (   1.2847872   4.4655815  12.6717948  )
        36           O1  tau(  36) = (   5.2956760   4.4653813  12.6716352  )
        37           Ti1 tau(  37) = (   0.0020938   0.0010105  12.4782417  )
        38           Ti1 tau(  38) = (   3.2917349   4.4701355  12.5431901  )
        39           O1  tau(  39) = (   0.0000992   2.9811129  15.0245885  )
        40           O1  tau(  40) = (   3.2903432   2.9811263  13.9978513  )
        41           O1  tau(  41) = (   4.5559250   4.4580163  16.1971803  )
        42           O1  tau(  42) = (   2.0234811   4.4579909  16.1969720  )
        43           Ti1 tau(  43) = (   3.2904469   0.0004528  15.8318627  )
        44           Ti1 tau(  44) = (   0.0000435   4.6159127  15.9515978  )
        45           O1  tau(  45) = (   3.2900926   2.9813045   4.6918136  )
        46           O1  tau(  46) = (   1.3039711   4.4726057   6.0039043  )
        47           O1  tau(  47) = (   5.2763189   4.4711207   6.0039473  )

     number of k points=    10  Fermi-Dirac smearing, width (Ry)=  0.0073
                       cart. coord. in units 2pi/alat
        k(    1) = (   0.0000000   0.0000000   0.0000000), wk =   0.0625000
        k(    2) = (   0.0000000   0.0419351   0.0000000), wk =   0.1250000
        k(    3) = (   0.0000000  -0.0838702   0.0000000), wk =   0.0625000
        k(    4) = (   0.0379955   0.0000049   0.0000000), wk =   0.1250000
        k(    5) = (   0.0379955   0.0419400   0.0000000), wk =   0.1250000
        k(    6) = (   0.0379955  -0.0838652   0.0000000), wk =   0.1250000
        k(    7) = (   0.0379955  -0.0419301   0.0000000), wk =   0.1250000
        k(    8) = (  -0.0759910  -0.0000099   0.0000000), wk =   0.0625000
        k(    9) = (  -0.0759910   0.0419252   0.0000000), wk =   0.1250000
        k(   10) = (  -0.0759910  -0.0838800   0.0000000), wk =   0.0625000

     Initial potential from superposition of free atoms

     starting charge  361.99925, renormalised to  378.00000

     negative rho (up, down):  1.184E-02 1.184E-02

     %%%%%%%%%%%%%%%%%%%%%%%%%%%%%%%%%%%%%%%%%%%%%%%%%%%%%%%%%%%%%%%%%%%%%%%%
     %                                                                      %
     % You are using vdW-DF, which was implemented by the Thonhauser group. %
     % Please cite the following two papers that made this development      %
     % possible and the two reviews that describe the various versions:     %
     %                                                                      %
     %   T. Thonhauser et al., PRL 115, 136402 (2015).                      %
     %   T. Thonhauser et al., PRB 76, 125112 (2007).                       %
     %   K. Berland et al., Rep. Prog. Phys. 78, 066501 (2015).             %
     %   D.C. Langreth et al., J. Phys.: Condens. Matter 21, 084203 (2009). %
     %                                                                      %
     %                                                                      %
     % If you are calculating the stress with vdW-DF, please also cite:     %
     %                                                                      %
     %   R. Sabatini et al., J. Phys.: Condens. Matter 24, 424209 (2012).   %
     %                                                                      %
     %%%%%%%%%%%%%%%%%%%%%%%%%%%%%%%%%%%%%%%%%%%%%%%%%%%%%%%%%%%%%%%%%%%%%%%%

     Adding external electric field

     Computed dipole along edir(3) :
        Dipole                1.1466 Ry au,          2.9143 Debye
        Dipole field          0.0022 Ry au,

        Potential amp.       -0.2006 Ry
        Total length         46.3494 bohr

[...]

     Starting wfcs are  284 atomic wfcs
  @ DRIVER MODE: Message from server: STATUS
  @ DRIVER MODE: Message from server: POSDATA
  @ DRIVER MODE: Reading and sharing cell
  @ DRIVER MODE: Reading and sharing positions
  @ DRIVER MODE: Received positions

     Self-consistent Calculation

     iteration #  1     ecut=    29.40 Ry     beta= 0.05
     Davidson diagonalization with overlap
     c_bands:  2 eigenvalues not converged
     c_bands:  3 eigenvalues not converged
     c_bands:  2 eigenvalues not converged
     c_bands:  3 eigenvalues not converged
     c_bands:  1 eigenvalues not converged
     c_bands:  2 eigenvalues not converged
     c_bands:  1 eigenvalues not converged
     c_bands:  1 eigenvalues not converged
     c_bands:  3 eigenvalues not converged
     c_bands:  2 eigenvalues not converged
     c_bands:  2 eigenvalues not converged
     c_bands:  3 eigenvalues not converged
     c_bands:  2 eigenvalues not converged
     c_bands:  3 eigenvalues not converged
     c_bands:  1 eigenvalues not converged
     c_bands:  2 eigenvalues not converged
     c_bands:  1 eigenvalues not converged
     c_bands:  1 eigenvalues not converged
     c_bands:  3 eigenvalues not converged
     c_bands:  2 eigenvalues not converged
     ethr =  1.00E-05,  avg # of iterations = 20.0

[...]

     total energy              =   -2885.09426818 Ry
     estimated scf accuracy    <      12.51182212 Ry

     total magnetization       =     0.00 Bohr mag/cell
     absolute magnetization    =     0.00 Bohr mag/cell

     iteration #  2     ecut=    29.40 Ry     beta= 0.05
     Davidson diagonalization with overlap
     ethr =  3.31E-03,  avg # of iterations =  1.0

[...]

     iteration # 64     ecut=    29.40 Ry     beta= 0.05
     Davidson diagonalization with overlap
     ethr =  2.88E-11,  avg # of iterations =  7.9

[...]

     total energy              =   -2883.85124428 Ry
     estimated scf accuracy    <       0.00000009 Ry

[...]

     iteration # 65     ecut=    29.40 Ry     beta= 0.05
     Davidson diagonalization with overlap
     c_bands:  1 eigenvalues not converged
     c_bands:  1 eigenvalues not converged
     c_bands:  1 eigenvalues not converged
     c_bands:  1 eigenvalues not converged
     ethr =  2.38E-11,  avg # of iterations = 13.6

     negative rho (up, down):  1.071E-02 1.071E-02

[...]

     Adding external electric field

     Computed dipole along edir(3) :
        Dipole                0.5661 Ry au,          1.4388 Debye
        Dipole field          0.0011 Ry au,

        Potential amp.       -0.0990 Ry
        Total length         46.3494 bohr

     Magnetic moment per site  (integrated on atomic sphere of radius R)
     atom   1 (R=0.740)  charge=  8.0665  magn= -0.0000
     atom   2 (R=0.740)  charge=  8.0458  magn=  0.0000
     atom   3 (R=0.740)  charge=  5.0351  magn=  0.0000
     atom   4 (R=0.740)  charge=  5.0739  magn=  0.0000
     atom   5 (R=0.740)  charge=  5.0337  magn= -0.0000
     atom   6 (R=0.740)  charge=  5.0338  magn=  0.0000
     atom   7 (R=0.740)  charge=  8.0460  magn= -0.0000
     atom   8 (R=0.740)  charge=  8.0494  magn=  0.0000
     atom   9 (R=0.740)  charge=  5.0395  magn=  0.0000
     atom  10 (R=0.740)  charge=  5.0477  magn= -0.0000
     atom  11 (R=0.740)  charge=  5.0325  magn=  0.0000
     atom  12 (R=0.740)  charge=  5.0326  magn= -0.0000
     atom  13 (R=0.740)  charge=  8.0562  magn= -0.0000
     atom  14 (R=0.740)  charge=  8.0500  magn= -0.0000
     atom  15 (R=0.740)  charge=  5.0483  magn= -0.0000
     atom  16 (R=0.740)  charge=  5.0335  magn=  0.0000
     atom  17 (R=0.740)  charge=  5.0152  magn= -0.0000
     atom  18 (R=0.740)  charge=  5.0151  magn= -0.0000
     atom  19 (R=0.740)  charge=  8.0777  magn=  0.0000
     atom  20 (R=0.740)  charge=  8.0902  magn=  0.0000
     atom  21 (R=0.740)  charge=  4.9129  magn= -0.0000
     atom  22 (R=0.740)  charge=  4.9954  magn= -0.0000
     atom  23 (R=0.740)  charge=  5.0273  magn=  0.0000
     atom  24 (R=0.740)  charge=  5.0274  magn=  0.0000
     atom  25 (R=0.740)  charge=  8.0667  magn= -0.0000
     atom  26 (R=0.740)  charge=  8.0458  magn=  0.0000
     atom  27 (R=0.740)  charge=  5.0345  magn=  0.0000
     atom  28 (R=0.740)  charge=  5.0735  magn= -0.0000
     atom  29 (R=0.740)  charge=  5.0337  magn= -0.0000
     atom  30 (R=0.740)  charge=  5.0338  magn= -0.0000
     atom  31 (R=0.740)  charge=  8.0465  magn= -0.0000
     atom  32 (R=0.740)  charge=  8.0494  magn= -0.0000
     atom  33 (R=0.740)  charge=  5.0395  magn= -0.0000
     atom  34 (R=0.740)  charge=  5.0426  magn=  0.0000
     atom  35 (R=0.740)  charge=  5.0324  magn=  0.0000
     atom  36 (R=0.740)  charge=  5.0325  magn=  0.0000
     atom  37 (R=0.740)  charge=  8.0520  magn= -0.0000
     atom  38 (R=0.740)  charge=  8.0500  magn= -0.0000
     atom  39 (R=0.740)  charge=  5.0311  magn=  0.0000
     atom  40 (R=0.740)  charge=  5.0467  magn= -0.0000
     atom  41 (R=0.740)  charge=  5.0152  magn= -0.0000
     atom  42 (R=0.740)  charge=  5.0152  magn= -0.0000
     atom  43 (R=0.740)  charge=  8.0771  magn= -0.0000
     atom  44 (R=0.740)  charge=  8.0902  magn= -0.0000
     atom  45 (R=0.740)  charge=  4.9098  magn= -0.0000
     atom  46 (R=0.740)  charge=  5.0273  magn=  0.0000
     atom  47 (R=0.740)  charge=  5.0274  magn=  0.0000

     End of self-consistent calculation

 ------ SPIN UP ------------

          k = 0.0000 0.0000 0.0000 ( 18029 PWs)   bands (ev):

   -56.2786 -56.2427 -56.2278 -56.1936 -56.1588 -56.1459 -56.1177 -56.1112
   -56.0933 -56.0843 -56.0837 -56.0565 -56.0294 -56.0225 -55.3439 -55.3099
   -32.8406 -32.7953 -32.7299 -32.6307 -32.5902 -32.5841 -32.5808 -32.5711
   -32.5179 -32.5046 -32.4841 -32.4778 -32.4728 -32.4487 -32.4482 -32.4284
   -32.4162 -32.4148 -32.4018 -32.3931 -32.3803 -32.3795 -32.3775 -32.3751
   -32.3502 -32.3497 -32.3263 -32.2830 -32.2764 -32.2671 -32.2666 -32.2604
   -32.2551 -32.2450 -32.2448 -32.2394 -32.2350 -32.2146 -32.2048 -32.1893
   -32.1719 -32.1116 -31.7550 -31.6518 -31.6305 -31.5707 -31.4847 -31.3752
   -17.1098 -16.8873 -16.7447 -16.6083 -16.5062 -16.4034 -16.2795 -16.2290
   -16.1755 -16.0286 -15.9699 -15.9453 -15.9043 -15.8803 -15.8725 -15.8578
   -15.8344 -15.8190 -15.7993 -15.7896 -15.7741 -15.7730 -15.7248 -15.6727
   -15.5791 -15.5115 -15.4409 -15.3838 -15.0584 -13.8283 -13.7024  -4.4303
    -4.2953  -4.2207  -4.2058  -4.1543  -4.0442  -3.8237  -3.8000  -3.7344
    -3.5784  -3.5306  -3.4730  -3.4131  -3.3437  -3.2862  -3.2763  -3.1744
    -3.1500  -3.1455  -3.1400  -3.0573  -3.0546  -3.0327  -3.0059  -2.9670
    -2.8756  -2.7560  -2.7118  -2.6775  -2.6565  -2.6482  -2.6237  -2.5966
    -2.5647  -2.5316  -2.5296  -2.4934  -2.4517  -2.3281  -2.1807  -2.1366
    -2.0628  -1.9750  -1.9037  -1.8384  -1.7980  -1.7602  -1.7360  -1.6862
    -1.6553  -1.6237  -1.5451  -1.4561  -1.4136  -1.3106  -1.2927  -1.2265
    -1.1910  -1.1178  -1.0733  -1.0729  -1.0308  -0.9425  -0.9152  -0.7912
    -0.7645  -0.7560  -0.7424  -0.7344  -0.6228  -0.5213  -0.4871  -0.4841
    -0.4811  -0.3959  -0.3457  -0.3390  -0.3242  -0.3152  -0.2670  -0.1910
    -0.1508  -0.1003   0.0427   0.2694   0.2755   0.3348   0.5805   0.6375
     0.6948   0.8618   1.2832   1.3380   2.8194   2.8846   2.9159   2.9499
     2.9776   3.0256   3.3163   3.3299   3.3530   3.3811   3.3982

[...]

          k =-0.0760-0.0000 0.0000 ( 17886 PWs)   bands (ev):

[...]

 ------ SPIN DOWN ----------

[...]

          k = 0.0380-0.0419 0.0000 ( 17876 PWs)   bands (ev):

[...]

          k =-0.0760-0.0839 0.0000 ( 17948 PWs)   bands (ev):

   -56.2608 -56.2603 -56.2111 -56.2101 -56.1545 -56.1308 -56.1262 -56.1007
   -56.1004 -56.0884 -56.0868 -56.0397 -56.0393 -56.0358 -55.3268 -55.3267
   -32.7189 -32.6463 -32.6434 -32.5451 -32.5441 -32.5439 -32.5296 -32.5034
   -32.5029 -32.4764 -32.4726 -32.4720 -32.4659 -32.4233 -32.4214 -32.4205
   -32.4152 -32.4151 -32.4002 -32.3946 -32.3936 -32.3896 -32.3782 -32.3635
   -32.3612 -32.3569 -32.3552 -32.3503 -32.3289 -32.3281 -32.3235 -32.3189
   -32.2965 -32.2961 -32.2698 -32.2696 -32.2691 -32.2682 -32.2383 -32.2252
   -32.2249 -32.2164 -31.6431 -31.6430 -31.5690 -31.5677 -31.5280 -31.5273
   -16.8175 -16.4629 -16.4242 -16.3387 -16.3312 -16.2326 -16.2126 -16.1230
   -16.0816 -16.0584 -16.0576 -16.0042 -15.9845 -15.9641 -15.9612 -15.8989
   -15.8833 -15.8545 -15.8517 -15.7973 -15.7947 -15.7933 -15.7920 -15.7563
   -15.7533 -15.7156 -15.7128 -15.6091 -15.4419 -13.8233 -13.7877  -3.8340
    -3.7322  -3.6775  -3.5618  -3.4876  -3.4520  -3.4058  -3.3962  -3.3222
    -3.2786  -3.2744  -3.1931  -3.1811  -3.1803  -3.1673  -3.1053  -3.0908
    -3.0665  -3.0412  -3.0153  -2.9876  -2.9757  -2.9738  -2.9528  -2.9446
    -2.9246  -2.9225  -2.8919  -2.8680  -2.8462  -2.8301  -2.6697  -2.6655
    -2.5794  -2.5204  -2.5190  -2.4392  -2.4309  -2.3865  -2.3529  -2.2954
    -2.2574  -2.1014  -2.0800  -2.0790  -2.0113  -1.9847  -1.9173  -1.8575
    -1.8437  -1.7955  -1.7380  -1.6208  -1.6015  -1.5772  -1.4714  -1.4705
    -1.3961  -1.3214  -1.2776  -1.2720  -1.2677  -1.2393  -1.2354  -1.2334
    -1.1231  -1.0707  -1.0238  -1.0158  -1.0025  -0.8000  -0.7388  -0.7270
    -0.6069  -0.5609  -0.3770  -0.3679  -0.3296  -0.2125  -0.2121  -0.2015
    -0.1548  -0.0327  -0.0217   0.0435   0.0865   0.0988   0.1371   0.1385
     1.0460   1.0485   1.1425   1.1707   2.9903   3.0726   3.0781   3.1273
     3.2675   3.3189   3.3238   3.3702   3.3715   3.3752   3.4532

     the Fermi energy is     2.8849 ev

!    total energy              =   -2883.85126628 Ry
     estimated scf accuracy    <       0.00000006 Ry
     smearing contrib. (-TS)   =      -0.03661346 Ry
     internal energy E=F+TS    =   -2883.81465281 Ry

     The total energy is F=E-TS. E is the sum of the following terms:
     one-electron contribution =  -24911.04925387 Ry
     hartree contribution      =   12530.31975362 Ry
     xc contribution           =    -468.93962384 Ry
     ewald contribution        =    9965.85386655 Ry
     electric field correction =       0.00060473 Ry

     total magnetization       =    -0.00 Bohr mag/cell
     absolute magnetization    =     0.00 Bohr mag/cell

     convergence has been achieved in  65 iterations

     Forces acting on atoms (cartesian axes, Ry/au):

     atom    1 type  1   force =     0.00010270   -0.00000048    0.08954445
     atom    2 type  1   force =    -0.00004569    0.00081079   -0.18613809
     atom    3 type  2   force =     0.00003187   -0.00000518   -0.02419385
     atom    4 type  2   force =    -0.00000855   -0.00002120    0.05143420
     atom    5 type  2   force =    -0.01339269   -0.00025403    0.00583357
     atom    6 type  2   force =     0.01336589    0.00022753    0.00580216
     atom    7 type  1   force =    -0.00002852    0.00002104    0.00072513
     atom    8 type  1   force =     0.00001668    0.00043482    0.00042648
     atom    9 type  2   force =     0.00001319    0.00001768    0.00078363
     atom   10 type  2   force =    -0.00000261    0.00000708   -0.00042164
     atom   11 type  2   force =     0.00016877   -0.00023654    0.00048104
     atom   12 type  2   force =    -0.00019069   -0.00025337    0.00048158
     atom   13 type  1   force =    -0.00000556   -0.00000278   -0.00075228
     atom   14 type  1   force =     0.00003928   -0.00073890    0.00058113
     atom   15 type  2   force =    -0.00000251   -0.00001408   -0.00070607
     atom   16 type  2   force =     0.00001803    0.00001270    0.00015564
     atom   17 type  2   force =    -0.00003443    0.00022420    0.00001635
     atom   18 type  2   force =     0.00004931    0.00022478    0.00002531
     atom   19 type  1   force =    -0.00001824   -0.00000745   -0.00082077
     atom   20 type  1   force =     0.00002933    0.00013829   -0.00001867
     atom   21 type  2   force =     0.00005918    0.00007593    0.10560830
     atom   22 type  2   force =    -0.00001519   -0.00000402    0.00043210
     atom   23 type  2   force =    -0.06738818   -0.00021982   -0.02590557
     atom   24 type  2   force =     0.06729690    0.00021657   -0.02594214
     atom   25 type  1   force =     0.00009924    0.00000944    0.08873543
     atom   26 type  1   force =    -0.00007053   -0.00090833   -0.18614914
     atom   27 type  2   force =     0.00003182   -0.00002089   -0.02316191
     atom   28 type  2   force =    -0.00000624   -0.00002060    0.05063819
     atom   29 type  2   force =    -0.01339971   -0.00028947    0.00583168
     atom   30 type  2   force =     0.01336980    0.00020719    0.00579961
     atom   31 type  1   force =    -0.00003146    0.00001616    0.00094456
     atom   32 type  1   force =     0.00000631   -0.00042659    0.00044122
     atom   33 type  2   force =     0.00001390    0.00001019   -0.00042032
     atom   34 type  2   force =    -0.00001394    0.00000409    0.00009541
     atom   35 type  2   force =     0.00016018    0.00026091    0.00048187
     atom   36 type  2   force =    -0.00018527    0.00025556    0.00048464
     atom   37 type  1   force =     0.00000029   -0.00001898    0.00081035
     atom   38 type  1   force =     0.00002495    0.00075561    0.00057732
     atom   39 type  2   force =    -0.00001652   -0.00000048   -0.00042040
     atom   40 type  2   force =     0.00001533    0.00001299   -0.00048444
     atom   41 type  2   force =    -0.00003215   -0.00021445    0.00001691
     atom   42 type  2   force =     0.00005468   -0.00022107    0.00002260
     atom   43 type  1   force =    -0.00001270   -0.00000415    0.00041588
     atom   44 type  1   force =    -0.00003404   -0.00013141   -0.00001626
     atom   45 type  2   force =     0.00006038    0.00007788    0.10977127
     atom   46 type  2   force =    -0.06738793   -0.00022187   -0.02590310
     atom   47 type  2   force =     0.06729534    0.00021469   -0.02594334

     Total force =     0.369346     Total SCF correction =     0.000620
  @ DRIVER MODE: Message from server: STATUS
  @ DRIVER MODE: Message from server: GETFORCE
  @ DRIVER MODE: Returning v,forces,stress,ensemble

     Writing output data file ./calc.save/
  @ DRIVER MODE: Message from server: EXIT
  @ DRIVE MODE: Exiting

     General routines

     Parallel routines

   This run was terminated on:   1:22:19  23Jul2021

   JOB DONE.