     Program PWSCF v.6.7GPU starts on 15Sep2021 at 19:17:54

     R & G space division:  proc/nbgrp/npool/nimage =      10
     Reading input from /storage/home/hcoda1/3/ntian30/research/carbon/CxH_vib/H2O_calc/ads_slab/CHNHH2O_a/out_0011/pw.inp
Warning: card &CELL ignored
Warning: card   CELL_DYNAMICS='IPI', ignored
Warning: card / ignored

     Current dimensions of program PWSCF are:
     Max number of different atomic species (ntypx) = 10
     Max number of k-points (npk) =  40000
     Max angular momentum in pseudopotentials (lmaxx) =  3
     Presently no symmetry can be used with electric field

     Message from routine cell_base_init:
     DEPRECATED: use true lattice parameter, not A to a.u. conversion factor

     IMPORTANT: XC functional enforced from input :
     Exchange-correlation= BEEF-VDW
                           (   1   4  43  14   2   0   0)
     Any further DFT definition will be discarded
     Please, verify this is what you really want

  @ DRIVER MODE: Connecting to
 qe_1139763_2852628.sched-torque.pace.gatech.edu_shgejau_scratch
  using UNIX socket
  @ DRIVER MODE: Message from server: STATUS
  @ DRIVER MODE: Message from server: INIT
  @ DRIVER MODE: Receiving replica           0          -1
  @ DRIVER MODE: Receiving encoded integer          25
  @ DRIVER MODE:  SCF:  T  FORCE:  T  STRESS:  F  VC:  F  ENSEMBLE:  F
  @ DRIVER MODE:  SCF:  T  FORCE:  T  STRESS:  F  VC:  F  ENSEMBLE:  F

     Using Slab Decomposition

     bravais-lattice index     =            0
     lattice parameter (alat)  =       1.8897  a.u.
     unit-cell volume          =    6658.9804 (a.u.)^3
     number of atoms/cell      =           54
     number of atomic types    =            5
     number of electrons       =       397.00
     number of Kohn-Sham states=          208
     kinetic-energy cutoff     =      29.3995  Ry
     charge density cutoff     =     293.9946  Ry
     scf convergence threshold =      7.3E-08
     mixing beta               =       0.0500
     number of iterations used =            8  plain     mixing
     Exchange-correlation= BEEF-VDW
                           (   1   4  43  14   2   0   0)

     celldm(1)=   1.889726  celldm(2)=   0.000000  celldm(3)=   0.000000
     celldm(4)=   0.000000  celldm(5)=   0.000000  celldm(6)=   0.000000

     crystal axes: (cart. coord. in units of alat)
               a(1) = (   6.579727   0.000000   0.000000 )
               a(2) = (  -0.000775   5.961596   0.000000 )
               a(3) = (   0.000000   0.000000  25.155947 )

     reciprocal axes: (cart. coord. in units 2 pi/alat)
               b(1) = (  0.151982  0.000020  0.000000 )
               b(2) = (  0.000000  0.167740  0.000000 )
               b(3) = (  0.000000  0.000000  0.039752 )

     PseudoPot. # 1 for Ti read from file:
     /storage/coda1/p-amedford6/0/shared/rich_project_chbe-medford/medford-share/data/pseudos_module/espresso/nninc/pbe/van/Ti.UPF
     MD5 check sum: 8e4df49b7f0d34bbd5052bf3f5ea0213
     Pseudo is Ultrasoft, Zval = 12.0
     Generated by new atomic code, or converted to UPF format
     Using radial grid of  851 points,  6 beta functions with:
                l(1) =   0
                l(2) =   0
                l(3) =   1
                l(4) =   1
                l(5) =   2
                l(6) =   2
     Q(r) pseudized with  8 coefficients,  rinner =    1.000   1.000   1.000
                                                       1.000   1.000

     PseudoPot. # 2 for O  read from file:
     /storage/coda1/p-amedford6/0/shared/rich_project_chbe-medford/medford-share/data/pseudos_module/espresso/nninc/pbe/van/O.UPF
     MD5 check sum: 78c19812648e8988a0fe644b0f25305e
     Pseudo is Ultrasoft, Zval =  6.0
     Generated by new atomic code, or converted to UPF format
     Using radial grid of  737 points,  4 beta functions with:
                l(1) =   0
                l(2) =   0
                l(3) =   1
                l(4) =   1
     Q(r) pseudized with  8 coefficients,  rinner =    0.800   0.800   0.800

     PseudoPot. # 3 for N  read from file:
     /storage/coda1/p-amedford6/0/shared/rich_project_chbe-medford/medford-share/data/pseudos_module/espresso/nninc/pbe/van/N.UPF
     MD5 check sum: 90d10febe142ad51ac9d5be1deb811c4
     Pseudo is Ultrasoft, Zval =  5.0
     Generated by new atomic code, or converted to UPF format
     Using radial grid of  729 points,  4 beta functions with:
                l(1) =   0
                l(2) =   0
                l(3) =   1
                l(4) =   1
     Q(r) pseudized with  8 coefficients,  rinner =    0.800   0.800   0.800

     PseudoPot. # 4 for C  read from file:
     /storage/coda1/p-amedford6/0/shared/rich_project_chbe-medford/medford-share/data/pseudos_module/espresso/nninc/pbe/van/C.UPF
     MD5 check sum: 1a69bf6b8db32088f5b2163dbdb77a27
     Pseudo is Ultrasoft, Zval =  4.0
     Generated by new atomic code, or converted to UPF format
     Using radial grid of  721 points,  4 beta functions with:
                l(1) =   0
                l(2) =   0
                l(3) =   1
                l(4) =   1
     Q(r) pseudized with  8 coefficients,  rinner =    0.800   0.800   0.800

     PseudoPot. # 5 for H  read from file:
     /storage/coda1/p-amedford6/0/shared/rich_project_chbe-medford/medford-share/data/pseudos_module/espresso/nninc/pbe/van/H.UPF
     MD5 check sum: b5ee9d7bfd3a09ee7748110bda690ff7
     Pseudo is Ultrasoft, Zval =  1.0
     Generated by new atomic code, or converted to UPF format
     Using radial grid of  615 points,  1 beta functions with:
                l(1) =   0
     Q(r) pseudized with  8 coefficients,  rinner =    0.800

     atomic species   valence    mass     pseudopotential
        Ti1           12.00    47.86700     Ti( 1.00)
        O1             6.00    15.99900     O ( 1.00)
        N1             5.00    14.00700     N ( 1.00)
        C1             4.00    12.01100     C ( 1.00)
        H1             1.00     1.00800     H ( 1.00)

     No symmetry found

   Cartesian axes

     site n.     atom                  positions (alat units)
         1           Ti1 tau(   1) = (   0.0004258   2.9801865   6.0000000  )
         2           Ti1 tau(   2) = (   3.2906075   1.4906267   6.0002472  )
         3           O1  tau(   3) = (   0.0006271   0.0005054   7.9858123  )
         4           O1  tau(   4) = (   3.2906025   0.0005020   7.3038282  )
         5           O1  tau(   5) = (   4.5942328   1.4918067   9.2879030  )
         6           O1  tau(   6) = (   1.9868534   1.4903216   9.2879459  )
         7           Ti1 tau(   7) = (   3.2907910   2.8959150   9.1758416  )
         8           Ti1 tau(   8) = (   0.0015273   1.4827037   9.2680791  )
         9           O1  tau(   9) = (   3.2914171   5.9475995  11.3455371  )
        10           O1  tau(  10) = (   0.0116148   5.9584955  10.6183126  )
        11           O1  tau(  11) = (   1.3057669   1.4807986  12.6390077  )
        12           O1  tau(  12) = (   5.3035249   1.4749620  12.6227664  )
        13           Ti1 tau(  13) = (   6.5294082   2.9362577  12.6231083  )
        14           Ti1 tau(  14) = (   3.2175537   1.4615748  12.5070279  )
        15           O1  tau(  15) = (   6.5585639   5.9474800  14.6380151  )
        16           O1  tau(  16) = (   3.3125803   5.9531145  13.9695519  )
        17           O1  tau(  17) = (   4.5393379   1.5011389  16.1071157  )
        18           O1  tau(  18) = (   2.0094023   1.5044898  16.0307267  )
        19           Ti1 tau(  19) = (   3.2760958   2.9523363  15.6877793  )
        20           Ti1 tau(  20) = (   0.0277933   1.3451898  16.0452527  )
        21           O1  tau(  21) = (   3.2904802   0.0005063   4.7018136  )
        22           O1  tau(  22) = (   0.0198929   5.9263875  17.1601691  )
        23           O1  tau(  23) = (   1.3043587   1.4918075   6.0039043  )
        24           O1  tau(  24) = (   5.2767064   1.4903225   6.0039473  )
        25           Ti1 tau(  25) = (   0.0000382   5.9609847   6.0000000  )
        26           Ti1 tau(  26) = (   3.2902200   4.4714249   6.0002472  )
        27           O1  tau(  27) = (   0.0002396   2.9813036   7.9858123  )
        28           O1  tau(  28) = (   3.2902150   2.9813002   7.3038282  )
        29           O1  tau(  29) = (   4.5938453   4.4726049   9.2879030  )
        30           O1  tau(  30) = (   1.9864658   4.4711199   9.2879459  )
        31           Ti1 tau(  31) = (   3.2891106   5.8743827   9.1763621  )
        32           Ti1 tau(  32) = (   0.0006254   4.4649316   9.2693709  )
        33           O1  tau(  33) = (   3.2862706   2.9662616  11.3468726  )
        34           O1  tau(  34) = (   0.0092240   2.9805883  10.6323155  )
        35           O1  tau(  35) = (   1.3102706   4.4726941  12.6361575  )
        36           O1  tau(  36) = (   5.3014905   4.4644878  12.6181669  )
        37           Ti1 tau(  37) = (   6.5311680   5.9227251  12.5202533  )
        38           Ti1 tau(  38) = (   3.2191334   4.4553394  12.5017427  )
        39           O1  tau(  39) = (   6.5614274   2.9920157  14.6796082  )
        40           O1  tau(  40) = (   3.3146075   2.9603188  13.8993185  )
        41           O1  tau(  41) = (   4.5484517   4.4144432  16.0509510  )
        42           O1  tau(  42) = (   2.0146171   4.4214036  15.9967612  )
        43           Ti1 tau(  43) = (   3.3303817   5.9274347  15.8100502  )
        44           Ti1 tau(  44) = (   0.0273359   4.4939047  15.8144843  )
        45           O1  tau(  45) = (   3.2900926   2.9813045   4.7018136  )
        46           O1  tau(  46) = (   1.3039711   4.4726057   6.0039043  )
        47           O1  tau(  47) = (   5.2763189   4.4711207   6.0039473  )
        48           N1  tau(  48) = (   6.5134970   2.9613368  17.6459670  )
        49           C1  tau(  49) = (   0.7931072   3.0267964  18.6155283  )
        50           H1  tau(  50) = (   1.8307262   2.9311331  18.2395185  )
        51           H1  tau(  51) = (   5.5494773   3.0666896  17.9713127  )
        52           O1  tau(  52) = (   3.1855344   5.8058271  18.1612476  )
        53           H1  tau(  53) = (   3.8461454   0.3022996  18.7034462  )
        54           H1  tau(  54) = (   2.3120581   0.0053998  18.5533318  )

     number of k points=    10  Fermi-Dirac smearing, width (Ry)=  0.0073
                       cart. coord. in units 2pi/alat
        k(    1) = (   0.0000000   0.0000000   0.0000000), wk =   0.1250000
        k(    2) = (   0.0000000   0.0419351   0.0000000), wk =   0.2500000
        k(    3) = (   0.0000000  -0.0838702   0.0000000), wk =   0.1250000
        k(    4) = (   0.0379955   0.0000049   0.0000000), wk =   0.2500000
        k(    5) = (   0.0379955   0.0419400   0.0000000), wk =   0.2500000
        k(    6) = (   0.0379955  -0.0838652   0.0000000), wk =   0.2500000
        k(    7) = (   0.0379955  -0.0419301   0.0000000), wk =   0.2500000
        k(    8) = (  -0.0759910  -0.0000099   0.0000000), wk =   0.1250000
        k(    9) = (  -0.0759910   0.0419252   0.0000000), wk =   0.2500000
        k(   10) = (  -0.0759910  -0.0838800   0.0000000), wk =   0.1250000

     Initial potential from superposition of free atoms

     starting charge  380.99916, renormalised to  397.00000

     negative rho (up, down):  1.756E-02 0.000E+00

     %%%%%%%%%%%%%%%%%%%%%%%%%%%%%%%%%%%%%%%%%%%%%%%%%%%%%%%%%%%%%%%%%%%%%%%%
     %                                                                      %
     % You are using vdW-DF, which was implemented by the Thonhauser group. %
     % Please cite the following two papers that made this development      %
     % possible and the two reviews that describe the various versions:     %
     %                                                                      %
     %   T. Thonhauser et al., PRL 115, 136402 (2015).                      %
     %   T. Thonhauser et al., PRB 76, 125112 (2007).                       %
     %   K. Berland et al., Rep. Prog. Phys. 78, 066501 (2015).             %
     %   D.C. Langreth et al., J. Phys.: Condens. Matter 21, 084203 (2009). %
     %                                                                      %
     %                                                                      %
     % If you are calculating the stress with vdW-DF, please also cite:     %
     %                                                                      %
     %   R. Sabatini et al., J. Phys.: Condens. Matter 24, 424209 (2012).   %
     %                                                                      %
     %%%%%%%%%%%%%%%%%%%%%%%%%%%%%%%%%%%%%%%%%%%%%%%%%%%%%%%%%%%%%%%%%%%%%%%%

     Adding external electric field

     Computed dipole along edir(3) :
        Dipole               -9.1635 Ry au,        -23.2912 Debye
        Dipole field         -0.0173 Ry au,

        Potential amp.        1.6030 Ry
        Total length         46.3494 bohr

     Starting wfcs are  300 atomic wfcs
  @ DRIVER MODE: Message from server: STATUS
  @ DRIVER MODE: Message from server: POSDATA
  @ DRIVER MODE: Reading and sharing cell
  @ DRIVER MODE: Reading and sharing positions
  @ DRIVER MODE: Received positions

     Self-consistent Calculation

     iteration #  1     ecut=    29.40 Ry     beta= 0.05
     Davidson diagonalization with overlap
     c_bands:  1 eigenvalues not converged
     c_bands:  1 eigenvalues not converged
     c_bands:  1 eigenvalues not converged
     c_bands:  1 eigenvalues not converged
     c_bands:  1 eigenvalues not converged
     c_bands:  1 eigenvalues not converged
     c_bands:  1 eigenvalues not converged
     c_bands:  1 eigenvalues not converged
     ethr =  1.00E-05,  avg # of iterations = 19.7

[...]

     total energy              =   -2547.25541770 Ry
     estimated scf accuracy    <    4504.68651819 Ry

     iteration #  2     ecut=    29.40 Ry     beta= 0.05
     Davidson diagonalization with overlap
     ethr =  1.00E-02,  avg # of iterations = 25.5

[...]

     iteration # 50     ecut=    29.40 Ry     beta= 0.05
     Davidson diagonalization with overlap
     c_bands:  2 eigenvalues not converged
     ethr =  1.98E-08,  avg # of iterations = 12.2

[...]

     total energy              =   -2952.61559026 Ry
     estimated scf accuracy    <       0.00000021 Ry

     iteration # 62     ecut=    29.40 Ry     beta= 0.05
     Davidson diagonalization with overlap
     ethr =  5.32E-11,  avg # of iterations = 11.6

     negative rho (up, down):  1.615E-02 0.000E+00

     Adding external electric field

     Computed dipole along edir(3) :
        Dipole                0.4201 Ry au,          1.0678 Debye
        Dipole field          0.0008 Ry au,

        Potential amp.       -0.0735 Ry
        Total length         46.3494 bohr

     End of self-consistent calculation

          k = 0.0000 0.0000 0.0000 ( 18029 PWs)   bands (ev):

   -56.0136 -55.9893 -55.9834 -55.9795 -55.9530 -55.8595 -55.8267 -55.8180
   -55.8160 -55.8011 -55.7925 -55.7676 -55.7421 -55.5726 -54.9992 -54.9651
   -32.5352 -32.4975 -32.3921 -32.3590 -32.3256 -32.3056 -32.2975 -32.2911
   -32.2569 -32.2275 -32.2148 -32.2093 -32.2027 -32.1876 -32.1682 -32.1661
   -32.1415 -32.1193 -32.1182 -32.1147 -32.0823 -32.0709 -32.0621 -32.0297
   -32.0188 -32.0187 -32.0155 -32.0097 -32.0069 -32.0010 -31.9879 -31.9782
   -31.9732 -31.9720 -31.9597 -31.9538 -31.9536 -31.9314 -31.9121 -31.8334
   -31.8172 -31.7296 -31.4065 -31.3174 -31.2950 -31.2232 -31.1367 -31.0257
   -19.2418 -16.7475 -16.5074 -16.3372 -16.1917 -16.1612 -15.9441 -15.8436
   -15.7736 -15.7229 -15.6486 -15.6004 -15.5631 -15.5529 -15.5363 -15.5223
   -15.5162 -15.4697 -15.4580 -15.4469 -15.4318 -15.4196 -15.3793 -15.3631
   -15.3456 -15.2432 -15.1748 -15.1500 -15.1053 -15.0814 -14.7355 -13.5014
   -13.3849  -7.9087  -7.0942  -4.1507  -4.0630  -3.9755  -3.9409  -3.9206
    -3.7717  -3.6881  -3.5727  -3.5103  -3.3126  -3.2929  -3.2124  -3.1859
    -3.1256  -3.0636  -2.9705  -2.9275  -2.8497  -2.8310  -2.8180  -2.7969
    -2.7797  -2.7594  -2.7217  -2.6544  -2.5872  -2.5574  -2.4479  -2.4138
    -2.4069  -2.3410  -2.3295  -2.3228  -2.3086  -2.2736  -2.2514  -2.2483
    -2.1795  -2.1501  -2.0759  -2.0246  -1.9770  -1.8448  -1.6940  -1.6295
    -1.5840  -1.5291  -1.4953  -1.4583  -1.4376  -1.4115  -1.3718  -1.2949
    -1.2329  -1.2203  -1.1489  -1.0559  -0.9856  -0.9510  -0.8794  -0.8157
    -0.7932  -0.7653  -0.7575  -0.7480  -0.7037  -0.5269  -0.4741  -0.4575
    -0.4206  -0.3348  -0.3098  -0.2936  -0.2460  -0.2382  -0.1976  -0.1075
    -0.0883  -0.0541  -0.0360  -0.0235   0.0100   0.0261   0.1837   0.2043
     0.2487   0.2702   0.3667   0.4757   0.5436   0.6338   0.7264   0.9472
     1.0232   1.0996   1.2142   1.5952   1.6413   2.7964   3.1148   3.2030
     3.2401   3.2464   3.2804   3.3521   3.5685   3.5984   3.6161   3.6747

[...]

          k = 0.0380-0.0419 0.0000 ( 17876 PWs)   bands (ev):

[...]

          k =-0.0760-0.0000 0.0000 ( 17886 PWs)   bands (ev):

[...]

          k =-0.0760-0.0839 0.0000 ( 17948 PWs)   bands (ev):

   -55.9972 -55.9957 -55.9820 -55.9730 -55.9686 -55.8504 -55.8272 -55.8176
   -55.8102 -55.8082 -55.7850 -55.7840 -55.7405 -55.5741 -54.9822 -54.9820
   -32.3490 -32.3333 -32.3132 -32.3122 -32.2917 -32.2904 -32.2709 -32.2631
   -32.2429 -32.2095 -32.1945 -32.1911 -32.1861 -32.1652 -32.1370 -32.1318
   -32.1282 -32.1250 -32.1231 -32.1227 -32.1204 -32.1180 -32.1168 -32.1152
   -32.0684 -32.0495 -32.0402 -32.0292 -32.0167 -32.0143 -32.0129 -32.0123
   -32.0112 -32.0000 -31.9981 -31.9898 -31.9818 -31.9698 -31.9654 -31.8374
   -31.8222 -31.8164 -31.3078 -31.3077 -31.2194 -31.2192 -31.1800 -31.1799
   -19.2409 -16.2066 -16.0861 -16.0325 -15.9379 -15.9142 -15.8987 -15.8261
   -15.7864 -15.7211 -15.7101 -15.6871 -15.6786 -15.6722 -15.6070 -15.5779
   -15.5524 -15.5411 -15.4995 -15.4851 -15.4769 -15.4627 -15.4606 -15.4552
   -15.4474 -15.4107 -15.3422 -15.3383 -15.2004 -15.0931 -15.0090 -13.4868
   -13.4864  -7.9180  -7.0957  -3.9215  -3.6959  -3.4848  -3.3078  -3.2584
    -3.1884  -3.1576  -3.1139  -3.0949  -2.9859  -2.9257  -2.9139  -2.8917
    -2.8498  -2.8399  -2.8337  -2.8290  -2.7956  -2.7930  -2.7574  -2.7405
    -2.7065  -2.6912  -2.6889  -2.6787  -2.6563  -2.6375  -2.6042  -2.5812
    -2.5658  -2.5376  -2.5007  -2.3748  -2.2970  -2.2196  -2.2173  -2.1698
    -2.1571  -2.1408  -2.0966  -2.0772  -2.0532  -1.9808  -1.8967  -1.7406
    -1.7212  -1.7000  -1.6686  -1.6127  -1.5183  -1.4916  -1.4656  -1.4141
    -1.4020  -1.3507  -1.3244  -1.2885  -1.2337  -1.1714  -1.1319  -1.1060
    -1.0624  -0.9956  -0.9732  -0.9545  -0.9405  -0.8813  -0.7698  -0.7631
    -0.7571  -0.7076  -0.6921  -0.6635  -0.6474  -0.5504  -0.4707  -0.4124
    -0.3146  -0.1513  -0.0818   0.0268   0.0650   0.1081   0.1545   0.1942
     0.2939   0.2960   0.3631   0.3961   0.4110   0.4982   0.5096   0.5316
     0.6927   1.3858   1.3870   1.4608   1.4613   2.8318   3.3688   3.4169
     3.4508   3.4984   3.6016   3.6217   3.6507   3.6524   3.7290   3.7858

     the Fermi energy is     3.1177 ev

!    total energy              =   -2952.61564160 Ry
     estimated scf accuracy    <       0.00000007 Ry
     smearing contrib. (-TS)   =      -0.02607013 Ry
     internal energy E=F+TS    =   -2952.58957147 Ry

     The total energy is F=E-TS. E is the sum of the following terms:
     one-electron contribution =  -24511.82229676 Ry
     hartree contribution      =   12343.19123681 Ry
     xc contribution           =    -487.97520673 Ry
     ewald contribution        =    9704.01636212 Ry
     electric field correction =       0.00033309 Ry

     convergence has been achieved in  62 iterations

     Forces acting on atoms (cartesian axes, Ry/au):

     atom    1 type  1   force =    -0.00003004   -0.00031331    0.09594421
     atom    2 type  1   force =     0.00005217   -0.00048881   -0.17606792
     atom    3 type  2   force =     0.00010220   -0.00009981   -0.02432166
     atom    4 type  2   force =     0.00000902   -0.00163202    0.05390840
     atom    5 type  2   force =    -0.01178339   -0.00141163    0.00393282
     atom    6 type  2   force =     0.01320925   -0.00102230    0.00317637
     atom    7 type  1   force =     0.00034135    0.00069898   -0.00765149
     atom    8 type  1   force =     0.00026784    0.01495875    0.02332586
     atom    9 type  2   force =    -0.00005349    0.00018167    0.00013948
     atom   10 type  2   force =    -0.00219653    0.00049253   -0.01743165
     atom   11 type  2   force =     0.00046000   -0.00026514   -0.00019118
     atom   12 type  2   force =    -0.00083930   -0.00017407    0.00002196
     atom   13 type  1   force =     0.00045651    0.00044686   -0.00015357
     atom   14 type  1   force =    -0.00018199    0.00004299    0.00077053
     atom   15 type  2   force =    -0.00014382   -0.00005945   -0.00061735
     atom   16 type  2   force =     0.00001664    0.00050897   -0.00010539
     atom   17 type  2   force =    -0.00022412    0.00039145    0.00035128
     atom   18 type  2   force =     0.00007469    0.00021607   -0.00003197
     atom   19 type  1   force =     0.00077789    0.00060182   -0.00088777
     atom   20 type  1   force =    -0.00061154    0.00004237   -0.00127679
     atom   21 type  2   force =     0.00006445   -0.00000321    0.10336392
     atom   22 type  2   force =    -0.00027797   -0.00038042    0.00118055
     atom   23 type  2   force =    -0.07137777   -0.00010363   -0.02763486
     atom   24 type  2   force =     0.07129701    0.00034594   -0.02770343
     atom   25 type  1   force =     0.00024287   -0.00029176    0.09578668
     atom   26 type  1   force =     0.00010807   -0.00028661   -0.17601335
     atom   27 type  2   force =     0.00013947   -0.00029217   -0.02321819
     atom   28 type  2   force =     0.00000064   -0.00132604    0.05367149
     atom   29 type  2   force =    -0.01212958    0.00039844    0.00377923
     atom   30 type  2   force =     0.01351482    0.00101201    0.00302231
     atom   31 type  1   force =     0.00024520    0.00376308   -0.01144293
     atom   32 type  1   force =     0.00044099   -0.01661415    0.02314147
     atom   33 type  2   force =     0.00017482    0.00010246   -0.00030310
     atom   34 type  2   force =    -0.00191572   -0.00010807   -0.02069411
     atom   35 type  2   force =     0.00045009    0.00005664    0.00009826
     atom   36 type  2   force =    -0.00088780   -0.00001588    0.00035219
     atom   37 type  1   force =     0.00082689    0.00006462   -0.00043806
     atom   38 type  1   force =     0.00001253    0.00013731    0.00027633
     atom   39 type  2   force =    -0.00023323    0.00045802   -0.00033242
     atom   40 type  2   force =    -0.00039811   -0.00007352   -0.00007060
     atom   41 type  2   force =    -0.00031967    0.00019766    0.00047671
     atom   42 type  2   force =    -0.00015149    0.00015222    0.00032971
     atom   43 type  1   force =     0.00030430   -0.00008318   -0.00012457
     atom   44 type  1   force =    -0.00016910    0.00009726   -0.00059735
     atom   45 type  2   force =     0.00006933   -0.00000342    0.10332821
     atom   46 type  2   force =    -0.07136612   -0.00005339   -0.02761167
     atom   47 type  2   force =     0.07129061    0.00037712   -0.02768740
     atom   48 type  3   force =    -0.00541018    0.00024224   -0.00870939
     atom   49 type  4   force =     0.00441426    0.00086598    0.01209536
     atom   50 type  5   force =     0.00232268   -0.00088882   -0.00206030
     atom   51 type  5   force =    -0.00007398   -0.00047025    0.00017995
     atom   52 type  2   force =    -0.00018262   -0.00023249    0.00157944
     atom   53 type  5   force =    -0.00081752   -0.00026529   -0.00028347
     atom   54 type  5   force =     0.00008853    0.00010536   -0.00057080

     Total force =     0.368209     Total SCF correction =     0.000739
  @ DRIVER MODE: Message from server: STATUS
  @ DRIVER MODE: Message from server: GETFORCE
  @ DRIVER MODE: Returning v,forces,stress,ensemble

     Writing output data file ./calc.save/
  @ DRIVER MODE: Message from server: EXIT
  @ DRIVE MODE: Exiting

     General routines

     Parallel routines

   This run was terminated on:  19:34:22  15Sep2021

   JOB DONE.