     Program PWSCF v.6.7GPU starts on 22Sep2021 at 18:45: 2

     R & G space division:  proc/nbgrp/npool/nimage =      10
     Reading input from /storage/home/hcoda1/3/ntian30/research/carbon/CxH_vib/H2O_calc/ads_slab/CHNHHO_a/out_0009/pw.inp
Warning: card &CELL ignored
Warning: card   CELL_DYNAMICS='IPI', ignored
Warning: card / ignored

     Current dimensions of program PWSCF are:
     Max number of different atomic species (ntypx) = 10
     Max number of k-points (npk) =  40000
     Max angular momentum in pseudopotentials (lmaxx) =  3
     Presently no symmetry can be used with electric field

     Message from routine cell_base_init:
     DEPRECATED: use true lattice parameter, not A to a.u. conversion factor

     IMPORTANT: XC functional enforced from input :
     Exchange-correlation= BEEF-VDW
                           (   1   4  43  14   2   0   0)
     Any further DFT definition will be discarded
     Please, verify this is what you really want

  @ DRIVER MODE: Connecting to
 qe_1139763_2937314.sched-torque.pace.gatech.eduzlkg8h4j_scratch
  using UNIX socket
  @ DRIVER MODE: Message from server: STATUS
  @ DRIVER MODE: Message from server: INIT
  @ DRIVER MODE: Receiving replica           0          -1
  @ DRIVER MODE: Receiving encoded integer          25
  @ DRIVER MODE:  SCF:  T  FORCE:  T  STRESS:  F  VC:  F  ENSEMBLE:  F
  @ DRIVER MODE:  SCF:  T  FORCE:  T  STRESS:  F  VC:  F  ENSEMBLE:  F

     Using Slab Decomposition

     bravais-lattice index     =            0
     lattice parameter (alat)  =       1.8897  a.u.
     unit-cell volume          =    6658.9804 (a.u.)^3
     number of atoms/cell      =           53
     number of atomic types    =            5
     number of electrons       =       396.00
     number of Kohn-Sham states=          208
     kinetic-energy cutoff     =      29.3995  Ry
     charge density cutoff     =     293.9946  Ry
     scf convergence threshold =      7.3E-08
     mixing beta               =       0.0500
     number of iterations used =            8  plain     mixing
     Exchange-correlation= BEEF-VDW
                           (   1   4  43  14   2   0   0)

     celldm(1)=   1.889726  celldm(2)=   0.000000  celldm(3)=   0.000000
     celldm(4)=   0.000000  celldm(5)=   0.000000  celldm(6)=   0.000000

     crystal axes: (cart. coord. in units of alat)
               a(1) = (   6.579727   0.000000   0.000000 )
               a(2) = (  -0.000775   5.961596   0.000000 )
               a(3) = (   0.000000   0.000000  25.155947 )

     reciprocal axes: (cart. coord. in units 2 pi/alat)
               b(1) = (  0.151982  0.000020  0.000000 )
               b(2) = (  0.000000  0.167740  0.000000 )
               b(3) = (  0.000000  0.000000  0.039752 )

     PseudoPot. # 1 for Ti read from file:
     /storage/coda1/p-amedford6/0/shared/rich_project_chbe-medford/medford-share/data/pseudos_module/espresso/nninc/pbe/van/Ti.UPF
     MD5 check sum: 8e4df49b7f0d34bbd5052bf3f5ea0213
     Pseudo is Ultrasoft, Zval = 12.0
     Generated by new atomic code, or converted to UPF format
     Using radial grid of  851 points,  6 beta functions with:
                l(1) =   0
                l(2) =   0
                l(3) =   1
                l(4) =   1
                l(5) =   2
                l(6) =   2
     Q(r) pseudized with  8 coefficients,  rinner =    1.000   1.000   1.000
                                                       1.000   1.000

     PseudoPot. # 2 for O  read from file:
     /storage/coda1/p-amedford6/0/shared/rich_project_chbe-medford/medford-share/data/pseudos_module/espresso/nninc/pbe/van/O.UPF
     MD5 check sum: 78c19812648e8988a0fe644b0f25305e
     Pseudo is Ultrasoft, Zval =  6.0
     Generated by new atomic code, or converted to UPF format
     Using radial grid of  737 points,  4 beta functions with:
                l(1) =   0
                l(2) =   0
                l(3) =   1
                l(4) =   1
     Q(r) pseudized with  8 coefficients,  rinner =    0.800   0.800   0.800

     PseudoPot. # 3 for N  read from file:
     /storage/coda1/p-amedford6/0/shared/rich_project_chbe-medford/medford-share/data/pseudos_module/espresso/nninc/pbe/van/N.UPF
     MD5 check sum: 90d10febe142ad51ac9d5be1deb811c4
     Pseudo is Ultrasoft, Zval =  5.0
     Generated by new atomic code, or converted to UPF format
     Using radial grid of  729 points,  4 beta functions with:
                l(1) =   0
                l(2) =   0
                l(3) =   1
                l(4) =   1
     Q(r) pseudized with  8 coefficients,  rinner =    0.800   0.800   0.800

     PseudoPot. # 4 for C  read from file:
     /storage/coda1/p-amedford6/0/shared/rich_project_chbe-medford/medford-share/data/pseudos_module/espresso/nninc/pbe/van/C.UPF
     MD5 check sum: 1a69bf6b8db32088f5b2163dbdb77a27
     Pseudo is Ultrasoft, Zval =  4.0
     Generated by new atomic code, or converted to UPF format
     Using radial grid of  721 points,  4 beta functions with:
                l(1) =   0
                l(2) =   0
                l(3) =   1
                l(4) =   1
     Q(r) pseudized with  8 coefficients,  rinner =    0.800   0.800   0.800

     PseudoPot. # 5 for H  read from file:
     /storage/coda1/p-amedford6/0/shared/rich_project_chbe-medford/medford-share/data/pseudos_module/espresso/nninc/pbe/van/H.UPF
     MD5 check sum: b5ee9d7bfd3a09ee7748110bda690ff7
     Pseudo is Ultrasoft, Zval =  1.0
     Generated by new atomic code, or converted to UPF format
     Using radial grid of  615 points,  1 beta functions with:
                l(1) =   0
     Q(r) pseudized with  8 coefficients,  rinner =    0.800

     atomic species   valence    mass     pseudopotential
        Ti1           12.00    47.86700     Ti( 1.00)
        O1             6.00    15.99900     O ( 1.00)
        N1             5.00    14.00700     N ( 1.00)
        C1             4.00    12.01100     C ( 1.00)
        H1             1.00     1.00800     H ( 1.00)

     No symmetry found

   Cartesian axes

     site n.     atom                  positions (alat units)
         1           Ti1 tau(   1) = (   0.0004258   2.9801865   6.0000000  )
         2           Ti1 tau(   2) = (   3.2906075   1.4906267   6.0002472  )
         3           O1  tau(   3) = (   0.0006271   0.0005054   7.9858123  )
         4           O1  tau(   4) = (   3.2906025   0.0005020   7.3038282  )
         5           O1  tau(   5) = (   4.5942328   1.4918067   9.2879030  )
         6           O1  tau(   6) = (   1.9868534   1.4903216   9.2879459  )
         7           Ti1 tau(   7) = (   3.2907910   2.8959150   9.1758416  )
         8           Ti1 tau(   8) = (   0.0015273   1.4827037   9.2680791  )
         9           O1  tau(   9) = (   3.2817170   5.9459930  11.3074998  )
        10           O1  tau(  10) = (   0.0116148   5.9584955  10.6183126  )
        11           O1  tau(  11) = (   1.2737360   1.4926482  12.6406718  )
        12           O1  tau(  12) = (   5.2902952   1.4950437  12.6299455  )
        13           Ti1 tau(  13) = (   6.5743562   2.8588748  12.6391164  )
        14           Ti1 tau(  14) = (   3.2840152   1.3010445  12.6757008  )
        15           O1  tau(  15) = (   6.5722207   0.0022838  14.6395268  )
        16           O1  tau(  16) = (   3.2882888   0.0547267  13.9272720  )
        17           O1  tau(  17) = (   4.5277618   1.5549090  16.0796657  )
        18           O1  tau(  18) = (   1.9889223   1.5445724  16.0964948  )
        19           Ti1 tau(  19) = (   3.2710169   3.0098750  15.6493427  )
        20           Ti1 tau(  20) = (   0.0212523   1.3583160  16.0154628  )
        21           O1  tau(  21) = (   3.2904802   0.0005063   4.7018136  )
        22           O1  tau(  22) = (   6.5278121   5.9442159  17.1408904  )
        23           O1  tau(  23) = (   1.3043587   1.4918075   6.0039043  )
        24           O1  tau(  24) = (   5.2767064   1.4903225   6.0039473  )
        25           Ti1 tau(  25) = (   0.0000382   5.9609847   6.0000000  )
        26           Ti1 tau(  26) = (   3.2902200   4.4714249   6.0002472  )
        27           O1  tau(  27) = (   0.0002396   2.9813036   7.9858123  )
        28           O1  tau(  28) = (   3.2902150   2.9813002   7.3038282  )
        29           O1  tau(  29) = (   4.5938453   4.4726049   9.2879030  )
        30           O1  tau(  30) = (   1.9864658   4.4711199   9.2879459  )
        31           Ti1 tau(  31) = (   3.2891106   5.8743827   9.1763621  )
        32           Ti1 tau(  32) = (   0.0006254   4.4649316   9.2693709  )
        33           O1  tau(  33) = (   3.2809651   3.0158959  11.2742024  )
        34           O1  tau(  34) = (   0.0092240   2.9805883  10.6323155  )
        35           O1  tau(  35) = (   1.2801966   4.4796301  12.6363892  )
        36           O1  tau(  36) = (   5.2833020   4.4787161  12.6245292  )
        37           Ti1 tau(  37) = (   6.5725262   5.8449372  12.5269696  )
        38           Ti1 tau(  38) = (   3.2830651   4.3950422  12.4122791  )
        39           O1  tau(  39) = (   6.5612936   2.9998473  14.7091997  )
        40           O1  tau(  40) = (   3.2734765   2.9867355  13.8776313  )
        41           O1  tau(  41) = (   4.5260587   4.4294304  16.0527172  )
        42           O1  tau(  42) = (   1.9919704   4.4458081  16.0639873  )
        43           Ti1 tau(  43) = (   3.3135318   0.0270965  16.3071496  )
        44           Ti1 tau(  44) = (   0.0294795   4.5257316  15.8201724  )
        45           O1  tau(  45) = (   3.2900926   2.9813045   4.7018136  )
        46           O1  tau(  46) = (   1.3039711   4.4726057   6.0039043  )
        47           O1  tau(  47) = (   5.2763189   4.4711207   6.0039473  )
        48           N1  tau(  48) = (   6.4282372   2.9740631  17.7102171  )
        49           C1  tau(  49) = (   0.6535733   3.0076064  18.7020832  )
        50           H1  tau(  50) = (   1.7291544   2.9413089  18.4820742  )
        51           H1  tau(  51) = (   5.4410488   3.0579230  17.9716058  )
        52           O1  tau(  52) = (   3.3635319   0.0010587  18.1193045  )
        53           H1  tau(  53) = (   4.1580425   0.0400832  18.6733683  )

     number of k points=    10  Fermi-Dirac smearing, width (Ry)=  0.0073
                       cart. coord. in units 2pi/alat
        k(    1) = (   0.0000000   0.0000000   0.0000000), wk =   0.1250000
        k(    2) = (   0.0000000   0.0419351   0.0000000), wk =   0.2500000
        k(    3) = (   0.0000000  -0.0838702   0.0000000), wk =   0.1250000
        k(    4) = (   0.0379955   0.0000049   0.0000000), wk =   0.2500000
        k(    5) = (   0.0379955   0.0419400   0.0000000), wk =   0.2500000
        k(    6) = (   0.0379955  -0.0838652   0.0000000), wk =   0.2500000
        k(    7) = (   0.0379955  -0.0419301   0.0000000), wk =   0.2500000
        k(    8) = (  -0.0759910  -0.0000099   0.0000000), wk =   0.1250000
        k(    9) = (  -0.0759910   0.0419252   0.0000000), wk =   0.2500000
        k(   10) = (  -0.0759910  -0.0838800   0.0000000), wk =   0.1250000

     Initial potential from superposition of free atoms

     starting charge  379.99917, renormalised to  396.00000

     negative rho (up, down):  1.778E-02 0.000E+00

     %%%%%%%%%%%%%%%%%%%%%%%%%%%%%%%%%%%%%%%%%%%%%%%%%%%%%%%%%%%%%%%%%%%%%%%%
     %                                                                      %
     % You are using vdW-DF, which was implemented by the Thonhauser group. %
     % Please cite the following two papers that made this development      %
     % possible and the two reviews that describe the various versions:     %
     %                                                                      %
     %   T. Thonhauser et al., PRL 115, 136402 (2015).                      %
     %   T. Thonhauser et al., PRB 76, 125112 (2007).                       %
     %   K. Berland et al., Rep. Prog. Phys. 78, 066501 (2015).             %
     %   D.C. Langreth et al., J. Phys.: Condens. Matter 21, 084203 (2009). %
     %                                                                      %
     %                                                                      %
     % If you are calculating the stress with vdW-DF, please also cite:     %
     %                                                                      %
     %   R. Sabatini et al., J. Phys.: Condens. Matter 24, 424209 (2012).   %
     %                                                                      %
     %%%%%%%%%%%%%%%%%%%%%%%%%%%%%%%%%%%%%%%%%%%%%%%%%%%%%%%%%%%%%%%%%%%%%%%%

     Adding external electric field

     Computed dipole along edir(3) :
        Dipole               -8.0653 Ry au,        -20.5000 Debye
        Dipole field         -0.0152 Ry au,

        Potential amp.        1.4109 Ry
        Total length         46.3494 bohr

     Starting wfcs are  299 atomic wfcs
  @ DRIVER MODE: Message from server: STATUS
  @ DRIVER MODE: Message from server: POSDATA
  @ DRIVER MODE: Reading and sharing cell
  @ DRIVER MODE: Reading and sharing positions
  @ DRIVER MODE: Received positions

     Self-consistent Calculation

     iteration #  1     ecut=    29.40 Ry     beta= 0.05
     Davidson diagonalization with overlap
     c_bands:  1 eigenvalues not converged
     c_bands:  1 eigenvalues not converged
     c_bands:  3 eigenvalues not converged
     c_bands:  1 eigenvalues not converged
     c_bands:  1 eigenvalues not converged
     c_bands:  1 eigenvalues not converged
     ethr =  1.00E-05,  avg # of iterations = 18.6

[...]

     total energy              =   -2618.22926266 Ry
     estimated scf accuracy    <    3681.39226062 Ry

     iteration #  2     ecut=    29.40 Ry     beta= 0.05
     Davidson diagonalization with overlap
     ethr =  1.00E-02,  avg # of iterations = 22.3

[...]

     iteration # 41     ecut=    29.40 Ry     beta= 0.05
     Davidson diagonalization with overlap
     c_bands:  1 eigenvalues not converged
     c_bands:  2 eigenvalues not converged
     c_bands:  1 eigenvalues not converged
     c_bands:  1 eigenvalues not converged
     c_bands:  1 eigenvalues not converged
     ethr =  1.27E-06,  avg # of iterations = 15.4

[...]

     total energy              =   -2951.37644881 Ry
     estimated scf accuracy    <       0.00000025 Ry

     iteration # 67     ecut=    29.40 Ry     beta= 0.05
     Davidson diagonalization with overlap
     ethr =  6.33E-11,  avg # of iterations =  7.2

     negative rho (up, down):  1.666E-02 0.000E+00

     Adding external electric field

     Computed dipole along edir(3) :
        Dipole                0.1830 Ry au,          0.4650 Debye
        Dipole field          0.0003 Ry au,

        Potential amp.       -0.0320 Ry
        Total length         46.3494 bohr

     End of self-consistent calculation

          k = 0.0000 0.0000 0.0000 ( 18029 PWs)   bands (ev):

   -56.4266 -56.3927 -56.1529 -56.1489 -56.1151 -55.9493 -55.8962 -55.8621
   -55.8576 -55.8514 -55.8163 -55.7260 -55.6730 -55.5323 -55.2775 -55.2435
   -32.8910 -32.7207 -32.7005 -32.6218 -32.5809 -32.5142 -32.4874 -32.4466
   -32.4331 -32.4230 -32.3725 -32.3668 -32.3646 -32.3621 -32.3526 -32.3093
   -32.2876 -32.2650 -32.2540 -32.1786 -32.1658 -32.1576 -32.1439 -32.1220
   -32.1059 -32.1005 -32.0974 -32.0665 -32.0641 -32.0563 -32.0359 -32.0163
   -31.9994 -31.9788 -31.9678 -31.9594 -31.9425 -31.8703 -31.8682 -31.7916
   -31.7627 -31.7441 -31.6778 -31.6058 -31.5825 -31.4962 -31.4107 -31.2987
   -16.9181 -16.8236 -16.5929 -16.4398 -16.2735 -16.1816 -16.0530 -16.0280
   -15.9246 -15.8999 -15.8144 -15.7795 -15.7405 -15.6659 -15.6091 -15.5870
   -15.5544 -15.5242 -15.5157 -15.5103 -15.5013 -15.4927 -15.4550 -15.3372
   -15.2962 -15.2464 -15.2328 -15.2186 -15.0875 -14.8299 -14.7854 -13.7753
   -13.6614  -8.2117  -4.6862  -4.2785  -4.2236  -4.1211  -3.9445  -3.8875
    -3.8301  -3.6007  -3.5540  -3.5521  -3.3572  -3.2969  -3.2033  -3.1602
    -3.1450  -3.1004  -3.0283  -3.0173  -2.9864  -2.8983  -2.8581  -2.8500
    -2.8236  -2.7783  -2.7689  -2.6873  -2.6446  -2.6223  -2.5539  -2.5039
    -2.4722  -2.4580  -2.4340  -2.4236  -2.3822  -2.3691  -2.3476  -2.2000
    -2.1846  -2.1613  -2.0841  -2.0101  -1.8535  -1.7721  -1.7620  -1.6631
    -1.5851  -1.5733  -1.5227  -1.4737  -1.3868  -1.3730  -1.3665  -1.3276
    -1.2427  -1.2223  -1.1791  -1.1271  -1.0522  -0.9634  -0.9574  -0.9078
    -0.8740  -0.8090  -0.7213  -0.6868  -0.6277  -0.5869  -0.5549  -0.4826
    -0.4327  -0.4063  -0.3827  -0.3721  -0.3113  -0.2506  -0.2040  -0.1776
    -0.1080  -0.0957  -0.0525   0.0122   0.0342   0.0417   0.1609   0.2031
     0.2162   0.2663   0.3783   0.4357   0.5219   0.5823   0.6533   0.7481
     0.7546   0.9624   1.0699   1.3023   1.3427   2.5810   2.7622   2.8839
     2.9528   3.1540   3.2010   3.2356   3.5095   3.5258   3.5342   3.6157

[...]

          k = 0.0380-0.0419 0.0000 ( 17876 PWs)   bands (ev):

[...]

          k =-0.0760-0.0000 0.0000 ( 17886 PWs)   bands (ev):

[...]

          k =-0.0760-0.0839 0.0000 ( 17948 PWs)   bands (ev):

   -56.4100 -56.4091 -56.1523 -56.1337 -56.1300 -55.9432 -55.9023 -55.8593
   -55.8587 -55.8383 -55.8293 -55.7280 -55.6710 -55.5342 -55.2611 -55.2599
   -32.7075 -32.7073 -32.7056 -32.7052 -32.5327 -32.5316 -32.4537 -32.4489
   -32.4245 -32.3815 -32.3700 -32.3417 -32.3369 -32.3258 -32.3193 -32.2846
   -32.2459 -32.2420 -32.2163 -32.1709 -32.1682 -32.1675 -32.1638 -32.1531
   -32.1282 -32.1208 -32.1193 -32.0722 -32.0691 -32.0629 -32.0611 -32.0591
   -32.0445 -32.0099 -31.9888 -31.9636 -31.9496 -31.9345 -31.8810 -31.8738
   -31.7942 -31.7477 -31.5958 -31.5950 -31.4923 -31.4909 -31.4540 -31.4531
   -16.9031 -16.2433 -16.2182 -16.1253 -16.0950 -16.0727 -16.0507 -16.0333
   -15.8926 -15.8831 -15.8694 -15.8012 -15.7506 -15.7317 -15.6969 -15.6922
   -15.6368 -15.6225 -15.6099 -15.5577 -15.5490 -15.5285 -15.5142 -15.4794
   -15.4486 -15.4206 -15.2554 -15.2010 -15.1456 -15.1194 -14.9182 -13.7643
   -13.7636  -8.2233  -4.6780  -4.1171  -3.5238  -3.4890  -3.3682  -3.3565
    -3.2299  -3.2249  -3.1466  -3.0734  -3.0730  -2.9980  -2.9838  -2.9756
    -2.9364  -2.9189  -2.9114  -2.9105  -2.8696  -2.8600  -2.8389  -2.8220
    -2.8190  -2.8034  -2.7646  -2.7247  -2.7030  -2.6901  -2.6356  -2.6226
    -2.4996  -2.4372  -2.4099  -2.4094  -2.3871  -2.3500  -2.3192  -2.3026
    -2.2738  -2.2360  -2.1573  -2.0367  -2.0158  -1.8201  -1.8020  -1.7708
    -1.7497  -1.7049  -1.6996  -1.6337  -1.5831  -1.5690  -1.5522  -1.5268
    -1.4262  -1.3747  -1.3247  -1.3214  -1.2697  -1.2503  -1.2020  -1.1002
    -1.0512  -1.0213  -0.9948  -0.9821  -0.9441  -0.9184  -0.8649  -0.8246
    -0.8204  -0.7930  -0.7504  -0.5810  -0.4106  -0.3677  -0.3461  -0.2750
    -0.2597  -0.2105  -0.0761  -0.0305  -0.0212   0.0160   0.0563   0.0856
     0.0996   0.1616   0.3445   0.3596   0.4276   0.4754   0.4816   0.5688
     0.6651   1.1269   1.1346   1.1615   1.1623   2.6094   3.3070   3.3091
     3.3108   3.3273   3.4058   3.4678   3.4771   3.5139   3.5929   3.6318

     the Fermi energy is     2.7258 ev

!    total energy              =   -2951.37646999 Ry
     estimated scf accuracy    <       0.00000007 Ry
     smearing contrib. (-TS)   =      -0.01732163 Ry
     internal energy E=F+TS    =   -2951.35914836 Ry

     The total energy is F=E-TS. E is the sum of the following terms:
     one-electron contribution =  -24273.33198942 Ry
     hartree contribution      =   12222.70456291 Ry
     xc contribution           =    -487.04632893 Ry
     ewald contribution        =    9586.31454391 Ry
     electric field correction =       0.00006317 Ry

     convergence has been achieved in  67 iterations

     Forces acting on atoms (cartesian axes, Ry/au):

     atom    1 type  1   force =     0.00006061   -0.00028539    0.10087505
     atom    2 type  1   force =    -0.00005624    0.00024714   -0.16921078
     atom    3 type  2   force =     0.00000661   -0.00004346   -0.02993305
     atom    4 type  2   force =     0.00000051   -0.00099154    0.04189428
     atom    5 type  2   force =    -0.00519762   -0.00241762   -0.00304071
     atom    6 type  2   force =     0.00634828   -0.00183627   -0.00464982
     atom    7 type  1   force =    -0.00066163   -0.00537357    0.02527781
     atom    8 type  1   force =     0.00077838    0.01604657    0.04128720
     atom    9 type  2   force =    -0.00021489    0.00022996    0.00017028
     atom   10 type  2   force =    -0.00258127    0.00083327   -0.03437085
     atom   11 type  2   force =     0.00011731    0.00002749    0.00006604
     atom   12 type  2   force =     0.00021663   -0.00035709    0.00004480
     atom   13 type  1   force =    -0.00070633   -0.00011526   -0.00017636
     atom   14 type  1   force =     0.00018292    0.00009605    0.00024241
     atom   15 type  2   force =     0.00021883    0.00035914    0.00017121
     atom   16 type  2   force =     0.00004509   -0.00014430   -0.00012628
     atom   17 type  2   force =    -0.00007110    0.00009358    0.00015404
     atom   18 type  2   force =     0.00015700   -0.00010042    0.00008316
     atom   19 type  1   force =     0.00002948    0.00025470    0.00020167
     atom   20 type  1   force =    -0.00006749    0.00004414    0.00018354
     atom   21 type  2   force =     0.00007230    0.00015297    0.10147516
     atom   22 type  2   force =    -0.00000826    0.00016187    0.00029680
     atom   23 type  2   force =    -0.07487627   -0.00008907   -0.02879174
     atom   24 type  2   force =     0.07480761    0.00036224   -0.02882346
     atom   25 type  1   force =     0.00018770   -0.00035703    0.10072392
     atom   26 type  1   force =     0.00001474   -0.00114055   -0.16942862
     atom   27 type  2   force =     0.00004485   -0.00039979   -0.02841761
     atom   28 type  2   force =     0.00000970    0.00074704    0.03787431
     atom   29 type  2   force =    -0.00388944    0.00436752   -0.00526687
     atom   30 type  2   force =     0.00496772    0.00489232   -0.00693787
     atom   31 type  1   force =    -0.00064411    0.00466941    0.01111688
     atom   32 type  1   force =     0.00088742   -0.01905396    0.04065040
     atom   33 type  2   force =     0.00044248   -0.00000863    0.00023813
     atom   34 type  2   force =    -0.00214378    0.00071147   -0.03962397
     atom   35 type  2   force =     0.00012888   -0.00048432   -0.00013944
     atom   36 type  2   force =     0.00014374   -0.00021698    0.00010608
     atom   37 type  1   force =    -0.00004279   -0.00010448    0.00003465
     atom   38 type  1   force =     0.00001041    0.00007165    0.00011849
     atom   39 type  2   force =    -0.00003558    0.00036827   -0.00018940
     atom   40 type  2   force =     0.00032582   -0.00005543    0.00024144
     atom   41 type  2   force =     0.00003051    0.00009763    0.00031998
     atom   42 type  2   force =    -0.00005874    0.00010337    0.00030374
     atom   43 type  1   force =     0.00016830   -0.00012019    0.00056280
     atom   44 type  1   force =    -0.00015944   -0.00017657   -0.00051746
     atom   45 type  2   force =     0.00006728   -0.00000116    0.10125687
     atom   46 type  2   force =    -0.07492413   -0.00001137   -0.02882406
     atom   47 type  2   force =     0.07484039    0.00041737   -0.02884985
     atom   48 type  3   force =    -0.00054683    0.00039794    0.00077178
     atom   49 type  4   force =    -0.00066377    0.00120176   -0.00000323
     atom   50 type  5   force =     0.00007751   -0.00122555   -0.00012544
     atom   51 type  5   force =     0.00175057   -0.00130472    0.00002750
     atom   52 type  2   force =    -0.00019127   -0.00018724    0.00157807
     atom   53 type  5   force =     0.00060141   -0.00035290   -0.00090161

     Total force =     0.369711     Total SCF correction =     0.000925
  @ DRIVER MODE: Message from server: STATUS
  @ DRIVER MODE: Message from server: GETFORCE
  @ DRIVER MODE: Returning v,forces,stress,ensemble

     Writing output data file ./calc.save/
  @ DRIVER MODE: Message from server: EXIT
  @ DRIVE MODE: Exiting

     General routines

     Parallel routines

   This run was terminated on:  19: 3:27  22Sep2021

   JOB DONE.