     Program PWSCF v.6.7GPU starts on  9Sep2021 at  8:17:44

     R & G space division:  proc/nbgrp/npool/nimage =      10
     Reading input from /storage/home/hcoda1/3/ntian30/research/carbon/CxH_vib/CH3_calc/ads_slab/CH3NHNH2_a/out_0032/pw.inp
Warning: card &CELL ignored
Warning: card   CELL_DYNAMICS='IPI', ignored
Warning: card / ignored

     Current dimensions of program PWSCF are:
     Max number of different atomic species (ntypx) = 10
     Max number of k-points (npk) =  40000
     Max angular momentum in pseudopotentials (lmaxx) =  3
     Presently no symmetry can be used with electric field

     Message from routine cell_base_init:
     DEPRECATED: use true lattice parameter, not A to a.u. conversion factor

     IMPORTANT: XC functional enforced from input :
     Exchange-correlation= BEEF-VDW
                           (   1   4  43  14   2   0   0)
     Any further DFT definition will be discarded
     Please, verify this is what you really want

  @ DRIVER MODE: Connecting to
 qe_1139763_2767398.sched-torque.pace.gatech.edu02h502m0_scratch
  using UNIX socket
  @ DRIVER MODE: Message from server: STATUS
  @ DRIVER MODE: Message from server: INIT
  @ DRIVER MODE: Receiving replica           0          -1
  @ DRIVER MODE: Receiving encoded integer          25
  @ DRIVER MODE:  SCF:  T  FORCE:  T  STRESS:  F  VC:  F  ENSEMBLE:  F
  @ DRIVER MODE:  SCF:  T  FORCE:  T  STRESS:  F  VC:  F  ENSEMBLE:  F

     Using Slab Decomposition

     bravais-lattice index     =            0
     lattice parameter (alat)  =       1.8897  a.u.
     unit-cell volume          =    6658.9804 (a.u.)^3
     number of atoms/cell      =           56
     number of atomic types    =            5
     number of electrons       =       398.00
     number of Kohn-Sham states=          209
     kinetic-energy cutoff     =      29.3995  Ry
     charge density cutoff     =     293.9946  Ry
     scf convergence threshold =      7.3E-08
     mixing beta               =       0.0500
     number of iterations used =            8  plain     mixing
     Exchange-correlation= BEEF-VDW
                           (   1   4  43  14   2   0   0)

     celldm(1)=   1.889726  celldm(2)=   0.000000  celldm(3)=   0.000000
     celldm(4)=   0.000000  celldm(5)=   0.000000  celldm(6)=   0.000000

     crystal axes: (cart. coord. in units of alat)
               a(1) = (   6.579727   0.000000   0.000000 )
               a(2) = (  -0.000775   5.961596   0.000000 )
               a(3) = (   0.000000   0.000000  25.155947 )

     reciprocal axes: (cart. coord. in units 2 pi/alat)
               b(1) = (  0.151982  0.000020  0.000000 )
               b(2) = (  0.000000  0.167740  0.000000 )
               b(3) = (  0.000000  0.000000  0.039752 )

     PseudoPot. # 1 for Ti read from file:
     /storage/coda1/p-amedford6/0/shared/rich_project_chbe-medford/medford-share/data/pseudos_module/espresso/nninc/pbe/van/Ti.UPF
     MD5 check sum: 8e4df49b7f0d34bbd5052bf3f5ea0213
     Pseudo is Ultrasoft, Zval = 12.0
     Generated by new atomic code, or converted to UPF format
     Using radial grid of  851 points,  6 beta functions with:
                l(1) =   0
                l(2) =   0
                l(3) =   1
                l(4) =   1
                l(5) =   2
                l(6) =   2
     Q(r) pseudized with  8 coefficients,  rinner =    1.000   1.000   1.000
                                                       1.000   1.000

     PseudoPot. # 2 for O  read from file:
     /storage/coda1/p-amedford6/0/shared/rich_project_chbe-medford/medford-share/data/pseudos_module/espresso/nninc/pbe/van/O.UPF
     MD5 check sum: 78c19812648e8988a0fe644b0f25305e
     Pseudo is Ultrasoft, Zval =  6.0
     Generated by new atomic code, or converted to UPF format
     Using radial grid of  737 points,  4 beta functions with:
                l(1) =   0
                l(2) =   0
                l(3) =   1
                l(4) =   1
     Q(r) pseudized with  8 coefficients,  rinner =    0.800   0.800   0.800

     PseudoPot. # 3 for N  read from file:
     /storage/coda1/p-amedford6/0/shared/rich_project_chbe-medford/medford-share/data/pseudos_module/espresso/nninc/pbe/van/N.UPF
     MD5 check sum: 90d10febe142ad51ac9d5be1deb811c4
     Pseudo is Ultrasoft, Zval =  5.0
     Generated by new atomic code, or converted to UPF format
     Using radial grid of  729 points,  4 beta functions with:
                l(1) =   0
                l(2) =   0
                l(3) =   1
                l(4) =   1
     Q(r) pseudized with  8 coefficients,  rinner =    0.800   0.800   0.800

     PseudoPot. # 4 for C  read from file:
     /storage/coda1/p-amedford6/0/shared/rich_project_chbe-medford/medford-share/data/pseudos_module/espresso/nninc/pbe/van/C.UPF
     MD5 check sum: 1a69bf6b8db32088f5b2163dbdb77a27
     Pseudo is Ultrasoft, Zval =  4.0
     Generated by new atomic code, or converted to UPF format
     Using radial grid of  721 points,  4 beta functions with:
                l(1) =   0
                l(2) =   0
                l(3) =   1
                l(4) =   1
     Q(r) pseudized with  8 coefficients,  rinner =    0.800   0.800   0.800

     PseudoPot. # 5 for H  read from file:
     /storage/coda1/p-amedford6/0/shared/rich_project_chbe-medford/medford-share/data/pseudos_module/espresso/nninc/pbe/van/H.UPF
     MD5 check sum: b5ee9d7bfd3a09ee7748110bda690ff7
     Pseudo is Ultrasoft, Zval =  1.0
     Generated by new atomic code, or converted to UPF format
     Using radial grid of  615 points,  1 beta functions with:
                l(1) =   0
     Q(r) pseudized with  8 coefficients,  rinner =    0.800

     atomic species   valence    mass     pseudopotential
        Ti1           12.00    47.86700     Ti( 1.00)
        O1             6.00    15.99900     O ( 1.00)
        N1             5.00    14.00700     N ( 1.00)
        C1             4.00    12.01100     C ( 1.00)
        H1             1.00     1.00800     H ( 1.00)

     No symmetry found

   Cartesian axes

     site n.     atom                  positions (alat units)
         1           Ti1 tau(   1) = (   0.0004258   2.9801865   6.0000000  )
         2           Ti1 tau(   2) = (   3.2906075   1.4906267   6.0002472  )
         3           O1  tau(   3) = (   0.0006271   0.0005054   7.9858123  )
         4           O1  tau(   4) = (   3.2906025   0.0005020   7.3038282  )
         5           O1  tau(   5) = (   4.5942328   1.4918067   9.2879030  )
         6           O1  tau(   6) = (   1.9868534   1.4903216   9.2879459  )
         7           Ti1 tau(   7) = (   3.2907910   2.8959150   9.1758416  )
         8           Ti1 tau(   8) = (   0.0015273   1.4827037   9.2680791  )
         9           O1  tau(   9) = (   3.2714441   0.0289406  11.3813764  )
        10           O1  tau(  10) = (   0.0116148   5.9584955  10.6183126  )
        11           O1  tau(  11) = (   1.2692032   1.5162281  12.7122965  )
        12           O1  tau(  12) = (   5.2779133   1.5159715  12.6811497  )
        13           Ti1 tau(  13) = (   6.5579218   3.0031650  12.5037829  )
        14           Ti1 tau(  14) = (   3.2791490   1.5128154  12.5375672  )
        15           O1  tau(  15) = (   6.5208524   5.8954130  14.6845636  )
        16           O1  tau(  16) = (   3.2849572   0.0099931  14.0031570  )
        17           O1  tau(  17) = (   4.4884262   1.5607690  16.1641467  )
        18           O1  tau(  18) = (   1.9729656   1.5430890  16.0903287  )
        19           Ti1 tau(  19) = (   3.2372663   3.0309179  15.7728032  )
        20           Ti1 tau(  20) = (   6.5553692   1.3539605  15.8053163  )
        21           O1  tau(  21) = (   3.2904802   0.0005063   4.7018136  )
        22           O1  tau(  22) = (   6.5123495   0.2165906  17.2215032  )
        23           O1  tau(  23) = (   1.3043587   1.4918075   6.0039043  )
        24           O1  tau(  24) = (   5.2767064   1.4903225   6.0039473  )
        25           Ti1 tau(  25) = (   0.0000382   5.9609847   6.0000000  )
        26           Ti1 tau(  26) = (   3.2902200   4.4714249   6.0002472  )
        27           O1  tau(  27) = (   0.0002396   2.9813036   7.9858123  )
        28           O1  tau(  28) = (   3.2902150   2.9813002   7.3038282  )
        29           O1  tau(  29) = (   4.5938453   4.4726049   9.2879030  )
        30           O1  tau(  30) = (   1.9864658   4.4711199   9.2879459  )
        31           Ti1 tau(  31) = (   3.2891106   5.8743827   9.1763621  )
        32           Ti1 tau(  32) = (   0.0006254   4.4649316   9.2693709  )
        33           O1  tau(  33) = (   3.2699379   2.9911670  11.3762017  )
        34           O1  tau(  34) = (   0.0092240   2.9805883  10.6323155  )
        35           O1  tau(  35) = (   1.2730946   4.4825978  12.6662957  )
        36           O1  tau(  36) = (   5.2742290   4.4829497  12.6320226  )
        37           Ti1 tau(  37) = (   6.5783117   0.0079037  12.5026730  )
        38           Ti1 tau(  38) = (   3.2784283   4.4905194  12.5286134  )
        39           O1  tau(  39) = (   6.5033290   3.0824797  14.9867588  )
        40           O1  tau(  40) = (   3.2824109   3.0350539  13.9807796  )
        41           O1  tau(  41) = (   4.4804250   4.5097483  16.2808085  )
        42           O1  tau(  42) = (   1.9642025   4.5165872  16.2225063  )
        43           Ti1 tau(  43) = (   3.2609991   0.0502580  15.7998297  )
        44           Ti1 tau(  44) = (   6.5501253   4.5826093  16.0954727  )
        45           O1  tau(  45) = (   3.2900926   2.9813045   4.7018136  )
        46           O1  tau(  46) = (   1.3039711   4.4726057   6.0039043  )
        47           O1  tau(  47) = (   5.2763189   4.4711207   6.0039473  )
        48           N1  tau(  48) = (   0.8845045   3.2634721  19.1145209  )
        49           N1  tau(  49) = (   6.3504243   3.3997271  18.1887592  )
        50           C1  tau(  50) = (   1.2927081   4.5631590  19.6429350  )
        51           H1  tau(  51) = (   0.4658632   5.1229972  20.1056819  )
        52           H1  tau(  52) = (   2.0600825   4.3818216  20.3958833  )
        53           H1  tau(  53) = (   1.7118904   5.1738364  18.8453250  )
        54           H1  tau(  54) = (   0.5628611   2.6866381  19.8888112  )
        55           H1  tau(  55) = (   5.6051421   3.9827062  18.5884547  )
        56           H1  tau(  56) = (   5.9567982   2.4624696  18.0937858  )

     number of k points=    10  Fermi-Dirac smearing, width (Ry)=  0.0073
                       cart. coord. in units 2pi/alat
        k(    1) = (   0.0000000   0.0000000   0.0000000), wk =   0.1250000
        k(    2) = (   0.0000000   0.0419351   0.0000000), wk =   0.2500000
        k(    3) = (   0.0000000  -0.0838702   0.0000000), wk =   0.1250000
        k(    4) = (   0.0379955   0.0000049   0.0000000), wk =   0.2500000
        k(    5) = (   0.0379955   0.0419400   0.0000000), wk =   0.2500000
        k(    6) = (   0.0379955  -0.0838652   0.0000000), wk =   0.2500000
        k(    7) = (   0.0379955  -0.0419301   0.0000000), wk =   0.2500000
        k(    8) = (  -0.0759910  -0.0000099   0.0000000), wk =   0.1250000
        k(    9) = (  -0.0759910   0.0419252   0.0000000), wk =   0.2500000
        k(   10) = (  -0.0759910  -0.0838800   0.0000000), wk =   0.1250000

     Initial potential from superposition of free atoms

     starting charge  381.99914, renormalised to  398.00000

     negative rho (up, down):  1.416E-02 0.000E+00

     %%%%%%%%%%%%%%%%%%%%%%%%%%%%%%%%%%%%%%%%%%%%%%%%%%%%%%%%%%%%%%%%%%%%%%%%
     %                                                                      %
     % You are using vdW-DF, which was implemented by the Thonhauser group. %
     % Please cite the following two papers that made this development      %
     % possible and the two reviews that describe the various versions:     %
     %                                                                      %
     %   T. Thonhauser et al., PRL 115, 136402 (2015).                      %
     %   T. Thonhauser et al., PRB 76, 125112 (2007).                       %
     %   K. Berland et al., Rep. Prog. Phys. 78, 066501 (2015).             %
     %   D.C. Langreth et al., J. Phys.: Condens. Matter 21, 084203 (2009). %
     %                                                                      %
     %                                                                      %
     % If you are calculating the stress with vdW-DF, please also cite:     %
     %                                                                      %
     %   R. Sabatini et al., J. Phys.: Condens. Matter 24, 424209 (2012).   %
     %                                                                      %
     %%%%%%%%%%%%%%%%%%%%%%%%%%%%%%%%%%%%%%%%%%%%%%%%%%%%%%%%%%%%%%%%%%%%%%%%

     Adding external electric field

     Computed dipole along edir(3) :
        Dipole              -11.7171 Ry au,        -29.7818 Debye
        Dipole field         -0.0221 Ry au,

        Potential amp.        2.0497 Ry
        Total length         46.3494 bohr

     Starting wfcs are  302 atomic wfcs
  @ DRIVER MODE: Message from server: STATUS
  @ DRIVER MODE: Message from server: POSDATA
  @ DRIVER MODE: Reading and sharing cell
  @ DRIVER MODE: Reading and sharing positions
  @ DRIVER MODE: Received positions

     Self-consistent Calculation

     iteration #  1     ecut=    29.40 Ry     beta= 0.05
     Davidson diagonalization with overlap
     c_bands:  3 eigenvalues not converged
     c_bands:  1 eigenvalues not converged
     c_bands:  1 eigenvalues not converged
     c_bands:  4 eigenvalues not converged
     c_bands:  1 eigenvalues not converged
     c_bands:  4 eigenvalues not converged
     c_bands:  5 eigenvalues not converged
     c_bands:  2 eigenvalues not converged
     ethr =  1.00E-05,  avg # of iterations = 21.9

[...]

     total energy              =   -2424.57081306 Ry
     estimated scf accuracy    <    5830.28137073 Ry

     iteration #  2     ecut=    29.40 Ry     beta= 0.05
     Davidson diagonalization with overlap
     ethr =  1.00E-02,  avg # of iterations = 22.4

[...]

     iteration # 79     ecut=    29.40 Ry     beta= 0.05
     Davidson diagonalization with overlap
     c_bands:  2 eigenvalues not converged
     ethr =  1.02E-09,  avg # of iterations = 12.0

[...]

     total energy              =   -2942.84391536 Ry
     estimated scf accuracy    <       0.00000008 Ry

     iteration # 88     ecut=    29.40 Ry     beta= 0.05
     Davidson diagonalization with overlap
     ethr =  2.10E-11,  avg # of iterations = 12.0

     negative rho (up, down):  1.512E-02 0.000E+00

     Adding external electric field

     Computed dipole along edir(3) :
        Dipole                1.4962 Ry au,          3.8029 Debye
        Dipole field          0.0028 Ry au,

        Potential amp.       -0.2617 Ry
        Total length         46.3494 bohr

     End of self-consistent calculation

          k = 0.0000 0.0000 0.0000 ( 18029 PWs)   bands (ev):

   -55.2009 -55.1637 -55.1530 -55.1242 -55.1189 -55.0822 -55.0790 -55.0442
   -55.0249 -55.0119 -54.9906 -54.9856 -54.9520 -54.8553 -54.1854 -54.1513
   -31.7672 -31.6510 -31.6460 -31.5672 -31.5142 -31.5132 -31.5104 -31.4917
   -31.4420 -31.4384 -31.4105 -31.4083 -31.3980 -31.3811 -31.3681 -31.3625
   -31.3553 -31.3455 -31.3383 -31.3213 -31.3056 -31.3028 -31.2711 -31.2673
   -31.2567 -31.2557 -31.2372 -31.2276 -31.2102 -31.2095 -31.2052 -31.1845
   -31.1844 -31.1811 -31.1742 -31.1717 -31.1383 -31.1287 -31.1140 -31.0971
   -31.0686 -31.0492 -30.5949 -30.5003 -30.4783 -30.4112 -30.3244 -30.2136
   -17.9604 -16.0345 -15.7722 -15.6268 -15.5146 -15.4033 -15.2838 -15.2529
   -15.1332 -15.0571 -14.9232 -14.8968 -14.8746 -14.8509 -14.8390 -14.8265
   -14.7507 -14.7441 -14.7282 -14.6998 -14.6980 -14.6528 -14.6430 -14.6037
   -14.5787 -14.5576 -14.4528 -14.3645 -14.2906 -14.0737 -13.4402 -12.6878
   -12.5702  -9.7034  -6.5962  -6.0873  -4.5914  -3.3730  -3.2646  -3.2247
    -3.1380  -3.1049  -3.0954  -2.9872  -2.9434  -2.7912  -2.6487  -2.6227
    -2.4922  -2.4172  -2.4007  -2.3764  -2.2467  -2.2115  -2.1602  -2.1215
    -2.0621  -2.0319  -2.0078  -1.9921  -1.9610  -1.9519  -1.9268  -1.8377
    -1.7783  -1.6855  -1.6683  -1.6006  -1.5926  -1.5598  -1.5387  -1.4935
    -1.4832  -1.4338  -1.4264  -1.4138  -1.3938  -1.2657  -1.2223  -1.1124
    -1.0512  -0.9637  -0.8428  -0.8027  -0.7887  -0.6979  -0.6890  -0.6572
    -0.5808  -0.5776  -0.5469  -0.4387  -0.3737  -0.3101  -0.2512  -0.2248
    -0.1917  -0.1142  -0.0234   0.0127   0.0294   0.0526   0.1527   0.1878
     0.2434   0.3102   0.3218   0.3351   0.4147   0.4558   0.5310   0.5676
     0.5853   0.6740   0.7004   0.7282   0.7288   0.7665   0.7808   0.8205
     0.8692   0.8960   0.9824   1.0430   1.1034   1.3482   1.4008   1.4070
     1.7329   1.7410   1.8375   2.0209   2.4140   2.4624   3.8956   3.9644
     4.0400   4.0451   4.0676   4.1313   4.3692   4.3923   4.4013   4.4035
     4.4301

[...]

          k = 0.0380-0.0419 0.0000 ( 17876 PWs)   bands (ev):

[...]

          k =-0.0760-0.0000 0.0000 ( 17886 PWs)   bands (ev):

[...]

          k =-0.0760-0.0839 0.0000 ( 17948 PWs)   bands (ev):

   -55.1870 -55.1773 -55.1361 -55.1358 -55.1229 -55.0779 -55.0647 -55.0585
   -55.0162 -55.0091 -55.0060 -54.9692 -54.9686 -54.8564 -54.1685 -54.1681
   -31.5753 -31.5744 -31.5675 -31.4829 -31.4611 -31.4610 -31.4579 -31.4272
   -31.4272 -31.4118 -31.4009 -31.3993 -31.3906 -31.3649 -31.3557 -31.3426
   -31.3416 -31.3378 -31.3346 -31.3290 -31.3271 -31.3210 -31.2820 -31.2788
   -31.2785 -31.2772 -31.2594 -31.2580 -31.2558 -31.2554 -31.2506 -31.2421
   -31.2392 -31.2222 -31.2189 -31.2029 -31.2022 -31.1993 -31.1499 -31.1495
   -31.1250 -31.0730 -30.4911 -30.4908 -30.4075 -30.4073 -30.3679 -30.3677
   -17.9571 -15.5594 -15.4295 -15.4004 -15.2439 -15.2078 -15.1745 -15.1611
   -15.0402 -15.0031 -14.9783 -14.9690 -14.9514 -14.9109 -14.9053 -14.8984
   -14.8278 -14.8086 -14.8043 -14.7820 -14.7238 -14.7148 -14.7109 -14.7034
   -14.6528 -14.6492 -14.5687 -14.5585 -14.5553 -14.3749 -13.4437 -12.6717
   -12.6717  -9.7194  -6.5803  -6.0877  -4.5706  -3.2362  -2.9384  -2.6918
    -2.6867  -2.6589  -2.4579  -2.3952  -2.3645  -2.3589  -2.2617  -2.2251
    -2.2006  -2.1971  -2.1315  -2.1170  -2.0864  -2.0562  -2.0400  -2.0261
    -2.0106  -1.9965  -1.9709  -1.9333  -1.9253  -1.9171  -1.8852  -1.8636
    -1.8406  -1.8183  -1.8048  -1.7863  -1.7604  -1.7379  -1.6012  -1.5695
    -1.4992  -1.4564  -1.4127  -1.4083  -1.3367  -1.3002  -1.2502  -1.2379
    -1.2209  -1.0811  -1.0226  -0.9719  -0.9519  -0.9409  -0.8118  -0.7978
    -0.7246  -0.7071  -0.6908  -0.6158  -0.5652  -0.5269  -0.5133  -0.4201
    -0.4046  -0.3382  -0.2361  -0.2135  -0.1995  -0.1588  -0.1558  -0.1086
    -0.1015  -0.0174   0.0268   0.0619   0.0727   0.1085   0.3014   0.3172
     0.3274   0.4805   0.4963   0.6378   0.6814   0.7479   0.8067   0.8457
     0.9075   0.9448   1.0536   1.0869   1.1025   1.1101   1.1721   1.1840
     1.2468   1.2575   2.1936   2.1942   2.2822   2.2826   4.0416   4.1489
     4.1566   4.1983   4.3181   4.3484   4.4106   4.4378   4.4794   4.4826
     4.5426

     the Fermi energy is     3.9589 ev

!    total energy              =   -2942.84391962 Ry
     estimated scf accuracy    <       0.00000007 Ry
     smearing contrib. (-TS)   =      -0.03707685 Ry
     internal energy E=F+TS    =   -2942.80684277 Ry

     The total energy is F=E-TS. E is the sum of the following terms:
     one-electron contribution =  -23366.64709536 Ry
     hartree contribution      =   11777.50753162 Ry
     xc contribution           =    -487.73816645 Ry
     ewald contribution        =    9134.06666303 Ry
     electric field correction =       0.00422439 Ry

     convergence has been achieved in  88 iterations

     Forces acting on atoms (cartesian axes, Ry/au):

     atom    1 type  1   force =     0.00017092   -0.00033292    0.09326894
     atom    2 type  1   force =    -0.00005914   -0.00042850   -0.17827745
     atom    3 type  2   force =     0.00002568   -0.00032432   -0.02004089
     atom    4 type  2   force =     0.00002104   -0.00183364    0.05925023
     atom    5 type  2   force =    -0.01046788   -0.00026479    0.00864786
     atom    6 type  2   force =     0.01148248    0.00040635    0.00646126
     atom    7 type  1   force =    -0.00099964    0.00212432   -0.01398497
     atom    8 type  1   force =     0.00081756   -0.00094484   -0.00572415
     atom    9 type  2   force =    -0.00010104    0.00012434   -0.00001167
     atom   10 type  2   force =    -0.00185291    0.00411270    0.00028187
     atom   11 type  2   force =    -0.00006099   -0.00063979    0.00029525
     atom   12 type  2   force =    -0.00001829   -0.00041050    0.00054980
     atom   13 type  1   force =     0.00003913    0.00010408    0.00031492
     atom   14 type  1   force =    -0.00037049    0.00000319    0.00007855
     atom   15 type  2   force =     0.00052099    0.00022700   -0.00032332
     atom   16 type  2   force =     0.00032188   -0.00035268   -0.00004267
     atom   17 type  2   force =    -0.00060294   -0.00001535   -0.00001628
     atom   18 type  2   force =     0.00056269   -0.00018972    0.00001163
     atom   19 type  1   force =    -0.00002337   -0.00055020    0.00018257
     atom   20 type  1   force =     0.00069865    0.00008060    0.00096117
     atom   21 type  2   force =     0.00012424   -0.00012705    0.10404225
     atom   22 type  2   force =    -0.00042838    0.00021331   -0.00035216
     atom   23 type  2   force =    -0.07027448   -0.00022491   -0.02687202
     atom   24 type  2   force =     0.07026501    0.00021267   -0.02689651
     atom   25 type  1   force =     0.00008199   -0.00031894    0.09259380
     atom   26 type  1   force =    -0.00003094   -0.00058939   -0.17840341
     atom   27 type  2   force =     0.00012871   -0.00016558   -0.01908952
     atom   28 type  2   force =     0.00005034   -0.00163378    0.05861225
     atom   29 type  2   force =    -0.01106496   -0.00055929    0.00933068
     atom   30 type  2   force =     0.01198432   -0.00002076    0.00721973
     atom   31 type  1   force =    -0.00093000    0.00646404   -0.01505169
     atom   32 type  1   force =     0.00086088    0.00102224   -0.00586656
     atom   33 type  2   force =     0.00017426   -0.00057044   -0.00003907
     atom   34 type  2   force =    -0.00185868   -0.00052211   -0.00047419
     atom   35 type  2   force =    -0.00044569    0.00005993   -0.00042375
     atom   36 type  2   force =     0.00034463   -0.00012103    0.00019032
     atom   37 type  1   force =    -0.00051432   -0.00025344    0.00018527
     atom   38 type  1   force =    -0.00004739   -0.00014472   -0.00009416
     atom   39 type  2   force =     0.00029716   -0.00058416   -0.00000547
     atom   40 type  2   force =    -0.00060300   -0.00051026    0.00027854
     atom   41 type  2   force =    -0.00024945   -0.00073727   -0.00067951
     atom   42 type  2   force =     0.00049846   -0.00010041   -0.00012819
     atom   43 type  1   force =     0.00022467   -0.00019017   -0.00023123
     atom   44 type  1   force =     0.00055250    0.00010284    0.00084957
     atom   45 type  2   force =     0.00013326   -0.00014255    0.10399188
     atom   46 type  2   force =    -0.07027662   -0.00015974   -0.02684275
     atom   47 type  2   force =     0.07024522    0.00026224   -0.02689990
     atom   48 type  3   force =     0.00113233    0.00176644   -0.00066599
     atom   49 type  3   force =    -0.00019212   -0.00099025   -0.00001826
     atom   50 type  4   force =     0.00360191    0.00037221   -0.00264416
     atom   51 type  5   force =    -0.00036294    0.00192961   -0.00008033
     atom   52 type  5   force =    -0.00000600   -0.00075260    0.00045022
     atom   53 type  5   force =    -0.00252604   -0.00191900    0.00184964
     atom   54 type  5   force =    -0.00001897   -0.00169089    0.00073492
     atom   55 type  5   force =     0.00007632   -0.00053400   -0.00018321
     atom   56 type  5   force =    -0.00105055    0.00026188   -0.00026969

     Total force =     0.366426     Total SCF correction =     0.000734
  @ DRIVER MODE: Message from server: STATUS
  @ DRIVER MODE: Message from server: GETFORCE
  @ DRIVER MODE: Returning v,forces,stress,ensemble

     Writing output data file ./calc.save/
  @ DRIVER MODE: Message from server: EXIT
  @ DRIVE MODE: Exiting

     General routines

     Parallel routines

   This run was terminated on:   8:40:43   9Sep2021

   JOB DONE.