     Program PWSCF v.6.7GPU starts on 27Sep2021 at 15:43: 3

     R & G space division:  proc/nbgrp/npool/nimage =       8
     Reading input from /storage/home/hcoda1/3/ntian30/research/carbon/CxH_vib/H2O_calc/ads_slab/CH3OHN2H2O_a/out_0000/pw.inp
Warning: card &CELL ignored
Warning: card   CELL_DYNAMICS='IPI', ignored
Warning: card / ignored

     Current dimensions of program PWSCF are:
     Max number of different atomic species (ntypx) = 10
     Max number of k-points (npk) =  40000
     Max angular momentum in pseudopotentials (lmaxx) =  3
     Presently no symmetry can be used with electric field

     Message from routine cell_base_init:
     DEPRECATED: use true lattice parameter, not A to a.u. conversion factor

     IMPORTANT: XC functional enforced from input :
     Exchange-correlation= BEEF-VDW
                           (   1   4  43  14   2   0   0)
     Any further DFT definition will be discarded
     Please, verify this is what you really want

  @ DRIVER MODE: Connecting to
 qe_1139763_3000313.sched-torque.pace.gatech.edukf3k9e88_scratch
  using UNIX socket
  @ DRIVER MODE: Message from server: STATUS
  @ DRIVER MODE: Message from server: INIT
  @ DRIVER MODE: Receiving replica           0          -1
  @ DRIVER MODE: Receiving encoded integer          25
  @ DRIVER MODE:  SCF:  T  FORCE:  T  STRESS:  F  VC:  F  ENSEMBLE:  F
  @ DRIVER MODE:  SCF:  T  FORCE:  T  STRESS:  F  VC:  F  ENSEMBLE:  F

     Using Slab Decomposition

     bravais-lattice index     =            0
     lattice parameter (alat)  =       1.8897  a.u.
     unit-cell volume          =    6658.9804 (a.u.)^3
     number of atoms/cell      =           58
     number of atomic types    =            5
     number of electrons       =       410.00
     number of Kohn-Sham states=          215
     kinetic-energy cutoff     =      29.3995  Ry
     charge density cutoff     =     293.9946  Ry
     scf convergence threshold =      7.3E-08
     mixing beta               =       0.0500
     number of iterations used =            8  plain     mixing
     Exchange-correlation= BEEF-VDW
                           (   1   4  43  14   2   0   0)

     celldm(1)=   1.889726  celldm(2)=   0.000000  celldm(3)=   0.000000
     celldm(4)=   0.000000  celldm(5)=   0.000000  celldm(6)=   0.000000

     crystal axes: (cart. coord. in units of alat)
               a(1) = (   6.579727   0.000000   0.000000 )
               a(2) = (  -0.000775   5.961596   0.000000 )
               a(3) = (   0.000000   0.000000  25.155947 )

     reciprocal axes: (cart. coord. in units 2 pi/alat)
               b(1) = (  0.151982  0.000020  0.000000 )
               b(2) = (  0.000000  0.167740  0.000000 )
               b(3) = (  0.000000  0.000000  0.039752 )

     PseudoPot. # 1 for Ti read from file:
     /storage/coda1/p-amedford6/0/shared/rich_project_chbe-medford/medford-share/data/pseudos_module/espresso/nninc/pbe/van/Ti.UPF
     MD5 check sum: 8e4df49b7f0d34bbd5052bf3f5ea0213
     Pseudo is Ultrasoft, Zval = 12.0
     Generated by new atomic code, or converted to UPF format
     Using radial grid of  851 points,  6 beta functions with:
                l(1) =   0
                l(2) =   0
                l(3) =   1
                l(4) =   1
                l(5) =   2
                l(6) =   2
     Q(r) pseudized with  8 coefficients,  rinner =    1.000   1.000   1.000
                                                       1.000   1.000

     PseudoPot. # 2 for O  read from file:
     /storage/coda1/p-amedford6/0/shared/rich_project_chbe-medford/medford-share/data/pseudos_module/espresso/nninc/pbe/van/O.UPF
     MD5 check sum: 78c19812648e8988a0fe644b0f25305e
     Pseudo is Ultrasoft, Zval =  6.0
     Generated by new atomic code, or converted to UPF format
     Using radial grid of  737 points,  4 beta functions with:
                l(1) =   0
                l(2) =   0
                l(3) =   1
                l(4) =   1
     Q(r) pseudized with  8 coefficients,  rinner =    0.800   0.800   0.800

     PseudoPot. # 3 for C  read from file:
     /storage/coda1/p-amedford6/0/shared/rich_project_chbe-medford/medford-share/data/pseudos_module/espresso/nninc/pbe/van/C.UPF
     MD5 check sum: 1a69bf6b8db32088f5b2163dbdb77a27
     Pseudo is Ultrasoft, Zval =  4.0
     Generated by new atomic code, or converted to UPF format
     Using radial grid of  721 points,  4 beta functions with:
                l(1) =   0
                l(2) =   0
                l(3) =   1
                l(4) =   1
     Q(r) pseudized with  8 coefficients,  rinner =    0.800   0.800   0.800

     PseudoPot. # 4 for H  read from file:
     /storage/coda1/p-amedford6/0/shared/rich_project_chbe-medford/medford-share/data/pseudos_module/espresso/nninc/pbe/van/H.UPF
     MD5 check sum: b5ee9d7bfd3a09ee7748110bda690ff7
     Pseudo is Ultrasoft, Zval =  1.0
     Generated by new atomic code, or converted to UPF format
     Using radial grid of  615 points,  1 beta functions with:
                l(1) =   0
     Q(r) pseudized with  8 coefficients,  rinner =    0.800

     PseudoPot. # 5 for N  read from file:
     /storage/coda1/p-amedford6/0/shared/rich_project_chbe-medford/medford-share/data/pseudos_module/espresso/nninc/pbe/van/N.UPF
     MD5 check sum: 90d10febe142ad51ac9d5be1deb811c4
     Pseudo is Ultrasoft, Zval =  5.0
     Generated by new atomic code, or converted to UPF format
     Using radial grid of  729 points,  4 beta functions with:
                l(1) =   0
                l(2) =   0
                l(3) =   1
                l(4) =   1
     Q(r) pseudized with  8 coefficients,  rinner =    0.800   0.800   0.800

     atomic species   valence    mass     pseudopotential
        Ti1           12.00    47.86700     Ti( 1.00)
        O1             6.00    15.99900     O ( 1.00)
        C1             4.00    12.01100     C ( 1.00)
        H1             1.00     1.00800     H ( 1.00)
        N1             5.00    14.00700     N ( 1.00)

     No symmetry found

   Cartesian axes

     site n.     atom                  positions (alat units)
         1           Ti1 tau(   1) = (   0.0004258   2.9801865   6.0000000  )
         2           Ti1 tau(   2) = (   3.2906075   1.4906267   6.0002472  )
         3           O1  tau(   3) = (   0.0006271   0.0005054   7.9858123  )
         4           O1  tau(   4) = (   3.2906025   0.0005020   7.3038282  )
         5           O1  tau(   5) = (   4.5942328   1.4918067   9.2879030  )
         6           O1  tau(   6) = (   1.9868534   1.4903216   9.2879459  )
         7           Ti1 tau(   7) = (   3.3250738   2.9918783   9.1599549  )
         8           Ti1 tau(   8) = (   0.0412716   1.4903975   9.2658274  )
         9           O1  tau(   9) = (   3.2852344   0.0116916  11.3753809  )
        10           O1  tau(  10) = (   6.5701620   0.0027176  10.6052010  )
        11           O1  tau(  11) = (   1.2758103   1.4969824  12.6410148  )
        12           O1  tau(  12) = (   5.2796941   1.4985041  12.6691897  )
        13           Ti1 tau(  13) = (   6.5531116   2.9870417  12.5348353  )
        14           Ti1 tau(  14) = (   3.2504356   1.4995581  12.5215122  )
        15           O1  tau(  15) = (   0.0383206   0.0046779  14.6787597  )
        16           O1  tau(  16) = (   3.2537876   0.0095675  14.0320577  )
        17           O1  tau(  17) = (   4.5855444   1.5609978  16.0639115  )
        18           O1  tau(  18) = (   2.0343745   1.5440679  16.2001998  )
        19           Ti1 tau(  19) = (   3.3058624   3.0043567  15.7064231  )
        20           Ti1 tau(  20) = (   6.5549511   1.4266458  15.8675638  )
        21           O1  tau(  21) = (   3.2904802   0.0005063   4.7018136  )
        22           O1  tau(  22) = (   6.4974171   0.0126247  17.2237355  )
        23           O1  tau(  23) = (   1.3043587   1.4918075   6.0039043  )
        24           O1  tau(  24) = (   5.2767064   1.4903225   6.0039473  )
        25           Ti1 tau(  25) = (   0.0000382   5.9609847   6.0000000  )
        26           Ti1 tau(  26) = (   3.2902200   4.4714249   6.0002472  )
        27           O1  tau(  27) = (   0.0002396   2.9813036   7.9858123  )
        28           O1  tau(  28) = (   3.2902150   2.9813002   7.3038282  )
        29           O1  tau(  29) = (   4.5938453   4.4726049   9.2879030  )
        30           O1  tau(  30) = (   1.9864658   4.4711199   9.2879459  )
        31           Ti1 tau(  31) = (   3.3194574   0.0113313   9.1541029  )
        32           Ti1 tau(  32) = (   0.0414074   4.4589881   9.2683624  )
        33           O1  tau(  33) = (   3.2821265   2.9896323  11.3676027  )
        34           O1  tau(  34) = (   6.5712111   2.9825298  10.6251173  )
        35           O1  tau(  35) = (   1.2751242   4.4805681  12.6359318  )
        36           O1  tau(  36) = (   5.2791817   4.4782367  12.6627471  )
        37           Ti1 tau(  37) = (   6.5506445   0.0032150  12.4806913  )
        38           Ti1 tau(  38) = (   3.2507345   4.4881811  12.5195668  )
        39           O1  tau(  39) = (   0.0469291   2.9928743  14.8464778  )
        40           O1  tau(  40) = (   3.2514374   2.9975957  13.9281162  )
        41           O1  tau(  41) = (   4.5866068   4.4203933  16.0984022  )
        42           O1  tau(  42) = (   2.0418857   4.4579080  16.2200674  )
        43           Ti1 tau(  43) = (   3.2648600   0.0292614  15.8571223  )
        44           Ti1 tau(  44) = (   6.5763064   4.6169283  15.9626260  )
        45           O1  tau(  45) = (   3.2900926   2.9813045   4.7018136  )
        46           O1  tau(  46) = (   1.3039711   4.4726057   6.0039043  )
        47           O1  tau(  47) = (   5.2763189   4.4711207   6.0039473  )
        48           C1  tau(  48) = (   6.0301898   2.9050411  18.9351799  )
        49           O1  tau(  49) = (   0.1575529   2.9516393  17.6723866  )
        50           H1  tau(  50) = (   4.9714676   2.8818909  18.6991823  )
        51           H1  tau(  51) = (   1.1132637   2.8218831  17.8130049  )
        52           H1  tau(  52) = (   6.2985093   1.9952365  19.4696065  )
        53           H1  tau(  53) = (   6.2732381   3.7939772  19.5169533  )
        54           N1  tau(  54) = (   4.8840950   3.1052494  22.6850861  )
        55           N1  tau(  55) = (   4.2680757   3.3403818  21.7970487  )
        56           O1  tau(  56) = (   3.8772584   0.1141246  18.3039653  )
        57           H1  tau(  57) = (   4.8407149   0.0692883  18.0716375  )
        58           H1  tau(  58) = (   3.6680196   5.2122673  18.6877519  )

     number of k points=    10  Fermi-Dirac smearing, width (Ry)=  0.0073
                       cart. coord. in units 2pi/alat
        k(    1) = (   0.0000000   0.0000000   0.0000000), wk =   0.1250000
        k(    2) = (   0.0000000   0.0419351   0.0000000), wk =   0.2500000
        k(    3) = (   0.0000000  -0.0838702   0.0000000), wk =   0.1250000
        k(    4) = (   0.0379955   0.0000049   0.0000000), wk =   0.2500000
        k(    5) = (   0.0379955   0.0419400   0.0000000), wk =   0.2500000
        k(    6) = (   0.0379955  -0.0838652   0.0000000), wk =   0.2500000
        k(    7) = (   0.0379955  -0.0419301   0.0000000), wk =   0.2500000
        k(    8) = (  -0.0759910  -0.0000099   0.0000000), wk =   0.1250000
        k(    9) = (  -0.0759910   0.0419252   0.0000000), wk =   0.2500000
        k(   10) = (  -0.0759910  -0.0838800   0.0000000), wk =   0.1250000

     Initial potential from superposition of free atoms

     starting charge  393.99913, renormalised to  410.00000

     negative rho (up, down):  9.554E-03 0.000E+00

     %%%%%%%%%%%%%%%%%%%%%%%%%%%%%%%%%%%%%%%%%%%%%%%%%%%%%%%%%%%%%%%%%%%%%%%%
     %                                                                      %
     % You are using vdW-DF, which was implemented by the Thonhauser group. %
     % Please cite the following two papers that made this development      %
     % possible and the two reviews that describe the various versions:     %
     %                                                                      %
     %   T. Thonhauser et al., PRL 115, 136402 (2015).                      %
     %   T. Thonhauser et al., PRB 76, 125112 (2007).                       %
     %   K. Berland et al., Rep. Prog. Phys. 78, 066501 (2015).             %
     %   D.C. Langreth et al., J. Phys.: Condens. Matter 21, 084203 (2009). %
     %                                                                      %
     %                                                                      %
     % If you are calculating the stress with vdW-DF, please also cite:     %
     %                                                                      %
     %   R. Sabatini et al., J. Phys.: Condens. Matter 24, 424209 (2012).   %
     %                                                                      %
     %%%%%%%%%%%%%%%%%%%%%%%%%%%%%%%%%%%%%%%%%%%%%%%%%%%%%%%%%%%%%%%%%%%%%%%%

     Adding external electric field

     Computed dipole along edir(3) :
        Dipole              -20.0784 Ry au,        -51.0342 Debye
        Dipole field         -0.0379 Ry au,

        Potential amp.        3.5124 Ry
        Total length         46.3494 bohr

     Starting wfcs are  310 atomic wfcs
  @ DRIVER MODE: Message from server: STATUS
  @ DRIVER MODE: Message from server: POSDATA
  @ DRIVER MODE: Reading and sharing cell
  @ DRIVER MODE: Reading and sharing positions
  @ DRIVER MODE: Received positions

     Self-consistent Calculation

     iteration #  1     ecut=    29.40 Ry     beta= 0.05
     Davidson diagonalization with overlap
     ethr =  1.00E-02,  avg # of iterations = 11.6

[...]

     total energy              =   -2109.80090750 Ry
     estimated scf accuracy    <   10547.38638553 Ry

[...]

     iteration #  5     ecut=    29.40 Ry     beta= 0.05
     Davidson diagonalization with overlap
     c_bands:  2 eigenvalues not converged
     c_bands:  2 eigenvalues not converged
     ethr =  1.00E-02,  avg # of iterations =  8.5

[...]

     iteration # 84     ecut=    29.40 Ry     beta= 0.05
     Davidson diagonalization with overlap
     ethr =  4.96E-08,  avg # of iterations =  8.3

[...]

     total energy              =   -3007.66321499 Ry
     estimated scf accuracy    <       0.00000007 Ry

     iteration # 98     ecut=    29.40 Ry     beta= 0.05
     Davidson diagonalization with overlap
     c_bands:  2 eigenvalues not converged
     c_bands:  2 eigenvalues not converged
     ethr =  1.81E-11,  avg # of iterations = 15.9

     negative rho (up, down):  1.050E-02 0.000E+00

     Adding external electric field

     Computed dipole along edir(3) :
        Dipole                1.2299 Ry au,          3.1261 Debye
        Dipole field          0.0023 Ry au,

        Potential amp.       -0.2152 Ry
        Total length         46.3494 bohr

     End of self-consistent calculation

          k = 0.0000 0.0000 0.0000 ( 18029 PWs)   bands (ev):

   -54.9350 -54.9110 -54.8990 -54.8767 -54.8620 -54.8564 -54.8294 -54.8100
   -54.7818 -54.7793 -54.7448 -54.7242 -54.6927 -54.6903 -53.9994 -53.9653
   -31.5008 -31.4748 -31.4068 -31.3140 -31.2549 -31.2491 -31.2371 -31.2353
   -31.1997 -31.1652 -31.1561 -31.1538 -31.1495 -31.1263 -31.1197 -31.1137
   -31.0974 -31.0787 -31.0729 -31.0712 -31.0643 -31.0567 -31.0340 -31.0277
   -31.0272 -31.0216 -31.0066 -31.0044 -31.0036 -30.9675 -30.9504 -30.9305
   -30.9290 -30.9280 -30.9199 -30.9187 -30.9087 -30.8784 -30.8641 -30.8599
   -30.8552 -30.8359 -30.4114 -30.3090 -30.2874 -30.2276 -30.1412 -30.0302
   -21.6245 -19.8084 -18.2752 -15.7681 -15.5220 -15.3827 -15.2853 -15.1618
   -15.0316 -14.9577 -14.8373 -14.7654 -14.6715 -14.6580 -14.6400 -14.6183
   -14.5855 -14.5593 -14.5024 -14.4973 -14.4426 -14.4392 -14.4286 -14.4177
   -14.3849 -14.3688 -14.3385 -14.3293 -14.1668 -14.1011 -14.0416 -13.8974
   -12.5000 -12.3807 -10.8232  -6.8751  -6.5542  -6.0330  -4.8548  -4.7821
    -4.7264  -4.6322  -3.5471  -3.1015  -2.9503  -2.9145  -2.8928  -2.8711
    -2.7456  -2.6552  -2.6256  -2.4665  -2.3724  -2.2371  -2.2096  -2.1775
    -2.1393  -2.0712  -2.0157  -1.9286  -1.8991  -1.8588  -1.8389  -1.8153
    -1.8003  -1.7734  -1.7434  -1.6713  -1.6334  -1.5489  -1.5324  -1.4449
    -1.3921  -1.3838  -1.3406  -1.2778  -1.2744  -1.2638  -1.2236  -1.2100
    -1.2017  -1.1917  -1.1849  -1.0240  -0.9785  -0.9448  -0.8213  -0.7113
    -0.6189  -0.6093  -0.5055  -0.4921  -0.4292  -0.4246  -0.3851  -0.3456
    -0.2834  -0.1869  -0.1287  -0.0825  -0.0694   0.0412   0.1070   0.1217
     0.1830   0.2583   0.2734   0.2949   0.3242   0.4114   0.4791   0.5211
     0.5555   0.6203   0.6300   0.6773   0.7064   0.7474   0.8329   0.8867
     0.8903   0.9773   0.9946   1.0078   1.0331   1.0388   1.1369   1.1708
     1.2150   1.2430   1.3943   1.4296   1.6205   1.6562   1.9161   2.0147
     2.0264   2.1877   2.6124   2.6669   4.1550   4.2229   4.2594   4.2667
     4.2813   4.3609   4.6432   4.6520   4.6632   4.6751   4.6830

[...]

          k = 0.0380-0.0419 0.0000 ( 17876 PWs)   bands (ev):

[...]

          k =-0.0760-0.0000 0.0000 ( 17886 PWs)   bands (ev):

[...]

          k =-0.0760-0.0839 0.0000 ( 17948 PWs)   bands (ev):

   -54.9179 -54.9158 -54.8956 -54.8920 -54.8570 -54.8519 -54.8221 -54.8175
   -54.7891 -54.7643 -54.7595 -54.7087 -54.7059 -54.6943 -53.9823 -53.9823
   -31.3875 -31.3097 -31.2994 -31.2235 -31.2200 -31.1976 -31.1902 -31.1885
   -31.1816 -31.1589 -31.1442 -31.1424 -31.1347 -31.1286 -31.1098 -31.0956
   -31.0803 -31.0783 -31.0693 -31.0681 -31.0663 -31.0653 -31.0597 -31.0542
   -31.0294 -31.0243 -31.0199 -31.0147 -31.0144 -31.0117 -31.0110 -31.0107
   -31.0105 -30.9815 -30.9730 -30.9624 -30.9611 -30.9338 -30.9314 -30.8956
   -30.8923 -30.8777 -30.3000 -30.2999 -30.2242 -30.2238 -30.1845 -30.1843
   -21.6244 -19.8047 -18.2741 -15.3430 -15.2297 -15.0639 -14.9555 -14.9457
   -14.9172 -14.8580 -14.8148 -14.7837 -14.7436 -14.7333 -14.7040 -14.6861
   -14.6809 -14.6231 -14.5392 -14.5336 -14.5198 -14.4844 -14.4574 -14.4434
   -14.4414 -14.4270 -14.3901 -14.3882 -14.3691 -14.3579 -14.3013 -14.2092
   -12.4820 -12.4814 -10.8259  -6.8742  -6.5564  -6.0354  -4.8521  -4.7889
    -4.7203  -4.6202  -3.5387  -2.7644  -2.5383  -2.4973  -2.4244  -2.2583
    -2.1788  -2.1579  -2.0821  -2.0582  -2.0229  -1.9445  -1.9407  -1.9066
    -1.8667  -1.8423  -1.8364  -1.8182  -1.7997  -1.7668  -1.7461  -1.7249
    -1.7114  -1.6961  -1.6497  -1.6408  -1.6050  -1.6014  -1.5866  -1.5749
    -1.5557  -1.5449  -1.4644  -1.4360  -1.3950  -1.3096  -1.2928  -1.1632
    -1.1577  -1.1120  -1.0752  -1.0369  -1.0178  -0.9964  -0.9715  -0.9412
    -0.9093  -0.7374  -0.7164  -0.6733  -0.6220  -0.6160  -0.5430  -0.5273
    -0.4728  -0.4406  -0.3511  -0.3100  -0.2704  -0.1619  -0.1349  -0.1226
     0.0156   0.0214   0.0667   0.0682   0.1105   0.1490   0.1613   0.1684
     0.2433   0.2757   0.3121   0.3381   0.3618   0.5399   0.5760   0.6349
     0.7244   0.7425   0.9211   0.9512   0.9950   1.0760   1.1374   1.1914
     1.2135   1.3218   1.3294   1.3528   1.4443   1.4926   1.4939   1.5239
     2.3777   2.3806   2.4814   2.4842   4.2792   4.4102   4.4164   4.4964
     4.5701   4.6628   4.6669   4.6778   4.7076   4.7177   4.7214

     the Fermi energy is     4.2110 ev

!    total energy              =   -3007.66322128 Ry
     estimated scf accuracy    <       0.00000005 Ry
     smearing contrib. (-TS)   =      -0.03684364 Ry
     internal energy E=F+TS    =   -3007.62637763 Ry

     The total energy is F=E-TS. E is the sum of the following terms:
     one-electron contribution =  -22339.07796708 Ry
     hartree contribution      =   11271.32434106 Ry
     xc contribution           =    -502.08073301 Ry
     ewald contribution        =    8562.20512673 Ry
     electric field correction =       0.00285466 Ry

     convergence has been achieved in  98 iterations

     Forces acting on atoms (cartesian axes, Ry/au):

     atom    1 type  1   force =    -0.00027302   -0.00001123    0.09254061
     atom    2 type  1   force =    -0.00012883    0.00114338   -0.18322019
     atom    3 type  2   force =     0.00055126   -0.00040144   -0.02390225
     atom    4 type  2   force =     0.00079749    0.00021125    0.05086207
     atom    5 type  2   force =    -0.01549141   -0.00014209    0.00436088
     atom    6 type  2   force =     0.01420786   -0.00032927    0.00504504
     atom    7 type  1   force =    -0.00011035    0.00020848    0.00005114
     atom    8 type  1   force =    -0.00007101    0.00016369   -0.00000359
     atom    9 type  2   force =     0.00007462    0.00004418    0.00011575
     atom   10 type  2   force =     0.00000102    0.00001937   -0.00005351
     atom   11 type  2   force =     0.00017205    0.00001034   -0.00013890
     atom   12 type  2   force =     0.00004045    0.00002914   -0.00006160
     atom   13 type  1   force =     0.00016988    0.00011772   -0.00003058
     atom   14 type  1   force =     0.00027021    0.00016470   -0.00009418
     atom   15 type  2   force =     0.00027793    0.00039633   -0.00000250
     atom   16 type  2   force =     0.00015426   -0.00001719    0.00017154
     atom   17 type  2   force =     0.00001358    0.00013168    0.00011631
     atom   18 type  2   force =     0.00018602    0.00002073    0.00027596
     atom   19 type  1   force =     0.00009001   -0.00014120    0.00008146
     atom   20 type  1   force =     0.00018427   -0.00008792   -0.00020457
     atom   21 type  2   force =     0.00002950    0.00001506    0.10490827
     atom   22 type  2   force =    -0.00024315   -0.00002098    0.00012187
     atom   23 type  2   force =    -0.06802131   -0.00011608   -0.02682453
     atom   24 type  2   force =     0.06788471    0.00033943   -0.02686572
     atom   25 type  1   force =    -0.00012045   -0.00002593    0.09599216
     atom   26 type  1   force =    -0.00010593   -0.00144025   -0.18313760
     atom   27 type  2   force =     0.00050154   -0.00019707   -0.02270422
     atom   28 type  2   force =     0.00086446    0.00017961    0.05125229
     atom   29 type  2   force =    -0.01541024    0.00050546    0.00453361
     atom   30 type  2   force =     0.01416391    0.00078101    0.00523366
     atom   31 type  1   force =    -0.00010130    0.00005584   -0.00001006
     atom   32 type  1   force =    -0.00007636    0.00016039   -0.00004999
     atom   33 type  2   force =     0.00012537   -0.00002890    0.00016094
     atom   34 type  2   force =    -0.00000102    0.00007130    0.00002964
     atom   35 type  2   force =     0.00012950    0.00000050   -0.00003512
     atom   36 type  2   force =     0.00008307   -0.00000085    0.00008994
     atom   37 type  1   force =     0.00015845    0.00006351   -0.00010268
     atom   38 type  1   force =     0.00015696   -0.00003154    0.00006084
     atom   39 type  2   force =     0.00016870   -0.00008403   -0.00020909
     atom   40 type  2   force =     0.00002448   -0.00018247    0.00002364
     atom   41 type  2   force =     0.00020772    0.00000216    0.00004138
     atom   42 type  2   force =    -0.00005116    0.00000765    0.00012542
     atom   43 type  1   force =    -0.00003761   -0.00019189    0.00112721
     atom   44 type  1   force =     0.00006258    0.00014346    0.00030725
     atom   45 type  2   force =     0.00003498    0.00001939    0.10484369
     atom   46 type  2   force =    -0.06803354   -0.00050603   -0.02681417
     atom   47 type  2   force =     0.06789290   -0.00008645   -0.02689249
     atom   48 type  3   force =    -0.00010719   -0.00007338   -0.00023230
     atom   49 type  2   force =    -0.00031277   -0.00011154    0.00006217
     atom   50 type  4   force =    -0.00010258   -0.00042143    0.00008832
     atom   51 type  4   force =     0.00010426   -0.00012874    0.00007904
     atom   52 type  4   force =     0.00030165   -0.00036873    0.00007639
     atom   53 type  4   force =     0.00009581    0.00017033   -0.00017135
     atom   54 type  5   force =    -0.00074342   -0.00003145   -0.00081755
     atom   55 type  5   force =     0.00019824   -0.00001512   -0.00004526
     atom   56 type  2   force =     0.00128012    0.00059416   -0.00082411
     atom   57 type  4   force =    -0.00100297   -0.00044486    0.00022698
     atom   58 type  4   force =    -0.00111422   -0.00013217    0.00044265

     Total force =     0.368147     Total SCF correction =     0.000859
  @ DRIVER MODE: Message from server: STATUS
  @ DRIVER MODE: Message from server: GETFORCE
  @ DRIVER MODE: Returning v,forces,stress,ensemble

     Writing output data file ./calc.save/
  @ DRIVER MODE: Message from server: EXIT
  @ DRIVE MODE: Exiting

     General routines

     Parallel routines

   This run was terminated on:  16:14:34  27Sep2021

   JOB DONE.