     Program PWSCF v.6.7GPU starts on 22Sep2021 at 16:41:48

     R & G space division:  proc/nbgrp/npool/nimage =      10
     Reading input from /storage/home/hcoda1/3/ntian30/research/carbon/CxH_vib/H2O_calc/ads_slab/CH3OHO_a/out_0001/pw.inp
Warning: card &CELL ignored
Warning: card   CELL_DYNAMICS='IPI', ignored
Warning: card / ignored

     Current dimensions of program PWSCF are:
     Max number of different atomic species (ntypx) = 10
     Max number of k-points (npk) =  40000
     Max angular momentum in pseudopotentials (lmaxx) =  3
     Presently no symmetry can be used with electric field

     Message from routine cell_base_init:
     DEPRECATED: use true lattice parameter, not A to a.u. conversion factor

     IMPORTANT: XC functional enforced from input :
     Exchange-correlation= BEEF-VDW
                           (   1   4  43  14   2   0   0)
     Any further DFT definition will be discarded
     Please, verify this is what you really want

  @ DRIVER MODE: Connecting to
 qe_1139763_2937320.sched-torque.pace.gatech.edu8g_pbjso_scratch
  using UNIX socket
  @ DRIVER MODE: Message from server: STATUS
  @ DRIVER MODE: Message from server: INIT
  @ DRIVER MODE: Receiving replica           0          -1
  @ DRIVER MODE: Receiving encoded integer          25
  @ DRIVER MODE:  SCF:  T  FORCE:  T  STRESS:  F  VC:  F  ENSEMBLE:  F
  @ DRIVER MODE:  SCF:  T  FORCE:  T  STRESS:  F  VC:  F  ENSEMBLE:  F

     Using Slab Decomposition

     bravais-lattice index     =            0
     lattice parameter (alat)  =       1.8897  a.u.
     unit-cell volume          =    6658.9804 (a.u.)^3
     number of atoms/cell      =           54
     number of atomic types    =            4
     number of electrons       =       398.00
     number of Kohn-Sham states=          209
     kinetic-energy cutoff     =      29.3995  Ry
     charge density cutoff     =     293.9946  Ry
     scf convergence threshold =      7.3E-08
     mixing beta               =       0.0500
     number of iterations used =            8  plain     mixing
     Exchange-correlation= BEEF-VDW
                           (   1   4  43  14   2   0   0)

     celldm(1)=   1.889726  celldm(2)=   0.000000  celldm(3)=   0.000000
     celldm(4)=   0.000000  celldm(5)=   0.000000  celldm(6)=   0.000000

     crystal axes: (cart. coord. in units of alat)
               a(1) = (   6.579727   0.000000   0.000000 )
               a(2) = (  -0.000775   5.961596   0.000000 )
               a(3) = (   0.000000   0.000000  25.155947 )

     reciprocal axes: (cart. coord. in units 2 pi/alat)
               b(1) = (  0.151982  0.000020  0.000000 )
               b(2) = (  0.000000  0.167740  0.000000 )
               b(3) = (  0.000000  0.000000  0.039752 )

     PseudoPot. # 1 for Ti read from file:
     /storage/coda1/p-amedford6/0/shared/rich_project_chbe-medford/medford-share/data/pseudos_module/espresso/nninc/pbe/van/Ti.UPF
     MD5 check sum: 8e4df49b7f0d34bbd5052bf3f5ea0213
     Pseudo is Ultrasoft, Zval = 12.0
     Generated by new atomic code, or converted to UPF format
     Using radial grid of  851 points,  6 beta functions with:
                l(1) =   0
                l(2) =   0
                l(3) =   1
                l(4) =   1
                l(5) =   2
                l(6) =   2
     Q(r) pseudized with  8 coefficients,  rinner =    1.000   1.000   1.000
                                                       1.000   1.000

     PseudoPot. # 2 for O  read from file:
     /storage/coda1/p-amedford6/0/shared/rich_project_chbe-medford/medford-share/data/pseudos_module/espresso/nninc/pbe/van/O.UPF
     MD5 check sum: 78c19812648e8988a0fe644b0f25305e
     Pseudo is Ultrasoft, Zval =  6.0
     Generated by new atomic code, or converted to UPF format
     Using radial grid of  737 points,  4 beta functions with:
                l(1) =   0
                l(2) =   0
                l(3) =   1
                l(4) =   1
     Q(r) pseudized with  8 coefficients,  rinner =    0.800   0.800   0.800

     PseudoPot. # 3 for C  read from file:
     /storage/coda1/p-amedford6/0/shared/rich_project_chbe-medford/medford-share/data/pseudos_module/espresso/nninc/pbe/van/C.UPF
     MD5 check sum: 1a69bf6b8db32088f5b2163dbdb77a27
     Pseudo is Ultrasoft, Zval =  4.0
     Generated by new atomic code, or converted to UPF format
     Using radial grid of  721 points,  4 beta functions with:
                l(1) =   0
                l(2) =   0
                l(3) =   1
                l(4) =   1
     Q(r) pseudized with  8 coefficients,  rinner =    0.800   0.800   0.800

     PseudoPot. # 4 for H  read from file:
     /storage/coda1/p-amedford6/0/shared/rich_project_chbe-medford/medford-share/data/pseudos_module/espresso/nninc/pbe/van/H.UPF
     MD5 check sum: b5ee9d7bfd3a09ee7748110bda690ff7
     Pseudo is Ultrasoft, Zval =  1.0
     Generated by new atomic code, or converted to UPF format
     Using radial grid of  615 points,  1 beta functions with:
                l(1) =   0
     Q(r) pseudized with  8 coefficients,  rinner =    0.800

     atomic species   valence    mass     pseudopotential
        Ti1           12.00    47.86700     Ti( 1.00)
        O1             6.00    15.99900     O ( 1.00)
        C1             4.00    12.01100     C ( 1.00)
        H1             1.00     1.00800     H ( 1.00)

     No symmetry found

   Cartesian axes

     site n.     atom                  positions (alat units)
         1           Ti1 tau(   1) = (   0.0004258   2.9801865   6.0000000  )
         2           Ti1 tau(   2) = (   3.2906075   1.4906267   6.0002472  )
         3           O1  tau(   3) = (   0.0006271   0.0005054   7.9858123  )
         4           O1  tau(   4) = (   3.2906025   0.0005020   7.3038282  )
         5           O1  tau(   5) = (   4.5942328   1.4918067   9.2879030  )
         6           O1  tau(   6) = (   1.9868534   1.4903216   9.2879459  )
         7           Ti1 tau(   7) = (   3.2957662   3.1068914   9.2181075  )
         8           Ti1 tau(   8) = (   0.0157633   1.6119101   9.3474628  )
         9           O1  tau(   9) = (   3.3075722   0.0245345  11.3221904  )
        10           O1  tau(  10) = (   0.0080709   0.0223756  10.5933645  )
        11           O1  tau(  11) = (   1.2996580   1.5014007  12.6293879  )
        12           O1  tau(  12) = (   5.3220639   1.4985920  12.6296061  )
        13           Ti1 tau(  13) = (   0.0338638   3.0995910  12.8036746  )
        14           Ti1 tau(  14) = (   3.3037623   1.5692239  12.4279754  )
        15           O1  tau(  15) = (   0.0261714   0.0103614  14.6808343  )
        16           O1  tau(  16) = (   3.3158872   5.9294016  13.9235834  )
        17           O1  tau(  17) = (   4.5845781   1.5190771  16.0542726  )
        18           O1  tau(  18) = (   2.0543804   1.5366111  16.0227792  )
        19           Ti1 tau(  19) = (   3.3281905   2.9581697  15.6655982  )
        20           Ti1 tau(  20) = (   0.0947853   1.4300879  15.9722461  )
        21           O1  tau(  21) = (   3.2904802   0.0005063   4.7018136  )
        22           O1  tau(  22) = (   0.0746355   0.0166105  17.2029963  )
        23           O1  tau(  23) = (   1.3043587   1.4918075   6.0039043  )
        24           O1  tau(  24) = (   5.2767064   1.4903225   6.0039473  )
        25           Ti1 tau(  25) = (   0.0000382   5.9609847   6.0000000  )
        26           Ti1 tau(  26) = (   3.2902200   4.4714249   6.0002472  )
        27           O1  tau(  27) = (   0.0002396   2.9813036   7.9858123  )
        28           O1  tau(  28) = (   3.2902150   2.9813002   7.3038282  )
        29           O1  tau(  29) = (   4.5938453   4.4726049   9.2879030  )
        30           O1  tau(  30) = (   1.9864658   4.4711199   9.2879459  )
        31           Ti1 tau(  31) = (   3.3049890   0.1224192   9.1815931  )
        32           Ti1 tau(  32) = (   0.0115838   4.5621182   9.3618056  )
        33           O1  tau(  33) = (   3.3056077   2.9569042  11.2892548  )
        34           O1  tau(  34) = (   0.0073068   3.0072357  10.5542745  )
        35           O1  tau(  35) = (   1.3032543   4.4799722  12.6367586  )
        36           O1  tau(  36) = (   5.3275811   4.4862388  12.6364370  )
        37           Ti1 tau(  37) = (   0.0060541   0.1153383  12.6179110  )
        38           Ti1 tau(  38) = (   3.3135592   4.6638430  12.6816895  )
        39           O1  tau(  39) = (   0.0323206   2.9919573  14.6814448  )
        40           O1  tau(  40) = (   3.3290587   2.9835885  13.8850256  )
        41           O1  tau(  41) = (   4.5809508   4.4372854  16.0867525  )
        42           O1  tau(  42) = (   2.0525355   4.4234120  16.0327814  )
        43           Ti1 tau(  43) = (   3.4083040   5.9395600  16.2643712  )
        44           Ti1 tau(  44) = (   0.1061243   4.5568233  16.0547075  )
        45           O1  tau(  45) = (   3.2900926   2.9813045   4.7018136  )
        46           O1  tau(  46) = (   1.3039711   4.4726057   6.0039043  )
        47           O1  tau(  47) = (   5.2763189   4.4711207   6.0039473  )
        48           C1  tau(  48) = (   6.0147352   2.9430639  18.6208924  )
        49           O1  tau(  49) = (   0.0129984   2.9830681  17.3098104  )
        50           H1  tau(  50) = (   4.9427965   2.8012130  18.5644550  )
        51           H1  tau(  51) = (   6.4567215   2.1053551  19.1708771  )
        52           H1  tau(  52) = (   6.2362830   3.8810018  19.1352789  )
        53           O1  tau(  53) = (   3.2195589   0.0134334  18.0862892  )
        54           H1  tau(  54) = (   2.3313237   0.1261415  18.4590370  )

     number of k points=    10  Fermi-Dirac smearing, width (Ry)=  0.0073
                       cart. coord. in units 2pi/alat
        k(    1) = (   0.0000000   0.0000000   0.0000000), wk =   0.1250000
        k(    2) = (   0.0000000   0.0419351   0.0000000), wk =   0.2500000
        k(    3) = (   0.0000000  -0.0838702   0.0000000), wk =   0.1250000
        k(    4) = (   0.0379955   0.0000049   0.0000000), wk =   0.2500000
        k(    5) = (   0.0379955   0.0419400   0.0000000), wk =   0.2500000
        k(    6) = (   0.0379955  -0.0838652   0.0000000), wk =   0.2500000
        k(    7) = (   0.0379955  -0.0419301   0.0000000), wk =   0.2500000
        k(    8) = (  -0.0759910  -0.0000099   0.0000000), wk =   0.1250000
        k(    9) = (  -0.0759910   0.0419252   0.0000000), wk =   0.2500000
        k(   10) = (  -0.0759910  -0.0838800   0.0000000), wk =   0.1250000

     Initial potential from superposition of free atoms

     starting charge  381.99917, renormalised to  398.00000

     negative rho (up, down):  1.723E-02 0.000E+00

     %%%%%%%%%%%%%%%%%%%%%%%%%%%%%%%%%%%%%%%%%%%%%%%%%%%%%%%%%%%%%%%%%%%%%%%%
     %                                                                      %
     % You are using vdW-DF, which was implemented by the Thonhauser group. %
     % Please cite the following two papers that made this development      %
     % possible and the two reviews that describe the various versions:     %
     %                                                                      %
     %   T. Thonhauser et al., PRL 115, 136402 (2015).                      %
     %   T. Thonhauser et al., PRB 76, 125112 (2007).                       %
     %   K. Berland et al., Rep. Prog. Phys. 78, 066501 (2015).             %
     %   D.C. Langreth et al., J. Phys.: Condens. Matter 21, 084203 (2009). %
     %                                                                      %
     %                                                                      %
     % If you are calculating the stress with vdW-DF, please also cite:     %
     %                                                                      %
     %   R. Sabatini et al., J. Phys.: Condens. Matter 24, 424209 (2012).   %
     %                                                                      %
     %%%%%%%%%%%%%%%%%%%%%%%%%%%%%%%%%%%%%%%%%%%%%%%%%%%%%%%%%%%%%%%%%%%%%%%%

     Adding external electric field

     Computed dipole along edir(3) :
        Dipole               -8.3452 Ry au,        -21.2113 Debye
        Dipole field         -0.0157 Ry au,

        Potential amp.        1.4599 Ry
        Total length         46.3494 bohr

     Starting wfcs are  300 atomic wfcs
  @ DRIVER MODE: Message from server: STATUS
  @ DRIVER MODE: Message from server: POSDATA
  @ DRIVER MODE: Reading and sharing cell
  @ DRIVER MODE: Reading and sharing positions
  @ DRIVER MODE: Received positions

     Self-consistent Calculation

     iteration #  1     ecut=    29.40 Ry     beta= 0.05
     Davidson diagonalization with overlap
     c_bands:  1 eigenvalues not converged
     c_bands:  1 eigenvalues not converged
     c_bands:  1 eigenvalues not converged
     c_bands:  1 eigenvalues not converged
     c_bands:  1 eigenvalues not converged
     ethr =  1.00E-05,  avg # of iterations = 18.3

[...]

     total energy              =   -2613.86783959 Ry
     estimated scf accuracy    <    3882.12500868 Ry

     iteration #  2     ecut=    29.40 Ry     beta= 0.05
     Davidson diagonalization with overlap
     ethr =  1.00E-02,  avg # of iterations = 22.3

[...]

     iteration # 51     ecut=    29.40 Ry     beta= 0.05
     Davidson diagonalization with overlap
     c_bands:  1 eigenvalues not converged
     ethr =  4.49E-07,  avg # of iterations =  7.6

[...]

     total energy              =   -2965.10847314 Ry
     estimated scf accuracy    <       0.00000017 Ry

     iteration # 74     ecut=    29.40 Ry     beta= 0.05
     Davidson diagonalization with overlap
     ethr =  4.26E-11,  avg # of iterations =  4.6

     negative rho (up, down):  1.732E-02 0.000E+00

     Adding external electric field

     Computed dipole along edir(3) :
        Dipole                0.5387 Ry au,          1.3691 Debye
        Dipole field          0.0010 Ry au,

        Potential amp.       -0.0942 Ry
        Total length         46.3494 bohr

     End of self-consistent calculation

          k = 0.0000 0.0000 0.0000 ( 18029 PWs)   bands (ev):

   -56.4401 -56.3933 -55.8685 -55.8364 -55.8283 -55.8149 -55.7711 -55.7341
   -55.7096 -55.6971 -55.6573 -55.6151 -55.6118 -55.4650 -55.0439 -55.0099
   -32.8526 -32.7051 -32.6556 -32.6196 -32.5252 -32.4791 -32.3593 -32.3135
   -32.3074 -32.1938 -32.1549 -32.1327 -32.1311 -32.1098 -32.1038 -32.0679
   -32.0647 -32.0512 -32.0325 -32.0272 -32.0154 -31.9775 -31.9660 -31.9495
   -31.9416 -31.9292 -31.9265 -31.9156 -31.9139 -31.9032 -31.8983 -31.8867
   -31.8610 -31.8601 -31.8549 -31.8205 -31.8095 -31.8083 -31.7791 -31.7208
   -31.6903 -31.6713 -31.4380 -31.3847 -31.3604 -31.2548 -31.1699 -31.0593
   -17.5704 -16.6292 -16.5853 -16.4400 -16.2020 -16.0556 -15.9741 -15.7547
   -15.7520 -15.6328 -15.6213 -15.5866 -15.4490 -15.4364 -15.4290 -15.3752
   -15.3585 -15.3475 -15.3414 -15.3353 -15.3213 -15.2730 -15.2600 -15.2081
   -15.1499 -15.0830 -15.0544 -15.0102 -14.9904 -14.9551 -14.7249 -13.5461
   -13.4377  -9.3646  -4.3260  -4.2438  -4.1201  -4.0090  -3.8796  -3.7779
    -3.7542  -3.6810  -3.5758  -3.4668  -3.2679  -3.1055  -3.0494  -3.0126
    -2.9795  -2.9260  -2.8711  -2.8125  -2.7669  -2.7387  -2.7094  -2.6424
    -2.6282  -2.6151  -2.5871  -2.5786  -2.5427  -2.5080  -2.5011  -2.3667
    -2.3377  -2.3009  -2.2947  -2.2355  -2.2166  -2.1916  -2.1857  -2.1346
    -2.0415  -1.9608  -1.9262  -1.8862  -1.6952  -1.6407  -1.5705  -1.5051
    -1.4265  -1.3799  -1.3600  -1.3410  -1.2667  -1.2385  -1.1277  -1.1049
    -1.0591  -0.9959  -0.9926  -0.9527  -0.8939  -0.8666  -0.8049  -0.7719
    -0.7460  -0.6028  -0.5790  -0.5509  -0.5073  -0.4987  -0.3999  -0.3361
    -0.2874  -0.2676  -0.2201  -0.1857  -0.1475  -0.1000  -0.0827  -0.0556
     0.0328   0.0591   0.0834   0.1253   0.1627   0.1859   0.2062   0.2982
     0.3459   0.3641   0.3785   0.5357   0.5735   0.5902   0.7195   0.7251
     0.9026   0.9727   1.0104   1.1898   1.2359   1.5227   1.5649   2.8615
     3.0198   3.2910   3.4373   3.5063   3.5452   3.5988   3.6159   3.7577
     3.7902

[...]

          k = 0.0380-0.0419 0.0000 ( 17876 PWs)   bands (ev):

[...]

          k =-0.0760-0.0000 0.0000 ( 17886 PWs)   bands (ev):

[...]

          k =-0.0760-0.0839 0.0000 ( 17948 PWs)   bands (ev):

   -56.4330 -56.4003 -55.8665 -55.8306 -55.8275 -55.8109 -55.7760 -55.7378
   -55.7113 -55.6985 -55.6488 -55.6235 -55.6099 -55.4668 -55.0270 -55.0266
   -32.7005 -32.6834 -32.6597 -32.6556 -32.5849 -32.5570 -32.2473 -32.1842
   -32.1572 -32.1271 -32.1029 -32.1006 -32.0888 -32.0736 -32.0677 -32.0524
   -32.0475 -32.0396 -32.0340 -32.0272 -32.0262 -32.0184 -31.9967 -31.9949
   -31.9928 -31.9782 -31.9662 -31.9522 -31.9430 -31.9371 -31.9161 -31.9029
   -31.9005 -31.8867 -31.8731 -31.8588 -31.8582 -31.8244 -31.8139 -31.7945
   -31.7231 -31.6748 -31.3735 -31.3733 -31.2536 -31.2519 -31.2122 -31.2113
   -17.5315 -16.6020 -15.9826 -15.9024 -15.8983 -15.8869 -15.8604 -15.8182
   -15.7408 -15.7339 -15.6631 -15.5961 -15.5630 -15.5186 -15.4961 -15.4838
   -15.4466 -15.4420 -15.3843 -15.3406 -15.3243 -15.3130 -15.2931 -15.2498
   -15.2441 -15.2413 -15.2176 -15.2021 -15.1520 -15.0517 -14.8656 -13.5421
   -13.5409  -9.3649  -4.2568  -4.1625  -3.9457  -3.7580  -3.2147  -3.1379
    -3.0637  -3.0560  -2.9812  -2.9216  -2.9068  -2.8622  -2.8551  -2.8228
    -2.7513  -2.7410  -2.7281  -2.7178  -2.7104  -2.7018  -2.6789  -2.6338
    -2.6207  -2.6135  -2.5989  -2.5889  -2.5775  -2.5737  -2.5479  -2.5079
    -2.4378  -2.3816  -2.2536  -2.2461  -2.2130  -2.1949  -2.1545  -2.1419
    -2.0878  -1.9958  -1.9836  -1.9809  -1.8914  -1.8358  -1.6230  -1.6088
    -1.5909  -1.5238  -1.4518  -1.3847  -1.3613  -1.3381  -1.3056  -1.2829
    -1.2345  -1.1856  -1.1498  -1.1134  -1.0974  -1.0588  -1.0069  -0.9533
    -0.9055  -0.9013  -0.8584  -0.8112  -0.7799  -0.6999  -0.6938  -0.6708
    -0.6477  -0.6071  -0.5230  -0.4710  -0.4282  -0.3345  -0.2910  -0.2586
    -0.1183  -0.0608  -0.0226   0.0534   0.0931   0.1972   0.2212   0.2991
     0.3105   0.3400   0.3646   0.4348   0.5070   0.5632   0.6038   0.6491
     0.6604   0.7100   0.7679   1.3667   1.3673   1.3746   1.3822   3.4068
     3.4317   3.4394   3.4693   3.6954   3.7128   3.7858   3.8153   3.8321
     3.8837

     the Fermi energy is     2.2711 ev

!    total energy              =   -2965.10849927 Ry
     estimated scf accuracy    <       0.00000007 Ry
     smearing contrib. (-TS)   =      -0.00015916 Ry
     internal energy E=F+TS    =   -2965.10834011 Ry

     The total energy is F=E-TS. E is the sum of the following terms:
     one-electron contribution =  -24222.95452976 Ry
     hartree contribution      =   12200.79664830 Ry
     xc contribution           =    -490.02794054 Ry
     ewald contribution        =    9547.07693435 Ry
     electric field correction =       0.00054755 Ry

     convergence has been achieved in  74 iterations

     Forces acting on atoms (cartesian axes, Ry/au):

     atom    1 type  1   force =    -0.00002217    0.00003167    0.13240019
     atom    2 type  1   force =    -0.00019096    0.00778880   -0.15738613
     atom    3 type  2   force =     0.00008391   -0.00480500   -0.05217723
     atom    4 type  2   force =     0.00035875    0.00109338    0.04044702
     atom    5 type  2   force =    -0.00611123   -0.00278636   -0.00019223
     atom    6 type  2   force =     0.00840059   -0.00338514    0.00078856
     atom    7 type  1   force =    -0.00002566   -0.00015252    0.00002399
     atom    8 type  1   force =     0.00020903   -0.00057035    0.00042661
     atom    9 type  2   force =    -0.00004392    0.00020366   -0.00004790
     atom   10 type  2   force =    -0.00014432   -0.00037531   -0.00018536
     atom   11 type  2   force =     0.00045178    0.00025967   -0.00018864
     atom   12 type  2   force =    -0.00028773    0.00016041   -0.00005337
     atom   13 type  1   force =    -0.00069052    0.00049346   -0.00025504
     atom   14 type  1   force =     0.00006616   -0.00033597   -0.00027206
     atom   15 type  2   force =    -0.00026228    0.00002311   -0.00086907
     atom   16 type  2   force =    -0.00033178    0.00010897    0.00007671
     atom   17 type  2   force =    -0.00001565   -0.00001546    0.00006756
     atom   18 type  2   force =    -0.00060166    0.00019507   -0.00015216
     atom   19 type  1   force =    -0.00002583   -0.00041582   -0.00030678
     atom   20 type  1   force =    -0.00002547   -0.00002552    0.00039386
     atom   21 type  2   force =    -0.00002551    0.00002200    0.09911445
     atom   22 type  2   force =    -0.00000586    0.00013538    0.00016700
     atom   23 type  2   force =    -0.08090851    0.00049261   -0.03408128
     atom   24 type  2   force =     0.08071034    0.00095645   -0.03414487
     atom   25 type  1   force =    -0.00001161   -0.00027163    0.14101576
     atom   26 type  1   force =    -0.00013482   -0.00647568   -0.15703959
     atom   27 type  2   force =     0.00016180    0.00109342   -0.05217773
     atom   28 type  2   force =     0.00018786    0.00033387    0.04177904
     atom   29 type  2   force =    -0.00752815    0.00512282    0.00202347
     atom   30 type  2   force =     0.00859999    0.00383062    0.00272522
     atom   31 type  1   force =    -0.00002297    0.00016269    0.00004536
     atom   32 type  1   force =     0.00030671   -0.00006665   -0.00048890
     atom   33 type  2   force =    -0.00005881    0.00040373    0.00020779
     atom   34 type  2   force =    -0.00011941    0.00019884    0.00037131
     atom   35 type  2   force =    -0.00047465   -0.00033870   -0.00007010
     atom   36 type  2   force =     0.00045575   -0.00043196    0.00016192
     atom   37 type  1   force =    -0.00055841   -0.00030359   -0.00009864
     atom   38 type  1   force =     0.00002142   -0.00001463   -0.00049182
     atom   39 type  2   force =     0.00001719   -0.00013618   -0.00041956
     atom   40 type  2   force =    -0.00013674   -0.00014140   -0.00029126
     atom   41 type  2   force =    -0.00015603    0.00014915   -0.00036048
     atom   42 type  2   force =    -0.00000485    0.00031779   -0.00017703
     atom   43 type  1   force =    -0.00022045    0.00034318   -0.00026415
     atom   44 type  1   force =     0.00003387   -0.00062860    0.00045772
     atom   45 type  2   force =    -0.00002813    0.00012491    0.09867013
     atom   46 type  2   force =    -0.08086810   -0.00164520   -0.03408183
     atom   47 type  2   force =     0.08067602   -0.00117413   -0.03414601
     atom   48 type  3   force =     0.01978243    0.00038411    0.00202664
     atom   49 type  2   force =    -0.00264699    0.00020857    0.00099179
     atom   50 type  4   force =    -0.01158575   -0.00108244   -0.00120373
     atom   51 type  4   force =    -0.00342264    0.00303203   -0.00174144
     atom   52 type  4   force =    -0.00239703   -0.00142211   -0.00072413
     atom   53 type  2   force =     0.00036124   -0.00025277   -0.00114520
     atom   54 type  4   force =    -0.00079023   -0.00041725    0.00085164

     Total force =     0.383438     Total SCF correction =     0.000853
  @ DRIVER MODE: Message from server: STATUS
  @ DRIVER MODE: Message from server: GETFORCE
  @ DRIVER MODE: Returning v,forces,stress,ensemble

     Writing output data file ./calc.save/
  @ DRIVER MODE: Message from server: EXIT
  @ DRIVE MODE: Exiting

     General routines

     Parallel routines

   This run was terminated on:  17: 1:47  22Sep2021

   JOB DONE.