     Program PWSCF v.6.7GPU starts on 24Sep2021 at  8:15: 2

     R & G space division:  proc/nbgrp/npool/nimage =       8
     Reading input from /storage/home/hcoda1/3/ntian30/research/carbon/CxH_vib/H2O_calc/ads_slab/CH2ON2HO_b/out_0048/pw.inp
Warning: card &CELL ignored
Warning: card   CELL_DYNAMICS='IPI', ignored
Warning: card / ignored

     Current dimensions of program PWSCF are:
     Max number of different atomic species (ntypx) = 10
     Max number of k-points (npk) =  40000
     Max angular momentum in pseudopotentials (lmaxx) =  3
     Presently no symmetry can be used with electric field

     Message from routine cell_base_init:
     DEPRECATED: use true lattice parameter, not A to a.u. conversion factor

     IMPORTANT: XC functional enforced from input :
     Exchange-correlation= BEEF-VDW
                           (   1   4  43  14   2   0   0)
     Any further DFT definition will be discarded
     Please, verify this is what you really want

  @ DRIVER MODE: Connecting to
 qe_1139763_2947315.sched-torque.pace.gatech.edurvg98v64_scratch
  using UNIX socket
  @ DRIVER MODE: Message from server: STATUS
  @ DRIVER MODE: Message from server: INIT
  @ DRIVER MODE: Receiving replica           0          -1
  @ DRIVER MODE: Receiving encoded integer          25
  @ DRIVER MODE:  SCF:  T  FORCE:  T  STRESS:  F  VC:  F  ENSEMBLE:  F
  @ DRIVER MODE:  SCF:  T  FORCE:  T  STRESS:  F  VC:  F  ENSEMBLE:  F

     Using Slab Decomposition

     bravais-lattice index     =            0
     lattice parameter (alat)  =       1.8897  a.u.
     unit-cell volume          =    6658.9804 (a.u.)^3
     number of atoms/cell      =           55
     number of atomic types    =            5
     number of electrons       =       407.00
     number of Kohn-Sham states=          213
     kinetic-energy cutoff     =      29.3995  Ry
     charge density cutoff     =     293.9946  Ry
     scf convergence threshold =      7.3E-08
     mixing beta               =       0.0500
     number of iterations used =            8  plain     mixing
     Exchange-correlation= BEEF-VDW
                           (   1   4  43  14   2   0   0)

     celldm(1)=   1.889726  celldm(2)=   0.000000  celldm(3)=   0.000000
     celldm(4)=   0.000000  celldm(5)=   0.000000  celldm(6)=   0.000000

     crystal axes: (cart. coord. in units of alat)
               a(1) = (   6.579727   0.000000   0.000000 )
               a(2) = (  -0.000775   5.961596   0.000000 )
               a(3) = (   0.000000   0.000000  25.155947 )

     reciprocal axes: (cart. coord. in units 2 pi/alat)
               b(1) = (  0.151982  0.000020  0.000000 )
               b(2) = (  0.000000  0.167740  0.000000 )
               b(3) = (  0.000000  0.000000  0.039752 )

     PseudoPot. # 1 for C  read from file:
     /storage/coda1/p-amedford6/0/shared/rich_project_chbe-medford/medford-share/data/pseudos_module/espresso/nninc/pbe/van/C.UPF
     MD5 check sum: 1a69bf6b8db32088f5b2163dbdb77a27
     Pseudo is Ultrasoft, Zval =  4.0
     Generated by new atomic code, or converted to UPF format
     Using radial grid of  721 points,  4 beta functions with:
                l(1) =   0
                l(2) =   0
                l(3) =   1
                l(4) =   1
     Q(r) pseudized with  8 coefficients,  rinner =    0.800   0.800   0.800

     PseudoPot. # 2 for H  read from file:
     /storage/coda1/p-amedford6/0/shared/rich_project_chbe-medford/medford-share/data/pseudos_module/espresso/nninc/pbe/van/H.UPF
     MD5 check sum: b5ee9d7bfd3a09ee7748110bda690ff7
     Pseudo is Ultrasoft, Zval =  1.0
     Generated by new atomic code, or converted to UPF format
     Using radial grid of  615 points,  1 beta functions with:
                l(1) =   0
     Q(r) pseudized with  8 coefficients,  rinner =    0.800

     PseudoPot. # 3 for O  read from file:
     /storage/coda1/p-amedford6/0/shared/rich_project_chbe-medford/medford-share/data/pseudos_module/espresso/nninc/pbe/van/O.UPF
     MD5 check sum: 78c19812648e8988a0fe644b0f25305e
     Pseudo is Ultrasoft, Zval =  6.0
     Generated by new atomic code, or converted to UPF format
     Using radial grid of  737 points,  4 beta functions with:
                l(1) =   0
                l(2) =   0
                l(3) =   1
                l(4) =   1
     Q(r) pseudized with  8 coefficients,  rinner =    0.800   0.800   0.800

     PseudoPot. # 4 for Ti read from file:
     /storage/coda1/p-amedford6/0/shared/rich_project_chbe-medford/medford-share/data/pseudos_module/espresso/nninc/pbe/van/Ti.UPF
     MD5 check sum: 8e4df49b7f0d34bbd5052bf3f5ea0213
     Pseudo is Ultrasoft, Zval = 12.0
     Generated by new atomic code, or converted to UPF format
     Using radial grid of  851 points,  6 beta functions with:
                l(1) =   0
                l(2) =   0
                l(3) =   1
                l(4) =   1
                l(5) =   2
                l(6) =   2
     Q(r) pseudized with  8 coefficients,  rinner =    1.000   1.000   1.000
                                                       1.000   1.000

     PseudoPot. # 5 for N  read from file:
     /storage/coda1/p-amedford6/0/shared/rich_project_chbe-medford/medford-share/data/pseudos_module/espresso/nninc/pbe/van/N.UPF
     MD5 check sum: 90d10febe142ad51ac9d5be1deb811c4
     Pseudo is Ultrasoft, Zval =  5.0
     Generated by new atomic code, or converted to UPF format
     Using radial grid of  729 points,  4 beta functions with:
                l(1) =   0
                l(2) =   0
                l(3) =   1
                l(4) =   1
     Q(r) pseudized with  8 coefficients,  rinner =    0.800   0.800   0.800

     atomic species   valence    mass     pseudopotential
        C1             4.00    12.01100     C ( 1.00)
        H1             1.00     1.00800     H ( 1.00)
        O1             6.00    15.99900     O ( 1.00)
        Ti1           12.00    47.86700     Ti( 1.00)
        N1             5.00    14.00700     N ( 1.00)

     No symmetry found

   Cartesian axes

     site n.     atom                  positions (alat units)
         1           C1  tau(   1) = (   6.3959394   2.9948767  18.7016815  )
         2           H1  tau(   2) = (   6.3118651   3.9496324  19.2181435  )
         3           H1  tau(   3) = (   6.2946090   2.0524817  19.2375006  )
         4           O1  tau(   4) = (   3.2904802   0.0005063   4.7018136  )
         5           O1  tau(   5) = (   3.2900926   2.9813045   4.7018136  )
         6           O1  tau(   6) = (   1.3043587   1.4918075   6.0039043  )
         7           O1  tau(   7) = (   1.3039711   4.4726057   6.0039043  )
         8           O1  tau(   8) = (   5.2767064   1.4903225   6.0039473  )
         9           O1  tau(   9) = (   5.2763189   4.4711207   6.0039473  )
        10           O1  tau(  10) = (   3.2906025   0.0005020   7.3038282  )
        11           O1  tau(  11) = (   3.2902150   2.9813002   7.3038282  )
        12           O1  tau(  12) = (   0.0006271   0.0005054   7.9858123  )
        13           O1  tau(  13) = (   0.0002396   2.9813036   7.9858123  )
        14           O1  tau(  14) = (   4.5942328   1.4918067   9.2879030  )
        15           O1  tau(  15) = (   4.5938453   4.4726049   9.2879030  )
        16           O1  tau(  16) = (   1.9868534   1.4903216   9.2879459  )
        17           O1  tau(  17) = (   1.9864658   4.4711199   9.2879459  )
        18           O1  tau(  18) = (   0.0129981   2.9922367  10.5657274  )
        19           O1  tau(  19) = (   0.0144279   0.0091559  10.5889743  )
        20           O1  tau(  20) = (   3.3117767   2.9674386  11.3102582  )
        21           O1  tau(  21) = (   3.3129298   0.0243810  11.3450129  )
        22           O1  tau(  22) = (   5.3345884   1.4970258  12.6342112  )
        23           O1  tau(  23) = (   5.3394917   4.4808886  12.6396439  )
        24           O1  tau(  24) = (   1.3039726   1.5040805  12.6380785  )
        25           O1  tau(  25) = (   1.3005587   4.4728597  12.6427203  )
        26           O1  tau(  26) = (   3.3397831   2.9746101  13.9049785  )
        27           O1  tau(  27) = (   3.3223070   5.9049495  13.9699414  )
        28           O1  tau(  28) = (   0.0408547   5.9558716  14.6791314  )
        29           O1  tau(  29) = (   0.0240783   2.9814708  14.7219997  )
        30           O1  tau(  30) = (   4.6055448   4.4181431  16.1204950  )
        31           O1  tau(  31) = (   4.6084482   1.5084077  16.0967128  )
        32           O1  tau(  32) = (   2.0524258   4.3896087  16.0537013  )
        33           O1  tau(  33) = (   2.0565100   1.5382275  16.0573534  )
        34           O1  tau(  34) = (   0.0881354   5.9599038  17.1931241  )
        35           O1  tau(  35) = (   0.0264254   2.9794292  17.4619454  )
        36           Ti1 tau(  36) = (   0.0004258   2.9801865   6.0000000  )
        37           Ti1 tau(  37) = (   0.0000382   5.9609847   6.0000000  )
        38           Ti1 tau(  38) = (   3.2906075   1.4906267   6.0002472  )
        39           Ti1 tau(  39) = (   3.2902200   4.4714249   6.0002472  )
        40           Ti1 tau(  40) = (   3.3176177   0.0844252   9.1703869  )
        41           Ti1 tau(  41) = (   3.3271239   3.0668301   9.1994626  )
        42           Ti1 tau(  42) = (   0.0459265   4.5214211   9.2633915  )
        43           Ti1 tau(  43) = (   0.0410032   1.6055327   9.3499854  )
        44           Ti1 tau(  44) = (   3.3214603   4.6642404  12.6916750  )
        45           Ti1 tau(  45) = (   3.3199143   1.5801738  12.4350604  )
        46           Ti1 tau(  46) = (   0.0219714   0.0386744  12.4748393  )
        47           Ti1 tau(  47) = (   0.0368166   3.0234317  12.7766128  )
        48           Ti1 tau(  48) = (   3.3281430   2.9430002  15.6816790  )
        49           Ti1 tau(  49) = (   3.4175200   5.9218210  16.2589141  )
        50           Ti1 tau(  50) = (   0.0864224   1.3736379  15.9343534  )
        51           Ti1 tau(  51) = (   0.1056494   4.5744356  15.9464672  )
        52           N1  tau(  52) = (   3.6299987   3.2157240  20.3374172  )
        53           N1  tau(  53) = (   2.7220030   2.6454082  20.0695964  )
        54           O1  tau(  54) = (   3.1925635   5.9265077  18.0938652  )
        55           H1  tau(  55) = (   2.2801939   0.0950383  18.4089923  )

     number of k points=    10  Fermi-Dirac smearing, width (Ry)=  0.0073
                       cart. coord. in units 2pi/alat
        k(    1) = (   0.0000000   0.0000000   0.0000000), wk =   0.1250000
        k(    2) = (   0.0000000   0.0419351   0.0000000), wk =   0.2500000
        k(    3) = (   0.0000000  -0.0838702   0.0000000), wk =   0.1250000
        k(    4) = (   0.0379955   0.0000049   0.0000000), wk =   0.2500000
        k(    5) = (   0.0379955   0.0419400   0.0000000), wk =   0.2500000
        k(    6) = (   0.0379955  -0.0838652   0.0000000), wk =   0.2500000
        k(    7) = (   0.0379955  -0.0419301   0.0000000), wk =   0.2500000
        k(    8) = (  -0.0759910  -0.0000099   0.0000000), wk =   0.1250000
        k(    9) = (  -0.0759910   0.0419252   0.0000000), wk =   0.2500000
        k(   10) = (  -0.0759910  -0.0838800   0.0000000), wk =   0.1250000

     Initial potential from superposition of free atoms

     starting charge  390.99916, renormalised to  407.00000

     negative rho (up, down):  1.488E-02 0.000E+00

     %%%%%%%%%%%%%%%%%%%%%%%%%%%%%%%%%%%%%%%%%%%%%%%%%%%%%%%%%%%%%%%%%%%%%%%%
     %                                                                      %
     % You are using vdW-DF, which was implemented by the Thonhauser group. %
     % Please cite the following two papers that made this development      %
     % possible and the two reviews that describe the various versions:     %
     %                                                                      %
     %   T. Thonhauser et al., PRL 115, 136402 (2015).                      %
     %   T. Thonhauser et al., PRB 76, 125112 (2007).                       %
     %   K. Berland et al., Rep. Prog. Phys. 78, 066501 (2015).             %
     %   D.C. Langreth et al., J. Phys.: Condens. Matter 21, 084203 (2009). %
     %                                                                      %
     %                                                                      %
     % If you are calculating the stress with vdW-DF, please also cite:     %
     %                                                                      %
     %   R. Sabatini et al., J. Phys.: Condens. Matter 24, 424209 (2012).   %
     %                                                                      %
     %%%%%%%%%%%%%%%%%%%%%%%%%%%%%%%%%%%%%%%%%%%%%%%%%%%%%%%%%%%%%%%%%%%%%%%%

     Adding external electric field

     Computed dipole along edir(3) :
        Dipole              -15.3794 Ry au,        -39.0906 Debye
        Dipole field         -0.0290 Ry au,

        Potential amp.        2.6904 Ry
        Total length         46.3494 bohr

     Starting wfcs are  307 atomic wfcs
  @ DRIVER MODE: Message from server: STATUS
  @ DRIVER MODE: Message from server: POSDATA
  @ DRIVER MODE: Reading and sharing cell
  @ DRIVER MODE: Reading and sharing positions
  @ DRIVER MODE: Received positions

     Self-consistent Calculation

     iteration #  1     ecut=    29.40 Ry     beta= 0.05
     Davidson diagonalization with overlap
     c_bands:  1 eigenvalues not converged
     c_bands:  1 eigenvalues not converged
     c_bands:  1 eigenvalues not converged
     c_bands:  3 eigenvalues not converged
     ethr =  1.00E-05,  avg # of iterations = 34.0

[...]

     total energy              =   -2231.71668094 Ry
     estimated scf accuracy    <    8832.05241200 Ry

     iteration #  2     ecut=    29.40 Ry     beta= 0.05
     Davidson diagonalization with overlap
     ethr =  1.00E-02,  avg # of iterations = 30.6

[...]

     iteration # 56     ecut=    29.40 Ry     beta= 0.05
     Davidson diagonalization with overlap
     c_bands:  1 eigenvalues not converged
     ethr =  1.22E-07,  avg # of iterations = 11.1

[...]

     total energy              =   -3003.97508380 Ry
     estimated scf accuracy    <       0.00000036 Ry

     iteration # 75     ecut=    29.40 Ry     beta= 0.05
     Davidson diagonalization with overlap
     ethr =  2.71E-11,  avg # of iterations = 12.1

     negative rho (up, down):  1.524E-02 0.000E+00

     Adding external electric field

     Computed dipole along edir(3) :
        Dipole                0.9046 Ry au,          2.2992 Debye
        Dipole field          0.0017 Ry au,

        Potential amp.       -0.1582 Ry
        Total length         46.3494 bohr

     End of self-consistent calculation

          k = 0.0000 0.0000 0.0000 ( 18029 PWs)   bands (ev):

   -55.6589 -55.6163 -55.5422 -55.4558 -55.4213 -55.4099 -55.3980 -55.3592
   -55.3038 -55.2714 -55.2662 -55.2332 -55.1898 -55.0978 -54.5074 -54.4734
   -32.1107 -32.0086 -31.9534 -31.9254 -31.9128 -31.8709 -31.8644 -31.8208
   -31.8170 -31.7595 -31.7544 -31.7413 -31.7337 -31.7262 -31.7220 -31.6991
   -31.6780 -31.6727 -31.6322 -31.6217 -31.6091 -31.5976 -31.5949 -31.5936
   -31.5568 -31.5518 -31.5132 -31.5082 -31.5055 -31.4959 -31.4941 -31.4859
   -31.4618 -31.4601 -31.4328 -31.4300 -31.4276 -31.3827 -31.3823 -31.3449
   -31.3062 -31.3030 -30.9101 -30.8336 -30.8103 -30.7270 -30.6410 -30.5298
   -21.1381 -20.0484 -16.3121 -16.1533 -15.9869 -15.7989 -15.7003 -15.6381
   -15.4315 -15.3723 -15.2953 -15.1405 -15.1134 -15.0761 -15.0477 -15.0256
   -15.0170 -14.9937 -14.9838 -14.9429 -14.9192 -14.9155 -14.8703 -14.8067
   -14.7607 -14.7519 -14.7080 -14.6489 -14.6032 -14.5905 -14.5331 -14.3437
   -13.0084 -12.8945  -9.2704  -6.4093  -5.5853  -5.5514  -4.2992  -4.2815
    -3.9004  -3.5524  -3.5123  -3.4677  -3.3845  -3.3619  -3.2336  -3.0689
    -3.0583  -2.8868  -2.7569  -2.6841  -2.6507  -2.6155  -2.5003  -2.4526
    -2.4259  -2.3881  -2.3566  -2.3323  -2.2926  -2.2752  -2.2414  -2.1965
    -2.1676  -2.0771  -2.0733  -2.0263  -1.9457  -1.9102  -1.9045  -1.9006
    -1.8791  -1.8335  -1.7936  -1.7480  -1.7208  -1.6701  -1.5637  -1.5442
    -1.5391  -1.4704  -1.2262  -1.0904  -1.0623  -0.9894  -0.9524  -0.9350
    -0.8965  -0.8919  -0.8771  -0.8416  -0.8132  -0.6941  -0.6320  -0.5705
    -0.5649  -0.5442  -0.4993  -0.3992  -0.3362  -0.3015  -0.2597  -0.2456
    -0.1757  -0.1582  -0.0784  -0.0449   0.0234   0.1286   0.1720   0.2017
     0.2211   0.2355   0.2849   0.3398   0.3939   0.4248   0.4369   0.4658
     0.5363   0.5595   0.5730   0.5998   0.6867   0.7530   0.7699   0.8311
     0.9149   0.9418   1.0375   1.1667   1.2410   1.4884   1.5144   1.5969
     1.7287   2.0767   2.1223   3.5558   3.6341   3.6639   3.7481   3.8104
     3.8379   3.9215   4.0054   4.0929   4.1270

[...]

          k = 0.0380-0.0419 0.0000 ( 17876 PWs)   bands (ev):

[...]

          k =-0.0760-0.0000 0.0000 ( 17886 PWs)   bands (ev):

[...]

          k =-0.0760-0.0839 0.0000 ( 17948 PWs)   bands (ev):

   -55.6505 -55.6246 -55.5413 -55.4439 -55.4331 -55.4030 -55.3956 -55.3660
   -55.3045 -55.2693 -55.2597 -55.2440 -55.1867 -55.1008 -54.4910 -54.4898
   -31.9479 -31.9367 -31.9199 -31.9147 -31.9075 -31.8114 -31.7947 -31.7768
   -31.7608 -31.7583 -31.7572 -31.7459 -31.7384 -31.6953 -31.6949 -31.6731
   -31.6573 -31.6502 -31.6380 -31.6287 -31.6230 -31.6206 -31.6085 -31.5933
   -31.5865 -31.5845 -31.5707 -31.5575 -31.5522 -31.5424 -31.5016 -31.4976
   -31.4913 -31.4740 -31.4690 -31.4644 -31.4507 -31.4473 -31.4171 -31.3852
   -31.3483 -31.3064 -30.8238 -30.8226 -30.7245 -30.7226 -30.6844 -30.6829
   -21.1378 -20.0427 -16.2798 -15.6708 -15.6091 -15.4650 -15.4436 -15.3857
   -15.3549 -15.2794 -15.2359 -15.2264 -15.1971 -15.1789 -15.1534 -15.1347
   -15.0968 -15.0752 -15.0247 -15.0188 -14.9684 -14.9636 -14.9545 -14.9311
   -14.8829 -14.8280 -14.8222 -14.8196 -14.7567 -14.7487 -14.6506 -14.4781
   -12.9981 -12.9958  -9.2788  -6.4064  -5.5741  -5.5065  -4.3067  -4.2821
    -3.8589  -3.6221  -3.0507  -2.8994  -2.8252  -2.6850  -2.5970  -2.5368
    -2.5251  -2.5040  -2.4678  -2.3956  -2.3846  -2.3300  -2.3257  -2.3185
    -2.3075  -2.2882  -2.2445  -2.2219  -2.2069  -2.1973  -2.1711  -2.1486
    -2.1345  -2.1222  -2.1144  -2.1024  -2.0889  -2.0454  -1.9799  -1.9130
    -1.8773  -1.8619  -1.7206  -1.7073  -1.6404  -1.6257  -1.6157  -1.5893
    -1.5816  -1.5028  -1.4518  -1.3085  -1.2848  -1.2514  -1.1932  -1.1498
    -1.0662  -1.0598  -1.0339  -0.9752  -0.9553  -0.9251  -0.9097  -0.8125
    -0.7355  -0.6908  -0.6530  -0.5397  -0.5227  -0.5077  -0.4466  -0.4203
    -0.4123  -0.3982  -0.3533  -0.2815  -0.2349  -0.2131  -0.1762  -0.1638
    -0.1016  -0.0538   0.0167   0.0865   0.1691   0.1886   0.2951   0.3714
     0.4169   0.5303   0.5873   0.6155   0.6464   0.7194   0.7683   0.7820
     0.8801   0.9392   0.9592   1.0275   1.0559   1.0968   1.1312   1.8855
     1.8985   1.9315   1.9437   3.5068   4.0432   4.0532   4.0671   4.0892
     4.1135   4.1370   4.2123   4.2523   4.2679

     the Fermi energy is     3.4970 ev

!    total energy              =   -3003.97510060 Ry
     estimated scf accuracy    <       0.00000005 Ry
     smearing contrib. (-TS)   =      -0.01899801 Ry
     internal energy E=F+TS    =   -3003.95610259 Ry

     The total energy is F=E-TS. E is the sum of the following terms:
     one-electron contribution =  -23046.37462840 Ry
     hartree contribution      =   11620.29811307 Ry
     xc contribution           =    -499.46118458 Ry
     ewald contribution        =    8921.58005320 Ry
     electric field correction =       0.00154411 Ry

     convergence has been achieved in  75 iterations

     Forces acting on atoms (cartesian axes, Ry/au):

     atom    1 type  1   force =    -0.00035716   -0.00002214    0.00064775
     atom    2 type  2   force =    -0.00046997   -0.00007170   -0.00022282
     atom    3 type  2   force =    -0.00053990    0.00006957   -0.00027137
     atom    4 type  3   force =    -0.00006413    0.00012103    0.10177726
     atom    5 type  3   force =    -0.00006306    0.00014707    0.10144668
     atom    6 type  3   force =    -0.07458748    0.00082291   -0.03018430
     atom    7 type  3   force =    -0.07405634   -0.00148285   -0.03017274
     atom    8 type  3   force =     0.07426636    0.00138208   -0.03023521
     atom    9 type  3   force =     0.07390839   -0.00108353   -0.03028040
     atom   10 type  3   force =     0.00081893    0.00107217    0.04834843
     atom   11 type  3   force =     0.00087674    0.00075762    0.05011190
     atom   12 type  3   force =     0.00040532   -0.00629237   -0.03722890
     atom   13 type  3   force =     0.00063783    0.00422560   -0.03096018
     atom   14 type  3   force =    -0.01076458   -0.00219999    0.00091220
     atom   15 type  3   force =    -0.01064039    0.00459973    0.00171972
     atom   16 type  3   force =     0.01297633   -0.00502393    0.00200918
     atom   17 type  3   force =     0.01233490    0.00211855    0.00232650
     atom   18 type  3   force =    -0.00037349    0.00005264    0.00005955
     atom   19 type  3   force =    -0.00020629    0.00027541    0.00000969
     atom   20 type  3   force =     0.00003318   -0.00076390    0.00008743
     atom   21 type  3   force =    -0.00022141   -0.00040536    0.00001842
     atom   22 type  3   force =     0.00024408   -0.00047602   -0.00004537
     atom   23 type  3   force =     0.00004794    0.00035878    0.00060097
     atom   24 type  3   force =    -0.00046754   -0.00034863   -0.00035564
     atom   25 type  3   force =    -0.00014114    0.00044071    0.00015288
     atom   26 type  3   force =    -0.00040037   -0.00024535   -0.00033212
     atom   27 type  3   force =    -0.00010600    0.00014898    0.00020351
     atom   28 type  3   force =     0.00047217    0.00008909    0.00007369
     atom   29 type  3   force =    -0.00012439   -0.00023372    0.00011714
     atom   30 type  3   force =    -0.00048787   -0.00012301   -0.00050835
     atom   31 type  3   force =    -0.00047871    0.00005381   -0.00025328
     atom   32 type  3   force =    -0.00020639    0.00027694   -0.00009614
     atom   33 type  3   force =    -0.00041307   -0.00009667   -0.00003206
     atom   34 type  3   force =    -0.00074422   -0.00024197   -0.00048546
     atom   35 type  3   force =    -0.00023114   -0.00010612    0.00032876
     atom   36 type  4   force =    -0.00033065   -0.00159179    0.10373235
     atom   37 type  4   force =    -0.00011390    0.00148857    0.11785024
     atom   38 type  4   force =    -0.00038796    0.00606151   -0.16913897
     atom   39 type  4   force =    -0.00010756   -0.00504257   -0.16938453
     atom   40 type  4   force =     0.00030858    0.00008194   -0.00054223
     atom   41 type  4   force =     0.00003734   -0.00020036   -0.00018926
     atom   42 type  4   force =    -0.00017156    0.00083539   -0.00001369
     atom   43 type  4   force =    -0.00019010   -0.00053077   -0.00000266
     atom   44 type  4   force =    -0.00007097   -0.00029148    0.00029822
     atom   45 type  4   force =     0.00000573   -0.00015394   -0.00106360
     atom   46 type  4   force =    -0.00033680    0.00032065    0.00061492
     atom   47 type  4   force =    -0.00078704    0.00066243    0.00002269
     atom   48 type  4   force =     0.00043761   -0.00023792    0.00004684
     atom   49 type  4   force =     0.00029943    0.00018169    0.00007475
     atom   50 type  4   force =     0.00047326    0.00001619   -0.00026139
     atom   51 type  4   force =     0.00022394   -0.00011947   -0.00044007
     atom   52 type  5   force =    -0.00120201   -0.00088639   -0.00060213
     atom   53 type  5   force =     0.00067578    0.00081971    0.00022653
     atom   54 type  3   force =    -0.00648081    0.00165284    0.00234550
     atom   55 type  2   force =     0.00684062   -0.00086168   -0.00286088

     Total force =     0.369248     Total SCF correction =     0.000719
  @ DRIVER MODE: Message from server: STATUS
  @ DRIVER MODE: Message from server: GETFORCE
  @ DRIVER MODE: Returning v,forces,stress,ensemble

     Writing output data file ./calc.save/
  @ DRIVER MODE: Message from server: EXIT
  @ DRIVE MODE: Exiting

     General routines

     Parallel routines

   This run was terminated on:   8:42:10  24Sep2021

   JOB DONE.