     Program PWSCF v.6.7GPU starts on 19Oct2021 at  1:30:21

     R & G space division:  proc/nbgrp/npool/nimage =       8
     Reading input from /storage/home/hcoda1/3/ntian30/research/carbon/CxH_vib/Thiel_calc/ads_slab/NH3NH3_perslab/out_0030/pw.inp
Warning: card &CELL ignored
Warning: card   CELL_DYNAMICS='IPI', ignored
Warning: card / ignored

     Current dimensions of program PWSCF are:
     Max number of different atomic species (ntypx) = 10
     Max number of k-points (npk) =  40000
     Max angular momentum in pseudopotentials (lmaxx) =  3
     Presently no symmetry can be used with electric field

     Message from routine cell_base_init:
     DEPRECATED: use true lattice parameter, not A to a.u. conversion factor

     IMPORTANT: XC functional enforced from input :
     Exchange-correlation= BEEF-VDW
                           (   1   4  43  14   2   0   0)
     Any further DFT definition will be discarded
     Please, verify this is what you really want

  @ DRIVER MODE: Connecting to
 qe_1139763_3255140.sched-torque.pace.gatech.eduek5tzsqg_scratch
  using UNIX socket
  @ DRIVER MODE: Message from server: STATUS
  @ DRIVER MODE: Message from server: INIT
  @ DRIVER MODE: Receiving replica           0          -1
  @ DRIVER MODE: Receiving encoded integer          25
  @ DRIVER MODE:  SCF:  T  FORCE:  T  STRESS:  F  VC:  F  ENSEMBLE:  F
  @ DRIVER MODE:  SCF:  T  FORCE:  T  STRESS:  F  VC:  F  ENSEMBLE:  F

     Using Slab Decomposition

     bravais-lattice index     =            0
     lattice parameter (alat)  =       1.8897  a.u.
     unit-cell volume          =    9988.4706 (a.u.)^3
     number of atoms/cell      =           61
     number of atomic types    =            4
     number of electrons       =       442.00
     number of Kohn-Sham states=          231
     kinetic-energy cutoff     =      29.3995  Ry
     charge density cutoff     =     293.9946  Ry
     scf convergence threshold =      7.3E-08
     mixing beta               =       0.0500
     number of iterations used =            8  plain     mixing
     Exchange-correlation= BEEF-VDW
                           (   1   4  43  14   2   0   0)

     celldm(1)=   1.889726  celldm(2)=   0.000000  celldm(3)=   0.000000
     celldm(4)=   0.000000  celldm(5)=   0.000000  celldm(6)=   0.000000

     crystal axes: (cart. coord. in units of alat)
               a(1) = (   6.579727   0.000000   0.000000 )
               a(2) = (  -0.001163   8.942395   0.000000 )
               a(3) = (   0.000000   0.000000  25.155947 )

     reciprocal axes: (cart. coord. in units 2 pi/alat)
               b(1) = (  0.151982  0.000020  0.000000 )
               b(2) = (  0.000000  0.111827  0.000000 )
               b(3) = (  0.000000  0.000000  0.039752 )

     PseudoPot. # 1 for O  read from file:
     /storage/coda1/p-amedford6/0/shared/rich_project_chbe-medford/medford-share/data/pseudos_module/espresso/nninc/pbe/van/O.UPF
     MD5 check sum: 78c19812648e8988a0fe644b0f25305e
     Pseudo is Ultrasoft, Zval =  6.0
     Generated by new atomic code, or converted to UPF format
     Using radial grid of  737 points,  4 beta functions with:
                l(1) =   0
                l(2) =   0
                l(3) =   1
                l(4) =   1
     Q(r) pseudized with  8 coefficients,  rinner =    0.800   0.800   0.800

     PseudoPot. # 2 for Ti read from file:
     /storage/coda1/p-amedford6/0/shared/rich_project_chbe-medford/medford-share/data/pseudos_module/espresso/nninc/pbe/van/Ti.UPF
     MD5 check sum: 8e4df49b7f0d34bbd5052bf3f5ea0213
     Pseudo is Ultrasoft, Zval = 12.0
     Generated by new atomic code, or converted to UPF format
     Using radial grid of  851 points,  6 beta functions with:
                l(1) =   0
                l(2) =   0
                l(3) =   1
                l(4) =   1
                l(5) =   2
                l(6) =   2
     Q(r) pseudized with  8 coefficients,  rinner =    1.000   1.000   1.000
                                                       1.000   1.000

     PseudoPot. # 3 for N  read from file:
     /storage/coda1/p-amedford6/0/shared/rich_project_chbe-medford/medford-share/data/pseudos_module/espresso/nninc/pbe/van/N.UPF
     MD5 check sum: 90d10febe142ad51ac9d5be1deb811c4
     Pseudo is Ultrasoft, Zval =  5.0
     Generated by new atomic code, or converted to UPF format
     Using radial grid of  729 points,  4 beta functions with:
                l(1) =   0
                l(2) =   0
                l(3) =   1
                l(4) =   1
     Q(r) pseudized with  8 coefficients,  rinner =    0.800   0.800   0.800

     PseudoPot. # 4 for H  read from file:
     /storage/coda1/p-amedford6/0/shared/rich_project_chbe-medford/medford-share/data/pseudos_module/espresso/nninc/pbe/van/H.UPF
     MD5 check sum: b5ee9d7bfd3a09ee7748110bda690ff7
     Pseudo is Ultrasoft, Zval =  1.0
     Generated by new atomic code, or converted to UPF format
     Using radial grid of  615 points,  1 beta functions with:
                l(1) =   0
     Q(r) pseudized with  8 coefficients,  rinner =    0.800

     atomic species   valence    mass     pseudopotential
        O1             6.00    15.99900     O ( 1.00)
        Ti1           12.00    47.86700     Ti( 1.00)
        N1             5.00    14.00700     N ( 1.00)
        H1             1.00     1.00800     H ( 1.00)

     No symmetry found

   Cartesian axes

     site n.     atom                  positions (alat units)
         1           O1  tau(   1) = (   0.0007354   0.0005023  10.5931620  )
         2           O1  tau(   2) = (   3.2905679   0.0262843  13.8966672  )
         3           O1  tau(   3) = (   0.0007290   0.0579300  17.2579193  )
         4           O1  tau(   4) = (   0.0006271   0.0005054   7.9858123  )
         5           O1  tau(   5) = (   3.2893100   8.9214726  11.1892856  )
         6           O1  tau(   6) = (   0.0005199   0.0455907  14.6396817  )
         7           O1  tau(   7) = (   1.9868534   1.4903216   9.2879459  )
         8           O1  tau(   8) = (   5.2380180   1.6024468  12.5713634  )
         9           O1  tau(   9) = (   2.0277759   1.4975965  16.1012153  )
        10           Ti1 tau(  10) = (   0.0007404   1.4906270   9.2895810  )
        11           Ti1 tau(  11) = (   3.2903786   1.3551844  12.4711573  )
        12           Ti1 tau(  12) = (   0.0003174   1.4440192  15.7330511  )
        13           O1  tau(  13) = (   4.5942328   1.4918067   9.2879030  )
        14           O1  tau(  14) = (   1.3426987   1.6023923  12.5713351  )
        15           O1  tau(  15) = (   4.5529958   1.4977110  16.1013444  )
        16           Ti1 tau(  16) = (   3.2902859   2.9801868   9.2893338  )
        17           Ti1 tau(  17) = (   0.0005333   2.8255407  12.4640987  )
        18           Ti1 tau(  18) = (   3.2895849   3.0341113  15.6952405  )
        19           O1  tau(  19) = (   0.0003479   2.9813005  10.5931620  )
        20           O1  tau(  20) = (   3.2900438   2.9627632  13.8881152  )
        21           O1  tau(  21) = (   0.0002396   2.9813036   7.9858123  )
        22           O1  tau(  22) = (   3.2902621   2.9759438  11.1922459  )
        23           O1  tau(  23) = (   0.0002943   2.9805036  14.7119039  )
        24           O1  tau(  24) = (   1.9864658   4.4711199   9.2879459  )
        25           O1  tau(  25) = (   5.2407125   4.5787950  12.5855407  )
        26           O1  tau(  26) = (   1.9842138   4.3634165  16.0604883  )
        27           Ti1 tau(  27) = (   0.0003529   4.4714252   9.2895810  )
        28           Ti1 tau(  28) = (   3.2904166   4.3402611  12.5252975  )
        29           Ti1 tau(  29) = (  -0.0003584   4.7219071  15.7914592  )
        30           O1  tau(  30) = (   4.5938453   4.4726049   9.2879030  )
        31           O1  tau(  31) = (   1.3394863   4.5787101  12.5854501  )
        32           O1  tau(  32) = (   4.5953883   4.3633133  16.0606172  )
        33           Ti1 tau(  33) = (   3.2898983   5.9609850   9.2893338  )
        34           Ti1 tau(  34) = (   0.0004309   5.8055675  12.4642027  )
        35           Ti1 tau(  35) = (   3.2895961   6.0676247  15.8182862  )
        36           O1  tau(  36) = (  -0.0000397   5.9620987  10.5931620  )
        37           O1  tau(  37) = (   3.2897974   5.9491097  13.9522666  )
        38           O1  tau(  38) = (  -0.0001005   5.9419674  17.2168411  )
        39           O1  tau(  39) = (  -0.0001480   5.9621018   7.9858123  )
        40           O1  tau(  40) = (   3.2898294   5.9516608  11.2068290  )
        41           O1  tau(  41) = (  -0.0002620   6.0093330  14.6024556  )
        42           O1  tau(  42) = (   1.9860782   7.4519181   9.2879459  )
        43           O1  tau(  43) = (   5.2335766   7.5615516  12.5803788  )
        44           O1  tau(  44) = (   2.0229086   7.4656171  16.0362607  )
        45           Ti1 tau(  45) = (  -0.0000347   7.4522234   9.2895810  )
        46           Ti1 tau(  46) = (   3.2895523   7.2794780  12.5477951  )
        47           Ti1 tau(  47) = (  -0.0001499   7.5569733  16.2601047  )
        48           O1  tau(  48) = (   4.5934577   7.4534031   9.2879030  )
        49           O1  tau(  49) = (   1.3453152   7.5613653  12.5804751  )
        50           O1  tau(  50) = (   4.5562564   7.4656138  16.0364310  )
        51           Ti1 tau(  51) = (   3.2895107   8.9417832   9.2893338  )
        52           Ti1 tau(  52) = (  -0.0004710   8.7769229  12.4586551  )
        53           Ti1 tau(  53) = (   3.2909234   0.0582169  15.6986445  )
        54           N1  tau(  54) = (   3.2892347   5.9685454  18.1810142  )
        55           H1  tau(  55) = (   3.2893406   5.0219839  18.5418895  )
        56           H1  tau(  56) = (   2.4590131   6.4368771  18.5304692  )
        57           H1  tau(  57) = (   4.1190552   6.4372901  18.5310312  )
        58           N1  tau(  58) = (  -0.0003436   2.9015831  17.9277722  )
        59           H1  tau(  59) = (   6.5794260   1.9611702  18.3102355  )
        60           H1  tau(  60) = (   5.7593157   3.3919262  18.2600543  )
        61           H1  tau(  61) = (   0.8192290   3.3923488  18.2608005  )

     number of k points=    10  Fermi-Dirac smearing, width (Ry)=  0.0073
                       cart. coord. in units 2pi/alat
        k(    1) = (   0.0000000   0.0000000   0.0000000), wk =   0.1250000
        k(    2) = (   0.0000000   0.0279567   0.0000000), wk =   0.2500000
        k(    3) = (   0.0000000  -0.0559134   0.0000000), wk =   0.1250000
        k(    4) = (   0.0379955   0.0000049   0.0000000), wk =   0.2500000
        k(    5) = (   0.0379955   0.0279617   0.0000000), wk =   0.2500000
        k(    6) = (   0.0379955  -0.0559085   0.0000000), wk =   0.2500000
        k(    7) = (   0.0379955  -0.0279518   0.0000000), wk =   0.2500000
        k(    8) = (  -0.0759910  -0.0000099   0.0000000), wk =   0.1250000
        k(    9) = (  -0.0759910   0.0279468   0.0000000), wk =   0.2500000
        k(   10) = (  -0.0759910  -0.0559233   0.0000000), wk =   0.1250000

     Initial potential from superposition of free atoms

     starting charge  423.99908, renormalised to  442.00000

     negative rho (up, down):  3.647E-02 0.000E+00

     %%%%%%%%%%%%%%%%%%%%%%%%%%%%%%%%%%%%%%%%%%%%%%%%%%%%%%%%%%%%%%%%%%%%%%%%
     %                                                                      %
     % You are using vdW-DF, which was implemented by the Thonhauser group. %
     % Please cite the following two papers that made this development      %
     % possible and the two reviews that describe the various versions:     %
     %                                                                      %
     %   T. Thonhauser et al., PRL 115, 136402 (2015).                      %
     %   T. Thonhauser et al., PRB 76, 125112 (2007).                       %
     %   K. Berland et al., Rep. Prog. Phys. 78, 066501 (2015).             %
     %   D.C. Langreth et al., J. Phys.: Condens. Matter 21, 084203 (2009). %
     %                                                                      %
     %                                                                      %
     % If you are calculating the stress with vdW-DF, please also cite:     %
     %                                                                      %
     %   R. Sabatini et al., J. Phys.: Condens. Matter 24, 424209 (2012).   %
     %                                                                      %
     %%%%%%%%%%%%%%%%%%%%%%%%%%%%%%%%%%%%%%%%%%%%%%%%%%%%%%%%%%%%%%%%%%%%%%%%

     Adding external electric field

     Computed dipole along edir(3) :
        Dipole               -6.4311 Ry au,        -16.3461 Debye
        Dipole field         -0.0081 Ry au,

        Potential amp.        0.7500 Ry
        Total length         46.3494 bohr

     Starting wfcs are  334 atomic wfcs
  @ DRIVER MODE: Message from server: STATUS
  @ DRIVER MODE: Message from server: POSDATA
  @ DRIVER MODE: Reading and sharing cell
  @ DRIVER MODE: Reading and sharing positions
  @ DRIVER MODE: Received positions

     Self-consistent Calculation

     iteration #  1     ecut=    29.40 Ry     beta= 0.05
     Davidson diagonalization with overlap
     c_bands:  1 eigenvalues not converged
     c_bands:  2 eigenvalues not converged
     c_bands:  2 eigenvalues not converged
     c_bands:  2 eigenvalues not converged
     c_bands:  3 eigenvalues not converged
     c_bands:  5 eigenvalues not converged
     c_bands:  3 eigenvalues not converged
     c_bands:  2 eigenvalues not converged
     c_bands:  3 eigenvalues not converged
     ethr =  1.00E-05,  avg # of iterations = 19.8

[...]

     total energy              =   -3273.09679478 Ry
     estimated scf accuracy    <     292.57082212 Ry

[...]

     iteration #  3     ecut=    29.40 Ry     beta= 0.05
     Davidson diagonalization with overlap
     ethr =  1.00E-02,  avg # of iterations = 15.5

[...]

     iteration # 41     ecut=    29.40 Ry     beta= 0.05
     Davidson diagonalization with overlap
     c_bands:  2 eigenvalues not converged
     ethr =  2.18E-06,  avg # of iterations =  6.5

[...]

     total energy              =   -3295.91279506 Ry
     estimated scf accuracy    <       0.00000015 Ry

     iteration # 67     ecut=    29.40 Ry     beta= 0.05
     Davidson diagonalization with overlap
     ethr =  3.48E-11,  avg # of iterations =  6.3

     negative rho (up, down):  3.468E-02 0.000E+00

     Adding external electric field

     Computed dipole along edir(3) :
        Dipole                1.8604 Ry au,          4.7286 Debye
        Dipole field          0.0023 Ry au,

        Potential amp.       -0.2170 Ry
        Total length         46.3494 bohr

     End of self-consistent calculation

          k = 0.0000 0.0000 0.0000 ( 26871 PWs)   bands (ev):

   -57.5978 -57.5577 -57.5341 -57.5281 -57.4980 -57.3987 -57.3913 -57.3703
   -57.3557 -57.3308 -57.3043 -57.2853 -57.2226 -57.1625 -57.0651 -56.5698
   -56.5446 -56.5436 -33.9788 -33.9392 -33.9347 -33.9087 -33.8905 -33.8720
   -33.8699 -33.8603 -33.8339 -33.8234 -33.8128 -33.7976 -33.7810 -33.7630
   -33.7529 -33.7392 -33.7248 -33.6921 -33.6843 -33.6817 -33.6711 -33.6563
   -33.6511 -33.6482 -33.6426 -33.6109 -33.5925 -33.5890 -33.5789 -33.5645
   -33.5618 -33.5556 -33.5418 -33.5402 -33.5369 -33.5229 -33.5187 -33.5049
   -33.5033 -33.4747 -33.4164 -33.3704 -33.3420 -33.3362 -33.2427 -32.8851
   -32.8828 -32.8813 -32.8685 -32.8675 -32.7956 -32.7316 -32.7306 -32.5955
   -18.3934 -18.0549 -17.8426 -17.7884 -17.7655 -17.6920 -17.6424 -17.6250
   -17.5559 -17.4938 -17.3696 -17.3307 -17.3258 -17.3125 -17.3045 -17.2409
   -17.2268 -17.2112 -17.2071 -17.1903 -17.1862 -17.1433 -17.0703 -17.0613
   -17.0202 -17.0060 -16.9854 -16.9828 -16.9351 -16.8823 -16.8728 -16.6782
   -16.6387 -16.4849 -15.0366 -14.9794 -14.9771  -7.7467  -7.7270  -7.5498
    -7.4863  -5.7172  -5.5341  -5.4697  -5.3752  -5.0029  -4.9452  -4.9309
    -4.9050  -4.8630  -4.8221  -4.8061  -4.7820  -4.7809  -4.7362  -4.6930
    -4.6681  -4.6487  -4.5489  -4.5119  -4.4739  -4.4437  -4.4374  -4.3862
    -4.3696  -4.3305  -4.3301  -4.2820  -4.2400  -4.2308  -4.2098  -4.1423
    -4.1210  -4.0188  -3.9303  -3.8741  -3.8670  -3.8262  -3.8129  -3.7666
    -3.7445  -3.7048  -3.6852  -3.6389  -3.6149  -3.5466  -3.4946  -3.3926
    -3.2982  -3.2715  -3.2449  -3.2226  -3.1780  -3.1250  -3.0055  -2.9646
    -2.9328  -2.9104  -2.8215  -2.8077  -2.7305  -2.7076  -2.7002  -2.6558
    -2.6011  -2.5904  -2.5562  -2.4394  -2.4187  -2.3191  -2.3168  -2.3149
    -2.2855  -2.2238  -2.2120  -2.1881  -2.1652  -2.1388  -2.1243  -2.0847
    -2.0823  -1.9834  -1.9615  -1.9056  -1.8830  -1.8817  -1.7837  -1.7667
    -1.7414  -1.7289  -1.6612  -1.5775  -1.4668  -1.4165  -1.3912  -1.3882
    -1.2890  -1.2607  -1.2179  -1.1370  -0.8015  -0.6047  -0.3177  -0.2734
    -0.2731  -0.0106  -0.0089   0.1197   1.4424   1.6576   1.6790   1.8710
     1.8933   1.9372   2.0239   2.0316   2.0937   2.1933   2.2089

[...]

          k = 0.0380-0.0280 0.0000 ( 26873 PWs)   bands (ev):

[...]

          k =-0.0760-0.0000 0.0000 ( 26902 PWs)   bands (ev):

[...]

          k =-0.0760-0.0559 0.0000 ( 26868 PWs)   bands (ev):

   -57.5977 -57.5515 -57.5461 -57.5222 -57.4982 -57.3963 -57.3912 -57.3752
   -57.3528 -57.3287 -57.3088 -57.2832 -57.2224 -57.1628 -57.0649 -56.5617
   -56.5606 -56.5357 -34.0302 -34.0182 -33.9218 -33.8965 -33.8868 -33.8818
   -33.8804 -33.8587 -33.8302 -33.8170 -33.7822 -33.7477 -33.7423 -33.7394
   -33.7285 -33.7005 -33.6969 -33.6922 -33.6868 -33.6838 -33.6463 -33.6402
   -33.6373 -33.6301 -33.6122 -33.6116 -33.6089 -33.6069 -33.6029 -33.5903
   -33.5829 -33.5748 -33.5733 -33.5644 -33.5435 -33.5317 -33.5271 -33.5195
   -33.5035 -33.4292 -33.4228 -33.3758 -33.3425 -33.3379 -33.2756 -32.9737
   -32.8842 -32.8832 -32.8594 -32.7747 -32.7737 -32.7095 -32.6930 -32.6917
   -18.0832 -18.0197 -17.7627 -17.7096 -17.6934 -17.6573 -17.6418 -17.5649
   -17.5446 -17.5279 -17.5078 -17.4461 -17.3894 -17.3407 -17.3390 -17.3323
   -17.2621 -17.2571 -17.2495 -17.2449 -17.1988 -17.1845 -17.1652 -17.1188
   -17.0411 -16.9713 -16.9583 -16.9517 -16.9127 -16.8977 -16.8471 -16.7120
   -16.7031 -16.4123 -15.0351 -15.0326 -14.9160  -7.7570  -7.7113  -7.5584
    -7.4844  -5.3400  -5.3099  -5.2802  -5.2159  -5.0253  -4.8645  -4.8347
    -4.8281  -4.7903  -4.7412  -4.7138  -4.7065  -4.6982  -4.6809  -4.6661
    -4.6185  -4.6141  -4.5882  -4.5157  -4.4745  -4.4698  -4.4508  -4.4367
    -4.4307  -4.3624  -4.2877  -4.2197  -4.1747  -4.1593  -4.1432  -4.0952
    -4.0584  -4.0289  -3.9864  -3.9761  -3.9079  -3.7901  -3.7158  -3.6758
    -3.6744  -3.6347  -3.5857  -3.5846  -3.4801  -3.4213  -3.3454  -3.2143
    -3.2093  -3.1968  -3.1721  -3.1579  -3.1147  -3.1080  -3.0837  -3.0325
    -3.0227  -3.0010  -2.9398  -2.8742  -2.7880  -2.7597  -2.7280  -2.7212
    -2.6925  -2.6855  -2.6578  -2.6532  -2.6207  -2.6117  -2.5571  -2.5303
    -2.4779  -2.4520  -2.4085  -2.3231  -2.3072  -2.2850  -2.1864  -2.1308
    -2.1118  -2.1092  -2.0799  -2.0308  -1.9360  -1.8416  -1.8065  -1.7623
    -1.6501  -1.6496  -1.6458  -1.6303  -1.5556  -1.5427  -1.3386  -1.3264
    -1.2667  -1.1919  -1.1526  -1.1166  -1.1142  -0.8969  -0.4864  -0.2030
    -0.1898  -0.1662  -0.0135  -0.0085   1.5886   1.6704   1.7053   1.7549
     1.7906   1.7939   1.8000   1.8636   1.9274   1.9372   2.1781

     the Fermi energy is     1.5266 ev

!    total energy              =   -3295.91281523 Ry
     estimated scf accuracy    <       0.00000006 Ry
     smearing contrib. (-TS)   =      -0.03397207 Ry
     internal energy E=F+TS    =   -3295.87884316 Ry

     The total energy is F=E-TS. E is the sum of the following terms:
     one-electron contribution =  -34424.90420514 Ry
     hartree contribution      =   17280.91011351 Ry
     xc contribution           =    -543.76372881 Ry
     ewald contribution        =   14391.87462306 Ry
     electric field correction =       0.00435423 Ry

     convergence has been achieved in  67 iterations

     Forces acting on atoms (cartesian axes, Ry/au):

     atom    1 type  1   force =     0.00001592    0.00450390    0.05618498
     atom    2 type  1   force =     0.00000129   -0.00095355   -0.00072169
     atom    3 type  1   force =    -0.00000808    0.00161496   -0.00032346
     atom    4 type  1   force =     0.00005820    0.00031029    0.10700335
     atom    5 type  1   force =     0.00000207    0.00080555    0.00981458
     atom    6 type  1   force =     0.00000561   -0.00253852    0.00109040
     atom    7 type  1   force =     0.06727749   -0.00022783   -0.02910285
     atom    8 type  1   force =     0.00475740   -0.02827862    0.00257852
     atom    9 type  1   force =     0.00726971   -0.00155554   -0.00303218
     atom   10 type  2   force =    -0.00005536   -0.00148745   -0.18424632
     atom   11 type  2   force =     0.00004079    0.02164887   -0.00782161
     atom   12 type  2   force =     0.00002669   -0.00273689    0.01243317
     atom   13 type  1   force =    -0.06737897   -0.00069078   -0.02906720
     atom   14 type  1   force =    -0.00478348   -0.02827974    0.00257846
     atom   15 type  1   force =    -0.00729044   -0.00155402   -0.00304621
     atom   16 type  2   force =     0.00009710    0.00012713    0.06632468
     atom   17 type  2   force =    -0.00001025    0.03587134    0.00363170
     atom   18 type  2   force =     0.00002340   -0.01058223   -0.00432994
     atom   19 type  1   force =     0.00001978    0.00443519    0.05991167
     atom   20 type  1   force =    -0.00000139    0.00082188   -0.00593207
     atom   21 type  1   force =     0.00005813    0.00019190    0.10723175
     atom   22 type  1   force =    -0.00000067   -0.00066880    0.00885657
     atom   23 type  1   force =    -0.00000590    0.00500504    0.00333637
     atom   24 type  1   force =     0.06803327    0.00051457   -0.02900133
     atom   25 type  1   force =     0.00342356   -0.02996683    0.00209156
     atom   26 type  1   force =     0.01001585    0.02024692    0.00208655
     atom   27 type  2   force =    -0.00005841    0.00003146   -0.18365367
     atom   28 type  2   force =     0.00003214    0.02159765   -0.00598981
     atom   29 type  2   force =     0.00000792   -0.02152346   -0.00589621
     atom   30 type  1   force =    -0.06813245    0.00006717   -0.02896904
     atom   31 type  1   force =    -0.00345499   -0.02995435    0.00209919
     atom   32 type  1   force =    -0.01004275    0.02025162    0.00208464
     atom   33 type  2   force =     0.00010442   -0.00025793    0.06932731
     atom   34 type  2   force =    -0.00001830    0.03686746    0.00369036
     atom   35 type  2   force =     0.00000460   -0.02923537    0.01051788
     atom   36 type  1   force =     0.00002611    0.00482148    0.05630920
     atom   37 type  1   force =    -0.00000990    0.00204195   -0.00519763
     atom   38 type  1   force =    -0.00000418    0.00419552   -0.00018211
     atom   39 type  1   force =     0.00005738    0.00002388    0.10683188
     atom   40 type  1   force =    -0.00000529   -0.00060884    0.00812746
     atom   41 type  1   force =     0.00000305    0.00070106    0.00250201
     atom   42 type  1   force =     0.06805284   -0.00121849   -0.02959835
     atom   43 type  1   force =     0.00353944   -0.02804987    0.00206121
     atom   44 type  1   force =     0.01054875    0.01132708    0.00278639
     atom   45 type  2   force =    -0.00005843   -0.00197519   -0.18353041
     atom   46 type  2   force =     0.00003553    0.01958172   -0.00657451
     atom   47 type  2   force =    -0.00000780   -0.01031494   -0.01257406
     atom   48 type  1   force =    -0.06814697   -0.00165943   -0.02956187
     atom   49 type  1   force =    -0.00355377   -0.02805096    0.00205763
     atom   50 type  1   force =    -0.01056819    0.01132998    0.00277387
     atom   51 type  2   force =     0.00009600   -0.00308900    0.06762276
     atom   52 type  2   force =    -0.00002387    0.03494382    0.00620914
     atom   53 type  2   force =     0.00000057    0.00509921    0.00135994
     atom   54 type  3   force =     0.00007703    0.00064596   -0.00255370
     atom   55 type  4   force =    -0.00000644   -0.00142348   -0.00035987
     atom   56 type  4   force =    -0.00129183    0.00056543    0.00024995
     atom   57 type  4   force =     0.00119326    0.00052521    0.00021277
     atom   58 type  3   force =     0.00010075   -0.00156581   -0.00734391
     atom   59 type  4   force =    -0.00000261   -0.00447498    0.00318580
     atom   60 type  4   force =    -0.00267517    0.00112404    0.00173049
     atom   61 type  4   force =     0.00258985    0.00108367    0.00171581

     Total force =     0.454889     Total SCF correction =     0.000518
  @ DRIVER MODE: Message from server: STATUS
  @ DRIVER MODE: Message from server: GETFORCE
  @ DRIVER MODE: Returning v,forces,stress,ensemble

     Writing output data file ./calc.save/
  @ DRIVER MODE: Message from server: EXIT
  @ DRIVE MODE: Exiting

     General routines

     Parallel routines

   This run was terminated on:   2: 2:33  19Oct2021

   JOB DONE.