     Program PWSCF v.6.7GPU starts on 16Sep2021 at  5:24:58

     R & G space division:  proc/nbgrp/npool/nimage =      10
     Reading input from /storage/home/hcoda1/3/ntian30/research/carbon/CxH_vib/H2O_calc/ads_slab/CH2OHH2O_a/out_0044/pw.inp
Warning: card &CELL ignored
Warning: card   CELL_DYNAMICS='IPI', ignored
Warning: card / ignored

     Current dimensions of program PWSCF are:
     Max number of different atomic species (ntypx) = 10
     Max number of k-points (npk) =  40000
     Max angular momentum in pseudopotentials (lmaxx) =  3
     Presently no symmetry can be used with electric field

     Message from routine cell_base_init:
     DEPRECATED: use true lattice parameter, not A to a.u. conversion factor

     IMPORTANT: XC functional enforced from input :
     Exchange-correlation= BEEF-VDW
                           (   1   4  43  14   2   0   0)
     Any further DFT definition will be discarded
     Please, verify this is what you really want

  @ DRIVER MODE: Connecting to
 qe_1139763_2852615.sched-torque.pace.gatech.edu93xesubg_scratch
  using UNIX socket
  @ DRIVER MODE: Message from server: STATUS
  @ DRIVER MODE: Message from server: INIT
  @ DRIVER MODE: Receiving replica           0          -1
  @ DRIVER MODE: Receiving encoded integer          25
  @ DRIVER MODE:  SCF:  T  FORCE:  T  STRESS:  F  VC:  F  ENSEMBLE:  F
  @ DRIVER MODE:  SCF:  T  FORCE:  T  STRESS:  F  VC:  F  ENSEMBLE:  F

     Using Slab Decomposition

     bravais-lattice index     =            0
     lattice parameter (alat)  =       1.8897  a.u.
     unit-cell volume          =    6658.9804 (a.u.)^3
     number of atoms/cell      =           55
     number of atomic types    =            4
     number of electrons       =       399.00
     number of Kohn-Sham states=          209
     kinetic-energy cutoff     =      29.3995  Ry
     charge density cutoff     =     293.9946  Ry
     scf convergence threshold =      7.3E-08
     mixing beta               =       0.0500
     number of iterations used =            8  plain     mixing
     Exchange-correlation= BEEF-VDW
                           (   1   4  43  14   2   0   0)

     celldm(1)=   1.889726  celldm(2)=   0.000000  celldm(3)=   0.000000
     celldm(4)=   0.000000  celldm(5)=   0.000000  celldm(6)=   0.000000

     crystal axes: (cart. coord. in units of alat)
               a(1) = (   6.579727   0.000000   0.000000 )
               a(2) = (  -0.000775   5.961596   0.000000 )
               a(3) = (   0.000000   0.000000  25.155947 )

     reciprocal axes: (cart. coord. in units 2 pi/alat)
               b(1) = (  0.151982  0.000020  0.000000 )
               b(2) = (  0.000000  0.167740  0.000000 )
               b(3) = (  0.000000  0.000000  0.039752 )

     PseudoPot. # 1 for Ti read from file:
     /storage/coda1/p-amedford6/0/shared/rich_project_chbe-medford/medford-share/data/pseudos_module/espresso/nninc/pbe/van/Ti.UPF
     MD5 check sum: 8e4df49b7f0d34bbd5052bf3f5ea0213
     Pseudo is Ultrasoft, Zval = 12.0
     Generated by new atomic code, or converted to UPF format
     Using radial grid of  851 points,  6 beta functions with:
                l(1) =   0
                l(2) =   0
                l(3) =   1
                l(4) =   1
                l(5) =   2
                l(6) =   2
     Q(r) pseudized with  8 coefficients,  rinner =    1.000   1.000   1.000
                                                       1.000   1.000

     PseudoPot. # 2 for O  read from file:
     /storage/coda1/p-amedford6/0/shared/rich_project_chbe-medford/medford-share/data/pseudos_module/espresso/nninc/pbe/van/O.UPF
     MD5 check sum: 78c19812648e8988a0fe644b0f25305e
     Pseudo is Ultrasoft, Zval =  6.0
     Generated by new atomic code, or converted to UPF format
     Using radial grid of  737 points,  4 beta functions with:
                l(1) =   0
                l(2) =   0
                l(3) =   1
                l(4) =   1
     Q(r) pseudized with  8 coefficients,  rinner =    0.800   0.800   0.800

     PseudoPot. # 3 for C  read from file:
     /storage/coda1/p-amedford6/0/shared/rich_project_chbe-medford/medford-share/data/pseudos_module/espresso/nninc/pbe/van/C.UPF
     MD5 check sum: 1a69bf6b8db32088f5b2163dbdb77a27
     Pseudo is Ultrasoft, Zval =  4.0
     Generated by new atomic code, or converted to UPF format
     Using radial grid of  721 points,  4 beta functions with:
                l(1) =   0
                l(2) =   0
                l(3) =   1
                l(4) =   1
     Q(r) pseudized with  8 coefficients,  rinner =    0.800   0.800   0.800

     PseudoPot. # 4 for H  read from file:
     /storage/coda1/p-amedford6/0/shared/rich_project_chbe-medford/medford-share/data/pseudos_module/espresso/nninc/pbe/van/H.UPF
     MD5 check sum: b5ee9d7bfd3a09ee7748110bda690ff7
     Pseudo is Ultrasoft, Zval =  1.0
     Generated by new atomic code, or converted to UPF format
     Using radial grid of  615 points,  1 beta functions with:
                l(1) =   0
     Q(r) pseudized with  8 coefficients,  rinner =    0.800

     atomic species   valence    mass     pseudopotential
        Ti1           12.00    47.86700     Ti( 1.00)
        O1             6.00    15.99900     O ( 1.00)
        C1             4.00    12.01100     C ( 1.00)
        H1             1.00     1.00800     H ( 1.00)

     No symmetry found

   Cartesian axes

     site n.     atom                  positions (alat units)
         1           Ti1 tau(   1) = (   0.0004258   2.9801865   6.0000000  )
         2           Ti1 tau(   2) = (   3.2906075   1.4906267   6.0002472  )
         3           O1  tau(   3) = (   0.0006271   0.0005054   7.9858123  )
         4           O1  tau(   4) = (   3.2906025   0.0005020   7.3038282  )
         5           O1  tau(   5) = (   4.5942328   1.4918067   9.2879030  )
         6           O1  tau(   6) = (   1.9868534   1.4903216   9.2879459  )
         7           Ti1 tau(   7) = (   3.2434587   3.0186650   9.1693953  )
         8           Ti1 tau(   8) = (   6.5248695   1.5265067   9.2859949  )
         9           O1  tau(   9) = (   3.3238096   0.0077392  11.3399147  )
        10           O1  tau(  10) = (   0.0083103   0.0007143  10.5763085  )
        11           O1  tau(  11) = (   1.3076427   1.5153157  12.5877682  )
        12           O1  tau(  12) = (   5.3324098   1.4751673  12.6362968  )
        13           Ti1 tau(  13) = (   0.0822926   2.9518924  12.6100891  )
        14           Ti1 tau(  14) = (   3.3652580   1.6116561  12.6031695  )
        15           O1  tau(  15) = (   0.1623142   0.0003102  14.6136642  )
        16           O1  tau(  16) = (   3.2083997   0.0016335  13.9229753  )
        17           O1  tau(  17) = (   4.6427586   1.3635169  15.8692112  )
        18           O1  tau(  18) = (   2.0707938   1.5934636  16.1317492  )
        19           Ti1 tau(  19) = (   3.4055461   2.9583945  15.9219660  )
        20           Ti1 tau(  20) = (   0.0529163   1.3399360  15.9091509  )
        21           O1  tau(  21) = (   3.2904802   0.0005063   4.7018136  )
        22           O1  tau(  22) = (   0.1143047   5.9459637  17.1421970  )
        23           O1  tau(  23) = (   1.3043587   1.4918075   6.0039043  )
        24           O1  tau(  24) = (   5.2767064   1.4903225   6.0039473  )
        25           Ti1 tau(  25) = (   0.0000382   5.9609847   6.0000000  )
        26           Ti1 tau(  26) = (   3.2902200   4.4714249   6.0002472  )
        27           O1  tau(  27) = (   0.0002396   2.9813036   7.9858123  )
        28           O1  tau(  28) = (   3.2902150   2.9813002   7.3038282  )
        29           O1  tau(  29) = (   4.5938453   4.4726049   9.2879030  )
        30           O1  tau(  30) = (   1.9864658   4.4711199   9.2879459  )
        31           Ti1 tau(  31) = (   3.2519499   0.0415563   9.1803751  )
        32           Ti1 tau(  32) = (   6.5223785   4.4699269   9.2708698  )
        33           O1  tau(  33) = (   3.3249262   3.0006027  11.3427062  )
        34           O1  tau(  34) = (   6.5728067   2.9803724  10.5910131  )
        35           O1  tau(  35) = (   1.3048910   4.4590737  12.5876729  )
        36           O1  tau(  36) = (   5.3248012   4.5079456  12.6396186  )
        37           Ti1 tau(  37) = (   0.0305998   5.9348532  12.4502240  )
        38           Ti1 tau(  38) = (   3.3518916   4.5407868  12.4757475  )
        39           O1  tau(  39) = (   0.0741357   2.9755951  14.7167286  )
        40           O1  tau(  40) = (   3.3703583   2.9475192  13.9294239  )
        41           O1  tau(  41) = (   4.6408928   4.5782690  15.8216857  )
        42           O1  tau(  42) = (   2.0743197   4.3710070  16.0958311  )
        43           Ti1 tau(  43) = (   3.3271525   5.9323444  15.7323421  )
        44           Ti1 tau(  44) = (   0.0603002   4.5335970  15.7939964  )
        45           O1  tau(  45) = (   3.2900926   2.9813045   4.7018136  )
        46           O1  tau(  46) = (   1.3039711   4.4726057   6.0039043  )
        47           O1  tau(  47) = (   5.2763189   4.4711207   6.0039473  )
        48           C1  tau(  48) = (   4.5917920   3.0228413  17.9030398  )
        49           O1  tau(  49) = (   6.0625861   3.0006587  17.4562122  )
        50           H1  tau(  50) = (   0.0503952   3.1075262  18.2373115  )
        51           H1  tau(  51) = (   4.5265887   2.1706275  18.5876854  )
        52           H1  tau(  52) = (   4.4781653   3.9549082  18.4551422  )
        53           O1  tau(  53) = (   2.8659371   5.8926936  18.2031264  )
        54           H1  tau(  54) = (   3.0528466   0.8172038  18.5446680  )
        55           H1  tau(  55) = (   1.9059954   5.8777970  18.0521013  )

     number of k points=    10  Fermi-Dirac smearing, width (Ry)=  0.0073
                       cart. coord. in units 2pi/alat
        k(    1) = (   0.0000000   0.0000000   0.0000000), wk =   0.1250000
        k(    2) = (   0.0000000   0.0419351   0.0000000), wk =   0.2500000
        k(    3) = (   0.0000000  -0.0838702   0.0000000), wk =   0.1250000
        k(    4) = (   0.0379955   0.0000049   0.0000000), wk =   0.2500000
        k(    5) = (   0.0379955   0.0419400   0.0000000), wk =   0.2500000
        k(    6) = (   0.0379955  -0.0838652   0.0000000), wk =   0.2500000
        k(    7) = (   0.0379955  -0.0419301   0.0000000), wk =   0.2500000
        k(    8) = (  -0.0759910  -0.0000099   0.0000000), wk =   0.1250000
        k(    9) = (  -0.0759910   0.0419252   0.0000000), wk =   0.2500000
        k(   10) = (  -0.0759910  -0.0838800   0.0000000), wk =   0.1250000

     Initial potential from superposition of free atoms

     starting charge  382.99916, renormalised to  399.00000

     negative rho (up, down):  1.858E-02 0.000E+00

     %%%%%%%%%%%%%%%%%%%%%%%%%%%%%%%%%%%%%%%%%%%%%%%%%%%%%%%%%%%%%%%%%%%%%%%%
     %                                                                      %
     % You are using vdW-DF, which was implemented by the Thonhauser group. %
     % Please cite the following two papers that made this development      %
     % possible and the two reviews that describe the various versions:     %
     %                                                                      %
     %   T. Thonhauser et al., PRL 115, 136402 (2015).                      %
     %   T. Thonhauser et al., PRB 76, 125112 (2007).                       %
     %   K. Berland et al., Rep. Prog. Phys. 78, 066501 (2015).             %
     %   D.C. Langreth et al., J. Phys.: Condens. Matter 21, 084203 (2009). %
     %                                                                      %
     %                                                                      %
     % If you are calculating the stress with vdW-DF, please also cite:     %
     %                                                                      %
     %   R. Sabatini et al., J. Phys.: Condens. Matter 24, 424209 (2012).   %
     %                                                                      %
     %%%%%%%%%%%%%%%%%%%%%%%%%%%%%%%%%%%%%%%%%%%%%%%%%%%%%%%%%%%%%%%%%%%%%%%%

     Adding external electric field

     Computed dipole along edir(3) :
        Dipole               -9.7304 Ry au,        -24.7321 Debye
        Dipole field         -0.0184 Ry au,

        Potential amp.        1.7022 Ry
        Total length         46.3494 bohr

     Starting wfcs are  301 atomic wfcs
  @ DRIVER MODE: Message from server: STATUS
  @ DRIVER MODE: Message from server: POSDATA
  @ DRIVER MODE: Reading and sharing cell
  @ DRIVER MODE: Reading and sharing positions
  @ DRIVER MODE: Received positions

     Self-consistent Calculation

     iteration #  1     ecut=    29.40 Ry     beta= 0.05
     Davidson diagonalization with overlap
     c_bands:  1 eigenvalues not converged
     c_bands:  2 eigenvalues not converged
     c_bands:  3 eigenvalues not converged
     c_bands:  5 eigenvalues not converged
     c_bands:  3 eigenvalues not converged
     c_bands:  2 eigenvalues not converged
     c_bands:  3 eigenvalues not converged
     c_bands:  2 eigenvalues not converged
     ethr =  1.00E-05,  avg # of iterations = 19.8

[...]

     total energy              =   -2478.49562709 Ry
     estimated scf accuracy    <    5415.90265717 Ry

     iteration #  2     ecut=    29.40 Ry     beta= 0.05
     Davidson diagonalization with overlap
     ethr =  1.00E-02,  avg # of iterations = 24.2

[...]

     iteration # 62     ecut=    29.40 Ry     beta= 0.05
     Davidson diagonalization with overlap
     c_bands:  2 eigenvalues not converged
     c_bands:  1 eigenvalues not converged
     ethr =  1.94E-09,  avg # of iterations = 15.2

[...]

     total energy              =   -2966.15805600 Ry
     estimated scf accuracy    <       0.00000013 Ry

     iteration # 71     ecut=    29.40 Ry     beta= 0.05
     Davidson diagonalization with overlap
     ethr =  3.32E-11,  avg # of iterations =  8.9

     negative rho (up, down):  1.797E-02 0.000E+00

     Adding external electric field

     Computed dipole along edir(3) :
        Dipole                1.0060 Ry au,          2.5569 Debye
        Dipole field          0.0019 Ry au,

        Potential amp.       -0.1760 Ry
        Total length         46.3494 bohr

     End of self-consistent calculation

          k = 0.0000 0.0000 0.0000 ( 18029 PWs)   bands (ev):

   -55.6877 -55.6512 -55.5795 -55.5719 -55.5150 -55.5130 -55.5076 -55.5047
   -55.4765 -55.4592 -55.4524 -55.4412 -55.4256 -55.3373 -54.6570 -54.6229
   -32.1770 -32.1637 -32.0537 -32.0242 -32.0015 -31.9749 -31.9547 -31.9423
   -31.9288 -31.8686 -31.8420 -31.8357 -31.8321 -31.8229 -31.7947 -31.7857
   -31.7820 -31.7628 -31.7582 -31.7467 -31.7356 -31.7299 -31.6967 -31.6911
   -31.6887 -31.6820 -31.6768 -31.6688 -31.6637 -31.6586 -31.6510 -31.6345
   -31.6303 -31.6270 -31.6225 -31.6199 -31.6118 -31.6105 -31.5852 -31.5623
   -31.5517 -31.4242 -31.0639 -30.9755 -30.9530 -30.8808 -30.7944 -30.6831
   -19.3890 -18.8096 -16.3732 -16.1763 -15.9718 -15.8581 -15.8382 -15.6570
   -15.5332 -15.3867 -15.3334 -15.3064 -15.2850 -15.2156 -15.2086 -15.1934
   -15.1585 -15.1546 -15.1173 -15.0973 -15.0912 -15.0638 -15.0122 -14.9905
   -14.9418 -14.8805 -14.8120 -14.7922 -14.7833 -14.7077 -14.6123 -13.1576
   -13.0410  -9.4340  -6.5602  -6.2836  -4.0771  -3.8411  -3.6854  -3.6433
    -3.6101  -3.5738  -3.4140  -3.3032  -3.1251  -3.0240  -2.9517  -2.9026
    -2.8648  -2.7881  -2.7462  -2.6213  -2.5976  -2.5485  -2.5156  -2.4801
    -2.4731  -2.4519  -2.4057  -2.3888  -2.3730  -2.2156  -2.2060  -2.1706
    -2.1071  -2.0756  -2.0486  -2.0115  -1.9894  -1.9629  -1.9442  -1.8979
    -1.8795  -1.8092  -1.8001  -1.7574  -1.6891  -1.6565  -1.3934  -1.3194
    -1.2935  -1.2582  -1.1925  -1.0949  -1.0910  -1.0845  -1.0840  -1.0271
    -1.0096  -0.8617  -0.8474  -0.8325  -0.7522  -0.6730  -0.5933  -0.5570
    -0.4944  -0.4428  -0.4100  -0.3824  -0.3562  -0.3023  -0.2323  -0.2092
    -0.1406  -0.0649  -0.0317   0.0210   0.0468   0.0915   0.1224   0.1981
     0.2372   0.2714   0.2992   0.3172   0.3274   0.3701   0.3904   0.4798
     0.5574   0.5858   0.5920   0.6661   0.7933   0.8754   0.9871   1.0786
     1.3010   1.3672   1.4184   1.5495   1.5578   1.9390   1.9895   3.4538
     3.5227   3.5822   3.5827   3.6175   3.6981   3.9011   3.9482   4.0063
     4.0393

[...]

          k = 0.0380-0.0419 0.0000 ( 17876 PWs)   bands (ev):

[...]

          k =-0.0760-0.0000 0.0000 ( 17886 PWs)   bands (ev):

[...]

          k =-0.0760-0.0839 0.0000 ( 17948 PWs)   bands (ev):

   -55.6759 -55.6627 -55.5742 -55.5672 -55.5186 -55.5125 -55.5098 -55.5013
   -55.4614 -55.4586 -55.4555 -55.4443 -55.4408 -55.3388 -54.6399 -54.6399
   -32.0960 -31.9851 -31.9743 -31.9724 -31.9502 -31.8998 -31.8734 -31.8516
   -31.8454 -31.8402 -31.8378 -31.8137 -31.8125 -31.7978 -31.7967 -31.7874
   -31.7868 -31.7782 -31.7765 -31.7733 -31.7705 -31.7607 -31.7394 -31.7343
   -31.7283 -31.7159 -31.7095 -31.7020 -31.7003 -31.6862 -31.6716 -31.6649
   -31.6634 -31.6608 -31.6589 -31.6526 -31.6510 -31.6491 -31.6474 -31.6445
   -31.6278 -31.4263 -30.9657 -30.9656 -30.8772 -30.8764 -30.8377 -30.8373
   -19.3824 -18.8086 -15.9909 -15.6527 -15.6391 -15.6340 -15.6034 -15.4821
   -15.4580 -15.4359 -15.3900 -15.3599 -15.3542 -15.3313 -15.2871 -15.2303
   -15.2109 -15.2032 -15.1935 -15.1414 -15.1267 -15.1158 -15.0702 -15.0295
   -15.0271 -15.0031 -14.9771 -14.9717 -14.9715 -14.9439 -14.8718 -13.1444
   -13.1412  -9.4401  -6.5590  -6.2655  -4.0333  -3.7294  -3.1601  -3.0478
    -2.8697  -2.8510  -2.7977  -2.7747  -2.7213  -2.6530  -2.6245  -2.6131
    -2.6109  -2.5771  -2.5148  -2.4803  -2.4767  -2.4378  -2.4190  -2.4113
    -2.3909  -2.3660  -2.3410  -2.3225  -2.3158  -2.2803  -2.2690  -2.2537
    -2.2474  -2.2353  -2.2172  -2.1768  -2.0680  -1.9482  -1.9135  -1.8775
    -1.8378  -1.7787  -1.7721  -1.7586  -1.7239  -1.7231  -1.7076  -1.6289
    -1.4668  -1.4060  -1.3412  -1.3195  -1.2444  -1.2331  -1.2181  -1.1762
    -1.1338  -1.0865  -1.0425  -1.0196  -0.9639  -0.9190  -0.7909  -0.7366
    -0.6521  -0.6469  -0.6242  -0.6092  -0.5552  -0.5305  -0.5073  -0.4617
    -0.4271  -0.3851  -0.3510  -0.3423  -0.3196  -0.2585  -0.1583  -0.1094
    -0.0477  -0.0410   0.0429   0.1712   0.3565   0.3869   0.4450   0.4964
     0.5860   0.6080   0.6569   0.6768   0.7346   0.7609   0.8027   0.8628
     0.9236   0.9517   1.5138   1.7306   1.7370   1.8002   1.8096   3.7451
     3.8325   3.9253   3.9392   3.9735   3.9858   3.9915   4.0208   4.0779
     4.1156

     the Fermi energy is     3.4512 ev

!    total energy              =   -2966.15807449 Ry
     estimated scf accuracy    <       0.00000006 Ry
     smearing contrib. (-TS)   =      -0.02139927 Ry
     internal energy E=F+TS    =   -2966.13667523 Ry

     The total energy is F=E-TS. E is the sum of the following terms:
     one-electron contribution =  -24755.74173674 Ry
     hartree contribution      =   12470.39413754 Ry
     xc contribution           =    -490.96766529 Ry
     ewald contribution        =    9810.17667952 Ry
     electric field correction =       0.00190974 Ry

     convergence has been achieved in  71 iterations

     Forces acting on atoms (cartesian axes, Ry/au):

     atom    1 type  1   force =     0.00075452   -0.00018228    0.09538302
     atom    2 type  1   force =     0.00024741   -0.00219949   -0.17569451
     atom    3 type  2   force =    -0.00066071   -0.00041054   -0.03009223
     atom    4 type  2   force =    -0.00084993    0.00063617    0.05233294
     atom    5 type  2   force =    -0.01385716   -0.00099734    0.00145162
     atom    6 type  2   force =     0.01581175    0.00241183    0.00317676
     atom    7 type  1   force =     0.00033833    0.00039246   -0.00032329
     atom    8 type  1   force =    -0.00036732    0.00140470    0.00062730
     atom    9 type  2   force =     0.00011399   -0.00002096    0.00025495
     atom   10 type  2   force =     0.00017503    0.00017007   -0.00057117
     atom   11 type  2   force =    -0.00022147    0.00025264    0.00018091
     atom   12 type  2   force =    -0.00038810    0.00009319    0.00007357
     atom   13 type  1   force =     0.00022386   -0.00018111   -0.00061543
     atom   14 type  1   force =    -0.00101087    0.00002642    0.00025238
     atom   15 type  2   force =     0.00007022   -0.00112064   -0.00018567
     atom   16 type  2   force =    -0.00000084   -0.00006513   -0.00012441
     atom   17 type  2   force =    -0.00047091   -0.00030458   -0.00012649
     atom   18 type  2   force =     0.00046879   -0.00038242    0.00020765
     atom   19 type  1   force =     0.00011314    0.00030891    0.00006708
     atom   20 type  1   force =     0.00022822    0.00051285    0.00057987
     atom   21 type  2   force =     0.00014724    0.00019927    0.10305635
     atom   22 type  2   force =    -0.00019730   -0.00102128   -0.00038122
     atom   23 type  2   force =    -0.07126826    0.00094259   -0.02827666
     atom   24 type  2   force =     0.07132249    0.00133662   -0.02831357
     atom   25 type  1   force =     0.00022101    0.00038374    0.10645000
     atom   26 type  1   force =     0.00000156    0.00252964   -0.17558286
     atom   27 type  2   force =    -0.00037795    0.00013346   -0.02787353
     atom   28 type  2   force =    -0.00096133    0.00076155    0.05163834
     atom   29 type  2   force =    -0.01300828   -0.00123329    0.00105841
     atom   30 type  2   force =     0.01545601    0.00037168    0.00294142
     atom   31 type  1   force =     0.00051830    0.00002783   -0.00007233
     atom   32 type  1   force =    -0.00041662   -0.00140723    0.00015013
     atom   33 type  2   force =    -0.00016506   -0.00031613    0.00021842
     atom   34 type  2   force =     0.00000544    0.00010804   -0.00013811
     atom   35 type  2   force =    -0.00061347   -0.00019915    0.00065623
     atom   36 type  2   force =     0.00002453   -0.00037253    0.00023279
     atom   37 type  1   force =     0.00059721    0.00026906    0.00052304
     atom   38 type  1   force =    -0.00091835    0.00012929    0.00042724
     atom   39 type  2   force =    -0.00016944    0.00066376    0.00020142
     atom   40 type  2   force =    -0.00003481   -0.00051615   -0.00064781
     atom   41 type  2   force =     0.00109660   -0.00007124   -0.00005616
     atom   42 type  2   force =    -0.00081055   -0.00009757    0.00027190
     atom   43 type  1   force =     0.00034643   -0.00098723   -0.00044219
     atom   44 type  1   force =    -0.00035474    0.00058859    0.00004232
     atom   45 type  2   force =     0.00012367    0.00015592    0.10332588
     atom   46 type  2   force =    -0.07119345   -0.00125908   -0.02827115
     atom   47 type  2   force =     0.07126332   -0.00086355   -0.02831106
     atom   48 type  3   force =    -0.00074067   -0.00008918   -0.00009429
     atom   49 type  2   force =     0.00044314   -0.00007667   -0.00005610
     atom   50 type  4   force =    -0.00000870   -0.00039324   -0.00017498
     atom   51 type  4   force =    -0.00067463   -0.00014931    0.00017138
     atom   52 type  4   force =    -0.00034232   -0.00001624   -0.00034881
     atom   53 type  2   force =     0.01851653    0.00052335    0.00363957
     atom   54 type  4   force =     0.00009411    0.00019113    0.00001298
     atom   55 type  4   force =    -0.01863960   -0.00059121   -0.00283183

     Total force =     0.368323     Total SCF correction =     0.001147
  @ DRIVER MODE: Message from server: STATUS
  @ DRIVER MODE: Message from server: GETFORCE
  @ DRIVER MODE: Returning v,forces,stress,ensemble

     Writing output data file ./calc.save/
  @ DRIVER MODE: Message from server: EXIT
  @ DRIVE MODE: Exiting

     General routines

     Parallel routines

   This run was terminated on:   5:44:40  16Sep2021

   JOB DONE.