     Program PWSCF v.6.7GPU starts on 19Oct2021 at  3:13:49

     R & G space division:  proc/nbgrp/npool/nimage =       8
     Reading input from /storage/home/hcoda1/3/ntian30/research/carbon/CxH_vib/Thiel_calc/ads_slab/NH2HNH_perslab/out_0033/pw.inp
Warning: card &CELL ignored
Warning: card   CELL_DYNAMICS='IPI', ignored
Warning: card / ignored

     Current dimensions of program PWSCF are:
     Max number of different atomic species (ntypx) = 10
     Max number of k-points (npk) =  40000
     Max angular momentum in pseudopotentials (lmaxx) =  3
     Presently no symmetry can be used with electric field

     Message from routine cell_base_init:
     DEPRECATED: use true lattice parameter, not A to a.u. conversion factor

     IMPORTANT: XC functional enforced from input :
     Exchange-correlation= BEEF-VDW
                           (   1   4  43  14   2   0   0)
     Any further DFT definition will be discarded
     Please, verify this is what you really want

  @ DRIVER MODE: Connecting to
 qe_1139763_3255135.sched-torque.pace.gatech.edu80_s8k5j_scratch
  using UNIX socket
  @ DRIVER MODE: Message from server: STATUS
  @ DRIVER MODE: Message from server: INIT
  @ DRIVER MODE: Receiving replica           0          -1
  @ DRIVER MODE: Receiving encoded integer          25
  @ DRIVER MODE:  SCF:  T  FORCE:  T  STRESS:  F  VC:  F  ENSEMBLE:  F
  @ DRIVER MODE:  SCF:  T  FORCE:  T  STRESS:  F  VC:  F  ENSEMBLE:  F

     Using Slab Decomposition

     bravais-lattice index     =            0
     lattice parameter (alat)  =       1.8897  a.u.
     unit-cell volume          =    9988.4706 (a.u.)^3
     number of atoms/cell      =           59
     number of atomic types    =            4
     number of electrons       =       440.00
     number of Kohn-Sham states=          230
     kinetic-energy cutoff     =      29.3995  Ry
     charge density cutoff     =     293.9946  Ry
     scf convergence threshold =      7.3E-08
     mixing beta               =       0.0500
     number of iterations used =            8  plain     mixing
     Exchange-correlation= BEEF-VDW
                           (   1   4  43  14   2   0   0)

     celldm(1)=   1.889726  celldm(2)=   0.000000  celldm(3)=   0.000000
     celldm(4)=   0.000000  celldm(5)=   0.000000  celldm(6)=   0.000000

     crystal axes: (cart. coord. in units of alat)
               a(1) = (   6.579727   0.000000   0.000000 )
               a(2) = (  -0.001163   8.942395   0.000000 )
               a(3) = (   0.000000   0.000000  25.155947 )

     reciprocal axes: (cart. coord. in units 2 pi/alat)
               b(1) = (  0.151982  0.000020  0.000000 )
               b(2) = (  0.000000  0.111827  0.000000 )
               b(3) = (  0.000000  0.000000  0.039752 )

     PseudoPot. # 1 for O  read from file:
     /storage/coda1/p-amedford6/0/shared/rich_project_chbe-medford/medford-share/data/pseudos_module/espresso/nninc/pbe/van/O.UPF
     MD5 check sum: 78c19812648e8988a0fe644b0f25305e
     Pseudo is Ultrasoft, Zval =  6.0
     Generated by new atomic code, or converted to UPF format
     Using radial grid of  737 points,  4 beta functions with:
                l(1) =   0
                l(2) =   0
                l(3) =   1
                l(4) =   1
     Q(r) pseudized with  8 coefficients,  rinner =    0.800   0.800   0.800

     PseudoPot. # 2 for Ti read from file:
     /storage/coda1/p-amedford6/0/shared/rich_project_chbe-medford/medford-share/data/pseudos_module/espresso/nninc/pbe/van/Ti.UPF
     MD5 check sum: 8e4df49b7f0d34bbd5052bf3f5ea0213
     Pseudo is Ultrasoft, Zval = 12.0
     Generated by new atomic code, or converted to UPF format
     Using radial grid of  851 points,  6 beta functions with:
                l(1) =   0
                l(2) =   0
                l(3) =   1
                l(4) =   1
                l(5) =   2
                l(6) =   2
     Q(r) pseudized with  8 coefficients,  rinner =    1.000   1.000   1.000
                                                       1.000   1.000

     PseudoPot. # 3 for H  read from file:
     /storage/coda1/p-amedford6/0/shared/rich_project_chbe-medford/medford-share/data/pseudos_module/espresso/nninc/pbe/van/H.UPF
     MD5 check sum: b5ee9d7bfd3a09ee7748110bda690ff7
     Pseudo is Ultrasoft, Zval =  1.0
     Generated by new atomic code, or converted to UPF format
     Using radial grid of  615 points,  1 beta functions with:
                l(1) =   0
     Q(r) pseudized with  8 coefficients,  rinner =    0.800

     PseudoPot. # 4 for N  read from file:
     /storage/coda1/p-amedford6/0/shared/rich_project_chbe-medford/medford-share/data/pseudos_module/espresso/nninc/pbe/van/N.UPF
     MD5 check sum: 90d10febe142ad51ac9d5be1deb811c4
     Pseudo is Ultrasoft, Zval =  5.0
     Generated by new atomic code, or converted to UPF format
     Using radial grid of  729 points,  4 beta functions with:
                l(1) =   0
                l(2) =   0
                l(3) =   1
                l(4) =   1
     Q(r) pseudized with  8 coefficients,  rinner =    0.800   0.800   0.800

     atomic species   valence    mass     pseudopotential
        O1             6.00    15.99900     O ( 1.00)
        Ti1           12.00    47.86700     Ti( 1.00)
        H1             1.00     1.00800     H ( 1.00)
        N1             5.00    14.00700     N ( 1.00)

     No symmetry found

   Cartesian axes

     site n.     atom                  positions (alat units)
         1           O1  tau(   1) = (   0.0007354   0.0005023  10.5931620  )
         2           O1  tau(   2) = (   3.2891522   8.9193323  13.7813865  )
         3           O1  tau(   3) = (  -0.0003195   8.9357148  17.1597790  )
         4           O1  tau(   4) = (   0.0006271   0.0005054   7.9858123  )
         5           O1  tau(   5) = (   3.2896276   8.9330874  11.1456747  )
         6           O1  tau(   6) = (   0.0000757   8.8957392  14.5326415  )
         7           O1  tau(   7) = (   1.9868534   1.4903216   9.2879459  )
         8           O1  tau(   8) = (   5.2085136   1.5567490  12.5272226  )
         9           O1  tau(   9) = (   2.0368910   1.4086519  15.9478609  )
        10           Ti1 tau(  10) = (   0.0007404   1.4906270   9.2895810  )
        11           Ti1 tau(  11) = (   3.2920048   1.2896434  12.4335303  )
        12           Ti1 tau(  12) = (   0.0003947   1.7483972  15.9485354  )
        13           O1  tau(  13) = (   4.5942328   1.4918067   9.2879030  )
        14           O1  tau(  14) = (   1.3734151   1.5562871  12.5269411  )
        15           O1  tau(  15) = (   4.5446063   1.4075665  15.9467422  )
        16           Ti1 tau(  16) = (   3.2902859   2.9801868   9.2893338  )
        17           Ti1 tau(  17) = (   0.0022843   2.7629733  12.5422407  )
        18           Ti1 tau(  18) = (   3.2887740   3.1097933  15.6402895  )
        19           O1  tau(  19) = (   0.0003479   2.9813005  10.5931620  )
        20           O1  tau(  20) = (   3.2903674   2.9527630  13.7969158  )
        21           O1  tau(  21) = (   0.0002396   2.9813036   7.9858123  )
        22           O1  tau(  22) = (   3.2906228   2.9775883  11.1663003  )
        23           O1  tau(  23) = (   0.0006598   2.9368866  14.5305733  )
        24           O1  tau(  24) = (   1.9864658   4.4711199   9.2879459  )
        25           O1  tau(  25) = (   5.2231876   4.5386380  12.5467233  )
        26           O1  tau(  26) = (   2.0248981   4.3679406  15.9930346  )
        27           Ti1 tau(  27) = (   0.0003529   4.4714252   9.2895810  )
        28           Ti1 tau(  28) = (   3.2918124   4.3135021  12.5344809  )
        29           Ti1 tau(  29) = (   6.5788423   4.6929592  16.0739603  )
        30           O1  tau(  30) = (   4.5938453   4.4726049   9.2879030  )
        31           O1  tau(  31) = (   1.3570704   4.5373869  12.5465102  )
        32           O1  tau(  32) = (   4.5538814   4.3671241  15.9936543  )
        33           Ti1 tau(  33) = (   3.2898983   5.9609850   9.2893338  )
        34           Ti1 tau(  34) = (   0.0013264   5.7428985  12.5110789  )
        35           Ti1 tau(  35) = (   3.2898306   6.0937744  16.2866611  )
        36           O1  tau(  36) = (  -0.0000397   5.9620987  10.5931620  )
        37           O1  tau(  37) = (   3.2897329   5.8964334  13.7986068  )
        38           O1  tau(  38) = (  -0.0007474   6.0119579  17.1634496  )
        39           O1  tau(  39) = (  -0.0001480   5.9621018   7.9858123  )
        40           O1  tau(  40) = (   3.2898370   5.9388437  11.1687384  )
        41           O1  tau(  41) = (  -0.0001539   5.9931028  14.5676369  )
        42           O1  tau(  42) = (   1.9860782   7.4519181   9.2879459  )
        43           O1  tau(  43) = (   5.2258842   7.5046952  12.5406166  )
        44           O1  tau(  44) = (   2.0242945   7.4351242  16.0034066  )
        45           Ti1 tau(  45) = (  -0.0000347   7.4522234   9.2895810  )
        46           Ti1 tau(  46) = (   3.2896699   7.1866417  12.6007890  )
        47           Ti1 tau(  47) = (   0.0000787   7.5542351  15.7482610  )
        48           O1  tau(  48) = (   4.5934577   7.4534031   9.2879030  )
        49           O1  tau(  49) = (   1.3527639   7.5038087  12.5404143  )
        50           O1  tau(  50) = (   4.5545665   7.4356877  16.0029592  )
        51           Ti1 tau(  51) = (   3.2895107   8.9417832   9.2893338  )
        52           Ti1 tau(  52) = (  -0.0005703   8.7121504  12.4856418  )
        53           Ti1 tau(  53) = (   3.2909615   0.1005107  15.6284087  )
        54           H1  tau(  54) = (   6.5785809   3.1351568  18.2688824  )
        55           H1  tau(  55) = (   6.5783155   8.7923607  18.1116139  )
        56           N1  tau(  56) = (  -0.0001347   2.9716693  17.2674093  )
        57           N1  tau(  57) = (   3.2897564   5.9921341  18.1800631  )
        58           H1  tau(  58) = (   3.2887465   5.1266479  18.7045293  )
        59           H1  tau(  59) = (   3.2892443   6.7758760  18.8071070  )

     number of k points=    10  Fermi-Dirac smearing, width (Ry)=  0.0073
                       cart. coord. in units 2pi/alat
        k(    1) = (   0.0000000   0.0000000   0.0000000), wk =   0.1250000
        k(    2) = (   0.0000000   0.0279567   0.0000000), wk =   0.2500000
        k(    3) = (   0.0000000  -0.0559134   0.0000000), wk =   0.1250000
        k(    4) = (   0.0379955   0.0000049   0.0000000), wk =   0.2500000
        k(    5) = (   0.0379955   0.0279617   0.0000000), wk =   0.2500000
        k(    6) = (   0.0379955  -0.0559085   0.0000000), wk =   0.2500000
        k(    7) = (   0.0379955  -0.0279518   0.0000000), wk =   0.2500000
        k(    8) = (  -0.0759910  -0.0000099   0.0000000), wk =   0.1250000
        k(    9) = (  -0.0759910   0.0279468   0.0000000), wk =   0.2500000
        k(   10) = (  -0.0759910  -0.0559233   0.0000000), wk =   0.1250000

     Initial potential from superposition of free atoms

     starting charge  421.99910, renormalised to  440.00000

     negative rho (up, down):  3.702E-02 0.000E+00

     %%%%%%%%%%%%%%%%%%%%%%%%%%%%%%%%%%%%%%%%%%%%%%%%%%%%%%%%%%%%%%%%%%%%%%%%
     %                                                                      %
     % You are using vdW-DF, which was implemented by the Thonhauser group. %
     % Please cite the following two papers that made this development      %
     % possible and the two reviews that describe the various versions:     %
     %                                                                      %
     %   T. Thonhauser et al., PRL 115, 136402 (2015).                      %
     %   T. Thonhauser et al., PRB 76, 125112 (2007).                       %
     %   K. Berland et al., Rep. Prog. Phys. 78, 066501 (2015).             %
     %   D.C. Langreth et al., J. Phys.: Condens. Matter 21, 084203 (2009). %
     %                                                                      %
     %                                                                      %
     % If you are calculating the stress with vdW-DF, please also cite:     %
     %                                                                      %
     %   R. Sabatini et al., J. Phys.: Condens. Matter 24, 424209 (2012).   %
     %                                                                      %
     %%%%%%%%%%%%%%%%%%%%%%%%%%%%%%%%%%%%%%%%%%%%%%%%%%%%%%%%%%%%%%%%%%%%%%%%

     Adding external electric field

     Computed dipole along edir(3) :
        Dipole               -3.9424 Ry au,        -10.0206 Debye
        Dipole field         -0.0050 Ry au,

        Potential amp.        0.4598 Ry
        Total length         46.3494 bohr

     Starting wfcs are  332 atomic wfcs
  @ DRIVER MODE: Message from server: STATUS
  @ DRIVER MODE: Message from server: POSDATA
  @ DRIVER MODE: Reading and sharing cell
  @ DRIVER MODE: Reading and sharing positions
  @ DRIVER MODE: Received positions

     Self-consistent Calculation

     iteration #  1     ecut=    29.40 Ry     beta= 0.05
     Davidson diagonalization with overlap
     c_bands:  1 eigenvalues not converged
     c_bands:  2 eigenvalues not converged
     c_bands:  4 eigenvalues not converged
     c_bands:  3 eigenvalues not converged
     c_bands:  3 eigenvalues not converged
     c_bands:  4 eigenvalues not converged
     c_bands:  3 eigenvalues not converged
     c_bands:  2 eigenvalues not converged
     ethr =  1.00E-05,  avg # of iterations = 19.1

[...]

     total energy              =   -3294.67427673 Ry
     estimated scf accuracy    <      19.61853297 Ry

     iteration #  2     ecut=    29.40 Ry     beta= 0.05
     Davidson diagonalization with overlap
     ethr =  4.46E-03,  avg # of iterations =  1.0

[...]

     iteration # 41     ecut=    29.40 Ry     beta= 0.05
     Davidson diagonalization with overlap
     c_bands:  1 eigenvalues not converged
     ethr =  1.83E-07,  avg # of iterations =  7.2

[...]

     total energy              =   -3293.29226869 Ry
     estimated scf accuracy    <       0.00000008 Ry

     iteration # 69     ecut=    29.40 Ry     beta= 0.05
     Davidson diagonalization with overlap
     ethr =  1.88E-11,  avg # of iterations =  2.0

     negative rho (up, down):  3.603E-02 0.000E+00

     Adding external electric field

     Computed dipole along edir(3) :
        Dipole                1.2938 Ry au,          3.2884 Debye
        Dipole field          0.0016 Ry au,

        Potential amp.       -0.1509 Ry
        Total length         46.3494 bohr

     End of self-consistent calculation

          k = 0.0000 0.0000 0.0000 ( 26871 PWs)   bands (ev):

   -58.2973 -58.2734 -58.2696 -58.2101 -58.1616 -57.7939 -57.7732 -57.7572
   -57.6222 -57.5922 -57.5717 -57.5147 -57.4888 -56.8991 -56.8777 -56.8518
   -56.8420 -56.8368 -34.6884 -34.6613 -34.6312 -34.6194 -34.6139 -34.6088
   -34.5459 -34.4825 -34.4724 -34.4098 -34.4057 -34.4029 -34.3890 -34.3587
   -34.3339 -34.1959 -34.1500 -34.1451 -34.1248 -34.0964 -34.0831 -34.0785
   -34.0579 -34.0210 -34.0087 -33.9631 -33.9191 -33.8745 -33.8598 -33.8508
   -33.8358 -33.8273 -33.7804 -33.7574 -33.7497 -33.7434 -33.6968 -33.6923
   -33.6785 -33.3604 -33.2223 -33.2120 -33.2024 -33.1880 -33.1812 -33.1744
   -33.1629 -33.1173 -33.0854 -33.0792 -33.0266 -33.0254 -33.0085 -32.8854
   -18.9125 -18.8270 -18.3718 -18.2963 -18.1748 -18.1196 -18.1133 -18.0479
   -17.9451 -17.7240 -17.6836 -17.6749 -17.6467 -17.5390 -17.5309 -17.5274
   -17.4933 -17.4865 -17.4742 -17.3862 -17.3271 -17.3149 -17.3090 -17.3089
   -17.1999 -17.1755 -17.1236 -17.0573 -17.0454 -16.9496 -16.7649 -16.4314
   -15.3535 -15.3128 -15.3031 -15.1911 -13.6004  -6.9784  -6.6357  -6.1793
    -5.9856  -5.7756  -5.6371  -5.5224  -5.4694  -5.3771  -5.3110  -5.2861
    -5.2687  -5.2286  -5.1947  -5.1681  -5.0652  -5.0554  -4.9742  -4.9198
    -4.8742  -4.8281  -4.7858  -4.7393  -4.7369  -4.6977  -4.6286  -4.6180
    -4.5833  -4.5360  -4.5070  -4.4987  -4.4435  -4.4148  -4.3947  -4.2741
    -4.2597  -4.1921  -4.1812  -4.1737  -4.0681  -4.0614  -4.0180  -3.9948
    -3.9812  -3.9617  -3.9126  -3.8315  -3.8034  -3.6442  -3.6229  -3.6121
    -3.5216  -3.3812  -3.3677  -3.3235  -3.2039  -3.1366  -3.1127  -3.0771
    -3.0573  -3.0399  -3.0168  -3.0052  -2.9716  -2.8774  -2.8762  -2.8151
    -2.8128  -2.7980  -2.7762  -2.7707  -2.7313  -2.6587  -2.5995  -2.5867
    -2.5658  -2.5480  -2.4614  -2.4471  -2.3563  -2.3409  -2.2850  -2.2426
    -2.2365  -2.1710  -2.0962  -2.0885  -2.0245  -2.0000  -1.8260  -1.8011
    -1.7233  -1.7178  -1.6515  -1.6246  -1.6016  -1.5496  -1.4247  -1.3938
    -1.2981  -1.1862  -1.0224  -0.7824  -0.5928  -0.5703  -0.5612  -0.5290
    -0.4352  -0.3824  -0.3665  -0.2714   0.9810   1.1270   1.2800   1.3016
     1.4953   1.6049   1.6174   1.6727   1.7514   1.8515

[...]

          k = 0.0380-0.0280 0.0000 ( 26873 PWs)   bands (ev):

[...]

          k =-0.0760-0.0000 0.0000 ( 26902 PWs)   bands (ev):

[...]

          k =-0.0760-0.0559 0.0000 ( 26868 PWs)   bands (ev):

   -58.2906 -58.2866 -58.2629 -58.2099 -58.1617 -57.7938 -57.7728 -57.7576
   -57.6205 -57.5956 -57.5699 -57.5146 -57.4889 -56.8991 -56.8748 -56.8577
   -56.8420 -56.8338 -34.7137 -34.7099 -34.6636 -34.6390 -34.6061 -34.4978
   -34.4831 -34.4490 -34.4459 -34.4333 -34.4268 -34.4069 -34.3849 -34.3815
   -34.3607 -34.2313 -34.1727 -34.1676 -34.1393 -34.1217 -34.0789 -34.0025
   -33.9989 -33.9986 -33.9645 -33.9277 -33.9208 -33.9067 -33.8988 -33.8760
   -33.8657 -33.8502 -33.7754 -33.7668 -33.7395 -33.7148 -33.7129 -33.6948
   -33.6905 -33.3361 -33.2640 -33.2233 -33.2182 -33.2080 -33.1849 -33.1765
   -33.1242 -33.0802 -33.0723 -33.0534 -33.0304 -32.9964 -32.9899 -32.9729
   -18.8908 -18.6220 -18.4746 -18.2386 -18.1384 -17.9746 -17.8918 -17.8790
   -17.8611 -17.8601 -17.7610 -17.7501 -17.6991 -17.6740 -17.6312 -17.6216
   -17.6094 -17.5723 -17.5662 -17.4527 -17.3623 -17.3529 -17.2578 -17.2427
   -17.2156 -17.1541 -17.1356 -17.0463 -17.0270 -16.9542 -16.7728 -16.4162
   -15.3645 -15.3528 -15.2423 -15.1918 -13.5974  -6.9505  -6.6367  -5.9499
    -5.7552  -5.7208  -5.6702  -5.3498  -5.3123  -5.2275  -5.2022  -5.1633
    -5.1378  -5.1239  -5.0938  -5.0825  -5.0073  -4.9704  -4.9613  -4.9576
    -4.9146  -4.8956  -4.8472  -4.8258  -4.7762  -4.7554  -4.7473  -4.7131
    -4.6689  -4.6509  -4.5760  -4.5706  -4.4973  -4.4579  -4.3189  -4.2353
    -4.2099  -4.1804  -4.0837  -4.0745  -4.0372  -3.9472  -3.9255  -3.9049
    -3.7771  -3.7446  -3.6330  -3.6172  -3.5680  -3.5450  -3.5173  -3.4895
    -3.4253  -3.3831  -3.3670  -3.3624  -3.3279  -3.2595  -3.2293  -3.2126
    -3.1810  -3.1630  -3.1527  -3.1420  -3.0757  -3.0592  -3.0293  -2.9898
    -2.9285  -2.9043  -2.8495  -2.8481  -2.7871  -2.7473  -2.6930  -2.6870
    -2.6151  -2.5926  -2.5866  -2.5787  -2.4777  -2.4521  -2.4443  -2.3029
    -2.1643  -2.1130  -2.0700  -1.9667  -1.9087  -1.9052  -1.8812  -1.8131
    -1.7882  -1.7048  -1.6505  -1.6268  -1.6196  -1.5940  -1.3751  -1.3451
    -1.3336  -1.2905  -1.2262  -1.1317  -0.8125  -0.5936  -0.5794  -0.4996
    -0.4767  -0.4237  -0.4023  -0.3878   1.0301   1.2050   1.2766   1.3699
     1.3706   1.4031   1.4528   1.6187   1.6522   1.7640

     the Fermi energy is     0.3879 ev

!    total energy              =   -3293.29228372 Ry
     estimated scf accuracy    <       0.00000007 Ry
     smearing contrib. (-TS)   =      -0.00047766 Ry
     internal energy E=F+TS    =   -3293.29180606 Ry

     The total energy is F=E-TS. E is the sum of the following terms:
     one-electron contribution =  -34639.05334537 Ry
     hartree contribution      =   17383.82408720 Ry
     xc contribution           =    -542.09358464 Ry
     ewald contribution        =   14504.02893092 Ry
     electric field correction =       0.00210583 Ry

     convergence has been achieved in  69 iterations

     Forces acting on atoms (cartesian axes, Ry/au):

     atom    1 type  1   force =     0.00000875    0.00245407    0.04674122
     atom    2 type  1   force =     0.00000808   -0.00342928   -0.00287043
     atom    3 type  1   force =    -0.00000980    0.00323751   -0.00101061
     atom    4 type  1   force =     0.00005086   -0.00098169    0.10171941
     atom    5 type  1   force =    -0.00000912   -0.00072490    0.00563077
     atom    6 type  1   force =    -0.00001386    0.00367668    0.00081701
     atom    7 type  1   force =     0.07819191    0.00086189   -0.03540257
     atom    8 type  1   force =     0.00833681   -0.02588694    0.00018526
     atom    9 type  1   force =     0.00849684    0.02067522    0.00126402
     atom   10 type  2   force =    -0.00006172    0.00867696   -0.15838929
     atom   11 type  2   force =    -0.00003832    0.02309800   -0.00230100
     atom   12 type  2   force =     0.00005379   -0.02563535   -0.00428107
     atom   13 type  1   force =    -0.07828535    0.00040521   -0.03539099
     atom   14 type  1   force =    -0.00838323   -0.02580026    0.00019281
     atom   15 type  1   force =    -0.00844835    0.02078428    0.00129694
     atom   16 type  2   force =     0.00012859    0.00086881    0.07316579
     atom   17 type  2   force =     0.00006124    0.03072913    0.00241161
     atom   18 type  2   force =    -0.00006071   -0.02690353    0.00070923
     atom   19 type  1   force =     0.00004059    0.00299943    0.05011818
     atom   20 type  1   force =    -0.00002131   -0.00127669   -0.00144894
     atom   21 type  1   force =     0.00005142   -0.00064528    0.10019788
     atom   22 type  1   force =    -0.00001623   -0.00180186    0.00545861
     atom   23 type  1   force =    -0.00002114    0.00238609    0.00379166
     atom   24 type  1   force =     0.07914466    0.00064808   -0.03605626
     atom   25 type  1   force =     0.00924337   -0.02948823    0.00062279
     atom   26 type  1   force =     0.00848306    0.02158202    0.00320921
     atom   27 type  2   force =    -0.00006890   -0.00813827   -0.15494173
     atom   28 type  2   force =    -0.00000757    0.02628104   -0.00223314
     atom   29 type  2   force =     0.00004452   -0.02440489   -0.00334974
     atom   30 type  1   force =    -0.07923407    0.00023885   -0.03605133
     atom   31 type  1   force =    -0.00924932   -0.02941881    0.00062880
     atom   32 type  1   force =    -0.00843820    0.02165922    0.00323680
     atom   33 type  2   force =     0.00013254   -0.00256102    0.07884885
     atom   34 type  2   force =     0.00004785    0.03585324    0.00274402
     atom   35 type  2   force =    -0.00006767   -0.02915212    0.00300247
     atom   36 type  1   force =     0.00004201    0.00307335    0.05240457
     atom   37 type  1   force =    -0.00000360   -0.00187422   -0.00281459
     atom   38 type  1   force =    -0.00002108    0.00200523    0.00079941
     atom   39 type  1   force =     0.00004692    0.00287209    0.10112435
     atom   40 type  1   force =    -0.00000943   -0.00170127    0.00620174
     atom   41 type  1   force =    -0.00002777    0.00301250    0.00387647
     atom   42 type  1   force =     0.07825523    0.00076236   -0.03487857
     atom   43 type  1   force =     0.00660683   -0.02304709   -0.00019909
     atom   44 type  1   force =     0.01118763    0.02206188   -0.00715158
     atom   45 type  2   force =    -0.00006166   -0.00550691   -0.16466548
     atom   46 type  2   force =    -0.00007799    0.01958250    0.00099422
     atom   47 type  2   force =     0.00002626   -0.01853415    0.00740403
     atom   48 type  1   force =    -0.07835124    0.00031282   -0.03486110
     atom   49 type  1   force =    -0.00664781   -0.02301374   -0.00019548
     atom   50 type  1   force =    -0.01115575    0.02204513   -0.00710669
     atom   51 type  2   force =     0.00012548   -0.00436433    0.06095086
     atom   52 type  2   force =     0.00012330    0.02965254    0.00359319
     atom   53 type  2   force =    -0.00007256   -0.02494762    0.00100370
     atom   54 type  3   force =    -0.00000651    0.00076796   -0.00013459
     atom   55 type  3   force =    -0.00001696   -0.00009829    0.00014164
     atom   56 type  4   force =    -0.00002376    0.00702219    0.00057258
     atom   57 type  4   force =    -0.00000173   -0.01119509   -0.00617325
     atom   58 type  3   force =    -0.00000469   -0.00096092   -0.00098384
     atom   59 type  3   force =    -0.00002114    0.01120653    0.00783124

     Total force =     0.437709     Total SCF correction =     0.000923
  @ DRIVER MODE: Message from server: STATUS
  @ DRIVER MODE: Message from server: GETFORCE
  @ DRIVER MODE: Returning v,forces,stress,ensemble

     Writing output data file ./calc.save/
  @ DRIVER MODE: Message from server: EXIT
  @ DRIVE MODE: Exiting

     General routines

     Parallel routines

   This run was terminated on:   3:47:55  19Oct2021

   JOB DONE.