     Program PWSCF v.6.7GPU starts on 15Sep2021 at 16:39:28

     R & G space division:  proc/nbgrp/npool/nimage =      10
     Reading input from /storage/home/hcoda1/3/ntian30/research/carbon/CxH_vib/CH_calc/ads_slab/CHNHNH_b/out_0023/pw.inp
Warning: card &CELL ignored
Warning: card   CELL_DYNAMICS='IPI', ignored
Warning: card / ignored

     Current dimensions of program PWSCF are:
     Max number of different atomic species (ntypx) = 10
     Max number of k-points (npk) =  40000
     Max angular momentum in pseudopotentials (lmaxx) =  3
     Presently no symmetry can be used with electric field

     Message from routine cell_base_init:
     DEPRECATED: use true lattice parameter, not A to a.u. conversion factor

     IMPORTANT: XC functional enforced from input :
     Exchange-correlation= BEEF-VDW
                           (   1   4  43  14   2   0   0)
     Any further DFT definition will be discarded
     Please, verify this is what you really want

  @ DRIVER MODE: Connecting to
 qe_1139763_2850202.sched-torque.pace.gatech.eduka5wxz8r_scratch
  using UNIX socket
  @ DRIVER MODE: Message from server: STATUS
  @ DRIVER MODE: Message from server: INIT
  @ DRIVER MODE: Receiving replica           0          -1
  @ DRIVER MODE: Receiving encoded integer          25
  @ DRIVER MODE:  SCF:  T  FORCE:  T  STRESS:  F  VC:  F  ENSEMBLE:  F
  @ DRIVER MODE:  SCF:  T  FORCE:  T  STRESS:  F  VC:  F  ENSEMBLE:  F

     Using Slab Decomposition

     bravais-lattice index     =            0
     lattice parameter (alat)  =       1.8897  a.u.
     unit-cell volume          =    6658.9804 (a.u.)^3
     number of atoms/cell      =           53
     number of atomic types    =            5
     number of electrons       =       395.00
     number of Kohn-Sham states=          207
     kinetic-energy cutoff     =      29.3995  Ry
     charge density cutoff     =     293.9946  Ry
     scf convergence threshold =      7.3E-08
     mixing beta               =       0.0500
     number of iterations used =            8  plain     mixing
     Exchange-correlation= BEEF-VDW
                           (   1   4  43  14   2   0   0)

     celldm(1)=   1.889726  celldm(2)=   0.000000  celldm(3)=   0.000000
     celldm(4)=   0.000000  celldm(5)=   0.000000  celldm(6)=   0.000000

     crystal axes: (cart. coord. in units of alat)
               a(1) = (   6.579727   0.000000   0.000000 )
               a(2) = (  -0.000775   5.961596   0.000000 )
               a(3) = (   0.000000   0.000000  25.155947 )

     reciprocal axes: (cart. coord. in units 2 pi/alat)
               b(1) = (  0.151982  0.000020  0.000000 )
               b(2) = (  0.000000  0.167740  0.000000 )
               b(3) = (  0.000000  0.000000  0.039752 )

     PseudoPot. # 1 for Ti read from file:
     /storage/coda1/p-amedford6/0/shared/rich_project_chbe-medford/medford-share/data/pseudos_module/espresso/nninc/pbe/van/Ti.UPF
     MD5 check sum: 8e4df49b7f0d34bbd5052bf3f5ea0213
     Pseudo is Ultrasoft, Zval = 12.0
     Generated by new atomic code, or converted to UPF format
     Using radial grid of  851 points,  6 beta functions with:
                l(1) =   0
                l(2) =   0
                l(3) =   1
                l(4) =   1
                l(5) =   2
                l(6) =   2
     Q(r) pseudized with  8 coefficients,  rinner =    1.000   1.000   1.000
                                                       1.000   1.000

     PseudoPot. # 2 for O  read from file:
     /storage/coda1/p-amedford6/0/shared/rich_project_chbe-medford/medford-share/data/pseudos_module/espresso/nninc/pbe/van/O.UPF
     MD5 check sum: 78c19812648e8988a0fe644b0f25305e
     Pseudo is Ultrasoft, Zval =  6.0
     Generated by new atomic code, or converted to UPF format
     Using radial grid of  737 points,  4 beta functions with:
                l(1) =   0
                l(2) =   0
                l(3) =   1
                l(4) =   1
     Q(r) pseudized with  8 coefficients,  rinner =    0.800   0.800   0.800

     PseudoPot. # 3 for N  read from file:
     /storage/coda1/p-amedford6/0/shared/rich_project_chbe-medford/medford-share/data/pseudos_module/espresso/nninc/pbe/van/N.UPF
     MD5 check sum: 90d10febe142ad51ac9d5be1deb811c4
     Pseudo is Ultrasoft, Zval =  5.0
     Generated by new atomic code, or converted to UPF format
     Using radial grid of  729 points,  4 beta functions with:
                l(1) =   0
                l(2) =   0
                l(3) =   1
                l(4) =   1
     Q(r) pseudized with  8 coefficients,  rinner =    0.800   0.800   0.800

     PseudoPot. # 4 for C  read from file:
     /storage/coda1/p-amedford6/0/shared/rich_project_chbe-medford/medford-share/data/pseudos_module/espresso/nninc/pbe/van/C.UPF
     MD5 check sum: 1a69bf6b8db32088f5b2163dbdb77a27
     Pseudo is Ultrasoft, Zval =  4.0
     Generated by new atomic code, or converted to UPF format
     Using radial grid of  721 points,  4 beta functions with:
                l(1) =   0
                l(2) =   0
                l(3) =   1
                l(4) =   1
     Q(r) pseudized with  8 coefficients,  rinner =    0.800   0.800   0.800

     PseudoPot. # 5 for H  read from file:
     /storage/coda1/p-amedford6/0/shared/rich_project_chbe-medford/medford-share/data/pseudos_module/espresso/nninc/pbe/van/H.UPF
     MD5 check sum: b5ee9d7bfd3a09ee7748110bda690ff7
     Pseudo is Ultrasoft, Zval =  1.0
     Generated by new atomic code, or converted to UPF format
     Using radial grid of  615 points,  1 beta functions with:
                l(1) =   0
     Q(r) pseudized with  8 coefficients,  rinner =    0.800

     atomic species   valence    mass     pseudopotential
        Ti1           12.00    47.86700     Ti( 1.00)
        O1             6.00    15.99900     O ( 1.00)
        N1             5.00    14.00700     N ( 1.00)
        C1             4.00    12.01100     C ( 1.00)
        H1             1.00     1.00800     H ( 1.00)

     No symmetry found

   Cartesian axes

     site n.     atom                  positions (alat units)
         1           Ti1 tau(   1) = (   0.0004258   2.9801865   6.0000000  )
         2           Ti1 tau(   2) = (   3.2906075   1.4906267   6.0002472  )
         3           O1  tau(   3) = (   0.0006271   0.0005054   7.9858123  )
         4           O1  tau(   4) = (   3.2906025   0.0005020   7.3038282  )
         5           O1  tau(   5) = (   4.5942328   1.4918067   9.2879030  )
         6           O1  tau(   6) = (   1.9868534   1.4903216   9.2879459  )
         7           Ti1 tau(   7) = (   3.2907910   2.8959150   9.1758416  )
         8           Ti1 tau(   8) = (   0.0015273   1.4827037   9.2680791  )
         9           O1  tau(   9) = (   3.2799393   5.9535521  11.3540639  )
        10           O1  tau(  10) = (   0.0116148   5.9584955  10.6183126  )
        11           O1  tau(  11) = (   1.2974255   1.4613897  12.6506698  )
        12           O1  tau(  12) = (   5.3017888   1.4901577  12.6050164  )
        13           Ti1 tau(  13) = (   6.5221663   3.0180504  12.5986966  )
        14           Ti1 tau(  14) = (   3.2221172   1.5532140  12.5512791  )
        15           O1  tau(  15) = (   6.4783894   5.9520290  14.6579590  )
        16           O1  tau(  16) = (   3.3696489   5.9508513  13.9183136  )
        17           O1  tau(  17) = (   4.5179258   1.5103438  16.1624884  )
        18           O1  tau(  18) = (   1.9802590   1.4047766  15.9099196  )
        19           Ti1 tau(  19) = (   3.2637731   3.0080032  15.8837983  )
        20           Ti1 tau(  20) = (   6.5766856   1.4756295  15.8014380  )
        21           O1  tau(  21) = (   3.2904802   0.0005063   4.7018136  )
        22           O1  tau(  22) = (   0.0065935   5.9492922  17.2122405  )
        23           O1  tau(  23) = (   1.3043587   1.4918075   6.0039043  )
        24           O1  tau(  24) = (   5.2767064   1.4903225   6.0039473  )
        25           Ti1 tau(  25) = (   0.0000382   5.9609847   6.0000000  )
        26           Ti1 tau(  26) = (   3.2902200   4.4714249   6.0002472  )
        27           O1  tau(  27) = (   0.0002396   2.9813036   7.9858123  )
        28           O1  tau(  28) = (   3.2902150   2.9813002   7.3038282  )
        29           O1  tau(  29) = (   4.5938453   4.4726049   9.2879030  )
        30           O1  tau(  30) = (   1.9864658   4.4711199   9.2879459  )
        31           Ti1 tau(  31) = (   3.2891106   5.8743827   9.1763621  )
        32           Ti1 tau(  32) = (   0.0006254   4.4649316   9.2693709  )
        33           O1  tau(  33) = (   3.2772596   2.9828089  11.3369495  )
        34           O1  tau(  34) = (   0.0092240   2.9805883  10.6323155  )
        35           O1  tau(  35) = (   1.2916203   4.4718874  12.6594431  )
        36           O1  tau(  36) = (   5.2999639   4.4615573  12.6129894  )
        37           Ti1 tau(  37) = (   6.5361528   0.0312684  12.5125129  )
        38           Ti1 tau(  38) = (   3.2177194   4.4831555  12.4956785  )
        39           O1  tau(  39) = (   6.5168025   2.9395006  14.7032746  )
        40           O1  tau(  40) = (   3.2870264   2.9515371  13.9313172  )
        41           O1  tau(  41) = (   4.5204763   4.4345026  16.1736457  )
        42           O1  tau(  42) = (   1.9972348   4.5331091  15.9467552  )
        43           Ti1 tau(  43) = (   3.2981618   0.0182476  15.6956140  )
        44           Ti1 tau(  44) = (   0.0010288   4.6427453  16.0560918  )
        45           O1  tau(  45) = (   3.2900926   2.9813045   4.7018136  )
        46           O1  tau(  46) = (   1.3039711   4.4726057   6.0039043  )
        47           O1  tau(  47) = (   5.2763189   4.4711207   6.0039473  )
        48           N1  tau(  48) = (   1.3052520   2.8252889  18.3786263  )
        49           N1  tau(  49) = (   0.2128110   2.9323531  17.5195281  )
        50           C1  tau(  50) = (   2.5582938   2.8657590  18.0399718  )
        51           H1  tau(  51) = (   3.1786551   2.7222395  18.9297303  )
        52           H1  tau(  52) = (   1.0317423   2.6391596  19.3433462  )
        53           H1  tau(  53) = (   5.9645394   2.8535341  18.1048464  )

     number of k points=    10  Fermi-Dirac smearing, width (Ry)=  0.0073
                       cart. coord. in units 2pi/alat
        k(    1) = (   0.0000000   0.0000000   0.0000000), wk =   0.1250000
        k(    2) = (   0.0000000   0.0419351   0.0000000), wk =   0.2500000
        k(    3) = (   0.0000000  -0.0838702   0.0000000), wk =   0.1250000
        k(    4) = (   0.0379955   0.0000049   0.0000000), wk =   0.2500000
        k(    5) = (   0.0379955   0.0419400   0.0000000), wk =   0.2500000
        k(    6) = (   0.0379955  -0.0838652   0.0000000), wk =   0.2500000
        k(    7) = (   0.0379955  -0.0419301   0.0000000), wk =   0.2500000
        k(    8) = (  -0.0759910  -0.0000099   0.0000000), wk =   0.1250000
        k(    9) = (  -0.0759910   0.0419252   0.0000000), wk =   0.2500000
        k(   10) = (  -0.0759910  -0.0838800   0.0000000), wk =   0.1250000

     Initial potential from superposition of free atoms

     starting charge  378.99916, renormalised to  395.00000

     negative rho (up, down):  1.762E-02 0.000E+00

     %%%%%%%%%%%%%%%%%%%%%%%%%%%%%%%%%%%%%%%%%%%%%%%%%%%%%%%%%%%%%%%%%%%%%%%%
     %                                                                      %
     % You are using vdW-DF, which was implemented by the Thonhauser group. %
     % Please cite the following two papers that made this development      %
     % possible and the two reviews that describe the various versions:     %
     %                                                                      %
     %   T. Thonhauser et al., PRL 115, 136402 (2015).                      %
     %   T. Thonhauser et al., PRB 76, 125112 (2007).                       %
     %   K. Berland et al., Rep. Prog. Phys. 78, 066501 (2015).             %
     %   D.C. Langreth et al., J. Phys.: Condens. Matter 21, 084203 (2009). %
     %                                                                      %
     %                                                                      %
     % If you are calculating the stress with vdW-DF, please also cite:     %
     %                                                                      %
     %   R. Sabatini et al., J. Phys.: Condens. Matter 24, 424209 (2012).   %
     %                                                                      %
     %%%%%%%%%%%%%%%%%%%%%%%%%%%%%%%%%%%%%%%%%%%%%%%%%%%%%%%%%%%%%%%%%%%%%%%%

     Adding external electric field

     Computed dipole along edir(3) :
        Dipole               -7.9500 Ry au,        -20.2069 Debye
        Dipole field         -0.0150 Ry au,

        Potential amp.        1.3907 Ry
        Total length         46.3494 bohr

     Starting wfcs are  299 atomic wfcs
  @ DRIVER MODE: Message from server: STATUS
  @ DRIVER MODE: Message from server: POSDATA
  @ DRIVER MODE: Reading and sharing cell
  @ DRIVER MODE: Reading and sharing positions
  @ DRIVER MODE: Received positions

     Self-consistent Calculation

     iteration #  1     ecut=    29.40 Ry     beta= 0.05
     Davidson diagonalization with overlap
     c_bands:  1 eigenvalues not converged
     c_bands:  2 eigenvalues not converged
     c_bands:  2 eigenvalues not converged
     c_bands:  3 eigenvalues not converged
     c_bands:  3 eigenvalues not converged
     c_bands:  1 eigenvalues not converged
     c_bands:  1 eigenvalues not converged
     ethr =  1.00E-05,  avg # of iterations = 19.2

[...]

     total energy              =   -2627.21656674 Ry
     estimated scf accuracy    <    3450.05183064 Ry

[...]

     iteration #  3     ecut=    29.40 Ry     beta= 0.05
     Davidson diagonalization with overlap
     ethr =  1.00E-02,  avg # of iterations = 13.7

[...]

     iteration # 67     ecut=    29.40 Ry     beta= 0.05
     Davidson diagonalization with overlap
     c_bands:  2 eigenvalues not converged
     ethr =  6.20E-10,  avg # of iterations = 16.8

[...]

     total energy              =   -2939.10948032 Ry
     estimated scf accuracy    <       0.00000011 Ry

     iteration # 74     ecut=    29.40 Ry     beta= 0.05
     Davidson diagonalization with overlap
     ethr =  2.67E-11,  avg # of iterations =  8.8

     negative rho (up, down):  1.780E-02 0.000E+00

     Adding external electric field

     Computed dipole along edir(3) :
        Dipole                1.3668 Ry au,          3.4740 Debye
        Dipole field          0.0026 Ry au,

        Potential amp.       -0.2391 Ry
        Total length         46.3494 bohr

     End of self-consistent calculation

          k = 0.0000 0.0000 0.0000 ( 18029 PWs)   bands (ev):

   -55.4849 -55.4508 -55.3917 -55.3464 -55.3343 -55.3261 -55.3027 -55.2957
   -55.2912 -55.2686 -55.2607 -55.2258 -55.1457 -54.9912 -54.4643 -54.4302
   -31.9688 -31.9196 -31.8325 -31.8060 -31.8026 -31.7769 -31.7501 -31.7295
   -31.7150 -31.6564 -31.6473 -31.6372 -31.6363 -31.6023 -31.5907 -31.5834
   -31.5675 -31.5644 -31.5497 -31.5421 -31.5079 -31.4969 -31.4963 -31.4943
   -31.4940 -31.4854 -31.4810 -31.4792 -31.4523 -31.4433 -31.4414 -31.4413
   -31.4341 -31.4270 -31.4147 -31.4094 -31.3923 -31.3729 -31.3696 -31.2439
   -31.2303 -31.1960 -30.8711 -30.7831 -30.7607 -30.6881 -30.6016 -30.4903
   -18.7483 -16.1647 -15.9633 -15.7771 -15.6468 -15.5932 -15.3586 -15.2545
   -15.2199 -15.1368 -15.0915 -15.0630 -15.0241 -15.0095 -14.9935 -14.9862
   -14.9275 -14.9088 -14.9028 -14.8723 -14.8536 -14.8298 -14.8166 -14.7272
   -14.6426 -14.6384 -14.6268 -14.6019 -14.5389 -14.1498 -13.5004 -12.9653
   -12.8488  -8.8790  -7.3671  -4.4447  -3.6742  -3.5327  -3.4239  -3.4075
    -3.3892  -3.2637  -3.1471  -2.8974  -2.8843  -2.7499  -2.6628  -2.6221
    -2.5495  -2.4753  -2.4405  -2.3822  -2.3169  -2.2944  -2.2768  -2.2436
    -2.2216  -2.2116  -2.1821  -2.0386  -2.0197  -1.9537  -1.8657  -1.8570
    -1.7995  -1.7944  -1.7735  -1.7429  -1.7398  -1.7329  -1.7121  -1.6918
    -1.6222  -1.5438  -1.4989  -1.4579  -1.3193  -1.1900  -1.1350  -1.0953
    -1.0314  -0.9561  -0.9213  -0.9068  -0.8921  -0.8758  -0.7269  -0.6801
    -0.6571  -0.6202  -0.5019  -0.4203  -0.3647  -0.3170  -0.2846  -0.2563
    -0.2354  -0.2229  -0.1871  -0.0682   0.0006   0.0478   0.0801   0.1560
     0.2124   0.2470   0.2588   0.3236   0.3596   0.3853   0.4350   0.4733
     0.4873   0.5101   0.5433   0.5611   0.6376   0.7502   0.7732   0.7763
     0.8163   1.0064   1.0708   1.1331   1.1736   1.2940   1.3221   1.4944
     1.5594   1.6352   1.7520   2.1297   2.1754   3.6292   3.7360   3.7725
     3.8123   3.8474   3.8939   4.0923   4.1383   4.1840   4.2738

[...]

          k = 0.0380-0.0419 0.0000 ( 17876 PWs)   bands (ev):

[...]

          k =-0.0760-0.0000 0.0000 ( 17886 PWs)   bands (ev):

[...]

          k =-0.0760-0.0839 0.0000 ( 17948 PWs)   bands (ev):

   -55.4681 -55.4674 -55.3830 -55.3546 -55.3239 -55.3133 -55.3064 -55.3038
   -55.2860 -55.2847 -55.2479 -55.2387 -55.1440 -54.9929 -54.4473 -54.4471
   -31.7843 -31.7838 -31.7626 -31.7621 -31.7620 -31.7319 -31.6683 -31.6646
   -31.6498 -31.6291 -31.6219 -31.6122 -31.6015 -31.6007 -31.5910 -31.5877
   -31.5870 -31.5802 -31.5800 -31.5780 -31.5619 -31.5591 -31.5459 -31.5336
   -31.5324 -31.5141 -31.5108 -31.5090 -31.4877 -31.4859 -31.4754 -31.4632
   -31.4609 -31.4584 -31.4569 -31.4556 -31.4413 -31.3864 -31.3739 -31.2894
   -31.2464 -31.2337 -30.7735 -30.7734 -30.6840 -30.6837 -30.6449 -30.6448
   -18.7446 -15.6000 -15.5045 -15.4878 -15.4131 -15.3894 -15.2889 -15.2525
   -15.2126 -15.1883 -15.1815 -15.1494 -15.1002 -15.0862 -15.0472 -15.0359
   -15.0104 -14.9762 -14.9666 -14.9296 -14.9268 -14.9198 -14.8831 -14.8230
   -14.8061 -14.7984 -14.7963 -14.7162 -14.6099 -14.3551 -13.5200 -12.9507
   -12.9505  -8.8699  -7.2856  -4.5758  -3.6510  -2.8502  -2.7856  -2.7687
    -2.6723  -2.5933  -2.5280  -2.4862  -2.4606  -2.4038  -2.3951  -2.3407
    -2.3320  -2.3058  -2.2911  -2.2779  -2.2438  -2.2269  -2.2245  -2.1904
    -2.1835  -2.1598  -2.1333  -2.1111  -2.1000  -2.0841  -2.0688  -2.0443
    -2.0313  -1.9993  -1.9585  -1.8262  -1.7097  -1.6607  -1.6302  -1.6097
    -1.5871  -1.5562  -1.5389  -1.5273  -1.4943  -1.4523  -1.3112  -1.1731
    -1.1511  -1.0622  -1.0146  -0.9925  -0.9546  -0.9003  -0.8777  -0.8743
    -0.8164  -0.7919  -0.7063  -0.6573  -0.6164  -0.5908  -0.4592  -0.4513
    -0.4467  -0.4314  -0.4001  -0.3811  -0.3275  -0.2479  -0.2166  -0.2104
    -0.1648  -0.1624  -0.1500  -0.0088   0.0565   0.1010   0.1921   0.2398
     0.3885   0.5423   0.5668   0.6015   0.6930   0.7480   0.7898   0.8274
     0.8439   0.8958   0.9623   1.0295   1.0424   1.0959   1.1188   1.1973
     1.2335   1.9237   1.9246   1.9952   1.9956   3.9947   4.0018   4.0171
     4.0866   4.1480   4.1545   4.1874   4.1886   4.2903   4.3211

     the Fermi energy is     3.6438 ev

!    total energy              =   -2939.10949102 Ry
     estimated scf accuracy    <       0.00000006 Ry
     smearing contrib. (-TS)   =      -0.02093198 Ry
     internal energy E=F+TS    =   -2939.08855904 Ry

     The total energy is F=E-TS. E is the sum of the following terms:
     one-electron contribution =  -24577.72970222 Ry
     hartree contribution      =   12380.44261964 Ry
     xc contribution           =    -485.20651962 Ry
     ewald contribution        =    9743.40151785 Ry
     electric field correction =       0.00352531 Ry

     convergence has been achieved in  74 iterations

     Forces acting on atoms (cartesian axes, Ry/au):

     atom    1 type  1   force =     0.00004757   -0.00021367    0.09561678
     atom    2 type  1   force =    -0.00001644   -0.00052211   -0.17549606
     atom    3 type  2   force =     0.00008587   -0.00008693   -0.02325737
     atom    4 type  2   force =    -0.00003239   -0.00149292    0.05267311
     atom    5 type  2   force =    -0.01057483   -0.00050093    0.00372751
     atom    6 type  2   force =     0.01176258   -0.00007050    0.00225059
     atom    7 type  1   force =    -0.00002631   -0.00028450   -0.00807735
     atom    8 type  1   force =     0.00049537    0.01257991    0.01817079
     atom    9 type  2   force =    -0.00031658    0.00005041    0.00009101
     atom   10 type  2   force =    -0.00242620    0.00020305   -0.01641851
     atom   11 type  2   force =    -0.00028786    0.00019766    0.00003273
     atom   12 type  2   force =    -0.00046303   -0.00014531   -0.00011518
     atom   13 type  1   force =     0.00022401   -0.00008200    0.00001161
     atom   14 type  1   force =     0.00033636    0.00004525   -0.00004856
     atom   15 type  2   force =     0.00014301    0.00024044    0.00004788
     atom   16 type  2   force =    -0.00015946   -0.00019757    0.00019901
     atom   17 type  2   force =    -0.00002594   -0.00022199   -0.00025401
     atom   18 type  2   force =     0.00005344   -0.00002330   -0.00031065
     atom   19 type  1   force =     0.00019496    0.00017055   -0.00074034
     atom   20 type  1   force =     0.00031948    0.00009391   -0.00042367
     atom   21 type  2   force =     0.00005393   -0.00006262    0.10319155
     atom   22 type  2   force =     0.00004405    0.00017445    0.00004028
     atom   23 type  2   force =    -0.07159796   -0.00016177   -0.02755186
     atom   24 type  2   force =     0.07152445    0.00028277   -0.02760991
     atom   25 type  1   force =     0.00017267   -0.00026303    0.09531942
     atom   26 type  1   force =     0.00004691   -0.00030316   -0.17588384
     atom   27 type  2   force =     0.00009063   -0.00019562   -0.02224351
     atom   28 type  2   force =    -0.00001541   -0.00114793    0.05315161
     atom   29 type  2   force =    -0.01040048   -0.00021229    0.00332453
     atom   30 type  2   force =     0.01139594    0.00020122    0.00189727
     atom   31 type  1   force =    -0.00013662    0.00481951   -0.00024808
     atom   32 type  1   force =     0.00058567   -0.01318403    0.01870957
     atom   33 type  2   force =    -0.00015136    0.00013375   -0.00007257
     atom   34 type  2   force =    -0.00060030    0.00043131   -0.01723909
     atom   35 type  2   force =    -0.00035495   -0.00014884    0.00015538
     atom   36 type  2   force =    -0.00021304   -0.00033696    0.00021765
     atom   37 type  1   force =     0.00032995   -0.00016992    0.00004896
     atom   38 type  1   force =     0.00016440    0.00020963    0.00019217
     atom   39 type  2   force =    -0.00030265   -0.00006385   -0.00026380
     atom   40 type  2   force =    -0.00012496   -0.00010759    0.00043535
     atom   41 type  2   force =    -0.00006322    0.00010333   -0.00002286
     atom   42 type  2   force =     0.00029873   -0.00000944    0.00005609
     atom   43 type  1   force =    -0.00013659    0.00007730    0.00009742
     atom   44 type  1   force =     0.00033653    0.00014242    0.00020734
     atom   45 type  2   force =     0.00006682   -0.00009634    0.10320990
     atom   46 type  2   force =    -0.07165564   -0.00011595   -0.02760106
     atom   47 type  2   force =     0.07154259    0.00026901   -0.02764111
     atom   48 type  3   force =    -0.00048918   -0.00176141    0.00213525
     atom   49 type  3   force =     0.00009963   -0.00022250   -0.00021777
     atom   50 type  4   force =    -0.00060931    0.00029355   -0.00004052
     atom   51 type  5   force =     0.00015867   -0.00032689    0.00024179
     atom   52 type  5   force =     0.00030010    0.00232974   -0.00298989
     atom   53 type  5   force =     0.00030641   -0.00031734   -0.00068497

     Total force =     0.365608     Total SCF correction =     0.000410
  @ DRIVER MODE: Message from server: STATUS
  @ DRIVER MODE: Message from server: GETFORCE
  @ DRIVER MODE: Returning v,forces,stress,ensemble

     Writing output data file ./calc.save/
  @ DRIVER MODE: Message from server: EXIT
  @ DRIVE MODE: Exiting

     General routines

     Parallel routines

   This run was terminated on:  17: 0: 4  15Sep2021

   JOB DONE.