     Program PWSCF v.6.7GPU starts on 16Sep2021 at  8:11:46

     R & G space division:  proc/nbgrp/npool/nimage =      10
     Reading input from /storage/home/hcoda1/3/ntian30/research/carbon/CxH_vib/H2O_calc/ads_slab/CH3NH2NHH2O_c/out_0046/pw.inp
Warning: card &CELL ignored
Warning: card   CELL_DYNAMICS='IPI', ignored
Warning: card / ignored

     Current dimensions of program PWSCF are:
     Max number of different atomic species (ntypx) = 10
     Max number of k-points (npk) =  40000
     Max angular momentum in pseudopotentials (lmaxx) =  3
     Presently no symmetry can be used with electric field

     Message from routine cell_base_init:
     DEPRECATED: use true lattice parameter, not A to a.u. conversion factor

     IMPORTANT: XC functional enforced from input :
     Exchange-correlation= BEEF-VDW
                           (   1   4  43  14   2   0   0)
     Any further DFT definition will be discarded
     Please, verify this is what you really want

  @ DRIVER MODE: Connecting to
 qe_1139763_2852614.sched-torque.pace.gatech.edu6ih1vak3_scratch
  using UNIX socket
  @ DRIVER MODE: Message from server: STATUS
  @ DRIVER MODE: Message from server: INIT
  @ DRIVER MODE: Receiving replica           0          -1
  @ DRIVER MODE: Receiving encoded integer          25
  @ DRIVER MODE:  SCF:  T  FORCE:  T  STRESS:  F  VC:  F  ENSEMBLE:  F
  @ DRIVER MODE:  SCF:  T  FORCE:  T  STRESS:  F  VC:  F  ENSEMBLE:  F

     Using Slab Decomposition

     bravais-lattice index     =            0
     lattice parameter (alat)  =       1.8897  a.u.
     unit-cell volume          =    6658.9804 (a.u.)^3
     number of atoms/cell      =           59
     number of atomic types    =            5
     number of electrons       =       406.00
     number of Kohn-Sham states=          213
     kinetic-energy cutoff     =      29.3995  Ry
     charge density cutoff     =     293.9946  Ry
     scf convergence threshold =      7.3E-08
     mixing beta               =       0.0500
     number of iterations used =            8  plain     mixing
     Exchange-correlation= BEEF-VDW
                           (   1   4  43  14   2   0   0)

     celldm(1)=   1.889726  celldm(2)=   0.000000  celldm(3)=   0.000000
     celldm(4)=   0.000000  celldm(5)=   0.000000  celldm(6)=   0.000000

     crystal axes: (cart. coord. in units of alat)
               a(1) = (   6.579727   0.000000   0.000000 )
               a(2) = (  -0.000775   5.961596   0.000000 )
               a(3) = (   0.000000   0.000000  25.155947 )

     reciprocal axes: (cart. coord. in units 2 pi/alat)
               b(1) = (  0.151982  0.000020  0.000000 )
               b(2) = (  0.000000  0.167740  0.000000 )
               b(3) = (  0.000000  0.000000  0.039752 )

     PseudoPot. # 1 for Ti read from file:
     /storage/coda1/p-amedford6/0/shared/rich_project_chbe-medford/medford-share/data/pseudos_module/espresso/nninc/pbe/van/Ti.UPF
     MD5 check sum: 8e4df49b7f0d34bbd5052bf3f5ea0213
     Pseudo is Ultrasoft, Zval = 12.0
     Generated by new atomic code, or converted to UPF format
     Using radial grid of  851 points,  6 beta functions with:
                l(1) =   0
                l(2) =   0
                l(3) =   1
                l(4) =   1
                l(5) =   2
                l(6) =   2
     Q(r) pseudized with  8 coefficients,  rinner =    1.000   1.000   1.000
                                                       1.000   1.000

     PseudoPot. # 2 for O  read from file:
     /storage/coda1/p-amedford6/0/shared/rich_project_chbe-medford/medford-share/data/pseudos_module/espresso/nninc/pbe/van/O.UPF
     MD5 check sum: 78c19812648e8988a0fe644b0f25305e
     Pseudo is Ultrasoft, Zval =  6.0
     Generated by new atomic code, or converted to UPF format
     Using radial grid of  737 points,  4 beta functions with:
                l(1) =   0
                l(2) =   0
                l(3) =   1
                l(4) =   1
     Q(r) pseudized with  8 coefficients,  rinner =    0.800   0.800   0.800

     PseudoPot. # 3 for N  read from file:
     /storage/coda1/p-amedford6/0/shared/rich_project_chbe-medford/medford-share/data/pseudos_module/espresso/nninc/pbe/van/N.UPF
     MD5 check sum: 90d10febe142ad51ac9d5be1deb811c4
     Pseudo is Ultrasoft, Zval =  5.0
     Generated by new atomic code, or converted to UPF format
     Using radial grid of  729 points,  4 beta functions with:
                l(1) =   0
                l(2) =   0
                l(3) =   1
                l(4) =   1
     Q(r) pseudized with  8 coefficients,  rinner =    0.800   0.800   0.800

     PseudoPot. # 4 for C  read from file:
     /storage/coda1/p-amedford6/0/shared/rich_project_chbe-medford/medford-share/data/pseudos_module/espresso/nninc/pbe/van/C.UPF
     MD5 check sum: 1a69bf6b8db32088f5b2163dbdb77a27
     Pseudo is Ultrasoft, Zval =  4.0
     Generated by new atomic code, or converted to UPF format
     Using radial grid of  721 points,  4 beta functions with:
                l(1) =   0
                l(2) =   0
                l(3) =   1
                l(4) =   1
     Q(r) pseudized with  8 coefficients,  rinner =    0.800   0.800   0.800

     PseudoPot. # 5 for H  read from file:
     /storage/coda1/p-amedford6/0/shared/rich_project_chbe-medford/medford-share/data/pseudos_module/espresso/nninc/pbe/van/H.UPF
     MD5 check sum: b5ee9d7bfd3a09ee7748110bda690ff7
     Pseudo is Ultrasoft, Zval =  1.0
     Generated by new atomic code, or converted to UPF format
     Using radial grid of  615 points,  1 beta functions with:
                l(1) =   0
     Q(r) pseudized with  8 coefficients,  rinner =    0.800

     atomic species   valence    mass     pseudopotential
        Ti1           12.00    47.86700     Ti( 1.00)
        O1             6.00    15.99900     O ( 1.00)
        N1             5.00    14.00700     N ( 1.00)
        C1             4.00    12.01100     C ( 1.00)
        H1             1.00     1.00800     H ( 1.00)

     No symmetry found

   Cartesian axes

     site n.     atom                  positions (alat units)
         1           Ti1 tau(   1) = (   0.0004258   2.9801865   6.0000000  )
         2           Ti1 tau(   2) = (   3.2906075   1.4906267   6.0002472  )
         3           O1  tau(   3) = (   0.0006271   0.0005054   7.9858123  )
         4           O1  tau(   4) = (   3.2906025   0.0005020   7.3038282  )
         5           O1  tau(   5) = (   4.5942328   1.4918067   9.2879030  )
         6           O1  tau(   6) = (   1.9868534   1.4903216   9.2879459  )
         7           Ti1 tau(   7) = (   3.2907910   2.8959150   9.1758416  )
         8           Ti1 tau(   8) = (   0.0015273   1.4827037   9.2680791  )
         9           O1  tau(   9) = (   3.2795193   0.0050042  11.3600746  )
        10           O1  tau(  10) = (   0.0116148   5.9584955  10.6183126  )
        11           O1  tau(  11) = (   1.2764768   1.4833402  12.6625751  )
        12           O1  tau(  12) = (   5.2691860   1.4824858  12.6730715  )
        13           Ti1 tau(  13) = (   6.5785005   2.9712200  12.5432933  )
        14           Ti1 tau(  14) = (   3.2815129   1.4861921  12.5133659  )
        15           O1  tau(  15) = (   0.0084525   5.9333602  14.7514412  )
        16           O1  tau(  16) = (   3.2474592   5.9449689  14.0025778  )
        17           O1  tau(  17) = (   4.5272503   1.5270814  16.0535473  )
        18           O1  tau(  18) = (   2.0088677   1.5398698  16.1918835  )
        19           Ti1 tau(  19) = (   3.2695027   3.0127370  15.7044713  )
        20           Ti1 tau(  20) = (   6.4897317   1.5391078  15.7731133  )
        21           O1  tau(  21) = (   3.2904802   0.0005063   4.7018136  )
        22           O1  tau(  22) = (   6.4943121   0.0104379  17.3746616  )
        23           O1  tau(  23) = (   1.3043587   1.4918075   6.0039043  )
        24           O1  tau(  24) = (   5.2767064   1.4903225   6.0039473  )
        25           Ti1 tau(  25) = (   0.0000382   5.9609847   6.0000000  )
        26           Ti1 tau(  26) = (   3.2902200   4.4714249   6.0002472  )
        27           O1  tau(  27) = (   0.0002396   2.9813036   7.9858123  )
        28           O1  tau(  28) = (   3.2902150   2.9813002   7.3038282  )
        29           O1  tau(  29) = (   4.5938453   4.4726049   9.2879030  )
        30           O1  tau(  30) = (   1.9864658   4.4711199   9.2879459  )
        31           Ti1 tau(  31) = (   3.2891106   5.8743827   9.1763621  )
        32           Ti1 tau(  32) = (   0.0006254   4.4649316   9.2693709  )
        33           O1  tau(  33) = (   3.2806081   2.9711243  11.3509633  )
        34           O1  tau(  34) = (   0.0092240   2.9805883  10.6323155  )
        35           O1  tau(  35) = (   1.2760424   4.4718827  12.6381679  )
        36           O1  tau(  36) = (   5.2690016   4.4731519  12.6446470  )
        37           Ti1 tau(  37) = (   6.5708669   5.9382087  12.5160675  )
        38           Ti1 tau(  38) = (   3.2845625   4.4656782  12.4980923  )
        39           O1  tau(  39) = (   6.5779858   3.0049062  14.7590937  )
        40           O1  tau(  40) = (   3.2501146   3.0001303  13.9242794  )
        41           O1  tau(  41) = (   4.5300198   4.4412671  16.1793791  )
        42           O1  tau(  42) = (   2.0030354   4.4482434  16.2507355  )
        43           Ti1 tau(  43) = (   3.2558399   0.0045369  15.7947069  )
        44           Ti1 tau(  44) = (   0.0024851   4.6597080  16.1671864  )
        45           O1  tau(  45) = (   3.2900926   2.9813045   4.7018136  )
        46           O1  tau(  46) = (   1.3039711   4.4726057   6.0039043  )
        47           O1  tau(  47) = (   5.2763189   4.4711207   6.0039473  )
        48           N1  tau(  48) = (   0.8610865   2.3037131  18.4629187  )
        49           N1  tau(  49) = (   6.4642385   2.8627238  17.5618644  )
        50           C1  tau(  50) = (   1.1134797   3.0572184  19.7121060  )
        51           H1  tau(  51) = (   0.2160447   3.0254214  20.3281890  )
        52           H1  tau(  52) = (   1.9467850   2.5864873  20.2353232  )
        53           H1  tau(  53) = (   1.3463996   4.0866186  19.4485780  )
        54           H1  tau(  54) = (   0.5832711   1.3114681  18.6183785  )
        55           H1  tau(  55) = (   5.5643591   2.7561405  18.0238738  )
        56           H1  tau(  56) = (   1.7079168   2.1891883  17.8702682  )
        57           O1  tau(  57) = (   4.0734316   0.3075885  18.7765601  )
        58           H1  tau(  58) = (   4.9241673   0.1787741  18.2816895  )
        59           H1  tau(  59) = (   3.8734322   5.3936830  19.1372508  )

     number of k points=    10  Fermi-Dirac smearing, width (Ry)=  0.0073
                       cart. coord. in units 2pi/alat
        k(    1) = (   0.0000000   0.0000000   0.0000000), wk =   0.1250000
        k(    2) = (   0.0000000   0.0419351   0.0000000), wk =   0.2500000
        k(    3) = (   0.0000000  -0.0838702   0.0000000), wk =   0.1250000
        k(    4) = (   0.0379955   0.0000049   0.0000000), wk =   0.2500000
        k(    5) = (   0.0379955   0.0419400   0.0000000), wk =   0.2500000
        k(    6) = (   0.0379955  -0.0838652   0.0000000), wk =   0.2500000
        k(    7) = (   0.0379955  -0.0419301   0.0000000), wk =   0.2500000
        k(    8) = (  -0.0759910  -0.0000099   0.0000000), wk =   0.1250000
        k(    9) = (  -0.0759910   0.0419252   0.0000000), wk =   0.2500000
        k(   10) = (  -0.0759910  -0.0838800   0.0000000), wk =   0.1250000

     Initial potential from superposition of free atoms

     starting charge  389.99912, renormalised to  406.00000

     negative rho (up, down):  1.392E-02 0.000E+00

     %%%%%%%%%%%%%%%%%%%%%%%%%%%%%%%%%%%%%%%%%%%%%%%%%%%%%%%%%%%%%%%%%%%%%%%%
     %                                                                      %
     % You are using vdW-DF, which was implemented by the Thonhauser group. %
     % Please cite the following two papers that made this development      %
     % possible and the two reviews that describe the various versions:     %
     %                                                                      %
     %   T. Thonhauser et al., PRL 115, 136402 (2015).                      %
     %   T. Thonhauser et al., PRB 76, 125112 (2007).                       %
     %   K. Berland et al., Rep. Prog. Phys. 78, 066501 (2015).             %
     %   D.C. Langreth et al., J. Phys.: Condens. Matter 21, 084203 (2009). %
     %                                                                      %
     %                                                                      %
     % If you are calculating the stress with vdW-DF, please also cite:     %
     %                                                                      %
     %   R. Sabatini et al., J. Phys.: Condens. Matter 24, 424209 (2012).   %
     %                                                                      %
     %%%%%%%%%%%%%%%%%%%%%%%%%%%%%%%%%%%%%%%%%%%%%%%%%%%%%%%%%%%%%%%%%%%%%%%%

     Adding external electric field

     Computed dipole along edir(3) :
        Dipole              -15.6809 Ry au,        -39.8568 Debye
        Dipole field         -0.0296 Ry au,

        Potential amp.        2.7431 Ry
        Total length         46.3494 bohr

     Starting wfcs are  308 atomic wfcs
  @ DRIVER MODE: Message from server: STATUS
  @ DRIVER MODE: Message from server: POSDATA
  @ DRIVER MODE: Reading and sharing cell
  @ DRIVER MODE: Reading and sharing positions
  @ DRIVER MODE: Received positions

     Self-consistent Calculation

     iteration #  1     ecut=    29.40 Ry     beta= 0.05
     Davidson diagonalization with overlap
     c_bands:  2 eigenvalues not converged
     c_bands:  5 eigenvalues not converged
     c_bands:  2 eigenvalues not converged
     c_bands:  4 eigenvalues not converged
     c_bands:  4 eigenvalues not converged
     c_bands:  5 eigenvalues not converged
     c_bands:  5 eigenvalues not converged
     c_bands:  1 eigenvalues not converged
     ethr =  1.00E-05,  avg # of iterations = 22.5

[...]

     total energy              =   -2140.12991469 Ry
     estimated scf accuracy    <    9575.49142308 Ry

     iteration #  2     ecut=    29.40 Ry     beta= 0.05
     Davidson diagonalization with overlap
     ethr =  1.00E-02,  avg # of iterations = 31.8

[...]

     iteration # 68     ecut=    29.40 Ry     beta= 0.05
     Davidson diagonalization with overlap
     c_bands:  1 eigenvalues not converged
     c_bands:  2 eigenvalues not converged
     ethr =  2.18E-11,  avg # of iterations = 12.0

[...]

     total energy              =   -2977.68489547 Ry
     estimated scf accuracy    <       0.00000012 Ry

     iteration # 69     ecut=    29.40 Ry     beta= 0.05
     Davidson diagonalization with overlap
     ethr =  2.18E-11,  avg # of iterations =  4.5

     negative rho (up, down):  1.241E-02 0.000E+00

     Adding external electric field

     Computed dipole along edir(3) :
        Dipole                1.6095 Ry au,          4.0911 Debye
        Dipole field          0.0030 Ry au,

        Potential amp.       -0.2816 Ry
        Total length         46.3494 bohr

     End of self-consistent calculation

          k = 0.0000 0.0000 0.0000 ( 18029 PWs)   bands (ev):

   -54.9546 -54.9178 -54.9152 -54.8837 -54.8444 -54.8343 -54.7942 -54.7624
   -54.7575 -54.7473 -54.7272 -54.7223 -54.7140 -54.6604 -53.9330 -53.8990
   -31.5266 -31.4079 -31.3209 -31.2823 -31.2651 -31.2518 -31.2495 -31.2443
   -31.2099 -31.2076 -31.1634 -31.1627 -31.1575 -31.1273 -31.1086 -31.0887
   -31.0782 -31.0724 -31.0708 -31.0636 -31.0294 -31.0250 -31.0185 -31.0128
   -30.9928 -30.9747 -30.9642 -30.9634 -30.9559 -30.9557 -30.9455 -30.9370
   -30.9210 -30.9204 -30.9117 -30.9103 -30.8848 -30.8780 -30.8761 -30.8754
   -30.8567 -30.8562 -30.3417 -30.2492 -30.2270 -30.1582 -30.0715 -29.9605
   -18.9623 -18.2084 -15.7898 -15.5219 -15.3966 -15.1966 -15.1432 -15.0387
   -14.8786 -14.8179 -14.7529 -14.7279 -14.7222 -14.6955 -14.6229 -14.5674
   -14.5380 -14.4857 -14.4852 -14.4493 -14.4420 -14.4375 -14.3826 -14.3786
   -14.3420 -14.3283 -14.3208 -14.1779 -14.0991 -14.0511 -14.0403 -13.2002
   -12.4357 -12.3186 -10.9890  -7.5854  -6.3984  -5.9727  -5.7711  -4.0116
    -3.8487  -3.1337  -2.9632  -2.9512  -2.8732  -2.8493  -2.6787  -2.6187
    -2.5100  -2.3931  -2.3183  -2.2210  -2.1771  -2.1591  -2.1453  -2.0315
    -1.9460  -1.9087  -1.8697  -1.8308  -1.8138  -1.7683  -1.7472  -1.7370
    -1.7045  -1.6791  -1.5257  -1.4507  -1.4142  -1.3794  -1.3409  -1.2837
    -1.2627  -1.2456  -1.2399  -1.2321  -1.2158  -1.1918  -1.1552  -1.1239
    -1.0562  -0.9716  -0.9623  -0.8511  -0.7668  -0.6342  -0.5808  -0.5234
    -0.4928  -0.4264  -0.3851  -0.3366  -0.3011  -0.2945  -0.2485  -0.1607
    -0.1479  -0.0902  -0.0716   0.0131   0.0598   0.0647   0.0760   0.2525
     0.2627   0.2806   0.3832   0.4646   0.5032   0.5198   0.5775   0.6398
     0.6421   0.6805   0.7029   0.7332   0.8159   0.9197   0.9446   0.9828
     0.9974   1.0227   1.0398   1.0672   1.1062   1.1873   1.1933   1.2706
     1.3639   1.3744   1.6370   1.6693   2.0001   2.0268   2.0895   2.2752
     2.6639   2.7114   4.1475   4.2095   4.2547   4.2803   4.2986   4.3796
     4.3988   4.6154   4.6417   4.6427   4.6520

[...]

          k = 0.0380-0.0419 0.0000 ( 17876 PWs)   bands (ev):

[...]

          k =-0.0760-0.0000 0.0000 ( 17886 PWs)   bands (ev):

[...]

          k =-0.0760-0.0839 0.0000 ( 17948 PWs)   bands (ev):

   -54.9427 -54.9268 -54.9007 -54.9006 -54.8419 -54.8247 -54.8037 -54.7551
   -54.7470 -54.7415 -54.7326 -54.7293 -54.7246 -54.6628 -53.9160 -53.9158
   -31.3353 -31.3239 -31.2580 -31.2230 -31.2229 -31.2169 -31.1930 -31.1930
   -31.1678 -31.1658 -31.1567 -31.1530 -31.1450 -31.0949 -31.0812 -31.0807
   -31.0763 -31.0751 -31.0719 -31.0692 -31.0418 -31.0321 -31.0297 -31.0232
   -31.0223 -31.0201 -31.0200 -31.0191 -30.9983 -30.9806 -30.9745 -30.9678
   -30.9613 -30.9557 -30.9544 -30.9501 -30.9496 -30.9229 -30.9160 -30.9129
   -30.9081 -30.8980 -30.2398 -30.2396 -30.1544 -30.1542 -30.1149 -30.1148
   -18.9573 -18.2090 -15.2805 -15.1536 -15.0545 -14.9988 -14.9522 -14.9367
   -14.9190 -14.8657 -14.8354 -14.7758 -14.7523 -14.7041 -14.6595 -14.6555
   -14.6280 -14.5485 -14.5332 -14.5208 -14.5133 -14.4623 -14.4483 -14.4255
   -14.4028 -14.3988 -14.3805 -14.3079 -14.2980 -14.2939 -14.2543 -13.2096
   -12.4202 -12.4200 -10.9895  -7.5965  -6.3888  -5.9721  -5.7559  -3.9899
    -3.8430  -2.5620  -2.5404  -2.4054  -2.3903  -2.2800  -2.1879  -2.1375
    -2.1318  -1.9929  -1.9600  -1.9442  -1.9290  -1.9165  -1.8679  -1.8445
    -1.8086  -1.7910  -1.7815  -1.7717  -1.7560  -1.7356  -1.6838  -1.6792
    -1.6689  -1.6544  -1.6104  -1.5947  -1.5637  -1.5528  -1.5246  -1.5020
    -1.4350  -1.3407  -1.2932  -1.2502  -1.1951  -1.1428  -1.1368  -1.0583
    -1.0402  -1.0084  -0.9776  -0.9525  -0.8571  -0.7836  -0.6889  -0.6863
    -0.6831  -0.5635  -0.5234  -0.5054  -0.4931  -0.4629  -0.3787  -0.3676
    -0.3088  -0.2344  -0.2084  -0.2030  -0.1771  -0.0579  -0.0333   0.0273
     0.0577   0.0904   0.0926   0.1721   0.1846   0.2435   0.2585   0.2719
     0.3168   0.3343   0.4327   0.5227   0.5585   0.6613   0.7542   0.7834
     0.8787   0.9364   1.0416   1.0623   1.0852   1.1822   1.1904   1.2251
     1.3540   1.3609   1.4767   1.5165   1.5264   1.5290   2.4476   2.4490
     2.5314   2.5315   4.2740   4.3968   4.4123   4.4585   4.5128   4.6541
     4.6777   4.7247   4.7265   4.8016   4.8101

     the Fermi energy is     4.1997 ev

!    total energy              =   -2977.68493016 Ry
     estimated scf accuracy    <       0.00000005 Ry
     smearing contrib. (-TS)   =      -0.03700618 Ry
     internal energy E=F+TS    =   -2977.64792398 Ry

     The total energy is F=E-TS. E is the sum of the following terms:
     one-electron contribution =  -23305.73361740 Ry
     hartree contribution      =   11753.85953537 Ry
     xc contribution           =    -496.60898962 Ry
     ewald contribution        =    9070.83025879 Ry
     electric field correction =       0.00488888 Ry

     convergence has been achieved in  69 iterations

     Forces acting on atoms (cartesian axes, Ry/au):

     atom    1 type  1   force =     0.00007918   -0.00025478    0.09414289
     atom    2 type  1   force =    -0.00008573   -0.00045369   -0.17746885
     atom    3 type  2   force =     0.00006170   -0.00032342   -0.02122098
     atom    4 type  2   force =     0.00003694   -0.00178770    0.05730077
     atom    5 type  2   force =    -0.01079858   -0.00102133    0.00668842
     atom    6 type  2   force =     0.01199844   -0.00033583    0.00504079
     atom    7 type  1   force =    -0.00060228    0.00105652   -0.01462024
     atom    8 type  1   force =     0.00086153    0.00330895    0.00459943
     atom    9 type  2   force =     0.00000874   -0.00005093    0.00014461
     atom   10 type  2   force =    -0.00368376    0.00211585   -0.00163858
     atom   11 type  2   force =    -0.00018052    0.00061966   -0.00009320
     atom   12 type  2   force =     0.00019884    0.00028673   -0.00020993
     atom   13 type  1   force =    -0.00019880   -0.00027194    0.00010862
     atom   14 type  1   force =     0.00025057   -0.00021495   -0.00039200
     atom   15 type  2   force =     0.00020083    0.00041859   -0.00013239
     atom   16 type  2   force =    -0.00011766    0.00024628   -0.00020085
     atom   17 type  2   force =    -0.00014905   -0.00029703    0.00026067
     atom   18 type  2   force =     0.00016696    0.00005736    0.00001378
     atom   19 type  1   force =    -0.00002562    0.00014971   -0.00041836
     atom   20 type  1   force =     0.00024603    0.00000692    0.00017858
     atom   21 type  2   force =     0.00011791   -0.00007789    0.10372172
     atom   22 type  2   force =     0.00057576   -0.00042500   -0.00071205
     atom   23 type  2   force =    -0.07066139   -0.00015344   -0.02713140
     atom   24 type  2   force =     0.07062772    0.00032174   -0.02713864
     atom   25 type  1   force =     0.00010626   -0.00016253    0.09375988
     atom   26 type  1   force =    -0.00006490   -0.00052988   -0.17769543
     atom   27 type  2   force =     0.00006795   -0.00005353   -0.02031923
     atom   28 type  2   force =     0.00006645   -0.00145931    0.05630147
     atom   29 type  2   force =    -0.01130794   -0.00039902    0.00737175
     atom   30 type  2   force =     0.01242275   -0.00000403    0.00576288
     atom   31 type  1   force =    -0.00074504    0.00574509   -0.01565918
     atom   32 type  1   force =     0.00081260   -0.00458475    0.00433804
     atom   33 type  2   force =     0.00002450    0.00015312    0.00029616
     atom   34 type  2   force =    -0.00321207   -0.00103313   -0.00518836
     atom   35 type  2   force =    -0.00012156   -0.00039488    0.00008433
     atom   36 type  2   force =     0.00021979   -0.00006497   -0.00009180
     atom   37 type  1   force =    -0.00013333    0.00043756   -0.00011700
     atom   38 type  1   force =     0.00008707    0.00015043   -0.00014199
     atom   39 type  2   force =    -0.00045832   -0.00032131   -0.00018112
     atom   40 type  2   force =     0.00013031   -0.00007336    0.00027841
     atom   41 type  2   force =     0.00001587    0.00018046   -0.00006764
     atom   42 type  2   force =     0.00052409    0.00012341   -0.00030984
     atom   43 type  1   force =    -0.00016929    0.00004922   -0.00008100
     atom   44 type  1   force =     0.00055398    0.00038812    0.00027695
     atom   45 type  2   force =     0.00010511   -0.00006325    0.10369823
     atom   46 type  2   force =    -0.07065589   -0.00006672   -0.02711163
     atom   47 type  2   force =     0.07063105    0.00033550   -0.02713089
     atom   48 type  3   force =    -0.00030241   -0.00057789    0.00126485
     atom   49 type  3   force =     0.00178072    0.00048675   -0.00111991
     atom   50 type  4   force =     0.00037342    0.00037686   -0.00025193
     atom   51 type  5   force =     0.00064093    0.00078026   -0.00030082
     atom   52 type  5   force =    -0.00010506    0.00034292    0.00020342
     atom   53 type  5   force =     0.00014674   -0.00053928   -0.00050730
     atom   54 type  5   force =     0.00036081   -0.00015244    0.00024501
     atom   55 type  5   force =    -0.00071736   -0.00165734    0.00122446
     atom   56 type  5   force =     0.00009005   -0.00012177    0.00027459
     atom   57 type  2   force =    -0.00080752    0.00068490    0.00148124
     atom   58 type  5   force =     0.00034374   -0.00053728   -0.00105384
     atom   59 type  5   force =     0.00036874   -0.00035835   -0.00035558

     Total force =     0.365810     Total SCF correction =     0.000897
  @ DRIVER MODE: Message from server: STATUS
  @ DRIVER MODE: Message from server: GETFORCE
  @ DRIVER MODE: Returning v,forces,stress,ensemble

     Writing output data file ./calc.save/
  @ DRIVER MODE: Message from server: EXIT
  @ DRIVE MODE: Exiting

     General routines

     Parallel routines

   This run was terminated on:   8:31:10  16Sep2021

   JOB DONE.