     Program PWSCF v.6.7GPU starts on 19Oct2021 at  7:15: 9

     R & G space division:  proc/nbgrp/npool/nimage =       8
     Reading input from /storage/home/hcoda1/3/ntian30/research/carbon/CxH_vib/Thiel_calc/ads_slab/NH2NH3H_perslab/out_0041/pw.inp
Warning: card &CELL ignored
Warning: card   CELL_DYNAMICS='IPI', ignored
Warning: card / ignored

     Current dimensions of program PWSCF are:
     Max number of different atomic species (ntypx) = 10
     Max number of k-points (npk) =  40000
     Max angular momentum in pseudopotentials (lmaxx) =  3
     Presently no symmetry can be used with electric field

     Message from routine cell_base_init:
     DEPRECATED: use true lattice parameter, not A to a.u. conversion factor

     IMPORTANT: XC functional enforced from input :
     Exchange-correlation= BEEF-VDW
                           (   1   4  43  14   2   0   0)
     Any further DFT definition will be discarded
     Please, verify this is what you really want

  @ DRIVER MODE: Connecting to
 qe_1139763_3255138.sched-torque.pace.gatech.edu__zhkdtr_scratch
  using UNIX socket
  @ DRIVER MODE: Message from server: STATUS
  @ DRIVER MODE: Message from server: INIT
  @ DRIVER MODE: Receiving replica           0          -1
  @ DRIVER MODE: Receiving encoded integer          25
  @ DRIVER MODE:  SCF:  T  FORCE:  T  STRESS:  F  VC:  F  ENSEMBLE:  F
  @ DRIVER MODE:  SCF:  T  FORCE:  T  STRESS:  F  VC:  F  ENSEMBLE:  F

     Using Slab Decomposition

     bravais-lattice index     =            0
     lattice parameter (alat)  =       1.8897  a.u.
     unit-cell volume          =    9988.4706 (a.u.)^3
     number of atoms/cell      =           61
     number of atomic types    =            4
     number of electrons       =       442.00
     number of Kohn-Sham states=          231
     kinetic-energy cutoff     =      29.3995  Ry
     charge density cutoff     =     293.9946  Ry
     scf convergence threshold =      7.3E-08
     mixing beta               =       0.0500
     number of iterations used =            8  plain     mixing
     Exchange-correlation= BEEF-VDW
                           (   1   4  43  14   2   0   0)

     celldm(1)=   1.889726  celldm(2)=   0.000000  celldm(3)=   0.000000
     celldm(4)=   0.000000  celldm(5)=   0.000000  celldm(6)=   0.000000

     crystal axes: (cart. coord. in units of alat)
               a(1) = (   6.579727   0.000000   0.000000 )
               a(2) = (  -0.001163   8.942395   0.000000 )
               a(3) = (   0.000000   0.000000  25.155947 )

     reciprocal axes: (cart. coord. in units 2 pi/alat)
               b(1) = (  0.151982  0.000020  0.000000 )
               b(2) = (  0.000000  0.111827  0.000000 )
               b(3) = (  0.000000  0.000000  0.039752 )

     PseudoPot. # 1 for O  read from file:
     /storage/coda1/p-amedford6/0/shared/rich_project_chbe-medford/medford-share/data/pseudos_module/espresso/nninc/pbe/van/O.UPF
     MD5 check sum: 78c19812648e8988a0fe644b0f25305e
     Pseudo is Ultrasoft, Zval =  6.0
     Generated by new atomic code, or converted to UPF format
     Using radial grid of  737 points,  4 beta functions with:
                l(1) =   0
                l(2) =   0
                l(3) =   1
                l(4) =   1
     Q(r) pseudized with  8 coefficients,  rinner =    0.800   0.800   0.800

     PseudoPot. # 2 for Ti read from file:
     /storage/coda1/p-amedford6/0/shared/rich_project_chbe-medford/medford-share/data/pseudos_module/espresso/nninc/pbe/van/Ti.UPF
     MD5 check sum: 8e4df49b7f0d34bbd5052bf3f5ea0213
     Pseudo is Ultrasoft, Zval = 12.0
     Generated by new atomic code, or converted to UPF format
     Using radial grid of  851 points,  6 beta functions with:
                l(1) =   0
                l(2) =   0
                l(3) =   1
                l(4) =   1
                l(5) =   2
                l(6) =   2
     Q(r) pseudized with  8 coefficients,  rinner =    1.000   1.000   1.000
                                                       1.000   1.000

     PseudoPot. # 3 for N  read from file:
     /storage/coda1/p-amedford6/0/shared/rich_project_chbe-medford/medford-share/data/pseudos_module/espresso/nninc/pbe/van/N.UPF
     MD5 check sum: 90d10febe142ad51ac9d5be1deb811c4
     Pseudo is Ultrasoft, Zval =  5.0
     Generated by new atomic code, or converted to UPF format
     Using radial grid of  729 points,  4 beta functions with:
                l(1) =   0
                l(2) =   0
                l(3) =   1
                l(4) =   1
     Q(r) pseudized with  8 coefficients,  rinner =    0.800   0.800   0.800

     PseudoPot. # 4 for H  read from file:
     /storage/coda1/p-amedford6/0/shared/rich_project_chbe-medford/medford-share/data/pseudos_module/espresso/nninc/pbe/van/H.UPF
     MD5 check sum: b5ee9d7bfd3a09ee7748110bda690ff7
     Pseudo is Ultrasoft, Zval =  1.0
     Generated by new atomic code, or converted to UPF format
     Using radial grid of  615 points,  1 beta functions with:
                l(1) =   0
     Q(r) pseudized with  8 coefficients,  rinner =    0.800

     atomic species   valence    mass     pseudopotential
        O1             6.00    15.99900     O ( 1.00)
        Ti1           12.00    47.86700     Ti( 1.00)
        N1             5.00    14.00700     N ( 1.00)
        H1             1.00     1.00800     H ( 1.00)

     No symmetry found

   Cartesian axes

     site n.     atom                  positions (alat units)
         1           O1  tau(   1) = (   0.0007354   0.0005023  10.5931620  )
         2           O1  tau(   2) = (   3.2893251   8.9324977  13.8850595  )
         3           O1  tau(   3) = (   0.0000810   0.0519898  17.3357851  )
         4           O1  tau(   4) = (   0.0006271   0.0005054   7.9858123  )
         5           O1  tau(   5) = (   3.2891750   8.9291278  11.1853435  )
         6           O1  tau(   6) = (   0.0004222   0.0485762  14.6167438  )
         7           O1  tau(   7) = (   1.9868534   1.4903216   9.2879459  )
         8           O1  tau(   8) = (   5.2393499   1.5905449  12.5682489  )
         9           O1  tau(   9) = (   1.9991366   1.5492019  16.1124644  )
        10           Ti1 tau(  10) = (   0.0007404   1.4906270   9.2895810  )
        11           Ti1 tau(  11) = (   3.2902999   1.3249318  12.4520864  )
        12           Ti1 tau(  12) = (   0.0005939   1.3452645  15.7597600  )
        13           O1  tau(  13) = (   4.5942328   1.4918067   9.2879030  )
        14           O1  tau(  14) = (   1.3411764   1.5910169  12.5684512  )
        15           O1  tau(  15) = (   4.5798538   1.5480364  16.1129854  )
        16           Ti1 tau(  16) = (   3.2902859   2.9801868   9.2893338  )
        17           Ti1 tau(  17) = (   0.0006295   2.8174385  12.4372122  )
        18           Ti1 tau(  18) = (   3.2897038   2.9127836  15.6935398  )
        19           O1  tau(  19) = (   0.0003479   2.9813005  10.5931620  )
        20           O1  tau(  20) = (   3.2904107   2.9319293  13.8952334  )
        21           O1  tau(  21) = (   0.0002396   2.9813036   7.9858123  )
        22           O1  tau(  22) = (   3.2903884   2.9732875  11.2024877  )
        23           O1  tau(  23) = (   6.5791771   2.9400465  14.7470945  )
        24           O1  tau(  24) = (   1.9864658   4.4711199   9.2879459  )
        25           O1  tau(  25) = (   5.2507180   4.5586503  12.6053682  )
        26           O1  tau(  26) = (   1.9989508   4.4013585  16.0758979  )
        27           Ti1 tau(  27) = (   0.0003529   4.4714252   9.2895810  )
        28           Ti1 tau(  28) = (   3.2908498   4.3294621  12.5515864  )
        29           Ti1 tau(  29) = (   0.0012874   4.5361023  15.7587160  )
        30           O1  tau(  30) = (   4.5938453   4.4726049   9.2879030  )
        31           O1  tau(  31) = (   1.3295807   4.5581274  12.6051842  )
        32           O1  tau(  32) = (   4.5807093   4.4011557  16.0767203  )
        33           Ti1 tau(  33) = (   3.2898983   5.9609850   9.2893338  )
        34           Ti1 tau(  34) = (   0.0011720   5.8030845  12.4395124  )
        35           Ti1 tau(  35) = (   3.2913837   5.8399099  16.1904745  )
        36           O1  tau(  36) = (  -0.0000397   5.9620987  10.5931620  )
        37           O1  tau(  37) = (   3.2897076   5.9457256  13.9643012  )
        38           O1  tau(  38) = (   0.0001823   5.8979554  17.1998916  )
        39           O1  tau(  39) = (  -0.0001480   5.9621018   7.9858123  )
        40           O1  tau(  40) = (   3.2897623   5.9362706  11.2341171  )
        41           O1  tau(  41) = (   0.0004469   5.9800359  14.6665197  )
        42           O1  tau(  42) = (   1.9860782   7.4519181   9.2879459  )
        43           O1  tau(  43) = (   5.2507221   7.5245448  12.5933772  )
        44           O1  tau(  44) = (   1.9799843   7.5745874  16.0532815  )
        45           Ti1 tau(  45) = (  -0.0000347   7.4522234   9.2895810  )
        46           Ti1 tau(  46) = (   3.2894177   7.1911746  12.6495270  )
        47           Ti1 tau(  47) = (   0.0007314   7.2822180  16.1322395  )
        48           O1  tau(  48) = (   4.5934577   7.4534031   9.2879030  )
        49           O1  tau(  49) = (   1.3275845   7.5244469  12.5935105  )
        50           O1  tau(  50) = (   4.5990354   7.5728923  16.0522427  )
        51           Ti1 tau(  51) = (   3.2895107   8.9417832   9.2893338  )
        52           Ti1 tau(  52) = (  -0.0007012   8.7603021  12.4499776  )
        53           Ti1 tau(  53) = (   3.2901857   8.8509785  15.6953962  )
        54           N1  tau(  54) = (   3.2899770   5.9827455  18.1265562  )
        55           H1  tau(  55) = (   3.2886311   5.2071789  18.7771882  )
        56           H1  tau(  56) = (   3.2869209   6.8541504  18.6418389  )
        57           H1  tau(  57) = (   6.5771076   8.8877891  18.2917622  )
        58           N1  tau(  58) = (   6.5788838   3.2021548  17.9140464  )
        59           H1  tau(  59) = (   6.5785461   2.2502248  18.2648563  )
        60           H1  tau(  60) = (   5.7591345   3.6762813  18.2692932  )
        61           H1  tau(  61) = (   0.8178175   3.6764091  18.2810048  )

     number of k points=    10  Fermi-Dirac smearing, width (Ry)=  0.0073
                       cart. coord. in units 2pi/alat
        k(    1) = (   0.0000000   0.0000000   0.0000000), wk =   0.1250000
        k(    2) = (   0.0000000   0.0279567   0.0000000), wk =   0.2500000
        k(    3) = (   0.0000000  -0.0559134   0.0000000), wk =   0.1250000
        k(    4) = (   0.0379955   0.0000049   0.0000000), wk =   0.2500000
        k(    5) = (   0.0379955   0.0279617   0.0000000), wk =   0.2500000
        k(    6) = (   0.0379955  -0.0559085   0.0000000), wk =   0.2500000
        k(    7) = (   0.0379955  -0.0279518   0.0000000), wk =   0.2500000
        k(    8) = (  -0.0759910  -0.0000099   0.0000000), wk =   0.1250000
        k(    9) = (  -0.0759910   0.0279468   0.0000000), wk =   0.2500000
        k(   10) = (  -0.0759910  -0.0559233   0.0000000), wk =   0.1250000

     Initial potential from superposition of free atoms

     starting charge  423.99908, renormalised to  442.00000

     negative rho (up, down):  3.661E-02 0.000E+00

     %%%%%%%%%%%%%%%%%%%%%%%%%%%%%%%%%%%%%%%%%%%%%%%%%%%%%%%%%%%%%%%%%%%%%%%%
     %                                                                      %
     % You are using vdW-DF, which was implemented by the Thonhauser group. %
     % Please cite the following two papers that made this development      %
     % possible and the two reviews that describe the various versions:     %
     %                                                                      %
     %   T. Thonhauser et al., PRL 115, 136402 (2015).                      %
     %   T. Thonhauser et al., PRB 76, 125112 (2007).                       %
     %   K. Berland et al., Rep. Prog. Phys. 78, 066501 (2015).             %
     %   D.C. Langreth et al., J. Phys.: Condens. Matter 21, 084203 (2009). %
     %                                                                      %
     %                                                                      %
     % If you are calculating the stress with vdW-DF, please also cite:     %
     %                                                                      %
     %   R. Sabatini et al., J. Phys.: Condens. Matter 24, 424209 (2012).   %
     %                                                                      %
     %%%%%%%%%%%%%%%%%%%%%%%%%%%%%%%%%%%%%%%%%%%%%%%%%%%%%%%%%%%%%%%%%%%%%%%%

     Adding external electric field

     Computed dipole along edir(3) :
        Dipole               -6.2835 Ry au,        -15.9711 Debye
        Dipole field         -0.0079 Ry au,

        Potential amp.        0.7328 Ry
        Total length         46.3494 bohr

     Starting wfcs are  334 atomic wfcs
  @ DRIVER MODE: Message from server: STATUS
  @ DRIVER MODE: Message from server: POSDATA
  @ DRIVER MODE: Reading and sharing cell
  @ DRIVER MODE: Reading and sharing positions
  @ DRIVER MODE: Received positions

     Self-consistent Calculation

     iteration #  1     ecut=    29.40 Ry     beta= 0.05
     Davidson diagonalization with overlap
     c_bands:  2 eigenvalues not converged
     c_bands:  4 eigenvalues not converged
     c_bands:  3 eigenvalues not converged
     c_bands:  4 eigenvalues not converged
     c_bands:  5 eigenvalues not converged
     c_bands:  3 eigenvalues not converged
     c_bands:  2 eigenvalues not converged
     c_bands:  2 eigenvalues not converged
     ethr =  1.00E-05,  avg # of iterations = 21.5

[...]

     total energy              =   -3276.11647205 Ry
     estimated scf accuracy    <     260.16770270 Ry

     iteration #  2     ecut=    29.40 Ry     beta= 0.05
     Davidson diagonalization with overlap
     ethr =  1.00E-02,  avg # of iterations = 15.4

[...]

     iteration # 46     ecut=    29.40 Ry     beta= 0.05
     Davidson diagonalization with overlap
     c_bands:  1 eigenvalues not converged
     c_bands:  1 eigenvalues not converged
     ethr =  2.24E-10,  avg # of iterations = 14.7

[...]

     total energy              =   -3295.82441819 Ry
     estimated scf accuracy    <       0.00000017 Ry

     iteration # 53     ecut=    29.40 Ry     beta= 0.05
     Davidson diagonalization with overlap
     ethr =  3.36E-11,  avg # of iterations =  7.2

     negative rho (up, down):  3.546E-02 0.000E+00

     Adding external electric field

     Computed dipole along edir(3) :
        Dipole                1.9301 Ry au,          4.9058 Debye
        Dipole field          0.0024 Ry au,

        Potential amp.       -0.2251 Ry
        Total length         46.3494 bohr

     End of self-consistent calculation

          k = 0.0000 0.0000 0.0000 ( 26871 PWs)   bands (ev):

   -57.4699 -57.4346 -57.4219 -57.3824 -57.3732 -57.3652 -57.3544 -57.3433
   -57.3226 -57.2845 -57.2777 -57.2409 -57.2195 -57.2028 -57.1834 -56.5432
   -56.5189 -56.5128 -33.9406 -33.8539 -33.8531 -33.8309 -33.8108 -33.7934
   -33.7756 -33.7717 -33.7679 -33.7546 -33.7293 -33.7083 -33.7033 -33.6887
   -33.6868 -33.6824 -33.6616 -33.6527 -33.6313 -33.6257 -33.5942 -33.5795
   -33.5621 -33.5577 -33.5502 -33.5493 -33.5457 -33.5384 -33.5262 -33.5229
   -33.5162 -33.5019 -33.4934 -33.4924 -33.4856 -33.4841 -33.4755 -33.4734
   -33.4654 -33.4545 -33.4427 -33.4258 -33.4102 -33.4037 -33.3890 -32.8619
   -32.8537 -32.8527 -32.8360 -32.8306 -32.7712 -32.7100 -32.7026 -32.5710
   -19.3439 -18.2739 -17.9753 -17.7772 -17.7270 -17.6935 -17.5817 -17.5496
   -17.4967 -17.4433 -17.4067 -17.3635 -17.2889 -17.2485 -17.2473 -17.2226
   -17.1685 -17.1447 -17.1366 -17.1265 -17.1246 -17.0999 -17.0504 -17.0467
   -16.9901 -16.9486 -16.9171 -16.9068 -16.8981 -16.8657 -16.8581 -16.8050
   -16.6064 -15.0257 -15.0093 -14.9504 -14.9469  -7.8733  -7.6508  -7.3908
    -6.4615  -5.5824  -5.4307  -5.3995  -5.2357  -4.9643  -4.9125  -4.8692
    -4.8229  -4.7854  -4.7470  -4.7241  -4.6951  -4.6636  -4.6114  -4.5810
    -4.5646  -4.5311  -4.5113  -4.4801  -4.4502  -4.4451  -4.4154  -4.3266
    -4.3171  -4.2936  -4.2760  -4.2398  -4.2221  -4.2195  -4.1703  -4.1590
    -4.0698  -3.9835  -3.8976  -3.8452  -3.8186  -3.7954  -3.7479  -3.7106
    -3.6814  -3.6371  -3.6169  -3.5480  -3.5202  -3.5099  -3.4337  -3.3990
    -3.3033  -3.2652  -3.2540  -3.2332  -3.1908  -3.1790  -3.0920  -3.0839
    -2.9742  -2.9557  -2.8636  -2.7922  -2.7428  -2.7150  -2.6769  -2.6153
    -2.5957  -2.5496  -2.5220  -2.4618  -2.4476  -2.3216  -2.2542  -2.2507
    -2.2305  -2.1922  -2.1627  -2.1488  -2.1262  -2.1233  -2.0447  -2.0359
    -1.9861  -1.9110  -1.8853  -1.8485  -1.8358  -1.8004  -1.7582  -1.6935
    -1.6881  -1.6524  -1.5648  -1.5037  -1.5027  -1.3565  -1.3505  -1.3169
    -1.2686  -1.2149  -1.1844  -0.7819  -0.6062  -0.4363  -0.3106  -0.2500
    -0.2486   0.0261   0.0311   0.1635   1.6125   1.7635   1.8240   1.9579
     1.9763   2.0355   2.1171   2.1393   2.2060   2.2336   2.2430

[...]

          k = 0.0380-0.0280 0.0000 ( 26873 PWs)   bands (ev):

[...]

          k =-0.0760-0.0000 0.0000 ( 26902 PWs)   bands (ev):

[...]

          k =-0.0760-0.0559 0.0000 ( 26868 PWs)   bands (ev):

   -57.4682 -57.4393 -57.4189 -57.3799 -57.3690 -57.3671 -57.3629 -57.3399
   -57.3221 -57.2842 -57.2780 -57.2372 -57.2261 -57.1999 -57.1833 -56.5380
   -56.5298 -56.5071 -33.9854 -33.9366 -33.8646 -33.8202 -33.8042 -33.7920
   -33.7854 -33.7774 -33.7670 -33.7455 -33.7166 -33.6983 -33.6608 -33.6588
   -33.6391 -33.6256 -33.6109 -33.5972 -33.5961 -33.5916 -33.5872 -33.5775
   -33.5737 -33.5667 -33.5648 -33.5519 -33.5442 -33.5294 -33.5234 -33.5217
   -33.5170 -33.5165 -33.5126 -33.5096 -33.5075 -33.4960 -33.4897 -33.4860
   -33.4830 -33.4758 -33.4483 -33.4423 -33.4369 -33.4249 -33.4009 -32.9493
   -32.8545 -32.8464 -32.8247 -32.7539 -32.7453 -32.6848 -32.6718 -32.6641
   -19.3373 -17.9711 -17.8324 -17.8282 -17.6507 -17.6056 -17.6016 -17.5317
   -17.4860 -17.4413 -17.4358 -17.4046 -17.3558 -17.3315 -17.3020 -17.2763
   -17.2606 -17.2254 -17.1841 -17.1831 -17.1494 -17.1162 -17.0896 -17.0474
   -17.0409 -16.9864 -16.9227 -16.8852 -16.8605 -16.8583 -16.8220 -16.7966
   -16.6395 -15.0263 -15.0072 -15.0029 -14.8870  -7.8813  -7.6684  -7.3800
    -6.4531  -5.2168  -5.1791  -5.1338  -5.0406  -5.0026  -4.9711  -4.8350
    -4.7749  -4.7330  -4.6883  -4.6453  -4.6377  -4.6234  -4.5677  -4.5504
    -4.5349  -4.4886  -4.4479  -4.4276  -4.4049  -4.4032  -4.3996  -4.3967
    -4.2646  -4.2514  -4.2003  -4.1798  -4.1575  -4.1346  -4.1313  -4.0778
    -4.0358  -3.9947  -3.9826  -3.9568  -3.8945  -3.8371  -3.7565  -3.6592
    -3.6482  -3.5913  -3.5813  -3.4882  -3.4833  -3.3885  -3.3268  -3.2818
    -3.2534  -3.2285  -3.1520  -3.1470  -3.1379  -3.0877  -3.0533  -3.0250
    -2.9771  -2.9667  -2.9219  -2.8187  -2.7838  -2.7254  -2.6988  -2.6939
    -2.6378  -2.6334  -2.5966  -2.5949  -2.5883  -2.5434  -2.4885  -2.4538
    -2.4378  -2.4060  -2.3173  -2.2931  -2.2402  -2.2324  -2.1668  -2.1496
    -2.1381  -2.0743  -2.0225  -1.9915  -1.9832  -1.9096  -1.8060  -1.7478
    -1.7258  -1.7045  -1.5986  -1.5499  -1.4944  -1.4516  -1.2693  -1.2571
    -1.1845  -1.1449  -1.0921  -1.0433  -0.8564  -0.4578  -0.4058  -0.1884
    -0.1730  -0.1356   0.0308   0.0365   1.7050   1.7167   1.8141   1.8556
     1.9174   1.9282   1.9725   1.9896   1.9996   2.0456   2.0511

     the Fermi energy is     1.6440 ev

!    total energy              =   -3295.82449807 Ry
     estimated scf accuracy    <       0.00000006 Ry
     smearing contrib. (-TS)   =      -0.03670495 Ry
     internal energy E=F+TS    =   -3295.78779312 Ry

     The total energy is F=E-TS. E is the sum of the following terms:
     one-electron contribution =  -34290.40419183 Ry
     hartree contribution      =   17214.17475987 Ry
     xc contribution           =    -543.77648244 Ry
     ewald contribution        =   14324.21343453 Ry
     electric field correction =       0.00468676 Ry

     convergence has been achieved in  53 iterations

     Forces acting on atoms (cartesian axes, Ry/au):

     atom    1 type  1   force =     0.00001435    0.00239535    0.05209909
     atom    2 type  1   force =    -0.00004192   -0.00060896   -0.00559281
     atom    3 type  1   force =     0.00003297   -0.00289526   -0.00290976
     atom    4 type  1   force =     0.00005446   -0.00037121    0.10762777
     atom    5 type  1   force =    -0.00002258    0.00172164    0.00528488
     atom    6 type  1   force =     0.00000594   -0.00052728    0.00054630
     atom    7 type  1   force =     0.06435630    0.00076804   -0.03001119
     atom    8 type  1   force =     0.00532222   -0.02657947    0.00243991
     atom    9 type  1   force =     0.00850434   -0.01291088   -0.00079973
     atom   10 type  2   force =    -0.00006346   -0.00537430   -0.18725720
     atom   11 type  2   force =     0.00012258    0.02015374   -0.00480471
     atom   12 type  2   force =    -0.00003959    0.01855931   -0.00048416
     atom   13 type  1   force =    -0.06446112    0.00029259   -0.02997069
     atom   14 type  1   force =    -0.00513827   -0.02678674    0.00246721
     atom   15 type  1   force =    -0.00836813   -0.01276824   -0.00072700
     atom   16 type  2   force =     0.00009509   -0.00105620    0.07213785
     atom   17 type  2   force =    -0.00026627    0.03301583    0.00616973
     atom   18 type  2   force =    -0.00009193    0.00453130   -0.00760899
     atom   19 type  1   force =     0.00001570    0.00395154    0.05307603
     atom   20 type  1   force =    -0.00003754   -0.00054699   -0.00171259
     atom   21 type  1   force =     0.00005428    0.00130116    0.10848054
     atom   22 type  1   force =    -0.00002564   -0.00118900    0.00630341
     atom   23 type  1   force =     0.00001303   -0.00516582    0.00190431
     atom   24 type  1   force =     0.06587063    0.00139381   -0.02847508
     atom   25 type  1   force =     0.00546922   -0.02924229    0.00262289
     atom   26 type  1   force =     0.00981229   -0.00190319   -0.00024526
     atom   27 type  2   force =    -0.00006852   -0.00076404   -0.19122158
     atom   28 type  2   force =     0.00014630    0.02480597   -0.00470684
     atom   29 type  2   force =     0.00011688   -0.00423069    0.00907955
     atom   30 type  1   force =    -0.06597475    0.00095531   -0.02844551
     atom   31 type  1   force =    -0.00532061   -0.02936384    0.00266030
     atom   32 type  1   force =    -0.00956239   -0.00200918   -0.00011030
     atom   33 type  2   force =     0.00013616    0.00069614    0.08052311
     atom   34 type  2   force =    -0.00029030    0.03538020    0.00619890
     atom   35 type  2   force =    -0.00003110    0.01553740    0.00201747
     atom   36 type  1   force =     0.00006628    0.00027242    0.05319775
     atom   37 type  1   force =    -0.00002902    0.00175843   -0.00890521
     atom   38 type  1   force =    -0.00001737    0.00128869   -0.00014340
     atom   39 type  1   force =     0.00005448   -0.00117064    0.10819773
     atom   40 type  1   force =    -0.00003411   -0.00138435    0.00603140
     atom   41 type  1   force =     0.00001482    0.00391185    0.00144006
     atom   42 type  1   force =     0.06612951   -0.00348755   -0.02906785
     atom   43 type  1   force =     0.00366413   -0.02410218    0.00084907
     atom   44 type  1   force =     0.01423171   -0.01862673    0.00310421
     atom   45 type  2   force =    -0.00009597    0.00311353   -0.18715491
     atom   46 type  2   force =     0.00013617    0.01623654    0.00221591
     atom   47 type  2   force =    -0.00007140    0.01863209   -0.00293099
     atom   48 type  1   force =    -0.06622838   -0.00392418   -0.02902573
     atom   49 type  1   force =    -0.00341473   -0.02429352    0.00086283
     atom   50 type  1   force =    -0.01421672   -0.01857180    0.00310556
     atom   51 type  2   force =     0.00012913   -0.00295186    0.07345653
     atom   52 type  2   force =    -0.00027729    0.03103637    0.00786069
     atom   53 type  2   force =    -0.00001113    0.02029093    0.00049398
     atom   54 type  3   force =    -0.00000123   -0.00078900   -0.00286535
     atom   55 type  4   force =     0.00000910   -0.00038339    0.00067489
     atom   56 type  4   force =    -0.00003275    0.00034542   -0.00028225
     atom   57 type  4   force =    -0.00005935   -0.00019491   -0.00003693
     atom   58 type  3   force =     0.00481258   -0.00274277   -0.00269471
     atom   59 type  4   force =    -0.00049186    0.00058750    0.00050821
     atom   60 type  4   force =    -0.00418739    0.00300941    0.00358700
     atom   61 type  4   force =    -0.00041785    0.00097397    0.00096568

     Total force =     0.459438     Total SCF correction =     0.000754
  @ DRIVER MODE: Message from server: STATUS
  @ DRIVER MODE: Message from server: GETFORCE
  @ DRIVER MODE: Returning v,forces,stress,ensemble

     Writing output data file ./calc.save/
  @ DRIVER MODE: Message from server: EXIT
  @ DRIVE MODE: Exiting

     General routines

     Parallel routines

   This run was terminated on:   7:43:30  19Oct2021

   JOB DONE.