     Program PWSCF v.6.7GPU starts on 23Aug2021 at 12:42:21

     R & G space division:  proc/nbgrp/npool/nimage =       6
     Reading input from /storage/home/hcoda1/3/ntian30/research/carbon/CH2_vib/ads_slab/CH2N2H_a/out_0000/pw.inp
Warning: card &CELL ignored
Warning: card   CELL_DYNAMICS='IPI', ignored
Warning: card / ignored

     Current dimensions of program PWSCF are:
     Max number of different atomic species (ntypx) = 10
     Max number of k-points (npk) =  40000
     Max angular momentum in pseudopotentials (lmaxx) =  3
     Presently no symmetry can be used with electric field

     Message from routine cell_base_init:
     DEPRECATED: use true lattice parameter, not A to a.u. conversion factor

     IMPORTANT: XC functional enforced from input :
     Exchange-correlation= BEEF-VDW
                           (   1   4  43  14   2   0   0)
     Any further DFT definition will be discarded
     Please, verify this is what you really want

  @ DRIVER MODE: Connecting to
 qe_1139763_2632802.sched-torque.pace.gatech.eduk8qakjmq_scratch
  using UNIX socket
  @ DRIVER MODE: Message from server: STATUS
  @ DRIVER MODE: Message from server: INIT
  @ DRIVER MODE: Receiving replica           0          -1
  @ DRIVER MODE: Receiving encoded integer          25
  @ DRIVER MODE:  SCF:  T  FORCE:  T  STRESS:  F  VC:  F  ENSEMBLE:  F
  @ DRIVER MODE:  SCF:  T  FORCE:  T  STRESS:  F  VC:  F  ENSEMBLE:  F

     Using Slab Decomposition

     bravais-lattice index     =            0
     lattice parameter (alat)  =       1.8897  a.u.
     unit-cell volume          =    6658.9804 (a.u.)^3
     number of atoms/cell      =           53
     number of atomic types    =            5
     number of electrons       =       395.00
     number of Kohn-Sham states=          207
     kinetic-energy cutoff     =      29.3995  Ry
     charge density cutoff     =     293.9946  Ry
     scf convergence threshold =      7.3E-08
     mixing beta               =       0.0500
     number of iterations used =            8  plain     mixing
     Exchange-correlation= BEEF-VDW
                           (   1   4  43  14   2   0   0)

     celldm(1)=   1.889726  celldm(2)=   0.000000  celldm(3)=   0.000000
     celldm(4)=   0.000000  celldm(5)=   0.000000  celldm(6)=   0.000000

     crystal axes: (cart. coord. in units of alat)
               a(1) = (   6.579727   0.000000   0.000000 )
               a(2) = (  -0.000775   5.961596   0.000000 )
               a(3) = (   0.000000   0.000000  25.155947 )

     reciprocal axes: (cart. coord. in units 2 pi/alat)
               b(1) = (  0.151982  0.000020  0.000000 )
               b(2) = (  0.000000  0.167740  0.000000 )
               b(3) = (  0.000000  0.000000  0.039752 )

     PseudoPot. # 1 for Ti read from file:
     /storage/coda1/p-amedford6/0/shared/rich_project_chbe-medford/medford-share/data/pseudos_module/espresso/nninc/pbe/van/Ti.UPF
     MD5 check sum: 8e4df49b7f0d34bbd5052bf3f5ea0213
     Pseudo is Ultrasoft, Zval = 12.0
     Generated by new atomic code, or converted to UPF format
     Using radial grid of  851 points,  6 beta functions with:
                l(1) =   0
                l(2) =   0
                l(3) =   1
                l(4) =   1
                l(5) =   2
                l(6) =   2
     Q(r) pseudized with  8 coefficients,  rinner =    1.000   1.000   1.000
                                                       1.000   1.000

     PseudoPot. # 2 for O  read from file:
     /storage/coda1/p-amedford6/0/shared/rich_project_chbe-medford/medford-share/data/pseudos_module/espresso/nninc/pbe/van/O.UPF
     MD5 check sum: 78c19812648e8988a0fe644b0f25305e
     Pseudo is Ultrasoft, Zval =  6.0
     Generated by new atomic code, or converted to UPF format
     Using radial grid of  737 points,  4 beta functions with:
                l(1) =   0
                l(2) =   0
                l(3) =   1
                l(4) =   1
     Q(r) pseudized with  8 coefficients,  rinner =    0.800   0.800   0.800

     PseudoPot. # 3 for N  read from file:
     /storage/coda1/p-amedford6/0/shared/rich_project_chbe-medford/medford-share/data/pseudos_module/espresso/nninc/pbe/van/N.UPF
     MD5 check sum: 90d10febe142ad51ac9d5be1deb811c4
     Pseudo is Ultrasoft, Zval =  5.0
     Generated by new atomic code, or converted to UPF format
     Using radial grid of  729 points,  4 beta functions with:
                l(1) =   0
                l(2) =   0
                l(3) =   1
                l(4) =   1
     Q(r) pseudized with  8 coefficients,  rinner =    0.800   0.800   0.800

     PseudoPot. # 4 for C  read from file:
     /storage/coda1/p-amedford6/0/shared/rich_project_chbe-medford/medford-share/data/pseudos_module/espresso/nninc/pbe/van/C.UPF
     MD5 check sum: 1a69bf6b8db32088f5b2163dbdb77a27
     Pseudo is Ultrasoft, Zval =  4.0
     Generated by new atomic code, or converted to UPF format
     Using radial grid of  721 points,  4 beta functions with:
                l(1) =   0
                l(2) =   0
                l(3) =   1
                l(4) =   1
     Q(r) pseudized with  8 coefficients,  rinner =    0.800   0.800   0.800

     PseudoPot. # 5 for H  read from file:
     /storage/coda1/p-amedford6/0/shared/rich_project_chbe-medford/medford-share/data/pseudos_module/espresso/nninc/pbe/van/H.UPF
     MD5 check sum: b5ee9d7bfd3a09ee7748110bda690ff7
     Pseudo is Ultrasoft, Zval =  1.0
     Generated by new atomic code, or converted to UPF format
     Using radial grid of  615 points,  1 beta functions with:
                l(1) =   0
     Q(r) pseudized with  8 coefficients,  rinner =    0.800

     atomic species   valence    mass     pseudopotential
        Ti1           12.00    47.86700     Ti( 1.00)
        O1             6.00    15.99900     O ( 1.00)
        N1             5.00    14.00700     N ( 1.00)
        C1             4.00    12.01100     C ( 1.00)
        H1             1.00     1.00800     H ( 1.00)

     No symmetry found

   Cartesian axes

     site n.     atom                  positions (alat units)
         1           Ti1 tau(   1) = (   0.0004258   2.9801865   6.0000000  )
         2           Ti1 tau(   2) = (   3.2906075   1.4906267   6.0002472  )
         3           O1  tau(   3) = (   0.0006271   0.0005054   7.9858123  )
         4           O1  tau(   4) = (   3.2906025   0.0005020   7.3038282  )
         5           O1  tau(   5) = (   4.5942328   1.4918067   9.2879030  )
         6           O1  tau(   6) = (   1.9868534   1.4903216   9.2879459  )
         7           Ti1 tau(   7) = (   3.2907910   2.8959150   9.1758416  )
         8           Ti1 tau(   8) = (   0.0015273   1.4827037   9.2680791  )
         9           O1  tau(   9) = (   3.3007851   0.0027079  11.3193151  )
        10           O1  tau(  10) = (   0.0116148   5.9584955  10.6183126  )
        11           O1  tau(  11) = (   1.3147357   1.5019762  12.6210215  )
        12           O1  tau(  12) = (   5.3120411   1.4917641  12.6342566  )
        13           Ti1 tau(  13) = (   6.5359925   2.9538565  12.6086018  )
        14           Ti1 tau(  14) = (   3.2189980   1.4905645  12.4770757  )
        15           O1  tau(  15) = (   0.0426301   5.9606301  14.6312846  )
        16           O1  tau(  16) = (   3.3149351   0.0098317  13.8848037  )
        17           O1  tau(  17) = (   4.5523768   1.5206755  16.0744300  )
        18           O1  tau(  18) = (   2.0715852   1.4807026  15.9918588  )
        19           Ti1 tau(  19) = (   3.2935730   2.9941335  15.6827836  )
        20           Ti1 tau(  20) = (   0.0200723   1.3023755  15.9747514  )
        21           O1  tau(  21) = (   3.2904802   0.0005063   4.7018136  )
        22           O1  tau(  22) = (   6.5179923   0.0002674  17.1556216  )
        23           O1  tau(  23) = (   1.3043587   1.4918075   6.0039043  )
        24           O1  tau(  24) = (   5.2767064   1.4903225   6.0039473  )
        25           Ti1 tau(  25) = (   0.0000382   5.9609847   6.0000000  )
        26           Ti1 tau(  26) = (   3.2902200   4.4714249   6.0002472  )
        27           O1  tau(  27) = (   0.0002396   2.9813036   7.9858123  )
        28           O1  tau(  28) = (   3.2902150   2.9813002   7.3038282  )
        29           O1  tau(  29) = (   4.5938453   4.4726049   9.2879030  )
        30           O1  tau(  30) = (   1.9864658   4.4711199   9.2879459  )
        31           Ti1 tau(  31) = (   3.2891106   5.8743827   9.1763621  )
        32           Ti1 tau(  32) = (   0.0006254   4.4649316   9.2693709  )
        33           O1  tau(  33) = (   3.3053585   2.9833221  11.3185053  )
        34           O1  tau(  34) = (   0.0092240   2.9805883  10.6323155  )
        35           O1  tau(  35) = (   1.3157767   4.4721532  12.6203727  )
        36           O1  tau(  36) = (   5.3104355   4.4689601  12.6331991  )
        37           Ti1 tau(  37) = (   6.5385524   5.9338372  12.5465384  )
        38           Ti1 tau(  38) = (   3.2200853   4.4710709  12.4725482  )
        39           O1  tau(  39) = (   0.0068575   2.9964749  14.7765288  )
        40           O1  tau(  40) = (   3.3021705   2.9848394  13.8818356  )
        41           O1  tau(  41) = (   4.5334443   4.4765196  15.9883447  )
        42           O1  tau(  42) = (   2.0816803   4.4801587  16.0471567  )
        43           Ti1 tau(  43) = (   3.3155128   0.0116264  15.6901768  )
        44           Ti1 tau(  44) = (   6.5575601   4.4671909  15.9479714  )
        45           O1  tau(  45) = (   3.2900926   2.9813045   4.7018136  )
        46           O1  tau(  46) = (   1.3039711   4.4726057   6.0039043  )
        47           O1  tau(  47) = (   5.2763189   4.4711207   6.0039473  )
        48           N1  tau(  48) = (   0.4270260   2.3853988  17.9668900  )
        49           C1  tau(  49) = (   0.9469377   1.9340014  19.0583692  )
        50           H1  tau(  50) = (   1.0789317   2.5769861  19.9249762  )
        51           H1  tau(  51) = (   1.2326487   0.8959138  19.0941702  )
        52           N1  tau(  52) = (   0.0025679   3.6232397  17.7996529  )
        53           H1  tau(  53) = (   0.1020252   4.2324666  18.6151602  )

     number of k points=    10  Fermi-Dirac smearing, width (Ry)=  0.0073
                       cart. coord. in units 2pi/alat
        k(    1) = (   0.0000000   0.0000000   0.0000000), wk =   0.1250000
        k(    2) = (   0.0000000   0.0419351   0.0000000), wk =   0.2500000
        k(    3) = (   0.0000000  -0.0838702   0.0000000), wk =   0.1250000
        k(    4) = (   0.0379955   0.0000049   0.0000000), wk =   0.2500000
        k(    5) = (   0.0379955   0.0419400   0.0000000), wk =   0.2500000
        k(    6) = (   0.0379955  -0.0838652   0.0000000), wk =   0.2500000
        k(    7) = (   0.0379955  -0.0419301   0.0000000), wk =   0.2500000
        k(    8) = (  -0.0759910  -0.0000099   0.0000000), wk =   0.1250000
        k(    9) = (  -0.0759910   0.0419252   0.0000000), wk =   0.2500000
        k(   10) = (  -0.0759910  -0.0838800   0.0000000), wk =   0.1250000

     Initial potential from superposition of free atoms

     starting charge  378.99916, renormalised to  395.00000

     negative rho (up, down):  1.649E-02 0.000E+00

     %%%%%%%%%%%%%%%%%%%%%%%%%%%%%%%%%%%%%%%%%%%%%%%%%%%%%%%%%%%%%%%%%%%%%%%%
     %                                                                      %
     % You are using vdW-DF, which was implemented by the Thonhauser group. %
     % Please cite the following two papers that made this development      %
     % possible and the two reviews that describe the various versions:     %
     %                                                                      %
     %   T. Thonhauser et al., PRL 115, 136402 (2015).                      %
     %   T. Thonhauser et al., PRB 76, 125112 (2007).                       %
     %   K. Berland et al., Rep. Prog. Phys. 78, 066501 (2015).             %
     %   D.C. Langreth et al., J. Phys.: Condens. Matter 21, 084203 (2009). %
     %                                                                      %
     %                                                                      %
     % If you are calculating the stress with vdW-DF, please also cite:     %
     %                                                                      %
     %   R. Sabatini et al., J. Phys.: Condens. Matter 24, 424209 (2012).   %
     %                                                                      %
     %%%%%%%%%%%%%%%%%%%%%%%%%%%%%%%%%%%%%%%%%%%%%%%%%%%%%%%%%%%%%%%%%%%%%%%%

     Adding external electric field

     Computed dipole along edir(3) :
        Dipole               -8.3970 Ry au,        -21.3430 Debye
        Dipole field         -0.0158 Ry au,

        Potential amp.        1.4689 Ry
        Total length         46.3494 bohr

     Starting wfcs are  299 atomic wfcs
  @ DRIVER MODE: Message from server: STATUS
  @ DRIVER MODE: Message from server: POSDATA
  @ DRIVER MODE: Reading and sharing cell
  @ DRIVER MODE: Reading and sharing positions
  @ DRIVER MODE: Received positions

     Self-consistent Calculation

     iteration #  1     ecut=    29.40 Ry     beta= 0.05
     Davidson diagonalization with overlap
     ethr =  1.00E-02,  avg # of iterations =  2.6

[...]

     total energy              =   -2619.77329319 Ry
     estimated scf accuracy    <    3536.54223682 Ry

     iteration #  2     ecut=    29.40 Ry     beta= 0.05
     Davidson diagonalization with overlap
     c_bands:  4 eigenvalues not converged
     ethr =  1.00E-02,  avg # of iterations = 21.9

[...]

     iteration # 49     ecut=    29.40 Ry     beta= 0.05
     Davidson diagonalization with overlap
     c_bands:  1 eigenvalues not converged
     ethr =  2.05E-07,  avg # of iterations = 15.7

[...]

     total energy              =   -2939.13539570 Ry
     estimated scf accuracy    <       0.00000020 Ry

     iteration # 69     ecut=    29.40 Ry     beta= 0.05
     Davidson diagonalization with overlap
     ethr =  2.11E-11,  avg # of iterations =  8.6

     negative rho (up, down):  1.681E-02 0.000E+00

     Adding external electric field

     Computed dipole along edir(3) :
        Dipole                0.7877 Ry au,          2.0021 Debye
        Dipole field          0.0015 Ry au,

        Potential amp.       -0.1378 Ry
        Total length         46.3494 bohr

     End of self-consistent calculation

          k = 0.0000 0.0000 0.0000 ( 18029 PWs)   bands (ev):

   -55.8524 -55.8513 -55.8183 -55.8153 -55.7455 -55.7026 -55.6647 -55.6631
   -55.6298 -55.6291 -55.6244 -55.5907 -55.1900 -55.1441 -54.8281 -54.7941
   -32.4055 -32.3353 -32.2413 -32.1630 -32.1491 -32.1445 -32.1307 -32.1162
   -32.0954 -32.0823 -32.0294 -32.0114 -32.0048 -32.0031 -31.9929 -31.9895
   -31.9573 -31.9454 -31.9394 -31.9367 -31.9097 -31.9072 -31.8915 -31.8894
   -31.8586 -31.8544 -31.8522 -31.8511 -31.8259 -31.8108 -31.8033 -31.7932
   -31.7813 -31.7789 -31.7713 -31.7378 -31.7312 -31.4544 -31.4171 -31.3898
   -31.3373 -31.3023 -31.2349 -31.1472 -31.1248 -31.0520 -30.9655 -30.8541
   -17.9120 -16.6118 -16.3316 -16.0762 -16.0010 -15.9972 -15.8636 -15.7007
   -15.5880 -15.5210 -15.4408 -15.4110 -15.3888 -15.3535 -15.3472 -15.3093
   -15.3004 -15.2749 -15.2714 -15.2092 -15.2058 -15.1984 -15.1886 -15.1045
   -15.0468 -14.9953 -14.9875 -14.9142 -14.8802 -14.3523 -13.3298 -13.2134
   -12.1621  -7.8737  -5.3655  -4.5378  -3.9885  -3.8292  -3.7594  -3.7250
    -3.6481  -3.4887  -3.4099  -3.1279  -3.0793  -3.0236  -3.0141  -2.9776
    -2.9331  -2.7813  -2.7037  -2.6768  -2.6611  -2.6388  -2.6238  -2.6117
    -2.5958  -2.5764  -2.4952  -2.4142  -2.3701  -2.2934  -2.2798  -2.2446
    -2.1647  -2.1643  -2.1242  -2.1040  -2.0857  -2.0696  -2.0610  -2.0457
    -1.9056  -1.8481  -1.8345  -1.6536  -1.6365  -1.5882  -1.4614  -1.4550
    -1.3386  -1.3232  -1.2830  -1.2452  -1.1725  -1.1509  -1.0394  -0.9981
    -0.9363  -0.8894  -0.8740  -0.7984  -0.7337  -0.6953  -0.6822  -0.6171
    -0.6102  -0.5972  -0.4627  -0.3859  -0.3327  -0.2767  -0.2544  -0.1985
    -0.1589  -0.1157  -0.0283  -0.0011   0.0106   0.0687   0.0904   0.1159
     0.1277   0.1473   0.1762   0.2317   0.3499   0.3815   0.4575   0.4718
     0.5323   0.6667   0.8048   0.8717   0.9244   1.0196   1.1254   1.1949
     1.2680   1.3872   1.7649   1.8104   2.1380   3.2674   3.3692   3.4021
     3.4131   3.5162   3.6650   3.7265   3.7416   3.7830   3.8170

[...]

          k = 0.0380-0.0419 0.0000 ( 17876 PWs)   bands (ev):

[...]

          k =-0.0760-0.0000 0.0000 ( 17886 PWs)   bands (ev):

[...]

          k =-0.0760-0.0839 0.0000 ( 17948 PWs)   bands (ev):

   -55.8356 -55.8350 -55.8338 -55.8326 -55.7369 -55.7112 -55.6480 -55.6464
   -55.6463 -55.6454 -55.6082 -55.6070 -55.1821 -55.1518 -54.8111 -54.8109
   -32.2077 -32.2060 -32.1508 -32.1504 -32.1301 -32.1297 -32.0961 -32.0932
   -32.0840 -32.0675 -32.0017 -31.9991 -31.9936 -31.9918 -31.9698 -31.9622
   -31.9553 -31.9547 -31.9496 -31.9483 -31.9465 -31.9348 -31.9290 -31.9224
   -31.9103 -31.9052 -31.8603 -31.8500 -31.8483 -31.8475 -31.8392 -31.8384
   -31.8253 -31.8246 -31.8240 -31.8228 -31.6840 -31.4497 -31.4159 -31.4115
   -31.3934 -31.3384 -31.1376 -31.1374 -31.0478 -31.0476 -31.0088 -31.0087
   -17.8985 -16.0269 -16.0241 -15.8164 -15.7775 -15.7583 -15.7525 -15.6627
   -15.5770 -15.5434 -15.5404 -15.4534 -15.4273 -15.4112 -15.3951 -15.3896
   -15.3808 -15.3512 -15.3160 -15.3085 -15.2944 -15.2888 -15.2769 -15.2200
   -15.1686 -15.1644 -15.1420 -15.0699 -14.8311 -14.6925 -13.3153 -13.3152
   -12.1230  -7.8142  -5.4106  -4.5984  -3.3214  -3.3119  -3.0656  -3.0227
    -3.0187  -2.9927  -2.9505  -2.7896  -2.7771  -2.7576  -2.7499  -2.7051
    -2.6816  -2.6613  -2.6417  -2.6365  -2.6075  -2.5814  -2.5663  -2.5293
    -2.5224  -2.5134  -2.4819  -2.4711  -2.4245  -2.4192  -2.3985  -2.3711
    -2.3616  -2.3274  -2.1795  -2.1072  -2.0790  -1.9941  -1.9872  -1.9475
    -1.9245  -1.9032  -1.8952  -1.8684  -1.8304  -1.6944  -1.6118  -1.5501
    -1.5415  -1.4570  -1.4294  -1.3678  -1.2780  -1.2524  -1.2316  -1.1599
    -1.0842  -1.0461  -0.9949  -0.9817  -0.9141  -0.9054  -0.8477  -0.8108
    -0.8088  -0.7320  -0.7017  -0.6544  -0.6179  -0.6011  -0.5782  -0.5514
    -0.5359  -0.5127  -0.4369  -0.3527  -0.3010  -0.2403  -0.1474  -0.0180
     0.1024   0.2151   0.2371   0.2813   0.3339   0.3680   0.4615   0.4653
     0.5286   0.5519   0.5934   0.6709   0.6822   0.7066   0.8177   0.8479
     1.5594   1.5598   1.6303   1.6305   2.0785   3.5901   3.6190   3.6381
     3.6699   3.7993   3.8053   3.8157   3.8166   3.9514   3.9559

     the Fermi energy is     3.2772 ev

!    total energy              =   -2939.13542691 Ry
     estimated scf accuracy    <       0.00000005 Ry
     smearing contrib. (-TS)   =      -0.02098979 Ry
     internal energy E=F+TS    =   -2939.11443712 Ry

     The total energy is F=E-TS. E is the sum of the following terms:
     one-electron contribution =  -24492.35542864 Ry
     hartree contribution      =   12334.13207931 Ry
     xc contribution           =    -485.37077852 Ry
     ewald contribution        =    9704.47851983 Ry
     electric field correction =       0.00117090 Ry

     convergence has been achieved in  69 iterations

     Forces acting on atoms (cartesian axes, Ry/au):

     atom    1 type  1   force =     0.00007802   -0.00024063    0.09635560
     atom    2 type  1   force =     0.00005313   -0.00056675   -0.17516266
     atom    3 type  2   force =     0.00014951   -0.00013167   -0.02407845
     atom    4 type  2   force =    -0.00000411   -0.00124683    0.05222537
     atom    5 type  2   force =    -0.01055963   -0.00047838    0.00251300
     atom    6 type  2   force =     0.01237787    0.00022202    0.00288744
     atom    7 type  1   force =     0.00098145    0.00026953   -0.01175398
     atom    8 type  1   force =    -0.00013606    0.00774546    0.02262821
     atom    9 type  2   force =    -0.00019881   -0.00015196   -0.00027427
     atom   10 type  2   force =    -0.00262110    0.00115101   -0.01266950
     atom   11 type  2   force =     0.00006215   -0.00012331    0.00005532
     atom   12 type  2   force =     0.00009970    0.00018345   -0.00038483
     atom   13 type  1   force =     0.00044205   -0.00034664    0.00022830
     atom   14 type  1   force =     0.00015014    0.00032368   -0.00014664
     atom   15 type  2   force =    -0.00022633    0.00014205    0.00002764
     atom   16 type  2   force =     0.00011360   -0.00021414    0.00033759
     atom   17 type  2   force =     0.00049724   -0.00001640    0.00035793
     atom   18 type  2   force =     0.00066679   -0.00016803    0.00026092
     atom   19 type  1   force =    -0.00118008   -0.00003102    0.00021569
     atom   20 type  1   force =     0.00031299   -0.00039813   -0.00051673
     atom   21 type  2   force =     0.00004787    0.00000608    0.10309130
     atom   22 type  2   force =     0.00013253   -0.00027722    0.00000660
     atom   23 type  2   force =    -0.07161759   -0.00014622   -0.02764953
     atom   24 type  2   force =     0.07155929    0.00035203   -0.02771198
     atom   25 type  1   force =     0.00015345   -0.00023651    0.09588496
     atom   26 type  1   force =     0.00009929   -0.00041155   -0.17542529
     atom   27 type  2   force =     0.00017724   -0.00021473   -0.02291276
     atom   28 type  2   force =     0.00006447   -0.00101411    0.05218021
     atom   29 type  2   force =    -0.01085730    0.00048153    0.00243321
     atom   30 type  2   force =     0.01255296    0.00064268    0.00278384
     atom   31 type  1   force =     0.00086839    0.00348932   -0.01293442
     atom   32 type  1   force =     0.00003177   -0.00925218    0.02306055
     atom   33 type  2   force =    -0.00048383    0.00013397    0.00023209
     atom   34 type  2   force =    -0.00302551    0.00022901   -0.01289137
     atom   35 type  2   force =     0.00008363    0.00008603   -0.00007966
     atom   36 type  2   force =     0.00010658    0.00033222   -0.00039500
     atom   37 type  1   force =     0.00033746    0.00036708    0.00007191
     atom   38 type  1   force =     0.00002595   -0.00042702    0.00015273
     atom   39 type  2   force =     0.00015307    0.00044126    0.00054709
     atom   40 type  2   force =     0.00035542    0.00013235   -0.00039200
     atom   41 type  2   force =     0.00043338    0.00003290    0.00028254
     atom   42 type  2   force =     0.00091891    0.00002785    0.00050766
     atom   43 type  1   force =    -0.00156536   -0.00035756   -0.00033197
     atom   44 type  1   force =     0.00069141   -0.00028766   -0.00079051
     atom   45 type  2   force =     0.00005921   -0.00004158    0.10307552
     atom   46 type  2   force =    -0.07164180   -0.00007627   -0.02766459
     atom   47 type  2   force =     0.07158417    0.00032223   -0.02773495
     atom   48 type  3   force =    -0.00059034   -0.00106403   -0.00036160
     atom   49 type  4   force =    -0.00086439   -0.00005597   -0.00031009
     atom   50 type  5   force =    -0.00096771    0.00068400    0.00063942
     atom   51 type  5   force =     0.00047566   -0.00057349    0.00018345
     atom   52 type  3   force =    -0.00022656    0.00076150   -0.00142402
     atom   53 type  5   force =    -0.00013027   -0.00000925    0.00077072

     Total force =     0.365733     Total SCF correction =     0.000483
  @ DRIVER MODE: Message from server: STATUS
  @ DRIVER MODE: Message from server: GETFORCE
  @ DRIVER MODE: Returning v,forces,stress,ensemble

     Writing output data file ./calc.save/
  @ DRIVER MODE: Message from server: EXIT
  @ DRIVE MODE: Exiting

     General routines

     Parallel routines

   This run was terminated on:  13:13:38  23Aug2021

   JOB DONE.