     Program PWSCF v.6.7GPU starts on 15Sep2021 at 20: 7:24

     R & G space division:  proc/nbgrp/npool/nimage =      10
     Reading input from /storage/home/hcoda1/3/ntian30/research/carbon/CxH_vib/H2O_calc/ads_slab/CH2N2HH2O_a/out_0014/pw.inp
Warning: card &CELL ignored
Warning: card   CELL_DYNAMICS='IPI', ignored
Warning: card / ignored

     Current dimensions of program PWSCF are:
     Max number of different atomic species (ntypx) = 10
     Max number of k-points (npk) =  40000
     Max angular momentum in pseudopotentials (lmaxx) =  3
     Presently no symmetry can be used with electric field

     Message from routine cell_base_init:
     DEPRECATED: use true lattice parameter, not A to a.u. conversion factor

     IMPORTANT: XC functional enforced from input :
     Exchange-correlation= BEEF-VDW
                           (   1   4  43  14   2   0   0)
     Any further DFT definition will be discarded
     Please, verify this is what you really want

  @ DRIVER MODE: Connecting to
 qe_1139763_2852606.sched-torque.pace.gatech.edu99fovgd__scratch
  using UNIX socket
  @ DRIVER MODE: Message from server: STATUS
  @ DRIVER MODE: Message from server: INIT
  @ DRIVER MODE: Receiving replica           0          -1
  @ DRIVER MODE: Receiving encoded integer          25
  @ DRIVER MODE:  SCF:  T  FORCE:  T  STRESS:  F  VC:  F  ENSEMBLE:  F
  @ DRIVER MODE:  SCF:  T  FORCE:  T  STRESS:  F  VC:  F  ENSEMBLE:  F

     Using Slab Decomposition

     bravais-lattice index     =            0
     lattice parameter (alat)  =       1.8897  a.u.
     unit-cell volume          =    6658.9804 (a.u.)^3
     number of atoms/cell      =           56
     number of atomic types    =            5
     number of electrons       =       403.00
     number of Kohn-Sham states=          211
     kinetic-energy cutoff     =      29.3995  Ry
     charge density cutoff     =     293.9946  Ry
     scf convergence threshold =      7.3E-08
     mixing beta               =       0.0500
     number of iterations used =            8  plain     mixing
     Exchange-correlation= BEEF-VDW
                           (   1   4  43  14   2   0   0)

     celldm(1)=   1.889726  celldm(2)=   0.000000  celldm(3)=   0.000000
     celldm(4)=   0.000000  celldm(5)=   0.000000  celldm(6)=   0.000000

     crystal axes: (cart. coord. in units of alat)
               a(1) = (   6.579727   0.000000   0.000000 )
               a(2) = (  -0.000775   5.961596   0.000000 )
               a(3) = (   0.000000   0.000000  25.155947 )

     reciprocal axes: (cart. coord. in units 2 pi/alat)
               b(1) = (  0.151982  0.000020  0.000000 )
               b(2) = (  0.000000  0.167740  0.000000 )
               b(3) = (  0.000000  0.000000  0.039752 )

     PseudoPot. # 1 for Ti read from file:
     /storage/coda1/p-amedford6/0/shared/rich_project_chbe-medford/medford-share/data/pseudos_module/espresso/nninc/pbe/van/Ti.UPF
     MD5 check sum: 8e4df49b7f0d34bbd5052bf3f5ea0213
     Pseudo is Ultrasoft, Zval = 12.0
     Generated by new atomic code, or converted to UPF format
     Using radial grid of  851 points,  6 beta functions with:
                l(1) =   0
                l(2) =   0
                l(3) =   1
                l(4) =   1
                l(5) =   2
                l(6) =   2
     Q(r) pseudized with  8 coefficients,  rinner =    1.000   1.000   1.000
                                                       1.000   1.000

     PseudoPot. # 2 for O  read from file:
     /storage/coda1/p-amedford6/0/shared/rich_project_chbe-medford/medford-share/data/pseudos_module/espresso/nninc/pbe/van/O.UPF
     MD5 check sum: 78c19812648e8988a0fe644b0f25305e
     Pseudo is Ultrasoft, Zval =  6.0
     Generated by new atomic code, or converted to UPF format
     Using radial grid of  737 points,  4 beta functions with:
                l(1) =   0
                l(2) =   0
                l(3) =   1
                l(4) =   1
     Q(r) pseudized with  8 coefficients,  rinner =    0.800   0.800   0.800

     PseudoPot. # 3 for N  read from file:
     /storage/coda1/p-amedford6/0/shared/rich_project_chbe-medford/medford-share/data/pseudos_module/espresso/nninc/pbe/van/N.UPF
     MD5 check sum: 90d10febe142ad51ac9d5be1deb811c4
     Pseudo is Ultrasoft, Zval =  5.0
     Generated by new atomic code, or converted to UPF format
     Using radial grid of  729 points,  4 beta functions with:
                l(1) =   0
                l(2) =   0
                l(3) =   1
                l(4) =   1
     Q(r) pseudized with  8 coefficients,  rinner =    0.800   0.800   0.800

     PseudoPot. # 4 for C  read from file:
     /storage/coda1/p-amedford6/0/shared/rich_project_chbe-medford/medford-share/data/pseudos_module/espresso/nninc/pbe/van/C.UPF
     MD5 check sum: 1a69bf6b8db32088f5b2163dbdb77a27
     Pseudo is Ultrasoft, Zval =  4.0
     Generated by new atomic code, or converted to UPF format
     Using radial grid of  721 points,  4 beta functions with:
                l(1) =   0
                l(2) =   0
                l(3) =   1
                l(4) =   1
     Q(r) pseudized with  8 coefficients,  rinner =    0.800   0.800   0.800

     PseudoPot. # 5 for H  read from file:
     /storage/coda1/p-amedford6/0/shared/rich_project_chbe-medford/medford-share/data/pseudos_module/espresso/nninc/pbe/van/H.UPF
     MD5 check sum: b5ee9d7bfd3a09ee7748110bda690ff7
     Pseudo is Ultrasoft, Zval =  1.0
     Generated by new atomic code, or converted to UPF format
     Using radial grid of  615 points,  1 beta functions with:
                l(1) =   0
     Q(r) pseudized with  8 coefficients,  rinner =    0.800

     atomic species   valence    mass     pseudopotential
        Ti1           12.00    47.86700     Ti( 1.00)
        O1             6.00    15.99900     O ( 1.00)
        N1             5.00    14.00700     N ( 1.00)
        C1             4.00    12.01100     C ( 1.00)
        H1             1.00     1.00800     H ( 1.00)

     No symmetry found

   Cartesian axes

     site n.     atom                  positions (alat units)
         1           Ti1 tau(   1) = (   0.0004258   2.9801865   6.0000000  )
         2           Ti1 tau(   2) = (   3.2906075   1.4906267   6.0002472  )
         3           O1  tau(   3) = (   0.0006271   0.0005054   7.9858123  )
         4           O1  tau(   4) = (   3.2906025   0.0005020   7.3038282  )
         5           O1  tau(   5) = (   4.5942328   1.4918067   9.2879030  )
         6           O1  tau(   6) = (   1.9868534   1.4903216   9.2879459  )
         7           Ti1 tau(   7) = (   3.2907910   2.8959150   9.1758416  )
         8           Ti1 tau(   8) = (   0.0015273   1.4827037   9.2680791  )
         9           O1  tau(   9) = (   3.2932810   5.9556063  11.3276769  )
        10           O1  tau(  10) = (   0.0116148   5.9584955  10.6183126  )
        11           O1  tau(  11) = (   1.2966828   1.5020869  12.6141357  )
        12           O1  tau(  12) = (   5.2995835   1.4923495  12.6341875  )
        13           Ti1 tau(  13) = (   6.5470072   2.9473109  12.5798724  )
        14           Ti1 tau(  14) = (   3.2302912   1.4573256  12.5082679  )
        15           O1  tau(  15) = (   0.0525813   0.0137714  14.6435187  )
        16           O1  tau(  16) = (   3.2708393   0.0302713  13.9228694  )
        17           O1  tau(  17) = (   4.5627544   1.5900677  16.0055000  )
        18           O1  tau(  18) = (   2.0437599   1.5040777  16.0764052  )
        19           Ti1 tau(  19) = (   3.3063064   2.9825517  15.6619520  )
        20           Ti1 tau(  20) = (   6.5607061   1.3194196  15.9785141  )
        21           O1  tau(  21) = (   3.2904802   0.0005063   4.7018136  )
        22           O1  tau(  22) = (   6.3855286   5.9589440  17.1610702  )
        23           O1  tau(  23) = (   1.3043587   1.4918075   6.0039043  )
        24           O1  tau(  24) = (   5.2767064   1.4903225   6.0039473  )
        25           Ti1 tau(  25) = (   0.0000382   5.9609847   6.0000000  )
        26           Ti1 tau(  26) = (   3.2902200   4.4714249   6.0002472  )
        27           O1  tau(  27) = (   0.0002396   2.9813036   7.9858123  )
        28           O1  tau(  28) = (   3.2902150   2.9813002   7.3038282  )
        29           O1  tau(  29) = (   4.5938453   4.4726049   9.2879030  )
        30           O1  tau(  30) = (   1.9864658   4.4711199   9.2879459  )
        31           Ti1 tau(  31) = (   3.2891106   5.8743827   9.1763621  )
        32           Ti1 tau(  32) = (   0.0006254   4.4649316   9.2693709  )
        33           O1  tau(  33) = (   3.2946552   2.9814125  11.3288906  )
        34           O1  tau(  34) = (   0.0092240   2.9805883  10.6323155  )
        35           O1  tau(  35) = (   1.2978438   4.4726441  12.6233041  )
        36           O1  tau(  36) = (   5.2969606   4.4732664  12.6435870  )
        37           Ti1 tau(  37) = (   6.5415350   5.9305516  12.5357152  )
        38           Ti1 tau(  38) = (   3.2303862   4.4559975  12.4807118  )
        39           O1  tau(  39) = (   0.0164246   2.9899045  14.7829194  )
        40           O1  tau(  40) = (   3.2688228   2.9752494  13.8698570  )
        41           O1  tau(  41) = (   4.5210259   4.4573316  15.9082071  )
        42           O1  tau(  42) = (   2.0412773   4.4882057  16.0214637  )
        43           Ti1 tau(  43) = (   3.2233344   5.9452837  15.7820064  )
        44           Ti1 tau(  44) = (   6.5355943   4.4735413  15.8975681  )
        45           O1  tau(  45) = (   3.2900926   2.9813045   4.7018136  )
        46           O1  tau(  46) = (   1.3039711   4.4726057   6.0039043  )
        47           O1  tau(  47) = (   5.2763189   4.4711207   6.0039473  )
        48           N1  tau(  48) = (   0.2167872   2.3688911  18.0161765  )
        49           C1  tau(  49) = (   0.4968348   1.8934616  19.1878903  )
        50           H1  tau(  50) = (   0.5717972   2.5522217  20.0513624  )
        51           H1  tau(  51) = (   0.6371857   0.8299532  19.2874115  )
        52           N1  tau(  52) = (   6.5661014   3.6386027  17.7750644  )
        53           H1  tau(  53) = (   0.0713089   4.2532688  18.5884219  )
        54           O1  tau(  54) = (   3.6608114   5.9026821  18.0962282  )
        55           H1  tau(  55) = (   4.6425638   0.0038819  18.0438526  )
        56           H1  tau(  56) = (   3.3558581   0.7595698  18.5153002  )

     number of k points=    10  Fermi-Dirac smearing, width (Ry)=  0.0073
                       cart. coord. in units 2pi/alat
        k(    1) = (   0.0000000   0.0000000   0.0000000), wk =   0.1250000
        k(    2) = (   0.0000000   0.0419351   0.0000000), wk =   0.2500000
        k(    3) = (   0.0000000  -0.0838702   0.0000000), wk =   0.1250000
        k(    4) = (   0.0379955   0.0000049   0.0000000), wk =   0.2500000
        k(    5) = (   0.0379955   0.0419400   0.0000000), wk =   0.2500000
        k(    6) = (   0.0379955  -0.0838652   0.0000000), wk =   0.2500000
        k(    7) = (   0.0379955  -0.0419301   0.0000000), wk =   0.2500000
        k(    8) = (  -0.0759910  -0.0000099   0.0000000), wk =   0.1250000
        k(    9) = (  -0.0759910   0.0419252   0.0000000), wk =   0.2500000
        k(   10) = (  -0.0759910  -0.0838800   0.0000000), wk =   0.1250000

     Initial potential from superposition of free atoms

     starting charge  386.99914, renormalised to  403.00000

     negative rho (up, down):  1.554E-02 0.000E+00

     %%%%%%%%%%%%%%%%%%%%%%%%%%%%%%%%%%%%%%%%%%%%%%%%%%%%%%%%%%%%%%%%%%%%%%%%
     %                                                                      %
     % You are using vdW-DF, which was implemented by the Thonhauser group. %
     % Please cite the following two papers that made this development      %
     % possible and the two reviews that describe the various versions:     %
     %                                                                      %
     %   T. Thonhauser et al., PRL 115, 136402 (2015).                      %
     %   T. Thonhauser et al., PRB 76, 125112 (2007).                       %
     %   K. Berland et al., Rep. Prog. Phys. 78, 066501 (2015).             %
     %   D.C. Langreth et al., J. Phys.: Condens. Matter 21, 084203 (2009). %
     %                                                                      %
     %                                                                      %
     % If you are calculating the stress with vdW-DF, please also cite:     %
     %                                                                      %
     %   R. Sabatini et al., J. Phys.: Condens. Matter 24, 424209 (2012).   %
     %                                                                      %
     %%%%%%%%%%%%%%%%%%%%%%%%%%%%%%%%%%%%%%%%%%%%%%%%%%%%%%%%%%%%%%%%%%%%%%%%

     Adding external electric field

     Computed dipole along edir(3) :
        Dipole              -12.7952 Ry au,        -32.5221 Debye
        Dipole field         -0.0241 Ry au,

        Potential amp.        2.2383 Ry
        Total length         46.3494 bohr

     Starting wfcs are  305 atomic wfcs
  @ DRIVER MODE: Message from server: STATUS
  @ DRIVER MODE: Message from server: POSDATA
  @ DRIVER MODE: Reading and sharing cell
  @ DRIVER MODE: Reading and sharing positions
  @ DRIVER MODE: Received positions

     Self-consistent Calculation

     iteration #  1     ecut=    29.40 Ry     beta= 0.05
     Davidson diagonalization with overlap
     c_bands:  3 eigenvalues not converged
     c_bands:  3 eigenvalues not converged
     c_bands:  4 eigenvalues not converged
     c_bands:  5 eigenvalues not converged
     c_bands:  1 eigenvalues not converged
     c_bands:  1 eigenvalues not converged
     c_bands:  4 eigenvalues not converged
     c_bands:  3 eigenvalues not converged
     ethr =  1.00E-05,  avg # of iterations = 27.5

[...]

     total energy              =   -2369.06083819 Ry
     estimated scf accuracy    <    6884.45031221 Ry

     iteration #  2     ecut=    29.40 Ry     beta= 0.05
     Davidson diagonalization with overlap
     ethr =  1.00E-02,  avg # of iterations = 25.3

[...]

     iteration # 55     ecut=    29.40 Ry     beta= 0.05
     Davidson diagonalization with overlap
     c_bands:  1 eigenvalues not converged
     c_bands:  2 eigenvalues not converged
     c_bands:  1 eigenvalues not converged
     ethr =  1.96E-06,  avg # of iterations = 14.7

[...]

     total energy              =   -2973.98334609 Ry
     estimated scf accuracy    <       0.00000026 Ry

     iteration # 77     ecut=    29.40 Ry     beta= 0.05
     Davidson diagonalization with overlap
     ethr =  6.55E-11,  avg # of iterations = 10.6

     negative rho (up, down):  1.541E-02 0.000E+00

     Adding external electric field

     Computed dipole along edir(3) :
        Dipole                0.9255 Ry au,          2.3523 Debye
        Dipole field          0.0017 Ry au,

        Potential amp.       -0.1619 Ry
        Total length         46.3494 bohr

     End of self-consistent calculation

          k = 0.0000 0.0000 0.0000 ( 18029 PWs)   bands (ev):

   -55.6138 -55.5858 -55.5797 -55.5477 -55.4952 -55.4838 -55.4536 -55.4313
   -55.3973 -55.3928 -55.3588 -55.3356 -55.0418 -54.9911 -54.5936 -54.5596
   -32.1298 -32.0979 -31.9861 -31.9310 -31.9177 -31.9056 -31.8841 -31.8712
   -31.8582 -31.8174 -31.7662 -31.7622 -31.7339 -31.7334 -31.7298 -31.7197
   -31.7152 -31.7118 -31.7087 -31.7066 -31.6760 -31.6711 -31.6623 -31.6346
   -31.6252 -31.6242 -31.6169 -31.6135 -31.5987 -31.5903 -31.5731 -31.5599
   -31.5475 -31.5412 -31.5360 -31.5062 -31.5037 -31.3054 -31.2660 -31.2426
   -31.1895 -31.1471 -31.0005 -30.9125 -30.8901 -30.8175 -30.7310 -30.6197
   -18.6663 -17.9049 -16.3337 -16.0914 -15.8517 -15.7747 -15.7423 -15.5287
   -15.4258 -15.3702 -15.2348 -15.1857 -15.1724 -15.1523 -15.1272 -15.0928
   -15.0668 -15.0532 -15.0463 -15.0299 -15.0044 -14.9777 -14.9573 -14.9536
   -14.9125 -14.8437 -14.7744 -14.7487 -14.6867 -14.6746 -14.2346 -13.0951
   -12.9787 -12.0732  -7.8463  -6.4505  -5.3054  -4.4946  -3.7075  -3.5695
    -3.5219  -3.4724  -3.4637  -3.2744  -3.1898  -3.0591  -2.8981  -2.8508
    -2.7803  -2.7424  -2.7035  -2.6408  -2.5997  -2.4937  -2.4562  -2.4265
    -2.4113  -2.3662  -2.3610  -2.3571  -2.2950  -2.2587  -2.1802  -2.1539
    -2.0743  -2.0047  -1.9763  -1.9497  -1.9279  -1.9106  -1.9069  -1.8583
    -1.8570  -1.8552  -1.7833  -1.7357  -1.6609  -1.6148  -1.5572  -1.4185
    -1.3774  -1.2674  -1.2216  -1.1002  -1.0963  -1.0736  -1.0492  -1.0102
    -1.0021  -0.8788  -0.7934  -0.7437  -0.7085  -0.6462  -0.5425  -0.5221
    -0.4328  -0.4282  -0.3742  -0.3608  -0.3452  -0.3161  -0.2383  -0.1251
    -0.1065  -0.0460   0.0032   0.0661   0.1097   0.1345   0.1726   0.2224
     0.2459   0.2870   0.3135   0.3246   0.3577   0.3954   0.4177   0.4959
     0.5687   0.6183   0.6674   0.7079   0.7118   0.8896   1.0020   1.0406
     1.1718   1.1945   1.3620   1.4296   1.5000   1.6215   1.9998   2.0455
     2.2175   3.4940   3.6077   3.6320   3.6420   3.7453   3.8786   3.9614
     4.0021   4.0269   4.0658

[...]

          k = 0.0380-0.0419 0.0000 ( 17876 PWs)   bands (ev):

[...]

          k =-0.0760-0.0000 0.0000 ( 17886 PWs)   bands (ev):

[...]

          k =-0.0760-0.0839 0.0000 ( 17948 PWs)   bands (ev):

   -55.5967 -55.5966 -55.5730 -55.5602 -55.4862 -55.4817 -55.4626 -55.4145
   -55.4136 -55.3785 -55.3733 -55.3376 -55.0350 -54.9979 -54.5767 -54.5763
   -31.9461 -31.9209 -31.9132 -31.9130 -31.8911 -31.8909 -31.8260 -31.8212
   -31.8129 -31.8080 -31.7893 -31.7392 -31.7354 -31.7323 -31.7230 -31.7217
   -31.7195 -31.7166 -31.7159 -31.7142 -31.7126 -31.7001 -31.6910 -31.6762
   -31.6736 -31.6690 -31.6474 -31.6187 -31.6176 -31.6081 -31.5993 -31.5951
   -31.5920 -31.5909 -31.5895 -31.5446 -31.5187 -31.2940 -31.2684 -31.2630
   -31.2466 -31.1906 -30.9029 -30.9026 -30.8135 -30.8130 -30.7744 -30.7742
   -18.6643 -17.8921 -15.7746 -15.6816 -15.5946 -15.5525 -15.4739 -15.4554
   -15.4014 -15.3365 -15.2981 -15.2797 -15.2381 -15.2094 -15.1650 -15.1526
   -15.1449 -15.1213 -15.0971 -15.0730 -15.0618 -15.0557 -15.0509 -15.0376
   -15.0039 -14.9721 -14.9354 -14.9315 -14.9031 -14.6603 -14.5838 -13.0805
   -13.0804 -12.0260  -7.7689  -6.4444  -5.3703  -4.5654  -3.1869  -3.0625
    -2.8921  -2.8519  -2.8046  -2.7507  -2.7428  -2.6886  -2.5642  -2.5551
    -2.5241  -2.4597  -2.4364  -2.4333  -2.4247  -2.4208  -2.3997  -2.3629
    -2.3623  -2.3077  -2.2984  -2.2872  -2.2818  -2.2627  -2.2461  -2.2431
    -2.2195  -2.1733  -2.1582  -2.1429  -2.0357  -1.9323  -1.8777  -1.8398
    -1.8096  -1.7626  -1.7577  -1.7376  -1.7218  -1.6836  -1.6676  -1.6116
    -1.4966  -1.4183  -1.3322  -1.3020  -1.2727  -1.2024  -1.1573  -1.0932
    -1.0527  -1.0472  -0.9636  -0.8488  -0.8359  -0.7989  -0.7708  -0.6946
    -0.6659  -0.6333  -0.5728  -0.5660  -0.5384  -0.5102  -0.4740  -0.3824
    -0.3646  -0.3582  -0.3285  -0.3197  -0.3084  -0.2675  -0.1938  -0.0956
    -0.0239  -0.0173   0.0884   0.2156   0.3128   0.4447   0.4729   0.5210
     0.5741   0.6076   0.6915   0.6993   0.7254   0.7894   0.8322   0.9003
     0.9244   0.9396   1.0252   1.0324   1.7936   1.7948   1.8655   1.8656
     2.1613   3.8584   3.8867   3.9073   3.9521   4.0297   4.0534   4.0543
     4.0603   4.1836   4.1992

     the Fermi energy is     3.5129 ev

!    total energy              =   -2973.98335983 Ry
     estimated scf accuracy    <       0.00000007 Ry
     smearing contrib. (-TS)   =      -0.02040455 Ry
     internal energy E=F+TS    =   -2973.96295528 Ry

     The total energy is F=E-TS. E is the sum of the following terms:
     one-electron contribution =  -24204.24467002 Ry
     hartree contribution      =   12196.75081752 Ry
     xc contribution           =    -494.25981690 Ry
     ewald contribution        =    9527.78909781 Ry
     electric field correction =       0.00161632 Ry

     convergence has been achieved in  77 iterations

     Forces acting on atoms (cartesian axes, Ry/au):

     atom    1 type  1   force =    -0.00006083   -0.00018835    0.09551547
     atom    2 type  1   force =     0.00002352   -0.00035817   -0.17555220
     atom    3 type  2   force =     0.00009534   -0.00012877   -0.02315064
     atom    4 type  2   force =     0.00000655   -0.00139510    0.05289700
     atom    5 type  2   force =    -0.01000559   -0.00075485    0.00325215
     atom    6 type  2   force =     0.01153647   -0.00009700    0.00282699
     atom    7 type  1   force =     0.00046235    0.00027986   -0.00662321
     atom    8 type  1   force =     0.00029280    0.00536291    0.01758455
     atom    9 type  2   force =    -0.00014720   -0.00015432   -0.00040560
     atom   10 type  2   force =    -0.00346437    0.00074961   -0.01266246
     atom   11 type  2   force =    -0.00080690   -0.00032687    0.00008800
     atom   12 type  2   force =     0.00032244   -0.00017206    0.00009401
     atom   13 type  1   force =    -0.00026611    0.00039506   -0.00021974
     atom   14 type  1   force =     0.00022335    0.00002980    0.00066520
     atom   15 type  2   force =    -0.00012455    0.00009756   -0.00037684
     atom   16 type  2   force =    -0.00003536   -0.00022163   -0.00007673
     atom   17 type  2   force =     0.00049553   -0.00013345   -0.00007212
     atom   18 type  2   force =    -0.00027280   -0.00036466   -0.00000283
     atom   19 type  1   force =    -0.00009716   -0.00012584    0.00031378
     atom   20 type  1   force =     0.00044052   -0.00004339   -0.00034005
     atom   21 type  2   force =     0.00006974    0.00003124    0.10314837
     atom   22 type  2   force =     0.00005125   -0.00001400   -0.00004481
     atom   23 type  2   force =    -0.07159289   -0.00013831   -0.02753926
     atom   24 type  2   force =     0.07151958    0.00036400   -0.02757997
     atom   25 type  1   force =     0.00018936   -0.00009334    0.09517655
     atom   26 type  1   force =     0.00008054   -0.00039916   -0.17572617
     atom   27 type  2   force =     0.00011236   -0.00023874   -0.02206589
     atom   28 type  2   force =     0.00002674   -0.00098745    0.05230138
     atom   29 type  2   force =    -0.01015450    0.00036616    0.00285712
     atom   30 type  2   force =     0.01155509    0.00074389    0.00247766
     atom   31 type  1   force =     0.00027664    0.00393499   -0.01130442
     atom   32 type  1   force =     0.00045805   -0.00671977    0.01787736
     atom   33 type  2   force =    -0.00007968    0.00004713   -0.00021087
     atom   34 type  2   force =    -0.00395528    0.00073628   -0.01215061
     atom   35 type  2   force =    -0.00021034    0.00007781   -0.00017737
     atom   36 type  2   force =    -0.00000892    0.00002943   -0.00008488
     atom   37 type  1   force =    -0.00004737   -0.00041008    0.00036300
     atom   38 type  1   force =     0.00006570    0.00001468    0.00039639
     atom   39 type  2   force =     0.00035893   -0.00036125    0.00025485
     atom   40 type  2   force =    -0.00050331    0.00026451   -0.00009781
     atom   41 type  2   force =     0.00008713    0.00008505   -0.00015018
     atom   42 type  2   force =     0.00032732    0.00018944    0.00024836
     atom   43 type  1   force =    -0.00012419   -0.00032679    0.00000468
     atom   44 type  1   force =    -0.00014289   -0.00016866    0.00020880
     atom   45 type  2   force =     0.00007199   -0.00000190    0.10308960
     atom   46 type  2   force =    -0.07159315   -0.00003587   -0.02751407
     atom   47 type  2   force =     0.07152481    0.00035514   -0.02760455
     atom   48 type  3   force =    -0.00048472    0.00012114    0.00015152
     atom   49 type  4   force =     0.00191507    0.00004713    0.00087229
     atom   50 type  5   force =    -0.00044875   -0.00047525   -0.00039408
     atom   51 type  5   force =     0.00044753   -0.00034887   -0.00005937
     atom   52 type  3   force =     0.00013870    0.00019336   -0.00043585
     atom   53 type  5   force =     0.00060794    0.00039108   -0.00011583
     atom   54 type  2   force =    -0.00060307   -0.00130357   -0.00063946
     atom   55 type  5   force =     0.00173368    0.00001596    0.00016276
     atom   56 type  5   force =    -0.00028711    0.00156425    0.00055004

     Total force =     0.364661     Total SCF correction =     0.000914
  @ DRIVER MODE: Message from server: STATUS
  @ DRIVER MODE: Message from server: GETFORCE
  @ DRIVER MODE: Returning v,forces,stress,ensemble

     Writing output data file ./calc.save/
  @ DRIVER MODE: Message from server: EXIT
  @ DRIVE MODE: Exiting

     General routines

     Parallel routines

   This run was terminated on:  20:28:40  15Sep2021

   JOB DONE.