     Program PWSCF v.6.7GPU starts on 19Oct2021 at  5:56: 3

     R & G space division:  proc/nbgrp/npool/nimage =       8
     Reading input from /storage/home/hcoda1/3/ntian30/research/carbon/CxH_vib/Thiel_calc/ads_slab/NH2NH2HH_perslab/out_0038/pw.inp
Warning: card &CELL ignored
Warning: card   CELL_DYNAMICS='IPI', ignored
Warning: card / ignored

     Current dimensions of program PWSCF are:
     Max number of different atomic species (ntypx) = 10
     Max number of k-points (npk) =  40000
     Max angular momentum in pseudopotentials (lmaxx) =  3
     Presently no symmetry can be used with electric field

     Message from routine cell_base_init:
     DEPRECATED: use true lattice parameter, not A to a.u. conversion factor

     IMPORTANT: XC functional enforced from input :
     Exchange-correlation= BEEF-VDW
                           (   1   4  43  14   2   0   0)
     Any further DFT definition will be discarded
     Please, verify this is what you really want

  @ DRIVER MODE: Connecting to
 qe_1139763_3255137.sched-torque.pace.gatech.edujbhb2nva_scratch
  using UNIX socket
  @ DRIVER MODE: Message from server: STATUS
  @ DRIVER MODE: Message from server: INIT
  @ DRIVER MODE: Receiving replica           0          -1
  @ DRIVER MODE: Receiving encoded integer          25
  @ DRIVER MODE:  SCF:  T  FORCE:  T  STRESS:  F  VC:  F  ENSEMBLE:  F
  @ DRIVER MODE:  SCF:  T  FORCE:  T  STRESS:  F  VC:  F  ENSEMBLE:  F

     Using Slab Decomposition

     bravais-lattice index     =            0
     lattice parameter (alat)  =       1.8897  a.u.
     unit-cell volume          =    9988.4706 (a.u.)^3
     number of atoms/cell      =           61
     number of atomic types    =            4
     number of electrons       =       442.00
     number of Kohn-Sham states=          231
     kinetic-energy cutoff     =      29.3995  Ry
     charge density cutoff     =     293.9946  Ry
     scf convergence threshold =      7.3E-08
     mixing beta               =       0.0500
     number of iterations used =            8  plain     mixing
     Exchange-correlation= BEEF-VDW
                           (   1   4  43  14   2   0   0)

     celldm(1)=   1.889726  celldm(2)=   0.000000  celldm(3)=   0.000000
     celldm(4)=   0.000000  celldm(5)=   0.000000  celldm(6)=   0.000000

     crystal axes: (cart. coord. in units of alat)
               a(1) = (   6.579727   0.000000   0.000000 )
               a(2) = (  -0.001163   8.942395   0.000000 )
               a(3) = (   0.000000   0.000000  25.155947 )

     reciprocal axes: (cart. coord. in units 2 pi/alat)
               b(1) = (  0.151982  0.000020  0.000000 )
               b(2) = (  0.000000  0.111827  0.000000 )
               b(3) = (  0.000000  0.000000  0.039752 )

     PseudoPot. # 1 for O  read from file:
     /storage/coda1/p-amedford6/0/shared/rich_project_chbe-medford/medford-share/data/pseudos_module/espresso/nninc/pbe/van/O.UPF
     MD5 check sum: 78c19812648e8988a0fe644b0f25305e
     Pseudo is Ultrasoft, Zval =  6.0
     Generated by new atomic code, or converted to UPF format
     Using radial grid of  737 points,  4 beta functions with:
                l(1) =   0
                l(2) =   0
                l(3) =   1
                l(4) =   1
     Q(r) pseudized with  8 coefficients,  rinner =    0.800   0.800   0.800

     PseudoPot. # 2 for Ti read from file:
     /storage/coda1/p-amedford6/0/shared/rich_project_chbe-medford/medford-share/data/pseudos_module/espresso/nninc/pbe/van/Ti.UPF
     MD5 check sum: 8e4df49b7f0d34bbd5052bf3f5ea0213
     Pseudo is Ultrasoft, Zval = 12.0
     Generated by new atomic code, or converted to UPF format
     Using radial grid of  851 points,  6 beta functions with:
                l(1) =   0
                l(2) =   0
                l(3) =   1
                l(4) =   1
                l(5) =   2
                l(6) =   2
     Q(r) pseudized with  8 coefficients,  rinner =    1.000   1.000   1.000
                                                       1.000   1.000

     PseudoPot. # 3 for N  read from file:
     /storage/coda1/p-amedford6/0/shared/rich_project_chbe-medford/medford-share/data/pseudos_module/espresso/nninc/pbe/van/N.UPF
     MD5 check sum: 90d10febe142ad51ac9d5be1deb811c4
     Pseudo is Ultrasoft, Zval =  5.0
     Generated by new atomic code, or converted to UPF format
     Using radial grid of  729 points,  4 beta functions with:
                l(1) =   0
                l(2) =   0
                l(3) =   1
                l(4) =   1
     Q(r) pseudized with  8 coefficients,  rinner =    0.800   0.800   0.800

     PseudoPot. # 4 for H  read from file:
     /storage/coda1/p-amedford6/0/shared/rich_project_chbe-medford/medford-share/data/pseudos_module/espresso/nninc/pbe/van/H.UPF
     MD5 check sum: b5ee9d7bfd3a09ee7748110bda690ff7
     Pseudo is Ultrasoft, Zval =  1.0
     Generated by new atomic code, or converted to UPF format
     Using radial grid of  615 points,  1 beta functions with:
                l(1) =   0
     Q(r) pseudized with  8 coefficients,  rinner =    0.800

     atomic species   valence    mass     pseudopotential
        O1             6.00    15.99900     O ( 1.00)
        Ti1           12.00    47.86700     Ti( 1.00)
        N1             5.00    14.00700     N ( 1.00)
        H1             1.00     1.00800     H ( 1.00)

     No symmetry found

   Cartesian axes

     site n.     atom                  positions (alat units)
         1           O1  tau(   1) = (   0.0007354   0.0005023  10.5931620  )
         2           O1  tau(   2) = (   3.2456387   0.0208629  13.8623892  )
         3           O1  tau(   3) = (   6.5569189   0.0555649  17.3369326  )
         4           O1  tau(   4) = (   0.0006271   0.0005054   7.9858123  )
         5           O1  tau(   5) = (   3.2933513   8.9300833  11.1812556  )
         6           O1  tau(   6) = (   0.0337597   0.0712708  14.6279364  )
         7           O1  tau(   7) = (   1.9868534   1.4903216   9.2879459  )
         8           O1  tau(   8) = (   5.2215124   1.6184176  12.5791628  )
         9           O1  tau(   9) = (   1.9922958   1.5902288  16.0980526  )
        10           Ti1 tau(  10) = (   0.0007404   1.4906270   9.2895810  )
        11           Ti1 tau(  11) = (   3.2860490   1.3455809  12.4359399  )
        12           Ti1 tau(  12) = (   6.5618936   1.3602716  15.8812525  )
        13           O1  tau(  13) = (   4.5942328   1.4918067   9.2879030  )
        14           O1  tau(  14) = (   1.3307156   1.5887400  12.5381291  )
        15           O1  tau(  15) = (   4.5725103   1.6118788  16.0006659  )
        16           Ti1 tau(  16) = (   3.2902859   2.9801868   9.2893338  )
        17           Ti1 tau(  17) = (   0.0046584   2.8227806  12.4510757  )
        18           Ti1 tau(  18) = (   3.2555632   2.8898243  15.6661830  )
        19           O1  tau(  19) = (   0.0003479   2.9813005  10.5931620  )
        20           O1  tau(  20) = (   3.2279248   2.9553539  13.8813459  )
        21           O1  tau(  21) = (   0.0002396   2.9813036   7.9858123  )
        22           O1  tau(  22) = (   3.2889556   2.9859946  11.1941525  )
        23           O1  tau(  23) = (   0.0559812   2.9852445  14.6488683  )
        24           O1  tau(  24) = (   1.9864658   4.4711199   9.2879459  )
        25           O1  tau(  25) = (   5.2314886   4.5920767  12.6107679  )
        26           O1  tau(  26) = (   1.9969377   4.5324570  16.1535429  )
        27           Ti1 tau(  27) = (   0.0003529   4.4714252   9.2895810  )
        28           Ti1 tau(  28) = (   3.2845268   4.3564118  12.5295435  )
        29           Ti1 tau(  29) = (   6.5676402   4.3565080  15.8255799  )
        30           O1  tau(  30) = (   4.5938453   4.4726049   9.2879030  )
        31           O1  tau(  31) = (   1.3315080   4.5776727  12.5731030  )
        32           O1  tau(  32) = (   4.5871741   4.4544688  15.9274438  )
        33           Ti1 tau(  33) = (   3.2898983   5.9609850   9.2893338  )
        34           Ti1 tau(  34) = (   6.5783773   5.8108302  12.4536689  )
        35           Ti1 tau(  35) = (   3.3162440   5.8110762  16.0333210  )
        36           O1  tau(  36) = (  -0.0000397   5.9620987  10.5931620  )
        37           O1  tau(  37) = (   3.2636778   5.9869953  13.9790019  )
        38           O1  tau(  38) = (   6.4104969   6.0475349  17.2872242  )
        39           O1  tau(  39) = (  -0.0001480   5.9621018   7.9858123  )
        40           O1  tau(  40) = (   3.2905218   5.9516507  11.2202175  )
        41           O1  tau(  41) = (   0.0617018   5.9803669  14.6637187  )
        42           O1  tau(  42) = (   1.9860782   7.4519181   9.2879459  )
        43           O1  tau(  43) = (   5.2407037   7.5572870  12.6049163  )
        44           O1  tau(  44) = (   1.9881273   7.5959696  16.0809372  )
        45           Ti1 tau(  45) = (  -0.0000347   7.4522234   9.2895810  )
        46           Ti1 tau(  46) = (   3.2912638   7.2305267  12.6172466  )
        47           Ti1 tau(  47) = (   0.0232661   7.3094817  15.9177444  )
        48           O1  tau(  48) = (   4.5934577   7.4534031   9.2879030  )
        49           O1  tau(  49) = (   1.3287160   7.5404973  12.5734398  )
        50           O1  tau(  50) = (   4.6507959   7.6754627  15.9163669  )
        51           Ti1 tau(  51) = (   3.2895107   8.9417832   9.2893338  )
        52           Ti1 tau(  52) = (   0.0077981   8.7799231  12.4640552  )
        53           Ti1 tau(  53) = (   3.2910717   8.8534038  15.6608489  )
        54           N1  tau(  54) = (   3.7626148   6.0985185  18.0019073  )
        55           H1  tau(  55) = (   3.4663780   5.3841571  18.6619304  )
        56           H1  tau(  56) = (   3.5565419   6.9988739  18.4208443  )
        57           N1  tau(  57) = (   6.5319303   3.0529623  17.4095181  )
        58           H1  tau(  58) = (   5.7013393   3.0140474  17.9904383  )
        59           H1  tau(  59) = (   0.7603229   3.1006543  18.0203722  )
        60           H1  tau(  60) = (   5.5074376   6.0468821  17.7423635  )
        61           H1  tau(  61) = (   0.7324116   0.0679216  17.9402240  )

     number of k points=    10  Fermi-Dirac smearing, width (Ry)=  0.0073
                       cart. coord. in units 2pi/alat
        k(    1) = (   0.0000000   0.0000000   0.0000000), wk =   0.1250000
        k(    2) = (   0.0000000   0.0279567   0.0000000), wk =   0.2500000
        k(    3) = (   0.0000000  -0.0559134   0.0000000), wk =   0.1250000
        k(    4) = (   0.0379955   0.0000049   0.0000000), wk =   0.2500000
        k(    5) = (   0.0379955   0.0279617   0.0000000), wk =   0.2500000
        k(    6) = (   0.0379955  -0.0559085   0.0000000), wk =   0.2500000
        k(    7) = (   0.0379955  -0.0279518   0.0000000), wk =   0.2500000
        k(    8) = (  -0.0759910  -0.0000099   0.0000000), wk =   0.1250000
        k(    9) = (  -0.0759910   0.0279468   0.0000000), wk =   0.2500000
        k(   10) = (  -0.0759910  -0.0559233   0.0000000), wk =   0.1250000

     Initial potential from superposition of free atoms

     starting charge  423.99908, renormalised to  442.00000

     negative rho (up, down):  3.745E-02 0.000E+00

     %%%%%%%%%%%%%%%%%%%%%%%%%%%%%%%%%%%%%%%%%%%%%%%%%%%%%%%%%%%%%%%%%%%%%%%%
     %                                                                      %
     % You are using vdW-DF, which was implemented by the Thonhauser group. %
     % Please cite the following two papers that made this development      %
     % possible and the two reviews that describe the various versions:     %
     %                                                                      %
     %   T. Thonhauser et al., PRL 115, 136402 (2015).                      %
     %   T. Thonhauser et al., PRB 76, 125112 (2007).                       %
     %   K. Berland et al., Rep. Prog. Phys. 78, 066501 (2015).             %
     %   D.C. Langreth et al., J. Phys.: Condens. Matter 21, 084203 (2009). %
     %                                                                      %
     %                                                                      %
     % If you are calculating the stress with vdW-DF, please also cite:     %
     %                                                                      %
     %   R. Sabatini et al., J. Phys.: Condens. Matter 24, 424209 (2012).   %
     %                                                                      %
     %%%%%%%%%%%%%%%%%%%%%%%%%%%%%%%%%%%%%%%%%%%%%%%%%%%%%%%%%%%%%%%%%%%%%%%%

     Adding external electric field

     Computed dipole along edir(3) :
        Dipole               -5.9687 Ry au,        -15.1708 Debye
        Dipole field         -0.0075 Ry au,

        Potential amp.        0.6961 Ry
        Total length         46.3494 bohr

     Starting wfcs are  334 atomic wfcs
  @ DRIVER MODE: Message from server: STATUS
  @ DRIVER MODE: Message from server: POSDATA
  @ DRIVER MODE: Reading and sharing cell
  @ DRIVER MODE: Reading and sharing positions
  @ DRIVER MODE: Received positions

     Self-consistent Calculation

     iteration #  1     ecut=    29.40 Ry     beta= 0.05
     Davidson diagonalization with overlap
     c_bands:  1 eigenvalues not converged
     c_bands:  3 eigenvalues not converged
     c_bands:  5 eigenvalues not converged
     c_bands:  2 eigenvalues not converged
     c_bands:  4 eigenvalues not converged
     c_bands:  4 eigenvalues not converged
     c_bands:  4 eigenvalues not converged
     c_bands:  2 eigenvalues not converged
     c_bands:  3 eigenvalues not converged
     ethr =  1.00E-05,  avg # of iterations = 21.0

[...]

     total energy              =   -3277.93740068 Ry
     estimated scf accuracy    <     239.53133908 Ry

     iteration #  2     ecut=    29.40 Ry     beta= 0.05
     Davidson diagonalization with overlap
     ethr =  1.00E-02,  avg # of iterations = 15.9

[...]

     iteration # 43     ecut=    29.40 Ry     beta= 0.05
     Davidson diagonalization with overlap
     ethr =  5.05E-11,  avg # of iterations =  8.7

[...]

     total energy              =   -3295.80729860 Ry
     estimated scf accuracy    <       0.00000009 Ry

     iteration # 44     ecut=    29.40 Ry     beta= 0.05
     Davidson diagonalization with overlap
     c_bands:  1 eigenvalues not converged
     ethr =  2.10E-11,  avg # of iterations =  8.5

     negative rho (up, down):  3.606E-02 0.000E+00

     Adding external electric field

     Computed dipole along edir(3) :
        Dipole                1.5078 Ry au,          3.8323 Debye
        Dipole field          0.0019 Ry au,

        Potential amp.       -0.1758 Ry
        Total length         46.3494 bohr

     End of self-consistent calculation

          k = 0.0000 0.0000 0.0000 ( 26871 PWs)   bands (ev):

   -57.7263 -57.7006 -57.6902 -57.6644 -57.6546 -57.6254 -57.6049 -57.5998
   -57.5715 -57.5602 -57.5098 -57.4792 -57.4629 -57.4566 -57.4485 -56.7481
   -56.7239 -56.7194 -34.1079 -34.1036 -34.0960 -34.0869 -34.0771 -34.0595
   -34.0580 -34.0434 -34.0302 -34.0182 -33.9885 -33.9699 -33.9513 -33.9451
   -33.9374 -33.9192 -33.9157 -33.9115 -33.8939 -33.8887 -33.8686 -33.8673
   -33.8441 -33.8342 -33.8303 -33.8244 -33.8135 -33.8116 -33.8064 -33.7981
   -33.7850 -33.7832 -33.7692 -33.7316 -33.7246 -33.7201 -33.7060 -33.7047
   -33.6968 -33.6951 -33.6847 -33.6763 -33.6695 -33.6636 -33.6411 -33.0633
   -33.0622 -33.0577 -33.0462 -33.0419 -32.9742 -32.9121 -32.9068 -32.7739
   -19.3058 -18.8105 -18.5313 -18.2317 -18.0177 -17.9753 -17.9430 -17.8210
   -17.7853 -17.7613 -17.6631 -17.6519 -17.5893 -17.5362 -17.5078 -17.4597
   -17.4403 -17.3806 -17.3662 -17.3578 -17.3526 -17.3427 -17.3320 -17.2667
   -17.2396 -17.2111 -17.1723 -17.1565 -17.1500 -17.1427 -17.1203 -16.8474
   -15.5040 -15.2146 -15.1565 -15.1553 -15.0659  -6.9882  -6.8187  -6.6795
    -6.3291  -5.8617  -5.7875  -5.6387  -5.5149  -5.2225  -5.1955  -5.1438
    -5.1170  -5.0881  -5.0235  -5.0033  -4.9904  -4.9348  -4.9178  -4.8451
    -4.8225  -4.7807  -4.7575  -4.7310  -4.6865  -4.6462  -4.6197  -4.6070
    -4.5766  -4.5691  -4.5122  -4.4888  -4.4592  -4.4537  -4.4372  -4.3292
    -4.2962  -4.2391  -4.1727  -4.0935  -4.0407  -4.0331  -3.9760  -3.9569
    -3.9046  -3.8672  -3.8272  -3.8180  -3.7823  -3.7444  -3.6456  -3.6090
    -3.5895  -3.5238  -3.5021  -3.4329  -3.4155  -3.3834  -3.3410  -3.3348
    -3.2973  -3.2002  -3.1663  -3.0858  -3.0287  -2.9767  -2.9361  -2.8916
    -2.8451  -2.8120  -2.7871  -2.7049  -2.6270  -2.5444  -2.4949  -2.4820
    -2.4705  -2.4197  -2.4125  -2.4101  -2.3542  -2.3275  -2.3174  -2.2801
    -2.2268  -2.2045  -2.1426  -2.0989  -2.0622  -1.9948  -1.9792  -1.8986
    -1.8920  -1.8285  -1.7851  -1.7455  -1.6341  -1.5996  -1.5668  -1.5642
    -1.4454  -1.4091  -1.1482  -1.0055  -0.7785  -0.7456  -0.5017  -0.4528
    -0.4500  -0.1870  -0.1837  -0.0554   1.3209   1.5094   1.6432   1.6989
     1.7037   1.7369   1.8024   1.8898   1.9138   1.9619   1.9945

[...]

          k = 0.0380-0.0280 0.0000 ( 26873 PWs)   bands (ev):

[...]

          k =-0.0760-0.0000 0.0000 ( 26902 PWs)   bands (ev):

[...]

          k =-0.0760-0.0559 0.0000 ( 26868 PWs)   bands (ev):

   -57.7227 -57.7083 -57.6861 -57.6633 -57.6545 -57.6262 -57.6061 -57.5995
   -57.5708 -57.5600 -57.5101 -57.4742 -57.4666 -57.4624 -57.4437 -56.7419
   -56.7365 -56.7130 -34.1953 -34.1577 -34.1569 -34.0956 -34.0614 -34.0539
   -34.0432 -34.0406 -34.0030 -33.9689 -33.9345 -33.9223 -33.9161 -33.9144
   -33.9039 -33.9038 -33.8826 -33.8745 -33.8716 -33.8699 -33.8663 -33.8604
   -33.8552 -33.8487 -33.8328 -33.8280 -33.8253 -33.8210 -33.8168 -33.7950
   -33.7936 -33.7719 -33.7652 -33.7577 -33.7520 -33.7315 -33.7282 -33.7220
   -33.7025 -33.7009 -33.7001 -33.6965 -33.6871 -33.6693 -33.6525 -33.1521
   -33.0630 -33.0578 -33.0354 -32.9557 -32.9497 -32.8880 -32.8734 -32.8681
   -19.2918 -18.7917 -18.2732 -18.1364 -17.9647 -17.9241 -17.8492 -17.8362
   -17.8248 -17.7948 -17.7033 -17.6797 -17.6536 -17.5704 -17.5525 -17.5016
   -17.4579 -17.4447 -17.4277 -17.4155 -17.4073 -17.3914 -17.3567 -17.3247
   -17.2916 -17.2404 -17.1779 -17.1597 -17.1110 -17.0960 -17.0654 -16.8812
   -15.4987 -15.2126 -15.2106 -15.0938 -15.0672  -6.9931  -6.8465  -6.6746
    -6.3110  -5.5183  -5.4555  -5.3718  -5.3587  -5.2413  -5.2079  -5.0164
    -5.0056  -4.9912  -4.9584  -4.9267  -4.8910  -4.8643  -4.8399  -4.8264
    -4.8122  -4.7911  -4.7654  -4.7533  -4.7369  -4.6928  -4.6460  -4.6397
    -4.6288  -4.6063  -4.5512  -4.5067  -4.4796  -4.4272  -4.4243  -4.3434
    -4.3195  -4.3015  -4.2278  -4.2190  -4.0968  -3.9501  -3.8889  -3.8688
    -3.8443  -3.7969  -3.7876  -3.7334  -3.7108  -3.6956  -3.5598  -3.4764
    -3.4520  -3.4171  -3.3861  -3.3634  -3.3273  -3.2999  -3.2784  -3.2526
    -3.2364  -3.1842  -3.1680  -3.1241  -3.0812  -3.0000  -2.9558  -2.8983
    -2.8748  -2.8563  -2.8383  -2.8347  -2.8136  -2.7812  -2.7521  -2.6991
    -2.6870  -2.6572  -2.5856  -2.5298  -2.5030  -2.4784  -2.4362  -2.4290
    -2.2744  -2.2574  -2.2233  -2.2098  -2.1366  -2.0955  -2.0014  -1.9747
    -1.9529  -1.8809  -1.8095  -1.7654  -1.7088  -1.5125  -1.5038  -1.3848
    -1.3480  -1.2991  -1.2735  -1.2320  -1.0707  -0.7177  -0.6641  -0.3809
    -0.3697  -0.3437  -0.1883  -0.1820   1.4280   1.4517   1.5366   1.5923
     1.6116   1.6494   1.6622   1.7015   1.7219   1.7783   1.9141

     the Fermi energy is     1.3717 ev

!    total energy              =   -3295.80750400 Ry
     estimated scf accuracy    <       0.00000006 Ry
     smearing contrib. (-TS)   =      -0.03573102 Ry
     internal energy E=F+TS    =   -3295.77177299 Ry

     The total energy is F=E-TS. E is the sum of the following terms:
     one-electron contribution =  -34705.80185197 Ry
     hartree contribution      =   17418.79556114 Ry
     xc contribution           =    -543.87081782 Ry
     ewald contribution        =   14535.10247562 Ry
     electric field correction =       0.00286004 Ry

     convergence has been achieved in  44 iterations

     Forces acting on atoms (cartesian axes, Ry/au):

     atom    1 type  1   force =    -0.00168732    0.00376761    0.05469779
     atom    2 type  1   force =     0.00024293   -0.00249949   -0.00846144
     atom    3 type  1   force =     0.00045452   -0.00360449    0.00034310
     atom    4 type  1   force =     0.00004728   -0.00003376    0.10679037
     atom    5 type  1   force =    -0.00020476    0.00066565    0.00658833
     atom    6 type  1   force =     0.00003672   -0.00462478    0.00382876
     atom    7 type  1   force =     0.06647247    0.00079111   -0.02966722
     atom    8 type  1   force =     0.00660114   -0.02713468    0.00194399
     atom    9 type  1   force =     0.00660058   -0.02257263    0.00512638
     atom   10 type  2   force =    -0.00012243   -0.00450865   -0.18343989
     atom   11 type  2   force =     0.00067094    0.02087964   -0.00412784
     atom   12 type  2   force =    -0.00177141    0.02775903   -0.00655178
     atom   13 type  1   force =    -0.06653102    0.00044040   -0.02981540
     atom   14 type  1   force =    -0.00434578   -0.02770761    0.00253062
     atom   15 type  1   force =    -0.00655699   -0.02336687    0.00502141
     atom   16 type  2   force =     0.00008767    0.00069564    0.06699308
     atom   17 type  2   force =    -0.00237775    0.03351602    0.00347193
     atom   18 type  2   force =     0.00130839    0.02461364   -0.00358446
     atom   19 type  1   force =    -0.00169801    0.00674916    0.05326054
     atom   20 type  1   force =     0.00023583   -0.00116620   -0.00665325
     atom   21 type  1   force =     0.00003474    0.00109628    0.10725760
     atom   22 type  1   force =    -0.00025358   -0.00198471    0.00723532
     atom   23 type  1   force =     0.00071711   -0.00575005    0.00424343
     atom   24 type  1   force =     0.06751279    0.00138173   -0.02906779
     atom   25 type  1   force =     0.00528910   -0.03015851    0.00244313
     atom   26 type  1   force =     0.00659083   -0.02619856   -0.00420930
     atom   27 type  2   force =     0.00011614   -0.00121484   -0.18672035
     atom   28 type  2   force =     0.00007859    0.02384774   -0.00245791
     atom   29 type  2   force =    -0.00113203    0.02163213    0.00060942
     atom   30 type  1   force =    -0.06761347    0.00087682   -0.02892029
     atom   31 type  1   force =    -0.00538300   -0.02962024    0.00278861
     atom   32 type  1   force =    -0.00414009   -0.02262389    0.00248757
     atom   33 type  2   force =    -0.00005194    0.00130487    0.07477784
     atom   34 type  2   force =     0.00092811    0.03693063    0.00397456
     atom   35 type  2   force =    -0.00178862    0.03495870    0.00619660
     atom   36 type  1   force =    -0.00186611    0.00287848    0.05589533
     atom   37 type  1   force =     0.00130921    0.00405691   -0.01153328
     atom   38 type  1   force =     0.00874186   -0.00438887    0.00055112
     atom   39 type  1   force =     0.00002248   -0.00063524    0.10726144
     atom   40 type  1   force =     0.00015588   -0.00140628    0.00717688
     atom   41 type  1   force =    -0.00024768   -0.00385455    0.00209359
     atom   42 type  1   force =     0.06783738   -0.00221096   -0.02970941
     atom   43 type  1   force =     0.00369665   -0.02637217    0.00152486
     atom   44 type  1   force =     0.00977746   -0.01796862    0.00258764
     atom   45 type  2   force =     0.00002572    0.00217992   -0.18330364
     atom   46 type  2   force =    -0.00023287    0.01476773    0.00209334
     atom   47 type  2   force =     0.00309184    0.02737347   -0.00969316
     atom   48 type  1   force =    -0.06790436   -0.00284021   -0.02986242
     atom   49 type  1   force =    -0.00376188   -0.02551291    0.00182807
     atom   50 type  1   force =    -0.00771119   -0.02366082    0.00520399
     atom   51 type  2   force =     0.00045445   -0.00348530    0.06842370
     atom   52 type  2   force =    -0.00009927    0.03118827    0.00590442
     atom   53 type  2   force =    -0.00209236    0.02594909   -0.00048558
     atom   54 type  3   force =    -0.00056023   -0.00200465   -0.00128798
     atom   55 type  4   force =    -0.00082974    0.00039461   -0.00049750
     atom   56 type  4   force =     0.00027566    0.00089889    0.00129947
     atom   57 type  3   force =     0.00130908   -0.00264752   -0.00026897
     atom   58 type  4   force =     0.00048338    0.00103772   -0.00006448
     atom   59 type  4   force =     0.00008146    0.00027631    0.00071271
     atom   60 type  4   force =    -0.00910666   -0.00004339    0.00409907
     atom   61 type  4   force =    -0.00121782   -0.00110672    0.00111731

     Total force =     0.459786     Total SCF correction =     0.000644
  @ DRIVER MODE: Message from server: STATUS
  @ DRIVER MODE: Message from server: GETFORCE
  @ DRIVER MODE: Returning v,forces,stress,ensemble

     Writing output data file ./calc.save/
  @ DRIVER MODE: Message from server: EXIT
  @ DRIVE MODE: Exiting

     General routines

     Parallel routines

   This run was terminated on:   6:20:40  19Oct2021

   JOB DONE.