     Program PWSCF v.6.7GPU starts on 23Sep2021 at 13:55:19

     R & G space division:  proc/nbgrp/npool/nimage =       8
     Reading input from /storage/home/hcoda1/3/ntian30/research/carbon/CxH_vib/H2O_calc/ads_slab/CH2N2HO_b/out_0008/pw.inp
Warning: card &CELL ignored
Warning: card   CELL_DYNAMICS='IPI', ignored
Warning: card / ignored

     Current dimensions of program PWSCF are:
     Max number of different atomic species (ntypx) = 10
     Max number of k-points (npk) =  40000
     Max angular momentum in pseudopotentials (lmaxx) =  3
     Presently no symmetry can be used with electric field

     Message from routine cell_base_init:
     DEPRECATED: use true lattice parameter, not A to a.u. conversion factor

     IMPORTANT: XC functional enforced from input :
     Exchange-correlation= BEEF-VDW
                           (   1   4  43  14   2   0   0)
     Any further DFT definition will be discarded
     Please, verify this is what you really want

  @ DRIVER MODE: Connecting to
 qe_1139763_2947312.sched-torque.pace.gatech.edu73mnuc0z_scratch
  using UNIX socket
  @ DRIVER MODE: Message from server: STATUS
  @ DRIVER MODE: Message from server: INIT
  @ DRIVER MODE: Receiving replica           0          -1
  @ DRIVER MODE: Receiving encoded integer          25
  @ DRIVER MODE:  SCF:  T  FORCE:  T  STRESS:  F  VC:  F  ENSEMBLE:  F
  @ DRIVER MODE:  SCF:  T  FORCE:  T  STRESS:  F  VC:  F  ENSEMBLE:  F

     Using Slab Decomposition

     bravais-lattice index     =            0
     lattice parameter (alat)  =       1.8897  a.u.
     unit-cell volume          =    6658.9804 (a.u.)^3
     number of atoms/cell      =           54
     number of atomic types    =            5
     number of electrons       =       401.00
     number of Kohn-Sham states=          210
     kinetic-energy cutoff     =      29.3995  Ry
     charge density cutoff     =     293.9946  Ry
     scf convergence threshold =      7.3E-08
     mixing beta               =       0.0500
     number of iterations used =            8  plain     mixing
     Exchange-correlation= BEEF-VDW
                           (   1   4  43  14   2   0   0)

     celldm(1)=   1.889726  celldm(2)=   0.000000  celldm(3)=   0.000000
     celldm(4)=   0.000000  celldm(5)=   0.000000  celldm(6)=   0.000000

     crystal axes: (cart. coord. in units of alat)
               a(1) = (   6.579727   0.000000   0.000000 )
               a(2) = (  -0.000775   5.961596   0.000000 )
               a(3) = (   0.000000   0.000000  25.155947 )

     reciprocal axes: (cart. coord. in units 2 pi/alat)
               b(1) = (  0.151982  0.000020  0.000000 )
               b(2) = (  0.000000  0.167740  0.000000 )
               b(3) = (  0.000000  0.000000  0.039752 )

     PseudoPot. # 1 for Ti read from file:
     /storage/coda1/p-amedford6/0/shared/rich_project_chbe-medford/medford-share/data/pseudos_module/espresso/nninc/pbe/van/Ti.UPF
     MD5 check sum: 8e4df49b7f0d34bbd5052bf3f5ea0213
     Pseudo is Ultrasoft, Zval = 12.0
     Generated by new atomic code, or converted to UPF format
     Using radial grid of  851 points,  6 beta functions with:
                l(1) =   0
                l(2) =   0
                l(3) =   1
                l(4) =   1
                l(5) =   2
                l(6) =   2
     Q(r) pseudized with  8 coefficients,  rinner =    1.000   1.000   1.000
                                                       1.000   1.000

     PseudoPot. # 2 for O  read from file:
     /storage/coda1/p-amedford6/0/shared/rich_project_chbe-medford/medford-share/data/pseudos_module/espresso/nninc/pbe/van/O.UPF
     MD5 check sum: 78c19812648e8988a0fe644b0f25305e
     Pseudo is Ultrasoft, Zval =  6.0
     Generated by new atomic code, or converted to UPF format
     Using radial grid of  737 points,  4 beta functions with:
                l(1) =   0
                l(2) =   0
                l(3) =   1
                l(4) =   1
     Q(r) pseudized with  8 coefficients,  rinner =    0.800   0.800   0.800

     PseudoPot. # 3 for N  read from file:
     /storage/coda1/p-amedford6/0/shared/rich_project_chbe-medford/medford-share/data/pseudos_module/espresso/nninc/pbe/van/N.UPF
     MD5 check sum: 90d10febe142ad51ac9d5be1deb811c4
     Pseudo is Ultrasoft, Zval =  5.0
     Generated by new atomic code, or converted to UPF format
     Using radial grid of  729 points,  4 beta functions with:
                l(1) =   0
                l(2) =   0
                l(3) =   1
                l(4) =   1
     Q(r) pseudized with  8 coefficients,  rinner =    0.800   0.800   0.800

     PseudoPot. # 4 for C  read from file:
     /storage/coda1/p-amedford6/0/shared/rich_project_chbe-medford/medford-share/data/pseudos_module/espresso/nninc/pbe/van/C.UPF
     MD5 check sum: 1a69bf6b8db32088f5b2163dbdb77a27
     Pseudo is Ultrasoft, Zval =  4.0
     Generated by new atomic code, or converted to UPF format
     Using radial grid of  721 points,  4 beta functions with:
                l(1) =   0
                l(2) =   0
                l(3) =   1
                l(4) =   1
     Q(r) pseudized with  8 coefficients,  rinner =    0.800   0.800   0.800

     PseudoPot. # 5 for H  read from file:
     /storage/coda1/p-amedford6/0/shared/rich_project_chbe-medford/medford-share/data/pseudos_module/espresso/nninc/pbe/van/H.UPF
     MD5 check sum: b5ee9d7bfd3a09ee7748110bda690ff7
     Pseudo is Ultrasoft, Zval =  1.0
     Generated by new atomic code, or converted to UPF format
     Using radial grid of  615 points,  1 beta functions with:
                l(1) =   0
     Q(r) pseudized with  8 coefficients,  rinner =    0.800

     atomic species   valence    mass     pseudopotential
        Ti1           12.00    47.86700     Ti( 1.00)
        O1             6.00    15.99900     O ( 1.00)
        N1             5.00    14.00700     N ( 1.00)
        C1             4.00    12.01100     C ( 1.00)
        H1             1.00     1.00800     H ( 1.00)

     No symmetry found

   Cartesian axes

     site n.     atom                  positions (alat units)
         1           Ti1 tau(   1) = (   0.0004258   2.9801865   6.0000000  )
         2           Ti1 tau(   2) = (   3.2906075   1.4906267   6.0002472  )
         3           O1  tau(   3) = (   0.0006271   0.0005054   7.9858123  )
         4           O1  tau(   4) = (   3.2906025   0.0005020   7.3038282  )
         5           O1  tau(   5) = (   4.5942328   1.4918067   9.2879030  )
         6           O1  tau(   6) = (   1.9868534   1.4903216   9.2879459  )
         7           Ti1 tau(   7) = (   3.2907910   2.8959150   9.1758416  )
         8           Ti1 tau(   8) = (   0.0015273   1.4827037   9.2680791  )
         9           O1  tau(   9) = (   3.2935892   5.9488104  11.3374186  )
        10           O1  tau(  10) = (   0.0116148   5.9584955  10.6183126  )
        11           O1  tau(  11) = (   1.2908913   1.5070562  12.6495475  )
        12           O1  tau(  12) = (   5.3136790   1.4931969  12.6373367  )
        13           Ti1 tau(  13) = (   0.0127878   2.8868139  12.6015941  )
        14           Ti1 tau(  14) = (   3.2987545   1.3040885  12.7026746  )
        15           O1  tau(  15) = (   0.0175227   0.0240941  14.6538407  )
        16           O1  tau(  16) = (   3.3064676   0.0741613  13.9771881  )
        17           O1  tau(  17) = (   4.5827780   1.5498142  16.1449436  )
        18           O1  tau(  18) = (   2.0366442   1.5898792  16.0867183  )
        19           Ti1 tau(  19) = (   3.3102262   3.0030951  15.6784192  )
        20           Ti1 tau(  20) = (   0.0574396   1.3488835  16.0050117  )
        21           O1  tau(  21) = (   3.2904802   0.0005063   4.7018136  )
        22           O1  tau(  22) = (   0.0721820   0.0083530  17.1768217  )
        23           O1  tau(  23) = (   1.3043587   1.4918075   6.0039043  )
        24           O1  tau(  24) = (   5.2767064   1.4903225   6.0039473  )
        25           Ti1 tau(  25) = (   0.0000382   5.9609847   6.0000000  )
        26           Ti1 tau(  26) = (   3.2902200   4.4714249   6.0002472  )
        27           O1  tau(  27) = (   0.0002396   2.9813036   7.9858123  )
        28           O1  tau(  28) = (   3.2902150   2.9813002   7.3038282  )
        29           O1  tau(  29) = (   4.5938453   4.4726049   9.2879030  )
        30           O1  tau(  30) = (   1.9864658   4.4711199   9.2879459  )
        31           Ti1 tau(  31) = (   3.2891106   5.8743827   9.1763621  )
        32           Ti1 tau(  32) = (   0.0006254   4.4649316   9.2693709  )
        33           O1  tau(  33) = (   3.2934580   3.0155445  11.2926531  )
        34           O1  tau(  34) = (   0.0092240   2.9805883  10.6323155  )
        35           O1  tau(  35) = (   1.2931599   4.4792858  12.6478595  )
        36           O1  tau(  36) = (   5.3056662   4.4876152  12.6363886  )
        37           Ti1 tau(  37) = (   6.5746511   5.8741161  12.5153022  )
        38           Ti1 tau(  38) = (   3.2863760   4.3878630  12.4273393  )
        39           O1  tau(  39) = (   6.5684735   3.0099032  14.7382625  )
        40           O1  tau(  40) = (   3.3273571   2.9915841  13.8999870  )
        41           O1  tau(  41) = (   4.5754576   4.4629145  16.1269992  )
        42           O1  tau(  42) = (   2.0375947   4.4358961  16.0236521  )
        43           Ti1 tau(  43) = (   3.3857405   0.0156461  16.2930207  )
        44           Ti1 tau(  44) = (   0.0840152   4.5257857  15.8004899  )
        45           O1  tau(  45) = (   3.2900926   2.9813045   4.7018136  )
        46           O1  tau(  46) = (   1.3039711   4.4726057   6.0039043  )
        47           O1  tau(  47) = (   5.2763189   4.4711207   6.0039473  )
        48           N1  tau(  48) = (   6.4876325   3.2951735  18.6921505  )
        49           N1  tau(  49) = (   0.0239976   3.0420413  17.5569154  )
        50           C1  tau(  50) = (   6.3059459   3.6199554  19.9036174  )
        51           H1  tau(  51) = (   5.2963100   3.8231348  20.2372398  )
        52           H1  tau(  52) = (   0.5840524   3.7151184  20.5547593  )
        53           O1  tau(  53) = (   3.1058724   5.9363815  18.1230642  )
        54           H1  tau(  54) = (   2.1709728   0.0855973  18.3648350  )

     number of k points=    10  Fermi-Dirac smearing, width (Ry)=  0.0073
                       cart. coord. in units 2pi/alat
        k(    1) = (   0.0000000   0.0000000   0.0000000), wk =   0.1250000
        k(    2) = (   0.0000000   0.0419351   0.0000000), wk =   0.2500000
        k(    3) = (   0.0000000  -0.0838702   0.0000000), wk =   0.1250000
        k(    4) = (   0.0379955   0.0000049   0.0000000), wk =   0.2500000
        k(    5) = (   0.0379955   0.0419400   0.0000000), wk =   0.2500000
        k(    6) = (   0.0379955  -0.0838652   0.0000000), wk =   0.2500000
        k(    7) = (   0.0379955  -0.0419301   0.0000000), wk =   0.2500000
        k(    8) = (  -0.0759910  -0.0000099   0.0000000), wk =   0.1250000
        k(    9) = (  -0.0759910   0.0419252   0.0000000), wk =   0.2500000
        k(   10) = (  -0.0759910  -0.0838800   0.0000000), wk =   0.1250000

     Initial potential from superposition of free atoms

     starting charge  384.99916, renormalised to  401.00000

     negative rho (up, down):  1.407E-02 0.000E+00

     %%%%%%%%%%%%%%%%%%%%%%%%%%%%%%%%%%%%%%%%%%%%%%%%%%%%%%%%%%%%%%%%%%%%%%%%
     %                                                                      %
     % You are using vdW-DF, which was implemented by the Thonhauser group. %
     % Please cite the following two papers that made this development      %
     % possible and the two reviews that describe the various versions:     %
     %                                                                      %
     %   T. Thonhauser et al., PRL 115, 136402 (2015).                      %
     %   T. Thonhauser et al., PRB 76, 125112 (2007).                       %
     %   K. Berland et al., Rep. Prog. Phys. 78, 066501 (2015).             %
     %   D.C. Langreth et al., J. Phys.: Condens. Matter 21, 084203 (2009). %
     %                                                                      %
     %                                                                      %
     % If you are calculating the stress with vdW-DF, please also cite:     %
     %                                                                      %
     %   R. Sabatini et al., J. Phys.: Condens. Matter 24, 424209 (2012).   %
     %                                                                      %
     %%%%%%%%%%%%%%%%%%%%%%%%%%%%%%%%%%%%%%%%%%%%%%%%%%%%%%%%%%%%%%%%%%%%%%%%

     Adding external electric field

     Computed dipole along edir(3) :
        Dipole              -11.8206 Ry au,        -30.0448 Debye
        Dipole field         -0.0223 Ry au,

        Potential amp.        2.0678 Ry
        Total length         46.3494 bohr

     Starting wfcs are  303 atomic wfcs
  @ DRIVER MODE: Message from server: STATUS
  @ DRIVER MODE: Message from server: POSDATA
  @ DRIVER MODE: Reading and sharing cell
  @ DRIVER MODE: Reading and sharing positions
  @ DRIVER MODE: Received positions

     Self-consistent Calculation

     iteration #  1     ecut=    29.40 Ry     beta= 0.05
     Davidson diagonalization with overlap
     c_bands:  3 eigenvalues not converged
     c_bands:  4 eigenvalues not converged
     c_bands:  1 eigenvalues not converged
     c_bands:  4 eigenvalues not converged
     c_bands:  4 eigenvalues not converged
     c_bands:  1 eigenvalues not converged
     c_bands:  2 eigenvalues not converged
     ethr =  1.00E-05,  avg # of iterations = 22.9

[...]

     total energy              =   -2411.66765284 Ry
     estimated scf accuracy    <    6295.62431325 Ry

     iteration #  2     ecut=    29.40 Ry     beta= 0.05
     Davidson diagonalization with overlap
     ethr =  1.00E-02,  avg # of iterations = 23.7

[...]

     iteration # 55     ecut=    29.40 Ry     beta= 0.05
     Davidson diagonalization with overlap
     c_bands:  1 eigenvalues not converged
     c_bands:  1 eigenvalues not converged
     ethr =  7.24E-07,  avg # of iterations = 11.7

[...]

     total energy              =   -2971.49159740 Ry
     estimated scf accuracy    <       0.00000010 Ry

     iteration # 81     ecut=    29.40 Ry     beta= 0.05
     Davidson diagonalization with overlap
     ethr =  2.41E-11,  avg # of iterations =  6.2

     negative rho (up, down):  1.459E-02 0.000E+00

     Adding external electric field

     Computed dipole along edir(3) :
        Dipole                1.0651 Ry au,          2.7073 Debye
        Dipole field          0.0020 Ry au,

        Potential amp.       -0.1863 Ry
        Total length         46.3494 bohr

     End of self-consistent calculation

          k = 0.0000 0.0000 0.0000 ( 18029 PWs)   bands (ev):

   -55.6928 -55.6588 -55.4773 -55.4739 -55.4435 -55.3347 -55.3164 -55.2828
   -55.2811 -55.2247 -55.1791 -55.0937 -55.0865 -54.9802 -54.6005 -54.5665
   -32.1667 -31.9881 -31.9860 -31.9299 -31.8455 -31.8179 -31.8117 -31.7917
   -31.7892 -31.7549 -31.7512 -31.7473 -31.7140 -31.6966 -31.6820 -31.6512
   -31.6469 -31.6120 -31.5850 -31.5782 -31.5756 -31.5523 -31.5430 -31.5389
   -31.4950 -31.4867 -31.4822 -31.4706 -31.4574 -31.4431 -31.4412 -31.4247
   -31.4237 -31.3670 -31.3633 -31.3608 -31.2929 -31.2817 -31.2572 -31.2296
   -31.2044 -31.1911 -31.0035 -30.9249 -30.9020 -30.8215 -30.7356 -30.6236
   -20.7244 -16.2526 -16.1724 -15.9667 -15.7895 -15.6374 -15.5853 -15.4455
   -15.3749 -15.2741 -15.1948 -15.0955 -15.0752 -15.0345 -14.9981 -14.9961
   -14.9669 -14.9356 -14.9355 -14.9113 -14.8958 -14.8476 -14.7887 -14.7705
   -14.7262 -14.6985 -14.6448 -14.6396 -14.6188 -14.5156 -14.2472 -14.2319
   -13.0985 -12.9834  -7.4038  -6.0875  -5.6714  -5.0351  -3.7617  -3.5807
    -3.5059  -3.3563  -3.2779  -3.1998  -3.0687  -2.9858  -2.9089  -2.7482
    -2.6629  -2.6351  -2.5842  -2.5287  -2.4634  -2.4370  -2.3959  -2.3730
    -2.2930  -2.2520  -2.2300  -2.2086  -2.1543  -2.1256  -2.0893  -2.0047
    -1.9768  -1.9415  -1.8678  -1.8582  -1.8337  -1.8238  -1.7829  -1.7642
    -1.7515  -1.7309  -1.5959  -1.5882  -1.5098  -1.4704  -1.3240  -1.2016
    -1.1358  -1.0672  -1.0519  -0.9701  -0.9333  -0.8533  -0.8329  -0.8042
    -0.7660  -0.7006  -0.6357  -0.6136  -0.5677  -0.5314  -0.3965  -0.3739
    -0.3265  -0.3217  -0.2998  -0.2336  -0.1650  -0.0843  -0.0708  -0.0055
     0.0147   0.0970   0.1790   0.1860   0.2364   0.2593   0.3133   0.3360
     0.3550   0.3885   0.4180   0.4872   0.5501   0.5980   0.6030   0.6365
     0.7036   0.7709   0.8112   0.8443   0.9947   1.0245   1.0395   1.1283
     1.1391   1.2473   1.4043   1.4256   1.6297   1.6320   1.9857   2.0282
     3.4538   3.5839   3.6177   3.6922   3.7772   3.9057   3.9140   4.0419
     4.1604   4.1661

[...]

          k = 0.0380-0.0419 0.0000 ( 17876 PWs)   bands (ev):

[...]

          k =-0.0760-0.0000 0.0000 ( 17886 PWs)   bands (ev):

[...]

          k =-0.0760-0.0839 0.0000 ( 17948 PWs)   bands (ev):

   -55.6762 -55.6752 -55.4730 -55.4616 -55.4590 -55.3284 -55.3027 -55.2946
   -55.2890 -55.2253 -55.1756 -55.0972 -55.0839 -54.9827 -54.5840 -54.5829
   -31.9825 -31.9819 -31.9722 -31.9715 -31.7968 -31.7956 -31.7830 -31.7774
   -31.7415 -31.7210 -31.6962 -31.6871 -31.6857 -31.6683 -31.6545 -31.6501
   -31.6315 -31.6178 -31.6174 -31.6105 -31.5944 -31.5527 -31.5478 -31.5249
   -31.5237 -31.5173 -31.5139 -31.5137 -31.5054 -31.4868 -31.4648 -31.4554
   -31.4284 -31.3874 -31.3742 -31.3530 -31.3393 -31.3257 -31.2963 -31.2858
   -31.2360 -31.1946 -30.9152 -30.9144 -30.8175 -30.8162 -30.7790 -30.7781
   -20.7233 -16.2267 -15.6174 -15.5506 -15.5290 -15.5196 -15.4062 -15.3736
   -15.2413 -15.2402 -15.2171 -15.1584 -15.1477 -15.1171 -15.1074 -15.0826
   -15.0500 -15.0256 -15.0026 -14.9721 -14.9619 -14.9185 -14.8922 -14.8883
   -14.8751 -14.8256 -14.7391 -14.6536 -14.6379 -14.5758 -14.4917 -14.3663
   -13.0861 -13.0852  -7.4044  -6.0910  -5.6742  -5.0127  -3.7348  -3.1030
    -2.8967  -2.7486  -2.7231  -2.5946  -2.5756  -2.4818  -2.4737  -2.4302
    -2.4165  -2.3764  -2.3498  -2.3328  -2.2905  -2.2728  -2.2578  -2.2531
    -2.2352  -2.2047  -2.1962  -2.1920  -2.1831  -2.1525  -2.1239  -2.1098
    -2.0931  -2.0480  -2.0201  -1.9215  -1.8166  -1.7914  -1.7183  -1.7145
    -1.7121  -1.6997  -1.6770  -1.6529  -1.5682  -1.4781  -1.4403  -1.3838
    -1.2092  -1.1946  -1.1725  -1.1511  -1.0945  -1.0454  -1.0178  -0.9661
    -0.9544  -0.9296  -0.8556  -0.7937  -0.7210  -0.7008  -0.6319  -0.5841
    -0.5667  -0.4757  -0.4620  -0.4292  -0.3890  -0.3746  -0.3449  -0.2922
    -0.2768  -0.2582  -0.2288  -0.1898  -0.1551   0.0139   0.1486   0.2117
     0.2290   0.2659   0.3200   0.3857   0.4095   0.5927   0.6055   0.6097
     0.6496   0.7074   0.7333   0.7507   0.8443   0.9580   0.9842   1.0210
     1.0477   1.0669   1.1485   1.2072   1.7966   1.8048   1.8477   1.8485
     3.4552   3.9908   4.0098   4.0113   4.0123   4.1074   4.1317   4.1400
     4.2048   4.2631

     the Fermi energy is     3.4480 ev

!    total energy              =   -2971.49160494 Ry
     estimated scf accuracy    <       0.00000005 Ry
     smearing contrib. (-TS)   =      -0.01886180 Ry
     internal energy E=F+TS    =   -2971.47274313 Ry

     The total energy is F=E-TS. E is the sum of the following terms:
     one-electron contribution =  -23618.21161857 Ry
     hartree contribution      =   11902.95981636 Ry
     xc contribution           =    -492.36578439 Ry
     ewald contribution        =    9236.14270245 Ry
     electric field correction =       0.00214102 Ry

     convergence has been achieved in  81 iterations

     Forces acting on atoms (cartesian axes, Ry/au):

     atom    1 type  1   force =     0.00000815   -0.00040036    0.09765365
     atom    2 type  1   force =    -0.00004838    0.00022632   -0.17214241
     atom    3 type  2   force =     0.00005239   -0.00005300   -0.02538120
     atom    4 type  2   force =     0.00001649   -0.00144592    0.04759865
     atom    5 type  2   force =    -0.00615352   -0.00240055   -0.00085569
     atom    6 type  2   force =     0.00777487   -0.00181988   -0.00152193
     atom    7 type  1   force =    -0.00009066   -0.00484223    0.01891665
     atom    8 type  1   force =     0.00022095    0.01221262    0.02702329
     atom    9 type  2   force =    -0.00010323   -0.00017041   -0.00013316
     atom   10 type  2   force =    -0.00111574    0.00131965   -0.02505864
     atom   11 type  2   force =     0.00014719   -0.00003230    0.00007021
     atom   12 type  2   force =     0.00006031   -0.00004016   -0.00000818
     atom   13 type  1   force =     0.00034908   -0.00022402   -0.00008202
     atom   14 type  1   force =     0.00005490   -0.00013511   -0.00011578
     atom   15 type  2   force =    -0.00033468   -0.00018244   -0.00035861
     atom   16 type  2   force =    -0.00002551   -0.00010686   -0.00051045
     atom   17 type  2   force =     0.00008237    0.00004435    0.00008091
     atom   18 type  2   force =     0.00029440   -0.00032164   -0.00025907
     atom   19 type  1   force =    -0.00026360   -0.00000602   -0.00036646
     atom   20 type  1   force =     0.00007914   -0.00018410    0.00029308
     atom   21 type  2   force =     0.00005731    0.00008462    0.10222989
     atom   22 type  2   force =     0.00001326    0.00005910   -0.00025418
     atom   23 type  2   force =    -0.07353713   -0.00015904   -0.02810220
     atom   24 type  2   force =     0.07345511    0.00028496   -0.02817393
     atom   25 type  1   force =     0.00013034   -0.00033205    0.09745866
     atom   26 type  1   force =    -0.00002993   -0.00130653   -0.17227606
     atom   27 type  2   force =     0.00009433   -0.00030489   -0.02401915
     atom   28 type  2   force =     0.00004240    0.00031192    0.04322096
     atom   29 type  2   force =    -0.00504251    0.00403035   -0.00278317
     atom   30 type  2   force =     0.00655285    0.00442118   -0.00333833
     atom   31 type  1   force =     0.00000641    0.00579930    0.00695104
     atom   32 type  1   force =     0.00028789   -0.01518656    0.02660623
     atom   33 type  2   force =     0.00038327   -0.00004165    0.00008550
     atom   34 type  2   force =    -0.00138554    0.00099834   -0.02679711
     atom   35 type  2   force =     0.00038198    0.00005588    0.00003946
     atom   36 type  2   force =    -0.00029057   -0.00005543   -0.00008393
     atom   37 type  1   force =     0.00009917   -0.00053166   -0.00002845
     atom   38 type  1   force =     0.00023347    0.00013228    0.00015823
     atom   39 type  2   force =    -0.00014085   -0.00017506   -0.00013217
     atom   40 type  2   force =     0.00005693    0.00002545   -0.00018385
     atom   41 type  2   force =     0.00003617    0.00000234   -0.00009271
     atom   42 type  2   force =    -0.00002000    0.00002876   -0.00017206
     atom   43 type  1   force =    -0.00017064    0.00022099   -0.00062062
     atom   44 type  1   force =    -0.00004146    0.00038938    0.00027657
     atom   45 type  2   force =     0.00005080   -0.00008276    0.10204275
     atom   46 type  2   force =    -0.07357481   -0.00008071   -0.02813634
     atom   47 type  2   force =     0.07348131    0.00035879   -0.02818465
     atom   48 type  3   force =     0.00036394   -0.00027025   -0.00258904
     atom   49 type  3   force =    -0.00204255    0.00032662    0.00287332
     atom   50 type  4   force =    -0.00060837   -0.00037530   -0.00058655
     atom   51 type  5   force =     0.00000970   -0.00012309    0.00017614
     atom   52 type  5   force =    -0.00006836   -0.00000014    0.00009811
     atom   53 type  2   force =     0.00036759    0.00070920   -0.00028816
     atom   54 type  5   force =    -0.00015642   -0.00065226   -0.00021703

     Total force =     0.365030     Total SCF correction =     0.000393
  @ DRIVER MODE: Message from server: STATUS
  @ DRIVER MODE: Message from server: GETFORCE
  @ DRIVER MODE: Returning v,forces,stress,ensemble

     Writing output data file ./calc.save/
  @ DRIVER MODE: Message from server: EXIT
  @ DRIVE MODE: Exiting

     General routines

     Parallel routines

   This run was terminated on:  14:20: 8  23Sep2021

   JOB DONE.