     Program PWSCF v.6.7GPU starts on 24Aug2021 at 13:33:14

     R & G space division:  proc/nbgrp/npool/nimage =      72
     Reading input from /storage/home/hcoda1/3/ntian30/research/carbon/CH2_vib/ads_slab/CH2_a/out_0012/pw.inp
Warning: card &CELL ignored
Warning: card   CELL_DYNAMICS='IPI', ignored
Warning: card / ignored

     Current dimensions of program PWSCF are:
     Max number of different atomic species (ntypx) = 10
     Max number of k-points (npk) =  40000
     Max angular momentum in pseudopotentials (lmaxx) =  3
     Presently no symmetry can be used with electric field

     Message from routine cell_base_init:
     DEPRECATED: use true lattice parameter, not A to a.u. conversion factor

     IMPORTANT: XC functional enforced from input :
     Exchange-correlation= BEEF-VDW
                           (   1   4  43  14   2   0   0)
     Any further DFT definition will be discarded
     Please, verify this is what you really want

  @ DRIVER MODE: Connecting to
 qe_1139763_2641437.sched-torque.pace.gatech.edut4iqpb3y_scratch
  using UNIX socket
  @ DRIVER MODE: Message from server: STATUS
  @ DRIVER MODE: Message from server: INIT
  @ DRIVER MODE: Receiving replica           0          -1
  @ DRIVER MODE: Receiving encoded integer          25
  @ DRIVER MODE:  SCF:  T  FORCE:  T  STRESS:  F  VC:  F  ENSEMBLE:  F
  @ DRIVER MODE:  SCF:  T  FORCE:  T  STRESS:  F  VC:  F  ENSEMBLE:  F

     Using Slab Decomposition

     bravais-lattice index     =            0
     lattice parameter (alat)  =       1.8897  a.u.
     unit-cell volume          =    6658.9804 (a.u.)^3
     number of atoms/cell      =           50
     number of atomic types    =            4
     number of electrons       =       384.00
     number of Kohn-Sham states=          202
     kinetic-energy cutoff     =      29.3995  Ry
     charge density cutoff     =     293.9946  Ry
     scf convergence threshold =      7.3E-08
     mixing beta               =       0.0500
     number of iterations used =            8  plain     mixing
     Exchange-correlation= BEEF-VDW
                           (   1   4  43  14   2   0   0)

     celldm(1)=   1.889726  celldm(2)=   0.000000  celldm(3)=   0.000000
     celldm(4)=   0.000000  celldm(5)=   0.000000  celldm(6)=   0.000000

     crystal axes: (cart. coord. in units of alat)
               a(1) = (   6.579727   0.000000   0.000000 )
               a(2) = (  -0.000775   5.961596   0.000000 )
               a(3) = (   0.000000   0.000000  25.155947 )

     reciprocal axes: (cart. coord. in units 2 pi/alat)
               b(1) = (  0.151982  0.000020  0.000000 )
               b(2) = (  0.000000  0.167740  0.000000 )
               b(3) = (  0.000000  0.000000  0.039752 )

     PseudoPot. # 1 for Ti read from file:
     /storage/coda1/p-amedford6/0/shared/rich_project_chbe-medford/medford-share/data/pseudos_module/espresso/nninc/pbe/van/Ti.UPF
     MD5 check sum: 8e4df49b7f0d34bbd5052bf3f5ea0213
     Pseudo is Ultrasoft, Zval = 12.0
     Generated by new atomic code, or converted to UPF format
     Using radial grid of  851 points,  6 beta functions with:
                l(1) =   0
                l(2) =   0
                l(3) =   1
                l(4) =   1
                l(5) =   2
                l(6) =   2
     Q(r) pseudized with  8 coefficients,  rinner =    1.000   1.000   1.000
                                                       1.000   1.000

     PseudoPot. # 2 for O  read from file:
     /storage/coda1/p-amedford6/0/shared/rich_project_chbe-medford/medford-share/data/pseudos_module/espresso/nninc/pbe/van/O.UPF
     MD5 check sum: 78c19812648e8988a0fe644b0f25305e
     Pseudo is Ultrasoft, Zval =  6.0
     Generated by new atomic code, or converted to UPF format
     Using radial grid of  737 points,  4 beta functions with:
                l(1) =   0
                l(2) =   0
                l(3) =   1
                l(4) =   1
     Q(r) pseudized with  8 coefficients,  rinner =    0.800   0.800   0.800

     PseudoPot. # 3 for C  read from file:
     /storage/coda1/p-amedford6/0/shared/rich_project_chbe-medford/medford-share/data/pseudos_module/espresso/nninc/pbe/van/C.UPF
     MD5 check sum: 1a69bf6b8db32088f5b2163dbdb77a27
     Pseudo is Ultrasoft, Zval =  4.0
     Generated by new atomic code, or converted to UPF format
     Using radial grid of  721 points,  4 beta functions with:
                l(1) =   0
                l(2) =   0
                l(3) =   1
                l(4) =   1
     Q(r) pseudized with  8 coefficients,  rinner =    0.800   0.800   0.800

     PseudoPot. # 4 for H  read from file:
     /storage/coda1/p-amedford6/0/shared/rich_project_chbe-medford/medford-share/data/pseudos_module/espresso/nninc/pbe/van/H.UPF
     MD5 check sum: b5ee9d7bfd3a09ee7748110bda690ff7
     Pseudo is Ultrasoft, Zval =  1.0
     Generated by new atomic code, or converted to UPF format
     Using radial grid of  615 points,  1 beta functions with:
                l(1) =   0
     Q(r) pseudized with  8 coefficients,  rinner =    0.800

     atomic species   valence    mass     pseudopotential
        Ti1           12.00    47.86700     Ti( 1.00)
        O1             6.00    15.99900     O ( 1.00)
        C1             4.00    12.01100     C ( 1.00)
        H1             1.00     1.00800     H ( 1.00)

     No symmetry found

   Cartesian axes

     site n.     atom                  positions (alat units)
         1           Ti1 tau(   1) = (   0.0004258   2.9801865   6.0000000  )
         2           Ti1 tau(   2) = (   3.2906075   1.4906267   6.0002472  )
         3           O1  tau(   3) = (   0.0006271   0.0005054   7.9858123  )
         4           O1  tau(   4) = (   3.2906025   0.0005020   7.3038282  )
         5           O1  tau(   5) = (   4.5942328   1.4918067   9.2879030  )
         6           O1  tau(   6) = (   1.9868534   1.4903216   9.2879459  )
         7           Ti1 tau(   7) = (   3.2756478   2.8760420   9.1630771  )
         8           Ti1 tau(   8) = (   6.5651030   1.4385007   9.3790407  )
         9           O1  tau(   9) = (   3.2651923   0.0045787  11.3553482  )
        10           O1  tau(  10) = (   6.5766178   5.9492394  10.5646413  )
        11           O1  tau(  11) = (   1.2591847   1.4977620  12.6679731  )
        12           O1  tau(  12) = (   5.2482661   1.4982983  12.6347741  )
        13           Ti1 tau(  13) = (   0.0651775   2.9654633  12.8696618  )
        14           Ti1 tau(  14) = (   3.3800656   1.4924449  12.4946823  )
        15           O1  tau(  15) = (   6.5296085   5.9207011  14.6097682  )
        16           O1  tau(  16) = (   3.2682314   0.0147111  13.9481481  )
        17           O1  tau(  17) = (   4.4912147   1.5408453  16.1034427  )
        18           O1  tau(  18) = (   2.0062121   1.5430191  16.1010343  )
        19           Ti1 tau(  19) = (   3.2584153   3.0188911  15.7272741  )
        20           Ti1 tau(  20) = (   6.5595668   1.6180917  16.2090303  )
        21           O1  tau(  21) = (   3.2904802   0.0005063   4.7018136  )
        22           O1  tau(  22) = (   6.5447935   0.0528136  17.2578995  )
        23           O1  tau(  23) = (   1.3043587   1.4918075   6.0039043  )
        24           O1  tau(  24) = (   5.2767064   1.4903225   6.0039473  )
        25           Ti1 tau(  25) = (   0.0000382   5.9609847   6.0000000  )
        26           Ti1 tau(  26) = (   3.2902200   4.4714249   6.0002472  )
        27           O1  tau(  27) = (   0.0002396   2.9813036   7.9858123  )
        28           O1  tau(  28) = (   3.2902150   2.9813002   7.3038282  )
        29           O1  tau(  29) = (   4.5938453   4.4726049   9.2879030  )
        30           O1  tau(  30) = (   1.9864658   4.4711199   9.2879459  )
        31           Ti1 tau(  31) = (   3.2806623   5.8565216   9.1617982  )
        32           Ti1 tau(  32) = (   6.5670484   4.4138833   9.3856844  )
        33           O1  tau(  33) = (   3.2704644   2.9808095  11.3502114  )
        34           O1  tau(  34) = (   6.5770050   2.9672111  10.5601139  )
        35           O1  tau(  35) = (   1.2614422   4.4490125  12.6594447  )
        36           O1  tau(  36) = (   5.2451530   4.4578719  12.6250501  )
        37           Ti1 tau(  37) = (   0.0436288   5.9429386  12.8080954  )
        38           Ti1 tau(  38) = (   3.3780510   4.4695497  12.4860242  )
        39           O1  tau(  39) = (   6.5513063   2.9765972  14.7162787  )
        40           O1  tau(  40) = (   3.2682626   2.9952000  13.9367060  )
        41           O1  tau(  41) = (   4.4851171   4.5114873  16.1027694  )
        42           O1  tau(  42) = (   2.0082088   4.5103763  16.0975713  )
        43           Ti1 tau(  43) = (   3.2690221   0.0357551  15.7449602  )
        44           Ti1 tau(  44) = (   6.5655258   4.6249605  16.1704562  )
        45           O1  tau(  45) = (   3.2900926   2.9813045   4.7018136  )
        46           O1  tau(  46) = (   1.3039711   4.4726057   6.0039043  )
        47           O1  tau(  47) = (   5.2763189   4.4711207   6.0039473  )
        48           C1  tau(  48) = (   6.5259393   3.0234738  17.6125649  )
        49           H1  tau(  49) = (   0.8472112   3.1395175  18.2303151  )
        50           H1  tau(  50) = (   5.6209537   3.1160310  18.2142257  )

     number of k points=    10  Fermi-Dirac smearing, width (Ry)=  0.0073
                       cart. coord. in units 2pi/alat
        k(    1) = (   0.0000000   0.0000000   0.0000000), wk =   0.1250000
        k(    2) = (   0.0000000   0.0419351   0.0000000), wk =   0.2500000
        k(    3) = (   0.0000000  -0.0838702   0.0000000), wk =   0.1250000
        k(    4) = (   0.0379955   0.0000049   0.0000000), wk =   0.2500000
        k(    5) = (   0.0379955   0.0419400   0.0000000), wk =   0.2500000
        k(    6) = (   0.0379955  -0.0838652   0.0000000), wk =   0.2500000
        k(    7) = (   0.0379955  -0.0419301   0.0000000), wk =   0.2500000
        k(    8) = (  -0.0759910  -0.0000099   0.0000000), wk =   0.1250000
        k(    9) = (  -0.0759910   0.0419252   0.0000000), wk =   0.2500000
        k(   10) = (  -0.0759910  -0.0838800   0.0000000), wk =   0.1250000

     Initial potential from superposition of free atoms

     starting charge  367.99919, renormalised to  384.00000

     negative rho (up, down):  2.115E-02 0.000E+00

     %%%%%%%%%%%%%%%%%%%%%%%%%%%%%%%%%%%%%%%%%%%%%%%%%%%%%%%%%%%%%%%%%%%%%%%%
     %                                                                      %
     % You are using vdW-DF, which was implemented by the Thonhauser group. %
     % Please cite the following two papers that made this development      %
     % possible and the two reviews that describe the various versions:     %
     %                                                                      %
     %   T. Thonhauser et al., PRL 115, 136402 (2015).                      %
     %   T. Thonhauser et al., PRB 76, 125112 (2007).                       %
     %   K. Berland et al., Rep. Prog. Phys. 78, 066501 (2015).             %
     %   D.C. Langreth et al., J. Phys.: Condens. Matter 21, 084203 (2009). %
     %                                                                      %
     %                                                                      %
     % If you are calculating the stress with vdW-DF, please also cite:     %
     %                                                                      %
     %   R. Sabatini et al., J. Phys.: Condens. Matter 24, 424209 (2012).   %
     %                                                                      %
     %%%%%%%%%%%%%%%%%%%%%%%%%%%%%%%%%%%%%%%%%%%%%%%%%%%%%%%%%%%%%%%%%%%%%%%%

     Adding external electric field

     Computed dipole along edir(3) :
        Dipole               -0.5202 Ry au,         -1.3222 Debye
        Dipole field         -0.0010 Ry au,

        Potential amp.        0.0910 Ry
        Total length         46.3494 bohr

     Starting wfcs are  290 atomic wfcs
  @ DRIVER MODE: Message from server: STATUS
  @ DRIVER MODE: Message from server: POSDATA
  @ DRIVER MODE: Reading and sharing cell
  @ DRIVER MODE: Reading and sharing positions
  @ DRIVER MODE: Received positions

     Self-consistent Calculation

     iteration #  1     ecut=    29.40 Ry     beta= 0.05
     Davidson diagonalization with overlap
     c_bands:  1 eigenvalues not converged
     c_bands:  2 eigenvalues not converged
     c_bands:  3 eigenvalues not converged
     c_bands:  1 eigenvalues not converged
     c_bands:  1 eigenvalues not converged
     c_bands:  2 eigenvalues not converged
     c_bands:  1 eigenvalues not converged
     c_bands:  2 eigenvalues not converged
     c_bands:  1 eigenvalues not converged
     c_bands:  2 eigenvalues not converged
     ethr =  1.00E-05,  avg # of iterations = 22.0

[...]

     total energy              =   -2899.22715581 Ry
     estimated scf accuracy    <      12.09715415 Ry

     iteration #  2     ecut=    29.40 Ry     beta= 0.05
     Davidson diagonalization with overlap
     ethr =  3.15E-03,  avg # of iterations =  1.0

[...]

     iteration # 47     ecut=    29.40 Ry     beta= 0.05
     Davidson diagonalization with overlap
     c_bands:  2 eigenvalues not converged
     c_bands:  1 eigenvalues not converged
     ethr =  1.54E-07,  avg # of iterations =  9.7

[...]

     total energy              =   -2897.72462830 Ry
     estimated scf accuracy    <       0.00000015 Ry

     iteration # 70     ecut=    29.40 Ry     beta= 0.05
     Davidson diagonalization with overlap
     ethr =  3.82E-11,  avg # of iterations =  2.4

     negative rho (up, down):  2.037E-02 0.000E+00

     Adding external electric field

     Computed dipole along edir(3) :
        Dipole                0.2843 Ry au,          0.7227 Debye
        Dipole field          0.0005 Ry au,

        Potential amp.       -0.0497 Ry
        Total length         46.3494 bohr

     End of self-consistent calculation

          k = 0.0000 0.0000 0.0000 ( 18029 PWs)   bands (ev):

   -56.6523 -56.6182 -56.3987 -56.3621 -56.3251 -56.2724 -56.0913 -56.0852
   -56.0513 -55.9841 -55.9582 -55.9200 -55.5533 -55.4708 -55.4368 -55.4291
   -33.0818 -32.9450 -32.9012 -32.8724 -32.8428 -32.7759 -32.7512 -32.7224
   -32.7083 -32.6428 -32.6244 -32.5985 -32.5904 -32.5667 -32.5614 -32.5507
   -32.5479 -32.5302 -32.4585 -32.4532 -32.3866 -32.3485 -32.3369 -32.3258
   -32.3085 -32.3078 -32.2362 -32.2242 -32.2152 -32.1959 -32.1949 -32.1589
   -32.1497 -32.1363 -32.1123 -32.0571 -32.0211 -31.8723 -31.8613 -31.8081
   -31.7942 -31.7706 -31.7471 -31.6906 -31.6060 -31.6055 -31.4935 -31.4760
   -17.0498 -16.8378 -16.6261 -16.4774 -16.3961 -16.3436 -16.0504 -16.0329
   -16.0240 -15.9240 -15.9124 -15.8592 -15.8257 -15.8224 -15.8132 -15.8068
   -15.7723 -15.7286 -15.6966 -15.6611 -15.6280 -15.5943 -15.5035 -15.4652
   -15.4469 -15.3220 -15.2643 -15.2302 -15.0953 -13.9640 -13.8494  -8.3761
    -4.4324  -4.3832  -4.2307  -4.2217  -4.1026  -3.8880  -3.7061  -3.5185
    -3.4870  -3.4571  -3.4517  -3.3478  -3.2947  -3.1844  -3.1835  -3.1483
    -3.1376  -3.1060  -3.0837  -3.0798  -3.0389  -3.0150  -2.9559  -2.9145
    -2.9048  -2.8478  -2.7678  -2.6745  -2.6544  -2.6260  -2.5936  -2.5524
    -2.5368  -2.4359  -2.4310  -2.3669  -2.2264  -2.2091  -2.1610  -2.1331
    -2.1009  -2.0617  -1.9241  -1.7857  -1.7412  -1.7253  -1.6947  -1.6846
    -1.6545  -1.5317  -1.4890  -1.3898  -1.3587  -1.2467  -1.2346  -1.2169
    -1.2014  -1.1710  -1.1022  -1.0751  -1.0401  -0.9555  -0.8969  -0.7667
    -0.7331  -0.7147  -0.6861  -0.6785  -0.6203  -0.5786  -0.5205  -0.5098
    -0.4515  -0.4089  -0.3924  -0.3759  -0.3520  -0.2921  -0.2178  -0.1954
    -0.1317  -0.0947   0.1028   0.1395   0.1642   0.1845   0.2693   0.3021
     0.4795   0.4934   0.5578   0.7605   0.7995   1.1514   1.2307   1.7158
     2.6112   2.7913   2.9860   3.0435   3.0880   3.1678   3.2221   3.3002
     3.3331   3.4548

[...]

          k = 0.0380-0.0419 0.0000 ( 17876 PWs)   bands (ev):

[...]

          k =-0.0760-0.0000 0.0000 ( 17886 PWs)   bands (ev):

[...]

          k =-0.0760-0.0839 0.0000 ( 17948 PWs)   bands (ev):

   -56.6380 -56.6324 -56.3841 -56.3765 -56.3186 -56.2787 -56.0884 -56.0690
   -56.0673 -55.9869 -55.9467 -55.9314 -55.5509 -55.4537 -55.4537 -55.4314
   -32.9014 -32.8968 -32.8898 -32.8830 -32.7976 -32.7929 -32.7527 -32.7464
   -32.6860 -32.6729 -32.6157 -32.6092 -32.5853 -32.5780 -32.5708 -32.5626
   -32.5180 -32.4816 -32.4086 -32.3915 -32.3907 -32.3318 -32.3227 -32.3196
   -32.3079 -32.2929 -32.2875 -32.2839 -32.2617 -32.2529 -32.2340 -32.2175
   -32.1590 -32.1580 -32.1471 -32.1443 -31.9295 -31.8595 -31.8118 -31.7835
   -31.7834 -31.7324 -31.6991 -31.6864 -31.6862 -31.6482 -31.6481 -31.4955
   -16.5188 -16.4916 -16.2730 -16.2594 -16.1495 -16.1469 -16.1346 -16.1335
   -16.0453 -16.0409 -15.9941 -15.9738 -15.9163 -15.9040 -15.8631 -15.8616
   -15.8396 -15.8382 -15.7968 -15.7942 -15.6517 -15.6500 -15.5378 -15.5301
   -15.4924 -15.4506 -15.4103 -15.3979 -15.2357 -13.9517 -13.9513  -8.3780
    -3.8223  -3.7851  -3.4873  -3.4789  -3.2789  -3.2756  -3.2569  -3.2483
    -3.2282  -3.2010  -3.1877  -3.1853  -3.1475  -3.1068  -3.0838  -3.0653
    -3.0541  -3.0464  -3.0417  -3.0408  -3.0206  -3.0016  -2.9860  -2.9617
    -2.9023  -2.8913  -2.8674  -2.8583  -2.7756  -2.6310  -2.5638  -2.5580
    -2.5388  -2.5279  -2.4873  -2.3977  -2.3930  -2.3563  -2.3490  -2.3302
    -2.1349  -2.0723  -2.0687  -2.0072  -1.9783  -1.8747  -1.7279  -1.6950
    -1.6708  -1.6479  -1.5651  -1.5267  -1.5122  -1.4889  -1.4814  -1.4539
    -1.4437  -1.3571  -1.3493  -1.3166  -1.2708  -1.2092  -1.2052  -1.1835
    -1.1632  -1.0645  -0.9949  -0.9790  -0.9646  -0.9229  -0.8513  -0.8027
    -0.7628  -0.6748  -0.6591  -0.3904  -0.3885  -0.2530  -0.2421  -0.1142
    -0.1008  -0.0079   0.0234   0.0674   0.1821   0.1960   0.2010   0.2267
     0.3279   0.3291   0.3583   0.9415   0.9417   1.0073   1.0086   1.9905
     3.0342   3.0511   3.1323   3.1497   3.1542   3.1717   3.2158   3.2183
     3.5124   3.5246

     the Fermi energy is     2.3279 ev

!    total energy              =   -2897.72464335 Ry
     estimated scf accuracy    <       0.00000007 Ry
     smearing contrib. (-TS)   =      -0.00186348 Ry
     internal energy E=F+TS    =   -2897.72277987 Ry

     The total energy is F=E-TS. E is the sum of the following terms:
     one-electron contribution =  -24684.43968230 Ry
     hartree contribution      =   12420.17323293 Ry
     xc contribution           =    -473.85146050 Ry
     ewald contribution        =    9840.39497741 Ry
     electric field correction =       0.00015258 Ry

     convergence has been achieved in  70 iterations

     Forces acting on atoms (cartesian axes, Ry/au):

     atom    1 type  1   force =     0.00029698   -0.00003794    0.14818950
     atom    2 type  1   force =     0.00005586   -0.00032731   -0.17141989
     atom    3 type  2   force =    -0.00004571    0.00265451   -0.05988926
     atom    4 type  2   force =    -0.00032615   -0.00141201    0.04060605
     atom    5 type  2   force =    -0.02537067    0.00093931    0.00494155
     atom    6 type  2   force =     0.02287969    0.00011504    0.00299060
     atom    7 type  1   force =    -0.00051150   -0.00071660   -0.00012348
     atom    8 type  1   force =     0.00074111   -0.00041026    0.00040785
     atom    9 type  2   force =     0.00089441   -0.00028401    0.00033063
     atom   10 type  2   force =    -0.00010476   -0.00000648   -0.00023337
     atom   11 type  2   force =    -0.00017064    0.00004634    0.00014520
     atom   12 type  2   force =     0.00019000    0.00012673    0.00010189
     atom   13 type  1   force =     0.00003587   -0.00100917    0.00029243
     atom   14 type  1   force =    -0.00004974   -0.00114800   -0.00028873
     atom   15 type  2   force =     0.00025041   -0.00030107   -0.00041877
     atom   16 type  2   force =     0.00002225    0.00015410    0.00035064
     atom   17 type  2   force =     0.00113927    0.00009881    0.00025749
     atom   18 type  2   force =    -0.00071835   -0.00025374    0.00030381
     atom   19 type  1   force =     0.00045426   -0.00024832    0.00019290
     atom   20 type  1   force =     0.00030408   -0.00020694    0.00045560
     atom   21 type  2   force =     0.00014178   -0.00010271    0.10275264
     atom   22 type  2   force =     0.00009358   -0.00013207   -0.00034047
     atom   23 type  2   force =    -0.07351941    0.00029563   -0.03461033
     atom   24 type  2   force =     0.07356768    0.00074127   -0.03466096
     atom   25 type  1   force =     0.00007796   -0.00018390    0.14938233
     atom   26 type  1   force =    -0.00000074   -0.00105185   -0.17157846
     atom   27 type  2   force =    -0.00006878    0.00192083   -0.05887608
     atom   28 type  2   force =    -0.00039721   -0.00137175    0.04057882
     atom   29 type  2   force =    -0.02529112    0.00191056    0.00523001
     atom   30 type  2   force =     0.02338122    0.00034325    0.00327880
     atom   31 type  1   force =    -0.00048300   -0.00019622   -0.00007009
     atom   32 type  1   force =     0.00062771   -0.00026986    0.00000176
     atom   33 type  2   force =     0.00005241   -0.00037696    0.00040910
     atom   34 type  2   force =     0.00007352   -0.00014696    0.00003887
     atom   35 type  2   force =    -0.00020525   -0.00036596   -0.00035935
     atom   36 type  2   force =     0.00053838   -0.00063636   -0.00014975
     atom   37 type  1   force =     0.00089354    0.00031686   -0.00004642
     atom   38 type  1   force =    -0.00034895   -0.00015368    0.00023910
     atom   39 type  2   force =     0.00002646    0.00009102   -0.00100735
     atom   40 type  2   force =    -0.00000024    0.00030195   -0.00085894
     atom   41 type  2   force =     0.00030332    0.00020647    0.00026573
     atom   42 type  2   force =     0.00029210    0.00058179    0.00028552
     atom   43 type  1   force =     0.00034178    0.00079098   -0.00075806
     atom   44 type  1   force =    -0.00032304    0.00032885    0.00019491
     atom   45 type  2   force =     0.00013821   -0.00009404    0.10271893
     atom   46 type  2   force =    -0.07354610   -0.00012359   -0.03460106
     atom   47 type  2   force =     0.07360412    0.00033989   -0.03467609
     atom   48 type  3   force =     0.00660468    0.00077472    0.00495436
     atom   49 type  4   force =    -0.00600151   -0.00138648   -0.00458422
     atom   50 type  4   force =    -0.00053980   -0.00012467   -0.00034589

     Total force =     0.404463     Total SCF correction =     0.000618
  @ DRIVER MODE: Message from server: STATUS
  @ DRIVER MODE: Message from server: GETFORCE
  @ DRIVER MODE: Returning v,forces,stress,ensemble

     Writing output data file ./calc.save/
  @ DRIVER MODE: Message from server: EXIT
  @ DRIVE MODE: Exiting

     General routines

     Parallel routines

   This run was terminated on:  13:47:41  24Aug2021

   JOB DONE.