     Program PWSCF v.6.7GPU starts on 16Jul2021 at  5:35:41

     R & G space division:  proc/nbgrp/npool/nimage =      16
     Reading input from /storage/home/hcoda1/3/ntian30/research/carbon/15Jul_vib/ads_slab/CH3NNHHH_a/out_0016/pw.inp
Warning: card &CELL ignored
Warning: card   CELL_DYNAMICS='IPI', ignored
Warning: card / ignored

     Current dimensions of program PWSCF are:
     Max number of different atomic species (ntypx) = 10
     Max number of k-points (npk) =  40000
     Max angular momentum in pseudopotentials (lmaxx) =  3
     Presently no symmetry can be used with electric field

     Message from routine cell_base_init:
     DEPRECATED: use true lattice parameter, not A to a.u. conversion factor

     IMPORTANT: XC functional enforced from input :
     Exchange-correlation= BEEF-VDW
                           (   1   4  43  14   2   0   0)
     Any further DFT definition will be discarded
     Please, verify this is what you really want

  @ DRIVER MODE: Connecting to
 qe_1139763_2351652.sched-torque.pace.gatech.edui6j1tmwk_scratch
  using UNIX socket
  @ DRIVER MODE: Message from server: STATUS
  @ DRIVER MODE: Message from server: INIT
  @ DRIVER MODE: Receiving replica           0          -1
  @ DRIVER MODE: Receiving encoded integer          25
  @ DRIVER MODE:  SCF:  T  FORCE:  T  STRESS:  F  VC:  F  ENSEMBLE:  F
  @ DRIVER MODE:  SCF:  T  FORCE:  T  STRESS:  F  VC:  F  ENSEMBLE:  F

     Using Slab Decomposition

     bravais-lattice index     =            0
     lattice parameter (alat)  =       1.8897  a.u.
     unit-cell volume          =    6658.9804 (a.u.)^3
     number of atoms/cell      =           56
     number of atomic types    =            5
     number of electrons       =       398.00
     number of Kohn-Sham states=          209
     kinetic-energy cutoff     =      29.3995  Ry
     charge density cutoff     =     293.9946  Ry
     scf convergence threshold =      7.3E-08
     mixing beta               =       0.0500
     number of iterations used =            8  plain     mixing
     Exchange-correlation= BEEF-VDW
                           (   1   4  43  14   2   0   0)

     celldm(1)=   1.889726  celldm(2)=   0.000000  celldm(3)=   0.000000
     celldm(4)=   0.000000  celldm(5)=   0.000000  celldm(6)=   0.000000

     crystal axes: (cart. coord. in units of alat)
               a(1) = (   6.579727   0.000000   0.000000 )
               a(2) = (  -0.000775   5.961596   0.000000 )
               a(3) = (   0.000000   0.000000  25.155947 )

     reciprocal axes: (cart. coord. in units 2 pi/alat)
               b(1) = (  0.151982  0.000020  0.000000 )
               b(2) = (  0.000000  0.167740  0.000000 )
               b(3) = (  0.000000  0.000000  0.039752 )

     PseudoPot. # 1 for Ti read from file:
     /storage/coda1/p-amedford6/0/shared/rich_project_chbe-medford/medford-share/data/pseudos_module/espresso/nninc/pbe/van/Ti.UPF
     MD5 check sum: 8e4df49b7f0d34bbd5052bf3f5ea0213
     Pseudo is Ultrasoft, Zval = 12.0
     Generated by new atomic code, or converted to UPF format
     Using radial grid of  851 points,  6 beta functions with:
                l(1) =   0
                l(2) =   0
                l(3) =   1
                l(4) =   1
                l(5) =   2
                l(6) =   2
     Q(r) pseudized with  8 coefficients,  rinner =    1.000   1.000   1.000
                                                       1.000   1.000

     PseudoPot. # 2 for O  read from file:
     /storage/coda1/p-amedford6/0/shared/rich_project_chbe-medford/medford-share/data/pseudos_module/espresso/nninc/pbe/van/O.UPF
     MD5 check sum: 78c19812648e8988a0fe644b0f25305e
     Pseudo is Ultrasoft, Zval =  6.0
     Generated by new atomic code, or converted to UPF format
     Using radial grid of  737 points,  4 beta functions with:
                l(1) =   0
                l(2) =   0
                l(3) =   1
                l(4) =   1
     Q(r) pseudized with  8 coefficients,  rinner =    0.800   0.800   0.800

     PseudoPot. # 3 for N  read from file:
     /storage/coda1/p-amedford6/0/shared/rich_project_chbe-medford/medford-share/data/pseudos_module/espresso/nninc/pbe/van/N.UPF
     MD5 check sum: 90d10febe142ad51ac9d5be1deb811c4
     Pseudo is Ultrasoft, Zval =  5.0
     Generated by new atomic code, or converted to UPF format
     Using radial grid of  729 points,  4 beta functions with:
                l(1) =   0
                l(2) =   0
                l(3) =   1
                l(4) =   1
     Q(r) pseudized with  8 coefficients,  rinner =    0.800   0.800   0.800

     PseudoPot. # 4 for C  read from file:
     /storage/coda1/p-amedford6/0/shared/rich_project_chbe-medford/medford-share/data/pseudos_module/espresso/nninc/pbe/van/C.UPF
     MD5 check sum: 1a69bf6b8db32088f5b2163dbdb77a27
     Pseudo is Ultrasoft, Zval =  4.0
     Generated by new atomic code, or converted to UPF format
     Using radial grid of  721 points,  4 beta functions with:
                l(1) =   0
                l(2) =   0
                l(3) =   1
                l(4) =   1
     Q(r) pseudized with  8 coefficients,  rinner =    0.800   0.800   0.800

     PseudoPot. # 5 for H  read from file:
     /storage/coda1/p-amedford6/0/shared/rich_project_chbe-medford/medford-share/data/pseudos_module/espresso/nninc/pbe/van/H.UPF
     MD5 check sum: b5ee9d7bfd3a09ee7748110bda690ff7
     Pseudo is Ultrasoft, Zval =  1.0
     Generated by new atomic code, or converted to UPF format
     Using radial grid of  615 points,  1 beta functions with:
                l(1) =   0
     Q(r) pseudized with  8 coefficients,  rinner =    0.800

     atomic species   valence    mass     pseudopotential
        Ti1           12.00    47.86700     Ti( 1.00)
        O1             6.00    15.99900     O ( 1.00)
        N1             5.00    14.00700     N ( 1.00)
        C1             4.00    12.01100     C ( 1.00)
        H1             1.00     1.00800     H ( 1.00)

     Starting magnetic structure
     atomic species   magnetization
        Ti1          0.000
        O1           0.000
        N1           0.000
        C1           0.025
        H1           0.000

     No symmetry found

   Cartesian axes

     site n.     atom                  positions (alat units)
         1           Ti1 tau(   1) = (   0.0004258   2.9801865   6.0000000  )
         2           Ti1 tau(   2) = (   3.2906075   1.4906267   6.0002472  )
         3           O1  tau(   3) = (   0.0006271   0.0005054   7.9858123  )
         4           O1  tau(   4) = (   3.2906025   0.0005020   7.3038282  )
         5           O1  tau(   5) = (   4.5942328   1.4918067   9.2879030  )
         6           O1  tau(   6) = (   1.9868534   1.4903216   9.2879459  )
         7           Ti1 tau(   7) = (   3.2907910   2.8959150   9.1758416  )
         8           Ti1 tau(   8) = (   0.0015273   1.4827037   9.2680791  )
         9           O1  tau(   9) = (   3.2969863   5.9453513  11.3493076  )
        10           O1  tau(  10) = (   0.0116148   5.9584955  10.6183126  )
        11           O1  tau(  11) = (   1.3059050   1.4736943  12.6642453  )
        12           O1  tau(  12) = (   5.3003793   1.4775083  12.6459419  )
        13           Ti1 tau(  13) = (   0.0167275   2.9625105  12.5508078  )
        14           Ti1 tau(  14) = (   3.3131340   1.4712512  12.4909780  )
        15           O1  tau(  15) = (   6.5517612   5.9325698  14.7566896  )
        16           O1  tau(  16) = (   3.3302114   5.9429442  13.9823395  )
        17           O1  tau(  17) = (   4.5243935   1.5056208  16.2316672  )
        18           O1  tau(  18) = (   2.0170937   1.4633510  16.1378485  )
        19           Ti1 tau(  19) = (   3.2500237   2.9242626  15.6920970  )
        20           Ti1 tau(  20) = (   6.5441017   1.2779805  16.1516014  )
        21           O1  tau(  21) = (   3.2904802   0.0005063   4.7018136  )
        22           O1  tau(  22) = (   6.5540411   5.9581837  17.3465722  )
        23           O1  tau(  23) = (   1.3043587   1.4918075   6.0039043  )
        24           O1  tau(  24) = (   5.2767064   1.4903225   6.0039473  )
        25           Ti1 tau(  25) = (   0.0000382   5.9609847   6.0000000  )
        26           Ti1 tau(  26) = (   3.2902200   4.4714249   6.0002472  )
        27           O1  tau(  27) = (   0.0002396   2.9813036   7.9858123  )
        28           O1  tau(  28) = (   3.2902150   2.9813002   7.3038282  )
        29           O1  tau(  29) = (   4.5938453   4.4726049   9.2879030  )
        30           O1  tau(  30) = (   1.9864658   4.4711199   9.2879459  )
        31           Ti1 tau(  31) = (   3.2891106   5.8743827   9.1763621  )
        32           Ti1 tau(  32) = (   0.0006254   4.4649316   9.2693709  )
        33           O1  tau(  33) = (   3.2962403   2.9651072  11.3429128  )
        34           O1  tau(  34) = (   0.0092240   2.9805883  10.6323155  )
        35           O1  tau(  35) = (   1.3076126   4.4641214  12.6643835  )
        36           O1  tau(  36) = (   5.2981430   4.4591552  12.6429889  )
        37           Ti1 tau(  37) = (   0.0194730   5.9489450  12.5196332  )
        38           Ti1 tau(  38) = (   3.3150505   4.4522436  12.4946186  )
        39           O1  tau(  39) = (   6.5702761   2.9869041  14.8038460  )
        40           O1  tau(  40) = (   3.3119818   2.9576719  13.9204832  )
        41           O1  tau(  41) = (   4.5223198   4.3950437  16.2490866  )
        42           O1  tau(  42) = (   2.0356696   4.4339808  16.1311045  )
        43           Ti1 tau(  43) = (   3.3057863   5.9493229  15.7677403  )
        44           Ti1 tau(  44) = (   0.0958844   4.4293496  15.8701971  )
        45           O1  tau(  45) = (   3.2900926   2.9813045   4.7018136  )
        46           O1  tau(  46) = (   1.3039711   4.4726057   6.0039043  )
        47           O1  tau(  47) = (   5.2763189   4.4711207   6.0039473  )
        48           N1  tau(  48) = (   0.0620580   3.0375546  17.6897758  )
        49           C1  tau(  49) = (   1.1116374   2.9693208  18.6984743  )
        50           H1  tau(  50) = (   1.2951007   3.9632040  19.1583453  )
        51           H1  tau(  51) = (   0.8627774   2.2426413  19.4871689  )
        52           H1  tau(  52) = (   2.0263963   2.6228967  18.2308865  )
        53           N1  tau(  53) = (   5.4279256   3.3744730  18.4033390  )
        54           H1  tau(  54) = (   5.6103604   4.1199394  19.0852601  )
        55           H1  tau(  55) = (   4.7934260   3.8076565  17.6395878  )
        56           H1  tau(  56) = (   5.0090149   2.5598412  18.8678436  )

     number of k points=    10  Fermi-Dirac smearing, width (Ry)=  0.0073
                       cart. coord. in units 2pi/alat
        k(    1) = (   0.0000000   0.0000000   0.0000000), wk =   0.0625000
        k(    2) = (   0.0000000   0.0419351   0.0000000), wk =   0.1250000
        k(    3) = (   0.0000000  -0.0838702   0.0000000), wk =   0.0625000
        k(    4) = (   0.0379955   0.0000049   0.0000000), wk =   0.1250000
        k(    5) = (   0.0379955   0.0419400   0.0000000), wk =   0.1250000
[...]
     % Please cite the following two papers that made this development      %
     % possible and the two reviews that describe the various versions:     %
     %                                                                      %
     %   T. Thonhauser et al., PRL 115, 136402 (2015).                      %
     %   T. Thonhauser et al., PRB 76, 125112 (2007).                       %
     %   K. Berland et al., Rep. Prog. Phys. 78, 066501 (2015).             %
     %   D.C. Langreth et al., J. Phys.: Condens. Matter 21, 084203 (2009). %
     %                                                                      %
     %                                                                      %
     % If you are calculating the stress with vdW-DF, please also cite:     %
     %                                                                      %
     %   R. Sabatini et al., J. Phys.: Condens. Matter 24, 424209 (2012).   %
     %                                                                      %
     %%%%%%%%%%%%%%%%%%%%%%%%%%%%%%%%%%%%%%%%%%%%%%%%%%%%%%%%%%%%%%%%%%%%%%%%

     Adding external electric field

     Computed dipole along edir(3) :
        Dipole              -10.5729 Ry au,        -26.8736 Debye
        Dipole field         -0.0200 Ry au,

        Potential amp.        1.8496 Ry
        Total length         46.3494 bohr

[...]

     Starting wfcs are  302 atomic wfcs
  @ DRIVER MODE: Message from server: STATUS
  @ DRIVER MODE: Message from server: POSDATA
  @ DRIVER MODE: Reading and sharing cell
  @ DRIVER MODE: Reading and sharing positions
  @ DRIVER MODE: Received positions

     Self-consistent Calculation

     iteration #  1     ecut=    29.40 Ry     beta= 0.05
     Davidson diagonalization with overlap
     c_bands:  4 eigenvalues not converged
     c_bands:  3 eigenvalues not converged
     c_bands:  1 eigenvalues not converged
     c_bands:  4 eigenvalues not converged
     c_bands:  5 eigenvalues not converged
     c_bands:  5 eigenvalues not converged
     c_bands:  1 eigenvalues not converged
     c_bands:  5 eigenvalues not converged
     c_bands:  3 eigenvalues not converged
     c_bands:  3 eigenvalues not converged
     c_bands:  2 eigenvalues not converged
     c_bands:  1 eigenvalues not converged
     c_bands:  4 eigenvalues not converged
     c_bands:  5 eigenvalues not converged
     c_bands:  5 eigenvalues not converged
     c_bands:  5 eigenvalues not converged
     c_bands:  3 eigenvalues not converged
     ethr =  1.00E-05,  avg # of iterations = 20.0

[...]

     total energy              =   -2443.29882615 Ry
     estimated scf accuracy    <    5586.03487100 Ry

     total magnetization       =     0.00 Bohr mag/cell
     absolute magnetization    =     0.01 Bohr mag/cell

     iteration #  2     ecut=    29.40 Ry     beta= 0.05
     Davidson diagonalization with overlap
     ethr =  1.00E-02,  avg # of iterations = 23.9

[...]

     iteration #114     ecut=    29.40 Ry     beta= 0.05
     Davidson diagonalization with overlap
     ethr =  2.52E-11,  avg # of iterations =  1.5

[...]

     total energy              =   -2942.82546568 Ry
     estimated scf accuracy    <       0.00000008 Ry

[...]

     iteration #117     ecut=    29.40 Ry     beta= 0.05
     Davidson diagonalization with overlap
     c_bands:  2 eigenvalues not converged
     c_bands:  3 eigenvalues not converged
     ethr =  1.89E-11,  avg # of iterations = 14.9

     negative rho (up, down):  7.291E-03 7.281E-03

[...]

     Adding external electric field

     Computed dipole along edir(3) :
        Dipole                1.6181 Ry au,          4.1127 Debye
        Dipole field          0.0031 Ry au,

        Potential amp.       -0.2831 Ry
        Total length         46.3494 bohr

     Magnetic moment per site  (integrated on atomic sphere of radius R)
     atom   1 (R=0.723)  charge=  7.9141  magn=  0.0177
     atom   2 (R=0.723)  charge=  7.8963  magn=  0.0008
     atom   3 (R=0.633)  charge=  4.2081  magn= -0.0015
     atom   4 (R=0.633)  charge=  4.2373  magn= -0.0002
     atom   5 (R=0.633)  charge=  4.2137  magn= -0.0002
     atom   6 (R=0.633)  charge=  4.2139  magn= -0.0002
     atom   7 (R=0.723)  charge=  7.8964  magn=  0.0009
     atom   8 (R=0.723)  charge=  7.8945  magn=  0.0082
     atom   9 (R=0.633)  charge=  4.2238  magn= -0.0003
     atom  10 (R=0.633)  charge=  4.2125  magn= -0.0005
     atom  11 (R=0.633)  charge=  4.2093  magn= -0.0004
     atom  12 (R=0.633)  charge=  4.2111  magn= -0.0004
     atom  13 (R=0.723)  charge=  7.8926  magn=  0.0030
     atom  14 (R=0.723)  charge=  7.9040  magn=  0.0021
     atom  15 (R=0.633)  charge=  4.2098  magn= -0.0001
     atom  16 (R=0.633)  charge=  4.2161  magn= -0.0001
     atom  17 (R=0.633)  charge=  4.2035  magn=  0.0000
     atom  18 (R=0.633)  charge=  4.2034  magn=  0.0000
     atom  19 (R=0.723)  charge=  7.9504  magn= -0.0009
     atom  20 (R=0.723)  charge=  7.9298  magn= -0.0001
     atom  21 (R=0.633)  charge=  4.1284  magn= -0.0005
     atom  22 (R=0.633)  charge=  4.1765  magn=  0.0000
     atom  23 (R=0.633)  charge=  4.2073  magn= -0.0018
     atom  24 (R=0.633)  charge=  4.2074  magn= -0.0018
     atom  25 (R=0.723)  charge=  7.9141  magn=  0.0177
     atom  26 (R=0.723)  charge=  7.8964  magn=  0.0008
     atom  27 (R=0.633)  charge=  4.2077  magn= -0.0015
     atom  28 (R=0.633)  charge=  4.2375  magn= -0.0002
     atom  29 (R=0.633)  charge=  4.2143  magn= -0.0002
     atom  30 (R=0.633)  charge=  4.2144  magn= -0.0002
     atom  31 (R=0.723)  charge=  7.8969  magn=  0.0009
     atom  32 (R=0.723)  charge=  7.8947  magn=  0.0082
     atom  33 (R=0.633)  charge=  4.2222  magn= -0.0003
     atom  34 (R=0.633)  charge=  4.2053  magn= -0.0006
     atom  35 (R=0.633)  charge=  4.2090  magn= -0.0004
     atom  36 (R=0.633)  charge=  4.2115  magn= -0.0004
     atom  37 (R=0.723)  charge=  7.8964  magn=  0.0029
     atom  38 (R=0.723)  charge=  7.9034  magn=  0.0021
     atom  39 (R=0.633)  charge=  4.1926  magn= -0.0001
     atom  40 (R=0.633)  charge=  4.2343  magn= -0.0001
     atom  41 (R=0.633)  charge=  4.2025  magn=  0.0000
     atom  42 (R=0.633)  charge=  4.2135  magn=  0.0000
     atom  43 (R=0.723)  charge=  7.9399  magn= -0.0012
     atom  44 (R=0.723)  charge=  7.9262  magn=  0.0001
     atom  45 (R=0.633)  charge=  4.1284  magn= -0.0006
     atom  46 (R=0.633)  charge=  4.2073  magn= -0.0018
     atom  47 (R=0.633)  charge=  4.2074  magn= -0.0018
     atom  48 (R=0.423)  charge=  1.3356  magn=  0.0000
     atom  49 (R=0.447)  charge=  0.8370  magn= -0.0000
     atom  50 (R=0.423)  charge=  0.4436  magn=  0.0000
     atom  51 (R=0.423)  charge=  0.4498  magn=  0.0000
     atom  52 (R=0.423)  charge=  0.4552  magn=  0.0000
     atom  53 (R=0.423)  charge=  1.3749  magn= -0.0000
     atom  54 (R=0.423)  charge=  0.4520  magn= -0.0000
     atom  55 (R=0.423)  charge=  0.3988  magn= -0.0000
     atom  56 (R=0.423)  charge=  0.4521  magn= -0.0000

     End of self-consistent calculation

 ------ SPIN UP ------------

          k = 0.0000 0.0000 0.0000 ( 18029 PWs)   bands (ev):

   -55.1373 -55.1118 -55.1006 -55.0777 -55.0204 -55.0012 -54.9822 -54.9381
   -54.9302 -54.9147 -54.9021 -54.8981 -54.8575 -54.7865 -54.1088 -54.0747
   -31.7160 -31.5918 -31.5057 -31.4725 -31.4357 -31.4270 -31.4232 -31.4038
   -31.3951 -31.3913 -31.3602 -31.3577 -31.3474 -31.3147 -31.2962 -31.2722
   -31.2671 -31.2565 -31.2416 -31.2329 -31.2136 -31.2047 -31.1975 -31.1719
   -31.1686 -31.1497 -31.1402 -31.1366 -31.1362 -31.1230 -31.1226 -31.1125
   -31.0986 -31.0876 -31.0809 -31.0609 -31.0540 -31.0388 -31.0384 -31.0289
   -31.0175 -30.9761 -30.5168 -30.4254 -30.4031 -30.3337 -30.2470 -30.1356
   -18.9387 -15.9991 -15.7448 -15.6086 -15.3740 -15.3211 -15.2657 -15.0609
   -15.0563 -14.9861 -14.9707 -14.9216 -14.9011 -14.8346 -14.7501 -14.7312
   -14.6599 -14.6593 -14.6301 -14.6201 -14.6168 -14.5542 -14.5454 -14.5153
   -14.5016 -14.4774 -14.3595 -14.2744 -14.2152 -13.9683 -13.5956 -12.6100
   -12.4929  -9.7364  -7.7224  -7.2136  -5.4512  -3.8028  -3.3367  -3.2795
    -3.1623  -3.1330  -3.0563  -3.0263  -2.8424  -2.8209  -2.4794  -2.4434
    -2.3933  -2.3750  -2.3543  -2.3363  -2.1690  -2.1425  -2.0696  -2.0369
    -2.0184  -1.9777  -1.9607  -1.9505  -1.9168  -1.9118  -1.9016  -1.6941
    -1.6384  -1.5437  -1.5211  -1.4994  -1.4621  -1.4264  -1.4176  -1.4142
    -1.4080  -1.3948  -1.3825  -1.3022  -1.2451  -1.1630  -1.1539  -1.1183
    -1.0140  -0.9689  -0.7669  -0.7523  -0.7068  -0.6643  -0.6015  -0.5816
    -0.5135  -0.4828  -0.4646  -0.3429  -0.3139  -0.2744  -0.2462  -0.1786
    -0.1487  -0.1022  -0.0194   0.0527   0.0886   0.1083   0.1655   0.2957
     0.3072   0.3365   0.3977   0.4614   0.5020   0.5218   0.5403   0.5772
     0.6273   0.7536   0.7974   0.8179   0.8219   0.8568   0.8783   0.9292
     0.9537   1.0142   1.0202   1.1373   1.2067   1.4337   1.4686   1.4947
     1.8270   1.8506   1.9148   2.1008   2.4894   2.5360   3.9619   4.0262
     4.0817   4.0905   4.1171   4.2069   4.2480   4.4309   4.4547   4.4578
     4.4626

[...]

          k =-0.0760-0.0000 0.0000 ( 17886 PWs)   bands (ev):

[...]

 ------ SPIN DOWN ----------

[...]

          k = 0.0380-0.0419 0.0000 ( 17876 PWs)   bands (ev):

[...]

          k =-0.0760-0.0839 0.0000 ( 17948 PWs)   bands (ev):

   -55.1174 -55.1115 -55.0621 -55.0619 -55.0041 -54.9992 -54.9873 -54.9194
   -54.9192 -54.9154 -54.9016 -54.9002 -54.8536 -54.7904 -54.0903 -54.0901
   -31.5174 -31.5145 -31.4384 -31.4161 -31.3936 -31.3935 -31.3521 -31.3520
   -31.3438 -31.3382 -31.3359 -31.3348 -31.3039 -31.2684 -31.2589 -31.2546
   -31.2543 -31.2503 -31.2448 -31.2384 -31.2127 -31.2028 -31.2005 -31.2003
   -31.1854 -31.1797 -31.1780 -31.1780 -31.1538 -31.1492 -31.1337 -31.1297
   -31.1279 -31.1236 -31.1230 -31.1190 -31.0942 -31.0829 -31.0810 -31.0658
   -31.0409 -31.0233 -30.4141 -30.4139 -30.3287 -30.3285 -30.2889 -30.2888
   -18.9339 -15.5065 -15.3967 -15.2893 -15.2235 -15.1808 -15.1293 -15.1118
   -15.1012 -15.0563 -15.0267 -14.9577 -14.8931 -14.8400 -14.8390 -14.8046
   -14.7260 -14.7121 -14.7050 -14.6945 -14.6377 -14.6310 -14.5997 -14.5791
   -14.5759 -14.5457 -14.4717 -14.4693 -14.3836 -14.1774 -13.6316 -12.5958
   -12.5955  -9.7056  -7.7191  -7.1593  -5.4546  -3.8249  -3.4339  -2.7548
    -2.6437  -2.4326  -2.4073  -2.3471  -2.3265  -2.2441  -2.1824  -2.1594
    -2.1361  -2.1023  -2.0990  -2.0761  -2.0535  -2.0001  -1.9709  -1.9590
    -1.9532  -1.9386  -1.9258  -1.9064  -1.8494  -1.8390  -1.8315  -1.7890
    -1.7780  -1.7462  -1.7401  -1.7008  -1.6842  -1.6102  -1.5160  -1.4918
    -1.4333  -1.3320  -1.3168  -1.3112  -1.2194  -1.2097  -1.1800  -1.1493
    -1.0950  -0.9965  -0.9413  -0.8643  -0.8610  -0.8321  -0.7446  -0.6810
    -0.6469  -0.6376  -0.5989  -0.5413  -0.5186  -0.4845  -0.4018  -0.3604
    -0.3334  -0.2994  -0.2045  -0.1430  -0.1195  -0.0878  -0.0844   0.0048
     0.0380   0.0756   0.0967   0.1337   0.1603   0.2246   0.2474   0.3576
     0.4255   0.4573   0.5763   0.6003   0.6640   0.7963   0.8679   0.9085
     0.9605   1.0192   1.0468   1.1766   1.1837   1.2026   1.3026   1.3435
     1.3504   1.3628   2.2730   2.2741   2.3558   2.3559   4.1003   4.1882
     4.2341   4.2719   4.3767   4.4938   4.5123   4.5546   4.5552   4.6298
     4.6391

     the Fermi energy is     4.0218 ev

!    total energy              =   -2942.82546653 Ry
     estimated scf accuracy    <       0.00000007 Ry
     smearing contrib. (-TS)   =      -0.03681042 Ry
     internal energy E=F+TS    =   -2942.78865612 Ry

     The total energy is F=E-TS. E is the sum of the following terms:
     one-electron contribution =  -23972.18470641 Ry
     hartree contribution      =   12081.66417099 Ry
     xc contribution           =    -487.76724375 Ry
     ewald contribution        =    9435.49418228 Ry
     electric field correction =       0.00494077 Ry

     total magnetization       =     0.08 Bohr mag/cell
     absolute magnetization    =     0.13 Bohr mag/cell

     convergence has been achieved in 117 iterations

     Forces acting on atoms (cartesian axes, Ry/au):

     atom    1 type  1   force =     0.00015042   -0.00022273    0.09427803
     atom    2 type  1   force =    -0.00009568   -0.00032291   -0.17740856
     atom    3 type  2   force =     0.00005574   -0.00016381   -0.02130396
     atom    4 type  2   force =    -0.00001499   -0.00172693    0.05661164
     atom    5 type  2   force =    -0.01055208   -0.00127569    0.00624402
     atom    6 type  2   force =     0.01221983   -0.00074149    0.00571586
     atom    7 type  1   force =    -0.00032739    0.00172070   -0.01620315
     atom    8 type  1   force =    -0.00011090    0.00438366    0.00558160
     atom    9 type  2   force =     0.00001027   -0.00004524   -0.00004831
     atom   10 type  2   force =    -0.00074310   -0.00022180   -0.00044002
     atom   11 type  2   force =     0.00034034    0.00012711   -0.00018337
     atom   12 type  2   force =    -0.00051257    0.00000438   -0.00012070
     atom   13 type  1   force =     0.00004158   -0.00035298    0.00012074
     atom   14 type  1   force =     0.00055788    0.00011814   -0.00032649
     atom   15 type  2   force =    -0.00039780    0.00024244   -0.00016632
     atom   16 type  2   force =    -0.00033134    0.00019509   -0.00002833
     atom   17 type  2   force =    -0.00017244    0.00009927    0.00044760
     atom   18 type  2   force =     0.00009027    0.00034370   -0.00004554
     atom   19 type  1   force =     0.00017194    0.00007367   -0.00000144
     atom   20 type  1   force =     0.00009120    0.00048835   -0.00054911
     atom   21 type  2   force =     0.00003741    0.00004217    0.10362688
     atom   22 type  2   force =    -0.00003747   -0.00082869   -0.00029209
     atom   23 type  2   force =    -0.07081503   -0.00009321   -0.02719108
     atom   24 type  2   force =     0.07067845    0.00034836   -0.02722013
     atom   25 type  1   force =    -0.00009572   -0.00019503    0.09369701
     atom   26 type  1   force =    -0.00015249   -0.00032917   -0.17733425
     atom   27 type  2   force =     0.00008667   -0.00035079   -0.02040792
     atom   28 type  2   force =     0.00003086   -0.00144053    0.05591542
     atom   29 type  2   force =    -0.01091516   -0.00073505    0.00609304
     atom   30 type  2   force =     0.01246660   -0.00028997    0.00557123
     atom   31 type  1   force =    -0.00017500    0.00462391   -0.01723045
     atom   32 type  1   force =    -0.00003788   -0.00480217    0.00556124
     atom   33 type  2   force =     0.00005630    0.00012432    0.00027016
     atom   34 type  2   force =     0.00005723   -0.00085275   -0.00296736
     atom   35 type  2   force =     0.00022895    0.00003001    0.00008510
     atom   36 type  2   force =    -0.00042368    0.00015512   -0.00006075
     atom   37 type  1   force =    -0.00012804   -0.00010609   -0.00019015
     atom   38 type  1   force =     0.00043320   -0.00028517    0.00037221
     atom   39 type  2   force =    -0.00045244    0.00009772    0.00074925
     atom   40 type  2   force =    -0.00011809    0.00018751   -0.00019590
     atom   41 type  2   force =     0.00010185    0.00029263    0.00023770
     atom   42 type  2   force =    -0.00008472    0.00020840   -0.00004321
     atom   43 type  1   force =    -0.00042316    0.00056023   -0.00007790
     atom   44 type  1   force =    -0.00018142    0.00036162   -0.00027012
     atom   45 type  2   force =     0.00002626    0.00001067    0.10364323
     atom   46 type  2   force =    -0.07081627   -0.00004448   -0.02719124
     atom   47 type  2   force =     0.07068271    0.00037351   -0.02719820
     atom   48 type  3   force =     0.00043345   -0.00100581    0.00048361
     atom   49 type  4   force =     0.00055538    0.00870389    0.00226595
     atom   50 type  5   force =    -0.00117170   -0.00928675   -0.00324679
     atom   51 type  5   force =    -0.00018915    0.00039625    0.00030124
     atom   52 type  5   force =    -0.00029245    0.00029679    0.00019814
     atom   53 type  3   force =     0.00032498    0.00070412    0.00115016
     atom   54 type  5   force =     0.00022878    0.00008340   -0.00020031
     atom   55 type  5   force =    -0.00009837    0.00014045   -0.00084454
     atom   56 type  5   force =    -0.00029204    0.00018162   -0.00023337

     Total force =     0.365819     Total SCF correction =     0.000349
  @ DRIVER MODE: Message from server: STATUS
  @ DRIVER MODE: Message from server: GETFORCE
  @ DRIVER MODE: Returning v,forces,stress,ensemble

     Writing output data file ./calc.save/
  @ DRIVER MODE: Message from server: EXIT
  @ DRIVE MODE: Exiting

     General routines

     Parallel routines

   This run was terminated on:   6:32:52  16Jul2021

   JOB DONE.