     Program PWSCF v.6.7GPU starts on 22Sep2021 at 19:13:41

     R & G space division:  proc/nbgrp/npool/nimage =      10
     Reading input from /storage/home/hcoda1/3/ntian30/research/carbon/CxH_vib/H2O_calc/ads_slab/CH2HO_a/out_0011/pw.inp
Warning: card &CELL ignored
Warning: card   CELL_DYNAMICS='IPI', ignored
Warning: card / ignored

     Current dimensions of program PWSCF are:
     Max number of different atomic species (ntypx) = 10
     Max number of k-points (npk) =  40000
     Max angular momentum in pseudopotentials (lmaxx) =  3
     Presently no symmetry can be used with electric field

     Message from routine cell_base_init:
     DEPRECATED: use true lattice parameter, not A to a.u. conversion factor

     IMPORTANT: XC functional enforced from input :
     Exchange-correlation= BEEF-VDW
                           (   1   4  43  14   2   0   0)
     Any further DFT definition will be discarded
     Please, verify this is what you really want

  @ DRIVER MODE: Connecting to
 qe_1139763_2937324.sched-torque.pace.gatech.edui9ivo1fv_scratch
  using UNIX socket
  @ DRIVER MODE: Message from server: STATUS
  @ DRIVER MODE: Message from server: INIT
  @ DRIVER MODE: Receiving replica           0          -1
  @ DRIVER MODE: Receiving encoded integer          25
  @ DRIVER MODE:  SCF:  T  FORCE:  T  STRESS:  F  VC:  F  ENSEMBLE:  F
  @ DRIVER MODE:  SCF:  T  FORCE:  T  STRESS:  F  VC:  F  ENSEMBLE:  F

     Using Slab Decomposition

     bravais-lattice index     =            0
     lattice parameter (alat)  =       1.8897  a.u.
     unit-cell volume          =    6658.9804 (a.u.)^3
     number of atoms/cell      =           52
     number of atomic types    =            4
     number of electrons       =       391.00
     number of Kohn-Sham states=          205
     kinetic-energy cutoff     =      29.3995  Ry
     charge density cutoff     =     293.9946  Ry
     scf convergence threshold =      7.3E-08
     mixing beta               =       0.0500
     number of iterations used =            8  plain     mixing
     Exchange-correlation= BEEF-VDW
                           (   1   4  43  14   2   0   0)

     celldm(1)=   1.889726  celldm(2)=   0.000000  celldm(3)=   0.000000
     celldm(4)=   0.000000  celldm(5)=   0.000000  celldm(6)=   0.000000

     crystal axes: (cart. coord. in units of alat)
               a(1) = (   6.579727   0.000000   0.000000 )
               a(2) = (  -0.000775   5.961596   0.000000 )
               a(3) = (   0.000000   0.000000  25.155947 )

     reciprocal axes: (cart. coord. in units 2 pi/alat)
               b(1) = (  0.151982  0.000020  0.000000 )
               b(2) = (  0.000000  0.167740  0.000000 )
               b(3) = (  0.000000  0.000000  0.039752 )

     PseudoPot. # 1 for Ti read from file:
     /storage/coda1/p-amedford6/0/shared/rich_project_chbe-medford/medford-share/data/pseudos_module/espresso/nninc/pbe/van/Ti.UPF
     MD5 check sum: 8e4df49b7f0d34bbd5052bf3f5ea0213
     Pseudo is Ultrasoft, Zval = 12.0
     Generated by new atomic code, or converted to UPF format
     Using radial grid of  851 points,  6 beta functions with:
                l(1) =   0
                l(2) =   0
                l(3) =   1
                l(4) =   1
                l(5) =   2
                l(6) =   2
     Q(r) pseudized with  8 coefficients,  rinner =    1.000   1.000   1.000
                                                       1.000   1.000

     PseudoPot. # 2 for O  read from file:
     /storage/coda1/p-amedford6/0/shared/rich_project_chbe-medford/medford-share/data/pseudos_module/espresso/nninc/pbe/van/O.UPF
     MD5 check sum: 78c19812648e8988a0fe644b0f25305e
     Pseudo is Ultrasoft, Zval =  6.0
     Generated by new atomic code, or converted to UPF format
     Using radial grid of  737 points,  4 beta functions with:
                l(1) =   0
                l(2) =   0
                l(3) =   1
                l(4) =   1
     Q(r) pseudized with  8 coefficients,  rinner =    0.800   0.800   0.800

     PseudoPot. # 3 for C  read from file:
     /storage/coda1/p-amedford6/0/shared/rich_project_chbe-medford/medford-share/data/pseudos_module/espresso/nninc/pbe/van/C.UPF
     MD5 check sum: 1a69bf6b8db32088f5b2163dbdb77a27
     Pseudo is Ultrasoft, Zval =  4.0
     Generated by new atomic code, or converted to UPF format
     Using radial grid of  721 points,  4 beta functions with:
                l(1) =   0
                l(2) =   0
                l(3) =   1
                l(4) =   1
     Q(r) pseudized with  8 coefficients,  rinner =    0.800   0.800   0.800

     PseudoPot. # 4 for H  read from file:
     /storage/coda1/p-amedford6/0/shared/rich_project_chbe-medford/medford-share/data/pseudos_module/espresso/nninc/pbe/van/H.UPF
     MD5 check sum: b5ee9d7bfd3a09ee7748110bda690ff7
     Pseudo is Ultrasoft, Zval =  1.0
     Generated by new atomic code, or converted to UPF format
     Using radial grid of  615 points,  1 beta functions with:
                l(1) =   0
     Q(r) pseudized with  8 coefficients,  rinner =    0.800

     atomic species   valence    mass     pseudopotential
        Ti1           12.00    47.86700     Ti( 1.00)
        O1             6.00    15.99900     O ( 1.00)
        C1             4.00    12.01100     C ( 1.00)
        H1             1.00     1.00800     H ( 1.00)

     No symmetry found

   Cartesian axes

     site n.     atom                  positions (alat units)
         1           Ti1 tau(   1) = (   0.0004258   2.9801865   6.0000000  )
         2           Ti1 tau(   2) = (   3.2906075   1.4906267   6.0002472  )
         3           O1  tau(   3) = (   0.0006271   0.0005054   7.9858123  )
         4           O1  tau(   4) = (   3.2906025   0.0005020   7.3038282  )
         5           O1  tau(   5) = (   4.5942328   1.4918067   9.2879030  )
         6           O1  tau(   6) = (   1.9868534   1.4903216   9.2879459  )
         7           Ti1 tau(   7) = (   3.2576197   2.8654215   9.2214558  )
         8           Ti1 tau(   8) = (   6.5344909   1.4429808   9.3601258  )
         9           O1  tau(   9) = (   3.2692782   5.9266415  11.3199434  )
        10           O1  tau(  10) = (   6.5685443   5.9434748  10.5851361  )
        11           O1  tau(  11) = (   1.2543606   1.4786140  12.6270584  )
        12           O1  tau(  12) = (   5.2804994   1.4734118  12.6291387  )
        13           Ti1 tau(  13) = (   6.5561640   2.8465321  12.8092297  )
        14           Ti1 tau(  14) = (   3.2590950   1.2910582  12.6820668  )
        15           O1  tau(  15) = (   6.5637791   5.9505241  14.6246090  )
        16           O1  tau(  16) = (   3.2632455   0.0300109  13.9168947  )
        17           O1  tau(  17) = (   4.5093043   1.5331652  16.1230905  )
        18           O1  tau(  18) = (   1.9844652   1.5452522  16.1286669  )
        19           Ti1 tau(  19) = (   3.2766647   3.0056044  15.6806532  )
        20           Ti1 tau(  20) = (   0.0376264   1.5104518  16.1289793  )
        21           O1  tau(  21) = (   3.2904802   0.0005063   4.7018136  )
        22           O1  tau(  22) = (   6.5370995   5.9187843  17.1758003  )
        23           O1  tau(  23) = (   1.3043587   1.4918075   6.0039043  )
        24           O1  tau(  24) = (   5.2767064   1.4903225   6.0039473  )
        25           Ti1 tau(  25) = (   0.0000382   5.9609847   6.0000000  )
        26           Ti1 tau(  26) = (   3.2902200   4.4714249   6.0002472  )
        27           O1  tau(  27) = (   0.0002396   2.9813036   7.9858123  )
        28           O1  tau(  28) = (   3.2902150   2.9813002   7.3038282  )
        29           O1  tau(  29) = (   4.5938453   4.4726049   9.2879030  )
        30           O1  tau(  30) = (   1.9864658   4.4711199   9.2879459  )
        31           Ti1 tau(  31) = (   3.2565375   5.8496818   9.1814359  )
        32           Ti1 tau(  32) = (   6.5349656   4.3900073   9.3400910  )
        33           O1  tau(  33) = (   3.2728704   3.0037829  11.2907943  )
        34           O1  tau(  34) = (   6.5689136   2.9626257  10.5472476  )
        35           O1  tau(  35) = (   1.2549189   4.4436098  12.6280720  )
        36           O1  tau(  36) = (   5.2752285   4.4450423  12.6314263  )
        37           Ti1 tau(  37) = (   6.5445616   5.8332433  12.5976854  )
        38           Ti1 tau(  38) = (   3.2543598   4.3897341  12.4334224  )
        39           O1  tau(  39) = (   6.5579435   2.9355163  14.7117218  )
        40           O1  tau(  40) = (   3.2602875   2.9656724  13.9017019  )
        41           O1  tau(  41) = (   4.5395605   4.4315404  16.0360363  )
        42           O1  tau(  42) = (   2.0063696   4.4444213  16.0824092  )
        43           Ti1 tau(  43) = (   3.2990179   0.0081159  16.3450624  )
        44           Ti1 tau(  44) = (   6.5722952   4.6241161  15.8901152  )
        45           O1  tau(  45) = (   3.2900926   2.9813045   4.7018136  )
        46           O1  tau(  46) = (   1.3039711   4.4726057   6.0039043  )
        47           O1  tau(  47) = (   5.2763189   4.4711207   6.0039473  )
        48           C1  tau(  48) = (   6.5366691   2.9215611  17.7332970  )
        49           H1  tau(  49) = (   0.8393079   3.1163452  18.3354380  )
        50           H1  tau(  50) = (   5.6239513   3.1093896  18.3013171  )
        51           O1  tau(  51) = (   3.3457726   5.9061862  18.1608053  )
        52           H1  tau(  52) = (   4.0847859   0.3069366  18.6733355  )

     number of k points=    10  Fermi-Dirac smearing, width (Ry)=  0.0073
                       cart. coord. in units 2pi/alat
        k(    1) = (   0.0000000   0.0000000   0.0000000), wk =   0.1250000
        k(    2) = (   0.0000000   0.0419351   0.0000000), wk =   0.2500000
        k(    3) = (   0.0000000  -0.0838702   0.0000000), wk =   0.1250000
        k(    4) = (   0.0379955   0.0000049   0.0000000), wk =   0.2500000
        k(    5) = (   0.0379955   0.0419400   0.0000000), wk =   0.2500000
        k(    6) = (   0.0379955  -0.0838652   0.0000000), wk =   0.2500000
        k(    7) = (   0.0379955  -0.0419301   0.0000000), wk =   0.2500000
        k(    8) = (  -0.0759910  -0.0000099   0.0000000), wk =   0.1250000
        k(    9) = (  -0.0759910   0.0419252   0.0000000), wk =   0.2500000
        k(   10) = (  -0.0759910  -0.0838800   0.0000000), wk =   0.1250000

     Initial potential from superposition of free atoms

     starting charge  374.99918, renormalised to  391.00000

     negative rho (up, down):  1.930E-02 0.000E+00

     %%%%%%%%%%%%%%%%%%%%%%%%%%%%%%%%%%%%%%%%%%%%%%%%%%%%%%%%%%%%%%%%%%%%%%%%
     %                                                                      %
     % You are using vdW-DF, which was implemented by the Thonhauser group. %
     % Please cite the following two papers that made this development      %
     % possible and the two reviews that describe the various versions:     %
     %                                                                      %
     %   T. Thonhauser et al., PRL 115, 136402 (2015).                      %
     %   T. Thonhauser et al., PRB 76, 125112 (2007).                       %
     %   K. Berland et al., Rep. Prog. Phys. 78, 066501 (2015).             %
     %   D.C. Langreth et al., J. Phys.: Condens. Matter 21, 084203 (2009). %
     %                                                                      %
     %                                                                      %
     % If you are calculating the stress with vdW-DF, please also cite:     %
     %                                                                      %
     %   R. Sabatini et al., J. Phys.: Condens. Matter 24, 424209 (2012).   %
     %                                                                      %
     %%%%%%%%%%%%%%%%%%%%%%%%%%%%%%%%%%%%%%%%%%%%%%%%%%%%%%%%%%%%%%%%%%%%%%%%

     Adding external electric field

     Computed dipole along edir(3) :
        Dipole               -4.4308 Ry au,        -11.2620 Debye
        Dipole field         -0.0084 Ry au,

        Potential amp.        0.7751 Ry
        Total length         46.3494 bohr

     Starting wfcs are  295 atomic wfcs
  @ DRIVER MODE: Message from server: STATUS
  @ DRIVER MODE: Message from server: POSDATA
  @ DRIVER MODE: Reading and sharing cell
  @ DRIVER MODE: Reading and sharing positions
  @ DRIVER MODE: Received positions

     Self-consistent Calculation

     iteration #  1     ecut=    29.40 Ry     beta= 0.05
     Davidson diagonalization with overlap
     c_bands:  4 eigenvalues not converged
     c_bands:  2 eigenvalues not converged
     c_bands:  2 eigenvalues not converged
     c_bands:  2 eigenvalues not converged
     c_bands:  2 eigenvalues not converged
     c_bands:  1 eigenvalues not converged
     c_bands:  3 eigenvalues not converged
     c_bands:  1 eigenvalues not converged
     c_bands:  3 eigenvalues not converged
     ethr =  1.00E-05,  avg # of iterations = 19.9

[...]

     total energy              =   -2883.69469565 Ry
     estimated scf accuracy    <     544.47895735 Ry

     iteration #  2     ecut=    29.40 Ry     beta= 0.05
     Davidson diagonalization with overlap
     ethr =  1.00E-02,  avg # of iterations = 14.4

[...]

     iteration # 27     ecut=    29.40 Ry     beta= 0.05
     Davidson diagonalization with overlap
     c_bands:  2 eigenvalues not converged
     c_bands:  1 eigenvalues not converged
     c_bands:  1 eigenvalues not converged
     c_bands:  2 eigenvalues not converged
     ethr =  1.01E-06,  avg # of iterations = 15.7

[...]

     total energy              =   -2931.27740443 Ry
     estimated scf accuracy    <       0.00000007 Ry

     iteration # 52     ecut=    29.40 Ry     beta= 0.05
     Davidson diagonalization with overlap
     ethr =  1.90E-11,  avg # of iterations =  3.5

     negative rho (up, down):  1.859E-02 0.000E+00

     Adding external electric field

     Computed dipole along edir(3) :
        Dipole                0.4338 Ry au,          1.1026 Debye
        Dipole field          0.0008 Ry au,

        Potential amp.       -0.0759 Ry
        Total length         46.3494 bohr

     End of self-consistent calculation

          k = 0.0000 0.0000 0.0000 ( 18029 PWs)   bands (ev):

   -56.6092 -56.5592 -56.1480 -56.0374 -55.9953 -55.9384 -55.9118 -55.8970
   -55.8539 -55.8124 -55.7829 -55.7256 -55.6777 -55.6098 -55.2188 -55.1849
   -33.0210 -32.8742 -32.8198 -32.7881 -32.6924 -32.6471 -32.4983 -32.4856
   -32.4665 -32.4033 -32.3726 -32.3504 -32.3075 -32.2847 -32.2661 -32.2426
   -32.2379 -32.2234 -32.2093 -32.1437 -32.1410 -32.1276 -32.1249 -32.1119
   -32.0990 -32.0943 -32.0891 -32.0862 -32.0605 -32.0402 -32.0166 -31.9993
   -31.9936 -31.9837 -31.9823 -31.9733 -31.9264 -31.8705 -31.8440 -31.8375
   -31.8216 -31.7873 -31.6133 -31.5592 -31.5349 -31.4300 -31.3450 -31.2343
   -16.9548 -16.7670 -16.6234 -16.4000 -16.2557 -16.1513 -15.9353 -15.9251
   -15.8033 -15.7856 -15.7611 -15.6298 -15.6165 -15.6000 -15.5610 -15.5390
   -15.5310 -15.5291 -15.5178 -15.4913 -15.4590 -15.4382 -15.3982 -15.3166
   -15.2417 -15.2340 -15.1987 -15.1432 -15.0793 -14.8604 -13.7218 -13.6135
    -8.9279  -4.6514  -4.2915  -4.0786  -3.9703  -3.8928  -3.7862  -3.6328
    -3.4337  -3.2950  -3.2496  -3.2086  -3.1613  -3.1523  -3.1241  -3.0857
    -3.0327  -2.9806  -2.9514  -2.8896  -2.8651  -2.8258  -2.7890  -2.7638
    -2.7486  -2.7327  -2.7239  -2.5936  -2.5242  -2.5145  -2.4673  -2.4653
    -2.4072  -2.3901  -2.3664  -2.3175  -2.2827  -2.1877  -2.1295  -2.0967
    -2.0520  -1.8290  -1.8110  -1.7451  -1.6708  -1.6179  -1.5595  -1.5169
    -1.4641  -1.4345  -1.3751  -1.3348  -1.2865  -1.2624  -1.2226  -1.1554
    -1.1352  -1.1002  -1.0391  -0.9631  -0.9174  -0.8486  -0.7826  -0.7449
    -0.6906  -0.6817  -0.6520  -0.5605  -0.4774  -0.4571  -0.4241  -0.3821
    -0.3658  -0.2947  -0.2812  -0.2384  -0.2225  -0.1450  -0.1306  -0.1012
    -0.0681  -0.0459  -0.0244   0.0419   0.1640   0.2319   0.2748   0.3141
     0.3307   0.4150   0.4344   0.5222   0.6773   0.7974   0.8367   1.0073
     1.0596   1.3482   1.3942   1.9242   2.6923   2.8567   3.1425   3.2450
     3.2813   3.3578   3.4023   3.4338   3.6321

[...]

          k = 0.0380-0.0419 0.0000 ( 17876 PWs)   bands (ev):

[...]

          k =-0.0760-0.0000 0.0000 ( 17886 PWs)   bands (ev):

[...]

          k =-0.0760-0.0839 0.0000 ( 17948 PWs)   bands (ev):

   -56.6027 -56.5655 -56.1472 -56.0350 -55.9893 -55.9443 -55.9140 -55.8975
   -55.8451 -55.8211 -55.7812 -55.7195 -55.6836 -55.6113 -55.2021 -55.2015
   -32.8700 -32.8535 -32.8238 -32.8216 -32.7546 -32.7229 -32.4241 -32.3805
   -32.3679 -32.3509 -32.3340 -32.2908 -32.2685 -32.2608 -32.2501 -32.2302
   -32.2148 -32.2024 -32.1916 -32.1831 -32.1634 -32.1624 -32.1399 -32.1361
   -32.1351 -32.1236 -32.1092 -32.1056 -32.0723 -32.0678 -32.0546 -32.0419
   -32.0029 -31.9951 -31.9873 -31.9861 -31.9540 -31.9301 -31.9096 -31.8722
   -31.8248 -31.8106 -31.5481 -31.5477 -31.4289 -31.4271 -31.3872 -31.3863
   -16.9428 -16.1454 -16.0837 -16.0742 -16.0611 -16.0312 -15.9896 -15.9180
   -15.9160 -15.8187 -15.7917 -15.7479 -15.7101 -15.6980 -15.6520 -15.6387
   -15.6262 -15.5633 -15.5212 -15.5024 -15.4868 -15.4742 -15.4533 -15.4286
   -15.4171 -15.3968 -15.3294 -15.2473 -15.2171 -15.0025 -13.7178 -13.7166
    -8.9357  -4.6426  -3.3832  -3.3277  -3.2493  -3.2394  -3.2266  -3.1503
    -3.0939  -3.0890  -3.0310  -3.0178  -2.9742  -2.9447  -2.9151  -2.9090
    -2.9021  -2.8923  -2.8788  -2.8549  -2.8009  -2.7981  -2.7803  -2.7711
    -2.7549  -2.7391  -2.7065  -2.6657  -2.6350  -2.6108  -2.5355  -2.4257
    -2.4200  -2.3872  -2.3552  -2.3231  -2.2812  -2.2604  -2.1829  -2.1754
    -2.1594  -2.1098  -2.0116  -1.7794  -1.7705  -1.7180  -1.6834  -1.6738
    -1.6129  -1.5425  -1.5357  -1.4512  -1.4480  -1.4346  -1.3344  -1.3168
    -1.2837  -1.2649  -1.2389  -1.2101  -1.1072  -1.0855  -1.0775  -1.0459
    -1.0005  -0.9798  -0.8880  -0.8694  -0.8516  -0.8236  -0.7415  -0.6892
    -0.6500  -0.6318  -0.4940  -0.4469  -0.4353  -0.2807  -0.2302  -0.1970
    -0.1749  -0.0884   0.0158   0.0559   0.1133   0.1602   0.2195   0.3260
     0.3386   0.3612   0.4268   0.4659   0.4730   0.4881   0.5659   1.1916
     1.1923   1.2005   1.2074   2.0830   3.2336   3.2590   3.2711   3.3045
     3.5177   3.5411   3.5519   3.6102   3.6507

     the Fermi energy is     2.0039 ev

!    total energy              =   -2931.27748677 Ry
     estimated scf accuracy    <       0.00000005 Ry
     smearing contrib. (-TS)   =      -0.01004768 Ry
     internal energy E=F+TS    =   -2931.26743909 Ry

     The total energy is F=E-TS. E is the sum of the following terms:
     one-electron contribution =  -24332.59919061 Ry
     hartree contribution      =   12250.08853786 Ry
     xc contribution           =    -481.70433851 Ry
     ewald contribution        =    9632.94719708 Ry
     electric field correction =       0.00035509 Ry

     convergence has been achieved in  52 iterations

     Forces acting on atoms (cartesian axes, Ry/au):

     atom    1 type  1   force =     0.00035877   -0.00077933    0.13236848
     atom    2 type  1   force =     0.00014394    0.00690533   -0.15725614
     atom    3 type  2   force =    -0.00018601    0.00281774   -0.05348365
     atom    4 type  2   force =    -0.00072772   -0.00116759    0.04119589
     atom    5 type  2   force =    -0.01141350   -0.00238539    0.00285139
     atom    6 type  2   force =     0.00919131   -0.00643987    0.00178246
     atom    7 type  1   force =     0.00043935    0.00029853   -0.00037398
     atom    8 type  1   force =     0.00019546   -0.00002825    0.00095378
     atom    9 type  2   force =    -0.00002173    0.00043862    0.00039258
     atom   10 type  2   force =     0.00025465    0.00023433   -0.00012840
     atom   11 type  2   force =     0.00051573    0.00033210    0.00025285
     atom   12 type  2   force =    -0.00015404    0.00027103   -0.00026694
     atom   13 type  1   force =    -0.00026424   -0.00046324   -0.00089989
     atom   14 type  1   force =     0.00020790    0.00050572   -0.00026699
     atom   15 type  2   force =     0.00005780   -0.00021661    0.00140879
     atom   16 type  2   force =     0.00047967   -0.00019770    0.00008643
     atom   17 type  2   force =     0.00017538   -0.00030058   -0.00038638
     atom   18 type  2   force =    -0.00105904   -0.00023369   -0.00018640
     atom   19 type  1   force =     0.00120156   -0.00008987   -0.00027760
     atom   20 type  1   force =    -0.00049027    0.00038352   -0.00016647
     atom   21 type  2   force =     0.00021022    0.00008791    0.09898036
     atom   22 type  2   force =     0.00007598    0.00084051   -0.00106840
     atom   23 type  2   force =    -0.08051306    0.00137100   -0.03417227
     atom   24 type  2   force =     0.08058870    0.00190158   -0.03418305
     atom   25 type  1   force =     0.00030753   -0.00010576    0.14244320
     atom   26 type  1   force =     0.00016923   -0.00836492   -0.15752132
     atom   27 type  2   force =    -0.00039249   -0.00117321   -0.05198014
     atom   28 type  2   force =    -0.00064152   -0.00038059    0.04299569
     atom   29 type  2   force =    -0.01012257    0.00503484    0.00017961
     atom   30 type  2   force =     0.00779609    0.00127819   -0.00110367
     atom   31 type  1   force =     0.00010243    0.00001307   -0.00024645
     atom   32 type  1   force =     0.00009614   -0.00043729    0.00098734
     atom   33 type  2   force =     0.00003502   -0.00034692   -0.00008563
     atom   34 type  2   force =     0.00024605    0.00012660   -0.00025921
     atom   35 type  2   force =    -0.00049820    0.00034681    0.00017511
     atom   36 type  2   force =     0.00130302    0.00030737   -0.00026312
     atom   37 type  1   force =     0.00000507   -0.00019847   -0.00041002
     atom   38 type  1   force =     0.00029232   -0.00008793   -0.00019065
     atom   39 type  2   force =     0.00004821    0.00010314    0.00005847
     atom   40 type  2   force =     0.00040045    0.00010609   -0.00034617
     atom   41 type  2   force =    -0.00106470    0.00009834   -0.00006842
     atom   42 type  2   force =     0.00030442    0.00026146   -0.00016483
     atom   43 type  1   force =     0.00119930    0.00049463    0.00026646
     atom   44 type  1   force =    -0.00048754    0.00039763   -0.00033442
     atom   45 type  2   force =     0.00020110   -0.00000057    0.09854395
     atom   46 type  2   force =    -0.08050044   -0.00109851   -0.03415665
     atom   47 type  2   force =     0.08059192   -0.00056089   -0.03424000
     atom   48 type  3   force =    -0.00524958   -0.00111091   -0.00493978
     atom   49 type  4   force =     0.00474815    0.00118038    0.00461714
     atom   50 type  4   force =     0.00077281    0.00022031    0.00017655
     atom   51 type  2   force =    -0.00002908    0.00054238   -0.00131134
     atom   52 type  4   force =     0.00110003   -0.00073105    0.00002185

     Total force =     0.383826     Total SCF correction =     0.000650
  @ DRIVER MODE: Message from server: STATUS
  @ DRIVER MODE: Message from server: GETFORCE
  @ DRIVER MODE: Returning v,forces,stress,ensemble

     Writing output data file ./calc.save/
  @ DRIVER MODE: Message from server: EXIT
  @ DRIVE MODE: Exiting

     General routines

     Parallel routines

   This run was terminated on:  19:27: 1  22Sep2021

   JOB DONE.