     Program PWSCF v.6.7GPU starts on 22Sep2021 at  8:28:51

     R & G space division:  proc/nbgrp/npool/nimage =      10
     Reading input from /storage/home/hcoda1/3/ntian30/research/carbon/CxH_vib/CH_calc/ads_slab/CHNHNH2H2O_b/out_0029/pw.inp
Warning: card &CELL ignored
Warning: card   CELL_DYNAMICS='IPI', ignored
Warning: card / ignored

     Current dimensions of program PWSCF are:
     Max number of different atomic species (ntypx) = 10
     Max number of k-points (npk) =  40000
     Max angular momentum in pseudopotentials (lmaxx) =  3
     Presently no symmetry can be used with electric field

     Message from routine cell_base_init:
     DEPRECATED: use true lattice parameter, not A to a.u. conversion factor

     IMPORTANT: XC functional enforced from input :
     Exchange-correlation= BEEF-VDW
                           (   1   4  43  14   2   0   0)
     Any further DFT definition will be discarded
     Please, verify this is what you really want

  @ DRIVER MODE: Connecting to
 qe_1139763_2927425.sched-torque.pace.gatech.eduodsbx0___scratch
  using UNIX socket
  @ DRIVER MODE: Message from server: STATUS
  @ DRIVER MODE: Message from server: INIT
  @ DRIVER MODE: Receiving replica           0          -1
  @ DRIVER MODE: Receiving encoded integer          25
  @ DRIVER MODE:  SCF:  T  FORCE:  T  STRESS:  F  VC:  F  ENSEMBLE:  F
  @ DRIVER MODE:  SCF:  T  FORCE:  T  STRESS:  F  VC:  F  ENSEMBLE:  F

     Using Slab Decomposition

     bravais-lattice index     =            0
     lattice parameter (alat)  =       1.8897  a.u.
     unit-cell volume          =    6658.9804 (a.u.)^3
     number of atoms/cell      =           57
     number of atomic types    =            5
     number of electrons       =       404.00
     number of Kohn-Sham states=          212
     kinetic-energy cutoff     =      29.3995  Ry
     charge density cutoff     =     293.9946  Ry
     scf convergence threshold =      7.3E-08
     mixing beta               =       0.0500
     number of iterations used =            8  plain     mixing
     Exchange-correlation= BEEF-VDW
                           (   1   4  43  14   2   0   0)

     celldm(1)=   1.889726  celldm(2)=   0.000000  celldm(3)=   0.000000
     celldm(4)=   0.000000  celldm(5)=   0.000000  celldm(6)=   0.000000

     crystal axes: (cart. coord. in units of alat)
               a(1) = (   6.579727   0.000000   0.000000 )
               a(2) = (  -0.000775   5.961596   0.000000 )
               a(3) = (   0.000000   0.000000  25.155947 )

     reciprocal axes: (cart. coord. in units 2 pi/alat)
               b(1) = (  0.151982  0.000020  0.000000 )
               b(2) = (  0.000000  0.167740  0.000000 )
               b(3) = (  0.000000  0.000000  0.039752 )

     PseudoPot. # 1 for Ti read from file:
     /storage/coda1/p-amedford6/0/shared/rich_project_chbe-medford/medford-share/data/pseudos_module/espresso/nninc/pbe/van/Ti.UPF
     MD5 check sum: 8e4df49b7f0d34bbd5052bf3f5ea0213
     Pseudo is Ultrasoft, Zval = 12.0
     Generated by new atomic code, or converted to UPF format
     Using radial grid of  851 points,  6 beta functions with:
                l(1) =   0
                l(2) =   0
                l(3) =   1
                l(4) =   1
                l(5) =   2
                l(6) =   2
     Q(r) pseudized with  8 coefficients,  rinner =    1.000   1.000   1.000
                                                       1.000   1.000

     PseudoPot. # 2 for O  read from file:
     /storage/coda1/p-amedford6/0/shared/rich_project_chbe-medford/medford-share/data/pseudos_module/espresso/nninc/pbe/van/O.UPF
     MD5 check sum: 78c19812648e8988a0fe644b0f25305e
     Pseudo is Ultrasoft, Zval =  6.0
     Generated by new atomic code, or converted to UPF format
     Using radial grid of  737 points,  4 beta functions with:
                l(1) =   0
                l(2) =   0
                l(3) =   1
                l(4) =   1
     Q(r) pseudized with  8 coefficients,  rinner =    0.800   0.800   0.800

     PseudoPot. # 3 for N  read from file:
     /storage/coda1/p-amedford6/0/shared/rich_project_chbe-medford/medford-share/data/pseudos_module/espresso/nninc/pbe/van/N.UPF
     MD5 check sum: 90d10febe142ad51ac9d5be1deb811c4
     Pseudo is Ultrasoft, Zval =  5.0
     Generated by new atomic code, or converted to UPF format
     Using radial grid of  729 points,  4 beta functions with:
                l(1) =   0
                l(2) =   0
                l(3) =   1
                l(4) =   1
     Q(r) pseudized with  8 coefficients,  rinner =    0.800   0.800   0.800

     PseudoPot. # 4 for C  read from file:
     /storage/coda1/p-amedford6/0/shared/rich_project_chbe-medford/medford-share/data/pseudos_module/espresso/nninc/pbe/van/C.UPF
     MD5 check sum: 1a69bf6b8db32088f5b2163dbdb77a27
     Pseudo is Ultrasoft, Zval =  4.0
     Generated by new atomic code, or converted to UPF format
     Using radial grid of  721 points,  4 beta functions with:
                l(1) =   0
                l(2) =   0
                l(3) =   1
                l(4) =   1
     Q(r) pseudized with  8 coefficients,  rinner =    0.800   0.800   0.800

     PseudoPot. # 5 for H  read from file:
     /storage/coda1/p-amedford6/0/shared/rich_project_chbe-medford/medford-share/data/pseudos_module/espresso/nninc/pbe/van/H.UPF
     MD5 check sum: b5ee9d7bfd3a09ee7748110bda690ff7
     Pseudo is Ultrasoft, Zval =  1.0
     Generated by new atomic code, or converted to UPF format
     Using radial grid of  615 points,  1 beta functions with:
                l(1) =   0
     Q(r) pseudized with  8 coefficients,  rinner =    0.800

     atomic species   valence    mass     pseudopotential
        Ti1           12.00    47.86700     Ti( 1.00)
        O1             6.00    15.99900     O ( 1.00)
        N1             5.00    14.00700     N ( 1.00)
        C1             4.00    12.01100     C ( 1.00)
        H1             1.00     1.00800     H ( 1.00)

     No symmetry found

   Cartesian axes

     site n.     atom                  positions (alat units)
         1           Ti1 tau(   1) = (   0.0004258   2.9801865   6.0000000  )
         2           Ti1 tau(   2) = (   3.2906075   1.4906267   6.0002472  )
         3           O1  tau(   3) = (   0.0006271   0.0005054   7.9858123  )
         4           O1  tau(   4) = (   3.2906025   0.0005020   7.3038282  )
         5           O1  tau(   5) = (   4.5942328   1.4918067   9.2879030  )
         6           O1  tau(   6) = (   1.9868534   1.4903216   9.2879459  )
         7           Ti1 tau(   7) = (   3.2907910   2.8959150   9.1758416  )
         8           Ti1 tau(   8) = (   0.0015273   1.4827037   9.2680791  )
         9           O1  tau(   9) = (   3.3066417   5.9496923  11.3845403  )
        10           O1  tau(  10) = (   0.0116148   5.9584955  10.6183126  )
        11           O1  tau(  11) = (   1.3010148   1.4986442  12.6442229  )
        12           O1  tau(  12) = (   5.3085967   1.5001388  12.6592367  )
        13           Ti1 tau(  13) = (   0.0282779   2.9853959  12.5065338  )
        14           Ti1 tau(  14) = (   3.3279724   1.4707331  12.5413945  )
        15           O1  tau(  15) = (   0.0378505   0.0859181  14.6860672  )
        16           O1  tau(  16) = (   3.3018867   0.0259462  14.0338077  )
        17           O1  tau(  17) = (   4.5998927   1.5484098  16.1661054  )
        18           O1  tau(  18) = (   2.0454451   1.5021798  16.2221046  )
        19           Ti1 tau(  19) = (   3.3206312   2.9825829  15.7321521  )
        20           Ti1 tau(  20) = (   0.0140791   1.4435866  15.9983415  )
        21           O1  tau(  21) = (   3.2904802   0.0005063   4.7018136  )
        22           O1  tau(  22) = (   6.5273045   5.8164216  17.2577718  )
        23           O1  tau(  23) = (   1.3043587   1.4918075   6.0039043  )
        24           O1  tau(  24) = (   5.2767064   1.4903225   6.0039473  )
        25           Ti1 tau(  25) = (   0.0000382   5.9609847   6.0000000  )
        26           Ti1 tau(  26) = (   3.2902200   4.4714249   6.0002472  )
        27           O1  tau(  27) = (   0.0002396   2.9813036   7.9858123  )
        28           O1  tau(  28) = (   3.2902150   2.9813002   7.3038282  )
        29           O1  tau(  29) = (   4.5938453   4.4726049   9.2879030  )
        30           O1  tau(  30) = (   1.9864658   4.4711199   9.2879459  )
        31           Ti1 tau(  31) = (   3.2891106   5.8743827   9.1763621  )
        32           Ti1 tau(  32) = (   0.0006254   4.4649316   9.2693709  )
        33           O1  tau(  33) = (   3.3068470   2.9864458  11.3814114  )
        34           O1  tau(  34) = (   0.0092240   2.9805883  10.6323155  )
        35           O1  tau(  35) = (   1.2982948   4.4740332  12.6840172  )
        36           O1  tau(  36) = (   5.3097620   4.4704985  12.6972095  )
        37           Ti1 tau(  37) = (   0.0348817   0.0130325  12.4954113  )
        38           Ti1 tau(  38) = (   3.3270268   4.4633798  12.5435021  )
        39           O1  tau(  39) = (   0.0563025   2.9439880  14.9425960  )
        40           O1  tau(  40) = (   3.2900316   2.9661073  13.9503945  )
        41           O1  tau(  41) = (   4.5967999   4.4093095  16.0633277  )
        42           O1  tau(  42) = (   2.0412097   4.4536800  16.1303113  )
        43           Ti1 tau(  43) = (   3.2964201   5.9600488  15.8742613  )
        44           Ti1 tau(  44) = (   0.0241369   4.6516137  15.8518307  )
        45           O1  tau(  45) = (   3.2900926   2.9813045   4.7018136  )
        46           O1  tau(  46) = (   1.3039711   4.4726057   6.0039043  )
        47           O1  tau(  47) = (   5.2763189   4.4711207   6.0039473  )
        48           N1  tau(  48) = (   1.4509408   2.7109095  18.7602185  )
        49           N1  tau(  49) = (   0.0917387   2.5303350  18.2207845  )
        50           C1  tau(  50) = (   1.9503960   3.7723240  19.2784661  )
        51           H1  tau(  51) = (   1.1612915   4.5273475  19.4152495  )
        52           H1  tau(  52) = (   2.0208952   1.9183395  18.4564618  )
        53           H1  tau(  53) = (   6.1377449   3.3539424  18.4987646  )
        54           H1  tau(  54) = (   6.2616785   1.7135167  18.6767212  )
        55           O1  tau(  55) = (   3.7012217   5.9496235  18.2853534  )
        56           H1  tau(  56) = (   4.6684668   5.8470116  18.1670174  )
        57           H1  tau(  57) = (   3.3852657   5.1278045  18.7338684  )

     number of k points=    10  Fermi-Dirac smearing, width (Ry)=  0.0073
                       cart. coord. in units 2pi/alat
        k(    1) = (   0.0000000   0.0000000   0.0000000), wk =   0.1250000
        k(    2) = (   0.0000000   0.0419351   0.0000000), wk =   0.2500000
        k(    3) = (   0.0000000  -0.0838702   0.0000000), wk =   0.1250000
        k(    4) = (   0.0379955   0.0000049   0.0000000), wk =   0.2500000
        k(    5) = (   0.0379955   0.0419400   0.0000000), wk =   0.2500000
        k(    6) = (   0.0379955  -0.0838652   0.0000000), wk =   0.2500000
        k(    7) = (   0.0379955  -0.0419301   0.0000000), wk =   0.2500000
        k(    8) = (  -0.0759910  -0.0000099   0.0000000), wk =   0.1250000
        k(    9) = (  -0.0759910   0.0419252   0.0000000), wk =   0.2500000
        k(   10) = (  -0.0759910  -0.0838800   0.0000000), wk =   0.1250000

     Initial potential from superposition of free atoms

     starting charge  387.99913, renormalised to  404.00000

     negative rho (up, down):  1.598E-02 0.000E+00

     %%%%%%%%%%%%%%%%%%%%%%%%%%%%%%%%%%%%%%%%%%%%%%%%%%%%%%%%%%%%%%%%%%%%%%%%
     %                                                                      %
     % You are using vdW-DF, which was implemented by the Thonhauser group. %
     % Please cite the following two papers that made this development      %
     % possible and the two reviews that describe the various versions:     %
     %                                                                      %
     %   T. Thonhauser et al., PRL 115, 136402 (2015).                      %
     %   T. Thonhauser et al., PRB 76, 125112 (2007).                       %
     %   K. Berland et al., Rep. Prog. Phys. 78, 066501 (2015).             %
     %   D.C. Langreth et al., J. Phys.: Condens. Matter 21, 084203 (2009). %
     %                                                                      %
     %                                                                      %
     % If you are calculating the stress with vdW-DF, please also cite:     %
     %                                                                      %
     %   R. Sabatini et al., J. Phys.: Condens. Matter 24, 424209 (2012).   %
     %                                                                      %
     %%%%%%%%%%%%%%%%%%%%%%%%%%%%%%%%%%%%%%%%%%%%%%%%%%%%%%%%%%%%%%%%%%%%%%%%

     Adding external electric field

     Computed dipole along edir(3) :
        Dipole              -14.3577 Ry au,        -36.4937 Debye
        Dipole field         -0.0271 Ry au,

        Potential amp.        2.5117 Ry
        Total length         46.3494 bohr

     Starting wfcs are  306 atomic wfcs
  @ DRIVER MODE: Message from server: STATUS
  @ DRIVER MODE: Message from server: POSDATA
  @ DRIVER MODE: Reading and sharing cell
  @ DRIVER MODE: Reading and sharing positions
  @ DRIVER MODE: Received positions

     Self-consistent Calculation

     iteration #  1     ecut=    29.40 Ry     beta= 0.05
     Davidson diagonalization with overlap
     c_bands:  3 eigenvalues not converged
     c_bands:  4 eigenvalues not converged
     c_bands:  4 eigenvalues not converged
     c_bands:  4 eigenvalues not converged
     c_bands:  5 eigenvalues not converged
     c_bands:  3 eigenvalues not converged
     c_bands:  2 eigenvalues not converged
     c_bands:  4 eigenvalues not converged
     ethr =  1.00E-05,  avg # of iterations = 21.9

[...]

     total energy              =   -2220.95034510 Ry
     estimated scf accuracy    <    8587.28499136 Ry

     iteration #  2     ecut=    29.40 Ry     beta= 0.05
     Davidson diagonalization with overlap
     ethr =  1.00E-02,  avg # of iterations = 28.8

[...]

     iteration # 68     ecut=    29.40 Ry     beta= 0.05
     Davidson diagonalization with overlap
     c_bands:  1 eigenvalues not converged
     ethr =  3.67E-11,  avg # of iterations = 15.4

[...]

     total energy              =   -2975.10527386 Ry
     estimated scf accuracy    <       0.00000008 Ry

     iteration # 69     ecut=    29.40 Ry     beta= 0.05
     Davidson diagonalization with overlap
     ethr =  2.10E-11,  avg # of iterations =  2.0

     negative rho (up, down):  1.579E-02 0.000E+00

     Adding external electric field

     Computed dipole along edir(3) :
        Dipole                1.0197 Ry au,          2.5919 Debye
        Dipole field          0.0019 Ry au,

        Potential amp.       -0.1784 Ry
        Total length         46.3494 bohr

     End of self-consistent calculation

          k = 0.0000 0.0000 0.0000 ( 18029 PWs)   bands (ev):

   -55.3872 -55.3514 -55.3473 -55.3132 -55.3101 -55.3045 -55.2692 -55.2339
   -55.2189 -55.1840 -55.1772 -55.1619 -55.1435 -55.1140 -54.3785 -54.3445
   -31.9462 -31.8821 -31.8400 -31.7588 -31.7101 -31.7074 -31.6831 -31.6802
   -31.6360 -31.6003 -31.5932 -31.5918 -31.5849 -31.5815 -31.5634 -31.5612
   -31.5366 -31.5285 -31.5256 -31.5143 -31.5000 -31.4934 -31.4748 -31.4696
   -31.4614 -31.4485 -31.4477 -31.4190 -31.4046 -31.4008 -31.3977 -31.3756
   -31.3717 -31.3676 -31.3641 -31.3428 -31.3319 -31.3198 -31.3049 -31.3048
   -31.2944 -31.2883 -30.7879 -30.6935 -30.6714 -30.6043 -30.5175 -30.4066
   -18.8725 -18.4534 -16.2219 -15.9746 -15.8385 -15.7342 -15.5967 -15.4985
   -15.3893 -15.2760 -15.2530 -15.1590 -15.0850 -15.0817 -15.0440 -15.0181
   -14.9554 -14.9341 -14.9103 -14.9044 -14.8898 -14.8796 -14.8431 -14.8321
   -14.7986 -14.7882 -14.7710 -14.6427 -14.6276 -14.5536 -14.4831 -14.3446
   -12.8809 -12.7634  -9.8238  -6.9877  -6.3755  -6.0774  -4.4304  -3.7194
    -3.5449  -3.4121  -3.3333  -3.3034  -3.2874  -3.1558  -3.0611  -2.9033
    -2.8647  -2.8080  -2.6755  -2.5996  -2.5931  -2.5053  -2.4328  -2.4094
    -2.3764  -2.2675  -2.2610  -2.2113  -2.1939  -2.1708  -2.1615  -2.1149
    -2.0688  -2.0417  -1.9566  -1.8551  -1.8112  -1.7916  -1.7552  -1.7325
    -1.7276  -1.6842  -1.6780  -1.6545  -1.6155  -1.5911  -1.5456  -1.4335
    -1.3912  -1.2335  -1.1961  -1.0416  -1.0211  -0.9819  -0.9617  -0.9237
    -0.8952  -0.8789  -0.8625  -0.7740  -0.7157  -0.6494  -0.5854  -0.4939
    -0.4839  -0.4106  -0.3844  -0.3194  -0.2310  -0.1870  -0.1774  -0.1528
    -0.1492  -0.0356   0.0092   0.0695   0.0876   0.1454   0.1613   0.1836
     0.2535   0.3067   0.3766   0.4074   0.4864   0.5046   0.5397   0.5488
     0.5812   0.5917   0.6680   0.6828   0.7109   0.8136   0.9110   1.0049
     1.2147   1.2166   1.2554   1.5491   1.5513   1.6445   1.8279   2.2208
     2.2692   3.7027   3.7811   3.8306   3.8482   3.8527   3.9376   4.1922
     4.2065   4.2191   4.2254   4.2663

[...]

          k = 0.0380-0.0419 0.0000 ( 17876 PWs)   bands (ev):

[...]

          k =-0.0760-0.0000 0.0000 ( 17886 PWs)   bands (ev):

[...]

          k =-0.0760-0.0839 0.0000 ( 17948 PWs)   bands (ev):

   -55.3703 -55.3680 -55.3302 -55.3301 -55.3072 -55.3036 -55.2555 -55.2476
   -55.2045 -55.1979 -55.1638 -55.1613 -55.1595 -55.1157 -54.3615 -54.3614
   -31.7968 -31.7586 -31.7445 -31.6552 -31.6551 -31.6406 -31.6286 -31.6213
   -31.6211 -31.6004 -31.5955 -31.5922 -31.5693 -31.5616 -31.5497 -31.5358
   -31.5326 -31.5301 -31.5261 -31.5180 -31.5134 -31.5112 -31.5104 -31.5023
   -31.4707 -31.4692 -31.4500 -31.4500 -31.4495 -31.4447 -31.4418 -31.4374
   -31.4281 -31.4166 -31.4109 -31.3941 -31.3923 -31.3821 -31.3413 -31.3401
   -31.3395 -31.3204 -30.6841 -30.6840 -30.6005 -30.6003 -30.5610 -30.5609
   -18.8666 -18.4559 -15.8414 -15.6549 -15.5034 -15.4315 -15.4113 -15.3281
   -15.2728 -15.2696 -15.1968 -15.1786 -15.1660 -15.1449 -15.1344 -15.0873
   -15.0502 -15.0135 -14.9948 -14.9721 -14.9290 -14.9063 -14.9046 -14.8979
   -14.8901 -14.8498 -14.8446 -14.8413 -14.7495 -14.7476 -14.7030 -14.5568
   -12.8649 -12.8648  -9.8331  -6.9764  -6.3507  -6.0534  -4.4443  -3.6436
    -3.0218  -2.9129  -2.9021  -2.6730  -2.6550  -2.5940  -2.5814  -2.4935
    -2.4778  -2.4172  -2.3936  -2.3436  -2.3205  -2.2825  -2.2688  -2.2471
    -2.2261  -2.2124  -2.1859  -2.1697  -2.1528  -2.1335  -2.1221  -2.1107
    -2.0553  -2.0497  -2.0409  -2.0156  -1.9926  -1.9566  -1.9465  -1.9303
    -1.7748  -1.7589  -1.7376  -1.6021  -1.5978  -1.5635  -1.5236  -1.4960
    -1.4380  -1.4296  -1.4013  -1.3423  -1.1486  -1.1383  -1.1261  -1.1080
    -1.0371  -0.9813  -0.9676  -0.9498  -0.8963  -0.8178  -0.7836  -0.7316
    -0.6423  -0.5909  -0.5815  -0.5555  -0.4342  -0.4111  -0.3688  -0.3508
    -0.3345  -0.3001  -0.2985  -0.2408  -0.1882  -0.1530  -0.1300  -0.1158
    -0.0790   0.0757   0.1281   0.1444   0.2589   0.2879   0.4656   0.5087
     0.5307   0.6355   0.7189   0.7466   0.7614   0.8875   0.9092   0.9114
     0.9797   1.0019   1.0621   1.0678   1.2123   2.0006   2.0019   2.0890
     2.0893   3.8278   3.9507   3.9948   4.0306   4.1069   4.1594   4.2164
     4.2754   4.2872   4.2906   4.3571

     the Fermi energy is     3.7647 ev

!    total energy              =   -2975.10529530 Ry
     estimated scf accuracy    <       0.00000007 Ry
     smearing contrib. (-TS)   =      -0.03671897 Ry
     internal energy E=F+TS    =   -2975.06857633 Ry

     The total energy is F=E-TS. E is the sum of the following terms:
     one-electron contribution =  -23505.87583399 Ry
     hartree contribution      =   11848.94127117 Ry
     xc contribution           =    -494.91609327 Ry
     ewald contribution        =    9176.78011748 Ry
     electric field correction =       0.00196227 Ry

     convergence has been achieved in  69 iterations

     Forces acting on atoms (cartesian axes, Ry/au):

     atom    1 type  1   force =     0.00003035   -0.00025095    0.09310811
     atom    2 type  1   force =    -0.00018442   -0.00032211   -0.17837725
     atom    3 type  2   force =     0.00006129   -0.00017317   -0.02024580
     atom    4 type  2   force =     0.00001709   -0.00203993    0.05923906
     atom    5 type  2   force =    -0.01033764   -0.00109776    0.00807688
     atom    6 type  2   force =     0.01218087   -0.00054229    0.00815565
     atom    7 type  1   force =     0.00015025    0.00328784   -0.01112599
     atom    8 type  1   force =    -0.00030338    0.00054441   -0.00562496
     atom    9 type  2   force =     0.00004178    0.00017742   -0.00014762
     atom   10 type  2   force =    -0.00146415   -0.00004019   -0.00174014
     atom   11 type  2   force =     0.00038677   -0.00003598   -0.00006599
     atom   12 type  2   force =    -0.00010517    0.00010589   -0.00009692
     atom   13 type  1   force =    -0.00009747   -0.00017229   -0.00023215
     atom   14 type  1   force =    -0.00020924   -0.00036326    0.00034461
     atom   15 type  2   force =     0.00008164   -0.00047699    0.00005881
     atom   16 type  2   force =     0.00021246    0.00010142    0.00025218
     atom   17 type  2   force =     0.00032496   -0.00016673    0.00015811
     atom   18 type  2   force =    -0.00007536   -0.00010429    0.00005400
     atom   19 type  1   force =    -0.00016228   -0.00031704   -0.00005643
     atom   20 type  1   force =    -0.00003524    0.00030300    0.00061641
     atom   21 type  2   force =    -0.00000338   -0.00007642    0.10405593
     atom   22 type  2   force =    -0.00006964   -0.00005559   -0.00020212
     atom   23 type  2   force =    -0.07035595   -0.00016084   -0.02683625
     atom   24 type  2   force =     0.07022493    0.00028520   -0.02691353
     atom   25 type  1   force =     0.00002415   -0.00015520    0.09276890
     atom   26 type  1   force =    -0.00015593   -0.00039656   -0.17832159
     atom   27 type  2   force =     0.00011170   -0.00030603   -0.01919062
     atom   28 type  2   force =     0.00004703   -0.00163382    0.05838800
     atom   29 type  2   force =    -0.01028642   -0.00063919    0.00728145
     atom   30 type  2   force =     0.01202272   -0.00030641    0.00741579
     atom   31 type  1   force =     0.00007497    0.00515373   -0.01466509
     atom   32 type  1   force =    -0.00013814   -0.00053242   -0.00596733
     atom   33 type  2   force =     0.00012848   -0.00039420   -0.00023446
     atom   34 type  2   force =    -0.00078790    0.00261022   -0.00105308
     atom   35 type  2   force =    -0.00006454   -0.00011524   -0.00013142
     atom   36 type  2   force =     0.00022827    0.00000237   -0.00015654
     atom   37 type  1   force =    -0.00044381    0.00007772    0.00003550
     atom   38 type  1   force =    -0.00002829   -0.00024474   -0.00023794
     atom   39 type  2   force =    -0.00028822   -0.00023822   -0.00019646
     atom   40 type  2   force =    -0.00013969   -0.00006597   -0.00003540
     atom   41 type  2   force =    -0.00017170   -0.00015664    0.00033355
     atom   42 type  2   force =    -0.00006069   -0.00026414    0.00011734
     atom   43 type  1   force =     0.00012502   -0.00045499    0.00014979
     atom   44 type  1   force =    -0.00000950   -0.00000401    0.00028470
     atom   45 type  2   force =     0.00001070   -0.00010991    0.10402963
     atom   46 type  2   force =    -0.07038057   -0.00011835   -0.02686010
     atom   47 type  2   force =     0.07022606    0.00031619   -0.02691884
     atom   48 type  3   force =     0.00226556   -0.00257896   -0.00197186
     atom   49 type  3   force =    -0.00126968   -0.00032959    0.00026498
     atom   50 type  4   force =     0.00060841    0.00088840    0.00017507
     atom   51 type  5   force =    -0.00011992   -0.00082357   -0.00000140
     atom   52 type  5   force =    -0.00178061    0.00246426    0.00202473
     atom   53 type  5   force =    -0.00021207    0.00002003    0.00000171
     atom   54 type  5   force =     0.00025250    0.00055897   -0.00001385
     atom   55 type  2   force =     0.00017094   -0.00010197    0.00047390
     atom   56 type  5   force =     0.00021378   -0.00036530   -0.00039837
     atom   57 type  5   force =    -0.00048165   -0.00016580    0.00015469

     Total force =     0.366259     Total SCF correction =     0.000919
  @ DRIVER MODE: Message from server: STATUS
  @ DRIVER MODE: Message from server: GETFORCE
  @ DRIVER MODE: Returning v,forces,stress,ensemble

     Writing output data file ./calc.save/
  @ DRIVER MODE: Message from server: EXIT
  @ DRIVE MODE: Exiting

     General routines

     Parallel routines

   This run was terminated on:   8:48:48  22Sep2021

   JOB DONE.