     Program PWSCF v.6.7GPU starts on 13Oct2021 at  1:47:12

     R & G space division:  proc/nbgrp/npool/nimage =       8
     Reading input from /storage/home/hcoda1/3/ntian30/research/carbon/ACS_vib/ads_slab/N2H6/out_0040/pw.inp
Warning: card &CELL ignored
Warning: card   CELL_DYNAMICS='IPI', ignored
Warning: card / ignored

     Current dimensions of program PWSCF are:
     Max number of different atomic species (ntypx) = 10
     Max number of k-points (npk) =  40000
     Max angular momentum in pseudopotentials (lmaxx) =  3
     Presently no symmetry can be used with electric field

     Message from routine cell_base_init:
     DEPRECATED: use true lattice parameter, not A to a.u. conversion factor

     IMPORTANT: XC functional enforced from input :
     Exchange-correlation= BEEF-VDW
                           (   1   4  43  14   2   0   0)
     Any further DFT definition will be discarded
     Please, verify this is what you really want

  @ DRIVER MODE: Connecting to
 qe_1139763_3181315.sched-torque.pace.gatech.eduvfixxdzg_scratch
  using UNIX socket
  @ DRIVER MODE: Message from server: STATUS
  @ DRIVER MODE: Message from server: INIT
  @ DRIVER MODE: Receiving replica           0          -1
  @ DRIVER MODE: Receiving encoded integer          25
  @ DRIVER MODE:  SCF:  T  FORCE:  T  STRESS:  F  VC:  F  ENSEMBLE:  F
  @ DRIVER MODE:  SCF:  T  FORCE:  T  STRESS:  F  VC:  F  ENSEMBLE:  F

     Using Slab Decomposition

     bravais-lattice index     =            0
     lattice parameter (alat)  =       1.8897  a.u.
     unit-cell volume          =    6658.9804 (a.u.)^3
     number of atoms/cell      =           55
     number of atomic types    =            4
     number of electrons       =       394.00
     number of Kohn-Sham states=          207
     kinetic-energy cutoff     =      29.3995  Ry
     charge density cutoff     =     293.9946  Ry
     scf convergence threshold =      7.3E-08
     mixing beta               =       0.0500
     number of iterations used =            8  plain     mixing
     Exchange-correlation= BEEF-VDW
                           (   1   4  43  14   2   0   0)

     celldm(1)=   1.889726  celldm(2)=   0.000000  celldm(3)=   0.000000
     celldm(4)=   0.000000  celldm(5)=   0.000000  celldm(6)=   0.000000

     crystal axes: (cart. coord. in units of alat)
               a(1) = (   6.579727   0.000000   0.000000 )
               a(2) = (  -0.000775   5.961596   0.000000 )
               a(3) = (   0.000000   0.000000  25.155947 )

     reciprocal axes: (cart. coord. in units 2 pi/alat)
               b(1) = (  0.151982  0.000020  0.000000 )
               b(2) = (  0.000000  0.167740  0.000000 )
               b(3) = (  0.000000  0.000000  0.039752 )

     PseudoPot. # 1 for Ti read from file:
     /storage/coda1/p-amedford6/0/shared/rich_project_chbe-medford/medford-share/data/pseudos_module/espresso/nninc/pbe/van/Ti.UPF
     MD5 check sum: 8e4df49b7f0d34bbd5052bf3f5ea0213
     Pseudo is Ultrasoft, Zval = 12.0
     Generated by new atomic code, or converted to UPF format
     Using radial grid of  851 points,  6 beta functions with:
                l(1) =   0
                l(2) =   0
                l(3) =   1
                l(4) =   1
                l(5) =   2
                l(6) =   2
     Q(r) pseudized with  8 coefficients,  rinner =    1.000   1.000   1.000
                                                       1.000   1.000

     PseudoPot. # 2 for O  read from file:
     /storage/coda1/p-amedford6/0/shared/rich_project_chbe-medford/medford-share/data/pseudos_module/espresso/nninc/pbe/van/O.UPF
     MD5 check sum: 78c19812648e8988a0fe644b0f25305e
     Pseudo is Ultrasoft, Zval =  6.0
     Generated by new atomic code, or converted to UPF format
     Using radial grid of  737 points,  4 beta functions with:
                l(1) =   0
                l(2) =   0
                l(3) =   1
                l(4) =   1
     Q(r) pseudized with  8 coefficients,  rinner =    0.800   0.800   0.800

     PseudoPot. # 3 for N  read from file:
     /storage/coda1/p-amedford6/0/shared/rich_project_chbe-medford/medford-share/data/pseudos_module/espresso/nninc/pbe/van/N.UPF
     MD5 check sum: 90d10febe142ad51ac9d5be1deb811c4
     Pseudo is Ultrasoft, Zval =  5.0
     Generated by new atomic code, or converted to UPF format
     Using radial grid of  729 points,  4 beta functions with:
                l(1) =   0
                l(2) =   0
                l(3) =   1
                l(4) =   1
     Q(r) pseudized with  8 coefficients,  rinner =    0.800   0.800   0.800

     PseudoPot. # 4 for H  read from file:
     /storage/coda1/p-amedford6/0/shared/rich_project_chbe-medford/medford-share/data/pseudos_module/espresso/nninc/pbe/van/H.UPF
     MD5 check sum: b5ee9d7bfd3a09ee7748110bda690ff7
     Pseudo is Ultrasoft, Zval =  1.0
     Generated by new atomic code, or converted to UPF format
     Using radial grid of  615 points,  1 beta functions with:
                l(1) =   0
     Q(r) pseudized with  8 coefficients,  rinner =    0.800

     atomic species   valence    mass     pseudopotential
        Ti1           12.00    47.86700     Ti( 1.00)
        O1             6.00    15.99900     O ( 1.00)
        N1             5.00    14.00700     N ( 1.00)
        H1             1.00     1.00800     H ( 1.00)

     No symmetry found

   Cartesian axes

     site n.     atom                  positions (alat units)
         1           Ti1 tau(   1) = (   0.0004258   2.9801865   6.0000000  )
         2           Ti1 tau(   2) = (   3.2906075   1.4906267   6.0002472  )
         3           O1  tau(   3) = (   0.0006271   0.0005054   7.9858123  )
         4           O1  tau(   4) = (   3.2906025   0.0005020   7.3038282  )
         5           O1  tau(   5) = (   4.5942328   1.4918067   9.2879030  )
         6           O1  tau(   6) = (   1.9868534   1.4903216   9.2879459  )
         7           Ti1 tau(   7) = (   3.2905188   2.9817269   9.1608671  )
         8           Ti1 tau(   8) = (   0.0008727   1.4903491   9.2579811  )
         9           O1  tau(   9) = (   3.2897677   5.9391746  11.3820438  )
        10           O1  tau(  10) = (  -0.0000005   5.9544960  10.6146985  )
        11           O1  tau(  11) = (   1.2884133   1.4789655  12.6516217  )
        12           O1  tau(  12) = (   5.2921206   1.4788385  12.6515509  )
        13           Ti1 tau(  13) = (   0.0005720   2.9629092  12.4975245  )
        14           Ti1 tau(  14) = (   3.2903801   1.4745319  12.5205501  )
        15           O1  tau(  15) = (   0.0004407   0.0388239  14.7059933  )
        16           O1  tau(  16) = (   3.2897445   5.9465346  14.0037610  )
        17           O1  tau(  17) = (   4.5472543   1.4569283  16.2215039  )
        18           O1  tau(  18) = (   2.0329396   1.4568822  16.2213506  )
        19           Ti1 tau(  19) = (   3.2899346   2.9358424  15.7577366  )
        20           Ti1 tau(  20) = (   0.0004932   1.4309995  16.0137732  )
        21           O1  tau(  21) = (   3.2904802   0.0005063   4.7018136  )
        22           O1  tau(  22) = (  -0.0003511   5.7889056  17.2622344  )
        23           O1  tau(  23) = (   1.3043587   1.4918075   6.0039043  )
        24           O1  tau(  24) = (   5.2767064   1.4903225   6.0039473  )
        25           Ti1 tau(  25) = (   0.0000382   5.9609847   6.0000000  )
        26           Ti1 tau(  26) = (   3.2902200   4.4714249   6.0002472  )
        27           O1  tau(  27) = (   0.0002396   2.9813036   7.9858123  )
        28           O1  tau(  28) = (   3.2902150   2.9813002   7.3038282  )
        29           O1  tau(  29) = (   4.5938453   4.4726049   9.2879030  )
        30           O1  tau(  30) = (   1.9864658   4.4711199   9.2879459  )
        31           Ti1 tau(  31) = (   3.2908958   0.0009406   9.1591437  )
        32           Ti1 tau(  32) = (   0.0004876   4.4725358   9.2579169  )
        33           O1  tau(  33) = (   3.2901541   2.9707129  11.3740276  )
        34           O1  tau(  34) = (   0.0003862   2.9798045  10.6274311  )
        35           O1  tau(  35) = (   1.2860740   4.4511954  12.6821393  )
        36           O1  tau(  36) = (   5.2936768   4.4510845  12.6820400  )
        37           Ti1 tau(  37) = (   0.0001324   5.9497034  12.4914426  )
        38           Ti1 tau(  38) = (   3.2900283   4.4525324  12.5305491  )
        39           O1  tau(  39) = (   0.0000299   2.9046373  14.9484161  )
        40           O1  tau(  40) = (   3.2901113   2.9423191  13.9685580  )
        41           O1  tau(  41) = (   4.5465916   4.4073028  16.1601725  )
        42           O1  tau(  42) = (   2.0329218   4.4072560  16.1600144  )
        43           Ti1 tau(  43) = (   3.2897320   5.9176933  15.7983882  )
        44           Ti1 tau(  44) = (   0.0000796   4.6311109  15.9036278  )
        45           O1  tau(  45) = (   3.2900926   2.9813045   4.7018136  )
        46           O1  tau(  46) = (   1.3039711   4.4726057   6.0039043  )
        47           O1  tau(  47) = (   5.2763189   4.4711207   6.0039473  )
        48           N1  tau(  48) = (   6.5791966   2.5420708  18.0661808  )
        49           H1  tau(  49) = (   6.5785613   1.6509345  18.5577087  )
        50           H1  tau(  50) = (   0.8131443   3.0604954  18.3807411  )
        51           H1  tau(  51) = (   5.7641953   3.0602838  18.3787844  )
        52           N1  tau(  52) = (  -0.0000615   4.8677125  20.5088556  )
        53           H1  tau(  53) = (   6.5774456   5.1124690  21.4935560  )
        54           H1  tau(  54) = (   0.8078797   5.3221143  20.0844266  )
        55           H1  tau(  55) = (   5.7710899   5.3082688  20.0816402  )

     number of k points=    10  Fermi-Dirac smearing, width (Ry)=  0.0073
                       cart. coord. in units 2pi/alat
        k(    1) = (   0.0000000   0.0000000   0.0000000), wk =   0.1250000
        k(    2) = (   0.0000000   0.0419351   0.0000000), wk =   0.2500000
        k(    3) = (   0.0000000  -0.0838702   0.0000000), wk =   0.1250000
        k(    4) = (   0.0379955   0.0000049   0.0000000), wk =   0.2500000
        k(    5) = (   0.0379955   0.0419400   0.0000000), wk =   0.2500000
        k(    6) = (   0.0379955  -0.0838652   0.0000000), wk =   0.2500000
        k(    7) = (   0.0379955  -0.0419301   0.0000000), wk =   0.2500000
        k(    8) = (  -0.0759910  -0.0000099   0.0000000), wk =   0.1250000
        k(    9) = (  -0.0759910   0.0419252   0.0000000), wk =   0.2500000
        k(   10) = (  -0.0759910  -0.0838800   0.0000000), wk =   0.1250000

     Initial potential from superposition of free atoms

     starting charge  377.99918, renormalised to  394.00000

     negative rho (up, down):  1.302E-02 0.000E+00

     %%%%%%%%%%%%%%%%%%%%%%%%%%%%%%%%%%%%%%%%%%%%%%%%%%%%%%%%%%%%%%%%%%%%%%%%
     %                                                                      %
     % You are using vdW-DF, which was implemented by the Thonhauser group. %
     % Please cite the following two papers that made this development      %
     % possible and the two reviews that describe the various versions:     %
     %                                                                      %
     %   T. Thonhauser et al., PRL 115, 136402 (2015).                      %
     %   T. Thonhauser et al., PRB 76, 125112 (2007).                       %
     %   K. Berland et al., Rep. Prog. Phys. 78, 066501 (2015).             %
     %   D.C. Langreth et al., J. Phys.: Condens. Matter 21, 084203 (2009). %
     %                                                                      %
     %                                                                      %
     % If you are calculating the stress with vdW-DF, please also cite:     %
     %                                                                      %
     %   R. Sabatini et al., J. Phys.: Condens. Matter 24, 424209 (2012).   %
     %                                                                      %
     %%%%%%%%%%%%%%%%%%%%%%%%%%%%%%%%%%%%%%%%%%%%%%%%%%%%%%%%%%%%%%%%%%%%%%%%

     Adding external electric field

     Computed dipole along edir(3) :
        Dipole               -9.7176 Ry au,        -24.6996 Debye
        Dipole field         -0.0183 Ry au,

        Potential amp.        1.6999 Ry
        Total length         46.3494 bohr

     Starting wfcs are  298 atomic wfcs
  @ DRIVER MODE: Message from server: STATUS
  @ DRIVER MODE: Message from server: POSDATA
  @ DRIVER MODE: Reading and sharing cell
  @ DRIVER MODE: Reading and sharing positions
  @ DRIVER MODE: Received positions

     Self-consistent Calculation

     iteration #  1     ecut=    29.40 Ry     beta= 0.05
     Davidson diagonalization with overlap
     c_bands:  1 eigenvalues not converged
     c_bands:  1 eigenvalues not converged
     c_bands:  1 eigenvalues not converged
     c_bands:  1 eigenvalues not converged
     ethr =  1.00E-05,  avg # of iterations = 18.0

[...]

     total energy              =   -2597.01155774 Ry
     estimated scf accuracy    <    3732.42548885 Ry

     iteration #  2     ecut=    29.40 Ry     beta= 0.05
     Davidson diagonalization with overlap
     ethr =  1.00E-02,  avg # of iterations = 22.4

[...]

     iteration # 74     ecut=    29.40 Ry     beta= 0.05
     Davidson diagonalization with overlap
     c_bands:  1 eigenvalues not converged
     c_bands:  1 eigenvalues not converged
     ethr =  3.34E-11,  avg # of iterations = 13.4

[...]

     total energy              =   -2931.48030009 Ry
     estimated scf accuracy    <       0.00000022 Ry

     iteration # 75     ecut=    29.40 Ry     beta= 0.05
     Davidson diagonalization with overlap
     ethr =  3.34E-11,  avg # of iterations = 11.2

     negative rho (up, down):  1.427E-02 0.000E+00

     Adding external electric field

     Computed dipole along edir(3) :
        Dipole                1.3643 Ry au,          3.4678 Debye
        Dipole field          0.0026 Ry au,

        Potential amp.       -0.2387 Ry
        Total length         46.3494 bohr

     End of self-consistent calculation

          k = 0.0000 0.0000 0.0000 ( 18029 PWs)   bands (ev):

   -55.2816 -55.2451 -55.2335 -55.2031 -55.1993 -55.1668 -55.1531 -55.1188
   -55.1117 -55.0826 -55.0775 -55.0602 -55.0261 -54.9507 -54.3242 -54.2901
   -31.8495 -31.7364 -31.7327 -31.6394 -31.5993 -31.5884 -31.5856 -31.5719
   -31.5257 -31.5237 -31.4883 -31.4881 -31.4786 -31.4737 -31.4542 -31.4397
   -31.4344 -31.4218 -31.4173 -31.3910 -31.3851 -31.3760 -31.3656 -31.3533
   -31.3506 -31.3374 -31.3324 -31.3193 -31.2894 -31.2843 -31.2676 -31.2632
   -31.2572 -31.2542 -31.2508 -31.2436 -31.2102 -31.2054 -31.1924 -31.1743
   -31.1537 -31.1529 -30.7361 -30.6344 -30.6129 -30.5522 -30.4657 -30.3549
   -16.1133 -15.8760 -15.7460 -15.5877 -15.4975 -15.4572 -15.3579 -15.3326
   -15.2240 -15.1484 -15.0154 -14.9814 -14.9398 -14.9326 -14.9248 -14.9053
   -14.8993 -14.8284 -14.8006 -14.7979 -14.7902 -14.7680 -14.7665 -14.7472
   -14.7179 -14.6647 -14.6446 -14.5154 -14.4340 -14.3761 -14.1266 -12.8256
   -12.7064  -5.6489  -5.5087  -4.9498  -4.7741  -3.4441  -3.2903  -3.2554
    -3.2048  -3.1935  -3.0401  -2.8794  -2.7301  -2.7109  -2.5613  -2.5322
    -2.4802  -2.4582  -2.3070  -2.2815  -2.2371  -2.2109  -2.1616  -2.1513
    -2.1437  -2.1321  -2.0532  -2.0419  -2.0264  -1.8904  -1.8708  -1.7595
    -1.7192  -1.6633  -1.6497  -1.6447  -1.6109  -1.5928  -1.5523  -1.5415
    -1.5248  -1.4995  -1.4895  -1.3251  -1.2987  -1.2001  -1.1393  -1.0485
    -1.0324  -0.8881  -0.8527  -0.7639  -0.7451  -0.7277  -0.7133  -0.6804
    -0.6321  -0.5243  -0.4347  -0.4133  -0.3526  -0.3280  -0.2896  -0.2018
    -0.0981  -0.0695  -0.0368  -0.0343   0.0822   0.1067   0.1518   0.2183
     0.2306   0.2383   0.2623   0.3527   0.3669   0.4651   0.4887   0.4959
     0.5445   0.6335   0.6377   0.6520   0.6619   0.6883   0.7590   0.7655
     0.8652   0.8882   1.0046   1.2157   1.2871   1.3134   1.5920   1.6524
     1.7011   1.8638   2.2841   2.3366   3.8166   3.8832   3.9163   3.9494
     3.9857   4.0265   4.3140   4.3218   4.3343   4.3388   4.3753

[...]

          k = 0.0380-0.0419 0.0000 ( 17876 PWs)   bands (ev):

[...]

          k =-0.0760-0.0000 0.0000 ( 17886 PWs)   bands (ev):

[...]

          k =-0.0760-0.0839 0.0000 ( 17948 PWs)   bands (ev):

   -55.2661 -55.2604 -55.2164 -55.2163 -55.2016 -55.1633 -55.1369 -55.1350
   -55.0957 -55.0931 -55.0860 -55.0455 -55.0409 -54.9520 -54.3071 -54.3070
   -31.6548 -31.6506 -31.6505 -31.5704 -31.5475 -31.5475 -31.5408 -31.5092
   -31.5089 -31.4828 -31.4826 -31.4790 -31.4752 -31.4566 -31.4363 -31.4169
   -31.4119 -31.4103 -31.4103 -31.4042 -31.4028 -31.4001 -31.3611 -31.3601
   -31.3566 -31.3534 -31.3508 -31.3499 -31.3479 -31.3348 -31.3347 -31.3302
   -31.3276 -31.2932 -31.2913 -31.2754 -31.2727 -31.2674 -31.2306 -31.2296
   -31.2253 -31.1576 -30.6255 -30.6254 -30.5488 -30.5486 -30.5090 -30.5089
   -15.6329 -15.5202 -15.5117 -15.4744 -15.3214 -15.3004 -15.2629 -15.2481
   -15.1297 -15.0937 -15.0745 -15.0585 -15.0261 -15.0221 -15.0149 -14.9783
   -14.8946 -14.8748 -14.8693 -14.8571 -14.8041 -14.7930 -14.7876 -14.7810
   -14.7800 -14.7449 -14.7414 -14.6996 -14.6963 -14.6910 -14.3755 -12.8075
   -12.8075  -5.6281  -5.5117  -4.9162  -4.7825  -2.7932  -2.7368  -2.7368
    -2.5462  -2.4752  -2.4580  -2.4411  -2.3582  -2.3186  -2.2892  -2.2657
    -2.2348  -2.1928  -2.1891  -2.1679  -2.1592  -2.1434  -2.0979  -2.0796
    -2.0540  -2.0004  -1.9757  -1.9675  -1.9553  -1.9465  -1.9419  -1.9185
    -1.9164  -1.8902  -1.8791  -1.8234  -1.6719  -1.6563  -1.5781  -1.5093
    -1.5047  -1.5030  -1.4196  -1.3995  -1.3449  -1.3358  -1.3297  -1.0866
    -1.0645  -1.0644  -1.0591  -1.0269  -0.9126  -0.9033  -0.8308  -0.8013
    -0.7828  -0.6763  -0.6652  -0.6053  -0.6014  -0.4943  -0.4924  -0.4339
    -0.3056  -0.2991  -0.2859  -0.2611  -0.2593  -0.2176  -0.2135  -0.1062
    -0.0701  -0.0192  -0.0079   0.0245   0.1789   0.2296   0.2430   0.2719
     0.4054   0.4251   0.5600   0.5676   0.6225   0.7322   0.7621   0.8011
     0.8292   0.9782   0.9891   1.0105   1.1019   1.1160   1.1538   1.1603
     2.0518   2.0533   2.1547   2.1550   3.9772   4.0589   4.0843   4.1238
     4.2290   4.3270   4.3422   4.3431   4.3771   4.3800   4.4762

     the Fermi energy is     3.8802 ev

!    total energy              =   -2931.48031296 Ry
     estimated scf accuracy    <       0.00000005 Ry
     smearing contrib. (-TS)   =      -0.03684984 Ry
     internal energy E=F+TS    =   -2931.44346313 Ry

     The total energy is F=E-TS. E is the sum of the following terms:
     one-electron contribution =  -23481.06056226 Ry
     hartree contribution      =   11831.22743805 Ry
     xc contribution           =    -484.16469934 Ry
     ewald contribution        =    9202.55084764 Ry
     electric field correction =       0.00351279 Ry

     convergence has been achieved in  75 iterations

     Forces acting on atoms (cartesian axes, Ry/au):

     atom    1 type  1   force =     0.00008464   -0.00009508    0.09072206
     atom    2 type  1   force =    -0.00005300    0.00053572   -0.18275110
     atom    3 type  2   force =     0.00005394   -0.00002961   -0.02345797
     atom    4 type  2   force =     0.00001874   -0.00005959    0.05278494
     atom    5 type  2   force =    -0.01300866   -0.00096626    0.00606398
     atom    6 type  2   force =     0.01295392   -0.00047600    0.00605182
     atom    7 type  1   force =     0.00000094    0.00067394   -0.00329492
     atom    8 type  1   force =     0.00002008   -0.00014949    0.00138980
     atom    9 type  2   force =    -0.00002980   -0.00016791   -0.00050221
     atom   10 type  2   force =     0.00001841   -0.00005715   -0.00020839
     atom   11 type  2   force =     0.00016390    0.00017235    0.00017969
     atom   12 type  2   force =    -0.00008136    0.00016741    0.00015745
     atom   13 type  1   force =    -0.00019575   -0.00019988    0.00003322
     atom   14 type  1   force =     0.00014970    0.00045636   -0.00095636
     atom   15 type  2   force =     0.00002357   -0.00058570    0.00007970
     atom   16 type  2   force =    -0.00002770    0.00000741    0.00044522
     atom   17 type  2   force =     0.00042945    0.00001630    0.00049334
     atom   18 type  2   force =    -0.00046254    0.00000941    0.00049517
     atom   19 type  1   force =     0.00005900    0.00004308    0.00032629
     atom   20 type  1   force =    -0.00003534   -0.00083240    0.00028679
     atom   21 type  2   force =     0.00005736    0.00012486    0.10486521
     atom   22 type  2   force =     0.00000171    0.00018027    0.00107432
     atom   23 type  2   force =    -0.06826308   -0.00022312   -0.02626938
     atom   24 type  2   force =     0.06817551    0.00020934   -0.02631514
     atom   25 type  1   force =     0.00009584    0.00004291    0.09036291
     atom   26 type  1   force =    -0.00005638   -0.00044824   -0.18292855
     atom   27 type  2   force =     0.00004995   -0.00093332   -0.02256414
     atom   28 type  2   force =     0.00001879   -0.00006701    0.05256147
     atom   29 type  2   force =    -0.01330184   -0.00073828    0.00528840
     atom   30 type  2   force =     0.01323947   -0.00024405    0.00527471
     atom   31 type  1   force =     0.00000616   -0.00072449   -0.00309011
     atom   32 type  1   force =     0.00001458   -0.00007104    0.00150785
     atom   33 type  2   force =    -0.00003100   -0.00015092    0.00017213
     atom   34 type  2   force =     0.00001954    0.00007598   -0.00046030
     atom   35 type  2   force =     0.00013470   -0.00013911    0.00024858
     atom   36 type  2   force =    -0.00005769   -0.00015155    0.00022412
     atom   37 type  1   force =    -0.00019460    0.00005288    0.00093208
     atom   38 type  1   force =     0.00014301   -0.00028880   -0.00095332
     atom   39 type  2   force =     0.00001279    0.00026695   -0.00015670
     atom   40 type  2   force =    -0.00003123   -0.00001436    0.00108459
     atom   41 type  2   force =     0.00057364   -0.00017697    0.00025008
     atom   42 type  2   force =    -0.00061511   -0.00017354    0.00025027
     atom   43 type  1   force =     0.00006719    0.00008228    0.00064691
     atom   44 type  1   force =    -0.00003281    0.00102485   -0.00109697
     atom   45 type  2   force =     0.00005596    0.00014135    0.10483343
     atom   46 type  2   force =    -0.06826455   -0.00009213   -0.02630452
     atom   47 type  2   force =     0.06816855    0.00034981   -0.02634626
     atom   48 type  3   force =    -0.00049179   -0.00002700   -0.00026450
     atom   49 type  4   force =     0.00000747   -0.00004176    0.00075476
     atom   50 type  4   force =     0.00093949    0.00103450    0.00008388
     atom   51 type  4   force =    -0.00048219    0.00072247   -0.00015205
     atom   52 type  3   force =     0.00606031    0.00421975   -0.00292698
     atom   53 type  4   force =    -0.00038093    0.00127114   -0.00113089
     atom   54 type  4   force =    -0.00492327   -0.00346714    0.00237898
     atom   55 type  4   force =    -0.00079770   -0.00008941   -0.00017339

     Total force =     0.366343     Total SCF correction =     0.000406
  @ DRIVER MODE: Message from server: STATUS
  @ DRIVER MODE: Message from server: GETFORCE
  @ DRIVER MODE: Returning v,forces,stress,ensemble

     Writing output data file ./calc.save/
  @ DRIVER MODE: Message from server: EXIT
  @ DRIVE MODE: Exiting

     General routines

     Parallel routines

   This run was terminated on:   2:13:59  13Oct2021

   JOB DONE.