     Program PWSCF v.6.7GPU starts on 26Sep2021 at 13:15:28

     R & G space division:  proc/nbgrp/npool/nimage =       8
     Reading input from /storage/home/hcoda1/3/ntian30/research/carbon/CxH_vib/H2O_calc/ads_slab/CH3N2OHHO_l/out_0046/pw.inp
Warning: card &CELL ignored
Warning: card   CELL_DYNAMICS='IPI', ignored
Warning: card / ignored

     Current dimensions of program PWSCF are:
     Max number of different atomic species (ntypx) = 10
     Max number of k-points (npk) =  40000
     Max angular momentum in pseudopotentials (lmaxx) =  3
     Presently no symmetry can be used with electric field

     Message from routine cell_base_init:
     DEPRECATED: use true lattice parameter, not A to a.u. conversion factor

     IMPORTANT: XC functional enforced from input :
     Exchange-correlation= BEEF-VDW
                           (   1   4  43  14   2   0   0)
     Any further DFT definition will be discarded
     Please, verify this is what you really want

  @ DRIVER MODE: Connecting to
 qe_1139763_2971669.sched-torque.pace.gatech.edu81dz813z_scratch
  using UNIX socket
  @ DRIVER MODE: Message from server: STATUS
  @ DRIVER MODE: Message from server: INIT
  @ DRIVER MODE: Receiving replica           0          -1
  @ DRIVER MODE: Receiving encoded integer          25
  @ DRIVER MODE:  SCF:  T  FORCE:  T  STRESS:  F  VC:  F  ENSEMBLE:  F
  @ DRIVER MODE:  SCF:  T  FORCE:  T  STRESS:  F  VC:  F  ENSEMBLE:  F

     Using Slab Decomposition

     bravais-lattice index     =            0
     lattice parameter (alat)  =       1.8897  a.u.
     unit-cell volume          =    6658.9804 (a.u.)^3
     number of atoms/cell      =           57
     number of atomic types    =            5
     number of electrons       =       409.00
     number of Kohn-Sham states=          214
     kinetic-energy cutoff     =      29.3995  Ry
     charge density cutoff     =     293.9946  Ry
     scf convergence threshold =      7.3E-08
     mixing beta               =       0.0500
     number of iterations used =            8  plain     mixing
     Exchange-correlation= BEEF-VDW
                           (   1   4  43  14   2   0   0)

     celldm(1)=   1.889726  celldm(2)=   0.000000  celldm(3)=   0.000000
     celldm(4)=   0.000000  celldm(5)=   0.000000  celldm(6)=   0.000000

     crystal axes: (cart. coord. in units of alat)
               a(1) = (   6.579727   0.000000   0.000000 )
               a(2) = (  -0.000775   5.961596   0.000000 )
               a(3) = (   0.000000   0.000000  25.155947 )

     reciprocal axes: (cart. coord. in units 2 pi/alat)
               b(1) = (  0.151982  0.000020  0.000000 )
               b(2) = (  0.000000  0.167740  0.000000 )
               b(3) = (  0.000000  0.000000  0.039752 )

     PseudoPot. # 1 for Ti read from file:
     /storage/coda1/p-amedford6/0/shared/rich_project_chbe-medford/medford-share/data/pseudos_module/espresso/nninc/pbe/van/Ti.UPF
     MD5 check sum: 8e4df49b7f0d34bbd5052bf3f5ea0213
     Pseudo is Ultrasoft, Zval = 12.0
     Generated by new atomic code, or converted to UPF format
     Using radial grid of  851 points,  6 beta functions with:
                l(1) =   0
                l(2) =   0
                l(3) =   1
                l(4) =   1
                l(5) =   2
                l(6) =   2
     Q(r) pseudized with  8 coefficients,  rinner =    1.000   1.000   1.000
                                                       1.000   1.000

     PseudoPot. # 2 for O  read from file:
     /storage/coda1/p-amedford6/0/shared/rich_project_chbe-medford/medford-share/data/pseudos_module/espresso/nninc/pbe/van/O.UPF
     MD5 check sum: 78c19812648e8988a0fe644b0f25305e
     Pseudo is Ultrasoft, Zval =  6.0
     Generated by new atomic code, or converted to UPF format
     Using radial grid of  737 points,  4 beta functions with:
                l(1) =   0
                l(2) =   0
                l(3) =   1
                l(4) =   1
     Q(r) pseudized with  8 coefficients,  rinner =    0.800   0.800   0.800

     PseudoPot. # 3 for N  read from file:
     /storage/coda1/p-amedford6/0/shared/rich_project_chbe-medford/medford-share/data/pseudos_module/espresso/nninc/pbe/van/N.UPF
     MD5 check sum: 90d10febe142ad51ac9d5be1deb811c4
     Pseudo is Ultrasoft, Zval =  5.0
     Generated by new atomic code, or converted to UPF format
     Using radial grid of  729 points,  4 beta functions with:
                l(1) =   0
                l(2) =   0
                l(3) =   1
                l(4) =   1
     Q(r) pseudized with  8 coefficients,  rinner =    0.800   0.800   0.800

     PseudoPot. # 4 for C  read from file:
     /storage/coda1/p-amedford6/0/shared/rich_project_chbe-medford/medford-share/data/pseudos_module/espresso/nninc/pbe/van/C.UPF
     MD5 check sum: 1a69bf6b8db32088f5b2163dbdb77a27
     Pseudo is Ultrasoft, Zval =  4.0
     Generated by new atomic code, or converted to UPF format
     Using radial grid of  721 points,  4 beta functions with:
                l(1) =   0
                l(2) =   0
                l(3) =   1
                l(4) =   1
     Q(r) pseudized with  8 coefficients,  rinner =    0.800   0.800   0.800

     PseudoPot. # 5 for H  read from file:
     /storage/coda1/p-amedford6/0/shared/rich_project_chbe-medford/medford-share/data/pseudos_module/espresso/nninc/pbe/van/H.UPF
     MD5 check sum: b5ee9d7bfd3a09ee7748110bda690ff7
     Pseudo is Ultrasoft, Zval =  1.0
     Generated by new atomic code, or converted to UPF format
     Using radial grid of  615 points,  1 beta functions with:
                l(1) =   0
     Q(r) pseudized with  8 coefficients,  rinner =    0.800

     atomic species   valence    mass     pseudopotential
        Ti1           12.00    47.86700     Ti( 1.00)
        O1             6.00    15.99900     O ( 1.00)
        N1             5.00    14.00700     N ( 1.00)
        C1             4.00    12.01100     C ( 1.00)
        H1             1.00     1.00800     H ( 1.00)

     No symmetry found

   Cartesian axes

     site n.     atom                  positions (alat units)
         1           Ti1 tau(   1) = (   0.0004258   2.9801865   6.0000000  )
         2           Ti1 tau(   2) = (   3.2906075   1.4906267   6.0002472  )
         3           O1  tau(   3) = (   0.0006271   0.0005054   7.9858123  )
         4           O1  tau(   4) = (   3.2906025   0.0005020   7.3038282  )
         5           O1  tau(   5) = (   4.5942328   1.4918067   9.2879030  )
         6           O1  tau(   6) = (   1.9868534   1.4903216   9.2879459  )
         7           Ti1 tau(   7) = (   3.2907910   2.8959150   9.1758416  )
         8           Ti1 tau(   8) = (   0.0015273   1.4827037   9.2680791  )
         9           O1  tau(   9) = (   3.2779673   5.9607700  11.3423085  )
        10           O1  tau(  10) = (   0.0116148   5.9584955  10.6183126  )
        11           O1  tau(  11) = (   1.2787083   1.4818767  12.6451794  )
        12           O1  tau(  12) = (   5.2707140   1.4872516  12.6060838  )
        13           Ti1 tau(  13) = (   0.0520196   2.9452147  12.6012095  )
        14           Ti1 tau(  14) = (   3.3669591   1.4706787  12.5087448  )
        15           O1  tau(  15) = (   6.5166736   5.9505275  14.6414754  )
        16           O1  tau(  16) = (   3.3002175   0.0041348  13.9548274  )
        17           O1  tau(  17) = (   4.5235890   1.5203341  16.0633414  )
        18           O1  tau(  18) = (   1.9992342   1.5602939  15.9747780  )
        19           Ti1 tau(  19) = (   3.2541499   3.0080313  15.6961896  )
        20           Ti1 tau(  20) = (   6.5591015   1.5323982  15.7823192  )
        21           O1  tau(  21) = (   3.2904802   0.0005063   4.7018136  )
        22           O1  tau(  22) = (   0.0960927   0.0099221  17.2178370  )
        23           O1  tau(  23) = (   1.3043587   1.4918075   6.0039043  )
        24           O1  tau(  24) = (   5.2767064   1.4903225   6.0039473  )
        25           Ti1 tau(  25) = (   0.0000382   5.9609847   6.0000000  )
        26           Ti1 tau(  26) = (   3.2902200   4.4714249   6.0002472  )
        27           O1  tau(  27) = (   0.0002396   2.9813036   7.9858123  )
        28           O1  tau(  28) = (   3.2902150   2.9813002   7.3038282  )
        29           O1  tau(  29) = (   4.5938453   4.4726049   9.2879030  )
        30           O1  tau(  30) = (   1.9864658   4.4711199   9.2879459  )
        31           Ti1 tau(  31) = (   3.2891106   5.8743827   9.1763621  )
        32           Ti1 tau(  32) = (   0.0006254   4.4649316   9.2693709  )
        33           O1  tau(  33) = (   3.2807211   2.9768430  11.3440791  )
        34           O1  tau(  34) = (   0.0092240   2.9805883  10.6323155  )
        35           O1  tau(  35) = (   1.2789702   4.4681595  12.6395138  )
        36           O1  tau(  36) = (   5.2737968   4.4775610  12.6008310  )
        37           Ti1 tau(  37) = (   0.0460201   5.9176504  12.5434570  )
        38           Ti1 tau(  38) = (   3.3658678   4.4646095  12.4976877  )
        39           O1  tau(  39) = (   6.5297297   2.9761478  14.6509524  )
        40           O1  tau(  40) = (   3.3085871   2.9961499  13.9017917  )
        41           O1  tau(  41) = (   4.5138497   4.4896837  16.1272785  )
        42           O1  tau(  42) = (   1.9961282   4.4344792  16.0060688  )
        43           Ti1 tau(  43) = (   3.3116018   0.0224549  15.7990204  )
        44           Ti1 tau(  44) = (   6.5775847   4.6577750  16.0638065  )
        45           O1  tau(  45) = (   3.2900926   2.9813045   4.7018136  )
        46           O1  tau(  46) = (   1.3039711   4.4726057   6.0039043  )
        47           O1  tau(  47) = (   5.2763189   4.4711207   6.0039473  )
        48           N1  tau(  48) = (   6.5065777   2.6139801  18.6303060  )
        49           N1  tau(  49) = (   6.5364102   2.8728423  17.4370429  )
        50           C1  tau(  50) = (   6.4341180   3.7235584  19.6105657  )
        51           H1  tau(  51) = (   6.3066687   4.7022679  19.1488110  )
        52           H1  tau(  52) = (   5.6164842   3.4805663  20.2913871  )
        53           H1  tau(  53) = (   0.7823074   3.6964598  20.1845303  )
        54           O1  tau(  54) = (   3.0314481   5.0835218  18.9911038  )
        55           H1  tau(  55) = (   1.7414717   0.2144793  18.0242669  )
        56           O1  tau(  56) = (   2.7372941   0.2572207  18.0778760  )
        57           H1  tau(  57) = (   3.9343361   5.3466317  19.2487757  )

     number of k points=    10  Fermi-Dirac smearing, width (Ry)=  0.0073
                       cart. coord. in units 2pi/alat
        k(    1) = (   0.0000000   0.0000000   0.0000000), wk =   0.1250000
        k(    2) = (   0.0000000   0.0419351   0.0000000), wk =   0.2500000
        k(    3) = (   0.0000000  -0.0838702   0.0000000), wk =   0.1250000
        k(    4) = (   0.0379955   0.0000049   0.0000000), wk =   0.2500000
        k(    5) = (   0.0379955   0.0419400   0.0000000), wk =   0.2500000
        k(    6) = (   0.0379955  -0.0838652   0.0000000), wk =   0.2500000
        k(    7) = (   0.0379955  -0.0419301   0.0000000), wk =   0.2500000
        k(    8) = (  -0.0759910  -0.0000099   0.0000000), wk =   0.1250000
        k(    9) = (  -0.0759910   0.0419252   0.0000000), wk =   0.2500000
        k(   10) = (  -0.0759910  -0.0838800   0.0000000), wk =   0.1250000

     Initial potential from superposition of free atoms

     starting charge  392.99914, renormalised to  409.00000

     negative rho (up, down):  1.422E-02 0.000E+00

     %%%%%%%%%%%%%%%%%%%%%%%%%%%%%%%%%%%%%%%%%%%%%%%%%%%%%%%%%%%%%%%%%%%%%%%%
     %                                                                      %
     % You are using vdW-DF, which was implemented by the Thonhauser group. %
     % Please cite the following two papers that made this development      %
     % possible and the two reviews that describe the various versions:     %
     %                                                                      %
     %   T. Thonhauser et al., PRL 115, 136402 (2015).                      %
     %   T. Thonhauser et al., PRB 76, 125112 (2007).                       %
     %   K. Berland et al., Rep. Prog. Phys. 78, 066501 (2015).             %
     %   D.C. Langreth et al., J. Phys.: Condens. Matter 21, 084203 (2009). %
     %                                                                      %
     %                                                                      %
     % If you are calculating the stress with vdW-DF, please also cite:     %
     %                                                                      %
     %   R. Sabatini et al., J. Phys.: Condens. Matter 24, 424209 (2012).   %
     %                                                                      %
     %%%%%%%%%%%%%%%%%%%%%%%%%%%%%%%%%%%%%%%%%%%%%%%%%%%%%%%%%%%%%%%%%%%%%%%%

     Adding external electric field

     Computed dipole along edir(3) :
        Dipole              -16.7505 Ry au,        -42.5754 Debye
        Dipole field         -0.0316 Ry au,

        Potential amp.        2.9302 Ry
        Total length         46.3494 bohr

     Starting wfcs are  309 atomic wfcs
  @ DRIVER MODE: Message from server: STATUS
  @ DRIVER MODE: Message from server: POSDATA
  @ DRIVER MODE: Reading and sharing cell
  @ DRIVER MODE: Reading and sharing positions
  @ DRIVER MODE: Received positions

     Self-consistent Calculation

     iteration #  1     ecut=    29.40 Ry     beta= 0.05
     Davidson diagonalization with overlap
     c_bands:  5 eigenvalues not converged
     c_bands:  5 eigenvalues not converged
     c_bands:  3 eigenvalues not converged
     c_bands:  1 eigenvalues not converged
     c_bands:  4 eigenvalues not converged
     c_bands:  2 eigenvalues not converged
     c_bands:  5 eigenvalues not converged
     ethr =  1.00E-05,  avg # of iterations = 26.6

[...]

     total energy              =   -2110.46512021 Ry
     estimated scf accuracy    <   10326.52154600 Ry

     iteration #  2     ecut=    29.40 Ry     beta= 0.05
     Davidson diagonalization with overlap
     ethr =  1.00E-02,  avg # of iterations = 32.0

[...]

     iteration # 91     ecut=    29.40 Ry     beta= 0.05
     Davidson diagonalization with overlap
     c_bands:  2 eigenvalues not converged
     ethr =  1.57E-10,  avg # of iterations = 18.1

[...]

     total energy              =   -3006.13725931 Ry
     estimated scf accuracy    <       0.00000011 Ry

     iteration # 95     ecut=    29.40 Ry     beta= 0.05
     Davidson diagonalization with overlap
     ethr =  2.71E-11,  avg # of iterations = 11.2

     negative rho (up, down):  1.470E-02 0.000E+00

     Adding external electric field

     Computed dipole along edir(3) :
        Dipole                0.8089 Ry au,          2.0559 Debye
        Dipole field          0.0015 Ry au,

        Potential amp.       -0.1415 Ry
        Total length         46.3494 bohr

     End of self-consistent calculation

          k = 0.0000 0.0000 0.0000 ( 18029 PWs)   bands (ev):

   -55.6049 -55.5708 -55.5629 -55.5345 -55.5266 -55.4410 -55.4195 -55.4040
   -55.3855 -55.3833 -55.3661 -55.3496 -54.9886 -54.9177 -54.5857 -54.5517
   -32.1037 -32.0880 -31.9490 -31.9408 -31.9179 -31.8975 -31.8732 -31.8602
   -31.8489 -31.7945 -31.7797 -31.7642 -31.7572 -31.7406 -31.7292 -31.7190
   -31.7099 -31.7014 -31.6898 -31.6628 -31.6621 -31.6422 -31.6103 -31.6091
   -31.5997 -31.5952 -31.5927 -31.5820 -31.5640 -31.5597 -31.5540 -31.5490
   -31.5384 -31.5366 -31.5272 -31.5152 -31.4954 -31.2667 -31.2095 -31.1781
   -31.1249 -31.1024 -30.9929 -30.9042 -30.8818 -30.8096 -30.7231 -30.6121
   -20.7338 -18.2979 -16.3053 -16.0791 -15.8960 -15.7657 -15.7107 -15.5578
   -15.4962 -15.4098 -15.3391 -15.2027 -15.1503 -15.1414 -15.1355 -15.1166
   -15.1109 -15.0507 -15.0396 -15.0382 -15.0269 -14.9993 -14.9602 -14.9469
   -14.9421 -14.8593 -14.7661 -14.7430 -14.7228 -14.7196 -14.6618 -14.2751
   -13.0878 -12.9713 -11.2807  -6.8138  -5.7698  -5.3533  -4.1824  -3.8044
    -3.7705  -3.6726  -3.5501  -3.5111  -3.4319  -3.3848  -3.2307  -3.0797
    -3.0287  -2.8517  -2.7830  -2.7555  -2.7121  -2.6287  -2.5212  -2.4678
    -2.4126  -2.4085  -2.3946  -2.3786  -2.3614  -2.3448  -2.2369  -2.2188
    -2.1653  -2.1459  -2.1196  -1.9847  -1.9569  -1.9280  -1.9184  -1.8902
    -1.8780  -1.8645  -1.8374  -1.8187  -1.7784  -1.7550  -1.6228  -1.5792
    -1.5401  -1.4483  -1.3888  -1.3270  -1.2331  -1.2009  -1.1315  -1.0620
    -1.0563  -1.0363  -1.0030  -0.9949  -0.8686  -0.7643  -0.7541  -0.6804
    -0.6193  -0.5686  -0.5279  -0.4628  -0.3791  -0.3618  -0.3539  -0.3335
    -0.2818  -0.2567  -0.0979  -0.0592  -0.0110   0.0143   0.0714   0.1045
     0.1475   0.1878   0.2276   0.2774   0.3117   0.3448   0.3631   0.3773
     0.3927   0.4240   0.4448   0.6108   0.6459   0.6692   0.7301   0.7596
     0.8442   0.9034   0.9657   1.0504   1.1587   1.3639   1.4367   1.5280
     1.6287   2.0082   2.0540   2.8295   3.5243   3.6163   3.6573   3.6876
     3.7691   3.7809   3.9823   4.0040   4.0337   4.1087

[...]

          k = 0.0380-0.0419 0.0000 ( 17876 PWs)   bands (ev):

[...]

          k =-0.0760-0.0000 0.0000 ( 17886 PWs)   bands (ev):

[...]

          k =-0.0760-0.0839 0.0000 ( 17948 PWs)   bands (ev):

   -55.5882 -55.5874 -55.5477 -55.5416 -55.5326 -55.4292 -55.4159 -55.4027
   -55.4018 -55.3678 -55.3678 -55.3652 -54.9848 -54.9215 -54.5688 -54.5685
   -31.9178 -31.9035 -31.9030 -31.9005 -31.8834 -31.8825 -31.8267 -31.8179
   -31.8054 -31.7857 -31.7772 -31.7536 -31.7489 -31.7227 -31.7170 -31.7163
   -31.7079 -31.7074 -31.7072 -31.7056 -31.7033 -31.7013 -31.6746 -31.6463
   -31.6325 -31.6286 -31.6199 -31.6036 -31.6025 -31.5974 -31.5922 -31.5832
   -31.5801 -31.5728 -31.5720 -31.5702 -31.4173 -31.2684 -31.2480 -31.1861
   -31.1638 -31.1263 -30.8946 -30.8944 -30.8058 -30.8056 -30.7664 -30.7663
   -20.7332 -18.2939 -15.7431 -15.6992 -15.6322 -15.5640 -15.5288 -15.4588
   -15.4153 -15.3736 -15.3215 -15.2832 -15.2743 -15.2145 -15.1946 -15.1617
   -15.1525 -15.1228 -15.1135 -15.1114 -15.0575 -15.0517 -15.0455 -15.0385
   -15.0324 -14.9736 -14.9338 -14.9255 -14.9206 -14.8225 -14.7001 -14.4434
   -13.0732 -13.0731 -11.2790  -6.8366  -5.7672  -5.3294  -4.1107  -3.8064
    -3.7564  -3.1159  -3.0213  -2.8276  -2.7978  -2.7144  -2.7105  -2.6676
    -2.5452  -2.5124  -2.4663  -2.4483  -2.4272  -2.4185  -2.4129  -2.3928
    -2.3867  -2.3680  -2.3387  -2.3184  -2.2857  -2.2736  -2.2607  -2.2520
    -2.2382  -2.2153  -2.2130  -2.1646  -2.1441  -2.1251  -2.0625  -2.0289
    -1.8428  -1.7937  -1.7488  -1.7419  -1.7213  -1.6891  -1.6747  -1.6576
    -1.6108  -1.5893  -1.5110  -1.4667  -1.3290  -1.3090  -1.2935  -1.2723
    -1.2058  -1.1480  -1.0985  -1.0123  -1.0074  -0.9582  -0.8652  -0.8064
    -0.7983  -0.7670  -0.7114  -0.7020  -0.6612  -0.5679  -0.5623  -0.5443
    -0.5383  -0.4626  -0.4184  -0.3561  -0.3480  -0.3281  -0.2973  -0.2692
    -0.2359  -0.1972  -0.1011  -0.0678   0.0258   0.1313   0.2088   0.3436
     0.4623   0.4750   0.5594   0.5841   0.6852   0.6968   0.7090   0.7504
     0.7859   0.8110   0.9303   0.9441   0.9664   0.9932   1.0816   1.8001
     1.8010   1.8737   1.8739   2.8191   3.7657   3.8798   3.9117   3.9223
     4.0073   4.0442   4.0631   4.0651   4.1298   4.2025

     the Fermi energy is     3.5271 ev

!    total energy              =   -3006.13726401 Ry
     estimated scf accuracy    <       0.00000004 Ry
     smearing contrib. (-TS)   =      -0.02166795 Ry
     internal energy E=F+TS    =   -3006.11559606 Ry

     The total energy is F=E-TS. E is the sum of the following terms:
     one-electron contribution =  -23513.92656449 Ry
     hartree contribution      =   11854.93975927 Ry
     xc contribution           =    -501.16798505 Ry
     ewald contribution        =    9154.03795956 Ry
     electric field correction =       0.00123465 Ry

     convergence has been achieved in  95 iterations

     Forces acting on atoms (cartesian axes, Ry/au):

     atom    1 type  1   force =     0.00021316   -0.00032097    0.09615480
     atom    2 type  1   force =    -0.00012920   -0.00050980   -0.17558088
     atom    3 type  2   force =    -0.00002905   -0.00015761   -0.02420836
     atom    4 type  2   force =     0.00000553   -0.00155816    0.05346678
     atom    5 type  2   force =    -0.01167260   -0.00075859    0.00384803
     atom    6 type  2   force =     0.01286077   -0.00002222    0.00196362
     atom    7 type  1   force =    -0.00132320    0.00026019   -0.00663768
     atom    8 type  1   force =     0.00073961    0.00794584    0.02421410
     atom    9 type  2   force =     0.00000505    0.00003168    0.00002928
     atom   10 type  2   force =    -0.00082483    0.00166343   -0.01687716
     atom   11 type  2   force =    -0.00001386    0.00003385    0.00000074
     atom   12 type  2   force =    -0.00001906    0.00001828   -0.00000583
     atom   13 type  1   force =     0.00001036   -0.00000465    0.00002266
     atom   14 type  1   force =     0.00001074    0.00004328   -0.00000097
     atom   15 type  2   force =    -0.00000143    0.00002594   -0.00001361
     atom   16 type  2   force =    -0.00000860   -0.00002206   -0.00002677
     atom   17 type  2   force =    -0.00001367    0.00001427    0.00001624
     atom   18 type  2   force =    -0.00004536    0.00000561    0.00004559
     atom   19 type  1   force =     0.00005193    0.00002571   -0.00002529
     atom   20 type  1   force =    -0.00005269   -0.00006023   -0.00007282
     atom   21 type  2   force =     0.00005936   -0.00005233    0.10322133
     atom   22 type  2   force =    -0.00008240    0.00013569   -0.00018911
     atom   23 type  2   force =    -0.07146902   -0.00012698   -0.02770250
     atom   24 type  2   force =     0.07137245    0.00028146   -0.02770857
     atom   25 type  1   force =    -0.00003269   -0.00028554    0.09578684
     atom   26 type  1   force =    -0.00023069   -0.00034452   -0.17583934
     atom   27 type  2   force =     0.00004817   -0.00017105   -0.02324894
     atom   28 type  2   force =     0.00006999   -0.00125643    0.05307064
     atom   29 type  2   force =    -0.01201942    0.00042488    0.00402431
     atom   30 type  2   force =     0.01310477    0.00076963    0.00211086
     atom   31 type  1   force =    -0.00118544    0.00399878   -0.00993299
     atom   32 type  1   force =     0.00067811   -0.01005419    0.02469521
     atom   33 type  2   force =     0.00001305   -0.00000782    0.00001412
     atom   34 type  2   force =    -0.00024999    0.00012862   -0.02257308
     atom   35 type  2   force =    -0.00000616   -0.00000213   -0.00001466
     atom   36 type  2   force =    -0.00002394    0.00001790   -0.00002155
     atom   37 type  1   force =    -0.00000246   -0.00004927    0.00002919
     atom   38 type  1   force =     0.00001533    0.00006990    0.00003856
     atom   39 type  2   force =    -0.00005415   -0.00000968   -0.00003569
     atom   40 type  2   force =    -0.00000661   -0.00004269   -0.00000780
     atom   41 type  2   force =    -0.00001967   -0.00000573   -0.00002500
     atom   42 type  2   force =     0.00001672   -0.00006012   -0.00005947
     atom   43 type  1   force =     0.00000579   -0.00011458    0.00005644
     atom   44 type  1   force =     0.00011901    0.00007913    0.00014107
     atom   45 type  2   force =     0.00004487   -0.00008573    0.10322901
     atom   46 type  2   force =    -0.07148667   -0.00007640   -0.02771712
     atom   47 type  2   force =     0.07139935    0.00036827   -0.02771357
     atom   48 type  3   force =     0.00014145   -0.00002419    0.00017330
     atom   49 type  3   force =    -0.00002671    0.00003527   -0.00018615
     atom   50 type  4   force =    -0.00004356    0.00007366   -0.00003965
     atom   51 type  5   force =     0.00001371   -0.00005037    0.00003638
     atom   52 type  5   force =     0.00002207   -0.00000861    0.00004322
     atom   53 type  5   force =    -0.00008709    0.00001690   -0.00002284
     atom   54 type  2   force =    -0.00033169    0.00015887   -0.00165293
     atom   55 type  5   force =    -0.00074922   -0.00186565    0.00092849
     atom   56 type  2   force =     0.00097677    0.00117183    0.00083846
     atom   57 type  5   force =     0.00024299    0.00030946   -0.00005895

     Total force =     0.367096     Total SCF correction =     0.000461
  @ DRIVER MODE: Message from server: STATUS
  @ DRIVER MODE: Message from server: GETFORCE
  @ DRIVER MODE: Returning v,forces,stress,ensemble

     Writing output data file ./calc.save/
  @ DRIVER MODE: Message from server: EXIT
  @ DRIVE MODE: Exiting

     General routines

     Parallel routines

   This run was terminated on:  13:50:57  26Sep2021

   JOB DONE.