     Program PWSCF v.6.7GPU starts on 23Sep2021 at  4:26:52

     R & G space division:  proc/nbgrp/npool/nimage =      10
     Reading input from /storage/home/hcoda1/3/ntian30/research/carbon/CxH_vib/H2O_calc/ads_slab/CH3NNH3HO_a/out_0035/pw.inp
Warning: card &CELL ignored
Warning: card   CELL_DYNAMICS='IPI', ignored
Warning: card / ignored

     Current dimensions of program PWSCF are:
     Max number of different atomic species (ntypx) = 10
     Max number of k-points (npk) =  40000
     Max angular momentum in pseudopotentials (lmaxx) =  3
     Presently no symmetry can be used with electric field

     Message from routine cell_base_init:
     DEPRECATED: use true lattice parameter, not A to a.u. conversion factor

     IMPORTANT: XC functional enforced from input :
     Exchange-correlation= BEEF-VDW
                           (   1   4  43  14   2   0   0)
     Any further DFT definition will be discarded
     Please, verify this is what you really want

  @ DRIVER MODE: Connecting to
 qe_1139763_2937318.sched-torque.pace.gatech.edugxqmo3f7_scratch
  using UNIX socket
  @ DRIVER MODE: Message from server: STATUS
  @ DRIVER MODE: Message from server: INIT
  @ DRIVER MODE: Receiving replica           0          -1
  @ DRIVER MODE: Receiving encoded integer          25
  @ DRIVER MODE:  SCF:  T  FORCE:  T  STRESS:  F  VC:  F  ENSEMBLE:  F
  @ DRIVER MODE:  SCF:  T  FORCE:  T  STRESS:  F  VC:  F  ENSEMBLE:  F

     Using Slab Decomposition

     bravais-lattice index     =            0
     lattice parameter (alat)  =       1.8897  a.u.
     unit-cell volume          =    6658.9804 (a.u.)^3
     number of atoms/cell      =           58
     number of atomic types    =            5
     number of electrons       =       405.00
     number of Kohn-Sham states=          212
     kinetic-energy cutoff     =      29.3995  Ry
     charge density cutoff     =     293.9946  Ry
     scf convergence threshold =      7.3E-08
     mixing beta               =       0.0500
     number of iterations used =            8  plain     mixing
     Exchange-correlation= BEEF-VDW
                           (   1   4  43  14   2   0   0)

     celldm(1)=   1.889726  celldm(2)=   0.000000  celldm(3)=   0.000000
     celldm(4)=   0.000000  celldm(5)=   0.000000  celldm(6)=   0.000000

     crystal axes: (cart. coord. in units of alat)
               a(1) = (   6.579727   0.000000   0.000000 )
               a(2) = (  -0.000775   5.961596   0.000000 )
               a(3) = (   0.000000   0.000000  25.155947 )

     reciprocal axes: (cart. coord. in units 2 pi/alat)
               b(1) = (  0.151982  0.000020  0.000000 )
               b(2) = (  0.000000  0.167740  0.000000 )
               b(3) = (  0.000000  0.000000  0.039752 )

     PseudoPot. # 1 for Ti read from file:
     /storage/coda1/p-amedford6/0/shared/rich_project_chbe-medford/medford-share/data/pseudos_module/espresso/nninc/pbe/van/Ti.UPF
     MD5 check sum: 8e4df49b7f0d34bbd5052bf3f5ea0213
     Pseudo is Ultrasoft, Zval = 12.0
     Generated by new atomic code, or converted to UPF format
     Using radial grid of  851 points,  6 beta functions with:
                l(1) =   0
                l(2) =   0
                l(3) =   1
                l(4) =   1
                l(5) =   2
                l(6) =   2
     Q(r) pseudized with  8 coefficients,  rinner =    1.000   1.000   1.000
                                                       1.000   1.000

     PseudoPot. # 2 for O  read from file:
     /storage/coda1/p-amedford6/0/shared/rich_project_chbe-medford/medford-share/data/pseudos_module/espresso/nninc/pbe/van/O.UPF
     MD5 check sum: 78c19812648e8988a0fe644b0f25305e
     Pseudo is Ultrasoft, Zval =  6.0
     Generated by new atomic code, or converted to UPF format
     Using radial grid of  737 points,  4 beta functions with:
                l(1) =   0
                l(2) =   0
                l(3) =   1
                l(4) =   1
     Q(r) pseudized with  8 coefficients,  rinner =    0.800   0.800   0.800

     PseudoPot. # 3 for N  read from file:
     /storage/coda1/p-amedford6/0/shared/rich_project_chbe-medford/medford-share/data/pseudos_module/espresso/nninc/pbe/van/N.UPF
     MD5 check sum: 90d10febe142ad51ac9d5be1deb811c4
     Pseudo is Ultrasoft, Zval =  5.0
     Generated by new atomic code, or converted to UPF format
     Using radial grid of  729 points,  4 beta functions with:
                l(1) =   0
                l(2) =   0
                l(3) =   1
                l(4) =   1
     Q(r) pseudized with  8 coefficients,  rinner =    0.800   0.800   0.800

     PseudoPot. # 4 for C  read from file:
     /storage/coda1/p-amedford6/0/shared/rich_project_chbe-medford/medford-share/data/pseudos_module/espresso/nninc/pbe/van/C.UPF
     MD5 check sum: 1a69bf6b8db32088f5b2163dbdb77a27
     Pseudo is Ultrasoft, Zval =  4.0
     Generated by new atomic code, or converted to UPF format
     Using radial grid of  721 points,  4 beta functions with:
                l(1) =   0
                l(2) =   0
                l(3) =   1
                l(4) =   1
     Q(r) pseudized with  8 coefficients,  rinner =    0.800   0.800   0.800

     PseudoPot. # 5 for H  read from file:
     /storage/coda1/p-amedford6/0/shared/rich_project_chbe-medford/medford-share/data/pseudos_module/espresso/nninc/pbe/van/H.UPF
     MD5 check sum: b5ee9d7bfd3a09ee7748110bda690ff7
     Pseudo is Ultrasoft, Zval =  1.0
     Generated by new atomic code, or converted to UPF format
     Using radial grid of  615 points,  1 beta functions with:
                l(1) =   0
     Q(r) pseudized with  8 coefficients,  rinner =    0.800

     atomic species   valence    mass     pseudopotential
        Ti1           12.00    47.86700     Ti( 1.00)
        O1             6.00    15.99900     O ( 1.00)
        N1             5.00    14.00700     N ( 1.00)
        C1             4.00    12.01100     C ( 1.00)
        H1             1.00     1.00800     H ( 1.00)

     No symmetry found

   Cartesian axes

     site n.     atom                  positions (alat units)
         1           Ti1 tau(   1) = (   0.0004258   2.9801865   6.0000000  )
         2           Ti1 tau(   2) = (   3.2906075   1.4906267   6.0002472  )
         3           O1  tau(   3) = (   0.0006271   0.0005054   7.9858123  )
         4           O1  tau(   4) = (   3.2906025   0.0005020   7.3038282  )
         5           O1  tau(   5) = (   4.5942328   1.4918067   9.2879030  )
         6           O1  tau(   6) = (   1.9868534   1.4903216   9.2879459  )
         7           Ti1 tau(   7) = (   3.2907910   2.8959150   9.1758416  )
         8           Ti1 tau(   8) = (   0.0015273   1.4827037   9.2680791  )
         9           O1  tau(   9) = (   3.2949357   5.9297256  11.2770696  )
        10           O1  tau(  10) = (   0.0116148   5.9584955  10.6183126  )
        11           O1  tau(  11) = (   1.2901270   1.4659759  12.6218969  )
        12           O1  tau(  12) = (   5.3029181   1.4690452  12.6271982  )
        13           Ti1 tau(  13) = (   6.5637346   3.0486055  12.7052252  )
        14           Ti1 tau(  14) = (   3.3207578   1.2909511  12.6638180  )
        15           O1  tau(  15) = (   0.0081040   5.9567798  14.6379979  )
        16           O1  tau(  16) = (   3.2944190   0.0149942  13.8863584  )
        17           O1  tau(  17) = (   4.5334936   1.5584448  16.0391558  )
        18           O1  tau(  18) = (   2.0244848   1.5379376  16.0854781  )
        19           Ti1 tau(  19) = (   3.2579824   3.0118882  15.6538344  )
        20           Ti1 tau(  20) = (   6.4918182   1.5199401  15.8876453  )
        21           O1  tau(  21) = (   3.2904802   0.0005063   4.7018136  )
        22           O1  tau(  22) = (   6.5166677   0.0216046  17.1949088  )
        23           O1  tau(  23) = (   1.3043587   1.4918075   6.0039043  )
        24           O1  tau(  24) = (   5.2767064   1.4903225   6.0039473  )
        25           Ti1 tau(  25) = (   0.0000382   5.9609847   6.0000000  )
        26           Ti1 tau(  26) = (   3.2902200   4.4714249   6.0002472  )
        27           O1  tau(  27) = (   0.0002396   2.9813036   7.9858123  )
        28           O1  tau(  28) = (   3.2902150   2.9813002   7.3038282  )
        29           O1  tau(  29) = (   4.5938453   4.4726049   9.2879030  )
        30           O1  tau(  30) = (   1.9864658   4.4711199   9.2879459  )
        31           Ti1 tau(  31) = (   3.2891106   5.8743827   9.1763621  )
        32           Ti1 tau(  32) = (   0.0006254   4.4649316   9.2693709  )
        33           O1  tau(  33) = (   3.2959121   3.0085915  11.2438341  )
        34           O1  tau(  34) = (   0.0092240   2.9805883  10.6323155  )
        35           O1  tau(  35) = (   1.2849535   4.4488585  12.6204231  )
        36           O1  tau(  36) = (   5.2878833   4.4365118  12.6243745  )
        37           Ti1 tau(  37) = (   0.0500071   0.0677371  12.6535751  )
        38           Ti1 tau(  38) = (   3.3027700   4.3871210  12.4110406  )
        39           O1  tau(  39) = (   6.5685058   2.9535060  14.6525041  )
        40           O1  tau(  40) = (   3.2696111   2.9719761  13.8704823  )
        41           O1  tau(  41) = (   4.5209813   4.4409030  16.0696701  )
        42           O1  tau(  42) = (   2.0131998   4.4599944  16.0916020  )
        43           Ti1 tau(  43) = (   3.2138439   0.0230873  16.3295100  )
        44           Ti1 tau(  44) = (   6.5234412   4.6200706  16.0754176  )
        45           O1  tau(  45) = (   3.2900926   2.9813045   4.7018136  )
        46           O1  tau(  46) = (   1.3039711   4.4726057   6.0039043  )
        47           O1  tau(  47) = (   5.2763189   4.4711207   6.0039473  )
        48           N1  tau(  48) = (   0.0251376   2.9556585  17.3246074  )
        49           N1  tau(  49) = (   6.3772498   2.5461882  22.2688425  )
        50           C1  tau(  50) = (   0.2111848   2.8484408  18.7116211  )
        51           H1  tau(  51) = (   0.3920758   3.8074029  19.2116250  )
        52           H1  tau(  52) = (   5.9044209   2.3708277  19.1722604  )
        53           H1  tau(  53) = (   1.0233575   2.1342068  18.9264007  )
        54           H1  tau(  54) = (   6.0930523   3.2289774  22.9628454  )
        55           H1  tau(  55) = (   0.2277240   1.7755739  22.7685771  )
        56           H1  tau(  56) = (   0.5282093   2.9785696  21.7129995  )
        57           O1  tau(  57) = (   3.3838229   0.0530270  18.1522483  )
        58           H1  tau(  58) = (   4.2718821   5.8932998  18.5223319  )

     number of k points=    10  Fermi-Dirac smearing, width (Ry)=  0.0073
                       cart. coord. in units 2pi/alat
        k(    1) = (   0.0000000   0.0000000   0.0000000), wk =   0.1250000
        k(    2) = (   0.0000000   0.0419351   0.0000000), wk =   0.2500000
        k(    3) = (   0.0000000  -0.0838702   0.0000000), wk =   0.1250000
        k(    4) = (   0.0379955   0.0000049   0.0000000), wk =   0.2500000
        k(    5) = (   0.0379955   0.0419400   0.0000000), wk =   0.2500000
        k(    6) = (   0.0379955  -0.0838652   0.0000000), wk =   0.2500000
        k(    7) = (   0.0379955  -0.0419301   0.0000000), wk =   0.2500000
        k(    8) = (  -0.0759910  -0.0000099   0.0000000), wk =   0.1250000
        k(    9) = (  -0.0759910   0.0419252   0.0000000), wk =   0.2500000
        k(   10) = (  -0.0759910  -0.0838800   0.0000000), wk =   0.1250000

     Initial potential from superposition of free atoms

     starting charge  388.99913, renormalised to  405.00000

     negative rho (up, down):  7.828E-03 0.000E+00

     %%%%%%%%%%%%%%%%%%%%%%%%%%%%%%%%%%%%%%%%%%%%%%%%%%%%%%%%%%%%%%%%%%%%%%%%
     %                                                                      %
     % You are using vdW-DF, which was implemented by the Thonhauser group. %
     % Please cite the following two papers that made this development      %
     % possible and the two reviews that describe the various versions:     %
     %                                                                      %
     %   T. Thonhauser et al., PRL 115, 136402 (2015).                      %
     %   T. Thonhauser et al., PRB 76, 125112 (2007).                       %
     %   K. Berland et al., Rep. Prog. Phys. 78, 066501 (2015).             %
     %   D.C. Langreth et al., J. Phys.: Condens. Matter 21, 084203 (2009). %
     %                                                                      %
     %                                                                      %
     % If you are calculating the stress with vdW-DF, please also cite:     %
     %                                                                      %
     %   R. Sabatini et al., J. Phys.: Condens. Matter 24, 424209 (2012).   %
     %                                                                      %
     %%%%%%%%%%%%%%%%%%%%%%%%%%%%%%%%%%%%%%%%%%%%%%%%%%%%%%%%%%%%%%%%%%%%%%%%

     Adding external electric field

     Computed dipole along edir(3) :
        Dipole              -15.1926 Ry au,        -38.6156 Debye
        Dipole field         -0.0287 Ry au,

        Potential amp.        2.6577 Ry
        Total length         46.3494 bohr

     Starting wfcs are  307 atomic wfcs
  @ DRIVER MODE: Message from server: STATUS
  @ DRIVER MODE: Message from server: POSDATA
  @ DRIVER MODE: Reading and sharing cell
  @ DRIVER MODE: Reading and sharing positions
  @ DRIVER MODE: Received positions

     Self-consistent Calculation

     iteration #  1     ecut=    29.40 Ry     beta= 0.05
     Davidson diagonalization with overlap
     c_bands:  4 eigenvalues not converged
     c_bands:  1 eigenvalues not converged
     c_bands:  1 eigenvalues not converged
     c_bands:  2 eigenvalues not converged
     c_bands:  1 eigenvalues not converged
     c_bands:  2 eigenvalues not converged
     ethr =  1.00E-05,  avg # of iterations = 31.5

[...]

     total energy              =   -2295.07557839 Ry
     estimated scf accuracy    <    7743.60101444 Ry

     iteration #  2     ecut=    29.40 Ry     beta= 0.05
     Davidson diagonalization with overlap
     ethr =  1.00E-02,  avg # of iterations = 22.3

[...]

     iteration # 52     ecut=    29.40 Ry     beta= 0.05
     Davidson diagonalization with overlap
     c_bands:  1 eigenvalues not converged
     ethr =  1.63E-06,  avg # of iterations =  7.4

[...]

     total energy              =   -2976.42352425 Ry
     estimated scf accuracy    <       0.00000009 Ry

     iteration # 80     ecut=    29.40 Ry     beta= 0.05
     Davidson diagonalization with overlap
     ethr =  2.32E-11,  avg # of iterations =  3.6

     negative rho (up, down):  9.593E-03 0.000E+00

     Adding external electric field

     Computed dipole along edir(3) :
        Dipole                0.6331 Ry au,          1.6092 Debye
        Dipole field          0.0012 Ry au,

        Potential amp.       -0.1108 Ry
        Total length         46.3494 bohr

     End of self-consistent calculation

          k = 0.0000 0.0000 0.0000 ( 18029 PWs)   bands (ev):

   -56.5653 -56.5318 -55.6411 -55.6060 -55.4252 -55.3586 -55.2313 -55.1166
   -55.0827 -55.0353 -55.0037 -54.9688 -54.9107 -54.8172 -54.7456 -54.6134
   -32.9840 -32.8357 -32.8077 -32.7448 -32.6546 -32.6111 -32.1228 -31.9000
   -31.8613 -31.8398 -31.7853 -31.7774 -31.7522 -31.6585 -31.6382 -31.5936
   -31.5617 -31.5469 -31.5220 -31.5101 -31.5053 -31.4941 -31.4636 -31.4633
   -31.4391 -31.4208 -31.3556 -31.3205 -31.2986 -31.2926 -31.2402 -31.2329
   -31.2163 -31.1947 -31.1816 -31.1664 -31.1592 -31.1288 -31.1235 -31.0917
   -31.0476 -31.0029 -31.0021 -30.9807 -30.9478 -30.8877 -30.8509 -30.8004
   -16.6686 -16.1106 -16.0882 -15.8818 -15.7592 -15.7541 -15.7107 -15.6426
   -15.4728 -15.4048 -15.3759 -15.3146 -15.1708 -15.0547 -14.9575 -14.7782
   -14.7044 -14.6996 -14.6799 -14.6732 -14.6558 -14.6350 -14.5759 -14.5174
   -14.4751 -14.4099 -14.3672 -14.2206 -14.0205 -13.9950 -13.9514 -13.6139
   -13.5077 -13.5069  -7.7342  -4.2440  -4.0312  -4.0122  -3.6993  -3.5773
    -3.4046  -3.2521  -3.2105  -3.1425  -3.0840  -3.0747  -2.9318  -2.9261
    -2.9176  -2.9120  -2.8286  -2.7678  -2.7050  -2.6181  -2.6026  -2.5082
    -2.4615  -2.3020  -2.2764  -2.1753  -2.1032  -2.0979  -2.0312  -2.0088
    -1.9615  -1.9167  -1.9078  -1.8725  -1.8285  -1.7819  -1.7630  -1.6527
    -1.6452  -1.5793  -1.5726  -1.5503  -1.4367  -1.4170  -1.3472  -1.2020
    -1.1805  -1.1773  -1.1298  -1.1129  -1.0308  -0.9348  -0.8679  -0.8410
    -0.7847  -0.6966  -0.6501  -0.6284  -0.5560  -0.5362  -0.4621  -0.4189
    -0.4051  -0.3849  -0.3434  -0.2284  -0.1415  -0.1089  -0.0549  -0.0295
     0.0032   0.0298   0.0490   0.0977   0.1673   0.2533   0.2744   0.4128
     0.4651   0.5017   0.5776   0.6121   0.6181   0.7075   0.7392   0.7684
     0.8151   0.8897   0.9045   0.9053   0.9643   1.0484   1.1028   1.1566
     1.1673   1.2034   1.2113   1.2620   1.3507   1.3715   1.4411   1.4961
     1.8197   1.8820   2.4848   2.7290   2.9005   3.1773   3.3694   3.6728
     3.7150   3.7328   3.7330   4.1538

[...]

          k = 0.0380-0.0419 0.0000 ( 17876 PWs)   bands (ev):

[...]

          k =-0.0760-0.0000 0.0000 ( 17886 PWs)   bands (ev):

[...]

          k =-0.0760-0.0839 0.0000 ( 17948 PWs)   bands (ev):

   -56.5492 -56.5477 -55.6286 -55.6182 -55.4205 -55.3632 -55.2305 -55.1001
   -55.0990 -55.0304 -55.0044 -54.9734 -54.9091 -54.8157 -54.7472 -54.6147
   -32.8223 -32.8207 -32.8020 -32.8005 -32.6989 -32.6977 -31.9474 -31.9382
   -31.8231 -31.8179 -31.8120 -31.8103 -31.7199 -31.6771 -31.6518 -31.6387
   -31.5890 -31.5873 -31.5022 -31.4749 -31.4653 -31.4526 -31.4517 -31.3700
   -31.3502 -31.3202 -31.3188 -31.3016 -31.2945 -31.2847 -31.2805 -31.2799
   -31.2519 -31.2329 -31.2153 -31.2002 -31.1963 -31.1583 -31.1581 -31.1021
   -31.0908 -31.0506 -31.0066 -30.9953 -30.9591 -30.9525 -30.8530 -30.8358
   -16.0761 -16.0270 -16.0251 -15.9816 -15.9801 -15.7183 -15.7138 -15.4636
   -15.4343 -15.2555 -15.1509 -15.1269 -15.0835 -15.0418 -14.9711 -14.9169
   -14.8873 -14.8555 -14.8294 -14.7674 -14.7377 -14.6327 -14.5999 -14.5524
   -14.5163 -14.4543 -14.4131 -14.3641 -14.1773 -14.1332 -13.9507 -13.6114
   -13.6109 -13.5327  -7.7333  -4.0420  -4.0123  -3.6904  -3.1670  -3.1030
    -3.0986  -3.0662  -3.0589  -2.9859  -2.8524  -2.8493  -2.7519  -2.6474
    -2.6208  -2.5979  -2.5374  -2.5275  -2.4278  -2.3780  -2.3731  -2.3590
    -2.3227  -2.2930  -2.2865  -2.2268  -2.0885  -2.0725  -2.0232  -1.9695
    -1.8956  -1.8865  -1.8770  -1.8401  -1.7983  -1.7730  -1.7622  -1.7349
    -1.7301  -1.7257  -1.6159  -1.5114  -1.4641  -1.3702  -1.3662  -1.3572
    -1.3192  -1.2920  -1.2587  -1.2521  -1.2233  -1.1431  -1.1170  -1.0475
    -0.9345  -0.9160  -0.8740  -0.8256  -0.7221  -0.7037  -0.6141  -0.5775
    -0.5663  -0.5074  -0.4779  -0.4621  -0.4040  -0.3648  -0.2330  -0.1930
    -0.1816  -0.1645  -0.1421  -0.1059  -0.0448   0.0168   0.0486   0.0508
     0.1552   0.2549   0.3424   0.4120   0.4211   0.4445   0.5307   0.6359
     0.6773   0.7020   0.7503   0.8738   0.9915   1.0214   1.1266   1.1528
     1.1618   1.2633   1.2814   1.2865   1.3065   1.3157   1.3503   1.4170
     1.4778   1.7645   2.3177   3.3215   3.3247   3.3828   3.3885   3.6992
     3.7016   3.8128   3.8179   4.1383

     the Fermi energy is     2.3947 ev

!    total energy              =   -2976.42353421 Ry
     estimated scf accuracy    <       0.00000006 Ry
     smearing contrib. (-TS)   =      -0.01083988 Ry
     internal energy E=F+TS    =   -2976.41269434 Ry

     The total energy is F=E-TS. E is the sum of the following terms:
     one-electron contribution =  -22707.99704804 Ry
     hartree contribution      =   11450.34929789 Ry
     xc contribution           =    -495.34511023 Ry
     ewald contribution        =    8776.57940963 Ry
     electric field correction =       0.00075642 Ry

     convergence has been achieved in  80 iterations

     Forces acting on atoms (cartesian axes, Ry/au):

     atom    1 type  1   force =     0.00002428   -0.00051722    0.12630207
     atom    2 type  1   force =    -0.00009276    0.00041320   -0.15469843
     atom    3 type  2   force =     0.00002755    0.00002695   -0.06829650
     atom    4 type  2   force =     0.00005955   -0.00011000    0.01704989
     atom    5 type  2   force =    -0.00487839   -0.00242648   -0.01324480
     atom    6 type  2   force =     0.00656069   -0.00180507   -0.01376234
     atom    7 type  1   force =    -0.00029354   -0.00661442    0.05920405
     atom    8 type  1   force =     0.00038343    0.00687086    0.10029698
     atom    9 type  2   force =    -0.00002228    0.00066103    0.00131145
     atom   10 type  2   force =    -0.00261401   -0.00001329   -0.06339560
     atom   11 type  2   force =     0.00044670   -0.00068329   -0.00028677
     atom   12 type  2   force =    -0.00085880   -0.00112392   -0.00110017
     atom   13 type  1   force =    -0.00030168    0.00070968   -0.00140035
     atom   14 type  1   force =    -0.00033085   -0.00038769   -0.00025477
     atom   15 type  2   force =    -0.00066141   -0.00037387   -0.00059181
     atom   16 type  2   force =     0.00019571    0.00091612   -0.00028915
     atom   17 type  2   force =     0.00077420    0.00008433   -0.00054034
     atom   18 type  2   force =    -0.00025614   -0.00015216    0.00001451
     atom   19 type  1   force =    -0.00019318   -0.00010015   -0.00097668
     atom   20 type  1   force =     0.00065681    0.00090950   -0.00050361
     atom   21 type  2   force =     0.00006299    0.00015803    0.09783172
     atom   22 type  2   force =     0.00042504   -0.00029731    0.00149169
     atom   23 type  2   force =    -0.08276314    0.00005287   -0.03313047
     atom   24 type  2   force =     0.08270621    0.00050088   -0.03320678
     atom   25 type  1   force =     0.00006826   -0.00035260    0.12645233
     atom   26 type  1   force =    -0.00011233   -0.00149278   -0.15487295
     atom   27 type  2   force =     0.00011486   -0.00046879   -0.06666871
     atom   28 type  2   force =     0.00004861    0.00167247    0.01199062
     atom   29 type  2   force =    -0.00343204    0.00422229   -0.01621967
     atom   30 type  2   force =     0.00506120    0.00456554   -0.01662162
     atom   31 type  1   force =    -0.00015738    0.00217116    0.04253792
     atom   32 type  1   force =     0.00044290   -0.00893750    0.10086920
     atom   33 type  2   force =    -0.00048386   -0.00012112   -0.00038758
     atom   34 type  2   force =    -0.00212690   -0.00026238   -0.07625870
     atom   35 type  2   force =    -0.00009552    0.00069805    0.00085663
     atom   36 type  2   force =    -0.00049864    0.00051544    0.00038122
     atom   37 type  1   force =     0.00043246    0.00061462   -0.00019121
     atom   38 type  1   force =    -0.00042294   -0.00067288   -0.00069034
     atom   39 type  2   force =     0.00045329   -0.00032426   -0.00042651
     atom   40 type  2   force =     0.00036792   -0.00062903    0.00000072
     atom   41 type  2   force =     0.00027456    0.00048462   -0.00001141
     atom   42 type  2   force =    -0.00017705   -0.00017038    0.00012306
     atom   43 type  1   force =     0.00052647    0.00133007   -0.00100740
     atom   44 type  1   force =    -0.00020509   -0.00112384    0.00082067
     atom   45 type  2   force =     0.00009293   -0.00001557    0.09767578
     atom   46 type  2   force =    -0.08280918    0.00004007   -0.03318215
     atom   47 type  2   force =     0.08271794    0.00045896   -0.03318977
     atom   48 type  3   force =    -0.00087300    0.00115986   -0.00053135
     atom   49 type  3   force =     0.00010670   -0.00003257   -0.00100129
     atom   50 type  4   force =    -0.00055241    0.00110931   -0.00090551
     atom   51 type  5   force =     0.00036761   -0.00052844   -0.00044655
     atom   52 type  5   force =     0.00047077    0.00067381   -0.00042630
     atom   53 type  5   force =     0.00124261   -0.00075660    0.00263329
     atom   54 type  5   force =    -0.00008388   -0.00005279    0.00005455
     atom   55 type  5   force =     0.00034350    0.00014939    0.00012590
     atom   56 type  5   force =     0.00012561   -0.00006010    0.00020002
     atom   57 type  2   force =    -0.00183915   -0.00056898    0.00035501
     atom   58 type  5   force =     0.00155417    0.00000636    0.00013833

     Total force =     0.420703     Total SCF correction =     0.000836
  @ DRIVER MODE: Message from server: STATUS
  @ DRIVER MODE: Message from server: GETFORCE
  @ DRIVER MODE: Returning v,forces,stress,ensemble

     Writing output data file ./calc.save/
  @ DRIVER MODE: Message from server: EXIT
  @ DRIVE MODE: Exiting

     General routines

     Parallel routines

   This run was terminated on:   4:47:25  23Sep2021

   JOB DONE.