     Program PWSCF v.6.7GPU starts on 24Aug2021 at 13:36: 8

     R & G space division:  proc/nbgrp/npool/nimage =      72
     Reading input from /storage/home/hcoda1/3/ntian30/research/carbon/CH2_vib/ads_slab/CH2N_a/out_0014/pw.inp
Warning: card &CELL ignored
Warning: card   CELL_DYNAMICS='IPI', ignored
Warning: card / ignored

     Current dimensions of program PWSCF are:
     Max number of different atomic species (ntypx) = 10
     Max number of k-points (npk) =  40000
     Max angular momentum in pseudopotentials (lmaxx) =  3
     Presently no symmetry can be used with electric field

     Message from routine cell_base_init:
     DEPRECATED: use true lattice parameter, not A to a.u. conversion factor

     IMPORTANT: XC functional enforced from input :
     Exchange-correlation= BEEF-VDW
                           (   1   4  43  14   2   0   0)
     Any further DFT definition will be discarded
     Please, verify this is what you really want

  @ DRIVER MODE: Connecting to
 qe_1139763_2641441.sched-torque.pace.gatech.edu6nol5890_scratch
  using UNIX socket
  @ DRIVER MODE: Message from server: STATUS
  @ DRIVER MODE: Message from server: INIT
  @ DRIVER MODE: Receiving replica           0          -1
  @ DRIVER MODE: Receiving encoded integer          25
  @ DRIVER MODE:  SCF:  T  FORCE:  T  STRESS:  F  VC:  F  ENSEMBLE:  F
  @ DRIVER MODE:  SCF:  T  FORCE:  T  STRESS:  F  VC:  F  ENSEMBLE:  F

     Using Slab Decomposition

     bravais-lattice index     =            0
     lattice parameter (alat)  =       1.8897  a.u.
     unit-cell volume          =    6658.9804 (a.u.)^3
     number of atoms/cell      =           51
     number of atomic types    =            5
     number of electrons       =       389.00
     number of Kohn-Sham states=          204
     kinetic-energy cutoff     =      29.3995  Ry
     charge density cutoff     =     293.9946  Ry
     scf convergence threshold =      7.3E-08
     mixing beta               =       0.0500
     number of iterations used =            8  plain     mixing
     Exchange-correlation= BEEF-VDW
                           (   1   4  43  14   2   0   0)

     celldm(1)=   1.889726  celldm(2)=   0.000000  celldm(3)=   0.000000
     celldm(4)=   0.000000  celldm(5)=   0.000000  celldm(6)=   0.000000

     crystal axes: (cart. coord. in units of alat)
               a(1) = (   6.579727   0.000000   0.000000 )
               a(2) = (  -0.000775   5.961596   0.000000 )
               a(3) = (   0.000000   0.000000  25.155947 )

     reciprocal axes: (cart. coord. in units 2 pi/alat)
               b(1) = (  0.151982  0.000020  0.000000 )
               b(2) = (  0.000000  0.167740  0.000000 )
               b(3) = (  0.000000  0.000000  0.039752 )

     PseudoPot. # 1 for Ti read from file:
     /storage/coda1/p-amedford6/0/shared/rich_project_chbe-medford/medford-share/data/pseudos_module/espresso/nninc/pbe/van/Ti.UPF
     MD5 check sum: 8e4df49b7f0d34bbd5052bf3f5ea0213
     Pseudo is Ultrasoft, Zval = 12.0
     Generated by new atomic code, or converted to UPF format
     Using radial grid of  851 points,  6 beta functions with:
                l(1) =   0
                l(2) =   0
                l(3) =   1
                l(4) =   1
                l(5) =   2
                l(6) =   2
     Q(r) pseudized with  8 coefficients,  rinner =    1.000   1.000   1.000
                                                       1.000   1.000

     PseudoPot. # 2 for O  read from file:
     /storage/coda1/p-amedford6/0/shared/rich_project_chbe-medford/medford-share/data/pseudos_module/espresso/nninc/pbe/van/O.UPF
     MD5 check sum: 78c19812648e8988a0fe644b0f25305e
     Pseudo is Ultrasoft, Zval =  6.0
     Generated by new atomic code, or converted to UPF format
     Using radial grid of  737 points,  4 beta functions with:
                l(1) =   0
                l(2) =   0
                l(3) =   1
                l(4) =   1
     Q(r) pseudized with  8 coefficients,  rinner =    0.800   0.800   0.800

     PseudoPot. # 3 for N  read from file:
     /storage/coda1/p-amedford6/0/shared/rich_project_chbe-medford/medford-share/data/pseudos_module/espresso/nninc/pbe/van/N.UPF
     MD5 check sum: 90d10febe142ad51ac9d5be1deb811c4
     Pseudo is Ultrasoft, Zval =  5.0
     Generated by new atomic code, or converted to UPF format
     Using radial grid of  729 points,  4 beta functions with:
                l(1) =   0
                l(2) =   0
                l(3) =   1
                l(4) =   1
     Q(r) pseudized with  8 coefficients,  rinner =    0.800   0.800   0.800

     PseudoPot. # 4 for C  read from file:
     /storage/coda1/p-amedford6/0/shared/rich_project_chbe-medford/medford-share/data/pseudos_module/espresso/nninc/pbe/van/C.UPF
     MD5 check sum: 1a69bf6b8db32088f5b2163dbdb77a27
     Pseudo is Ultrasoft, Zval =  4.0
     Generated by new atomic code, or converted to UPF format
     Using radial grid of  721 points,  4 beta functions with:
                l(1) =   0
                l(2) =   0
                l(3) =   1
                l(4) =   1
     Q(r) pseudized with  8 coefficients,  rinner =    0.800   0.800   0.800

     PseudoPot. # 5 for H  read from file:
     /storage/coda1/p-amedford6/0/shared/rich_project_chbe-medford/medford-share/data/pseudos_module/espresso/nninc/pbe/van/H.UPF
     MD5 check sum: b5ee9d7bfd3a09ee7748110bda690ff7
     Pseudo is Ultrasoft, Zval =  1.0
     Generated by new atomic code, or converted to UPF format
     Using radial grid of  615 points,  1 beta functions with:
                l(1) =   0
     Q(r) pseudized with  8 coefficients,  rinner =    0.800

     atomic species   valence    mass     pseudopotential
        Ti1           12.00    47.86700     Ti( 1.00)
        O1             6.00    15.99900     O ( 1.00)
        N1             5.00    14.00700     N ( 1.00)
        C1             4.00    12.01100     C ( 1.00)
        H1             1.00     1.00800     H ( 1.00)

     No symmetry found

   Cartesian axes

     site n.     atom                  positions (alat units)
         1           Ti1 tau(   1) = (   0.0004258   2.9801865   6.0000000  )
         2           Ti1 tau(   2) = (   3.2906075   1.4906267   6.0002472  )
         3           O1  tau(   3) = (   0.0006271   0.0005054   7.9858123  )
         4           O1  tau(   4) = (   3.2906025   0.0005020   7.3038282  )
         5           O1  tau(   5) = (   4.5942328   1.4918067   9.2879030  )
         6           O1  tau(   6) = (   1.9868534   1.4903216   9.2879459  )
         7           Ti1 tau(   7) = (   3.2907910   2.8959150   9.1758416  )
         8           Ti1 tau(   8) = (   0.0015273   1.4827037   9.2680791  )
         9           O1  tau(   9) = (   3.3121109   0.0111249  11.3310253  )
        10           O1  tau(  10) = (   0.0116148   5.9584955  10.6183126  )
        11           O1  tau(  11) = (   1.3329579   1.5011098  12.6063046  )
        12           O1  tau(  12) = (   5.3158149   1.4916659  12.6245769  )
        13           Ti1 tau(  13) = (   6.5431557   2.9598450  12.6156978  )
        14           Ti1 tau(  14) = (   3.2273839   1.5049138  12.4779161  )
        15           O1  tau(  15) = (   0.0471551   0.0364395  14.6528705  )
        16           O1  tau(  16) = (   3.3160098   0.0207640  13.9215624  )
        17           O1  tau(  17) = (   4.5810600   1.5471256  16.0564497  )
        18           O1  tau(  18) = (   2.0947546   1.5446786  16.0656860  )
        19           Ti1 tau(  19) = (   3.3354243   3.0239694  15.7034691  )
        20           Ti1 tau(  20) = (   0.0419518   1.5622418  15.8401859  )
        21           O1  tau(  21) = (   3.2904802   0.0005063   4.7018136  )
        22           O1  tau(  22) = (   0.0415632   0.0558952  17.2248266  )
        23           O1  tau(  23) = (   1.3043587   1.4918075   6.0039043  )
        24           O1  tau(  24) = (   5.2767064   1.4903225   6.0039473  )
        25           Ti1 tau(  25) = (   0.0000382   5.9609847   6.0000000  )
        26           Ti1 tau(  26) = (   3.2902200   4.4714249   6.0002472  )
        27           O1  tau(  27) = (   0.0002396   2.9813036   7.9858123  )
        28           O1  tau(  28) = (   3.2902150   2.9813002   7.3038282  )
        29           O1  tau(  29) = (   4.5938453   4.4726049   9.2879030  )
        30           O1  tau(  30) = (   1.9864658   4.4711199   9.2879459  )
        31           Ti1 tau(  31) = (   3.2891106   5.8743827   9.1763621  )
        32           Ti1 tau(  32) = (   0.0006254   4.4649316   9.2693709  )
        33           O1  tau(  33) = (   3.3101407   2.9955762  11.3294870  )
        34           O1  tau(  34) = (   0.0092240   2.9805883  10.6323155  )
        35           O1  tau(  35) = (   1.3272401   4.4878838  12.6173354  )
        36           O1  tau(  36) = (   5.3164082   4.4812184  12.6342743  )
        37           Ti1 tau(  37) = (   6.5430856   5.9365306  12.5602028  )
        38           Ti1 tau(  38) = (   3.2246414   4.4845729  12.4831641  )
        39           O1  tau(  39) = (   0.0420920   2.9623338  14.6463429  )
        40           O1  tau(  40) = (   3.3182946   3.0055568  13.9055467  )
        41           O1  tau(  41) = (   4.5797692   4.5125808  16.0776662  )
        42           O1  tau(  42) = (   2.0972274   4.5146901  16.0918111  )
        43           Ti1 tau(  43) = (   3.3319946   0.0399457  15.7186693  )
        44           Ti1 tau(  44) = (   0.0407629   4.6953510  16.1098173  )
        45           O1  tau(  45) = (   3.2900926   2.9813045   4.7018136  )
        46           O1  tau(  46) = (   1.3039711   4.4726057   6.0039043  )
        47           O1  tau(  47) = (   5.2763189   4.4711207   6.0039473  )
        48           N1  tau(  48) = (   0.0554023   2.9932257  17.3910969  )
        49           C1  tau(  49) = (   0.1090839   2.9222626  18.6472186  )
        50           H1  tau(  50) = (   0.1325839   3.8204711  19.2773028  )
        51           H1  tau(  51) = (   0.1417253   1.9549180  19.1625725  )

     number of k points=    10  Fermi-Dirac smearing, width (Ry)=  0.0073
                       cart. coord. in units 2pi/alat
        k(    1) = (   0.0000000   0.0000000   0.0000000), wk =   0.1250000
        k(    2) = (   0.0000000   0.0419351   0.0000000), wk =   0.2500000
        k(    3) = (   0.0000000  -0.0838702   0.0000000), wk =   0.1250000
        k(    4) = (   0.0379955   0.0000049   0.0000000), wk =   0.2500000
        k(    5) = (   0.0379955   0.0419400   0.0000000), wk =   0.2500000
        k(    6) = (   0.0379955  -0.0838652   0.0000000), wk =   0.2500000
        k(    7) = (   0.0379955  -0.0419301   0.0000000), wk =   0.2500000
        k(    8) = (  -0.0759910  -0.0000099   0.0000000), wk =   0.1250000
        k(    9) = (  -0.0759910   0.0419252   0.0000000), wk =   0.2500000
        k(   10) = (  -0.0759910  -0.0838800   0.0000000), wk =   0.1250000

     Initial potential from superposition of free atoms

     starting charge  372.99918, renormalised to  389.00000

     negative rho (up, down):  1.813E-02 0.000E+00

     %%%%%%%%%%%%%%%%%%%%%%%%%%%%%%%%%%%%%%%%%%%%%%%%%%%%%%%%%%%%%%%%%%%%%%%%
     %                                                                      %
     % You are using vdW-DF, which was implemented by the Thonhauser group. %
     % Please cite the following two papers that made this development      %
     % possible and the two reviews that describe the various versions:     %
     %                                                                      %
     %   T. Thonhauser et al., PRL 115, 136402 (2015).                      %
     %   T. Thonhauser et al., PRB 76, 125112 (2007).                       %
     %   K. Berland et al., Rep. Prog. Phys. 78, 066501 (2015).             %
     %   D.C. Langreth et al., J. Phys.: Condens. Matter 21, 084203 (2009). %
     %                                                                      %
     %                                                                      %
     % If you are calculating the stress with vdW-DF, please also cite:     %
     %                                                                      %
     %   R. Sabatini et al., J. Phys.: Condens. Matter 24, 424209 (2012).   %
     %                                                                      %
     %%%%%%%%%%%%%%%%%%%%%%%%%%%%%%%%%%%%%%%%%%%%%%%%%%%%%%%%%%%%%%%%%%%%%%%%

     Adding external electric field

     Computed dipole along edir(3) :
        Dipole               -4.6856 Ry au,        -11.9097 Debye
        Dipole field         -0.0088 Ry au,

        Potential amp.        0.8197 Ry
        Total length         46.3494 bohr

     Starting wfcs are  294 atomic wfcs
  @ DRIVER MODE: Message from server: STATUS
  @ DRIVER MODE: Message from server: POSDATA
  @ DRIVER MODE: Reading and sharing cell
  @ DRIVER MODE: Reading and sharing positions
  @ DRIVER MODE: Received positions

     Self-consistent Calculation

     iteration #  1     ecut=    29.40 Ry     beta= 0.05
     Davidson diagonalization with overlap
     c_bands:  3 eigenvalues not converged
     c_bands:  1 eigenvalues not converged
     c_bands:  1 eigenvalues not converged
     c_bands:  3 eigenvalues not converged
     c_bands:  3 eigenvalues not converged
     c_bands:  2 eigenvalues not converged
     c_bands:  2 eigenvalues not converged
     ethr =  1.00E-05,  avg # of iterations = 19.9

[...]

     total energy              =   -2865.79310418 Ry
     estimated scf accuracy    <     594.21279795 Ry

     iteration #  2     ecut=    29.40 Ry     beta= 0.05
     Davidson diagonalization with overlap
     ethr =  1.00E-02,  avg # of iterations = 14.1

[...]

     iteration # 56     ecut=    29.40 Ry     beta= 0.05
     Davidson diagonalization with overlap
     c_bands:  2 eigenvalues not converged
     ethr =  2.24E-11,  avg # of iterations = 10.6

[...]

     total energy              =   -2917.92294552 Ry
     estimated scf accuracy    <       0.00000008 Ry

     iteration # 57     ecut=    29.40 Ry     beta= 0.05
     Davidson diagonalization with overlap
     ethr =  2.08E-11,  avg # of iterations =  5.2

     negative rho (up, down):  1.843E-02 0.000E+00

     Adding external electric field

     Computed dipole along edir(3) :
        Dipole                0.7709 Ry au,          1.9594 Debye
        Dipole field          0.0015 Ry au,

        Potential amp.       -0.1349 Ry
        Total length         46.3494 bohr

     End of self-consistent calculation

          k = 0.0000 0.0000 0.0000 ( 18029 PWs)   bands (ev):

   -55.9941 -55.9849 -55.9600 -55.9486 -55.8718 -55.8419 -55.8218 -55.8076
   -55.8030 -55.7690 -55.7666 -55.7329 -55.5211 -55.2472 -54.9710 -54.9369
   -32.5393 -32.4764 -32.3432 -32.3240 -32.3018 -32.2968 -32.2871 -32.2573
   -32.2367 -32.2117 -32.2049 -32.1828 -32.1651 -32.1462 -32.1381 -32.1248
   -32.1043 -32.0983 -32.0838 -32.0512 -32.0506 -32.0477 -32.0016 -32.0003
   -31.9990 -31.9972 -31.9908 -31.9833 -31.9689 -31.9569 -31.9493 -31.9422
   -31.9334 -31.9334 -31.9198 -31.9104 -31.8789 -31.7707 -31.7031 -31.5363
   -31.5018 -31.4595 -31.3782 -31.2898 -31.2674 -31.1949 -31.1084 -30.9974
   -16.7366 -16.4681 -16.2431 -16.1461 -16.1152 -15.9988 -15.8329 -15.7144
   -15.6635 -15.5654 -15.5517 -15.5300 -15.4963 -15.4658 -15.4638 -15.4374
   -15.4340 -15.4145 -15.4013 -15.3535 -15.3311 -15.2967 -15.1990 -15.1681
   -15.1281 -15.1002 -15.0591 -15.0497 -14.9245 -14.5613 -13.4739 -13.3575
    -7.5585  -4.3321  -4.1141  -4.0029  -3.9489  -3.8995  -3.8408  -3.6341
    -3.5432  -3.5198  -3.2245  -3.1779  -3.1605  -3.1480  -3.1096  -2.8940
    -2.8404  -2.8088  -2.7877  -2.7735  -2.7624  -2.7546  -2.7345  -2.7076
    -2.5943  -2.5384  -2.5352  -2.4121  -2.3844  -2.3276  -2.3060  -2.2591
    -2.2435  -2.2349  -2.2081  -2.1970  -2.1839  -2.1529  -2.0754  -1.9618
    -1.8111  -1.7921  -1.7565  -1.6306  -1.6011  -1.5400  -1.4496  -1.4341
    -1.4195  -1.3853  -1.3683  -1.2968  -1.1710  -1.1467  -1.1372  -1.0365
    -0.9896  -0.9713  -0.8747  -0.8393  -0.7693  -0.7581  -0.7467  -0.7094
    -0.5477  -0.4921  -0.4627  -0.3958  -0.3661  -0.3074  -0.2941  -0.2655
    -0.1830  -0.1308  -0.1106  -0.1043  -0.0555  -0.0192  -0.0026   0.0070
     0.0181   0.0323   0.2047   0.2777   0.2846   0.3637   0.3734   0.5346
     0.5954   0.6630   0.7711   0.9761   1.0506   1.1399   1.2430   1.4376
     1.6219   1.6675   3.1423   3.2259   3.2741   3.2835   3.3850   3.4216
     3.5954   3.6017   3.6160   3.6901

[...]

          k = 0.0380-0.0419 0.0000 ( 17876 PWs)   bands (ev):

[...]

          k =-0.0760-0.0000 0.0000 ( 17886 PWs)   bands (ev):

[...]

          k =-0.0760-0.0839 0.0000 ( 17948 PWs)   bands (ev):

   -55.9775 -55.9765 -55.9694 -55.9639 -55.8648 -55.8287 -55.8251 -55.8244
   -55.7865 -55.7850 -55.7507 -55.7490 -55.5201 -55.2480 -54.9540 -54.9538
   -32.3451 -32.3400 -32.2920 -32.2913 -32.2729 -32.2720 -32.2548 -32.2428
   -32.1948 -32.1886 -32.1824 -32.1756 -32.1388 -32.1205 -32.1155 -32.1141
   -32.1047 -32.0988 -32.0969 -32.0960 -32.0897 -32.0871 -32.0682 -32.0440
   -32.0405 -32.0299 -32.0204 -32.0067 -31.9855 -31.9851 -31.9823 -31.9808
   -31.9653 -31.9645 -31.9608 -31.9578 -31.8833 -31.7733 -31.6993 -31.6017
   -31.5034 -31.4802 -31.2802 -31.2801 -31.1910 -31.1909 -31.1517 -31.1517
   -16.1688 -16.1496 -15.9378 -15.9105 -15.9056 -15.8942 -15.7659 -15.7053
   -15.6888 -15.6868 -15.6081 -15.5864 -15.5650 -15.5374 -15.5258 -15.5134
   -15.5073 -15.4988 -15.4557 -15.4496 -15.4300 -15.4229 -15.3201 -15.3105
   -15.3064 -15.2508 -15.1770 -15.0383 -14.9416 -14.7294 -13.4594 -13.4593
    -7.5544  -4.3142  -3.6883  -3.4593  -3.4366  -3.1680  -3.1509  -3.1420
    -3.0819  -2.9092  -2.8933  -2.8702  -2.8493  -2.8207  -2.8188  -2.7976
    -2.7956  -2.7846  -2.7405  -2.7333  -2.7077  -2.6710  -2.6608  -2.6493
    -2.6407  -2.6168  -2.6064  -2.5646  -2.5351  -2.5279  -2.5131  -2.4895
    -2.3041  -2.2212  -2.1948  -2.1315  -2.1242  -2.0893  -2.0578  -2.0458
    -2.0300  -1.9793  -1.9015  -1.7271  -1.6942  -1.6761  -1.6183  -1.5896
    -1.5488  -1.4626  -1.3945  -1.3699  -1.3640  -1.3153  -1.2067  -1.1850
    -1.1711  -1.0974  -1.0622  -1.0437  -1.0026  -0.9875  -0.9542  -0.9489
    -0.8556  -0.8061  -0.7594  -0.7571  -0.7115  -0.6452  -0.6323  -0.6047
    -0.4958  -0.4769  -0.4053  -0.3782  -0.2764  -0.2076  -0.0103   0.0521
     0.0776   0.1359   0.2161   0.2971   0.3116   0.3254   0.3258   0.3732
     0.4422   0.5384   0.5478   0.6013   0.7061   1.3316   1.4144   1.4150
     1.4873   1.4874   3.4280   3.4378   3.4771   3.4989   3.6351   3.6507
     3.6737   3.6748   3.7299   3.8298

     the Fermi energy is     3.1399 ev

!    total energy              =   -2917.92299875 Ry
     estimated scf accuracy    <       0.00000006 Ry
     smearing contrib. (-TS)   =      -0.02181549 Ry
     internal energy E=F+TS    =   -2917.90118326 Ry

     The total energy is F=E-TS. E is the sum of the following terms:
     one-electron contribution =  -24778.21026289 Ry
     hartree contribution      =   12472.76894154 Ry
     xc contribution           =    -479.18513937 Ry
     ewald contribution        =    9866.72415597 Ry
     electric field correction =       0.00112149 Ry

     convergence has been achieved in  57 iterations

     Forces acting on atoms (cartesian axes, Ry/au):

     atom    1 type  1   force =     0.00017416   -0.00023799    0.09669580
     atom    2 type  1   force =     0.00007038   -0.00053579   -0.17539665
     atom    3 type  2   force =     0.00018031    0.00000507   -0.02478481
     atom    4 type  2   force =     0.00005766   -0.00133216    0.05291435
     atom    5 type  2   force =    -0.01177732    0.00012349    0.00258663
     atom    6 type  2   force =     0.01394490    0.00050935    0.00338936
     atom    7 type  1   force =     0.00129523    0.00071386   -0.01177610
     atom    8 type  1   force =    -0.00005274    0.00766441    0.02820761
     atom    9 type  2   force =    -0.00024096   -0.00023767   -0.00012051
     atom   10 type  2   force =    -0.00220673    0.00207297   -0.01527892
     atom   11 type  2   force =     0.00000006   -0.00009546    0.00023101
     atom   12 type  2   force =    -0.00004518    0.00014103   -0.00005735
     atom   13 type  1   force =    -0.00104402   -0.00025075   -0.00002815
     atom   14 type  1   force =    -0.00022964   -0.00026402    0.00058217
     atom   15 type  2   force =    -0.00031133   -0.00001884   -0.00021581
     atom   16 type  2   force =     0.00025329    0.00007581   -0.00054005
     atom   17 type  2   force =     0.00002322    0.00005416   -0.00024083
     atom   18 type  2   force =    -0.00018237    0.00033048   -0.00049141
     atom   19 type  1   force =    -0.00060440    0.00010752   -0.00033028
     atom   20 type  1   force =     0.00008746   -0.00100868    0.00022121
     atom   21 type  2   force =     0.00008935   -0.00004898    0.10322776
     atom   22 type  2   force =     0.00045445   -0.00028500   -0.00004284
     atom   23 type  2   force =    -0.07147457   -0.00015778   -0.02768058
     atom   24 type  2   force =     0.07146709    0.00033366   -0.02776551
     atom   25 type  1   force =     0.00018637   -0.00022520    0.09620246
     atom   26 type  1   force =     0.00011309   -0.00028866   -0.17553392
     atom   27 type  2   force =     0.00022204   -0.00011735   -0.02386986
     atom   28 type  2   force =     0.00008994   -0.00110120    0.05286038
     atom   29 type  2   force =    -0.01198148    0.00067636    0.00233727
     atom   30 type  2   force =     0.01401414    0.00102620    0.00318846
     atom   31 type  1   force =     0.00114267    0.00335396   -0.01209701
     atom   32 type  1   force =    -0.00024467   -0.00974098    0.02864331
     atom   33 type  2   force =    -0.00017528    0.00031452   -0.00009339
     atom   34 type  2   force =    -0.00172823    0.00175490   -0.02356576
     atom   35 type  2   force =    -0.00000313    0.00009208    0.00023327
     atom   36 type  2   force =     0.00054841    0.00012214    0.00021469
     atom   37 type  1   force =    -0.00098730   -0.00038683    0.00024858
     atom   38 type  1   force =     0.00023337   -0.00011672    0.00051672
     atom   39 type  2   force =    -0.00006240   -0.00053323   -0.00074043
     atom   40 type  2   force =    -0.00004433    0.00025593    0.00045613
     atom   41 type  2   force =    -0.00065561   -0.00046263   -0.00015410
     atom   42 type  2   force =    -0.00011080   -0.00073392   -0.00072711
     atom   43 type  1   force =    -0.00045345    0.00001328   -0.00009881
     atom   44 type  1   force =     0.00014807    0.00030801    0.00043279
     atom   45 type  2   force =     0.00006670   -0.00006731    0.10324257
     atom   46 type  2   force =    -0.07147934   -0.00008408   -0.02769210
     atom   47 type  2   force =     0.07149295    0.00033835   -0.02777161
     atom   48 type  3   force =     0.00055340   -0.00055446    0.00025950
     atom   49 type  4   force =     0.00024441   -0.00050891   -0.00028890
     atom   50 type  5   force =    -0.00042713   -0.00030289   -0.00002421
     atom   51 type  5   force =    -0.00063067   -0.00069003    0.00051495

     Total force =     0.367947     Total SCF correction =     0.000550
  @ DRIVER MODE: Message from server: STATUS
  @ DRIVER MODE: Message from server: GETFORCE
  @ DRIVER MODE: Returning v,forces,stress,ensemble

     Writing output data file ./calc.save/
  @ DRIVER MODE: Message from server: EXIT
  @ DRIVE MODE: Exiting

     General routines

     Parallel routines

   This run was terminated on:  13:50:23  24Aug2021

   JOB DONE.