     Program PWSCF v.6.7GPU starts on  2Aug2021 at 16:12:55

     R & G space division:  proc/nbgrp/npool/nimage =      16
     Reading input from /storage/home/hcoda1/3/ntian30/research/carbon/02Aug_vib_paired/ads_slab/CH3NNHH_a/out_0011/pw.inp
Warning: card &CELL ignored
Warning: card   CELL_DYNAMICS='IPI', ignored
Warning: card / ignored

     Current dimensions of program PWSCF are:
     Max number of different atomic species (ntypx) = 10
     Max number of k-points (npk) =  40000
     Max angular momentum in pseudopotentials (lmaxx) =  3
     Presently no symmetry can be used with electric field

     Message from routine cell_base_init:
     DEPRECATED: use true lattice parameter, not A to a.u. conversion factor

     IMPORTANT: XC functional enforced from input :
     Exchange-correlation= BEEF-VDW
                           (   1   4  43  14   2   0   0)
     Any further DFT definition will be discarded
     Please, verify this is what you really want

  @ DRIVER MODE: Connecting to
 qe_1139763_2482543.sched-torque.pace.gatech.eduop9w0ni9_scratch
  using UNIX socket
  @ DRIVER MODE: Message from server: STATUS
  @ DRIVER MODE: Message from server: INIT
  @ DRIVER MODE: Receiving replica           0          -1
  @ DRIVER MODE: Receiving encoded integer          25
  @ DRIVER MODE:  SCF:  T  FORCE:  T  STRESS:  F  VC:  F  ENSEMBLE:  F
  @ DRIVER MODE:  SCF:  T  FORCE:  T  STRESS:  F  VC:  F  ENSEMBLE:  F

     Using Slab Decomposition

     bravais-lattice index     =            0
     lattice parameter (alat)  =       1.8897  a.u.
     unit-cell volume          =    6658.9804 (a.u.)^3
     number of atoms/cell      =           55
     number of atomic types    =            5
     number of electrons       =       397.00
     number of Kohn-Sham states=          208
     kinetic-energy cutoff     =      29.3995  Ry
     charge density cutoff     =     293.9946  Ry
     scf convergence threshold =      7.3E-08
     mixing beta               =       0.0500
     number of iterations used =            8  plain     mixing
     Exchange-correlation= BEEF-VDW
                           (   1   4  43  14   2   0   0)

     celldm(1)=   1.889726  celldm(2)=   0.000000  celldm(3)=   0.000000
     celldm(4)=   0.000000  celldm(5)=   0.000000  celldm(6)=   0.000000

     crystal axes: (cart. coord. in units of alat)
               a(1) = (   6.579727   0.000000   0.000000 )
               a(2) = (  -0.000775   5.961596   0.000000 )
               a(3) = (   0.000000   0.000000  25.155947 )

     reciprocal axes: (cart. coord. in units 2 pi/alat)
               b(1) = (  0.151982  0.000020  0.000000 )
               b(2) = (  0.000000  0.167740  0.000000 )
               b(3) = (  0.000000  0.000000  0.039752 )

     PseudoPot. # 1 for Ti read from file:
     /storage/coda1/p-amedford6/0/shared/rich_project_chbe-medford/medford-share/data/pseudos_module/espresso/nninc/pbe/van/Ti.UPF
     MD5 check sum: 8e4df49b7f0d34bbd5052bf3f5ea0213
     Pseudo is Ultrasoft, Zval = 12.0
     Generated by new atomic code, or converted to UPF format
     Using radial grid of  851 points,  6 beta functions with:
                l(1) =   0
                l(2) =   0
                l(3) =   1
                l(4) =   1
                l(5) =   2
                l(6) =   2
     Q(r) pseudized with  8 coefficients,  rinner =    1.000   1.000   1.000
                                                       1.000   1.000

     PseudoPot. # 2 for O  read from file:
     /storage/coda1/p-amedford6/0/shared/rich_project_chbe-medford/medford-share/data/pseudos_module/espresso/nninc/pbe/van/O.UPF
     MD5 check sum: 78c19812648e8988a0fe644b0f25305e
     Pseudo is Ultrasoft, Zval =  6.0
     Generated by new atomic code, or converted to UPF format
     Using radial grid of  737 points,  4 beta functions with:
                l(1) =   0
                l(2) =   0
                l(3) =   1
                l(4) =   1
     Q(r) pseudized with  8 coefficients,  rinner =    0.800   0.800   0.800

     PseudoPot. # 3 for N  read from file:
     /storage/coda1/p-amedford6/0/shared/rich_project_chbe-medford/medford-share/data/pseudos_module/espresso/nninc/pbe/van/N.UPF
     MD5 check sum: 90d10febe142ad51ac9d5be1deb811c4
     Pseudo is Ultrasoft, Zval =  5.0
     Generated by new atomic code, or converted to UPF format
     Using radial grid of  729 points,  4 beta functions with:
                l(1) =   0
                l(2) =   0
                l(3) =   1
                l(4) =   1
     Q(r) pseudized with  8 coefficients,  rinner =    0.800   0.800   0.800

     PseudoPot. # 4 for C  read from file:
     /storage/coda1/p-amedford6/0/shared/rich_project_chbe-medford/medford-share/data/pseudos_module/espresso/nninc/pbe/van/C.UPF
     MD5 check sum: 1a69bf6b8db32088f5b2163dbdb77a27
     Pseudo is Ultrasoft, Zval =  4.0
     Generated by new atomic code, or converted to UPF format
     Using radial grid of  721 points,  4 beta functions with:
                l(1) =   0
                l(2) =   0
                l(3) =   1
                l(4) =   1
     Q(r) pseudized with  8 coefficients,  rinner =    0.800   0.800   0.800

     PseudoPot. # 5 for H  read from file:
     /storage/coda1/p-amedford6/0/shared/rich_project_chbe-medford/medford-share/data/pseudos_module/espresso/nninc/pbe/van/H.UPF
     MD5 check sum: b5ee9d7bfd3a09ee7748110bda690ff7
     Pseudo is Ultrasoft, Zval =  1.0
     Generated by new atomic code, or converted to UPF format
     Using radial grid of  615 points,  1 beta functions with:
                l(1) =   0
     Q(r) pseudized with  8 coefficients,  rinner =    0.800

     atomic species   valence    mass     pseudopotential
        Ti1           12.00    47.86700     Ti( 1.00)
        O1             6.00    15.99900     O ( 1.00)
        N1             5.00    14.00700     N ( 1.00)
        C1             4.00    12.01100     C ( 1.00)
        H1             1.00     1.00800     H ( 1.00)

     No symmetry found

   Cartesian axes

     site n.     atom                  positions (alat units)
         1           Ti1 tau(   1) = (   0.0004258   2.9801865   6.0000000  )
         2           Ti1 tau(   2) = (   3.2906075   1.4906267   6.0002472  )
         3           O1  tau(   3) = (   0.0006271   0.0005054   7.9858123  )
         4           O1  tau(   4) = (   3.2906025   0.0005020   7.3038282  )
         5           O1  tau(   5) = (   4.5942328   1.4918067   9.2879030  )
         6           O1  tau(   6) = (   1.9868534   1.4903216   9.2879459  )
         7           Ti1 tau(   7) = (   3.2907910   2.8959150   9.1758416  )
         8           Ti1 tau(   8) = (   0.0015273   1.4827037   9.2680791  )
         9           O1  tau(   9) = (   3.3049802   0.0007868  11.3057318  )
        10           O1  tau(  10) = (   0.0116148   5.9584955  10.6183126  )
        11           O1  tau(  11) = (   1.3244024   1.4905818  12.6109357  )
        12           O1  tau(  12) = (   5.3168099   1.4893704  12.6271843  )
        13           Ti1 tau(  13) = (   6.5373159   3.0114403  12.6515439  )
        14           Ti1 tau(  14) = (   3.2156784   1.4952808  12.4541107  )
        15           O1  tau(  15) = (   0.0550716   5.9579553  14.6769760  )
        16           O1  tau(  16) = (   3.3119233   0.0240268  13.8744051  )
        17           O1  tau(  17) = (   4.5754650   1.5399768  16.1198157  )
        18           O1  tau(  18) = (   2.0928293   1.5118261  15.9950610  )
        19           Ti1 tau(  19) = (   3.3312717   3.0210965  15.6459898  )
        20           Ti1 tau(  20) = (   0.0837956   1.4057146  15.8023643  )
        21           O1  tau(  21) = (   3.2904802   0.0005063   4.7018136  )
        22           O1  tau(  22) = (   0.0662678   0.0194342  17.2484716  )
        23           O1  tau(  23) = (   1.3043587   1.4918075   6.0039043  )
        24           O1  tau(  24) = (   5.2767064   1.4903225   6.0039473  )
        25           Ti1 tau(  25) = (   0.0000382   5.9609847   6.0000000  )
        26           Ti1 tau(  26) = (   3.2902200   4.4714249   6.0002472  )
        27           O1  tau(  27) = (   0.0002396   2.9813036   7.9858123  )
        28           O1  tau(  28) = (   3.2902150   2.9813002   7.3038282  )
        29           O1  tau(  29) = (   4.5938453   4.4726049   9.2879030  )
        30           O1  tau(  30) = (   1.9864658   4.4711199   9.2879459  )
        31           Ti1 tau(  31) = (   3.2891106   5.8743827   9.1763621  )
        32           Ti1 tau(  32) = (   0.0006254   4.4649316   9.2693709  )
        33           O1  tau(  33) = (   3.3066024   2.9928613  11.3071500  )
        34           O1  tau(  34) = (   0.0092240   2.9805883  10.6323155  )
        35           O1  tau(  35) = (   1.3207996   4.4694119  12.6241097  )
        36           O1  tau(  36) = (   5.3140488   4.4801720  12.6365454  )
        37           Ti1 tau(  37) = (   6.5381296   0.0208815  12.5444857  )
        38           Ti1 tau(  38) = (   3.2183512   4.4801350  12.4586296  )
        39           O1  tau(  39) = (   0.0202472   2.9427232  14.7250097  )
        40           O1  tau(  40) = (   3.3152672   2.9848540  13.8607131  )
        41           O1  tau(  41) = (   4.5737023   4.5140360  15.9163038  )
        42           O1  tau(  42) = (   2.1295162   4.4918226  16.0779194  )
        43           Ti1 tau(  43) = (   3.3279662   0.0229233  15.6733299  )
        44           Ti1 tau(  44) = (   6.5520288   4.5036137  16.2892914  )
        45           O1  tau(  45) = (   3.2900926   2.9813045   4.7018136  )
        46           O1  tau(  46) = (   1.3039711   4.4726057   6.0039043  )
        47           O1  tau(  47) = (   5.2763189   4.4711207   6.0039473  )
        48           N1  tau(  48) = (   0.3708600   2.9881754  17.6030774  )
        49           C1  tau(  49) = (   1.3543844   2.7351176  18.6331602  )
        50           H1  tau(  50) = (   1.5086739   3.6319226  19.2591966  )
        51           H1  tau(  51) = (   1.0320479   1.9069190  19.2840631  )
        52           H1  tau(  52) = (   2.3019873   2.4496563  18.1994378  )
        53           N1  tau(  53) = (   5.7269228   3.4566738  18.1314761  )
        54           H1  tau(  54) = (   5.8315057   4.0292447  18.9662490  )
        55           H1  tau(  55) = (   5.0361168   2.7172796  18.2515220  )

     number of k points=    10  Fermi-Dirac smearing, width (Ry)=  0.0073
                       cart. coord. in units 2pi/alat
        k(    1) = (   0.0000000   0.0000000   0.0000000), wk =   0.1250000
        k(    2) = (   0.0000000   0.0419351   0.0000000), wk =   0.2500000
        k(    3) = (   0.0000000  -0.0838702   0.0000000), wk =   0.1250000
        k(    4) = (   0.0379955   0.0000049   0.0000000), wk =   0.2500000
        k(    5) = (   0.0379955   0.0419400   0.0000000), wk =   0.2500000
        k(    6) = (   0.0379955  -0.0838652   0.0000000), wk =   0.2500000
        k(    7) = (   0.0379955  -0.0419301   0.0000000), wk =   0.2500000
        k(    8) = (  -0.0759910  -0.0000099   0.0000000), wk =   0.1250000
        k(    9) = (  -0.0759910   0.0419252   0.0000000), wk =   0.2500000
        k(   10) = (  -0.0759910  -0.0838800   0.0000000), wk =   0.1250000

     Initial potential from superposition of free atoms

     starting charge  380.99914, renormalised to  397.00000

     negative rho (up, down):  1.666E-02 0.000E+00

     %%%%%%%%%%%%%%%%%%%%%%%%%%%%%%%%%%%%%%%%%%%%%%%%%%%%%%%%%%%%%%%%%%%%%%%%
     %                                                                      %
     % You are using vdW-DF, which was implemented by the Thonhauser group. %
     % Please cite the following two papers that made this development      %
     % possible and the two reviews that describe the various versions:     %
     %                                                                      %
     %   T. Thonhauser et al., PRL 115, 136402 (2015).                      %
     %   T. Thonhauser et al., PRB 76, 125112 (2007).                       %
     %   K. Berland et al., Rep. Prog. Phys. 78, 066501 (2015).             %
     %   D.C. Langreth et al., J. Phys.: Condens. Matter 21, 084203 (2009). %
     %                                                                      %
     %                                                                      %
     % If you are calculating the stress with vdW-DF, please also cite:     %
     %                                                                      %
     %   R. Sabatini et al., J. Phys.: Condens. Matter 24, 424209 (2012).   %
     %                                                                      %
     %%%%%%%%%%%%%%%%%%%%%%%%%%%%%%%%%%%%%%%%%%%%%%%%%%%%%%%%%%%%%%%%%%%%%%%%

     Adding external electric field

     Computed dipole along edir(3) :
        Dipole               -9.2508 Ry au,        -23.5132 Debye
        Dipole field         -0.0175 Ry au,

        Potential amp.        1.6183 Ry
        Total length         46.3494 bohr

     Starting wfcs are  301 atomic wfcs
  @ DRIVER MODE: Message from server: STATUS
  @ DRIVER MODE: Message from server: POSDATA
  @ DRIVER MODE: Reading and sharing cell
  @ DRIVER MODE: Reading and sharing positions
  @ DRIVER MODE: Received positions

     Self-consistent Calculation

     iteration #  1     ecut=    29.40 Ry     beta= 0.05
     Davidson diagonalization with overlap
     c_bands:  1 eigenvalues not converged
     c_bands:  2 eigenvalues not converged
     c_bands:  1 eigenvalues not converged
     c_bands:  2 eigenvalues not converged
     c_bands:  2 eigenvalues not converged
     c_bands:  1 eigenvalues not converged
     c_bands:  2 eigenvalues not converged
     c_bands:  2 eigenvalues not converged
     c_bands:  4 eigenvalues not converged
     ethr =  1.00E-05,  avg # of iterations = 19.7

[...]

     total energy              =   -2525.60257905 Ry
     estimated scf accuracy    <    4612.52234509 Ry

     iteration #  2     ecut=    29.40 Ry     beta= 0.05
     Davidson diagonalization with overlap
     ethr =  1.00E-02,  avg # of iterations = 23.4

[...]

     iteration # 79     ecut=    29.40 Ry     beta= 0.05
     Davidson diagonalization with overlap
     c_bands:  1 eigenvalues not converged
     ethr =  7.42E-11,  avg # of iterations = 14.7

[...]

     total energy              =   -2941.63735004 Ry
     estimated scf accuracy    <       0.00000016 Ry

     iteration # 81     ecut=    29.40 Ry     beta= 0.05
     Davidson diagonalization with overlap
     ethr =  3.92E-11,  avg # of iterations =  3.3

     negative rho (up, down):  1.675E-02 0.000E+00

     Adding external electric field

     Computed dipole along edir(3) :
        Dipole                1.1450 Ry au,          2.9103 Debye
        Dipole field          0.0022 Ry au,

        Potential amp.       -0.2003 Ry
        Total length         46.3494 bohr

     End of self-consistent calculation

          k = 0.0000 0.0000 0.0000 ( 18029 PWs)   bands (ev):

   -55.5750 -55.5721 -55.5382 -55.5380 -55.4614 -55.4251 -55.4234 -55.3899
   -55.3727 -55.3386 -55.3278 -55.2939 -55.0341 -54.8898 -54.5387 -54.5046
   -32.1377 -32.0534 -31.9586 -31.8944 -31.8894 -31.8747 -31.8647 -31.8204
   -31.8128 -31.8064 -31.7860 -31.7608 -31.7570 -31.7276 -31.7243 -31.7169
   -31.6754 -31.6621 -31.6593 -31.6504 -31.6495 -31.6294 -31.6132 -31.5976
   -31.5707 -31.5698 -31.5683 -31.5604 -31.5581 -31.5316 -31.5080 -31.5068
   -31.5007 -31.4943 -31.4823 -31.4761 -31.4415 -31.3106 -31.2591 -31.1607
   -31.1428 -31.0508 -30.9451 -30.8584 -30.8359 -30.7621 -30.6757 -30.5643
   -17.6105 -16.3638 -16.0506 -15.8395 -15.7283 -15.7237 -15.6399 -15.4189
   -15.2988 -15.2833 -15.1671 -15.1621 -15.1035 -15.0629 -15.0564 -15.0507
   -15.0159 -15.0039 -14.9854 -14.9550 -14.9168 -14.8991 -14.8790 -14.7729
   -14.7109 -14.7011 -14.6855 -14.6185 -14.5744 -14.2096 -13.0405 -12.9243
   -12.5788  -9.1945  -6.3555  -5.1251  -4.2197  -3.7420  -3.5510  -3.4755
    -3.4406  -3.3768  -3.3234  -3.1832  -3.1768  -2.7990  -2.7781  -2.7590
    -2.7375  -2.7348  -2.4669  -2.4129  -2.3972  -2.3947  -2.3770  -2.3599
    -2.3382  -2.3275  -2.2995  -2.2917  -2.1575  -2.1129  -2.0341  -2.0036
    -1.9929  -1.8804  -1.8570  -1.8354  -1.8244  -1.8104  -1.7815  -1.7740
    -1.7537  -1.6453  -1.5358  -1.4623  -1.4158  -1.3630  -1.3429  -1.1644
    -1.1144  -1.0537  -1.0296  -1.0046  -0.9897  -0.9561  -0.8819  -0.8586
    -0.7158  -0.6774  -0.6244  -0.5982  -0.5678  -0.5114  -0.4769  -0.4487
    -0.3505  -0.3401  -0.3283  -0.3152  -0.2552  -0.0676  -0.0201  -0.0021
     0.0136   0.1135   0.1535   0.1753   0.2134   0.2694   0.2949   0.3616
     0.3916   0.4111   0.4210   0.4452   0.4675   0.5991   0.6262   0.6571
     0.7157   0.7696   0.8461   0.9585   1.0445   1.0972   1.1985   1.4168
     1.4839   1.5679   1.6777   1.7013   2.0535   2.0985   3.5631   3.6534
     3.6918   3.7055   3.8124   3.8643   4.0120   4.0218   4.0646   4.0933

[...]

          k = 0.0380-0.0419 0.0000 ( 17876 PWs)   bands (ev):

[...]

          k =-0.0760-0.0000 0.0000 ( 17886 PWs)   bands (ev):

[...]

          k =-0.0760-0.0839 0.0000 ( 17948 PWs)   bands (ev):

   -55.5598 -55.5556 -55.5544 -55.5532 -55.4506 -55.4341 -55.4100 -55.4048
   -55.3571 -55.3538 -55.3125 -55.3094 -55.0327 -54.8911 -54.5216 -54.5215
   -31.9427 -31.9339 -31.8691 -31.8684 -31.8506 -31.8496 -31.8449 -31.8297
   -31.8029 -31.7891 -31.7697 -31.7509 -31.7228 -31.7142 -31.7091 -31.6841
   -31.6819 -31.6752 -31.6738 -31.6697 -31.6666 -31.6539 -31.6507 -31.6464
   -31.6273 -31.6152 -31.6051 -31.6032 -31.5545 -31.5524 -31.5453 -31.5436
   -31.5364 -31.5329 -31.5278 -31.5263 -31.4158 -31.3228 -31.2610 -31.2217
   -31.1484 -31.0628 -30.8487 -30.8486 -30.7579 -30.7578 -30.7190 -30.7189
   -17.5988 -15.8214 -15.7858 -15.5282 -15.5207 -15.5189 -15.4773 -15.3546
   -15.3060 -15.2795 -15.2679 -15.2490 -15.2426 -15.1377 -15.1252 -15.1078
   -15.0981 -15.0722 -15.0286 -15.0228 -15.0155 -15.0052 -14.9934 -14.9290
   -14.8741 -14.8703 -14.7615 -14.6670 -14.5241 -14.4398 -13.0263 -13.0260
   -12.5979  -9.1548  -6.3144  -5.1569  -4.1560  -3.3909  -3.1226  -3.0786
    -2.7901  -2.7708  -2.7570  -2.6407  -2.5205  -2.5115  -2.4869  -2.4633
    -2.4310  -2.4163  -2.4078  -2.3995  -2.3812  -2.3628  -2.3519  -2.3133
    -2.2438  -2.2362  -2.2270  -2.2192  -2.2026  -2.1786  -2.1685  -2.1406
    -2.1161  -2.0827  -2.0231  -1.9930  -1.8419  -1.7959  -1.7405  -1.6977
    -1.6892  -1.6598  -1.6264  -1.6188  -1.5106  -1.4961  -1.4618  -1.3312
    -1.2704  -1.2622  -1.2297  -1.1441  -1.1040  -0.9748  -0.9609  -0.9254
    -0.8707  -0.8608  -0.8234  -0.7862  -0.7346  -0.6825  -0.6390  -0.6142
    -0.5966  -0.5259  -0.5252  -0.4784  -0.4216  -0.3523  -0.3283  -0.3204
    -0.2893  -0.2447  -0.1993  -0.1342  -0.0594  -0.0386  -0.0238   0.0741
     0.1506   0.3663   0.4119   0.5133   0.5332   0.5581   0.6216   0.6702
     0.7400   0.7538   0.7833   0.8570   0.8783   0.9699   0.9805   0.9968
     1.1756   1.6316   1.8494   1.8503   1.9181   1.9187   3.8572   3.8707
     3.8969   3.9209   4.0823   4.0861   4.0983   4.1010   4.2214   4.2517

     the Fermi energy is     3.5619 ev

!    total energy              =   -2941.63735589 Ry
     estimated scf accuracy    <       0.00000007 Ry
     smearing contrib. (-TS)   =      -0.02170653 Ry
     internal energy E=F+TS    =   -2941.61564936 Ry

     The total energy is F=E-TS. E is the sum of the following terms:
     one-electron contribution =  -24407.25846237 Ry
     hartree contribution      =   12295.54632655 Ry
     xc contribution           =    -486.94536560 Ry
     ewald contribution        =    9657.03937794 Ry
     electric field correction =       0.00247411 Ry

     convergence has been achieved in  81 iterations

     Forces acting on atoms (cartesian axes, Ry/au):

     atom    1 type  1   force =     0.00002685   -0.00018016    0.09681154
     atom    2 type  1   force =     0.00010609   -0.00067148   -0.17458696
     atom    3 type  2   force =     0.00020180   -0.00005471   -0.02507335
     atom    4 type  2   force =     0.00001552   -0.00122332    0.05108820
     atom    5 type  2   force =    -0.01108492   -0.00079345    0.00213610
     atom    6 type  2   force =     0.01303673   -0.00029396    0.00281371
     atom    7 type  1   force =     0.00114260    0.00019513   -0.01336315
     atom    8 type  1   force =    -0.00018614    0.01541313    0.02796286
     atom    9 type  2   force =    -0.00011286    0.00045161    0.00000842
     atom   10 type  2   force =    -0.00221516    0.00097501   -0.01126415
     atom   11 type  2   force =     0.00029464   -0.00011705    0.00018138
     atom   12 type  2   force =    -0.00026870   -0.00012513    0.00040883
     atom   13 type  1   force =    -0.00008251   -0.00027211    0.00012911
     atom   14 type  1   force =     0.00012045    0.00012105   -0.00005066
     atom   15 type  2   force =     0.00010153   -0.00054237   -0.00035539
     atom   16 type  2   force =    -0.00043685    0.00016993    0.00028556
     atom   17 type  2   force =    -0.00019856   -0.00002262   -0.00006793
     atom   18 type  2   force =    -0.00041690   -0.00006018    0.00006572
     atom   19 type  1   force =     0.00000435    0.00035018   -0.00032784
     atom   20 type  1   force =    -0.00039688   -0.00007007    0.00006513
     atom   21 type  2   force =     0.00004974   -0.00009492    0.10296615
     atom   22 type  2   force =    -0.00075552   -0.00040138    0.00026503
     atom   23 type  2   force =    -0.07178325   -0.00022115   -0.02778588
     atom   24 type  2   force =     0.07175648    0.00023608   -0.02784904
     atom   25 type  1   force =     0.00004801   -0.00023185    0.09634987
     atom   26 type  1   force =    -0.00001059   -0.00030731   -0.17484810
     atom   27 type  2   force =     0.00020365   -0.00025655   -0.02391594
     atom   28 type  2   force =     0.00007641   -0.00096146    0.05131547
     atom   29 type  2   force =    -0.01108478    0.00095057    0.00149664
     atom   30 type  2   force =     0.01288887    0.00119511    0.00212679
     atom   31 type  1   force =     0.00115146    0.00256968   -0.01566509
     atom   32 type  1   force =    -0.00002375   -0.01666977    0.02887926
     atom   33 type  2   force =    -0.00017676   -0.00045115    0.00043318
     atom   34 type  2   force =    -0.00258194    0.00114423   -0.01890653
     atom   35 type  2   force =    -0.00010880   -0.00011064    0.00004404
     atom   36 type  2   force =    -0.00004004   -0.00018743    0.00023457
     atom   37 type  1   force =    -0.00025531   -0.00015908    0.00051059
     atom   38 type  1   force =     0.00011030   -0.00053749    0.00035136
     atom   39 type  2   force =     0.00005007    0.00046723    0.00015194
     atom   40 type  2   force =    -0.00031613   -0.00012715   -0.00068878
     atom   41 type  2   force =     0.00018442    0.00000634    0.00006063
     atom   42 type  2   force =    -0.00023785    0.00016185    0.00021556
     atom   43 type  1   force =     0.00004042   -0.00044308   -0.00076405
     atom   44 type  1   force =    -0.00068314    0.00141408   -0.00052411
     atom   45 type  2   force =     0.00006143   -0.00011452    0.10296545
     atom   46 type  2   force =    -0.07180494   -0.00017017   -0.02781024
     atom   47 type  2   force =     0.07176387    0.00021461   -0.02785172
     atom   48 type  3   force =    -0.00323206   -0.00046958   -0.00594751
     atom   49 type  4   force =    -0.00256990    0.00163191    0.01865999
     atom   50 type  5   force =    -0.00029540   -0.00390342   -0.00370377
     atom   51 type  5   force =     0.00092815    0.00305919   -0.00450177
     atom   52 type  5   force =     0.00494639   -0.00137258   -0.00358896
     atom   53 type  3   force =     0.00106577    0.00032391    0.00093101
     atom   54 type  5   force =     0.00080135   -0.00022085    0.00126315
     atom   55 type  5   force =     0.00018225    0.00078732   -0.00173633

     Total force =     0.367764     Total SCF correction =     0.000670
  @ DRIVER MODE: Message from server: STATUS
  @ DRIVER MODE: Message from server: GETFORCE
  @ DRIVER MODE: Returning v,forces,stress,ensemble

     Writing output data file ./calc.save/
  @ DRIVER MODE: Message from server: EXIT
  @ DRIVE MODE: Exiting

     General routines

     Parallel routines

   This run was terminated on:  16:32:22   2Aug2021

   JOB DONE.