     Program PWSCF v.6.7GPU starts on 15Sep2021 at 21:15:22

     R & G space division:  proc/nbgrp/npool/nimage =      10
     Reading input from /storage/home/hcoda1/3/ntian30/research/carbon/CxH_vib/H2O_calc/ads_slab/CH2NHH2O_a/out_0017/pw.inp
Warning: card &CELL ignored
Warning: card   CELL_DYNAMICS='IPI', ignored
Warning: card / ignored

     Current dimensions of program PWSCF are:
     Max number of different atomic species (ntypx) = 10
     Max number of k-points (npk) =  40000
     Max angular momentum in pseudopotentials (lmaxx) =  3
     Presently no symmetry can be used with electric field

     Message from routine cell_base_init:
     DEPRECATED: use true lattice parameter, not A to a.u. conversion factor

     IMPORTANT: XC functional enforced from input :
     Exchange-correlation= BEEF-VDW
                           (   1   4  43  14   2   0   0)
     Any further DFT definition will be discarded
     Please, verify this is what you really want

  @ DRIVER MODE: Connecting to
 qe_1139763_2852608.sched-torque.pace.gatech.eduh2n21645_scratch
  using UNIX socket
  @ DRIVER MODE: Message from server: STATUS
  @ DRIVER MODE: Message from server: INIT
  @ DRIVER MODE: Receiving replica           0          -1
  @ DRIVER MODE: Receiving encoded integer          25
  @ DRIVER MODE:  SCF:  T  FORCE:  T  STRESS:  F  VC:  F  ENSEMBLE:  F
  @ DRIVER MODE:  SCF:  T  FORCE:  T  STRESS:  F  VC:  F  ENSEMBLE:  F

     Using Slab Decomposition

     bravais-lattice index     =            0
     lattice parameter (alat)  =       1.8897  a.u.
     unit-cell volume          =    6658.9804 (a.u.)^3
     number of atoms/cell      =           55
     number of atomic types    =            5
     number of electrons       =       398.00
     number of Kohn-Sham states=          209
     kinetic-energy cutoff     =      29.3995  Ry
     charge density cutoff     =     293.9946  Ry
     scf convergence threshold =      7.3E-08
     mixing beta               =       0.0500
     number of iterations used =            8  plain     mixing
     Exchange-correlation= BEEF-VDW
                           (   1   4  43  14   2   0   0)

     celldm(1)=   1.889726  celldm(2)=   0.000000  celldm(3)=   0.000000
     celldm(4)=   0.000000  celldm(5)=   0.000000  celldm(6)=   0.000000

     crystal axes: (cart. coord. in units of alat)
               a(1) = (   6.579727   0.000000   0.000000 )
               a(2) = (  -0.000775   5.961596   0.000000 )
               a(3) = (   0.000000   0.000000  25.155947 )

     reciprocal axes: (cart. coord. in units 2 pi/alat)
               b(1) = (  0.151982  0.000020  0.000000 )
               b(2) = (  0.000000  0.167740  0.000000 )
               b(3) = (  0.000000  0.000000  0.039752 )

     PseudoPot. # 1 for Ti read from file:
     /storage/coda1/p-amedford6/0/shared/rich_project_chbe-medford/medford-share/data/pseudos_module/espresso/nninc/pbe/van/Ti.UPF
     MD5 check sum: 8e4df49b7f0d34bbd5052bf3f5ea0213
     Pseudo is Ultrasoft, Zval = 12.0
     Generated by new atomic code, or converted to UPF format
     Using radial grid of  851 points,  6 beta functions with:
                l(1) =   0
                l(2) =   0
                l(3) =   1
                l(4) =   1
                l(5) =   2
                l(6) =   2
     Q(r) pseudized with  8 coefficients,  rinner =    1.000   1.000   1.000
                                                       1.000   1.000

     PseudoPot. # 2 for O  read from file:
     /storage/coda1/p-amedford6/0/shared/rich_project_chbe-medford/medford-share/data/pseudos_module/espresso/nninc/pbe/van/O.UPF
     MD5 check sum: 78c19812648e8988a0fe644b0f25305e
     Pseudo is Ultrasoft, Zval =  6.0
     Generated by new atomic code, or converted to UPF format
     Using radial grid of  737 points,  4 beta functions with:
                l(1) =   0
                l(2) =   0
                l(3) =   1
                l(4) =   1
     Q(r) pseudized with  8 coefficients,  rinner =    0.800   0.800   0.800

     PseudoPot. # 3 for N  read from file:
     /storage/coda1/p-amedford6/0/shared/rich_project_chbe-medford/medford-share/data/pseudos_module/espresso/nninc/pbe/van/N.UPF
     MD5 check sum: 90d10febe142ad51ac9d5be1deb811c4
     Pseudo is Ultrasoft, Zval =  5.0
     Generated by new atomic code, or converted to UPF format
     Using radial grid of  729 points,  4 beta functions with:
                l(1) =   0
                l(2) =   0
                l(3) =   1
                l(4) =   1
     Q(r) pseudized with  8 coefficients,  rinner =    0.800   0.800   0.800

     PseudoPot. # 4 for C  read from file:
     /storage/coda1/p-amedford6/0/shared/rich_project_chbe-medford/medford-share/data/pseudos_module/espresso/nninc/pbe/van/C.UPF
     MD5 check sum: 1a69bf6b8db32088f5b2163dbdb77a27
     Pseudo is Ultrasoft, Zval =  4.0
     Generated by new atomic code, or converted to UPF format
     Using radial grid of  721 points,  4 beta functions with:
                l(1) =   0
                l(2) =   0
                l(3) =   1
                l(4) =   1
     Q(r) pseudized with  8 coefficients,  rinner =    0.800   0.800   0.800

     PseudoPot. # 5 for H  read from file:
     /storage/coda1/p-amedford6/0/shared/rich_project_chbe-medford/medford-share/data/pseudos_module/espresso/nninc/pbe/van/H.UPF
     MD5 check sum: b5ee9d7bfd3a09ee7748110bda690ff7
     Pseudo is Ultrasoft, Zval =  1.0
     Generated by new atomic code, or converted to UPF format
     Using radial grid of  615 points,  1 beta functions with:
                l(1) =   0
     Q(r) pseudized with  8 coefficients,  rinner =    0.800

     atomic species   valence    mass     pseudopotential
        Ti1           12.00    47.86700     Ti( 1.00)
        O1             6.00    15.99900     O ( 1.00)
        N1             5.00    14.00700     N ( 1.00)
        C1             4.00    12.01100     C ( 1.00)
        H1             1.00     1.00800     H ( 1.00)

     No symmetry found

   Cartesian axes

     site n.     atom                  positions (alat units)
         1           Ti1 tau(   1) = (   0.0004258   2.9801865   6.0000000  )
         2           Ti1 tau(   2) = (   3.2906075   1.4906267   6.0002472  )
         3           O1  tau(   3) = (   0.0006271   0.0005054   7.9858123  )
         4           O1  tau(   4) = (   3.2906025   0.0005020   7.3038282  )
         5           O1  tau(   5) = (   4.5942328   1.4918067   9.2879030  )
         6           O1  tau(   6) = (   1.9868534   1.4903216   9.2879459  )
         7           Ti1 tau(   7) = (   3.2907910   2.8959150   9.1758416  )
         8           Ti1 tau(   8) = (   0.0015273   1.4827037   9.2680791  )
         9           O1  tau(   9) = (   3.2898722   0.0008919  11.3582996  )
        10           O1  tau(  10) = (   0.0116148   5.9584955  10.6183126  )
        11           O1  tau(  11) = (   1.2941175   1.4997011  12.6415926  )
        12           O1  tau(  12) = (   5.2900041   1.4988670  12.6311679  )
        13           Ti1 tau(  13) = (   0.0286627   2.9677426  12.5549903  )
        14           Ti1 tau(  14) = (   3.3305619   1.4761135  12.5169476  )
        15           O1  tau(  15) = (   0.0011522   0.0488603  14.6479508  )
        16           O1  tau(  16) = (   3.3026717   0.0283160  13.9913086  )
        17           O1  tau(  17) = (   4.5493611   1.5432082  16.1208237  )
        18           O1  tau(  18) = (   2.0202358   1.5417912  16.1150647  )
        19           Ti1 tau(  19) = (   3.2887705   3.0075965  15.7001020  )
        20           Ti1 tau(  20) = (   0.0091052   1.4341126  16.0176487  )
        21           O1  tau(  21) = (   3.2904802   0.0005063   4.7018136  )
        22           O1  tau(  22) = (   6.5755782   5.8726442  17.1894482  )
        23           O1  tau(  23) = (   1.3043587   1.4918075   6.0039043  )
        24           O1  tau(  24) = (   5.2767064   1.4903225   6.0039473  )
        25           Ti1 tau(  25) = (   0.0000382   5.9609847   6.0000000  )
        26           Ti1 tau(  26) = (   3.2902200   4.4714249   6.0002472  )
        27           O1  tau(  27) = (   0.0002396   2.9813036   7.9858123  )
        28           O1  tau(  28) = (   3.2902150   2.9813002   7.3038282  )
        29           O1  tau(  29) = (   4.5938453   4.4726049   9.2879030  )
        30           O1  tau(  30) = (   1.9864658   4.4711199   9.2879459  )
        31           Ti1 tau(  31) = (   3.2891106   5.8743827   9.1763621  )
        32           Ti1 tau(  32) = (   0.0006254   4.4649316   9.2693709  )
        33           O1  tau(  33) = (   3.2934734   2.9861727  11.3537610  )
        34           O1  tau(  34) = (   0.0092240   2.9805883  10.6323155  )
        35           O1  tau(  35) = (   1.2909626   4.4766429  12.6619247  )
        36           O1  tau(  36) = (   5.2900193   4.4803912  12.6490267  )
        37           Ti1 tau(  37) = (   0.0281377   5.9553508  12.5047683  )
        38           Ti1 tau(  38) = (   3.3302429   4.4653876  12.5079491  )
        39           O1  tau(  39) = (   6.5693844   2.9599090  14.8264494  )
        40           O1  tau(  40) = (   3.2969629   2.9925989  13.9157470  )
        41           O1  tau(  41) = (   4.5484520   4.4472025  16.1223275  )
        42           O1  tau(  42) = (   2.0280084   4.4594140  16.0867804  )
        43           Ti1 tau(  43) = (   3.2969344   0.0408593  15.8189202  )
        44           Ti1 tau(  44) = (   0.0203989   4.6198729  15.8219907  )
        45           O1  tau(  45) = (   3.2900926   2.9813045   4.7018136  )
        46           O1  tau(  46) = (   1.3039711   4.4726057   6.0039043  )
        47           O1  tau(  47) = (   5.2763189   4.4711207   6.0039473  )
        48           N1  tau(  48) = (   6.4956655   2.7544209  17.8339637  )
        49           C1  tau(  49) = (   0.7364952   2.7663736  18.8366375  )
        50           H1  tau(  50) = (   0.4484493   3.1383336  19.8059577  )
        51           H1  tau(  51) = (   1.7396475   2.3816028  18.7013769  )
        52           H1  tau(  52) = (   5.5670006   3.0916272  18.0761613  )
        53           O1  tau(  53) = (   3.3072362   0.1002980  18.2711691  )
        54           H1  tau(  54) = (   4.1501014   5.6086691  18.4387546  )
        55           H1  tau(  55) = (   2.5909652   5.4478326  18.5068232  )

     number of k points=    10  Fermi-Dirac smearing, width (Ry)=  0.0073
                       cart. coord. in units 2pi/alat
        k(    1) = (   0.0000000   0.0000000   0.0000000), wk =   0.1250000
        k(    2) = (   0.0000000   0.0419351   0.0000000), wk =   0.2500000
        k(    3) = (   0.0000000  -0.0838702   0.0000000), wk =   0.1250000
        k(    4) = (   0.0379955   0.0000049   0.0000000), wk =   0.2500000
        k(    5) = (   0.0379955   0.0419400   0.0000000), wk =   0.2500000
        k(    6) = (   0.0379955  -0.0838652   0.0000000), wk =   0.2500000
        k(    7) = (   0.0379955  -0.0419301   0.0000000), wk =   0.2500000
        k(    8) = (  -0.0759910  -0.0000099   0.0000000), wk =   0.1250000
        k(    9) = (  -0.0759910   0.0419252   0.0000000), wk =   0.2500000
        k(   10) = (  -0.0759910  -0.0838800   0.0000000), wk =   0.1250000

     Initial potential from superposition of free atoms

     starting charge  381.99915, renormalised to  398.00000

     negative rho (up, down):  1.645E-02 0.000E+00

     %%%%%%%%%%%%%%%%%%%%%%%%%%%%%%%%%%%%%%%%%%%%%%%%%%%%%%%%%%%%%%%%%%%%%%%%
     %                                                                      %
     % You are using vdW-DF, which was implemented by the Thonhauser group. %
     % Please cite the following two papers that made this development      %
     % possible and the two reviews that describe the various versions:     %
     %                                                                      %
     %   T. Thonhauser et al., PRL 115, 136402 (2015).                      %
     %   T. Thonhauser et al., PRB 76, 125112 (2007).                       %
     %   K. Berland et al., Rep. Prog. Phys. 78, 066501 (2015).             %
     %   D.C. Langreth et al., J. Phys.: Condens. Matter 21, 084203 (2009). %
     %                                                                      %
     %                                                                      %
     % If you are calculating the stress with vdW-DF, please also cite:     %
     %                                                                      %
     %   R. Sabatini et al., J. Phys.: Condens. Matter 24, 424209 (2012).   %
     %                                                                      %
     %%%%%%%%%%%%%%%%%%%%%%%%%%%%%%%%%%%%%%%%%%%%%%%%%%%%%%%%%%%%%%%%%%%%%%%%

     Adding external electric field

     Computed dipole along edir(3) :
        Dipole              -10.3999 Ry au,        -26.4340 Debye
        Dipole field         -0.0196 Ry au,

        Potential amp.        1.8193 Ry
        Total length         46.3494 bohr

     Starting wfcs are  301 atomic wfcs
  @ DRIVER MODE: Message from server: STATUS
  @ DRIVER MODE: Message from server: POSDATA
  @ DRIVER MODE: Reading and sharing cell
  @ DRIVER MODE: Reading and sharing positions
  @ DRIVER MODE: Received positions

     Self-consistent Calculation

     iteration #  1     ecut=    29.40 Ry     beta= 0.05
     Davidson diagonalization with overlap
     c_bands:  3 eigenvalues not converged
     c_bands:  3 eigenvalues not converged
     c_bands:  1 eigenvalues not converged
     c_bands:  4 eigenvalues not converged
     c_bands:  4 eigenvalues not converged
     c_bands:  4 eigenvalues not converged
     c_bands:  2 eigenvalues not converged
     c_bands:  3 eigenvalues not converged
     c_bands:  2 eigenvalues not converged
     ethr =  1.00E-05,  avg # of iterations = 19.9

[...]

     total energy              =   -2485.29773715 Ry
     estimated scf accuracy    <    5245.73703457 Ry

     iteration #  2     ecut=    29.40 Ry     beta= 0.05
     Davidson diagonalization with overlap
     ethr =  1.00E-02,  avg # of iterations = 24.6

[...]

     iteration # 88     ecut=    29.40 Ry     beta= 0.05
     Davidson diagonalization with overlap
     ethr =  2.79E-11,  avg # of iterations =  2.4

[...]

     total energy              =   -2953.94953674 Ry
     estimated scf accuracy    <       0.00000008 Ry

     iteration # 89     ecut=    29.40 Ry     beta= 0.05
     Davidson diagonalization with overlap
     c_bands:  1 eigenvalues not converged
     ethr =  2.07E-11,  avg # of iterations = 11.6

     negative rho (up, down):  1.569E-02 0.000E+00

     Adding external electric field

     Computed dipole along edir(3) :
        Dipole                1.2833 Ry au,          3.2619 Debye
        Dipole field          0.0024 Ry au,

        Potential amp.       -0.2245 Ry
        Total length         46.3494 bohr

     End of self-consistent calculation

          k = 0.0000 0.0000 0.0000 ( 18029 PWs)   bands (ev):

   -55.3923 -55.3727 -55.3562 -55.3395 -55.3386 -55.2726 -55.2280 -55.2076
   -55.1977 -55.1889 -55.1721 -55.1652 -55.1224 -54.9944 -54.3825 -54.3484
   -31.9526 -31.8619 -31.7605 -31.7460 -31.7005 -31.6977 -31.6962 -31.6627
   -31.6559 -31.6228 -31.6172 -31.6062 -31.5864 -31.5693 -31.5686 -31.5344
   -31.5317 -31.5254 -31.5109 -31.5081 -31.4835 -31.4560 -31.4530 -31.4357
   -31.4297 -31.4067 -31.4055 -31.4026 -31.4007 -31.3940 -31.3747 -31.3680
   -31.3619 -31.3575 -31.3480 -31.3311 -31.3288 -31.3224 -31.3050 -31.2940
   -31.2211 -31.1081 -30.7909 -30.6991 -30.6769 -30.6075 -30.5208 -30.4097
   -19.1655 -16.2526 -16.1583 -15.9147 -15.7339 -15.6452 -15.5832 -15.3940
   -15.3524 -15.2617 -15.1788 -15.0873 -15.0329 -14.9892 -14.9794 -14.9583
   -14.9325 -14.9224 -14.8846 -14.8700 -14.8684 -14.8215 -14.8192 -14.7805
   -14.7716 -14.7276 -14.7058 -14.5970 -14.5410 -14.4867 -14.0592 -12.8850
   -12.7679  -9.1097  -6.9820  -6.0105  -4.4666  -3.5507  -3.4019  -3.3893
    -3.3027  -3.2963  -3.2287  -3.1180  -2.9286  -2.7744  -2.6890  -2.6449
    -2.5935  -2.5693  -2.5108  -2.4561  -2.3618  -2.2904  -2.2600  -2.2273
    -2.2098  -2.1906  -2.1669  -2.1435  -2.1032  -2.0788  -2.0419  -1.9400
    -1.8541  -1.8004  -1.7858  -1.7152  -1.6923  -1.6865  -1.6783  -1.6685
    -1.6642  -1.6559  -1.6027  -1.5795  -1.5380  -1.4103  -1.3405  -1.2359
    -1.1224  -1.0718  -1.0313  -1.0128  -0.9254  -0.9198  -0.8647  -0.7883
    -0.7553  -0.7146  -0.7017  -0.5745  -0.4925  -0.4814  -0.4305  -0.3568
    -0.2988  -0.2583  -0.2018  -0.1773  -0.1549  -0.1380   0.0023   0.0347
     0.0783   0.1062   0.1349   0.2098   0.2466   0.3087   0.3566   0.3638
     0.4115   0.4982   0.5119   0.5616   0.5658   0.6105   0.6295   0.7254
     0.7601   0.7687   0.8345   0.8686   1.0112   1.2272   1.2348   1.2821
     1.5550   1.6167   1.6401   1.8271   2.2141   2.2613   3.7012   3.7921
     3.8311   3.8497   3.8626   3.9370   4.0760   4.1918   4.1961   4.2260
     4.2392

[...]

          k = 0.0380-0.0419 0.0000 ( 17876 PWs)   bands (ev):

[...]

          k =-0.0760-0.0000 0.0000 ( 17886 PWs)   bands (ev):

[...]

          k =-0.0760-0.0839 0.0000 ( 17948 PWs)   bands (ev):

   -55.3761 -55.3723 -55.3556 -55.3555 -55.3374 -55.2645 -55.2361 -55.1917
   -55.1908 -55.1865 -55.1824 -55.1817 -55.1200 -54.9967 -54.3655 -54.3653
   -31.7624 -31.7514 -31.6771 -31.6770 -31.6598 -31.6491 -31.6481 -31.6480
   -31.6205 -31.6090 -31.5906 -31.5864 -31.5789 -31.5601 -31.5406 -31.5262
   -31.5247 -31.5218 -31.5173 -31.5125 -31.5068 -31.4943 -31.4751 -31.4748
   -31.4685 -31.4671 -31.4653 -31.4351 -31.4241 -31.4164 -31.4061 -31.4020
   -31.4012 -31.4010 -31.3895 -31.3839 -31.3618 -31.3601 -31.3395 -31.2901
   -31.2246 -31.1939 -30.6896 -30.6895 -30.6036 -30.6034 -30.5642 -30.5641
   -19.1647 -16.1952 -15.6516 -15.5921 -15.5220 -15.3670 -15.3610 -15.3360
   -15.2742 -15.1757 -15.1623 -15.1301 -15.1224 -15.0878 -15.0763 -15.0561
   -15.0347 -14.9621 -14.9541 -14.9494 -14.9267 -14.8953 -14.8805 -14.8717
   -14.8497 -14.8450 -14.7895 -14.7425 -14.7395 -14.5484 -14.3543 -12.8696
   -12.8694  -9.1149  -6.9802  -6.0094  -4.4485  -3.3319  -2.9269  -2.7964
    -2.7449  -2.5949  -2.5677  -2.5204  -2.4632  -2.4027  -2.3758  -2.3567
    -2.3088  -2.3027  -2.2553  -2.2417  -2.2209  -2.2195  -2.2106  -2.1643
    -2.1475  -2.1397  -2.1210  -2.1059  -2.0949  -2.0757  -2.0478  -2.0381
    -2.0040  -1.9736  -1.9600  -1.9379  -1.8833  -1.7676  -1.7377  -1.6948
    -1.5834  -1.5755  -1.5697  -1.5293  -1.4815  -1.4755  -1.4479  -1.4184
    -1.3496  -1.3219  -1.1305  -1.1182  -1.1047  -1.0391  -1.0125  -0.9151
    -0.8964  -0.8291  -0.8118  -0.7968  -0.7106  -0.6789  -0.5741  -0.5657
    -0.5493  -0.5145  -0.4075  -0.3601  -0.3522  -0.3473  -0.3260  -0.2429
    -0.2278  -0.2100  -0.1759  -0.1479  -0.1145  -0.1011  -0.0174   0.1525
     0.1624   0.2500   0.3498   0.4444   0.5650   0.6357   0.6445   0.6993
     0.7425   0.8239   0.8675   0.9054   0.9247   1.0358   1.0682   1.0841
     1.0906   1.1460   1.9992   2.0006   2.0813   2.0815   3.7821   3.9316
     4.0006   4.0180   4.0578   4.1836   4.2227   4.2746   4.2763   4.2814
     4.3691

     the Fermi energy is     3.7470 ev

!    total energy              =   -2953.94954265 Ry
     estimated scf accuracy    <       0.00000007 Ry
     smearing contrib. (-TS)   =      -0.03631791 Ry
     internal energy E=F+TS    =   -2953.91322474 Ry

     The total energy is F=E-TS. E is the sum of the following terms:
     one-electron contribution =  -24166.21208276 Ry
     hartree contribution      =   12176.50128998 Ry
     xc contribution           =    -488.90049777 Ry
     ewald contribution        =    9524.69495778 Ry
     electric field correction =       0.00310802 Ry

     convergence has been achieved in  89 iterations

     Forces acting on atoms (cartesian axes, Ry/au):

     atom    1 type  1   force =     0.00006246   -0.00021146    0.09432970
     atom    2 type  1   force =    -0.00029545   -0.00032910   -0.17715145
     atom    3 type  2   force =     0.00001542   -0.00013463   -0.02177513
     atom    4 type  2   force =    -0.00002252   -0.00175064    0.05662164
     atom    5 type  2   force =    -0.01064742   -0.00110930    0.00624892
     atom    6 type  2   force =     0.01214534   -0.00036208    0.00529620
     atom    7 type  1   force =    -0.00069410    0.00164163   -0.01077367
     atom    8 type  1   force =     0.00018722    0.00660365    0.00669623
     atom    9 type  2   force =     0.00025032   -0.00039153   -0.00054417
     atom   10 type  2   force =    -0.00109485    0.00064897   -0.01012656
     atom   11 type  2   force =    -0.00024639   -0.00016532   -0.00021620
     atom   12 type  2   force =     0.00036801   -0.00023735    0.00001800
     atom   13 type  1   force =     0.00019872   -0.00051532    0.00120031
     atom   14 type  1   force =    -0.00008370    0.00039603    0.00041489
     atom   15 type  2   force =     0.00008439    0.00016309    0.00117516
     atom   16 type  2   force =    -0.00018065   -0.00065759    0.00024261
     atom   17 type  2   force =    -0.00010298   -0.00010718   -0.00021229
     atom   18 type  2   force =    -0.00101143   -0.00001219    0.00051074
     atom   19 type  1   force =     0.00111191   -0.00037126   -0.00052169
     atom   20 type  1   force =    -0.00140579    0.00080881   -0.00044731
     atom   21 type  2   force =     0.00000491   -0.00004438    0.10368955
     atom   22 type  2   force =    -0.00002203    0.00049721    0.00069149
     atom   23 type  2   force =    -0.07087568   -0.00014543   -0.02714636
     atom   24 type  2   force =     0.07072056    0.00029517   -0.02721608
     atom   25 type  1   force =     0.00000976   -0.00013951    0.09408909
     atom   26 type  1   force =    -0.00022588   -0.00036245   -0.17730657
     atom   27 type  2   force =     0.00005421   -0.00032087   -0.02069610
     atom   28 type  2   force =     0.00005078   -0.00136352    0.05586554
     atom   29 type  2   force =    -0.01087342    0.00029290    0.00603152
     atom   30 type  2   force =     0.01227598    0.00055265    0.00506751
     atom   31 type  1   force =    -0.00057026    0.00495195   -0.01404139
     atom   32 type  1   force =     0.00030651   -0.00743944    0.00637037
     atom   33 type  2   force =     0.00025052    0.00012877   -0.00021027
     atom   34 type  2   force =    -0.00066641    0.00182306   -0.00595896
     atom   35 type  2   force =    -0.00000360   -0.00024180    0.00003279
     atom   36 type  2   force =     0.00023858   -0.00031492    0.00019428
     atom   37 type  1   force =     0.00022488    0.00091137    0.00051078
     atom   38 type  1   force =    -0.00009531    0.00005376    0.00066576
     atom   39 type  2   force =     0.00034342    0.00027568    0.00002781
     atom   40 type  2   force =    -0.00012074   -0.00037745    0.00056793
     atom   41 type  2   force =    -0.00060538   -0.00026280   -0.00037981
     atom   42 type  2   force =    -0.00024769    0.00011133    0.00038535
     atom   43 type  1   force =     0.00077844   -0.00142471   -0.00062781
     atom   44 type  1   force =    -0.00107622    0.00033319   -0.00153339
     atom   45 type  2   force =     0.00000583   -0.00009613    0.10366622
     atom   46 type  2   force =    -0.07090090   -0.00009580   -0.02715037
     atom   47 type  2   force =     0.07074340    0.00033352   -0.02720210
     atom   48 type  3   force =     0.00123174   -0.00090574   -0.00084961
     atom   49 type  4   force =     0.00274956   -0.00366315   -0.00983031
     atom   50 type  5   force =    -0.00262263    0.00348184    0.01058454
     atom   51 type  5   force =     0.00030016   -0.00035784   -0.00012398
     atom   52 type  5   force =    -0.00122534    0.00112163    0.00054054
     atom   53 type  2   force =     0.00088412   -0.00124453    0.00076684
     atom   54 type  5   force =    -0.00036860    0.00047762   -0.00004336
     atom   55 type  5   force =     0.00068817   -0.00074842   -0.00041739

     Total force =     0.365960     Total SCF correction =     0.000919
  @ DRIVER MODE: Message from server: STATUS
  @ DRIVER MODE: Message from server: GETFORCE
  @ DRIVER MODE: Returning v,forces,stress,ensemble

     Writing output data file ./calc.save/
  @ DRIVER MODE: Message from server: EXIT
  @ DRIVE MODE: Exiting

     General routines

     Parallel routines

   This run was terminated on:  21:39:20  15Sep2021

   JOB DONE.