     Program PWSCF v.6.7GPU starts on  3Aug2021 at  0:54:42

     R & G space division:  proc/nbgrp/npool/nimage =      16
     Reading input from /storage/home/hcoda1/3/ntian30/research/carbon/02Aug_vib_paired/ads_slab/CH3NNHHH_a/out_0047/pw.inp
Warning: card &CELL ignored
Warning: card   CELL_DYNAMICS='IPI', ignored
Warning: card / ignored

     Current dimensions of program PWSCF are:
     Max number of different atomic species (ntypx) = 10
     Max number of k-points (npk) =  40000
     Max angular momentum in pseudopotentials (lmaxx) =  3
     Presently no symmetry can be used with electric field

     Message from routine cell_base_init:
     DEPRECATED: use true lattice parameter, not A to a.u. conversion factor

     IMPORTANT: XC functional enforced from input :
     Exchange-correlation= BEEF-VDW
                           (   1   4  43  14   2   0   0)
     Any further DFT definition will be discarded
     Please, verify this is what you really want

  @ DRIVER MODE: Connecting to
 qe_1139763_2482545.sched-torque.pace.gatech.edui8ekmg7o_scratch
  using UNIX socket
  @ DRIVER MODE: Message from server: STATUS
  @ DRIVER MODE: Message from server: INIT
  @ DRIVER MODE: Receiving replica           0          -1
  @ DRIVER MODE: Receiving encoded integer          25
  @ DRIVER MODE:  SCF:  T  FORCE:  T  STRESS:  F  VC:  F  ENSEMBLE:  F
  @ DRIVER MODE:  SCF:  T  FORCE:  T  STRESS:  F  VC:  F  ENSEMBLE:  F

     Using Slab Decomposition

     bravais-lattice index     =            0
     lattice parameter (alat)  =       1.8897  a.u.
     unit-cell volume          =    6658.9804 (a.u.)^3
     number of atoms/cell      =           56
     number of atomic types    =            5
     number of electrons       =       398.00
     number of Kohn-Sham states=          209
     kinetic-energy cutoff     =      29.3995  Ry
     charge density cutoff     =     293.9946  Ry
     scf convergence threshold =      7.3E-08
     mixing beta               =       0.0500
     number of iterations used =            8  plain     mixing
     Exchange-correlation= BEEF-VDW
                           (   1   4  43  14   2   0   0)

     celldm(1)=   1.889726  celldm(2)=   0.000000  celldm(3)=   0.000000
     celldm(4)=   0.000000  celldm(5)=   0.000000  celldm(6)=   0.000000

     crystal axes: (cart. coord. in units of alat)
               a(1) = (   6.579727   0.000000   0.000000 )
               a(2) = (  -0.000775   5.961596   0.000000 )
               a(3) = (   0.000000   0.000000  25.155947 )

     reciprocal axes: (cart. coord. in units 2 pi/alat)
               b(1) = (  0.151982  0.000020  0.000000 )
               b(2) = (  0.000000  0.167740  0.000000 )
               b(3) = (  0.000000  0.000000  0.039752 )

     PseudoPot. # 1 for Ti read from file:
     /storage/coda1/p-amedford6/0/shared/rich_project_chbe-medford/medford-share/data/pseudos_module/espresso/nninc/pbe/van/Ti.UPF
     MD5 check sum: 8e4df49b7f0d34bbd5052bf3f5ea0213
     Pseudo is Ultrasoft, Zval = 12.0
     Generated by new atomic code, or converted to UPF format
     Using radial grid of  851 points,  6 beta functions with:
                l(1) =   0
                l(2) =   0
                l(3) =   1
                l(4) =   1
                l(5) =   2
                l(6) =   2
     Q(r) pseudized with  8 coefficients,  rinner =    1.000   1.000   1.000
                                                       1.000   1.000

     PseudoPot. # 2 for O  read from file:
     /storage/coda1/p-amedford6/0/shared/rich_project_chbe-medford/medford-share/data/pseudos_module/espresso/nninc/pbe/van/O.UPF
     MD5 check sum: 78c19812648e8988a0fe644b0f25305e
     Pseudo is Ultrasoft, Zval =  6.0
     Generated by new atomic code, or converted to UPF format
     Using radial grid of  737 points,  4 beta functions with:
                l(1) =   0
                l(2) =   0
                l(3) =   1
                l(4) =   1
     Q(r) pseudized with  8 coefficients,  rinner =    0.800   0.800   0.800

     PseudoPot. # 3 for N  read from file:
     /storage/coda1/p-amedford6/0/shared/rich_project_chbe-medford/medford-share/data/pseudos_module/espresso/nninc/pbe/van/N.UPF
     MD5 check sum: 90d10febe142ad51ac9d5be1deb811c4
     Pseudo is Ultrasoft, Zval =  5.0
     Generated by new atomic code, or converted to UPF format
     Using radial grid of  729 points,  4 beta functions with:
                l(1) =   0
                l(2) =   0
                l(3) =   1
                l(4) =   1
     Q(r) pseudized with  8 coefficients,  rinner =    0.800   0.800   0.800

     PseudoPot. # 4 for C  read from file:
     /storage/coda1/p-amedford6/0/shared/rich_project_chbe-medford/medford-share/data/pseudos_module/espresso/nninc/pbe/van/C.UPF
     MD5 check sum: 1a69bf6b8db32088f5b2163dbdb77a27
     Pseudo is Ultrasoft, Zval =  4.0
     Generated by new atomic code, or converted to UPF format
     Using radial grid of  721 points,  4 beta functions with:
                l(1) =   0
                l(2) =   0
                l(3) =   1
                l(4) =   1
     Q(r) pseudized with  8 coefficients,  rinner =    0.800   0.800   0.800

     PseudoPot. # 5 for H  read from file:
     /storage/coda1/p-amedford6/0/shared/rich_project_chbe-medford/medford-share/data/pseudos_module/espresso/nninc/pbe/van/H.UPF
     MD5 check sum: b5ee9d7bfd3a09ee7748110bda690ff7
     Pseudo is Ultrasoft, Zval =  1.0
     Generated by new atomic code, or converted to UPF format
     Using radial grid of  615 points,  1 beta functions with:
                l(1) =   0
     Q(r) pseudized with  8 coefficients,  rinner =    0.800

     atomic species   valence    mass     pseudopotential
        Ti1           12.00    47.86700     Ti( 1.00)
        O1             6.00    15.99900     O ( 1.00)
        N1             5.00    14.00700     N ( 1.00)
        C1             4.00    12.01100     C ( 1.00)
        H1             1.00     1.00800     H ( 1.00)

     No symmetry found

   Cartesian axes

     site n.     atom                  positions (alat units)
         1           Ti1 tau(   1) = (   0.0004258   2.9801865   6.0000000  )
         2           Ti1 tau(   2) = (   3.2906075   1.4906267   6.0002472  )
         3           O1  tau(   3) = (   0.0006271   0.0005054   7.9858123  )
         4           O1  tau(   4) = (   3.2906025   0.0005020   7.3038282  )
         5           O1  tau(   5) = (   4.5942328   1.4918067   9.2879030  )
         6           O1  tau(   6) = (   1.9868534   1.4903216   9.2879459  )
         7           Ti1 tau(   7) = (   3.2907910   2.8959150   9.1758416  )
         8           Ti1 tau(   8) = (   0.0015273   1.4827037   9.2680791  )
         9           O1  tau(   9) = (   3.2969863   5.9453513  11.3493076  )
        10           O1  tau(  10) = (   0.0116148   5.9584955  10.6183126  )
        11           O1  tau(  11) = (   1.3059050   1.4736943  12.6642453  )
        12           O1  tau(  12) = (   5.3003793   1.4775083  12.6459419  )
        13           Ti1 tau(  13) = (   0.0167275   2.9625105  12.5508078  )
        14           Ti1 tau(  14) = (   3.3131340   1.4712512  12.4909780  )
        15           O1  tau(  15) = (   6.5517612   5.9325698  14.7566896  )
        16           O1  tau(  16) = (   3.3302114   5.9429442  13.9823395  )
        17           O1  tau(  17) = (   4.5243935   1.5056208  16.2316672  )
        18           O1  tau(  18) = (   2.0170937   1.4633510  16.1378485  )
        19           Ti1 tau(  19) = (   3.2500237   2.9242626  15.6920970  )
        20           Ti1 tau(  20) = (   6.5441017   1.2779805  16.1516014  )
        21           O1  tau(  21) = (   3.2904802   0.0005063   4.7018136  )
        22           O1  tau(  22) = (   6.5540411   5.9581837  17.3465722  )
        23           O1  tau(  23) = (   1.3043587   1.4918075   6.0039043  )
        24           O1  tau(  24) = (   5.2767064   1.4903225   6.0039473  )
        25           Ti1 tau(  25) = (   0.0000382   5.9609847   6.0000000  )
        26           Ti1 tau(  26) = (   3.2902200   4.4714249   6.0002472  )
        27           O1  tau(  27) = (   0.0002396   2.9813036   7.9858123  )
        28           O1  tau(  28) = (   3.2902150   2.9813002   7.3038282  )
        29           O1  tau(  29) = (   4.5938453   4.4726049   9.2879030  )
        30           O1  tau(  30) = (   1.9864658   4.4711199   9.2879459  )
        31           Ti1 tau(  31) = (   3.2891106   5.8743827   9.1763621  )
        32           Ti1 tau(  32) = (   0.0006254   4.4649316   9.2693709  )
        33           O1  tau(  33) = (   3.2962403   2.9651072  11.3429128  )
        34           O1  tau(  34) = (   0.0092240   2.9805883  10.6323155  )
        35           O1  tau(  35) = (   1.3076126   4.4641214  12.6643835  )
        36           O1  tau(  36) = (   5.2981430   4.4591552  12.6429889  )
        37           Ti1 tau(  37) = (   0.0194730   5.9489450  12.5196332  )
        38           Ti1 tau(  38) = (   3.3150505   4.4522436  12.4946186  )
        39           O1  tau(  39) = (   6.5702761   2.9869041  14.8038460  )
        40           O1  tau(  40) = (   3.3119818   2.9576719  13.9204832  )
        41           O1  tau(  41) = (   4.5223198   4.3950437  16.2490866  )
        42           O1  tau(  42) = (   2.0356696   4.4339808  16.1311045  )
        43           Ti1 tau(  43) = (   3.3057863   5.9493229  15.7677403  )
        44           Ti1 tau(  44) = (   0.0958844   4.4293496  15.8701971  )
        45           O1  tau(  45) = (   3.2900926   2.9813045   4.7018136  )
        46           O1  tau(  46) = (   1.3039711   4.4726057   6.0039043  )
        47           O1  tau(  47) = (   5.2763189   4.4711207   6.0039473  )
        48           N1  tau(  48) = (   0.0620580   3.0375546  17.6897758  )
        49           C1  tau(  49) = (   1.1116374   2.9693208  18.6984743  )
        50           H1  tau(  50) = (   1.2951007   3.9532040  19.1583453  )
        51           H1  tau(  51) = (   0.8627774   2.2426413  19.4871689  )
        52           H1  tau(  52) = (   2.0263963   2.6228967  18.2308865  )
        53           N1  tau(  53) = (   5.4279256   3.3744730  18.4033390  )
        54           H1  tau(  54) = (   5.6103604   4.1199394  19.0852601  )
        55           H1  tau(  55) = (   4.7934260   3.8076565  17.6295878  )
        56           H1  tau(  56) = (   5.0090149   2.5598412  18.8678436  )

     number of k points=    10  Fermi-Dirac smearing, width (Ry)=  0.0073
                       cart. coord. in units 2pi/alat
        k(    1) = (   0.0000000   0.0000000   0.0000000), wk =   0.1250000
        k(    2) = (   0.0000000   0.0419351   0.0000000), wk =   0.2500000
        k(    3) = (   0.0000000  -0.0838702   0.0000000), wk =   0.1250000
        k(    4) = (   0.0379955   0.0000049   0.0000000), wk =   0.2500000
        k(    5) = (   0.0379955   0.0419400   0.0000000), wk =   0.2500000
        k(    6) = (   0.0379955  -0.0838652   0.0000000), wk =   0.2500000
        k(    7) = (   0.0379955  -0.0419301   0.0000000), wk =   0.2500000
        k(    8) = (  -0.0759910  -0.0000099   0.0000000), wk =   0.1250000
        k(    9) = (  -0.0759910   0.0419252   0.0000000), wk =   0.2500000
        k(   10) = (  -0.0759910  -0.0838800   0.0000000), wk =   0.1250000

     Initial potential from superposition of free atoms

     starting charge  381.99914, renormalised to  398.00000

     negative rho (up, down):  1.617E-02 0.000E+00

     %%%%%%%%%%%%%%%%%%%%%%%%%%%%%%%%%%%%%%%%%%%%%%%%%%%%%%%%%%%%%%%%%%%%%%%%
     %                                                                      %
     % You are using vdW-DF, which was implemented by the Thonhauser group. %
     % Please cite the following two papers that made this development      %
     % possible and the two reviews that describe the various versions:     %
     %                                                                      %
     %   T. Thonhauser et al., PRL 115, 136402 (2015).                      %
     %   T. Thonhauser et al., PRB 76, 125112 (2007).                       %
     %   K. Berland et al., Rep. Prog. Phys. 78, 066501 (2015).             %
     %   D.C. Langreth et al., J. Phys.: Condens. Matter 21, 084203 (2009). %
     %                                                                      %
     %                                                                      %
     % If you are calculating the stress with vdW-DF, please also cite:     %
     %                                                                      %
     %   R. Sabatini et al., J. Phys.: Condens. Matter 24, 424209 (2012).   %
     %                                                                      %
     %%%%%%%%%%%%%%%%%%%%%%%%%%%%%%%%%%%%%%%%%%%%%%%%%%%%%%%%%%%%%%%%%%%%%%%%

     Adding external electric field

     Computed dipole along edir(3) :
        Dipole              -10.5721 Ry au,        -26.8716 Debye
        Dipole field         -0.0200 Ry au,

        Potential amp.        1.8494 Ry
        Total length         46.3494 bohr

     Starting wfcs are  302 atomic wfcs
  @ DRIVER MODE: Message from server: STATUS
  @ DRIVER MODE: Message from server: POSDATA
  @ DRIVER MODE: Reading and sharing cell
  @ DRIVER MODE: Reading and sharing positions
  @ DRIVER MODE: Received positions

     Self-consistent Calculation

     iteration #  1     ecut=    29.40 Ry     beta= 0.05
     Davidson diagonalization with overlap
     c_bands:  3 eigenvalues not converged
     c_bands:  3 eigenvalues not converged
     c_bands:  1 eigenvalues not converged
     c_bands:  5 eigenvalues not converged
     c_bands:  5 eigenvalues not converged
     c_bands:  5 eigenvalues not converged
     c_bands:  1 eigenvalues not converged
     c_bands:  4 eigenvalues not converged
     c_bands:  3 eigenvalues not converged
     ethr =  1.00E-05,  avg # of iterations = 20.0

[...]

     total energy              =   -2442.75725266 Ry
     estimated scf accuracy    <    5591.52053485 Ry

     iteration #  2     ecut=    29.40 Ry     beta= 0.05
     Davidson diagonalization with overlap
     ethr =  1.00E-02,  avg # of iterations = 23.8

[...]

     iteration # 76     ecut=    29.40 Ry     beta= 0.05
     Davidson diagonalization with overlap
     ethr =  4.62E-09,  avg # of iterations = 10.5

[...]

     total energy              =   -2942.82509251 Ry
     estimated scf accuracy    <       0.00000010 Ry

     iteration # 87     ecut=    29.40 Ry     beta= 0.05
     Davidson diagonalization with overlap
     c_bands:  2 eigenvalues not converged
     c_bands:  3 eigenvalues not converged
     ethr =  2.46E-11,  avg # of iterations = 15.3

     negative rho (up, down):  1.428E-02 0.000E+00

     Adding external electric field

     Computed dipole along edir(3) :
        Dipole                1.6037 Ry au,          4.0762 Debye
        Dipole field          0.0030 Ry au,

        Potential amp.       -0.2805 Ry
        Total length         46.3494 bohr

     End of self-consistent calculation

          k = 0.0000 0.0000 0.0000 ( 18029 PWs)   bands (ev):

   -55.1443 -55.1076 -55.1053 -55.0712 -55.0264 -55.0113 -54.9883 -54.9457
   -54.9332 -54.9248 -54.9105 -54.9002 -54.8644 -54.7925 -54.1175 -54.0834
   -31.7241 -31.5950 -31.5128 -31.4812 -31.4364 -31.4355 -31.4333 -31.4029
   -31.3987 -31.3954 -31.3690 -31.3539 -31.3504 -31.3218 -31.3041 -31.2789
   -31.2621 -31.2581 -31.2480 -31.2429 -31.2165 -31.2106 -31.2037 -31.1771
   -31.1622 -31.1557 -31.1488 -31.1411 -31.1409 -31.1298 -31.1277 -31.1214
   -31.1046 -31.0958 -31.0901 -31.0636 -31.0609 -31.0489 -31.0420 -31.0351
   -31.0244 -30.9823 -30.5260 -30.4340 -30.4119 -30.3427 -30.2559 -30.1448
   -18.9049 -16.0090 -15.7563 -15.6194 -15.3835 -15.3316 -15.2753 -15.0786
   -15.0661 -14.9948 -14.9789 -14.9307 -14.9112 -14.8441 -14.7595 -14.7395
   -14.6708 -14.6693 -14.6392 -14.6279 -14.6272 -14.5646 -14.5546 -14.5254
   -14.5124 -14.4869 -14.3689 -14.2846 -14.2261 -13.9726 -13.5723 -12.6205
   -12.5034  -9.7345  -7.6904  -7.1738  -5.4421  -3.8065  -3.3456  -3.2656
    -3.1711  -3.1417  -3.0647  -3.0355  -2.8506  -2.8291  -2.4880  -2.4489
    -2.4017  -2.3843  -2.3619  -2.3451  -2.1775  -2.1517  -2.0783  -2.0449
    -2.0274  -1.9858  -1.9698  -1.9595  -1.9260  -1.9205  -1.9112  -1.7039
    -1.6475  -1.5521  -1.5299  -1.5035  -1.4709  -1.4354  -1.4263  -1.4232
    -1.4174  -1.4042  -1.3920  -1.3108  -1.2489  -1.1715  -1.1623  -1.1261
    -1.0227  -0.9772  -0.7763  -0.7619  -0.7158  -0.6735  -0.6108  -0.5893
    -0.5230  -0.4923  -0.4721  -0.3514  -0.3228  -0.2826  -0.2554  -0.1876
    -0.1567  -0.1120  -0.0266   0.0432   0.0790   0.0976   0.1550   0.2852
     0.2980   0.3268   0.3886   0.4519   0.4921   0.5132   0.5315   0.5691
     0.6179   0.7435   0.7881   0.8079   0.8123   0.8463   0.8699   0.9208
     0.9446   1.0050   1.0107   1.1290   1.1985   1.4317   1.4660   1.4849
     1.8170   1.8407   1.9047   2.0907   2.4788   2.5260   3.9604   4.0210
     4.0774   4.0947   4.1136   4.2023   4.2305   4.4230   4.4505   4.4544
     4.4573

[...]

          k = 0.0380-0.0419 0.0000 ( 17876 PWs)   bands (ev):

[...]

          k =-0.0760-0.0000 0.0000 ( 17886 PWs)   bands (ev):

[...]

          k =-0.0760-0.0839 0.0000 ( 17948 PWs)   bands (ev):

   -55.1288 -55.1229 -55.0882 -55.0881 -55.0158 -55.0077 -54.9989 -54.9295
   -54.9281 -54.9255 -54.9179 -54.9164 -54.8607 -54.7962 -54.1005 -54.1003
   -31.5278 -31.5249 -31.4481 -31.4263 -31.4102 -31.4100 -31.3809 -31.3806
   -31.3550 -31.3495 -31.3467 -31.3459 -31.3107 -31.2770 -31.2705 -31.2661
   -31.2647 -31.2607 -31.2587 -31.2524 -31.2214 -31.2176 -31.2152 -31.2123
   -31.2076 -31.2074 -31.1940 -31.1917 -31.1643 -31.1596 -31.1441 -31.1401
   -31.1377 -31.1371 -31.1349 -31.1277 -31.1025 -31.0989 -31.0961 -31.0727
   -31.0468 -31.0297 -30.4246 -30.4244 -30.3386 -30.3384 -30.2994 -30.2993
   -18.8999 -15.5170 -15.4073 -15.3053 -15.2323 -15.1892 -15.1411 -15.1205
   -15.1100 -15.0646 -15.0359 -14.9657 -14.9016 -14.8488 -14.8478 -14.8129
   -14.7346 -14.7208 -14.7138 -14.7031 -14.6466 -14.6400 -14.6084 -14.5876
   -14.5845 -14.5546 -14.4809 -14.4785 -14.3910 -14.1808 -13.6075 -12.6051
   -12.6049  -9.7038  -7.6865  -7.1199  -5.4439  -3.8287  -3.4209  -2.7639
    -2.6530  -2.4419  -2.4163  -2.3564  -2.3351  -2.2483  -2.1908  -2.1684
    -2.1456  -2.1115  -2.1086  -2.0846  -2.0625  -2.0081  -1.9796  -1.9687
    -1.9624  -1.9477  -1.9351  -1.9147  -1.8583  -1.8483  -1.8410  -1.7987
    -1.7874  -1.7560  -1.7497  -1.7108  -1.6941  -1.6187  -1.5253  -1.5016
    -1.4439  -1.3399  -1.3266  -1.3210  -1.2289  -1.2195  -1.1899  -1.1590
    -1.1039  -1.0052  -0.9497  -0.8739  -0.8706  -0.8406  -0.7537  -0.6896
    -0.6558  -0.6472  -0.6059  -0.5489  -0.5265  -0.4936  -0.4110  -0.3693
    -0.3418  -0.3071  -0.2127  -0.1521  -0.1284  -0.0971  -0.0936  -0.0050
     0.0288   0.0655   0.0863   0.1247   0.1512   0.2148   0.2387   0.3481
     0.4198   0.4478   0.5658   0.5913   0.6560   0.7878   0.8594   0.9010
     0.9539   1.0110   1.0377   1.1682   1.1754   1.2073   1.2940   1.3342
     1.3412   1.3542   2.2634   2.2645   2.3461   2.3462   4.0923   4.1786
     4.2223   4.2598   4.3677   4.4768   4.4955   4.5382   4.5388   4.6148
     4.6202

     the Fermi energy is     4.0127 ev

!    total energy              =   -2942.82509654 Ry
     estimated scf accuracy    <       0.00000007 Ry
     smearing contrib. (-TS)   =      -0.03684952 Ry
     internal energy E=F+TS    =   -2942.78824703 Ry

     The total energy is F=E-TS. E is the sum of the following terms:
     one-electron contribution =  -23972.55615263 Ry
     hartree contribution      =   12081.75778369 Ry
     xc contribution           =    -487.76945290 Ry
     ewald contribution        =    9435.77472135 Ry
     electric field correction =       0.00485346 Ry

     convergence has been achieved in  87 iterations

     Forces acting on atoms (cartesian axes, Ry/au):

     atom    1 type  1   force =     0.00014636   -0.00022885    0.09425887
     atom    2 type  1   force =    -0.00009771   -0.00032796   -0.17740254
     atom    3 type  2   force =     0.00005748   -0.00016427   -0.02135237
     atom    4 type  2   force =    -0.00001640   -0.00172589    0.05657674
     atom    5 type  2   force =    -0.01055207   -0.00127291    0.00623857
     atom    6 type  2   force =     0.01221732   -0.00073853    0.00571034
     atom    7 type  1   force =    -0.00034074    0.00172238   -0.01621005
     atom    8 type  1   force =    -0.00010576    0.00438494    0.00561075
     atom    9 type  2   force =     0.00000833   -0.00003975   -0.00005219
     atom   10 type  2   force =    -0.00074307   -0.00022243   -0.00045613
     atom   11 type  2   force =     0.00034387    0.00012231   -0.00020657
     atom   12 type  2   force =    -0.00052080    0.00000193   -0.00014373
     atom   13 type  1   force =     0.00003572   -0.00034013    0.00019972
     atom   14 type  1   force =     0.00057382    0.00011174   -0.00033324
     atom   15 type  2   force =    -0.00045463    0.00019870   -0.00032969
     atom   16 type  2   force =    -0.00030578    0.00015958   -0.00000915
     atom   17 type  2   force =    -0.00026274    0.00007977    0.00026170
     atom   18 type  2   force =     0.00029664    0.00026264   -0.00027828
     atom   19 type  1   force =    -0.00034238   -0.00048760   -0.00006387
     atom   20 type  1   force =     0.00011292    0.00055756    0.00009310
     atom   21 type  2   force =     0.00003470    0.00003997    0.10360001
     atom   22 type  2   force =    -0.00004549   -0.00073144   -0.00066583
     atom   23 type  2   force =    -0.07080453   -0.00009974   -0.02717003
     atom   24 type  2   force =     0.07066873    0.00034168   -0.02720186
     atom   25 type  1   force =    -0.00009395   -0.00020900    0.09373867
     atom   26 type  1   force =    -0.00013696   -0.00031867   -0.17730627
     atom   27 type  2   force =     0.00008995   -0.00035455   -0.02046132
     atom   28 type  2   force =     0.00003118   -0.00143866    0.05588559
     atom   29 type  2   force =    -0.01091388   -0.00073109    0.00608693
     atom   30 type  2   force =     0.01246534   -0.00028723    0.00556575
     atom   31 type  1   force =    -0.00016029    0.00464242   -0.01718457
     atom   32 type  1   force =    -0.00002781   -0.00482616    0.00560350
     atom   33 type  2   force =     0.00005783    0.00012133    0.00025847
     atom   34 type  2   force =     0.00005845   -0.00084777   -0.00298015
     atom   35 type  2   force =     0.00022931    0.00003010    0.00005724
     atom   36 type  2   force =    -0.00043398    0.00015435   -0.00007565
     atom   37 type  1   force =    -0.00012650   -0.00011004   -0.00008282
     atom   38 type  1   force =     0.00042442   -0.00028015    0.00035277
     atom   39 type  2   force =    -0.00049142    0.00014334    0.00059170
     atom   40 type  2   force =    -0.00010749    0.00021377   -0.00013284
     atom   41 type  2   force =     0.00061370   -0.00028141    0.00094984
     atom   42 type  2   force =     0.00010343    0.00023739   -0.00016142
     atom   43 type  1   force =    -0.00083710    0.00112546    0.00002697
     atom   44 type  1   force =     0.00034157    0.00026228    0.00002443
     atom   45 type  2   force =     0.00002458    0.00000780    0.10361341
     atom   46 type  2   force =    -0.07080779   -0.00004413   -0.02717988
     atom   47 type  2   force =     0.07067208    0.00037613   -0.02718345
     atom   48 type  3   force =     0.00050219   -0.00092094    0.00054084
     atom   49 type  4   force =    -0.00004933    0.00006906   -0.00066971
     atom   50 type  5   force =     0.00002397   -0.00001139    0.00004819
     atom   51 type  5   force =    -0.00027298   -0.00026668   -0.00001602
     atom   52 type  5   force =    -0.00023802    0.00000417    0.00021111
     atom   53 type  3   force =    -0.00226232    0.00195542   -0.00305007
     atom   54 type  5   force =    -0.00026744    0.00018751   -0.00070009
     atom   55 type  5   force =     0.00190918   -0.00044926    0.00322530
     atom   56 type  5   force =    -0.00022371    0.00024292   -0.00027068

     Total force =     0.365576     Total SCF correction =     0.000693
  @ DRIVER MODE: Message from server: STATUS
  @ DRIVER MODE: Message from server: GETFORCE
  @ DRIVER MODE: Returning v,forces,stress,ensemble

     Writing output data file ./calc.save/
  @ DRIVER MODE: Message from server: EXIT
  @ DRIVE MODE: Exiting

     General routines

     Parallel routines

   This run was terminated on:   1:16: 4   3Aug2021

   JOB DONE.