     Program PWSCF v.6.7GPU starts on 10Sep2021 at  8:29:10

     R & G space division:  proc/nbgrp/npool/nimage =      10
     Reading input from /storage/home/hcoda1/3/ntian30/research/carbon/CxH_vib/CH3_calc/ads_slab/CH3N2H2O_g/out_0035/pw.inp
Warning: card &CELL ignored
Warning: card   CELL_DYNAMICS='IPI', ignored
Warning: card / ignored

     Current dimensions of program PWSCF are:
     Max number of different atomic species (ntypx) = 10
     Max number of k-points (npk) =  40000
     Max angular momentum in pseudopotentials (lmaxx) =  3
     Presently no symmetry can be used with electric field

     Message from routine cell_base_init:
     DEPRECATED: use true lattice parameter, not A to a.u. conversion factor

     IMPORTANT: XC functional enforced from input :
     Exchange-correlation= BEEF-VDW
                           (   1   4  43  14   2   0   0)
     Any further DFT definition will be discarded
     Please, verify this is what you really want

  @ DRIVER MODE: Connecting to
 qe_1139763_2779714.sched-torque.pace.gatech.eduug8heobi_scratch
  using UNIX socket
  @ DRIVER MODE: Message from server: STATUS
  @ DRIVER MODE: Message from server: INIT
  @ DRIVER MODE: Receiving replica           0          -1
  @ DRIVER MODE: Receiving encoded integer          25
  @ DRIVER MODE:  SCF:  T  FORCE:  T  STRESS:  F  VC:  F  ENSEMBLE:  F
  @ DRIVER MODE:  SCF:  T  FORCE:  T  STRESS:  F  VC:  F  ENSEMBLE:  F

     Using Slab Decomposition

     bravais-lattice index     =            0
     lattice parameter (alat)  =       1.8897  a.u.
     unit-cell volume          =    6658.9804 (a.u.)^3
     number of atoms/cell      =           56
     number of atomic types    =            5
     number of electrons       =       403.00
     number of Kohn-Sham states=          211
     kinetic-energy cutoff     =      29.3995  Ry
     charge density cutoff     =     293.9946  Ry
     scf convergence threshold =      7.3E-08
     mixing beta               =       0.0500
     number of iterations used =            8  plain     mixing
     Exchange-correlation= BEEF-VDW
                           (   1   4  43  14   2   0   0)

     celldm(1)=   1.889726  celldm(2)=   0.000000  celldm(3)=   0.000000
     celldm(4)=   0.000000  celldm(5)=   0.000000  celldm(6)=   0.000000

     crystal axes: (cart. coord. in units of alat)
               a(1) = (   6.579727   0.000000   0.000000 )
               a(2) = (  -0.000775   5.961596   0.000000 )
               a(3) = (   0.000000   0.000000  25.155947 )

     reciprocal axes: (cart. coord. in units 2 pi/alat)
               b(1) = (  0.151982  0.000020  0.000000 )
               b(2) = (  0.000000  0.167740  0.000000 )
               b(3) = (  0.000000  0.000000  0.039752 )

     PseudoPot. # 1 for Ti read from file:
     /storage/coda1/p-amedford6/0/shared/rich_project_chbe-medford/medford-share/data/pseudos_module/espresso/nninc/pbe/van/Ti.UPF
     MD5 check sum: 8e4df49b7f0d34bbd5052bf3f5ea0213
     Pseudo is Ultrasoft, Zval = 12.0
     Generated by new atomic code, or converted to UPF format
     Using radial grid of  851 points,  6 beta functions with:
                l(1) =   0
                l(2) =   0
                l(3) =   1
                l(4) =   1
                l(5) =   2
                l(6) =   2
     Q(r) pseudized with  8 coefficients,  rinner =    1.000   1.000   1.000
                                                       1.000   1.000

     PseudoPot. # 2 for O  read from file:
     /storage/coda1/p-amedford6/0/shared/rich_project_chbe-medford/medford-share/data/pseudos_module/espresso/nninc/pbe/van/O.UPF
     MD5 check sum: 78c19812648e8988a0fe644b0f25305e
     Pseudo is Ultrasoft, Zval =  6.0
     Generated by new atomic code, or converted to UPF format
     Using radial grid of  737 points,  4 beta functions with:
                l(1) =   0
                l(2) =   0
                l(3) =   1
                l(4) =   1
     Q(r) pseudized with  8 coefficients,  rinner =    0.800   0.800   0.800

     PseudoPot. # 3 for N  read from file:
     /storage/coda1/p-amedford6/0/shared/rich_project_chbe-medford/medford-share/data/pseudos_module/espresso/nninc/pbe/van/N.UPF
     MD5 check sum: 90d10febe142ad51ac9d5be1deb811c4
     Pseudo is Ultrasoft, Zval =  5.0
     Generated by new atomic code, or converted to UPF format
     Using radial grid of  729 points,  4 beta functions with:
                l(1) =   0
                l(2) =   0
                l(3) =   1
                l(4) =   1
     Q(r) pseudized with  8 coefficients,  rinner =    0.800   0.800   0.800

     PseudoPot. # 4 for C  read from file:
     /storage/coda1/p-amedford6/0/shared/rich_project_chbe-medford/medford-share/data/pseudos_module/espresso/nninc/pbe/van/C.UPF
     MD5 check sum: 1a69bf6b8db32088f5b2163dbdb77a27
     Pseudo is Ultrasoft, Zval =  4.0
     Generated by new atomic code, or converted to UPF format
     Using radial grid of  721 points,  4 beta functions with:
                l(1) =   0
                l(2) =   0
                l(3) =   1
                l(4) =   1
     Q(r) pseudized with  8 coefficients,  rinner =    0.800   0.800   0.800

     PseudoPot. # 5 for H  read from file:
     /storage/coda1/p-amedford6/0/shared/rich_project_chbe-medford/medford-share/data/pseudos_module/espresso/nninc/pbe/van/H.UPF
     MD5 check sum: b5ee9d7bfd3a09ee7748110bda690ff7
     Pseudo is Ultrasoft, Zval =  1.0
     Generated by new atomic code, or converted to UPF format
     Using radial grid of  615 points,  1 beta functions with:
                l(1) =   0
     Q(r) pseudized with  8 coefficients,  rinner =    0.800

     atomic species   valence    mass     pseudopotential
        Ti1           12.00    47.86700     Ti( 1.00)
        O1             6.00    15.99900     O ( 1.00)
        N1             5.00    14.00700     N ( 1.00)
        C1             4.00    12.01100     C ( 1.00)
        H1             1.00     1.00800     H ( 1.00)

     No symmetry found

   Cartesian axes

     site n.     atom                  positions (alat units)
         1           Ti1 tau(   1) = (   0.0004258   2.9801865   6.0000000  )
         2           Ti1 tau(   2) = (   3.2906075   1.4906267   6.0002472  )
         3           O1  tau(   3) = (   0.0006271   0.0005054   7.9858123  )
         4           O1  tau(   4) = (   3.2906025   0.0005020   7.3038282  )
         5           O1  tau(   5) = (   4.5942328   1.4918067   9.2879030  )
         6           O1  tau(   6) = (   1.9868534   1.4903216   9.2879459  )
         7           Ti1 tau(   7) = (   3.2907910   2.8959150   9.1758416  )
         8           Ti1 tau(   8) = (   0.0015273   1.4827037   9.2680791  )
         9           O1  tau(   9) = (   3.3002115   5.9463602  11.3460011  )
        10           O1  tau(  10) = (   0.0116148   5.9584955  10.6183126  )
        11           O1  tau(  11) = (   1.3192008   1.4768417  12.6238339  )
        12           O1  tau(  12) = (   5.3062067   1.4698383  12.6193417  )
        13           Ti1 tau(  13) = (   6.5330844   2.9444840  12.6148558  )
        14           Ti1 tau(  14) = (   3.2222230   1.4676475  12.5013840  )
        15           O1  tau(  15) = (   0.0064324   5.9471174  14.6352917  )
        16           O1  tau(  16) = (   3.3028336   5.9445487  13.9678148  )
        17           O1  tau(  17) = (   4.5628415   1.5226527  16.0793330  )
        18           O1  tau(  18) = (   2.0474444   1.5206590  16.0184434  )
        19           Ti1 tau(  19) = (   3.3141275   2.9607752  15.6908890  )
        20           Ti1 tau(  20) = (   6.5660065   1.5097775  15.7997320  )
        21           O1  tau(  21) = (   3.2904802   0.0005063   4.7018136  )
        22           O1  tau(  22) = (   0.0269361   0.0086655  17.1987262  )
        23           O1  tau(  23) = (   1.3043587   1.4918075   6.0039043  )
        24           O1  tau(  24) = (   5.2767064   1.4903225   6.0039473  )
        25           Ti1 tau(  25) = (   0.0000382   5.9609847   6.0000000  )
        26           Ti1 tau(  26) = (   3.2902200   4.4714249   6.0002472  )
        27           O1  tau(  27) = (   0.0002396   2.9813036   7.9858123  )
        28           O1  tau(  28) = (   3.2902150   2.9813002   7.3038282  )
        29           O1  tau(  29) = (   4.5938453   4.4726049   9.2879030  )
        30           O1  tau(  30) = (   1.9864658   4.4711199   9.2879459  )
        31           Ti1 tau(  31) = (   3.2891106   5.8743827   9.1763621  )
        32           Ti1 tau(  32) = (   0.0006254   4.4649316   9.2693709  )
        33           O1  tau(  33) = (   3.2944391   2.9688829  11.3444728  )
        34           O1  tau(  34) = (   0.0092240   2.9805883  10.6323155  )
        35           O1  tau(  35) = (   1.3142520   4.4635248  12.6275686  )
        36           O1  tau(  36) = (   5.3078217   4.4601700  12.6226734  )
        37           Ti1 tau(  37) = (   6.5374036   5.9186568  12.5467527  )
        38           Ti1 tau(  38) = (   3.2213306   4.4595164  12.5065882  )
        39           O1  tau(  39) = (   6.5756885   2.9534048  14.6511233  )
        40           O1  tau(  40) = (   3.3206316   2.9687378  13.8980937  )
        41           O1  tau(  41) = (   4.5543359   4.4428353  16.0905846  )
        42           O1  tau(  42) = (   2.0427057   4.4323087  16.0570365  )
        43           Ti1 tau(  43) = (   3.2570595   5.9269474  15.8069103  )
        44           Ti1 tau(  44) = (   6.5609319   4.6488967  16.0725391  )
        45           O1  tau(  45) = (   3.2900926   2.9813045   4.7018136  )
        46           O1  tau(  46) = (   1.3039711   4.4726057   6.0039043  )
        47           O1  tau(  47) = (   5.2763189   4.4711207   6.0039473  )
        48           N1  tau(  48) = (   0.2492319   2.6641403  18.6309932  )
        49           N1  tau(  49) = (   0.0782707   2.8835230  17.4382120  )
        50           C1  tau(  50) = (   0.2622466   3.8234900  19.5663878  )
        51           H1  tau(  51) = (   6.1755609   4.6233469  19.2444151  )
        52           H1  tau(  52) = (   6.5754044   3.4477461  20.5519103  )
        53           H1  tau(  53) = (   1.2857956   4.2073973  19.5906198  )
        54           O1  tau(  54) = (   3.1761146   0.0362278  18.2233714  )
        55           H1  tau(  55) = (   3.9097821   0.6076051  18.5038283  )
        56           H1  tau(  56) = (   2.3516031   0.5117379  18.4309238  )

     number of k points=    10  Fermi-Dirac smearing, width (Ry)=  0.0073
                       cart. coord. in units 2pi/alat
        k(    1) = (   0.0000000   0.0000000   0.0000000), wk =   0.1250000
        k(    2) = (   0.0000000   0.0419351   0.0000000), wk =   0.2500000
        k(    3) = (   0.0000000  -0.0838702   0.0000000), wk =   0.1250000
        k(    4) = (   0.0379955   0.0000049   0.0000000), wk =   0.2500000
        k(    5) = (   0.0379955   0.0419400   0.0000000), wk =   0.2500000
        k(    6) = (   0.0379955  -0.0838652   0.0000000), wk =   0.2500000
        k(    7) = (   0.0379955  -0.0419301   0.0000000), wk =   0.2500000
        k(    8) = (  -0.0759910  -0.0000099   0.0000000), wk =   0.1250000
        k(    9) = (  -0.0759910   0.0419252   0.0000000), wk =   0.2500000
        k(   10) = (  -0.0759910  -0.0838800   0.0000000), wk =   0.1250000

     Initial potential from superposition of free atoms

     starting charge  386.99914, renormalised to  403.00000

     negative rho (up, down):  1.449E-02 0.000E+00

     %%%%%%%%%%%%%%%%%%%%%%%%%%%%%%%%%%%%%%%%%%%%%%%%%%%%%%%%%%%%%%%%%%%%%%%%
     %                                                                      %
     % You are using vdW-DF, which was implemented by the Thonhauser group. %
     % Please cite the following two papers that made this development      %
     % possible and the two reviews that describe the various versions:     %
     %                                                                      %
     %   T. Thonhauser et al., PRL 115, 136402 (2015).                      %
     %   T. Thonhauser et al., PRB 76, 125112 (2007).                       %
     %   K. Berland et al., Rep. Prog. Phys. 78, 066501 (2015).             %
     %   D.C. Langreth et al., J. Phys.: Condens. Matter 21, 084203 (2009). %
     %                                                                      %
     %                                                                      %
     % If you are calculating the stress with vdW-DF, please also cite:     %
     %                                                                      %
     %   R. Sabatini et al., J. Phys.: Condens. Matter 24, 424209 (2012).   %
     %                                                                      %
     %%%%%%%%%%%%%%%%%%%%%%%%%%%%%%%%%%%%%%%%%%%%%%%%%%%%%%%%%%%%%%%%%%%%%%%%

     Adding external electric field

     Computed dipole along edir(3) :
        Dipole              -13.2081 Ry au,        -33.5717 Debye
        Dipole field         -0.0249 Ry au,

        Potential amp.        2.3106 Ry
        Total length         46.3494 bohr

     Starting wfcs are  305 atomic wfcs
  @ DRIVER MODE: Message from server: STATUS
  @ DRIVER MODE: Message from server: POSDATA
  @ DRIVER MODE: Reading and sharing cell
  @ DRIVER MODE: Reading and sharing positions
  @ DRIVER MODE: Received positions

     Self-consistent Calculation

     iteration #  1     ecut=    29.40 Ry     beta= 0.05
     Davidson diagonalization with overlap
     c_bands:  4 eigenvalues not converged
     c_bands:  2 eigenvalues not converged
     c_bands:  2 eigenvalues not converged
     c_bands:  5 eigenvalues not converged
     c_bands:  1 eigenvalues not converged
     c_bands:  1 eigenvalues not converged
     c_bands:  4 eigenvalues not converged
     c_bands:  1 eigenvalues not converged
     c_bands:  1 eigenvalues not converged
     ethr =  1.00E-05,  avg # of iterations = 28.0

[...]

     total energy              =   -2367.57280170 Ry
     estimated scf accuracy    <    6916.03150139 Ry

     iteration #  2     ecut=    29.40 Ry     beta= 0.05
     Davidson diagonalization with overlap
     ethr =  1.00E-02,  avg # of iterations = 24.6

[...]

     iteration # 55     ecut=    29.40 Ry     beta= 0.05
     Davidson diagonalization with overlap
     c_bands:  1 eigenvalues not converged
     ethr =  7.50E-10,  avg # of iterations = 12.0

[...]

     total energy              =   -2974.00269745 Ry
     estimated scf accuracy    <       0.00000008 Ry

     iteration # 63     ecut=    29.40 Ry     beta= 0.05
     Davidson diagonalization with overlap
     ethr =  1.89E-11,  avg # of iterations =  9.8

     negative rho (up, down):  1.477E-02 0.000E+00

     Adding external electric field

     Computed dipole along edir(3) :
        Dipole                0.8900 Ry au,          2.2620 Debye
        Dipole field          0.0017 Ry au,

        Potential amp.       -0.1557 Ry
        Total length         46.3494 bohr

     End of self-consistent calculation

          k = 0.0000 0.0000 0.0000 ( 18029 PWs)   bands (ev):

   -55.6193 -55.5853 -55.5776 -55.5607 -55.5409 -55.4474 -55.4295 -55.4084
   -55.3955 -55.3945 -55.3662 -55.3607 -55.0031 -54.8634 -54.5985 -54.5644
   -32.1197 -32.1018 -31.9623 -31.9449 -31.9281 -31.9122 -31.8839 -31.8783
   -31.8622 -31.8087 -31.8024 -31.7843 -31.7716 -31.7559 -31.7398 -31.7308
   -31.7237 -31.7108 -31.7050 -31.6765 -31.6678 -31.6503 -31.6217 -31.6177
   -31.6018 -31.5991 -31.5986 -31.5934 -31.5693 -31.5648 -31.5617 -31.5566
   -31.5471 -31.5426 -31.5360 -31.5091 -31.5061 -31.2731 -31.1989 -31.1237
   -31.1064 -31.0722 -31.0056 -30.9171 -30.8947 -30.8223 -30.7358 -30.6248
   -18.8652 -18.3061 -16.3111 -16.0828 -15.8532 -15.7655 -15.7166 -15.5171
   -15.4151 -15.3428 -15.2202 -15.1577 -15.1455 -15.1313 -15.1124 -15.1104
   -15.0579 -15.0511 -15.0471 -15.0395 -15.0060 -14.9656 -14.9505 -14.9401
   -14.8462 -14.7729 -14.7558 -14.7318 -14.6862 -14.6697 -14.1970 -13.1009
   -12.9844 -11.2566  -6.8686  -6.6396  -4.1989  -3.8491  -3.7964  -3.6838
    -3.5564  -3.5235  -3.4415  -3.3678  -3.2315  -3.1992  -3.0371  -2.8468
    -2.7861  -2.7601  -2.7071  -2.6405  -2.5267  -2.4677  -2.4232  -2.4160
    -2.3986  -2.3910  -2.3672  -2.3548  -2.2534  -2.2317  -2.1540  -2.1490
    -2.0977  -1.9805  -1.9659  -1.9317  -1.9184  -1.8953  -1.8735  -1.8529
    -1.8423  -1.8183  -1.7674  -1.6996  -1.6325  -1.5954  -1.5091  -1.4384
    -1.3972  -1.3506  -1.2294  -1.1362  -1.1017  -1.0605  -1.0529  -1.0398
    -1.0113  -0.9934  -0.8805  -0.7665  -0.7495  -0.6844  -0.6244  -0.5432
    -0.5167  -0.4369  -0.3830  -0.3645  -0.3611  -0.3153  -0.2856  -0.2264
    -0.0927  -0.0412  -0.0072   0.0020   0.0610   0.1045   0.1331   0.2205
     0.2269   0.2721   0.3101   0.3426   0.3558   0.3709   0.3894   0.4190
     0.4338   0.6253   0.6615   0.7005   0.7383   0.7809   0.9195   0.9436
     1.0417   1.1511   1.3500   1.4236   1.5291   1.6158   1.9951   2.0410
     2.7455   3.5159   3.6030   3.6479   3.6770   3.7607   3.7747   3.9707
     3.9868   4.0250   4.0954

[...]

          k = 0.0380-0.0419 0.0000 ( 17876 PWs)   bands (ev):

[...]

          k =-0.0760-0.0000 0.0000 ( 17886 PWs)   bands (ev):

[...]

          k =-0.0760-0.0839 0.0000 ( 17948 PWs)   bands (ev):

   -55.6028 -55.6016 -55.5634 -55.5591 -55.5549 -55.4371 -55.4189 -55.4130
   -55.4112 -55.3793 -55.3761 -55.3676 -55.0011 -54.8652 -54.5815 -54.5813
   -31.9333 -31.9175 -31.9171 -31.9167 -31.8981 -31.8970 -31.8477 -31.8416
   -31.8205 -31.7951 -31.7830 -31.7739 -31.7698 -31.7318 -31.7271 -31.7256
   -31.7224 -31.7212 -31.7188 -31.7163 -31.7137 -31.7079 -31.6719 -31.6543
   -31.6358 -31.6316 -31.6242 -31.6124 -31.6119 -31.6090 -31.6034 -31.5940
   -31.5905 -31.5797 -31.5788 -31.5705 -31.4202 -31.2750 -31.2150 -31.1622
   -31.1249 -31.0988 -30.9075 -30.9073 -30.8185 -30.8183 -30.7791 -30.7791
   -18.8641 -18.3025 -15.7695 -15.6592 -15.5687 -15.5345 -15.4769 -15.4079
   -15.4001 -15.3133 -15.2975 -15.2945 -15.2286 -15.2080 -15.1706 -15.1638
   -15.1411 -15.1253 -15.1186 -15.0691 -15.0571 -15.0543 -15.0474 -15.0425
   -14.9664 -14.9360 -14.9321 -14.9231 -14.7954 -14.6708 -14.3687 -13.0863
   -13.0861 -11.2543  -6.8963  -6.6162  -4.1249  -3.8790  -3.7606  -3.2165
    -3.0520  -2.8387  -2.8197  -2.7238  -2.7120  -2.6773  -2.5466  -2.5058
    -2.4648  -2.4485  -2.4298  -2.4283  -2.4109  -2.4053  -2.3846  -2.3588
    -2.3344  -2.3141  -2.2851  -2.2815  -2.2687  -2.2559  -2.2327  -2.2204
    -2.2041  -2.1734  -2.1476  -2.1316  -2.0643  -1.9925  -1.8322  -1.7937
    -1.7545  -1.7483  -1.7316  -1.7007  -1.6854  -1.6674  -1.6222  -1.5869
    -1.4986  -1.3574  -1.3380  -1.3140  -1.2924  -1.2824  -1.2103  -1.1020
    -1.0830  -1.0119  -1.0033  -0.8970  -0.8890  -0.8038  -0.7959  -0.7847
    -0.7104  -0.6834  -0.6684  -0.5799  -0.5778  -0.5537  -0.5044  -0.4769
    -0.4124  -0.3701  -0.3396  -0.3361  -0.2901  -0.2680  -0.2239  -0.1573
    -0.1041  -0.0679   0.0286   0.1329   0.2333   0.3488   0.4636   0.4778
     0.5599   0.5932   0.6781   0.6937   0.7021   0.7745   0.7794   0.8779
     0.9229   0.9375   0.9780   1.1006   1.7870   1.7884   1.8605   1.8608
     2.7699   3.7334   3.8532   3.8954   3.9132   3.9875   4.0301   4.0496
     4.0519   4.0861   4.1918

     the Fermi energy is     3.5147 ev

!    total energy              =   -2974.00274294 Ry
     estimated scf accuracy    <       0.00000007 Ry
     smearing contrib. (-TS)   =      -0.02182564 Ry
     internal energy E=F+TS    =   -2973.98091730 Ry

     The total energy is F=E-TS. E is the sum of the following terms:
     one-electron contribution =  -23848.40754592 Ry
     hartree contribution      =   12018.61393647 Ry
     xc contribution           =    -494.02937333 Ry
     ewald contribution        =    9349.84057082 Ry
     electric field correction =       0.00149465 Ry

     convergence has been achieved in  63 iterations

     Forces acting on atoms (cartesian axes, Ry/au):

     atom    1 type  1   force =     0.00003888   -0.00024105    0.09650036
     atom    2 type  1   force =     0.00005705   -0.00044024   -0.17541211
     atom    3 type  2   force =     0.00011611   -0.00009711   -0.02476238
     atom    4 type  2   force =     0.00004273   -0.00157727    0.05348908
     atom    5 type  2   force =    -0.01197812   -0.00100216    0.00308764
     atom    6 type  2   force =     0.01372108   -0.00064392    0.00292620
     atom    7 type  1   force =     0.00074643    0.00068811   -0.00680685
     atom    8 type  1   force =     0.00022012    0.00949040    0.02714748
     atom    9 type  2   force =    -0.00014762   -0.00006084   -0.00006026
     atom   10 type  2   force =    -0.00204722    0.00048402   -0.01820556
     atom   11 type  2   force =    -0.00058128    0.00033007    0.00012529
     atom   12 type  2   force =     0.00069615    0.00013097    0.00031484
     atom   13 type  1   force =    -0.00015557   -0.00009657   -0.00013928
     atom   14 type  1   force =    -0.00041525   -0.00014836    0.00025863
     atom   15 type  2   force =     0.00003510   -0.00059636    0.00070912
     atom   16 type  2   force =    -0.00026148   -0.00007319   -0.00035741
     atom   17 type  2   force =    -0.00021872    0.00017265   -0.00029717
     atom   18 type  2   force =     0.00001047    0.00018856   -0.00030861
     atom   19 type  1   force =    -0.00031007    0.00016269   -0.00006451
     atom   20 type  1   force =    -0.00044690    0.00002063    0.00031432
     atom   21 type  2   force =     0.00008498    0.00001479    0.10324210
     atom   22 type  2   force =     0.00015046    0.00041327    0.00003344
     atom   23 type  2   force =    -0.07146529   -0.00008696   -0.02773176
     atom   24 type  2   force =     0.07142259    0.00036775   -0.02780374
     atom   25 type  1   force =     0.00017831   -0.00033553    0.09617618
     atom   26 type  1   force =     0.00000937   -0.00037546   -0.17574994
     atom   27 type  2   force =     0.00021078   -0.00020550   -0.02376283
     atom   28 type  2   force =     0.00002448   -0.00128176    0.05295107
     atom   29 type  2   force =    -0.01221735    0.00024126    0.00291596
     atom   30 type  2   force =     0.01387871    0.00082120    0.00273497
     atom   31 type  1   force =     0.00041549    0.00343811   -0.00983228
     atom   32 type  1   force =     0.00036507   -0.01131703    0.02755068
     atom   33 type  2   force =     0.00010055    0.00014255   -0.00000237
     atom   34 type  2   force =    -0.00188287   -0.00044911   -0.02414940
     atom   35 type  2   force =     0.00040330    0.00002884   -0.00026810
     atom   36 type  2   force =    -0.00028268   -0.00006311    0.00007925
     atom   37 type  1   force =    -0.00030843   -0.00013184    0.00009887
     atom   38 type  1   force =    -0.00080386    0.00013132   -0.00049281
     atom   39 type  2   force =     0.00009820   -0.00032932   -0.00021757
     atom   40 type  2   force =     0.00019716    0.00034074    0.00046566
     atom   41 type  2   force =     0.00023203    0.00010838   -0.00032893
     atom   42 type  2   force =    -0.00045509   -0.00008597   -0.00031313
     atom   43 type  1   force =     0.00033610    0.00081549    0.00026800
     atom   44 type  1   force =    -0.00012505    0.00108781   -0.00073549
     atom   45 type  2   force =     0.00008433   -0.00002498    0.10323027
     atom   46 type  2   force =    -0.07147439   -0.00003048   -0.02774243
     atom   47 type  2   force =     0.07143278    0.00039844   -0.02780023
     atom   48 type  3   force =    -0.00114141   -0.00031141   -0.00179512
     atom   49 type  3   force =    -0.00006597   -0.00048986    0.00133971
     atom   50 type  4   force =    -0.00000837    0.00054458   -0.00115760
     atom   51 type  5   force =     0.00076786   -0.00083851   -0.00029131
     atom   52 type  5   force =     0.00091478    0.00051821   -0.00008770
     atom   53 type  5   force =     0.00013057   -0.00049884    0.00185987
     atom   54 type  2   force =     0.00013215    0.00054210   -0.00079485
     atom   55 type  5   force =    -0.00008127   -0.00009625   -0.00003250
     atom   56 type  5   force =    -0.00037992    0.00030604   -0.00031478

     Total force =     0.367987     Total SCF correction =     0.000733
  @ DRIVER MODE: Message from server: STATUS
  @ DRIVER MODE: Message from server: GETFORCE
  @ DRIVER MODE: Returning v,forces,stress,ensemble

     Writing output data file ./calc.save/
  @ DRIVER MODE: Message from server: EXIT
  @ DRIVE MODE: Exiting

     General routines

     Parallel routines

   This run was terminated on:   8:48:17  10Sep2021

   JOB DONE.