     Program PWSCF v.6.7GPU starts on 10Sep2021 at 14: 8: 8

     R & G space division:  proc/nbgrp/npool/nimage =      10
     Reading input from /storage/home/hcoda1/3/ntian30/research/carbon/CxH_vib/CH_calc/ads_slab/CHNHNH_a/out_0011/pw.inp
Warning: card &CELL ignored
Warning: card   CELL_DYNAMICS='IPI', ignored
Warning: card / ignored

     Current dimensions of program PWSCF are:
     Max number of different atomic species (ntypx) = 10
     Max number of k-points (npk) =  40000
     Max angular momentum in pseudopotentials (lmaxx) =  3
     Presently no symmetry can be used with electric field

     Message from routine cell_base_init:
     DEPRECATED: use true lattice parameter, not A to a.u. conversion factor

     IMPORTANT: XC functional enforced from input :
     Exchange-correlation= BEEF-VDW
                           (   1   4  43  14   2   0   0)
     Any further DFT definition will be discarded
     Please, verify this is what you really want

  @ DRIVER MODE: Connecting to
 qe_1139763_2787518.sched-torque.pace.gatech.eduimk73j7j_scratch
  using UNIX socket
  @ DRIVER MODE: Message from server: STATUS
  @ DRIVER MODE: Message from server: INIT
  @ DRIVER MODE: Receiving replica           0          -1
  @ DRIVER MODE: Receiving encoded integer          25
  @ DRIVER MODE:  SCF:  T  FORCE:  T  STRESS:  F  VC:  F  ENSEMBLE:  F
  @ DRIVER MODE:  SCF:  T  FORCE:  T  STRESS:  F  VC:  F  ENSEMBLE:  F

     Using Slab Decomposition

     bravais-lattice index     =            0
     lattice parameter (alat)  =       1.8897  a.u.
     unit-cell volume          =    6658.9804 (a.u.)^3
     number of atoms/cell      =           53
     number of atomic types    =            5
     number of electrons       =       395.00
     number of Kohn-Sham states=          207
     kinetic-energy cutoff     =      29.3995  Ry
     charge density cutoff     =     293.9946  Ry
     scf convergence threshold =      7.3E-08
     mixing beta               =       0.0500
     number of iterations used =            8  plain     mixing
     Exchange-correlation= BEEF-VDW
                           (   1   4  43  14   2   0   0)

     celldm(1)=   1.889726  celldm(2)=   0.000000  celldm(3)=   0.000000
     celldm(4)=   0.000000  celldm(5)=   0.000000  celldm(6)=   0.000000

     crystal axes: (cart. coord. in units of alat)
               a(1) = (   6.579727   0.000000   0.000000 )
               a(2) = (  -0.000775   5.961596   0.000000 )
               a(3) = (   0.000000   0.000000  25.155947 )

     reciprocal axes: (cart. coord. in units 2 pi/alat)
               b(1) = (  0.151982  0.000020  0.000000 )
               b(2) = (  0.000000  0.167740  0.000000 )
               b(3) = (  0.000000  0.000000  0.039752 )

     PseudoPot. # 1 for Ti read from file:
     /storage/coda1/p-amedford6/0/shared/rich_project_chbe-medford/medford-share/data/pseudos_module/espresso/nninc/pbe/van/Ti.UPF
     MD5 check sum: 8e4df49b7f0d34bbd5052bf3f5ea0213
     Pseudo is Ultrasoft, Zval = 12.0
     Generated by new atomic code, or converted to UPF format
     Using radial grid of  851 points,  6 beta functions with:
                l(1) =   0
                l(2) =   0
                l(3) =   1
                l(4) =   1
                l(5) =   2
                l(6) =   2
     Q(r) pseudized with  8 coefficients,  rinner =    1.000   1.000   1.000
                                                       1.000   1.000

     PseudoPot. # 2 for O  read from file:
     /storage/coda1/p-amedford6/0/shared/rich_project_chbe-medford/medford-share/data/pseudos_module/espresso/nninc/pbe/van/O.UPF
     MD5 check sum: 78c19812648e8988a0fe644b0f25305e
     Pseudo is Ultrasoft, Zval =  6.0
     Generated by new atomic code, or converted to UPF format
     Using radial grid of  737 points,  4 beta functions with:
                l(1) =   0
                l(2) =   0
                l(3) =   1
                l(4) =   1
     Q(r) pseudized with  8 coefficients,  rinner =    0.800   0.800   0.800

     PseudoPot. # 3 for N  read from file:
     /storage/coda1/p-amedford6/0/shared/rich_project_chbe-medford/medford-share/data/pseudos_module/espresso/nninc/pbe/van/N.UPF
     MD5 check sum: 90d10febe142ad51ac9d5be1deb811c4
     Pseudo is Ultrasoft, Zval =  5.0
     Generated by new atomic code, or converted to UPF format
     Using radial grid of  729 points,  4 beta functions with:
                l(1) =   0
                l(2) =   0
                l(3) =   1
                l(4) =   1
     Q(r) pseudized with  8 coefficients,  rinner =    0.800   0.800   0.800

     PseudoPot. # 4 for C  read from file:
     /storage/coda1/p-amedford6/0/shared/rich_project_chbe-medford/medford-share/data/pseudos_module/espresso/nninc/pbe/van/C.UPF
     MD5 check sum: 1a69bf6b8db32088f5b2163dbdb77a27
     Pseudo is Ultrasoft, Zval =  4.0
     Generated by new atomic code, or converted to UPF format
     Using radial grid of  721 points,  4 beta functions with:
                l(1) =   0
                l(2) =   0
                l(3) =   1
                l(4) =   1
     Q(r) pseudized with  8 coefficients,  rinner =    0.800   0.800   0.800

     PseudoPot. # 5 for H  read from file:
     /storage/coda1/p-amedford6/0/shared/rich_project_chbe-medford/medford-share/data/pseudos_module/espresso/nninc/pbe/van/H.UPF
     MD5 check sum: b5ee9d7bfd3a09ee7748110bda690ff7
     Pseudo is Ultrasoft, Zval =  1.0
     Generated by new atomic code, or converted to UPF format
     Using radial grid of  615 points,  1 beta functions with:
                l(1) =   0
     Q(r) pseudized with  8 coefficients,  rinner =    0.800

     atomic species   valence    mass     pseudopotential
        Ti1           12.00    47.86700     Ti( 1.00)
        O1             6.00    15.99900     O ( 1.00)
        N1             5.00    14.00700     N ( 1.00)
        C1             4.00    12.01100     C ( 1.00)
        H1             1.00     1.00800     H ( 1.00)

     No symmetry found

   Cartesian axes

     site n.     atom                  positions (alat units)
         1           Ti1 tau(   1) = (   0.0004258   2.9801865   6.0000000  )
         2           Ti1 tau(   2) = (   3.2906075   1.4906267   6.0002472  )
         3           O1  tau(   3) = (   0.0006271   0.0005054   7.9858123  )
         4           O1  tau(   4) = (   3.2906025   0.0005020   7.3038282  )
         5           O1  tau(   5) = (   4.5942328   1.4918067   9.2879030  )
         6           O1  tau(   6) = (   1.9868534   1.4903216   9.2879459  )
         7           Ti1 tau(   7) = (   3.2907910   2.8959150   9.1758416  )
         8           Ti1 tau(   8) = (   0.0015273   1.4827037   9.2680791  )
         9           O1  tau(   9) = (   3.2974950   5.9468587  11.3331085  )
        10           O1  tau(  10) = (   0.0116148   5.9584955  10.6183126  )
        11           O1  tau(  11) = (   1.3019594   1.4757037  12.6170356  )
        12           O1  tau(  12) = (   5.2841045   1.4688878  12.6073194  )
        13           Ti1 tau(  13) = (   0.0658538   3.0089988  12.6217963  )
        14           Ti1 tau(  14) = (   3.3903573   1.4765488  12.4775701  )
        15           O1  tau(  15) = (   6.5762050   0.0002902  14.6414759  )
        16           O1  tau(  16) = (   3.3078303   5.9588356  13.9306596  )
        17           O1  tau(  17) = (   4.5399328   1.5113171  16.0740780  )
        18           O1  tau(  18) = (   2.0525891   1.5105181  16.0861438  )
        19           Ti1 tau(  19) = (   3.3041007   2.9930787  15.6963055  )
        20           Ti1 tau(  20) = (   0.0280933   1.5113244  15.8467906  )
        21           O1  tau(  21) = (   3.2904802   0.0005063   4.7018136  )
        22           O1  tau(  22) = (   0.0368235   0.0128086  17.1990618  )
        23           O1  tau(  23) = (   1.3043587   1.4918075   6.0039043  )
        24           O1  tau(  24) = (   5.2767064   1.4903225   6.0039473  )
        25           Ti1 tau(  25) = (   0.0000382   5.9609847   6.0000000  )
        26           Ti1 tau(  26) = (   3.2902200   4.4714249   6.0002472  )
        27           O1  tau(  27) = (   0.0002396   2.9813036   7.9858123  )
        28           O1  tau(  28) = (   3.2902150   2.9813002   7.3038282  )
        29           O1  tau(  29) = (   4.5938453   4.4726049   9.2879030  )
        30           O1  tau(  30) = (   1.9864658   4.4711199   9.2879459  )
        31           Ti1 tau(  31) = (   3.2891106   5.8743827   9.1763621  )
        32           Ti1 tau(  32) = (   0.0006254   4.4649316   9.2693709  )
        33           O1  tau(  33) = (   3.3000731   2.9737533  11.3293525  )
        34           O1  tau(  34) = (   0.0092240   2.9805883  10.6323155  )
        35           O1  tau(  35) = (   1.3001503   4.4664650  12.6348062  )
        36           O1  tau(  36) = (   5.2875254   4.4541756  12.6228532  )
        37           Ti1 tau(  37) = (   0.0765437   0.0243871  12.5594496  )
        38           Ti1 tau(  38) = (   3.3883988   4.4566399  12.4818539  )
        39           O1  tau(  39) = (   0.0169469   2.9261715  14.6451004  )
        40           O1  tau(  40) = (   3.3035743   2.9719493  13.9037931  )
        41           O1  tau(  41) = (   4.5445893   4.4635849  16.0933648  )
        42           O1  tau(  42) = (   2.0554864   4.4706235  16.0676963  )
        43           Ti1 tau(  43) = (   3.3300396   0.0018144  15.7250798  )
        44           Ti1 tau(  44) = (   0.0441581   4.6348571  16.0952712  )
        45           O1  tau(  45) = (   3.2900926   2.9813045   4.7018136  )
        46           O1  tau(  46) = (   1.3039711   4.4726057   6.0039043  )
        47           O1  tau(  47) = (   5.2763189   4.4711207   6.0039473  )
        48           N1  tau(  48) = (   1.0252718   2.8101955  18.5330041  )
        49           N1  tau(  49) = (   6.5702222   2.9467621  17.4344712  )
        50           C1  tau(  50) = (   1.2122298   3.5280882  19.5702009  )
        51           H1  tau(  51) = (   0.5037382   4.3646449  19.6222421  )
        52           H1  tau(  52) = (   1.5845460   1.9874866  18.3412699  )
        53           H1  tau(  53) = (   5.6894004   2.9582294  17.9538253  )

     number of k points=    10  Fermi-Dirac smearing, width (Ry)=  0.0073
                       cart. coord. in units 2pi/alat
        k(    1) = (   0.0000000   0.0000000   0.0000000), wk =   0.1250000
        k(    2) = (   0.0000000   0.0419351   0.0000000), wk =   0.2500000
        k(    3) = (   0.0000000  -0.0838702   0.0000000), wk =   0.1250000
        k(    4) = (   0.0379955   0.0000049   0.0000000), wk =   0.2500000
        k(    5) = (   0.0379955   0.0419400   0.0000000), wk =   0.2500000
        k(    6) = (   0.0379955  -0.0838652   0.0000000), wk =   0.2500000
        k(    7) = (   0.0379955  -0.0419301   0.0000000), wk =   0.2500000
        k(    8) = (  -0.0759910  -0.0000099   0.0000000), wk =   0.1250000
        k(    9) = (  -0.0759910   0.0419252   0.0000000), wk =   0.2500000
        k(   10) = (  -0.0759910  -0.0838800   0.0000000), wk =   0.1250000

     Initial potential from superposition of free atoms

     starting charge  378.99916, renormalised to  395.00000

     negative rho (up, down):  1.644E-02 0.000E+00

     %%%%%%%%%%%%%%%%%%%%%%%%%%%%%%%%%%%%%%%%%%%%%%%%%%%%%%%%%%%%%%%%%%%%%%%%
     %                                                                      %
     % You are using vdW-DF, which was implemented by the Thonhauser group. %
     % Please cite the following two papers that made this development      %
     % possible and the two reviews that describe the various versions:     %
     %                                                                      %
     %   T. Thonhauser et al., PRL 115, 136402 (2015).                      %
     %   T. Thonhauser et al., PRB 76, 125112 (2007).                       %
     %   K. Berland et al., Rep. Prog. Phys. 78, 066501 (2015).             %
     %   D.C. Langreth et al., J. Phys.: Condens. Matter 21, 084203 (2009). %
     %                                                                      %
     %                                                                      %
     % If you are calculating the stress with vdW-DF, please also cite:     %
     %                                                                      %
     %   R. Sabatini et al., J. Phys.: Condens. Matter 24, 424209 (2012).   %
     %                                                                      %
     %%%%%%%%%%%%%%%%%%%%%%%%%%%%%%%%%%%%%%%%%%%%%%%%%%%%%%%%%%%%%%%%%%%%%%%%

     Adding external electric field

     Computed dipole along edir(3) :
        Dipole               -8.4977 Ry au,        -21.5991 Debye
        Dipole field         -0.0160 Ry au,

        Potential amp.        1.4866 Ry
        Total length         46.3494 bohr

     Starting wfcs are  299 atomic wfcs
  @ DRIVER MODE: Message from server: STATUS
  @ DRIVER MODE: Message from server: POSDATA
  @ DRIVER MODE: Reading and sharing cell
  @ DRIVER MODE: Reading and sharing positions
  @ DRIVER MODE: Received positions

     Self-consistent Calculation

     iteration #  1     ecut=    29.40 Ry     beta= 0.05
     Davidson diagonalization with overlap
     c_bands:  1 eigenvalues not converged
     c_bands:  1 eigenvalues not converged
     c_bands:  2 eigenvalues not converged
     c_bands:  3 eigenvalues not converged
     c_bands:  3 eigenvalues not converged
     c_bands:  1 eigenvalues not converged
     c_bands:  1 eigenvalues not converged
     ethr =  1.00E-05,  avg # of iterations = 19.2

[...]

     total energy              =   -2621.17568550 Ry
     estimated scf accuracy    <    3530.39210057 Ry

[...]

     iteration #  3     ecut=    29.40 Ry     beta= 0.05
     Davidson diagonalization with overlap
     ethr =  1.00E-02,  avg # of iterations = 14.8

[...]

     iteration # 70     ecut=    29.40 Ry     beta= 0.05
     Davidson diagonalization with overlap
     c_bands:  1 eigenvalues not converged
     ethr =  4.00E-10,  avg # of iterations =  6.7

[...]

     total energy              =   -2939.04799691 Ry
     estimated scf accuracy    <       0.00000008 Ry

     iteration # 75     ecut=    29.40 Ry     beta= 0.05
     Davidson diagonalization with overlap
     ethr =  1.98E-11,  avg # of iterations = 10.1

     negative rho (up, down):  1.569E-02 0.000E+00

     Adding external electric field

     Computed dipole along edir(3) :
        Dipole                0.0482 Ry au,          0.1225 Debye
        Dipole field          0.0001 Ry au,

        Potential amp.       -0.0084 Ry
        Total length         46.3494 bohr

     End of self-consistent calculation

          k = 0.0000 0.0000 0.0000 ( 18029 PWs)   bands (ev):

   -56.2376 -56.2313 -56.2035 -56.1953 -56.1450 -56.0737 -56.0729 -56.0457
   -56.0374 -56.0117 -56.0095 -55.9758 -55.7772 -55.5126 -55.2143 -55.1802
   -32.7877 -32.7198 -32.5865 -32.5743 -32.5550 -32.5444 -32.5306 -32.5002
   -32.4799 -32.4776 -32.4520 -32.4398 -32.4124 -32.3896 -32.3838 -32.3724
   -32.3718 -32.3417 -32.3262 -32.2946 -32.2862 -32.2837 -32.2592 -32.2403
   -32.2330 -32.2327 -32.2319 -32.2194 -32.2123 -32.1955 -32.1889 -32.1853
   -32.1846 -32.1761 -32.1625 -32.1525 -32.1217 -32.0298 -31.9678 -31.7915
   -31.7746 -31.7141 -31.6214 -31.5331 -31.5106 -31.4381 -31.3516 -31.2405
   -17.2636 -16.9851 -16.7135 -16.5024 -16.3927 -16.3602 -16.2608 -16.0780
   -15.9545 -15.9237 -15.8240 -15.7960 -15.7735 -15.7603 -15.7402 -15.7279
   -15.6791 -15.6789 -15.6656 -15.6508 -15.5979 -15.5729 -15.5412 -15.4329
   -15.4262 -15.3941 -15.3695 -15.2931 -15.2859 -14.8223 -13.7169 -13.6005
   -12.7546  -8.6460  -5.2746  -4.3613  -4.2181  -4.1890  -4.1427  -4.0902
    -3.8751  -3.8087  -3.7571  -3.6017  -3.4657  -3.4240  -3.4116  -3.3951
    -3.3657  -3.1395  -3.1129  -3.0511  -3.0267  -3.0209  -3.0103  -3.0007
    -2.9782  -2.9626  -2.8877  -2.7858  -2.7090  -2.6626  -2.6155  -2.6029
    -2.5493  -2.5014  -2.4975  -2.4803  -2.4758  -2.4657  -2.4298  -2.4210
    -2.2843  -2.2233  -2.0892  -2.0546  -2.0334  -1.8894  -1.8443  -1.7474
    -1.6824  -1.6656  -1.6557  -1.6279  -1.5423  -1.5223  -1.3991  -1.3755
    -1.3362  -1.2676  -1.2523  -1.2308  -1.1282  -1.1128  -1.0077  -1.0011
    -0.9917  -0.9766  -0.9189  -0.7308  -0.7098  -0.6773  -0.6577  -0.6260
    -0.5493  -0.5187  -0.4277  -0.4142  -0.3563  -0.3382  -0.3122  -0.2630
    -0.2557  -0.2439  -0.2400  -0.2240  -0.0485   0.0126   0.0707   0.1208
     0.1368   0.2932   0.3444   0.4201   0.5071   0.7332   0.8076   0.8295
     0.8969   0.9998   1.3789   1.4245   2.4178   2.9033   2.9837   3.0335
     3.0444   3.1397   3.1447   3.3516   3.3735   3.3809   3.4437

[...]

          k = 0.0380-0.0419 0.0000 ( 17876 PWs)   bands (ev):

[...]

          k =-0.0760-0.0000 0.0000 ( 17886 PWs)   bands (ev):

[...]

          k =-0.0760-0.0839 0.0000 ( 17948 PWs)   bands (ev):

   -56.2208 -56.2201 -56.2141 -56.2123 -56.1406 -56.0780 -56.0595 -56.0508
   -56.0296 -56.0273 -55.9930 -55.9925 -55.7761 -55.5135 -55.1972 -55.1971
   -32.5927 -32.5898 -32.5353 -32.5348 -32.5232 -32.5163 -32.5156 -32.4964
   -32.4390 -32.4371 -32.4318 -32.4287 -32.4033 -32.3680 -32.3576 -32.3532
   -32.3465 -32.3418 -32.3406 -32.3402 -32.3394 -32.3323 -32.3301 -32.2813
   -32.2803 -32.2697 -32.2517 -32.2413 -32.2280 -32.2275 -32.2248 -32.2245
   -32.2080 -32.2072 -32.1994 -32.1969 -32.1216 -32.0322 -31.9630 -31.8482
   -31.7837 -31.7397 -31.5234 -31.5233 -31.4342 -31.4340 -31.3949 -31.3948
   -17.2447 -16.4364 -16.4048 -16.1791 -16.1685 -16.1537 -16.1509 -16.0116
   -15.9447 -15.9421 -15.9358 -15.9027 -15.8744 -15.8364 -15.7919 -15.7711
   -15.7706 -15.7586 -15.7519 -15.6994 -15.6942 -15.6726 -15.6657 -15.5619
   -15.5527 -15.5492 -15.4920 -15.4056 -15.2748 -14.9969 -13.7024 -13.7022
   -12.7657  -8.6514  -5.2722  -3.8821  -3.7275  -3.6903  -3.5346  -3.4076
    -3.4044  -3.3936  -3.3206  -3.1525  -3.1382  -3.1150  -3.0914  -3.0644
    -3.0641  -3.0488  -3.0438  -3.0254  -3.0003  -2.9654  -2.9258  -2.9222
    -2.9019  -2.8920  -2.8661  -2.8523  -2.8210  -2.8089  -2.7942  -2.7761
    -2.7563  -2.7410  -2.5884  -2.4685  -2.4352  -2.3736  -2.3653  -2.3444
    -2.3098  -2.3006  -2.2874  -2.2244  -2.1220  -1.9870  -1.9406  -1.9343
    -1.9016  -1.8212  -1.8090  -1.6638  -1.6486  -1.6217  -1.5830  -1.5298
    -1.5129  -1.4624  -1.3987  -1.3867  -1.3562  -1.3252  -1.2492  -1.2004
    -1.1976  -1.1807  -1.1194  -1.0319  -1.0228  -1.0067  -0.9980  -0.9497
    -0.8719  -0.8582  -0.8262  -0.7408  -0.7236  -0.6259  -0.5418  -0.3441
    -0.2565  -0.2097  -0.1643  -0.1298  -0.0269   0.0182   0.0350   0.0703
     0.0830   0.1314   0.1914   0.2954   0.3021   0.3643   0.4736   0.7949
     1.1713   1.1721   1.2441   1.2444   2.3753   3.1646   3.1730   3.2280
     3.2502   3.4004   3.4061   3.4303   3.4316   3.5532   3.5697

     the Fermi energy is     2.8980 ev

!    total energy              =   -2939.04801682 Ry
     estimated scf accuracy    <       0.00000005 Ry
     smearing contrib. (-TS)   =      -0.02277896 Ry
     internal energy E=F+TS    =   -2939.02523787 Ry

     The total energy is F=E-TS. E is the sum of the following terms:
     one-electron contribution =  -24317.43166664 Ry
     hartree contribution      =   12242.60417945 Ry
     xc contribution           =    -485.12170172 Ry
     ewald contribution        =    9620.92394667 Ry
     electric field correction =       0.00000438 Ry

     convergence has been achieved in  75 iterations

     Forces acting on atoms (cartesian axes, Ry/au):

     atom    1 type  1   force =     0.00026280   -0.00024262    0.09661265
     atom    2 type  1   force =    -0.00018431   -0.00052377   -0.17532785
     atom    3 type  2   force =    -0.00000581   -0.00007760   -0.02503705
     atom    4 type  2   force =     0.00005667   -0.00154400    0.05296297
     atom    5 type  2   force =    -0.01216737   -0.00104613    0.00343052
     atom    6 type  2   force =     0.01404607   -0.00028735    0.00272202
     atom    7 type  1   force =    -0.00095151    0.00049871   -0.01191768
     atom    8 type  1   force =     0.00044486    0.00876335    0.02928085
     atom    9 type  2   force =     0.00051035    0.00030406   -0.00019288
     atom   10 type  2   force =    -0.00091108   -0.00021016   -0.01718595
     atom   11 type  2   force =     0.00037193    0.00016811    0.00030459
     atom   12 type  2   force =    -0.00110014    0.00082030    0.00043989
     atom   13 type  1   force =     0.00147164    0.00082287    0.00028433
     atom   14 type  1   force =    -0.00120961    0.00035477   -0.00019967
     atom   15 type  2   force =    -0.00070129    0.00047595   -0.00008668
     atom   16 type  2   force =     0.00031578   -0.00036309   -0.00024826
     atom   17 type  2   force =     0.00027123    0.00005699   -0.00023540
     atom   18 type  2   force =    -0.00039657    0.00002139   -0.00026617
     atom   19 type  1   force =    -0.00005240   -0.00055080    0.00005339
     atom   20 type  1   force =     0.00008431   -0.00042512   -0.00063604
     atom   21 type  2   force =     0.00008123   -0.00006446    0.10321695
     atom   22 type  2   force =    -0.00001916    0.00171190    0.00063826
     atom   23 type  2   force =    -0.07148878   -0.00015555   -0.02776887
     atom   24 type  2   force =     0.07143378    0.00026511   -0.02777151
     atom   25 type  1   force =     0.00007981   -0.00022893    0.09646144
     atom   26 type  1   force =    -0.00012816   -0.00033925   -0.17550236
     atom   27 type  2   force =     0.00006292   -0.00024125   -0.02406686
     atom   28 type  2   force =     0.00011595   -0.00128165    0.05273614
     atom   29 type  2   force =    -0.01227917    0.00002225    0.00299426
     atom   30 type  2   force =     0.01404649    0.00040156    0.00236342
     atom   31 type  1   force =    -0.00094439    0.00316913   -0.01285913
     atom   32 type  1   force =     0.00028935   -0.01002936    0.02996977
     atom   33 type  2   force =     0.00025572   -0.00013710    0.00044737
     atom   34 type  2   force =    -0.00003854   -0.00001211   -0.02447418
     atom   35 type  2   force =    -0.00032790    0.00022290   -0.00032812
     atom   36 type  2   force =    -0.00118819    0.00053677   -0.00012599
     atom   37 type  1   force =     0.00124262   -0.00091825    0.00080053
     atom   38 type  1   force =    -0.00088278   -0.00056987    0.00001488
     atom   39 type  2   force =    -0.00017516   -0.00055950   -0.00022957
     atom   40 type  2   force =     0.00008526    0.00054427    0.00007238
     atom   41 type  2   force =    -0.00145250    0.00004639   -0.00033988
     atom   42 type  2   force =     0.00188408   -0.00018695   -0.00025695
     atom   43 type  1   force =    -0.00047481    0.00032857   -0.00044405
     atom   44 type  1   force =    -0.00010645    0.00049054   -0.00077711
     atom   45 type  2   force =     0.00005371   -0.00008602    0.10320791
     atom   46 type  2   force =    -0.07151468   -0.00016229   -0.02775633
     atom   47 type  2   force =     0.07148495    0.00033814   -0.02779654
     atom   48 type  3   force =     0.00121159    0.00135190   -0.00008448
     atom   49 type  3   force =    -0.00634161   -0.00017613    0.01074712
     atom   50 type  4   force =    -0.00084903   -0.00022509   -0.00182586
     atom   51 type  5   force =     0.00016860    0.00109184   -0.00029650
     atom   52 type  5   force =     0.00050047   -0.00149842   -0.00082998
     atom   53 type  5   force =     0.00505922   -0.00066495   -0.00489372

     Total force =     0.368683     Total SCF correction =     0.000620
  @ DRIVER MODE: Message from server: STATUS
  @ DRIVER MODE: Message from server: GETFORCE
  @ DRIVER MODE: Returning v,forces,stress,ensemble

     Writing output data file ./calc.save/
  @ DRIVER MODE: Message from server: EXIT
  @ DRIVE MODE: Exiting

     General routines

     Parallel routines

   This run was terminated on:  14:28:16  10Sep2021

   JOB DONE.