     Program PWSCF v.6.7GPU starts on 16Sep2021 at  0:51:36

     R & G space division:  proc/nbgrp/npool/nimage =      10
     Reading input from /storage/home/hcoda1/3/ntian30/research/carbon/CxH_vib/H2O_calc/ads_slab/CH3NH2NHH2O_c/out_0026/pw.inp
Warning: card &CELL ignored
Warning: card   CELL_DYNAMICS='IPI', ignored
Warning: card / ignored

     Current dimensions of program PWSCF are:
     Max number of different atomic species (ntypx) = 10
     Max number of k-points (npk) =  40000
     Max angular momentum in pseudopotentials (lmaxx) =  3
     Presently no symmetry can be used with electric field

     Message from routine cell_base_init:
     DEPRECATED: use true lattice parameter, not A to a.u. conversion factor

     IMPORTANT: XC functional enforced from input :
     Exchange-correlation= BEEF-VDW
                           (   1   4  43  14   2   0   0)
     Any further DFT definition will be discarded
     Please, verify this is what you really want

  @ DRIVER MODE: Connecting to
 qe_1139763_2852614.sched-torque.pace.gatech.edul7vjru_a_scratch
  using UNIX socket
  @ DRIVER MODE: Message from server: STATUS
  @ DRIVER MODE: Message from server: INIT
  @ DRIVER MODE: Receiving replica           0          -1
  @ DRIVER MODE: Receiving encoded integer          25
  @ DRIVER MODE:  SCF:  T  FORCE:  T  STRESS:  F  VC:  F  ENSEMBLE:  F
  @ DRIVER MODE:  SCF:  T  FORCE:  T  STRESS:  F  VC:  F  ENSEMBLE:  F

     Using Slab Decomposition

     bravais-lattice index     =            0
     lattice parameter (alat)  =       1.8897  a.u.
     unit-cell volume          =    6658.9804 (a.u.)^3
     number of atoms/cell      =           59
     number of atomic types    =            5
     number of electrons       =       406.00
     number of Kohn-Sham states=          213
     kinetic-energy cutoff     =      29.3995  Ry
     charge density cutoff     =     293.9946  Ry
     scf convergence threshold =      7.3E-08
     mixing beta               =       0.0500
     number of iterations used =            8  plain     mixing
     Exchange-correlation= BEEF-VDW
                           (   1   4  43  14   2   0   0)

     celldm(1)=   1.889726  celldm(2)=   0.000000  celldm(3)=   0.000000
     celldm(4)=   0.000000  celldm(5)=   0.000000  celldm(6)=   0.000000

     crystal axes: (cart. coord. in units of alat)
               a(1) = (   6.579727   0.000000   0.000000 )
               a(2) = (  -0.000775   5.961596   0.000000 )
               a(3) = (   0.000000   0.000000  25.155947 )

     reciprocal axes: (cart. coord. in units 2 pi/alat)
               b(1) = (  0.151982  0.000020  0.000000 )
               b(2) = (  0.000000  0.167740  0.000000 )
               b(3) = (  0.000000  0.000000  0.039752 )

     PseudoPot. # 1 for Ti read from file:
     /storage/coda1/p-amedford6/0/shared/rich_project_chbe-medford/medford-share/data/pseudos_module/espresso/nninc/pbe/van/Ti.UPF
     MD5 check sum: 8e4df49b7f0d34bbd5052bf3f5ea0213
     Pseudo is Ultrasoft, Zval = 12.0
     Generated by new atomic code, or converted to UPF format
     Using radial grid of  851 points,  6 beta functions with:
                l(1) =   0
                l(2) =   0
                l(3) =   1
                l(4) =   1
                l(5) =   2
                l(6) =   2
     Q(r) pseudized with  8 coefficients,  rinner =    1.000   1.000   1.000
                                                       1.000   1.000

     PseudoPot. # 2 for O  read from file:
     /storage/coda1/p-amedford6/0/shared/rich_project_chbe-medford/medford-share/data/pseudos_module/espresso/nninc/pbe/van/O.UPF
     MD5 check sum: 78c19812648e8988a0fe644b0f25305e
     Pseudo is Ultrasoft, Zval =  6.0
     Generated by new atomic code, or converted to UPF format
     Using radial grid of  737 points,  4 beta functions with:
                l(1) =   0
                l(2) =   0
                l(3) =   1
                l(4) =   1
     Q(r) pseudized with  8 coefficients,  rinner =    0.800   0.800   0.800

     PseudoPot. # 3 for N  read from file:
     /storage/coda1/p-amedford6/0/shared/rich_project_chbe-medford/medford-share/data/pseudos_module/espresso/nninc/pbe/van/N.UPF
     MD5 check sum: 90d10febe142ad51ac9d5be1deb811c4
     Pseudo is Ultrasoft, Zval =  5.0
     Generated by new atomic code, or converted to UPF format
     Using radial grid of  729 points,  4 beta functions with:
                l(1) =   0
                l(2) =   0
                l(3) =   1
                l(4) =   1
     Q(r) pseudized with  8 coefficients,  rinner =    0.800   0.800   0.800

     PseudoPot. # 4 for C  read from file:
     /storage/coda1/p-amedford6/0/shared/rich_project_chbe-medford/medford-share/data/pseudos_module/espresso/nninc/pbe/van/C.UPF
     MD5 check sum: 1a69bf6b8db32088f5b2163dbdb77a27
     Pseudo is Ultrasoft, Zval =  4.0
     Generated by new atomic code, or converted to UPF format
     Using radial grid of  721 points,  4 beta functions with:
                l(1) =   0
                l(2) =   0
                l(3) =   1
                l(4) =   1
     Q(r) pseudized with  8 coefficients,  rinner =    0.800   0.800   0.800

     PseudoPot. # 5 for H  read from file:
     /storage/coda1/p-amedford6/0/shared/rich_project_chbe-medford/medford-share/data/pseudos_module/espresso/nninc/pbe/van/H.UPF
     MD5 check sum: b5ee9d7bfd3a09ee7748110bda690ff7
     Pseudo is Ultrasoft, Zval =  1.0
     Generated by new atomic code, or converted to UPF format
     Using radial grid of  615 points,  1 beta functions with:
                l(1) =   0
     Q(r) pseudized with  8 coefficients,  rinner =    0.800

     atomic species   valence    mass     pseudopotential
        Ti1           12.00    47.86700     Ti( 1.00)
        O1             6.00    15.99900     O ( 1.00)
        N1             5.00    14.00700     N ( 1.00)
        C1             4.00    12.01100     C ( 1.00)
        H1             1.00     1.00800     H ( 1.00)

     No symmetry found

   Cartesian axes

     site n.     atom                  positions (alat units)
         1           Ti1 tau(   1) = (   0.0004258   2.9801865   6.0000000  )
         2           Ti1 tau(   2) = (   3.2906075   1.4906267   6.0002472  )
         3           O1  tau(   3) = (   0.0006271   0.0005054   7.9858123  )
         4           O1  tau(   4) = (   3.2906025   0.0005020   7.3038282  )
         5           O1  tau(   5) = (   4.5942328   1.4918067   9.2879030  )
         6           O1  tau(   6) = (   1.9868534   1.4903216   9.2879459  )
         7           Ti1 tau(   7) = (   3.2907910   2.8959150   9.1758416  )
         8           Ti1 tau(   8) = (   0.0015273   1.4827037   9.2680791  )
         9           O1  tau(   9) = (   3.2795193   0.0050042  11.3600746  )
        10           O1  tau(  10) = (   0.0116148   5.9584955  10.6183126  )
        11           O1  tau(  11) = (   1.2764768   1.4833402  12.6625751  )
        12           O1  tau(  12) = (   5.2691860   1.4824858  12.6730715  )
        13           Ti1 tau(  13) = (   6.5785005   2.9712200  12.5432933  )
        14           Ti1 tau(  14) = (   3.2815129   1.4861921  12.5133659  )
        15           O1  tau(  15) = (   0.0084525   5.9333602  14.7514412  )
        16           O1  tau(  16) = (   3.2474592   5.9449689  14.0025778  )
        17           O1  tau(  17) = (   4.5272503   1.5270814  16.0535473  )
        18           O1  tau(  18) = (   2.0088677   1.5398698  16.1918835  )
        19           Ti1 tau(  19) = (   3.2695027   3.0127370  15.7044713  )
        20           Ti1 tau(  20) = (   6.4897317   1.5391078  15.7731133  )
        21           O1  tau(  21) = (   3.2904802   0.0005063   4.7018136  )
        22           O1  tau(  22) = (   6.4943121   0.0104379  17.3746616  )
        23           O1  tau(  23) = (   1.3043587   1.4918075   6.0039043  )
        24           O1  tau(  24) = (   5.2767064   1.4903225   6.0039473  )
        25           Ti1 tau(  25) = (   0.0000382   5.9609847   6.0000000  )
        26           Ti1 tau(  26) = (   3.2902200   4.4714249   6.0002472  )
        27           O1  tau(  27) = (   0.0002396   2.9813036   7.9858123  )
        28           O1  tau(  28) = (   3.2902150   2.9813002   7.3038282  )
        29           O1  tau(  29) = (   4.5938453   4.4726049   9.2879030  )
        30           O1  tau(  30) = (   1.9864658   4.4711199   9.2879459  )
        31           Ti1 tau(  31) = (   3.2891106   5.8743827   9.1763621  )
        32           Ti1 tau(  32) = (   0.0006254   4.4649316   9.2693709  )
        33           O1  tau(  33) = (   3.2806081   2.9711243  11.3509633  )
        34           O1  tau(  34) = (   0.0092240   2.9805883  10.6323155  )
        35           O1  tau(  35) = (   1.2760424   4.4718827  12.6381679  )
        36           O1  tau(  36) = (   5.2690016   4.4731519  12.6446470  )
        37           Ti1 tau(  37) = (   6.5708669   5.9382087  12.5160675  )
        38           Ti1 tau(  38) = (   3.2845625   4.4656782  12.4980923  )
        39           O1  tau(  39) = (   6.5779858   3.0049062  14.7590937  )
        40           O1  tau(  40) = (   3.2501146   3.0001303  13.9242794  )
        41           O1  tau(  41) = (   4.5300198   4.4412671  16.1793791  )
        42           O1  tau(  42) = (   2.0030354   4.4482434  16.2507355  )
        43           Ti1 tau(  43) = (   3.2558399   0.0045369  15.7947069  )
        44           Ti1 tau(  44) = (   0.0024851   4.6597080  16.1671864  )
        45           O1  tau(  45) = (   3.2900926   2.9813045   4.7018136  )
        46           O1  tau(  46) = (   1.3039711   4.4726057   6.0039043  )
        47           O1  tau(  47) = (   5.2763189   4.4711207   6.0039473  )
        48           N1  tau(  48) = (   0.8610865   2.3037131  18.4629187  )
        49           N1  tau(  49) = (   6.4642385   2.8627238  17.5618644  )
        50           C1  tau(  50) = (   1.1134797   3.0572184  19.7121060  )
        51           H1  tau(  51) = (   0.2160447   3.0254214  20.3281890  )
        52           H1  tau(  52) = (   1.9567850   2.5864873  20.2353232  )
        53           H1  tau(  53) = (   1.3463996   4.0866186  19.4485780  )
        54           H1  tau(  54) = (   0.5832711   1.3114681  18.6183785  )
        55           H1  tau(  55) = (   5.5643591   2.7461405  18.0238738  )
        56           H1  tau(  56) = (   1.7079168   2.1891883  17.8702682  )
        57           O1  tau(  57) = (   4.0734316   0.3075885  18.7765601  )
        58           H1  tau(  58) = (   4.9241673   0.1787741  18.2816895  )
        59           H1  tau(  59) = (   3.8734322   5.3936830  19.1372508  )

     number of k points=    10  Fermi-Dirac smearing, width (Ry)=  0.0073
                       cart. coord. in units 2pi/alat
        k(    1) = (   0.0000000   0.0000000   0.0000000), wk =   0.1250000
        k(    2) = (   0.0000000   0.0419351   0.0000000), wk =   0.2500000
        k(    3) = (   0.0000000  -0.0838702   0.0000000), wk =   0.1250000
        k(    4) = (   0.0379955   0.0000049   0.0000000), wk =   0.2500000
        k(    5) = (   0.0379955   0.0419400   0.0000000), wk =   0.2500000
        k(    6) = (   0.0379955  -0.0838652   0.0000000), wk =   0.2500000
        k(    7) = (   0.0379955  -0.0419301   0.0000000), wk =   0.2500000
        k(    8) = (  -0.0759910  -0.0000099   0.0000000), wk =   0.1250000
        k(    9) = (  -0.0759910   0.0419252   0.0000000), wk =   0.2500000
        k(   10) = (  -0.0759910  -0.0838800   0.0000000), wk =   0.1250000

     Initial potential from superposition of free atoms

     starting charge  389.99912, renormalised to  406.00000

     negative rho (up, down):  1.392E-02 0.000E+00

     %%%%%%%%%%%%%%%%%%%%%%%%%%%%%%%%%%%%%%%%%%%%%%%%%%%%%%%%%%%%%%%%%%%%%%%%
     %                                                                      %
     % You are using vdW-DF, which was implemented by the Thonhauser group. %
     % Please cite the following two papers that made this development      %
     % possible and the two reviews that describe the various versions:     %
     %                                                                      %
     %   T. Thonhauser et al., PRL 115, 136402 (2015).                      %
     %   T. Thonhauser et al., PRB 76, 125112 (2007).                       %
     %   K. Berland et al., Rep. Prog. Phys. 78, 066501 (2015).             %
     %   D.C. Langreth et al., J. Phys.: Condens. Matter 21, 084203 (2009). %
     %                                                                      %
     %                                                                      %
     % If you are calculating the stress with vdW-DF, please also cite:     %
     %                                                                      %
     %   R. Sabatini et al., J. Phys.: Condens. Matter 24, 424209 (2012).   %
     %                                                                      %
     %%%%%%%%%%%%%%%%%%%%%%%%%%%%%%%%%%%%%%%%%%%%%%%%%%%%%%%%%%%%%%%%%%%%%%%%

     Adding external electric field

     Computed dipole along edir(3) :
        Dipole              -15.6809 Ry au,        -39.8568 Debye
        Dipole field         -0.0296 Ry au,

        Potential amp.        2.7431 Ry
        Total length         46.3494 bohr

     Starting wfcs are  308 atomic wfcs
  @ DRIVER MODE: Message from server: STATUS
  @ DRIVER MODE: Message from server: POSDATA
  @ DRIVER MODE: Reading and sharing cell
  @ DRIVER MODE: Reading and sharing positions
  @ DRIVER MODE: Received positions

     Self-consistent Calculation

     iteration #  1     ecut=    29.40 Ry     beta= 0.05
     Davidson diagonalization with overlap
     c_bands:  2 eigenvalues not converged
     c_bands:  5 eigenvalues not converged
     c_bands:  2 eigenvalues not converged
     c_bands:  4 eigenvalues not converged
     c_bands:  4 eigenvalues not converged
     c_bands:  5 eigenvalues not converged
     c_bands:  5 eigenvalues not converged
     c_bands:  1 eigenvalues not converged
     ethr =  1.00E-05,  avg # of iterations = 22.5

[...]

     total energy              =   -2140.15023786 Ry
     estimated scf accuracy    <    9575.47272342 Ry

     iteration #  2     ecut=    29.40 Ry     beta= 0.05
     Davidson diagonalization with overlap
     ethr =  1.00E-02,  avg # of iterations = 31.9

[...]

     iteration # 80     ecut=    29.40 Ry     beta= 0.05
     Davidson diagonalization with overlap
     c_bands:  1 eigenvalues not converged
     ethr =  6.69E-11,  avg # of iterations = 13.9

[...]

     total energy              =   -2977.68486785 Ry
     estimated scf accuracy    <       0.00000011 Ry

     iteration # 82     ecut=    29.40 Ry     beta= 0.05
     Davidson diagonalization with overlap
     ethr =  2.71E-11,  avg # of iterations = 14.2

     negative rho (up, down):  1.243E-02 0.000E+00

     Adding external electric field

     Computed dipole along edir(3) :
        Dipole                1.6051 Ry au,          4.0798 Debye
        Dipole field          0.0030 Ry au,

        Potential amp.       -0.2808 Ry
        Total length         46.3494 bohr

     End of self-consistent calculation

          k = 0.0000 0.0000 0.0000 ( 18029 PWs)   bands (ev):

   -54.9551 -54.9183 -54.9157 -54.8842 -54.8447 -54.8348 -54.7946 -54.7633
   -54.7584 -54.7477 -54.7281 -54.7227 -54.7144 -54.6606 -53.9341 -53.9001
   -31.5271 -31.4084 -31.3214 -31.2827 -31.2657 -31.2527 -31.2499 -31.2447
   -31.2103 -31.2083 -31.1639 -31.1634 -31.1579 -31.1278 -31.1091 -31.0893
   -31.0787 -31.0728 -31.0713 -31.0643 -31.0299 -31.0256 -31.0191 -31.0134
   -30.9938 -30.9753 -30.9652 -30.9640 -30.9564 -30.9563 -30.9459 -30.9375
   -30.9214 -30.9210 -30.9126 -30.9108 -30.8852 -30.8786 -30.8766 -30.8759
   -30.8571 -30.8566 -30.3429 -30.2503 -30.2281 -30.1593 -30.0726 -29.9617
   -18.9619 -18.2085 -15.7902 -15.5224 -15.3971 -15.1971 -15.1438 -15.0390
   -14.8791 -14.8183 -14.7533 -14.7284 -14.7226 -14.6959 -14.6232 -14.5679
   -14.5384 -14.4866 -14.4858 -14.4498 -14.4425 -14.4375 -14.3830 -14.3792
   -14.3428 -14.3289 -14.3213 -14.1783 -14.0997 -14.0515 -14.0409 -13.1924
   -12.4366 -12.3194 -10.9754  -7.5866  -6.3838  -5.9730  -5.7602  -3.9915
    -3.8437  -3.1341  -2.9634  -2.9515  -2.8736  -2.8500  -2.6791  -2.6191
    -2.5098  -2.3942  -2.3190  -2.2215  -2.1776  -2.1596  -2.1457  -2.0321
    -1.9467  -1.9092  -1.8700  -1.8313  -1.8144  -1.7690  -1.7479  -1.7378
    -1.7052  -1.6797  -1.5265  -1.4520  -1.4155  -1.3813  -1.3414  -1.2841
    -1.2626  -1.2461  -1.2406  -1.2327  -1.2164  -1.1919  -1.1561  -1.1244
    -1.0563  -0.9720  -0.9629  -0.8515  -0.7673  -0.6345  -0.5818  -0.5238
    -0.4933  -0.4270  -0.3851  -0.3373  -0.3015  -0.2950  -0.2485  -0.1611
    -0.1479  -0.0907  -0.0722   0.0126   0.0589   0.0645   0.0754   0.2520
     0.2621   0.2800   0.3830   0.4639   0.5027   0.5194   0.5768   0.6393
     0.6417   0.6800   0.7020   0.7326   0.8155   0.9190   0.9441   0.9824
     0.9967   1.0222   1.0393   1.0665   1.1056   1.1867   1.1927   1.2701
     1.3624   1.3736   1.6365   1.6685   1.9992   2.0262   2.0886   2.2744
     2.6632   2.7106   4.1471   4.2090   4.2543   4.2799   4.2980   4.3796
     4.3995   4.6149   4.6412   4.6423   4.6515

[...]

          k = 0.0380-0.0419 0.0000 ( 17876 PWs)   bands (ev):

[...]

          k =-0.0760-0.0000 0.0000 ( 17886 PWs)   bands (ev):

[...]

          k =-0.0760-0.0839 0.0000 ( 17948 PWs)   bands (ev):

   -54.9432 -54.9274 -54.9012 -54.9012 -54.8422 -54.8252 -54.8042 -54.7559
   -54.7480 -54.7425 -54.7328 -54.7299 -54.7250 -54.6630 -53.9171 -53.9169
   -31.3358 -31.3244 -31.2584 -31.2236 -31.2235 -31.2173 -31.1938 -31.1936
   -31.1686 -31.1663 -31.1572 -31.1535 -31.1455 -31.0954 -31.0820 -31.0812
   -31.0771 -31.0757 -31.0724 -31.0696 -31.0424 -31.0324 -31.0301 -31.0237
   -31.0228 -31.0206 -31.0205 -31.0196 -30.9988 -30.9816 -30.9755 -30.9683
   -30.9622 -30.9566 -30.9548 -30.9506 -30.9503 -30.9233 -30.9163 -30.9132
   -30.9086 -30.8984 -30.2409 -30.2407 -30.1556 -30.1553 -30.1160 -30.1159
   -18.9570 -18.2090 -15.2809 -15.1540 -15.0550 -14.9995 -14.9527 -14.9370
   -14.9194 -14.8661 -14.8359 -14.7761 -14.7525 -14.7042 -14.6602 -14.6562
   -14.6283 -14.5490 -14.5337 -14.5213 -14.5138 -14.4629 -14.4489 -14.4260
   -14.4033 -14.3993 -14.3809 -14.3083 -14.2989 -14.2947 -14.2547 -13.2017
   -12.4211 -12.4208 -10.9760  -7.5977  -6.3740  -5.9723  -5.7451  -3.9682
    -3.8401  -2.5619  -2.5405  -2.4058  -2.3915  -2.2804  -2.1884  -2.1380
    -2.1324  -1.9933  -1.9605  -1.9446  -1.9294  -1.9170  -1.8684  -1.8449
    -1.8091  -1.7917  -1.7822  -1.7723  -1.7566  -1.7362  -1.6839  -1.6799
    -1.6694  -1.6550  -1.6110  -1.5953  -1.5644  -1.5536  -1.5252  -1.5026
    -1.4358  -1.3412  -1.2937  -1.2504  -1.1957  -1.1434  -1.1375  -1.0585
    -1.0408  -1.0092  -0.9782  -0.9533  -0.8576  -0.7841  -0.6898  -0.6873
    -0.6838  -0.5639  -0.5238  -0.5060  -0.4934  -0.4634  -0.3791  -0.3688
    -0.3092  -0.2347  -0.2085  -0.2037  -0.1779  -0.0583  -0.0331   0.0268
     0.0573   0.0897   0.0919   0.1712   0.1843   0.2434   0.2579   0.2713
     0.3162   0.3338   0.4322   0.5221   0.5578   0.6608   0.7538   0.7830
     0.8782   0.9359   1.0404   1.0613   1.0848   1.1812   1.1895   1.2244
     1.3534   1.3603   1.4762   1.5158   1.5259   1.5284   2.4467   2.4482
     2.5307   2.5308   4.2734   4.3964   4.4119   4.4580   4.5124   4.6537
     4.6771   4.7243   4.7260   4.8002   4.8088

     the Fermi energy is     4.1993 ev

!    total energy              =   -2977.68487461 Ry
     estimated scf accuracy    <       0.00000006 Ry
     smearing contrib. (-TS)   =      -0.03700260 Ry
     internal energy E=F+TS    =   -2977.64787200 Ry

     The total energy is F=E-TS. E is the sum of the following terms:
     one-electron contribution =  -23305.67046537 Ry
     hartree contribution      =   11753.82614928 Ry
     xc contribution           =    -496.60329916 Ry
     ewald contribution        =    9070.79488135 Ry
     electric field correction =       0.00486190 Ry

     convergence has been achieved in  82 iterations

     Forces acting on atoms (cartesian axes, Ry/au):

     atom    1 type  1   force =     0.00008884   -0.00025087    0.09411960
     atom    2 type  1   force =    -0.00008545   -0.00045243   -0.17749456
     atom    3 type  2   force =     0.00006380   -0.00033215   -0.02124482
     atom    4 type  2   force =     0.00003873   -0.00179011    0.05731230
     atom    5 type  2   force =    -0.01079266   -0.00101424    0.00668062
     atom    6 type  2   force =     0.01199182   -0.00033187    0.00503497
     atom    7 type  1   force =    -0.00060017    0.00105118   -0.01459562
     atom    8 type  1   force =     0.00086377    0.00331105    0.00460526
     atom    9 type  2   force =     0.00001057   -0.00005056    0.00013424
     atom   10 type  2   force =    -0.00368552    0.00211125   -0.00165298
     atom   11 type  2   force =    -0.00016282    0.00061843   -0.00010389
     atom   12 type  2   force =     0.00018246    0.00028378   -0.00021990
     atom   13 type  1   force =    -0.00019554   -0.00027438    0.00010561
     atom   14 type  1   force =     0.00024929   -0.00022133   -0.00037672
     atom   15 type  2   force =     0.00020637    0.00036499   -0.00012192
     atom   16 type  2   force =    -0.00012182    0.00025182   -0.00020613
     atom   17 type  2   force =    -0.00008163   -0.00028681    0.00033357
     atom   18 type  2   force =     0.00016334    0.00004614   -0.00000568
     atom   19 type  1   force =    -0.00000431    0.00021576   -0.00041399
     atom   20 type  1   force =     0.00041945   -0.00006986   -0.00003876
     atom   21 type  2   force =     0.00011994   -0.00007949    0.10375408
     atom   22 type  2   force =     0.00056485   -0.00030427   -0.00069432
     atom   23 type  2   force =    -0.07068077   -0.00015267   -0.02712941
     atom   24 type  2   force =     0.07064746    0.00031324   -0.02713407
     atom   25 type  1   force =     0.00011097   -0.00016531    0.09374756
     atom   26 type  1   force =    -0.00006445   -0.00054244   -0.17772226
     atom   27 type  2   force =     0.00006766   -0.00005000   -0.02034163
     atom   28 type  2   force =     0.00006618   -0.00146141    0.05630875
     atom   29 type  2   force =    -0.01130183   -0.00039649    0.00736630
     atom   30 type  2   force =     0.01241584    0.00000158    0.00575437
     atom   31 type  1   force =    -0.00074758    0.00573119   -0.01563469
     atom   32 type  1   force =     0.00081917   -0.00459522    0.00434900
     atom   33 type  2   force =     0.00001942    0.00014721    0.00027703
     atom   34 type  2   force =    -0.00321086   -0.00103327   -0.00519987
     atom   35 type  2   force =    -0.00010837   -0.00039842    0.00007304
     atom   36 type  2   force =     0.00020869   -0.00006949   -0.00010292
     atom   37 type  1   force =    -0.00013015    0.00043230   -0.00012109
     atom   38 type  1   force =     0.00009181    0.00015161   -0.00012577
     atom   39 type  2   force =    -0.00045142   -0.00030568   -0.00017781
     atom   40 type  2   force =     0.00012738   -0.00008033    0.00025186
     atom   41 type  2   force =    -0.00003067    0.00022005   -0.00015620
     atom   42 type  2   force =     0.00045477    0.00008613   -0.00028088
     atom   43 type  1   force =    -0.00016476   -0.00000541   -0.00008343
     atom   44 type  1   force =     0.00035428    0.00041397    0.00033084
     atom   45 type  2   force =     0.00010612   -0.00006602    0.10374709
     atom   46 type  2   force =    -0.07067155   -0.00007192   -0.02709512
     atom   47 type  2   force =     0.07065012    0.00033930   -0.02711886
     atom   48 type  3   force =     0.00069631   -0.00078965    0.00116809
     atom   49 type  3   force =    -0.00023798   -0.00037342    0.00053794
     atom   50 type  4   force =     0.00767744   -0.00271509    0.00311600
     atom   51 type  5   force =     0.00126254    0.00037772    0.00019178
     atom   52 type  5   force =    -0.00790676    0.00375475   -0.00356915
     atom   53 type  5   force =    -0.00012571   -0.00042888   -0.00067478
     atom   54 type  5   force =     0.00042667   -0.00010630    0.00021292
     atom   55 type  5   force =     0.00033004   -0.00059317   -0.00014285
     atom   56 type  5   force =     0.00018161   -0.00015309    0.00040334
     atom   57 type  2   force =    -0.00082699    0.00078824    0.00145162
     atom   58 type  5   force =     0.00032586   -0.00063336   -0.00103926
     atom   59 type  5   force =     0.00038624   -0.00036631   -0.00034843

     Total force =     0.366079     Total SCF correction =     0.000609
  @ DRIVER MODE: Message from server: STATUS
  @ DRIVER MODE: Message from server: GETFORCE
  @ DRIVER MODE: Returning v,forces,stress,ensemble

     Writing output data file ./calc.save/
  @ DRIVER MODE: Message from server: EXIT
  @ DRIVE MODE: Exiting

     General routines

     Parallel routines

   This run was terminated on:   1:15: 6  16Sep2021

   JOB DONE.