     Program PWSCF v.6.7GPU starts on 16Sep2021 at 13: 3: 2

     R & G space division:  proc/nbgrp/npool/nimage =      10
     Reading input from /storage/home/hcoda1/3/ntian30/research/carbon/CxH_vib/H2O_calc/ads_slab/CH3NHNH2H2O_a/out_0061/pw.inp
Warning: card &CELL ignored
Warning: card   CELL_DYNAMICS='IPI', ignored
Warning: card / ignored

     Current dimensions of program PWSCF are:
     Max number of different atomic species (ntypx) = 10
     Max number of k-points (npk) =  40000
     Max angular momentum in pseudopotentials (lmaxx) =  3
     Presently no symmetry can be used with electric field

     Message from routine cell_base_init:
     DEPRECATED: use true lattice parameter, not A to a.u. conversion factor

     IMPORTANT: XC functional enforced from input :
     Exchange-correlation= BEEF-VDW
                           (   1   4  43  14   2   0   0)
     Any further DFT definition will be discarded
     Please, verify this is what you really want

  @ DRIVER MODE: Connecting to
 qe_1139763_2852619.sched-torque.pace.gatech.edu364g3wj8_scratch
  using UNIX socket
  @ DRIVER MODE: Message from server: STATUS
  @ DRIVER MODE: Message from server: INIT
  @ DRIVER MODE: Receiving replica           0          -1
  @ DRIVER MODE: Receiving encoded integer          25
  @ DRIVER MODE:  SCF:  T  FORCE:  T  STRESS:  F  VC:  F  ENSEMBLE:  F
  @ DRIVER MODE:  SCF:  T  FORCE:  T  STRESS:  F  VC:  F  ENSEMBLE:  F

     Using Slab Decomposition

     bravais-lattice index     =            0
     lattice parameter (alat)  =       1.8897  a.u.
     unit-cell volume          =    6658.9804 (a.u.)^3
     number of atoms/cell      =           59
     number of atomic types    =            5
     number of electrons       =       406.00
     number of Kohn-Sham states=          213
     kinetic-energy cutoff     =      29.3995  Ry
     charge density cutoff     =     293.9946  Ry
     scf convergence threshold =      7.3E-08
     mixing beta               =       0.0500
     number of iterations used =            8  plain     mixing
     Exchange-correlation= BEEF-VDW
                           (   1   4  43  14   2   0   0)

     celldm(1)=   1.889726  celldm(2)=   0.000000  celldm(3)=   0.000000
     celldm(4)=   0.000000  celldm(5)=   0.000000  celldm(6)=   0.000000

     crystal axes: (cart. coord. in units of alat)
               a(1) = (   6.579727   0.000000   0.000000 )
               a(2) = (  -0.000775   5.961596   0.000000 )
               a(3) = (   0.000000   0.000000  25.155947 )

     reciprocal axes: (cart. coord. in units 2 pi/alat)
               b(1) = (  0.151982  0.000020  0.000000 )
               b(2) = (  0.000000  0.167740  0.000000 )
               b(3) = (  0.000000  0.000000  0.039752 )

     PseudoPot. # 1 for Ti read from file:
     /storage/coda1/p-amedford6/0/shared/rich_project_chbe-medford/medford-share/data/pseudos_module/espresso/nninc/pbe/van/Ti.UPF
     MD5 check sum: 8e4df49b7f0d34bbd5052bf3f5ea0213
     Pseudo is Ultrasoft, Zval = 12.0
     Generated by new atomic code, or converted to UPF format
     Using radial grid of  851 points,  6 beta functions with:
                l(1) =   0
                l(2) =   0
                l(3) =   1
                l(4) =   1
                l(5) =   2
                l(6) =   2
     Q(r) pseudized with  8 coefficients,  rinner =    1.000   1.000   1.000
                                                       1.000   1.000

     PseudoPot. # 2 for O  read from file:
     /storage/coda1/p-amedford6/0/shared/rich_project_chbe-medford/medford-share/data/pseudos_module/espresso/nninc/pbe/van/O.UPF
     MD5 check sum: 78c19812648e8988a0fe644b0f25305e
     Pseudo is Ultrasoft, Zval =  6.0
     Generated by new atomic code, or converted to UPF format
     Using radial grid of  737 points,  4 beta functions with:
                l(1) =   0
                l(2) =   0
                l(3) =   1
                l(4) =   1
     Q(r) pseudized with  8 coefficients,  rinner =    0.800   0.800   0.800

     PseudoPot. # 3 for N  read from file:
     /storage/coda1/p-amedford6/0/shared/rich_project_chbe-medford/medford-share/data/pseudos_module/espresso/nninc/pbe/van/N.UPF
     MD5 check sum: 90d10febe142ad51ac9d5be1deb811c4
     Pseudo is Ultrasoft, Zval =  5.0
     Generated by new atomic code, or converted to UPF format
     Using radial grid of  729 points,  4 beta functions with:
                l(1) =   0
                l(2) =   0
                l(3) =   1
                l(4) =   1
     Q(r) pseudized with  8 coefficients,  rinner =    0.800   0.800   0.800

     PseudoPot. # 4 for C  read from file:
     /storage/coda1/p-amedford6/0/shared/rich_project_chbe-medford/medford-share/data/pseudos_module/espresso/nninc/pbe/van/C.UPF
     MD5 check sum: 1a69bf6b8db32088f5b2163dbdb77a27
     Pseudo is Ultrasoft, Zval =  4.0
     Generated by new atomic code, or converted to UPF format
     Using radial grid of  721 points,  4 beta functions with:
                l(1) =   0
                l(2) =   0
                l(3) =   1
                l(4) =   1
     Q(r) pseudized with  8 coefficients,  rinner =    0.800   0.800   0.800

     PseudoPot. # 5 for H  read from file:
     /storage/coda1/p-amedford6/0/shared/rich_project_chbe-medford/medford-share/data/pseudos_module/espresso/nninc/pbe/van/H.UPF
     MD5 check sum: b5ee9d7bfd3a09ee7748110bda690ff7
     Pseudo is Ultrasoft, Zval =  1.0
     Generated by new atomic code, or converted to UPF format
     Using radial grid of  615 points,  1 beta functions with:
                l(1) =   0
     Q(r) pseudized with  8 coefficients,  rinner =    0.800

     atomic species   valence    mass     pseudopotential
        Ti1           12.00    47.86700     Ti( 1.00)
        O1             6.00    15.99900     O ( 1.00)
        N1             5.00    14.00700     N ( 1.00)
        C1             4.00    12.01100     C ( 1.00)
        H1             1.00     1.00800     H ( 1.00)

     No symmetry found

   Cartesian axes

     site n.     atom                  positions (alat units)
         1           Ti1 tau(   1) = (   0.0004258   2.9801865   6.0000000  )
         2           Ti1 tau(   2) = (   3.2906075   1.4906267   6.0002472  )
         3           O1  tau(   3) = (   0.0006271   0.0005054   7.9858123  )
         4           O1  tau(   4) = (   3.2906025   0.0005020   7.3038282  )
         5           O1  tau(   5) = (   4.5942328   1.4918067   9.2879030  )
         6           O1  tau(   6) = (   1.9868534   1.4903216   9.2879459  )
         7           Ti1 tau(   7) = (   3.2907910   2.8959150   9.1758416  )
         8           Ti1 tau(   8) = (   0.0015273   1.4827037   9.2680791  )
         9           O1  tau(   9) = (   3.2683845   0.0132936  11.3796717  )
        10           O1  tau(  10) = (   0.0116148   5.9584955  10.6183126  )
        11           O1  tau(  11) = (   1.2681313   1.5011218  12.7194972  )
        12           O1  tau(  12) = (   5.2787963   1.4993765  12.6897032  )
        13           Ti1 tau(  13) = (   6.5560253   2.9823375  12.4990790  )
        14           Ti1 tau(  14) = (   3.2673924   1.4925278  12.5394213  )
        15           O1  tau(  15) = (   6.5345332   5.8735037  14.6996474  )
        16           O1  tau(  16) = (   3.2898196   5.9462848  13.9939205  )
        17           O1  tau(  17) = (   4.4957945   1.5291507  16.1605787  )
        18           O1  tau(  18) = (   1.9883785   1.5110281  16.0762771  )
        19           Ti1 tau(  19) = (   3.2526948   3.0056396  15.7740191  )
        20           Ti1 tau(  20) = (   0.0000763   1.3299063  15.8143521  )
        21           O1  tau(  21) = (   3.2904802   0.0005063   4.7018136  )
        22           O1  tau(  22) = (   6.5205728   0.2065101  17.2442985  )
        23           O1  tau(  23) = (   1.3043587   1.4918075   6.0039043  )
        24           O1  tau(  24) = (   5.2767064   1.4903225   6.0039473  )
        25           Ti1 tau(  25) = (   0.0000382   5.9609847   6.0000000  )
        26           Ti1 tau(  26) = (   3.2902200   4.4714249   6.0002472  )
        27           O1  tau(  27) = (   0.0002396   2.9813036   7.9858123  )
        28           O1  tau(  28) = (   3.2902150   2.9813002   7.3038282  )
        29           O1  tau(  29) = (   4.5938453   4.4726049   9.2879030  )
        30           O1  tau(  30) = (   1.9864658   4.4711199   9.2879459  )
        31           Ti1 tau(  31) = (   3.2891106   5.8743827   9.1763621  )
        32           Ti1 tau(  32) = (   0.0006254   4.4649316   9.2693709  )
        33           O1  tau(  33) = (   3.2688559   2.9716192  11.3757022  )
        34           O1  tau(  34) = (   0.0092240   2.9805883  10.6323155  )
        35           O1  tau(  35) = (   1.2711362   4.4646907  12.6658965  )
        36           O1  tau(  36) = (   5.2748280   4.4660984  12.6332574  )
        37           Ti1 tau(  37) = (   6.5627654   5.9477838  12.5072267  )
        38           Ti1 tau(  38) = (   3.2667511   4.4702655  12.5260729  )
        39           O1  tau(  39) = (   6.5087961   3.0586107  15.0099536  )
        40           O1  tau(  40) = (   3.2849776   3.0149387  13.9815115  )
        41           O1  tau(  41) = (   4.4906635   4.4862850  16.2792570  )
        42           O1  tau(  42) = (   1.9756856   4.4939852  16.2100911  )
        43           Ti1 tau(  43) = (   3.2747729   0.0241646  15.7895078  )
        44           Ti1 tau(  44) = (   6.5697470   4.5456975  16.1185117  )
        45           O1  tau(  45) = (   3.2900926   2.9813045   4.7018136  )
        46           O1  tau(  46) = (   1.3039711   4.4726057   6.0039043  )
        47           O1  tau(  47) = (   5.2763189   4.4711207   6.0039473  )
        48           N1  tau(  48) = (   0.9980056   3.0961469  19.0053282  )
        49           N1  tau(  49) = (   6.4063515   3.4839273  18.2229180  )
        50           C1  tau(  50) = (   1.6570833   4.2684698  19.5811903  )
        51           H1  tau(  51) = (   0.9936588   4.8902639  20.1979557  )
        52           H1  tau(  52) = (   2.4789334   3.9063689  20.1993048  )
        53           H1  tau(  53) = (   2.0598354   4.8861676  18.7819781  )
        54           H1  tau(  54) = (   0.6510520   2.5058952  19.7602174  )
        55           H1  tau(  55) = (   5.8507131   4.1735594  18.7414995  )
        56           H1  tau(  56) = (   5.8147758   2.6545292  18.1916272  )
        57           O1  tau(  57) = (   5.1718451   0.7889162  19.5681371  )
        58           H1  tau(  58) = (   5.5416362   0.5215711  18.6954158  )
        59           H1  tau(  59) = (   4.2099197   0.7512590  19.4668632  )

     number of k points=    10  Fermi-Dirac smearing, width (Ry)=  0.0073
                       cart. coord. in units 2pi/alat
        k(    1) = (   0.0000000   0.0000000   0.0000000), wk =   0.1250000
        k(    2) = (   0.0000000   0.0419351   0.0000000), wk =   0.2500000
        k(    3) = (   0.0000000  -0.0838702   0.0000000), wk =   0.1250000
        k(    4) = (   0.0379955   0.0000049   0.0000000), wk =   0.2500000
        k(    5) = (   0.0379955   0.0419400   0.0000000), wk =   0.2500000
        k(    6) = (   0.0379955  -0.0838652   0.0000000), wk =   0.2500000
        k(    7) = (   0.0379955  -0.0419301   0.0000000), wk =   0.2500000
        k(    8) = (  -0.0759910  -0.0000099   0.0000000), wk =   0.1250000
        k(    9) = (  -0.0759910   0.0419252   0.0000000), wk =   0.2500000
        k(   10) = (  -0.0759910  -0.0838800   0.0000000), wk =   0.1250000

     Initial potential from superposition of free atoms

     starting charge  389.99912, renormalised to  406.00000

     negative rho (up, down):  1.389E-02 0.000E+00

     %%%%%%%%%%%%%%%%%%%%%%%%%%%%%%%%%%%%%%%%%%%%%%%%%%%%%%%%%%%%%%%%%%%%%%%%
     %                                                                      %
     % You are using vdW-DF, which was implemented by the Thonhauser group. %
     % Please cite the following two papers that made this development      %
     % possible and the two reviews that describe the various versions:     %
     %                                                                      %
     %   T. Thonhauser et al., PRL 115, 136402 (2015).                      %
     %   T. Thonhauser et al., PRB 76, 125112 (2007).                       %
     %   K. Berland et al., Rep. Prog. Phys. 78, 066501 (2015).             %
     %   D.C. Langreth et al., J. Phys.: Condens. Matter 21, 084203 (2009). %
     %                                                                      %
     %                                                                      %
     % If you are calculating the stress with vdW-DF, please also cite:     %
     %                                                                      %
     %   R. Sabatini et al., J. Phys.: Condens. Matter 24, 424209 (2012).   %
     %                                                                      %
     %%%%%%%%%%%%%%%%%%%%%%%%%%%%%%%%%%%%%%%%%%%%%%%%%%%%%%%%%%%%%%%%%%%%%%%%

     Adding external electric field

     Computed dipole along edir(3) :
        Dipole              -16.7176 Ry au,        -42.4920 Debye
        Dipole field         -0.0315 Ry au,

        Potential amp.        2.9245 Ry
        Total length         46.3494 bohr

     Starting wfcs are  308 atomic wfcs
  @ DRIVER MODE: Message from server: STATUS
  @ DRIVER MODE: Message from server: POSDATA
  @ DRIVER MODE: Reading and sharing cell
  @ DRIVER MODE: Reading and sharing positions
  @ DRIVER MODE: Received positions

     Self-consistent Calculation

     iteration #  1     ecut=    29.40 Ry     beta= 0.05
     Davidson diagonalization with overlap
     c_bands:  2 eigenvalues not converged
     c_bands:  3 eigenvalues not converged
     c_bands:  2 eigenvalues not converged
     c_bands:  4 eigenvalues not converged
     c_bands:  1 eigenvalues not converged
     c_bands:  4 eigenvalues not converged
     c_bands:  3 eigenvalues not converged
     c_bands:  5 eigenvalues not converged
     c_bands:  3 eigenvalues not converged
     ethr =  1.00E-05,  avg # of iterations = 24.9

[...]

     total energy              =   -2136.63723013 Ry
     estimated scf accuracy    <    9692.88334577 Ry

     iteration #  2     ecut=    29.40 Ry     beta= 0.05
     Davidson diagonalization with overlap
     ethr =  1.00E-02,  avg # of iterations = 31.9

[...]

     iteration # 65     ecut=    29.40 Ry     beta= 0.05
     Davidson diagonalization with overlap
     c_bands:  1 eigenvalues not converged
     ethr =  2.24E-10,  avg # of iterations = 14.9

[...]

     total energy              =   -2977.68379774 Ry
     estimated scf accuracy    <       0.00000008 Ry

     iteration # 69     ecut=    29.40 Ry     beta= 0.05
     Davidson diagonalization with overlap
     ethr =  1.92E-11,  avg # of iterations = 11.1

     negative rho (up, down):  1.439E-02 0.000E+00

     Adding external electric field

     Computed dipole along edir(3) :
        Dipole                1.0234 Ry au,          2.6012 Debye
        Dipole field          0.0019 Ry au,

        Potential amp.       -0.1790 Ry
        Total length         46.3494 bohr

     End of self-consistent calculation

          k = 0.0000 0.0000 0.0000 ( 18029 PWs)   bands (ev):

   -55.3570 -55.3198 -55.3077 -55.2901 -55.2736 -55.2380 -55.2363 -55.2015
   -55.1801 -55.1789 -55.1458 -55.1399 -55.1062 -55.0144 -54.3395 -54.3054
   -31.9234 -31.8053 -31.8006 -31.7249 -31.6734 -31.6694 -31.6694 -31.6463
   -31.5966 -31.5924 -31.5693 -31.5667 -31.5527 -31.5363 -31.5274 -31.5240
   -31.5115 -31.5044 -31.4940 -31.4764 -31.4615 -31.4604 -31.4324 -31.4220
   -31.4147 -31.4107 -31.3894 -31.3827 -31.3665 -31.3649 -31.3601 -31.3512
   -31.3390 -31.3381 -31.3292 -31.3268 -31.2937 -31.2906 -31.2682 -31.2511
   -31.2268 -31.2245 -30.7490 -30.6544 -30.6324 -30.5653 -30.4785 -30.3676
   -18.0431 -17.6388 -16.1906 -15.9300 -15.7846 -15.6560 -15.5586 -15.4301
   -15.4109 -15.2890 -15.2186 -15.1137 -15.0637 -15.0457 -15.0097 -14.9995
   -14.9772 -14.9056 -14.8996 -14.8855 -14.8616 -14.8529 -14.8067 -14.7989
   -14.7576 -14.7334 -14.7096 -14.6101 -14.5201 -14.4454 -14.3348 -13.1551
   -12.8423 -12.7247  -9.4113  -6.3164  -5.8797  -5.7445  -4.2545  -3.5292
    -3.3804  -3.3121  -3.2755  -3.2502  -3.1166  -2.9597  -2.9250  -2.8047
    -2.7863  -2.6904  -2.6420  -2.5707  -2.5543  -2.5390  -2.3927  -2.3728
    -2.3480  -2.2789  -2.2558  -2.1850  -2.1630  -2.1575  -2.1439  -2.1198
    -2.0916  -2.0625  -1.9899  -1.9308  -1.8376  -1.8132  -1.7615  -1.7322
    -1.7113  -1.6941  -1.6485  -1.6376  -1.5985  -1.5835  -1.5643  -1.5494
    -1.3867  -1.3644  -1.2621  -1.2004  -1.1028  -0.9972  -0.9617  -0.9471
    -0.8500  -0.8315  -0.7800  -0.7383  -0.7354  -0.7007  -0.5891  -0.5268
    -0.4739  -0.4104  -0.3873  -0.3475  -0.2796  -0.1969  -0.1409  -0.1270
    -0.1207  -0.1007   0.0156   0.0282   0.0797   0.1547   0.1643   0.1706
     0.2445   0.3007   0.3709   0.3962   0.4133   0.5186   0.5345   0.5667
     0.5724   0.6022   0.6230   0.6482   0.7082   0.7385   0.8217   0.9433
     1.1358   1.2244   1.2519   1.3609   1.5749   1.5875   1.6832   1.8663
     2.2594   2.3078   3.7399   3.8111   3.8859   3.8899   3.9124   3.9763
     4.2131   4.2303   4.2449   4.2486   4.2726

[...]

          k = 0.0380-0.0419 0.0000 ( 17876 PWs)   bands (ev):

[...]

          k =-0.0760-0.0000 0.0000 ( 17886 PWs)   bands (ev):

[...]

          k =-0.0760-0.0839 0.0000 ( 17948 PWs)   bands (ev):

   -55.3433 -55.3333 -55.2910 -55.2902 -55.2888 -55.2307 -55.2259 -55.2135
   -55.1844 -55.1642 -55.1613 -55.1232 -55.1230 -55.0155 -54.3225 -54.3222
   -31.7314 -31.7236 -31.7211 -31.6372 -31.6174 -31.6160 -31.6154 -31.5821
   -31.5816 -31.5706 -31.5565 -31.5553 -31.5486 -31.5284 -31.5169 -31.5035
   -31.4970 -31.4938 -31.4923 -31.4909 -31.4841 -31.4767 -31.4444 -31.4368
   -31.4338 -31.4335 -31.4196 -31.4142 -31.4107 -31.4100 -31.4046 -31.3969
   -31.3946 -31.3773 -31.3742 -31.3719 -31.3571 -31.3542 -31.3043 -31.3037
   -31.2968 -31.2306 -30.6451 -30.6448 -30.5615 -30.5613 -30.5220 -30.5218
   -18.0326 -17.6463 -15.6708 -15.5863 -15.5654 -15.4102 -15.3585 -15.3322
   -15.3212 -15.2058 -15.1636 -15.1444 -15.1297 -15.1079 -15.0695 -15.0600
   -15.0533 -14.9900 -14.9696 -14.9607 -14.9348 -14.8809 -14.8734 -14.8654
   -14.8576 -14.8078 -14.8039 -14.7640 -14.7131 -14.7096 -14.6303 -13.1613
   -12.8262 -12.8262  -9.4163  -6.3390  -5.9075  -5.6624  -4.2321  -2.9379
    -2.8444  -2.8337  -2.8268  -2.7001  -2.6235  -2.5482  -2.5260  -2.5053
    -2.4246  -2.4066  -2.3765  -2.3507  -2.3239  -2.2820  -2.2480  -2.2381
    -2.2028  -2.1936  -2.1775  -2.1609  -2.1393  -2.1241  -2.0899  -2.0792
    -2.0659  -2.0223  -1.9958  -1.9836  -1.9607  -1.9411  -1.9356  -1.9138
    -1.8503  -1.7507  -1.7245  -1.6394  -1.5716  -1.5677  -1.5623  -1.5000
    -1.4565  -1.4183  -1.3931  -1.3761  -1.2359  -1.1660  -1.1213  -1.1069
    -1.0924  -0.9615  -0.9555  -0.8793  -0.8570  -0.8503  -0.7577  -0.7124
    -0.6737  -0.6668  -0.5800  -0.5682  -0.4923  -0.3937  -0.3719  -0.3581
    -0.3128  -0.3110  -0.2736  -0.2605  -0.1642  -0.1303  -0.1204  -0.0948
    -0.0798  -0.0366   0.1149   0.1633   0.1698   0.3040   0.3349   0.4732
     0.5031   0.5678   0.6470   0.6957   0.7486   0.7813   0.8687   0.9425
     0.9457   1.0091   1.0247   1.0908   1.1030   1.3661   2.0393   2.0399
     2.1276   2.1280   3.8879   4.0032   4.0065   4.0358   4.1588   4.1816
     4.2577   4.2852   4.3245   4.3277   4.3863

     the Fermi energy is     3.8040 ev

!    total energy              =   -2977.68382397 Ry
     estimated scf accuracy    <       0.00000006 Ry
     smearing contrib. (-TS)   =      -0.03717104 Ry
     internal energy E=F+TS    =   -2977.64665294 Ry

     The total energy is F=E-TS. E is the sum of the following terms:
     one-electron contribution =  -22681.93433487 Ry
     hartree contribution      =   11438.35299434 Ry
     xc contribution           =    -496.61834344 Ry
     ewald contribution        =    8762.55105455 Ry
     electric field correction =       0.00197648 Ry

     convergence has been achieved in  69 iterations

     Forces acting on atoms (cartesian axes, Ry/au):

     atom    1 type  1   force =     0.00024572   -0.00037812    0.09322444
     atom    2 type  1   force =     0.00001886   -0.00038206   -0.17816869
     atom    3 type  2   force =     0.00004853   -0.00040858   -0.01999568
     atom    4 type  2   force =     0.00001203   -0.00190267    0.05911376
     atom    5 type  2   force =    -0.01035502   -0.00059319    0.00861208
     atom    6 type  2   force =     0.01130298    0.00009638    0.00627919
     atom    7 type  1   force =    -0.00096541    0.00198845   -0.01425956
     atom    8 type  1   force =     0.00097708   -0.00255780   -0.00597650
     atom    9 type  2   force =     0.00016860   -0.00001605    0.00009045
     atom   10 type  2   force =    -0.00231058    0.00309826    0.00260373
     atom   11 type  2   force =     0.00041239   -0.00042813   -0.00057171
     atom   12 type  2   force =     0.00004413   -0.00040767   -0.00057710
     atom   13 type  1   force =     0.00033588   -0.00027246   -0.00020733
     atom   14 type  1   force =     0.00005061   -0.00008697   -0.00007578
     atom   15 type  2   force =     0.00000066    0.00057248   -0.00006988
     atom   16 type  2   force =     0.00030894    0.00027906   -0.00009382
     atom   17 type  2   force =     0.00036330    0.00022824    0.00045845
     atom   18 type  2   force =    -0.00045906    0.00020631   -0.00008937
     atom   19 type  1   force =    -0.00018551    0.00008281    0.00027130
     atom   20 type  1   force =    -0.00004526   -0.00034726    0.00078059
     atom   21 type  2   force =     0.00011968   -0.00011126    0.10403073
     atom   22 type  2   force =     0.00015452   -0.00034069   -0.00000069
     atom   23 type  2   force =    -0.07029103   -0.00018380   -0.02687026
     atom   24 type  2   force =     0.07027254    0.00025808   -0.02687223
     atom   25 type  1   force =     0.00017408   -0.00030973    0.09240990
     atom   26 type  1   force =     0.00005955   -0.00054279   -0.17849701
     atom   27 type  2   force =     0.00008271   -0.00021202   -0.01906390
     atom   28 type  2   force =     0.00005881   -0.00173113    0.05853345
     atom   29 type  2   force =    -0.01102062   -0.00113715    0.00944637
     atom   30 type  2   force =     0.01187982   -0.00069394    0.00723049
     atom   31 type  1   force =    -0.00088232    0.00645756   -0.01491982
     atom   32 type  1   force =     0.00102433    0.00219728   -0.00637645
     atom   33 type  2   force =     0.00025912    0.00009722    0.00002420
     atom   34 type  2   force =    -0.00214682   -0.00243642   -0.00032255
     atom   35 type  2   force =     0.00027354    0.00012713   -0.00001159
     atom   36 type  2   force =     0.00026337    0.00003825    0.00050417
     atom   37 type  1   force =    -0.00009588    0.00002700   -0.00003488
     atom   38 type  1   force =     0.00015296   -0.00007259   -0.00001298
     atom   39 type  2   force =    -0.00011817   -0.00016826    0.00039464
     atom   40 type  2   force =    -0.00013923    0.00008426    0.00008610
     atom   41 type  2   force =    -0.00044128    0.00015285    0.00032790
     atom   42 type  2   force =     0.00028666   -0.00010613   -0.00013472
     atom   43 type  1   force =     0.00031840    0.00028199   -0.00017586
     atom   44 type  1   force =    -0.00000254    0.00007940    0.00002991
     atom   45 type  2   force =     0.00012387   -0.00010977    0.10396314
     atom   46 type  2   force =    -0.07025812   -0.00013553   -0.02681646
     atom   47 type  2   force =     0.07025008    0.00027009   -0.02688098
     atom   48 type  3   force =    -0.00023512   -0.00004072   -0.00031211
     atom   49 type  3   force =     0.00026130    0.00000867   -0.00073126
     atom   50 type  4   force =    -0.00032426   -0.00011258   -0.00028084
     atom   51 type  5   force =    -0.00069625    0.00037496    0.00038038
     atom   52 type  5   force =     0.00042216   -0.00004311    0.00037773
     atom   53 type  5   force =    -0.00004533    0.00020588   -0.00046720
     atom   54 type  5   force =     0.00010002   -0.00017670   -0.00004496
     atom   55 type  5   force =     0.00036360    0.00038789   -0.00028753
     atom   56 type  5   force =    -0.00027873   -0.00080901    0.00053327
     atom   57 type  2   force =    -0.00459335    0.00034622    0.00429555
     atom   58 type  5   force =     0.00431146   -0.00167178   -0.00483558
     atom   59 type  5   force =     0.00038762    0.00097936    0.00003337

     Total force =     0.366386     Total SCF correction =     0.000557
  @ DRIVER MODE: Message from server: STATUS
  @ DRIVER MODE: Message from server: GETFORCE
  @ DRIVER MODE: Returning v,forces,stress,ensemble

     Writing output data file ./calc.save/
  @ DRIVER MODE: Message from server: EXIT
  @ DRIVE MODE: Exiting

     General routines

     Parallel routines

   This run was terminated on:  13:22:44  16Sep2021

   JOB DONE.