     Program PWSCF v.6.7GPU starts on  9Sep2021 at  2:34:29

     R & G space division:  proc/nbgrp/npool/nimage =      10
     Reading input from /storage/home/hcoda1/3/ntian30/research/carbon/CxH_vib/CH3_calc/ads_slab/CH3N2_c/out_0015/pw.inp
Warning: card &CELL ignored
Warning: card   CELL_DYNAMICS='IPI', ignored
Warning: card / ignored

     Current dimensions of program PWSCF are:
     Max number of different atomic species (ntypx) = 10
     Max number of k-points (npk) =  40000
     Max angular momentum in pseudopotentials (lmaxx) =  3
     Presently no symmetry can be used with electric field

     Message from routine cell_base_init:
     DEPRECATED: use true lattice parameter, not A to a.u. conversion factor

     IMPORTANT: XC functional enforced from input :
     Exchange-correlation= BEEF-VDW
                           (   1   4  43  14   2   0   0)
     Any further DFT definition will be discarded
     Please, verify this is what you really want

  @ DRIVER MODE: Connecting to
 qe_1139763_2767397.sched-torque.pace.gatech.edu6o3wtj5l_scratch
  using UNIX socket
  @ DRIVER MODE: Message from server: STATUS
  @ DRIVER MODE: Message from server: INIT
  @ DRIVER MODE: Receiving replica           0          -1
  @ DRIVER MODE: Receiving encoded integer          25
  @ DRIVER MODE:  SCF:  T  FORCE:  T  STRESS:  F  VC:  F  ENSEMBLE:  F
  @ DRIVER MODE:  SCF:  T  FORCE:  T  STRESS:  F  VC:  F  ENSEMBLE:  F

     Using Slab Decomposition

     bravais-lattice index     =            0
     lattice parameter (alat)  =       1.8897  a.u.
     unit-cell volume          =    6658.9804 (a.u.)^3
     number of atoms/cell      =           53
     number of atomic types    =            5
     number of electrons       =       395.00
     number of Kohn-Sham states=          207
     kinetic-energy cutoff     =      29.3995  Ry
     charge density cutoff     =     293.9946  Ry
     scf convergence threshold =      7.3E-08
     mixing beta               =       0.0500
     number of iterations used =            8  plain     mixing
     Exchange-correlation= BEEF-VDW
                           (   1   4  43  14   2   0   0)

     celldm(1)=   1.889726  celldm(2)=   0.000000  celldm(3)=   0.000000
     celldm(4)=   0.000000  celldm(5)=   0.000000  celldm(6)=   0.000000

     crystal axes: (cart. coord. in units of alat)
               a(1) = (   6.579727   0.000000   0.000000 )
               a(2) = (  -0.000775   5.961596   0.000000 )
               a(3) = (   0.000000   0.000000  25.155947 )

     reciprocal axes: (cart. coord. in units 2 pi/alat)
               b(1) = (  0.151982  0.000020  0.000000 )
               b(2) = (  0.000000  0.167740  0.000000 )
               b(3) = (  0.000000  0.000000  0.039752 )

     PseudoPot. # 1 for Ti read from file:
     /storage/coda1/p-amedford6/0/shared/rich_project_chbe-medford/medford-share/data/pseudos_module/espresso/nninc/pbe/van/Ti.UPF
     MD5 check sum: 8e4df49b7f0d34bbd5052bf3f5ea0213
     Pseudo is Ultrasoft, Zval = 12.0
     Generated by new atomic code, or converted to UPF format
     Using radial grid of  851 points,  6 beta functions with:
                l(1) =   0
                l(2) =   0
                l(3) =   1
                l(4) =   1
                l(5) =   2
                l(6) =   2
     Q(r) pseudized with  8 coefficients,  rinner =    1.000   1.000   1.000
                                                       1.000   1.000

     PseudoPot. # 2 for O  read from file:
     /storage/coda1/p-amedford6/0/shared/rich_project_chbe-medford/medford-share/data/pseudos_module/espresso/nninc/pbe/van/O.UPF
     MD5 check sum: 78c19812648e8988a0fe644b0f25305e
     Pseudo is Ultrasoft, Zval =  6.0
     Generated by new atomic code, or converted to UPF format
     Using radial grid of  737 points,  4 beta functions with:
                l(1) =   0
                l(2) =   0
                l(3) =   1
                l(4) =   1
     Q(r) pseudized with  8 coefficients,  rinner =    0.800   0.800   0.800

     PseudoPot. # 3 for N  read from file:
     /storage/coda1/p-amedford6/0/shared/rich_project_chbe-medford/medford-share/data/pseudos_module/espresso/nninc/pbe/van/N.UPF
     MD5 check sum: 90d10febe142ad51ac9d5be1deb811c4
     Pseudo is Ultrasoft, Zval =  5.0
     Generated by new atomic code, or converted to UPF format
     Using radial grid of  729 points,  4 beta functions with:
                l(1) =   0
                l(2) =   0
                l(3) =   1
                l(4) =   1
     Q(r) pseudized with  8 coefficients,  rinner =    0.800   0.800   0.800

     PseudoPot. # 4 for C  read from file:
     /storage/coda1/p-amedford6/0/shared/rich_project_chbe-medford/medford-share/data/pseudos_module/espresso/nninc/pbe/van/C.UPF
     MD5 check sum: 1a69bf6b8db32088f5b2163dbdb77a27
     Pseudo is Ultrasoft, Zval =  4.0
     Generated by new atomic code, or converted to UPF format
     Using radial grid of  721 points,  4 beta functions with:
                l(1) =   0
                l(2) =   0
                l(3) =   1
                l(4) =   1
     Q(r) pseudized with  8 coefficients,  rinner =    0.800   0.800   0.800

     PseudoPot. # 5 for H  read from file:
     /storage/coda1/p-amedford6/0/shared/rich_project_chbe-medford/medford-share/data/pseudos_module/espresso/nninc/pbe/van/H.UPF
     MD5 check sum: b5ee9d7bfd3a09ee7748110bda690ff7
     Pseudo is Ultrasoft, Zval =  1.0
     Generated by new atomic code, or converted to UPF format
     Using radial grid of  615 points,  1 beta functions with:
                l(1) =   0
     Q(r) pseudized with  8 coefficients,  rinner =    0.800

     atomic species   valence    mass     pseudopotential
        Ti1           12.00    47.86700     Ti( 1.00)
        O1             6.00    15.99900     O ( 1.00)
        N1             5.00    14.00700     N ( 1.00)
        C1             4.00    12.01100     C ( 1.00)
        H1             1.00     1.00800     H ( 1.00)

     No symmetry found

   Cartesian axes

     site n.     atom                  positions (alat units)
         1           Ti1 tau(   1) = (   0.0004258   2.9801865   6.0000000  )
         2           Ti1 tau(   2) = (   3.2906075   1.4906267   6.0002472  )
         3           O1  tau(   3) = (   0.0006271   0.0005054   7.9858123  )
         4           O1  tau(   4) = (   3.2906025   0.0005020   7.3038282  )
         5           O1  tau(   5) = (   4.5942328   1.4918067   9.2879030  )
         6           O1  tau(   6) = (   1.9868534   1.4903216   9.2879459  )
         7           Ti1 tau(   7) = (   3.2907910   2.8959150   9.1758416  )
         8           Ti1 tau(   8) = (   0.0015273   1.4827037   9.2680791  )
         9           O1  tau(   9) = (   3.2868105   5.9447858  11.3346005  )
        10           O1  tau(  10) = (   0.0116148   5.9584955  10.6183126  )
        11           O1  tau(  11) = (   1.2897616   1.4699164  12.6258314  )
        12           O1  tau(  12) = (   5.2713851   1.4716199  12.6109895  )
        13           Ti1 tau(  13) = (   0.0629619   2.9460495  12.6207869  )
        14           Ti1 tau(  14) = (   3.3778125   1.4702366  12.4807322  )
        15           O1  tau(  15) = (   6.5741670   5.9392046  14.6271830  )
        16           O1  tau(  16) = (   3.2925211   5.9405975  13.9303826  )
        17           O1  tau(  17) = (   4.5331425   1.4971777  16.0590535  )
        18           O1  tau(  18) = (   2.0416154   1.4974824  16.0477615  )
        19           Ti1 tau(  19) = (   3.2901388   2.9722967  15.7036181  )
        20           Ti1 tau(  20) = (   6.5714728   1.5019933  15.8140906  )
        21           O1  tau(  21) = (   3.2904802   0.0005063   4.7018136  )
        22           O1  tau(  22) = (   6.5775371   0.0159386  17.1814867  )
        23           O1  tau(  23) = (   1.3043587   1.4918075   6.0039043  )
        24           O1  tau(  24) = (   5.2767064   1.4903225   6.0039473  )
        25           Ti1 tau(  25) = (   0.0000382   5.9609847   6.0000000  )
        26           Ti1 tau(  26) = (   3.2902200   4.4714249   6.0002472  )
        27           O1  tau(  27) = (   0.0002396   2.9813036   7.9858123  )
        28           O1  tau(  28) = (   3.2902150   2.9813002   7.3038282  )
        29           O1  tau(  29) = (   4.5938453   4.4726049   9.2879030  )
        30           O1  tau(  30) = (   1.9864658   4.4711199   9.2879459  )
        31           Ti1 tau(  31) = (   3.2891106   5.8743827   9.1763621  )
        32           Ti1 tau(  32) = (   0.0006254   4.4649316   9.2693709  )
        33           O1  tau(  33) = (   3.2909631   2.9655588  11.3316111  )
        34           O1  tau(  34) = (   0.0092240   2.9805883  10.6323155  )
        35           O1  tau(  35) = (   1.2884032   4.4536117  12.6269208  )
        36           O1  tau(  36) = (   5.2752684   4.4605011  12.6109535  )
        37           Ti1 tau(  37) = (   0.0626277   5.9200555  12.5524633  )
        38           Ti1 tau(  38) = (   3.3797810   4.4486816  12.4846537  )
        39           O1  tau(  39) = (   6.5720240   2.9440667  14.6479771  )
        40           O1  tau(  40) = (   3.2941106   2.9728877  13.9057494  )
        41           O1  tau(  41) = (   4.5311790   4.4530262  16.1020043  )
        42           O1  tau(  42) = (   2.0427069   4.4534008  16.0946336  )
        43           Ti1 tau(  43) = (   3.2818950   5.9508925  15.7274921  )
        44           Ti1 tau(  44) = (   6.5750914   4.6476268  16.0792144  )
        45           O1  tau(  45) = (   3.2900926   2.9813045   4.7018136  )
        46           O1  tau(  46) = (   1.3039711   4.4726057   6.0039043  )
        47           O1  tau(  47) = (   5.2763189   4.4711207   6.0039473  )
        48           N1  tau(  48) = (   0.0795740   2.6614725  18.6386781  )
        49           N1  tau(  49) = (   0.0132033   2.8794178  17.4383708  )
        50           C1  tau(  50) = (   0.1510961   3.7931638  19.5808395  )
        51           H1  tau(  51) = (   6.4701351   4.7592986  19.1328852  )
        52           H1  tau(  52) = (   6.0910372   3.5604803  20.4266230  )
        53           H1  tau(  53) = (   1.1812797   3.8285794  19.9476819  )

     number of k points=    10  Fermi-Dirac smearing, width (Ry)=  0.0073
                       cart. coord. in units 2pi/alat
        k(    1) = (   0.0000000   0.0000000   0.0000000), wk =   0.1250000
        k(    2) = (   0.0000000   0.0419351   0.0000000), wk =   0.2500000
        k(    3) = (   0.0000000  -0.0838702   0.0000000), wk =   0.1250000
        k(    4) = (   0.0379955   0.0000049   0.0000000), wk =   0.2500000
        k(    5) = (   0.0379955   0.0419400   0.0000000), wk =   0.2500000
        k(    6) = (   0.0379955  -0.0838652   0.0000000), wk =   0.2500000
        k(    7) = (   0.0379955  -0.0419301   0.0000000), wk =   0.2500000
        k(    8) = (  -0.0759910  -0.0000099   0.0000000), wk =   0.1250000
        k(    9) = (  -0.0759910   0.0419252   0.0000000), wk =   0.2500000
        k(   10) = (  -0.0759910  -0.0838800   0.0000000), wk =   0.1250000

     Initial potential from superposition of free atoms

     starting charge  378.99916, renormalised to  395.00000

     negative rho (up, down):  1.506E-02 0.000E+00

     %%%%%%%%%%%%%%%%%%%%%%%%%%%%%%%%%%%%%%%%%%%%%%%%%%%%%%%%%%%%%%%%%%%%%%%%
     %                                                                      %
     % You are using vdW-DF, which was implemented by the Thonhauser group. %
     % Please cite the following two papers that made this development      %
     % possible and the two reviews that describe the various versions:     %
     %                                                                      %
     %   T. Thonhauser et al., PRL 115, 136402 (2015).                      %
     %   T. Thonhauser et al., PRB 76, 125112 (2007).                       %
     %   K. Berland et al., Rep. Prog. Phys. 78, 066501 (2015).             %
     %   D.C. Langreth et al., J. Phys.: Condens. Matter 21, 084203 (2009). %
     %                                                                      %
     %                                                                      %
     % If you are calculating the stress with vdW-DF, please also cite:     %
     %                                                                      %
     %   R. Sabatini et al., J. Phys.: Condens. Matter 24, 424209 (2012).   %
     %                                                                      %
     %%%%%%%%%%%%%%%%%%%%%%%%%%%%%%%%%%%%%%%%%%%%%%%%%%%%%%%%%%%%%%%%%%%%%%%%

     Adding external electric field

     Computed dipole along edir(3) :
        Dipole               -8.8495 Ry au,        -22.4931 Debye
        Dipole field         -0.0167 Ry au,

        Potential amp.        1.5481 Ry
        Total length         46.3494 bohr

     Starting wfcs are  299 atomic wfcs
  @ DRIVER MODE: Message from server: STATUS
  @ DRIVER MODE: Message from server: POSDATA
  @ DRIVER MODE: Reading and sharing cell
  @ DRIVER MODE: Reading and sharing positions
  @ DRIVER MODE: Received positions

     Self-consistent Calculation

     iteration #  1     ecut=    29.40 Ry     beta= 0.05
     Davidson diagonalization with overlap
     c_bands:  1 eigenvalues not converged
     c_bands:  2 eigenvalues not converged
     c_bands:  1 eigenvalues not converged
     c_bands:  3 eigenvalues not converged
     c_bands:  3 eigenvalues not converged
     c_bands:  1 eigenvalues not converged
     ethr =  1.00E-05,  avg # of iterations = 19.1

[...]

     total energy              =   -2605.80374699 Ry
     estimated scf accuracy    <    3697.78779179 Ry

     iteration #  2     ecut=    29.40 Ry     beta= 0.05
     Davidson diagonalization with overlap
     ethr =  1.00E-02,  avg # of iterations = 22.4

[...]

     iteration # 69     ecut=    29.40 Ry     beta= 0.05
     Davidson diagonalization with overlap
     ethr =  5.80E-11,  avg # of iterations =  9.1

[...]

     total energy              =   -2939.15459770 Ry
     estimated scf accuracy    <       0.00000008 Ry

     iteration # 70     ecut=    29.40 Ry     beta= 0.05
     Davidson diagonalization with overlap
     c_bands:  1 eigenvalues not converged
     ethr =  2.07E-11,  avg # of iterations = 12.6

     negative rho (up, down):  1.566E-02 0.000E+00

     Adding external electric field

     Computed dipole along edir(3) :
        Dipole                0.7114 Ry au,          1.8081 Debye
        Dipole field          0.0013 Ry au,

        Potential amp.       -0.1244 Ry
        Total length         46.3494 bohr

     End of self-consistent calculation

          k = 0.0000 0.0000 0.0000 ( 18029 PWs)   bands (ev):

   -55.8931 -55.8785 -55.8590 -55.8425 -55.7939 -55.7281 -55.7023 -55.7017
   -55.6915 -55.6677 -55.6668 -55.6331 -55.2837 -55.0920 -54.8708 -54.8367
   -32.4327 -32.3753 -32.2281 -32.2259 -32.2003 -32.1973 -32.1860 -32.1573
   -32.1355 -32.1225 -32.1006 -32.0648 -32.0591 -32.0454 -32.0317 -32.0182
   -32.0158 -31.9972 -31.9830 -31.9503 -31.9421 -31.9378 -31.8969 -31.8919
   -31.8895 -31.8859 -31.8778 -31.8730 -31.8689 -31.8420 -31.8414 -31.8325
   -31.8314 -31.8197 -31.8081 -31.7790 -31.7752 -31.5639 -31.4568 -31.3545
   -31.3524 -31.3078 -31.2778 -31.1894 -31.1670 -31.0945 -31.0080 -30.8970
   -18.4647 -16.6308 -16.3660 -16.1372 -16.0433 -16.0111 -15.8931 -15.7307
   -15.6132 -15.5583 -15.4608 -15.4413 -15.4284 -15.3966 -15.3781 -15.3724
   -15.3388 -15.3347 -15.3162 -15.3010 -15.2530 -15.2290 -15.2071 -15.1077
   -15.0617 -15.0279 -15.0126 -14.9495 -14.9443 -14.4390 -13.3733 -13.2569
   -11.3974  -6.9355  -4.3652  -4.0008  -3.9114  -3.8657  -3.8454  -3.7985
    -3.7418  -3.6216  -3.4970  -3.4348  -3.1240  -3.0762  -3.0602  -3.0430
    -3.0052  -2.7978  -2.7462  -2.7064  -2.6819  -2.6746  -2.6635  -2.6560
    -2.6443  -2.6057  -2.5033  -2.4341  -2.4274  -2.3410  -2.2916  -2.2680
    -2.2050  -2.1843  -2.1632  -2.1402  -2.1288  -2.1079  -2.0879  -2.0769
    -1.9721  -1.8804  -1.7451  -1.6920  -1.6715  -1.6576  -1.6256  -1.5008
    -1.3648  -1.3357  -1.3252  -1.3179  -1.2845  -1.2716  -1.1898  -1.0600
    -1.0499  -1.0085  -0.9576  -0.8999  -0.8748  -0.7728  -0.7361  -0.6592
    -0.6541  -0.6372  -0.5844  -0.5320  -0.3742  -0.3314  -0.3061  -0.2838
    -0.2597  -0.1889  -0.1674  -0.0503  -0.0334  -0.0160   0.0440   0.0679
     0.0805   0.0904   0.1081   0.1263   0.1437   0.3107   0.3832   0.4367
     0.4590   0.5173   0.6419   0.7111   0.7656   0.8663   1.0770   1.1513
     1.2443   1.3434   1.7225   1.7682   2.6513   3.2463   3.3269   3.3760
     3.3907   3.4877   3.5214   3.6980   3.6989   3.7277   3.7976

[...]

          k = 0.0380-0.0419 0.0000 ( 17876 PWs)   bands (ev):

[...]

          k =-0.0760-0.0000 0.0000 ( 17886 PWs)   bands (ev):

[...]

          k =-0.0760-0.0839 0.0000 ( 17948 PWs)   bands (ev):

   -55.8764 -55.8756 -55.8606 -55.8602 -55.7904 -55.7161 -55.7056 -55.7035
   -55.6857 -55.6831 -55.6507 -55.6494 -55.2822 -55.0933 -54.8538 -54.8536
   -32.2373 -32.2354 -32.1908 -32.1903 -32.1717 -32.1710 -32.1678 -32.1323
   -32.0867 -32.0837 -32.0777 -32.0771 -32.0405 -32.0109 -32.0032 -32.0026
   -31.9962 -31.9960 -31.9956 -31.9951 -31.9913 -31.9895 -31.9870 -31.9358
   -31.9219 -31.9101 -31.9089 -31.8976 -31.8847 -31.8841 -31.8817 -31.8807
   -31.8651 -31.8644 -31.8552 -31.8525 -31.6921 -31.5656 -31.4649 -31.4118
   -31.3542 -31.3333 -31.1798 -31.1796 -31.0906 -31.0905 -31.0514 -31.0512
   -18.4605 -16.0665 -16.0406 -15.8405 -15.8075 -15.8034 -15.7890 -15.6800
   -15.5953 -15.5883 -15.5856 -15.5191 -15.4890 -15.4731 -15.4325 -15.4198
   -15.4125 -15.4009 -15.3906 -15.3536 -15.3462 -15.3290 -15.3215 -15.2372
   -15.2097 -15.2056 -15.1794 -15.0617 -14.9303 -14.6150 -13.3588 -13.3586
   -11.3952  -6.9470  -4.2760  -3.9225  -3.8364  -3.3560  -3.3272  -3.0867
    -3.0482  -3.0345  -2.9812  -2.8194  -2.7893  -2.7634  -2.7519  -2.7203
    -2.7150  -2.7028  -2.6979  -2.6779  -2.6366  -2.6159  -2.5980  -2.5798
    -2.5605  -2.5465  -2.5308  -2.5140  -2.5044  -2.4650  -2.4415  -2.4300
    -2.4112  -2.3995  -2.2419  -2.1200  -2.0856  -2.0311  -2.0209  -1.9993
    -1.9593  -1.9555  -1.9438  -1.8794  -1.8076  -1.6463  -1.6121  -1.5923
    -1.5729  -1.5391  -1.4980  -1.4577  -1.3703  -1.2966  -1.2729  -1.2680
    -1.1991  -1.1127  -1.1052  -1.0573  -1.0146  -1.0054  -0.9508  -0.8859
    -0.8554  -0.8511  -0.7961  -0.7245  -0.7109  -0.6613  -0.6545  -0.6101
    -0.5552  -0.5463  -0.5261  -0.4848  -0.4029  -0.3793  -0.2404  -0.1609
    -0.0388   0.0760   0.1703   0.1845   0.2644   0.3164   0.4001   0.4176
     0.4281   0.4373   0.4806   0.5642   0.6392   0.6539   0.7000   0.8209
     1.5150   1.5157   1.5878   1.5881   2.7088   3.4930   3.5380   3.5802
     3.6124   3.7184   3.7512   3.7747   3.7758   3.8035   3.9160

     the Fermi energy is     3.2414 ev

!    total energy              =   -2939.15463197 Ry
     estimated scf accuracy    <       0.00000006 Ry
     smearing contrib. (-TS)   =      -0.02245942 Ry
     internal energy E=F+TS    =   -2939.13217255 Ry

     The total energy is F=E-TS. E is the sum of the following terms:
     one-electron contribution =  -24176.30005375 Ry
     hartree contribution      =   12175.41102404 Ry
     xc contribution           =    -485.18518778 Ry
     ewald contribution        =    9546.94109000 Ry
     electric field correction =       0.00095494 Ry

     convergence has been achieved in  70 iterations

     Forces acting on atoms (cartesian axes, Ry/au):

     atom    1 type  1   force =     0.00012659   -0.00025773    0.09669629
     atom    2 type  1   force =    -0.00012325   -0.00050198   -0.17519281
     atom    3 type  2   force =     0.00000128   -0.00009921   -0.02500080
     atom    4 type  2   force =     0.00005296   -0.00149363    0.05297415
     atom    5 type  2   force =    -0.01215173   -0.00108752    0.00361394
     atom    6 type  2   force =     0.01370313   -0.00027819    0.00229176
     atom    7 type  1   force =    -0.00117387    0.00036753   -0.01148161
     atom    8 type  1   force =     0.00055878    0.00941613    0.02853056
     atom    9 type  2   force =     0.00019916    0.00053308   -0.00012881
     atom   10 type  2   force =    -0.00114920    0.00028341   -0.01825374
     atom   11 type  2   force =    -0.00012353    0.00000453   -0.00014307
     atom   12 type  2   force =     0.00012999    0.00021674    0.00017198
     atom   13 type  1   force =     0.00009524   -0.00029301    0.00016564
     atom   14 type  1   force =     0.00022542    0.00016577    0.00018821
     atom   15 type  2   force =     0.00022157   -0.00003560   -0.00019964
     atom   16 type  2   force =    -0.00033010    0.00034074    0.00035468
     atom   17 type  2   force =    -0.00015631    0.00042804   -0.00012792
     atom   18 type  2   force =     0.00013081    0.00016812    0.00024826
     atom   19 type  1   force =    -0.00006779    0.00017366    0.00004409
     atom   20 type  1   force =    -0.00057821   -0.00027100    0.00023619
     atom   21 type  2   force =     0.00008269    0.00001890    0.10321273
     atom   22 type  2   force =    -0.00019017    0.00033087    0.00073720
     atom   23 type  2   force =    -0.07146679   -0.00007138   -0.02770551
     atom   24 type  2   force =     0.07143344    0.00034911   -0.02771673
     atom   25 type  1   force =     0.00007055   -0.00020605    0.09641965
     atom   26 type  1   force =    -0.00021966   -0.00025835   -0.17558838
     atom   27 type  2   force =     0.00006927   -0.00025178   -0.02400734
     atom   28 type  2   force =     0.00009679   -0.00126749    0.05284588
     atom   29 type  2   force =    -0.01239202    0.00003786    0.00353187
     atom   30 type  2   force =     0.01385828    0.00033217    0.00217627
     atom   31 type  1   force =    -0.00114231    0.00333027   -0.01189193
     atom   32 type  1   force =     0.00064722   -0.01117920    0.02912777
     atom   33 type  2   force =     0.00011058   -0.00020327   -0.00038714
     atom   34 type  2   force =    -0.00089619   -0.00093659   -0.02483692
     atom   35 type  2   force =    -0.00039610    0.00027140    0.00001413
     atom   36 type  2   force =     0.00071997    0.00029359    0.00033252
     atom   37 type  1   force =    -0.00000870   -0.00022358    0.00007189
     atom   38 type  1   force =    -0.00000628    0.00010882   -0.00001255
     atom   39 type  2   force =     0.00032291    0.00035789   -0.00047512
     atom   40 type  2   force =    -0.00030548    0.00010276    0.00013854
     atom   41 type  2   force =    -0.00045881    0.00052010    0.00012425
     atom   42 type  2   force =     0.00004981    0.00044853    0.00043683
     atom   43 type  1   force =    -0.00005178    0.00035970    0.00040080
     atom   44 type  1   force =    -0.00042256    0.00026112    0.00093766
     atom   45 type  2   force =     0.00008476   -0.00002961    0.10322193
     atom   46 type  2   force =    -0.07149210   -0.00003453   -0.02771913
     atom   47 type  2   force =     0.07146113    0.00038635   -0.02774559
     atom   48 type  3   force =     0.00015690   -0.00620700   -0.00153727
     atom   49 type  3   force =     0.00064735    0.00068366   -0.00081150
     atom   50 type  4   force =     0.00117264    0.01811425   -0.00440172
     atom   51 type  5   force =     0.00221417   -0.00815634    0.00317614
     atom   52 type  5   force =    -0.00246760   -0.00326148    0.00291688
     atom   53 type  5   force =    -0.00087283   -0.00180060    0.00002654

     Total force =     0.368957     Total SCF correction =     0.000725
  @ DRIVER MODE: Message from server: STATUS
  @ DRIVER MODE: Message from server: GETFORCE
  @ DRIVER MODE: Returning v,forces,stress,ensemble

     Writing output data file ./calc.save/
  @ DRIVER MODE: Message from server: EXIT
  @ DRIVE MODE: Exiting

     General routines

     Parallel routines

   This run was terminated on:   2:52:31   9Sep2021

   JOB DONE.