     Program PWSCF v.6.7GPU starts on 26Sep2021 at  1:58:43

     R & G space division:  proc/nbgrp/npool/nimage =       8
     Reading input from /storage/home/hcoda1/3/ntian30/research/carbon/CxH_vib/H2O_calc/ads_slab/CH3ON2H2O_a/out_0023/pw.inp
Warning: card &CELL ignored
Warning: card   CELL_DYNAMICS='IPI', ignored
Warning: card / ignored

     Current dimensions of program PWSCF are:
     Max number of different atomic species (ntypx) = 10
     Max number of k-points (npk) =  40000
     Max angular momentum in pseudopotentials (lmaxx) =  3
     Presently no symmetry can be used with electric field

     Message from routine cell_base_init:
     DEPRECATED: use true lattice parameter, not A to a.u. conversion factor

     IMPORTANT: XC functional enforced from input :
     Exchange-correlation= BEEF-VDW
                           (   1   4  43  14   2   0   0)
     Any further DFT definition will be discarded
     Please, verify this is what you really want

  @ DRIVER MODE: Connecting to
 qe_1139763_2971672.sched-torque.pace.gatech.eduv8vdvzh3_scratch
  using UNIX socket
  @ DRIVER MODE: Message from server: STATUS
  @ DRIVER MODE: Message from server: INIT
  @ DRIVER MODE: Receiving replica           0          -1
  @ DRIVER MODE: Receiving encoded integer          25
  @ DRIVER MODE:  SCF:  T  FORCE:  T  STRESS:  F  VC:  F  ENSEMBLE:  F
  @ DRIVER MODE:  SCF:  T  FORCE:  T  STRESS:  F  VC:  F  ENSEMBLE:  F

     Using Slab Decomposition

     bravais-lattice index     =            0
     lattice parameter (alat)  =       1.8897  a.u.
     unit-cell volume          =    6658.9804 (a.u.)^3
     number of atoms/cell      =           57
     number of atomic types    =            5
     number of electrons       =       409.00
     number of Kohn-Sham states=          214
     kinetic-energy cutoff     =      29.3995  Ry
     charge density cutoff     =     293.9946  Ry
     scf convergence threshold =      7.3E-08
     mixing beta               =       0.0500
     number of iterations used =            8  plain     mixing
     Exchange-correlation= BEEF-VDW
                           (   1   4  43  14   2   0   0)

     celldm(1)=   1.889726  celldm(2)=   0.000000  celldm(3)=   0.000000
     celldm(4)=   0.000000  celldm(5)=   0.000000  celldm(6)=   0.000000

     crystal axes: (cart. coord. in units of alat)
               a(1) = (   6.579727   0.000000   0.000000 )
               a(2) = (  -0.000775   5.961596   0.000000 )
               a(3) = (   0.000000   0.000000  25.155947 )

     reciprocal axes: (cart. coord. in units 2 pi/alat)
               b(1) = (  0.151982  0.000020  0.000000 )
               b(2) = (  0.000000  0.167740  0.000000 )
               b(3) = (  0.000000  0.000000  0.039752 )

     PseudoPot. # 1 for Ti read from file:
     /storage/coda1/p-amedford6/0/shared/rich_project_chbe-medford/medford-share/data/pseudos_module/espresso/nninc/pbe/van/Ti.UPF
     MD5 check sum: 8e4df49b7f0d34bbd5052bf3f5ea0213
     Pseudo is Ultrasoft, Zval = 12.0
     Generated by new atomic code, or converted to UPF format
     Using radial grid of  851 points,  6 beta functions with:
                l(1) =   0
                l(2) =   0
                l(3) =   1
                l(4) =   1
                l(5) =   2
                l(6) =   2
     Q(r) pseudized with  8 coefficients,  rinner =    1.000   1.000   1.000
                                                       1.000   1.000

     PseudoPot. # 2 for O  read from file:
     /storage/coda1/p-amedford6/0/shared/rich_project_chbe-medford/medford-share/data/pseudos_module/espresso/nninc/pbe/van/O.UPF
     MD5 check sum: 78c19812648e8988a0fe644b0f25305e
     Pseudo is Ultrasoft, Zval =  6.0
     Generated by new atomic code, or converted to UPF format
     Using radial grid of  737 points,  4 beta functions with:
                l(1) =   0
                l(2) =   0
                l(3) =   1
                l(4) =   1
     Q(r) pseudized with  8 coefficients,  rinner =    0.800   0.800   0.800

     PseudoPot. # 3 for C  read from file:
     /storage/coda1/p-amedford6/0/shared/rich_project_chbe-medford/medford-share/data/pseudos_module/espresso/nninc/pbe/van/C.UPF
     MD5 check sum: 1a69bf6b8db32088f5b2163dbdb77a27
     Pseudo is Ultrasoft, Zval =  4.0
     Generated by new atomic code, or converted to UPF format
     Using radial grid of  721 points,  4 beta functions with:
                l(1) =   0
                l(2) =   0
                l(3) =   1
                l(4) =   1
     Q(r) pseudized with  8 coefficients,  rinner =    0.800   0.800   0.800

     PseudoPot. # 4 for H  read from file:
     /storage/coda1/p-amedford6/0/shared/rich_project_chbe-medford/medford-share/data/pseudos_module/espresso/nninc/pbe/van/H.UPF
     MD5 check sum: b5ee9d7bfd3a09ee7748110bda690ff7
     Pseudo is Ultrasoft, Zval =  1.0
     Generated by new atomic code, or converted to UPF format
     Using radial grid of  615 points,  1 beta functions with:
                l(1) =   0
     Q(r) pseudized with  8 coefficients,  rinner =    0.800

     PseudoPot. # 5 for N  read from file:
     /storage/coda1/p-amedford6/0/shared/rich_project_chbe-medford/medford-share/data/pseudos_module/espresso/nninc/pbe/van/N.UPF
     MD5 check sum: 90d10febe142ad51ac9d5be1deb811c4
     Pseudo is Ultrasoft, Zval =  5.0
     Generated by new atomic code, or converted to UPF format
     Using radial grid of  729 points,  4 beta functions with:
                l(1) =   0
                l(2) =   0
                l(3) =   1
                l(4) =   1
     Q(r) pseudized with  8 coefficients,  rinner =    0.800   0.800   0.800

     atomic species   valence    mass     pseudopotential
        Ti1           12.00    47.86700     Ti( 1.00)
        O1             6.00    15.99900     O ( 1.00)
        C1             4.00    12.01100     C ( 1.00)
        H1             1.00     1.00800     H ( 1.00)
        N1             5.00    14.00700     N ( 1.00)

     No symmetry found

   Cartesian axes

     site n.     atom                  positions (alat units)
         1           Ti1 tau(   1) = (   0.0004258   2.9801865   6.0000000  )
         2           Ti1 tau(   2) = (   3.2906075   1.4906267   6.0002472  )
         3           O1  tau(   3) = (   0.0006271   0.0005054   7.9858123  )
         4           O1  tau(   4) = (   3.2906025   0.0005020   7.3038282  )
         5           O1  tau(   5) = (   4.5942328   1.4918067   9.2879030  )
         6           O1  tau(   6) = (   1.9868534   1.4903216   9.2879459  )
         7           Ti1 tau(   7) = (   3.3113259   3.0354369   9.1618307  )
         8           Ti1 tau(   8) = (   0.0141821   1.6139659   9.3625064  )
         9           O1  tau(   9) = (   3.2964399   0.0287090  11.3517035  )
        10           O1  tau(  10) = (   0.0046459   0.0167322  10.6079620  )
        11           O1  tau(  11) = (   1.2916403   1.5142126  12.6509924  )
        12           O1  tau(  12) = (   5.2954765   1.5212855  12.6445515  )
        13           Ti1 tau(  13) = (   0.0303381   3.0181167  12.7741416  )
        14           Ti1 tau(  14) = (   3.3376880   1.5190318  12.5019279  )
        15           O1  tau(  15) = (   6.5702980   0.0162101  14.7136675  )
        16           O1  tau(  16) = (   3.3118210   0.0215951  13.9605728  )
        17           O1  tau(  17) = (   4.5586303   1.5408398  16.0643691  )
        18           O1  tau(  18) = (   2.0376984   1.5397913  16.0346728  )
        19           Ti1 tau(  19) = (   3.2806018   3.0126274  15.6982083  )
        20           Ti1 tau(  20) = (   0.0204579   1.3876160  16.0921805  )
        21           O1  tau(  21) = (   3.2904802   0.0005063   4.7018136  )
        22           O1  tau(  22) = (   0.0362274   0.0182013  17.2505027  )
        23           O1  tau(  23) = (   1.3043587   1.4918075   6.0039043  )
        24           O1  tau(  24) = (   5.2767064   1.4903225   6.0039473  )
        25           Ti1 tau(  25) = (   0.0000382   5.9609847   6.0000000  )
        26           Ti1 tau(  26) = (   3.2902200   4.4714249   6.0002472  )
        27           O1  tau(  27) = (   0.0002396   2.9813036   7.9858123  )
        28           O1  tau(  28) = (   3.2902150   2.9813002   7.3038282  )
        29           O1  tau(  29) = (   4.5938453   4.4726049   9.2879030  )
        30           O1  tau(  30) = (   1.9864658   4.4711199   9.2879459  )
        31           Ti1 tau(  31) = (   3.2918133   0.0584897   9.1554610  )
        32           Ti1 tau(  32) = (   0.0176696   4.5429683   9.2683582  )
        33           O1  tau(  33) = (   3.2944385   3.0046939  11.3531965  )
        34           O1  tau(  34) = (   0.0071923   2.9964285  10.5824339  )
        35           O1  tau(  35) = (   1.2923070   4.5060354  12.6395470  )
        36           O1  tau(  36) = (   5.2930342   4.4972821  12.6335129  )
        37           Ti1 tau(  37) = (   0.0360028   0.0369787  12.5252624  )
        38           Ti1 tau(  38) = (   3.3378333   4.5109478  12.5016189  )
        39           O1  tau(  39) = (   0.0182598   3.0415135  14.6926035  )
        40           O1  tau(  40) = (   3.2973286   3.0139918  13.9115332  )
        41           O1  tau(  41) = (   4.5518717   4.4752506  16.0920674  )
        42           O1  tau(  42) = (   2.0385343   4.4722040  16.0556704  )
        43           Ti1 tau(  43) = (   3.3273276   0.0437280  15.7880462  )
        44           Ti1 tau(  44) = (   0.0148993   4.5306414  15.9319406  )
        45           O1  tau(  45) = (   3.2900926   2.9813045   4.7018136  )
        46           O1  tau(  46) = (   1.3039711   4.4726057   6.0039043  )
        47           O1  tau(  47) = (   5.2763189   4.4711207   6.0039473  )
        48           C1  tau(  48) = (   6.0619278   3.0088867  18.6555636  )
        49           O1  tau(  49) = (   6.5788924   2.9994598  17.3400993  )
        50           H1  tau(  50) = (   4.9713474   2.8828304  18.6515055  )
        51           H1  tau(  51) = (   6.4909130   2.1836263  19.2213859  )
        52           H1  tau(  52) = (   6.3070107   3.9563896  19.1453893  )
        53           N1  tau(  53) = (   5.9950546   3.0301018  22.7159517  )
        54           N1  tau(  54) = (   5.2276613   3.1827328  21.9368001  )
        55           O1  tau(  55) = (   3.1818816   0.0591848  18.2205797  )
        56           H1  tau(  56) = (   3.8437189   5.3938241  18.5518935  )
        57           H1  tau(  57) = (   2.3086839   5.6188137  18.3735615  )

     number of k points=    10  Fermi-Dirac smearing, width (Ry)=  0.0073
                       cart. coord. in units 2pi/alat
        k(    1) = (   0.0000000   0.0000000   0.0000000), wk =   0.1250000
        k(    2) = (   0.0000000   0.0419351   0.0000000), wk =   0.2500000
        k(    3) = (   0.0000000  -0.0838702   0.0000000), wk =   0.1250000
        k(    4) = (   0.0379955   0.0000049   0.0000000), wk =   0.2500000
        k(    5) = (   0.0379955   0.0419400   0.0000000), wk =   0.2500000
        k(    6) = (   0.0379955  -0.0838652   0.0000000), wk =   0.2500000
        k(    7) = (   0.0379955  -0.0419301   0.0000000), wk =   0.2500000
        k(    8) = (  -0.0759910  -0.0000099   0.0000000), wk =   0.1250000
        k(    9) = (  -0.0759910   0.0419252   0.0000000), wk =   0.2500000
        k(   10) = (  -0.0759910  -0.0838800   0.0000000), wk =   0.1250000

     Initial potential from superposition of free atoms

     starting charge  392.99914, renormalised to  409.00000

     negative rho (up, down):  9.747E-03 0.000E+00

     %%%%%%%%%%%%%%%%%%%%%%%%%%%%%%%%%%%%%%%%%%%%%%%%%%%%%%%%%%%%%%%%%%%%%%%%
     %                                                                      %
     % You are using vdW-DF, which was implemented by the Thonhauser group. %
     % Please cite the following two papers that made this development      %
     % possible and the two reviews that describe the various versions:     %
     %                                                                      %
     %   T. Thonhauser et al., PRL 115, 136402 (2015).                      %
     %   T. Thonhauser et al., PRB 76, 125112 (2007).                       %
     %   K. Berland et al., Rep. Prog. Phys. 78, 066501 (2015).             %
     %   D.C. Langreth et al., J. Phys.: Condens. Matter 21, 084203 (2009). %
     %                                                                      %
     %                                                                      %
     % If you are calculating the stress with vdW-DF, please also cite:     %
     %                                                                      %
     %   R. Sabatini et al., J. Phys.: Condens. Matter 24, 424209 (2012).   %
     %                                                                      %
     %%%%%%%%%%%%%%%%%%%%%%%%%%%%%%%%%%%%%%%%%%%%%%%%%%%%%%%%%%%%%%%%%%%%%%%%

     Adding external electric field

     Computed dipole along edir(3) :
        Dipole              -18.5707 Ry au,        -47.2021 Debye
        Dipole field         -0.0350 Ry au,

        Potential amp.        3.2487 Ry
        Total length         46.3494 bohr

     Starting wfcs are  309 atomic wfcs
  @ DRIVER MODE: Message from server: STATUS
  @ DRIVER MODE: Message from server: POSDATA
  @ DRIVER MODE: Reading and sharing cell
  @ DRIVER MODE: Reading and sharing positions
  @ DRIVER MODE: Received positions

     Self-consistent Calculation

     iteration #  1     ecut=    29.40 Ry     beta= 0.05
     Davidson diagonalization with overlap
     c_bands:  3 eigenvalues not converged
     c_bands:  2 eigenvalues not converged
     c_bands:  2 eigenvalues not converged
     c_bands:  5 eigenvalues not converged
     c_bands:  5 eigenvalues not converged
     c_bands:  5 eigenvalues not converged
     c_bands:  1 eigenvalues not converged
     c_bands:  3 eigenvalues not converged
     ethr =  1.00E-05,  avg # of iterations = 28.5

[...]

     total energy              =   -2113.10000565 Ry
     estimated scf accuracy    <   10297.56094881 Ry

     iteration #  2     ecut=    29.40 Ry     beta= 0.05
     Davidson diagonalization with overlap
     ethr =  1.00E-02,  avg # of iterations = 30.1

[...]

     iteration # 72     ecut=    29.40 Ry     beta= 0.05
     Davidson diagonalization with overlap
     c_bands:  1 eigenvalues not converged
     c_bands:  1 eigenvalues not converged
     ethr =  2.61E-11,  avg # of iterations = 11.7

[...]

     total energy              =   -3006.52128245 Ry
     estimated scf accuracy    <       0.00000011 Ry

     iteration # 73     ecut=    29.40 Ry     beta= 0.05
     Davidson diagonalization with overlap
     ethr =  2.61E-11,  avg # of iterations =  3.0

     negative rho (up, down):  1.094E-02 0.000E+00

     Adding external electric field

     Computed dipole along edir(3) :
        Dipole                0.9964 Ry au,          2.5325 Debye
        Dipole field          0.0019 Ry au,

        Potential amp.       -0.1743 Ry
        Total length         46.3494 bohr

     End of self-consistent calculation

          k = 0.0000 0.0000 0.0000 ( 18029 PWs)   bands (ev):

   -55.2846 -55.2500 -55.2486 -55.2136 -55.1912 -55.1755 -55.1680 -55.1323
   -55.0817 -55.0633 -55.0484 -55.0402 -55.0063 -54.9522 -54.2913 -54.2572
   -31.8070 -31.7537 -31.6769 -31.6450 -31.6236 -31.5764 -31.5591 -31.5556
   -31.5195 -31.5143 -31.4775 -31.4641 -31.4576 -31.4485 -31.4443 -31.4313
   -31.4252 -31.3891 -31.3838 -31.3760 -31.3720 -31.3531 -31.3492 -31.3402
   -31.3325 -31.3264 -31.3106 -31.2891 -31.2787 -31.2734 -31.2699 -31.2630
   -31.2595 -31.2442 -31.2313 -31.2212 -31.2194 -31.1848 -31.1696 -31.1493
   -31.1370 -31.1356 -30.7006 -30.6047 -30.5823 -30.5171 -30.4310 -30.3200
   -21.4264 -18.7354 -17.1978 -15.9994 -15.7289 -15.5688 -15.4376 -15.4023
   -15.2153 -15.0937 -14.9613 -14.9368 -14.8830 -14.8560 -14.8214 -14.8107
   -14.8056 -14.7936 -14.7857 -14.7388 -14.7041 -14.6866 -14.6862 -14.6630
   -14.6143 -14.5608 -14.4960 -14.4307 -14.4019 -14.3608 -14.2916 -14.2832
   -12.7918 -12.6738  -9.1316  -6.6034  -6.5287  -4.5644  -4.5537  -3.9134
    -3.7847  -3.4745  -3.3630  -3.2871  -3.2113  -3.1891  -3.1672  -3.0921
    -2.9822  -2.8448  -2.7497  -2.5104  -2.4548  -2.4120  -2.3804  -2.3514
    -2.1949  -2.1704  -2.1010  -2.0901  -2.0813  -2.0706  -2.0438  -2.0144
    -1.9888  -1.9569  -1.8983  -1.8735  -1.8033  -1.6724  -1.6639  -1.6319
    -1.5852  -1.5693  -1.5678  -1.5408  -1.4968  -1.4778  -1.4538  -1.4482
    -1.3510  -1.2594  -1.2162  -1.1228  -1.0424  -0.9689  -0.8468  -0.8082
    -0.7346  -0.7014  -0.6851  -0.6316  -0.5824  -0.5721  -0.5134  -0.4666
    -0.3589  -0.3184  -0.2744  -0.2383  -0.1861  -0.1424  -0.0715  -0.0380
    -0.0053  -0.0008   0.0202   0.2186   0.2296   0.2812   0.2938   0.3910
     0.4436   0.4780   0.4912   0.5005   0.5385   0.6140   0.6697   0.6783
     0.7101   0.7458   0.7652   0.8112   0.8523   0.9044   0.9340   0.9690
     1.0354   1.0760   1.2297   1.3250   1.3686   1.4845   1.6417   1.7331
     1.8065   1.9070   2.3197   2.3771   3.8969   3.9310   3.9577   3.9760
     4.0440   4.1430   4.2597   4.3506   4.3601   4.3906

[...]

          k = 0.0380-0.0419 0.0000 ( 17876 PWs)   bands (ev):

[...]

          k =-0.0760-0.0000 0.0000 ( 17886 PWs)   bands (ev):

[...]

          k =-0.0760-0.0839 0.0000 ( 17948 PWs)   bands (ev):

   -55.2724 -55.2606 -55.2340 -55.2294 -55.1881 -55.1732 -55.1573 -55.1431
   -55.0844 -55.0603 -55.0507 -55.0255 -55.0211 -54.9548 -54.2747 -54.2736
   -31.6188 -31.6024 -31.5766 -31.5747 -31.5645 -31.5631 -31.5457 -31.5129
   -31.5060 -31.4890 -31.4858 -31.4753 -31.4402 -31.4298 -31.4092 -31.4051
   -31.4001 -31.3982 -31.3968 -31.3906 -31.3876 -31.3842 -31.3728 -31.3645
   -31.3581 -31.3495 -31.3488 -31.3469 -31.3418 -31.3162 -31.2902 -31.2774
   -31.2747 -31.2738 -31.2706 -31.2619 -31.2535 -31.2407 -31.2313 -31.2219
   -31.1801 -31.1464 -30.5957 -30.5944 -30.5140 -30.5131 -30.4746 -30.4736
   -21.4263 -18.7344 -17.1674 -15.4674 -15.3582 -15.2293 -15.1647 -15.1420
   -15.1153 -15.0625 -15.0462 -14.9905 -14.9864 -14.9359 -14.9296 -14.8866
   -14.8798 -14.8257 -14.7974 -14.7884 -14.7594 -14.7267 -14.7107 -14.7098
   -14.6699 -14.6484 -14.6397 -14.6093 -14.6020 -14.5399 -14.5037 -14.4696
   -12.7761 -12.7742  -9.1335  -6.6042  -6.5221  -4.5648  -4.5610  -3.8239
    -3.7434  -3.5004  -3.2736  -3.0034  -2.7529  -2.5703  -2.4792  -2.4099
    -2.3568  -2.3389  -2.2295  -2.2049  -2.1749  -2.1402  -2.1177  -2.1069
    -2.0894  -2.0805  -2.0734  -2.0557  -2.0222  -2.0026  -1.9766  -1.9517
    -1.9365  -1.9130  -1.8953  -1.8879  -1.8631  -1.8352  -1.8286  -1.8257
    -1.7631  -1.7233  -1.5648  -1.5199  -1.4990  -1.4086  -1.3892  -1.3726
    -1.3471  -1.3330  -1.3163  -1.1977  -1.1469  -1.1189  -1.0102  -0.9921
    -0.9660  -0.8280  -0.8046  -0.7716  -0.7432  -0.7011  -0.6319  -0.6082
    -0.5525  -0.5398  -0.4387  -0.4017  -0.3766  -0.3635  -0.2677  -0.2453
    -0.2394  -0.2139  -0.1505  -0.1197  -0.0733  -0.0435  -0.0128   0.0118
     0.0578   0.0776   0.1715   0.1918   0.2281   0.2707   0.3648   0.5313
     0.6246   0.7349   0.7605   0.8075   0.8678   0.9100   0.9611   1.0136
     1.0620   1.0683   1.1312   1.1681   1.2530   1.2668   1.2702   1.3385
     2.0943   2.0946   2.1824   2.1915   4.1383   4.1466   4.2036   4.2233
     4.3626   4.3688   4.3823   4.3899   4.4847   4.5423

     the Fermi energy is     3.8668 ev

!    total energy              =   -3006.52130441 Ry
     estimated scf accuracy    <       0.00000006 Ry
     smearing contrib. (-TS)   =      -0.02294681 Ry
     internal energy E=F+TS    =   -3006.49835760 Ry

     The total energy is F=E-TS. E is the sum of the following terms:
     one-electron contribution =  -22563.60605299 Ry
     hartree contribution      =   11381.15491994 Ry
     xc contribution           =    -501.14986310 Ry
     ewald contribution        =    8677.10076515 Ry
     electric field correction =       0.00187340 Ry

     convergence has been achieved in  73 iterations

     Forces acting on atoms (cartesian axes, Ry/au):

     atom    1 type  1   force =    -0.00014942   -0.00167358    0.10540331
     atom    2 type  1   force =    -0.00021687    0.00113709   -0.17918435
     atom    3 type  2   force =     0.00020470   -0.00553926   -0.03233166
     atom    4 type  2   force =     0.00010228    0.00071992    0.04630936
     atom    5 type  2   force =    -0.01805192    0.00052829    0.00423398
     atom    6 type  2   force =     0.01844465   -0.00044313    0.00410033
     atom    7 type  1   force =     0.00007804    0.00019310    0.00003854
     atom    8 type  1   force =     0.00007160    0.00030607   -0.00014548
     atom    9 type  2   force =     0.00017430    0.00034647   -0.00008114
     atom   10 type  2   force =     0.00016965   -0.00000610    0.00003249
     atom   11 type  2   force =     0.00004053   -0.00034869   -0.00038270
     atom   12 type  2   force =    -0.00005501   -0.00052171   -0.00052367
     atom   13 type  1   force =     0.00047449    0.00024339    0.00006784
     atom   14 type  1   force =    -0.00026522   -0.00047580   -0.00044377
     atom   15 type  2   force =     0.00003656   -0.00050177    0.00029849
     atom   16 type  2   force =    -0.00008715    0.00030303   -0.00021568
     atom   17 type  2   force =    -0.00042971   -0.00062278    0.00008872
     atom   18 type  2   force =     0.00003841   -0.00049575    0.00021233
     atom   19 type  1   force =     0.00041603   -0.00026621   -0.00011925
     atom   20 type  1   force =    -0.00009026   -0.00059942   -0.00090259
     atom   21 type  2   force =    -0.00003524    0.00009968    0.10397423
     atom   22 type  2   force =    -0.00002232   -0.00052165    0.00066453
     atom   23 type  2   force =    -0.06943264    0.00052361   -0.02947775
     atom   24 type  2   force =     0.06918503    0.00097986   -0.02953241
     atom   25 type  1   force =    -0.00004111    0.00156604    0.11480970
     atom   26 type  1   force =    -0.00022386   -0.00047942   -0.17919291
     atom   27 type  2   force =     0.00021397    0.00414756   -0.02603617
     atom   28 type  2   force =     0.00042727    0.00093053    0.04809155
     atom   29 type  2   force =    -0.01632442    0.00162866    0.00384137
     atom   30 type  2   force =     0.01737422    0.00217994    0.00361105
     atom   31 type  1   force =    -0.00014324    0.00010133   -0.00024519
     atom   32 type  1   force =     0.00010913   -0.00008545    0.00024460
     atom   33 type  2   force =     0.00028870   -0.00050745    0.00018767
     atom   34 type  2   force =    -0.00004262   -0.00031090   -0.00028017
     atom   35 type  2   force =    -0.00047030   -0.00013394    0.00001459
     atom   36 type  2   force =     0.00054730    0.00001864    0.00000511
     atom   37 type  1   force =     0.00046135   -0.00073612   -0.00005398
     atom   38 type  1   force =    -0.00037565   -0.00002544   -0.00038719
     atom   39 type  2   force =    -0.00041734   -0.00049271   -0.00050361
     atom   40 type  2   force =     0.00035735   -0.00040699   -0.00024443
     atom   41 type  2   force =    -0.00019911   -0.00002614    0.00008258
     atom   42 type  2   force =    -0.00031338   -0.00020907    0.00006639
     atom   43 type  1   force =     0.00026165    0.00008329    0.00134460
     atom   44 type  1   force =     0.00004109   -0.00052472   -0.00074824
     atom   45 type  2   force =    -0.00003777    0.00007957    0.10402083
     atom   46 type  2   force =    -0.06903513   -0.00107244   -0.02953390
     atom   47 type  2   force =     0.06884725   -0.00063040   -0.02961260
     atom   48 type  3   force =    -0.00216135    0.00334962   -0.00341649
     atom   49 type  2   force =    -0.00009653    0.00112640   -0.00226870
     atom   50 type  4   force =    -0.00052745    0.00003211    0.00006078
     atom   51 type  4   force =     0.00222905   -0.00424730    0.00493521
     atom   52 type  4   force =     0.00015507    0.00001938   -0.00011893
     atom   53 type  5   force =    -0.00103815   -0.00018959   -0.00108429
     atom   54 type  5   force =     0.00051946    0.00036680    0.00080214
     atom   55 type  2   force =     0.00071804   -0.00001409    0.00041962
     atom   56 type  4   force =    -0.00158307    0.00013607   -0.00066772
     atom   57 type  4   force =    -0.00012092    0.00096161   -0.00022698

     Total force =     0.374685     Total SCF correction =     0.000718
  @ DRIVER MODE: Message from server: STATUS
  @ DRIVER MODE: Message from server: GETFORCE
  @ DRIVER MODE: Returning v,forces,stress,ensemble

     Writing output data file ./calc.save/
  @ DRIVER MODE: Message from server: EXIT
  @ DRIVE MODE: Exiting

     General routines

     Parallel routines

   This run was terminated on:   2:27:16  26Sep2021

   JOB DONE.