     Program PWSCF v.6.7GPU starts on 14Sep2021 at 18:29:29

     R & G space division:  proc/nbgrp/npool/nimage =      10
     Reading input from /storage/home/hcoda1/3/ntian30/research/carbon/CxH_vib/CH2_calc/ads_slab/CH2OHN2_a/out_0014/pw.inp
Warning: card &CELL ignored
Warning: card   CELL_DYNAMICS='IPI', ignored
Warning: card / ignored

     Current dimensions of program PWSCF are:
     Max number of different atomic species (ntypx) = 10
     Max number of k-points (npk) =  40000
     Max angular momentum in pseudopotentials (lmaxx) =  3
     Presently no symmetry can be used with electric field

     Message from routine cell_base_init:
     DEPRECATED: use true lattice parameter, not A to a.u. conversion factor

     IMPORTANT: XC functional enforced from input :
     Exchange-correlation= BEEF-VDW
                           (   1   4  43  14   2   0   0)
     Any further DFT definition will be discarded
     Please, verify this is what you really want

  @ DRIVER MODE: Connecting to
 qe_1139763_2840440.sched-torque.pace.gatech.eduj6vm846o_scratch
  using UNIX socket
  @ DRIVER MODE: Message from server: STATUS
  @ DRIVER MODE: Message from server: INIT
  @ DRIVER MODE: Receiving replica           0          -1
  @ DRIVER MODE: Receiving encoded integer          25
  @ DRIVER MODE:  SCF:  T  FORCE:  T  STRESS:  F  VC:  F  ENSEMBLE:  F
  @ DRIVER MODE:  SCF:  T  FORCE:  T  STRESS:  F  VC:  F  ENSEMBLE:  F

     Using Slab Decomposition

     bravais-lattice index     =            0
     lattice parameter (alat)  =       1.8897  a.u.
     unit-cell volume          =    6658.9804 (a.u.)^3
     number of atoms/cell      =           54
     number of atomic types    =            5
     number of electrons       =       401.00
     number of Kohn-Sham states=          210
     kinetic-energy cutoff     =      29.3995  Ry
     charge density cutoff     =     293.9946  Ry
     scf convergence threshold =      7.3E-08
     mixing beta               =       0.0500
     number of iterations used =            8  plain     mixing
     Exchange-correlation= BEEF-VDW
                           (   1   4  43  14   2   0   0)

     celldm(1)=   1.889726  celldm(2)=   0.000000  celldm(3)=   0.000000
     celldm(4)=   0.000000  celldm(5)=   0.000000  celldm(6)=   0.000000

     crystal axes: (cart. coord. in units of alat)
               a(1) = (   6.579727   0.000000   0.000000 )
               a(2) = (  -0.000775   5.961596   0.000000 )
               a(3) = (   0.000000   0.000000  25.155947 )

     reciprocal axes: (cart. coord. in units 2 pi/alat)
               b(1) = (  0.151982  0.000020  0.000000 )
               b(2) = (  0.000000  0.167740  0.000000 )
               b(3) = (  0.000000  0.000000  0.039752 )

     PseudoPot. # 1 for C  read from file:
     /storage/coda1/p-amedford6/0/shared/rich_project_chbe-medford/medford-share/data/pseudos_module/espresso/nninc/pbe/van/C.UPF
     MD5 check sum: 1a69bf6b8db32088f5b2163dbdb77a27
     Pseudo is Ultrasoft, Zval =  4.0
     Generated by new atomic code, or converted to UPF format
     Using radial grid of  721 points,  4 beta functions with:
                l(1) =   0
                l(2) =   0
                l(3) =   1
                l(4) =   1
     Q(r) pseudized with  8 coefficients,  rinner =    0.800   0.800   0.800

     PseudoPot. # 2 for H  read from file:
     /storage/coda1/p-amedford6/0/shared/rich_project_chbe-medford/medford-share/data/pseudos_module/espresso/nninc/pbe/van/H.UPF
     MD5 check sum: b5ee9d7bfd3a09ee7748110bda690ff7
     Pseudo is Ultrasoft, Zval =  1.0
     Generated by new atomic code, or converted to UPF format
     Using radial grid of  615 points,  1 beta functions with:
                l(1) =   0
     Q(r) pseudized with  8 coefficients,  rinner =    0.800

     PseudoPot. # 3 for O  read from file:
     /storage/coda1/p-amedford6/0/shared/rich_project_chbe-medford/medford-share/data/pseudos_module/espresso/nninc/pbe/van/O.UPF
     MD5 check sum: 78c19812648e8988a0fe644b0f25305e
     Pseudo is Ultrasoft, Zval =  6.0
     Generated by new atomic code, or converted to UPF format
     Using radial grid of  737 points,  4 beta functions with:
                l(1) =   0
                l(2) =   0
                l(3) =   1
                l(4) =   1
     Q(r) pseudized with  8 coefficients,  rinner =    0.800   0.800   0.800

     PseudoPot. # 4 for Ti read from file:
     /storage/coda1/p-amedford6/0/shared/rich_project_chbe-medford/medford-share/data/pseudos_module/espresso/nninc/pbe/van/Ti.UPF
     MD5 check sum: 8e4df49b7f0d34bbd5052bf3f5ea0213
     Pseudo is Ultrasoft, Zval = 12.0
     Generated by new atomic code, or converted to UPF format
     Using radial grid of  851 points,  6 beta functions with:
                l(1) =   0
                l(2) =   0
                l(3) =   1
                l(4) =   1
                l(5) =   2
                l(6) =   2
     Q(r) pseudized with  8 coefficients,  rinner =    1.000   1.000   1.000
                                                       1.000   1.000

     PseudoPot. # 5 for N  read from file:
     /storage/coda1/p-amedford6/0/shared/rich_project_chbe-medford/medford-share/data/pseudos_module/espresso/nninc/pbe/van/N.UPF
     MD5 check sum: 90d10febe142ad51ac9d5be1deb811c4
     Pseudo is Ultrasoft, Zval =  5.0
     Generated by new atomic code, or converted to UPF format
     Using radial grid of  729 points,  4 beta functions with:
                l(1) =   0
                l(2) =   0
                l(3) =   1
                l(4) =   1
     Q(r) pseudized with  8 coefficients,  rinner =    0.800   0.800   0.800

     atomic species   valence    mass     pseudopotential
        C1             4.00    12.01100     C ( 1.00)
        H1             1.00     1.00800     H ( 1.00)
        O1             6.00    15.99900     O ( 1.00)
        Ti1           12.00    47.86700     Ti( 1.00)
        N1             5.00    14.00700     N ( 1.00)

     No symmetry found

   Cartesian axes

     site n.     atom                  positions (alat units)
         1           C1  tau(   1) = (   5.1764158   1.5385028  19.8564928  )
         2           H1  tau(   2) = (   4.2418317   1.4168958  19.3325039  )
         3           H1  tau(   3) = (   6.1328006   2.9100337  18.2018079  )
         4           H1  tau(   4) = (   6.0297582   0.9181690  19.6386741  )
         5           O1  tau(   5) = (   0.0006271   0.0005054   7.9858123  )
         6           O1  tau(   6) = (   3.2906025   0.0005020   7.3038282  )
         7           O1  tau(   7) = (   4.5942328   1.4918067   9.2879030  )
         8           O1  tau(   8) = (   1.9868534   1.4903216   9.2879459  )
         9           O1  tau(   9) = (   3.2696825   0.0177092  11.3460806  )
        10           O1  tau(  10) = (   6.5743896   0.0111799  10.6115589  )
        11           O1  tau(  11) = (   1.2770957   1.5070501  12.6511825  )
        12           O1  tau(  12) = (   5.2749141   1.5057152  12.6378801  )
        13           O1  tau(  13) = (   6.5263050   0.0247340  14.7317399  )
        14           O1  tau(  14) = (   3.2747511   0.0213673  13.9312909  )
        15           O1  tau(  15) = (   4.4933390   1.5239927  16.1070736  )
        16           O1  tau(  16) = (   2.0026543   1.5217075  16.0711130  )
        17           O1  tau(  17) = (   3.2904802   0.0005063   4.7018136  )
        18           O1  tau(  18) = (   6.5469758   0.0421337  17.2556835  )
        19           O1  tau(  19) = (   1.3043587   1.4918075   6.0039043  )
        20           O1  tau(  20) = (   5.2767064   1.4903225   6.0039473  )
        21           O1  tau(  21) = (   0.0002396   2.9813036   7.9858123  )
        22           O1  tau(  22) = (   3.2902150   2.9813002   7.3038282  )
        23           O1  tau(  23) = (   4.5938453   4.4726049   9.2879030  )
        24           O1  tau(  24) = (   1.9864658   4.4711199   9.2879459  )
        25           O1  tau(  25) = (   3.2722311   3.0011533  11.3472759  )
        26           O1  tau(  26) = (   6.5787409   2.9955660  10.5677177  )
        27           O1  tau(  27) = (   1.2755865   4.4883074  12.6550720  )
        28           O1  tau(  28) = (   5.2773609   4.4903743  12.6413705  )
        29           O1  tau(  29) = (   6.5451067   2.9841024  14.7029789  )
        30           O1  tau(  30) = (   3.2773495   3.0062142  13.9304278  )
        31           O1  tau(  31) = (   4.4941242   4.5002890  16.1165364  )
        32           O1  tau(  32) = (   2.0016379   4.5015838  16.0818063  )
        33           O1  tau(  33) = (   3.2900926   2.9813045   4.7018136  )
        34           O1  tau(  34) = (   1.3039711   4.4726057   6.0039043  )
        35           O1  tau(  35) = (   5.2763189   4.4711207   6.0039473  )
        36           O1  tau(  36) = (   6.5536212   3.0044252  17.3297899  )
        37           Ti1 tau(  37) = (   0.0004258   2.9801865   6.0000000  )
        38           Ti1 tau(  38) = (   3.2906075   1.4906267   6.0002472  )
        39           Ti1 tau(  39) = (   3.3348906   3.0327224   9.1579215  )
        40           Ti1 tau(  40) = (   0.0203972   1.6099837   9.3624797  )
        41           Ti1 tau(  41) = (   6.5380572   3.0081639  12.8251979  )
        42           Ti1 tau(  42) = (   3.2225065   1.5141752  12.4854623  )
        43           Ti1 tau(  43) = (   3.2525775   3.0161725  15.7233172  )
        44           Ti1 tau(  44) = (   6.5465844   1.4469101  15.9770741  )
        45           Ti1 tau(  45) = (   0.0000382   5.9609847   6.0000000  )
        46           Ti1 tau(  46) = (   3.2902200   4.4714249   6.0002472  )
        47           Ti1 tau(  47) = (   3.2831171   0.0558662   9.1532617  )
        48           Ti1 tau(  48) = (   0.0294011   4.5318189   9.2743274  )
        49           Ti1 tau(  49) = (   6.5160019   0.0223579  12.5245727  )
        50           Ti1 tau(  50) = (   3.2307252   4.4944464  12.4919313  )
        51           Ti1 tau(  51) = (   3.2545639   0.0336594  15.7221480  )
        52           Ti1 tau(  52) = (   6.5427997   4.6104004  16.1309301  )
        53           N1  tau(  53) = (   5.0796009   2.6163306  22.0446247  )
        54           N1  tau(  54) = (   5.1188049   2.0915644  21.0330699  )

     number of k points=    10  Fermi-Dirac smearing, width (Ry)=  0.0073
                       cart. coord. in units 2pi/alat
        k(    1) = (   0.0000000   0.0000000   0.0000000), wk =   0.1250000
        k(    2) = (   0.0000000   0.0419351   0.0000000), wk =   0.2500000
        k(    3) = (   0.0000000  -0.0838702   0.0000000), wk =   0.1250000
        k(    4) = (   0.0379955   0.0000049   0.0000000), wk =   0.2500000
        k(    5) = (   0.0379955   0.0419400   0.0000000), wk =   0.2500000
        k(    6) = (   0.0379955  -0.0838652   0.0000000), wk =   0.2500000
        k(    7) = (   0.0379955  -0.0419301   0.0000000), wk =   0.2500000
        k(    8) = (  -0.0759910  -0.0000099   0.0000000), wk =   0.1250000
        k(    9) = (  -0.0759910   0.0419252   0.0000000), wk =   0.2500000
        k(   10) = (  -0.0759910  -0.0838800   0.0000000), wk =   0.1250000

     Initial potential from superposition of free atoms

     starting charge  384.99916, renormalised to  401.00000

     negative rho (up, down):  1.196E-02 0.000E+00

     %%%%%%%%%%%%%%%%%%%%%%%%%%%%%%%%%%%%%%%%%%%%%%%%%%%%%%%%%%%%%%%%%%%%%%%%
     %                                                                      %
     % You are using vdW-DF, which was implemented by the Thonhauser group. %
     % Please cite the following two papers that made this development      %
     % possible and the two reviews that describe the various versions:     %
     %                                                                      %
     %   T. Thonhauser et al., PRL 115, 136402 (2015).                      %
     %   T. Thonhauser et al., PRB 76, 125112 (2007).                       %
     %   K. Berland et al., Rep. Prog. Phys. 78, 066501 (2015).             %
     %   D.C. Langreth et al., J. Phys.: Condens. Matter 21, 084203 (2009). %
     %                                                                      %
     %                                                                      %
     % If you are calculating the stress with vdW-DF, please also cite:     %
     %                                                                      %
     %   R. Sabatini et al., J. Phys.: Condens. Matter 24, 424209 (2012).   %
     %                                                                      %
     %%%%%%%%%%%%%%%%%%%%%%%%%%%%%%%%%%%%%%%%%%%%%%%%%%%%%%%%%%%%%%%%%%%%%%%%

     Adding external electric field

     Computed dipole along edir(3) :
        Dipole              -14.0962 Ry au,        -35.8290 Debye
        Dipole field         -0.0266 Ry au,

        Potential amp.        2.4659 Ry
        Total length         46.3494 bohr

     Starting wfcs are  303 atomic wfcs
  @ DRIVER MODE: Message from server: STATUS
  @ DRIVER MODE: Message from server: POSDATA
  @ DRIVER MODE: Reading and sharing cell
  @ DRIVER MODE: Reading and sharing positions
  @ DRIVER MODE: Received positions

     Self-consistent Calculation

     iteration #  1     ecut=    29.40 Ry     beta= 0.05
     Davidson diagonalization with overlap
     c_bands:  5 eigenvalues not converged
     c_bands:  4 eigenvalues not converged
     c_bands:  5 eigenvalues not converged
     c_bands:  2 eigenvalues not converged
     c_bands:  4 eigenvalues not converged
     c_bands:  4 eigenvalues not converged
     c_bands:  4 eigenvalues not converged
     c_bands:  4 eigenvalues not converged
     c_bands:  5 eigenvalues not converged
     ethr =  1.00E-05,  avg # of iterations = 22.0

[...]

     total energy              =   -2410.46117292 Ry
     estimated scf accuracy    <    6378.64888362 Ry

     iteration #  2     ecut=    29.40 Ry     beta= 0.05
     Davidson diagonalization with overlap
     ethr =  1.00E-02,  avg # of iterations = 23.0

[...]

     iteration # 58     ecut=    29.40 Ry     beta= 0.05
     Davidson diagonalization with overlap
     c_bands:  2 eigenvalues not converged
     ethr =  4.10E-11,  avg # of iterations = 16.2

[...]

     total energy              =   -2971.53799250 Ry
     estimated scf accuracy    <       0.00000010 Ry

     iteration # 59     ecut=    29.40 Ry     beta= 0.05
     Davidson diagonalization with overlap
     ethr =  2.48E-11,  avg # of iterations =  2.0

     negative rho (up, down):  1.326E-02 0.000E+00

     Adding external electric field

     Computed dipole along edir(3) :
        Dipole                0.4404 Ry au,          1.1195 Debye
        Dipole field          0.0008 Ry au,

        Potential amp.       -0.0770 Ry
        Total length         46.3494 bohr

     End of self-consistent calculation

          k = 0.0000 0.0000 0.0000 ( 18029 PWs)   bands (ev):

   -55.7652 -55.7523 -55.7281 -55.7160 -55.6728 -55.6511 -55.6261 -55.5916
   -55.5898 -55.5798 -55.5382 -55.5151 -55.4815 -55.4150 -54.7757 -54.7416
   -32.3170 -32.2322 -32.1988 -32.1126 -32.0844 -32.0667 -32.0571 -32.0335
   -31.9948 -31.9905 -31.9755 -31.9666 -31.9623 -31.9334 -31.9256 -31.9219
   -31.9179 -31.8968 -31.8874 -31.8605 -31.8544 -31.8304 -31.8302 -31.8242
   -31.8063 -31.8010 -31.7827 -31.7776 -31.7713 -31.7692 -31.7617 -31.7541
   -31.7415 -31.7393 -31.7341 -31.6956 -31.6945 -31.6600 -31.6370 -31.6212
   -31.6038 -31.6009 -31.1854 -31.0885 -31.0662 -31.0021 -30.9161 -30.8048
   -20.7431 -16.9998 -16.5003 -16.2064 -16.0396 -15.9123 -15.8830 -15.7834
   -15.5918 -15.4573 -15.4404 -15.3663 -15.3322 -15.3231 -15.2944 -15.2846
   -15.2774 -15.2681 -15.2205 -15.1919 -15.1806 -15.1660 -15.1397 -15.0877
   -15.0406 -14.9682 -14.9183 -14.8813 -14.8608 -14.7625 -14.7432 -13.9460
   -13.2764 -13.1582  -6.5488  -5.5900  -4.9824  -4.5203  -3.8643  -3.6870
    -3.6704  -3.6521  -3.5691  -3.5139  -3.3263  -3.3100  -3.0096  -2.9340
    -2.9069  -2.8957  -2.8865  -2.7075  -2.6480  -2.6002  -2.5906  -2.5744
    -2.5723  -2.5479  -2.5285  -2.5198  -2.4900  -2.4688  -2.4610  -2.3216
    -2.2938  -2.1788  -2.1564  -2.1438  -2.0881  -2.0646  -2.0309  -2.0093
    -2.0040  -1.9867  -1.9652  -1.9306  -1.8448  -1.8215  -1.6961  -1.5910
    -1.5546  -1.4612  -1.3139  -1.2416  -1.2215  -1.1857  -1.1644  -1.1528
    -1.1022  -1.0773  -1.0245  -0.9617  -0.9568  -0.8530  -0.7796  -0.7422
    -0.6634  -0.6452  -0.6257  -0.5091  -0.4859  -0.4719  -0.3021  -0.2437
    -0.2287  -0.2234  -0.0980  -0.0559  -0.0220  -0.0080   0.0206   0.0519
     0.0971   0.1397   0.1988   0.2226   0.2343   0.2457   0.2652   0.2914
     0.4086   0.4253   0.4363   0.5541   0.5702   0.7609   0.7680   0.8850
     0.9862   1.1527   1.2487   1.3204   1.4197   1.7202   1.8375   1.8979
     3.4244   3.4550   3.4868   3.5042   3.5755   3.6986   3.8069   3.8597
     3.8830   3.9051

[...]

          k = 0.0380-0.0419 0.0000 ( 17876 PWs)   bands (ev):

[...]

          k =-0.0760-0.0000 0.0000 ( 17886 PWs)   bands (ev):

[...]

          k =-0.0760-0.0839 0.0000 ( 17948 PWs)   bands (ev):

   -55.7541 -55.7391 -55.7358 -55.7323 -55.6694 -55.6463 -55.6140 -55.6018
   -55.5964 -55.5830 -55.5355 -55.4991 -55.4976 -55.4174 -54.7591 -54.7580
   -32.1211 -32.1159 -32.0988 -32.0563 -32.0463 -32.0406 -32.0234 -32.0224
   -32.0157 -31.9782 -31.9545 -31.9469 -31.9436 -31.9102 -31.9051 -31.8970
   -31.8842 -31.8814 -31.8805 -31.8708 -31.8688 -31.8594 -31.8542 -31.8476
   -31.8446 -31.8227 -31.8180 -31.8132 -31.8063 -31.8047 -31.8021 -31.7829
   -31.7765 -31.7584 -31.7557 -31.7497 -31.7338 -31.7173 -31.7043 -31.6972
   -31.6454 -31.6102 -31.0795 -31.0782 -30.9988 -30.9980 -30.9596 -30.9586
   -20.7429 -16.9343 -15.9430 -15.9338 -15.6907 -15.6857 -15.6812 -15.6102
   -15.5261 -15.5050 -15.4837 -15.4787 -15.4296 -15.4157 -15.4038 -15.3413
   -15.3099 -15.2808 -15.2688 -15.2638 -15.2118 -15.2073 -15.1615 -15.1390
   -15.1202 -15.1150 -15.0911 -15.0867 -15.0471 -14.9863 -14.9171 -13.9458
   -13.2606 -13.2583  -6.5430  -5.5924  -4.9207  -4.5191  -3.5134  -3.2352
    -3.2239  -2.9572  -2.9096  -2.8964  -2.8140  -2.7520  -2.6858  -2.6449
    -2.6181  -2.6088  -2.5984  -2.5870  -2.5825  -2.5693  -2.5667  -2.5446
    -2.5273  -2.5148  -2.4575  -2.4375  -2.4133  -2.3935  -2.3850  -2.3749
    -2.3382  -2.3187  -2.3081  -2.2908  -2.2887  -2.2065  -2.0629  -2.0114
    -1.9198  -1.9008  -1.8902  -1.8482  -1.8268  -1.8102  -1.7950  -1.7456
    -1.7294  -1.5611  -1.4915  -1.4737  -1.4580  -1.4251  -1.3684  -1.2798
    -1.2477  -1.1746  -1.1678  -1.1246  -1.0653  -0.9912  -0.9693  -0.9283
    -0.8680  -0.8317  -0.7739  -0.7423  -0.7201  -0.7135  -0.6633  -0.6054
    -0.5674  -0.5072  -0.4808  -0.4178  -0.3778  -0.3412  -0.2860  -0.2564
    -0.2228  -0.1131  -0.0058   0.1303   0.1925   0.2678   0.2806   0.3075
     0.3298   0.4470   0.4762   0.5063   0.5486   0.6356   0.6906   0.7582
     0.7778   0.8069   0.8639   1.6091   1.6104   1.6996   1.7104   1.7235
     3.6219   3.6577   3.6760   3.7247   3.8828   3.8878   3.9061   3.9143
     3.9668   4.0460

     the Fermi energy is     3.3903 ev

!    total energy              =   -2971.53806071 Ry
     estimated scf accuracy    <       0.00000006 Ry
     smearing contrib. (-TS)   =      -0.02328800 Ry
     internal energy E=F+TS    =   -2971.51477272 Ry

     The total energy is F=E-TS. E is the sum of the following terms:
     one-electron contribution =  -22751.41213760 Ry
     hartree contribution      =   11466.77653680 Ry
     xc contribution           =    -492.33048306 Ry
     ewald contribution        =    8805.45094506 Ry
     electric field correction =       0.00036609 Ry

     convergence has been achieved in  59 iterations

     Forces acting on atoms (cartesian axes, Ry/au):

     atom    1 type  1   force =    -0.00064431    0.00096268    0.00076765
     atom    2 type  2   force =    -0.00045725    0.00082749   -0.00061155
     atom    3 type  2   force =    -0.00144181   -0.00071430   -0.00052581
     atom    4 type  2   force =     0.00082121   -0.00050149   -0.00026756
     atom    5 type  3   force =     0.00033247   -0.00681637   -0.03339241
     atom    6 type  3   force =    -0.00001395    0.00054965    0.04533108
     atom    7 type  3   force =    -0.02048528    0.00052906    0.00452090
     atom    8 type  3   force =     0.01817082   -0.00160691    0.00415376
     atom    9 type  3   force =     0.00050751    0.00001911   -0.00012032
     atom   10 type  3   force =    -0.00023190   -0.00002760    0.00010890
     atom   11 type  3   force =    -0.00004482   -0.00011535   -0.00031596
     atom   12 type  3   force =     0.00013126    0.00012162   -0.00018820
     atom   13 type  3   force =     0.00016251   -0.00017651   -0.00011354
     atom   14 type  3   force =     0.00062482    0.00026787    0.00000156
     atom   15 type  3   force =    -0.00023576   -0.00013573    0.00035274
     atom   16 type  3   force =     0.00029556   -0.00009467    0.00006771
     atom   17 type  3   force =     0.00003420    0.00006543    0.10414259
     atom   18 type  3   force =    -0.00012007    0.00011422    0.00061857
     atom   19 type  3   force =    -0.06902905    0.00070701   -0.02968351
     atom   20 type  3   force =     0.06880268    0.00126725   -0.02967361
     atom   21 type  3   force =     0.00037621    0.00378877   -0.02831770
     atom   22 type  3   force =     0.00086405    0.00084257    0.04702664
     atom   23 type  3   force =    -0.01796708    0.00141286    0.00381903
     atom   24 type  3   force =     0.01772212    0.00226355    0.00321664
     atom   25 type  3   force =     0.00020725   -0.00021519    0.00001418
     atom   26 type  3   force =     0.00001202   -0.00006881    0.00030659
     atom   27 type  3   force =    -0.00039353   -0.00020488    0.00023548
     atom   28 type  3   force =    -0.00123519   -0.00025352    0.00053564
     atom   29 type  3   force =    -0.00008289   -0.00060285    0.00018261
     atom   30 type  3   force =     0.00007215   -0.00040392    0.00042672
     atom   31 type  3   force =    -0.00034978   -0.00010897   -0.00000309
     atom   32 type  3   force =    -0.00003351   -0.00020107   -0.00033847
     atom   33 type  3   force =     0.00004881    0.00003482    0.10422484
     atom   34 type  3   force =    -0.06860665   -0.00136145   -0.02971677
     atom   35 type  3   force =     0.06848769   -0.00099050   -0.02969862
     atom   36 type  3   force =     0.00110759    0.00050217    0.00012182
     atom   37 type  4   force =     0.00000445   -0.00159888    0.10644565
     atom   38 type  4   force =    -0.00015178    0.00073316   -0.17958363
     atom   39 type  4   force =    -0.00050699    0.00004538   -0.00016990
     atom   40 type  4   force =     0.00003031    0.00006748   -0.00002149
     atom   41 type  4   force =     0.00269068    0.00081730   -0.00056920
     atom   42 type  4   force =    -0.00062962    0.00001471    0.00033690
     atom   43 type  4   force =    -0.00025229   -0.00022373   -0.00051663
     atom   44 type  4   force =     0.00056919    0.00051711   -0.00050171
     atom   45 type  4   force =    -0.00000006    0.00122289    0.11840682
     atom   46 type  4   force =     0.00000572   -0.00035076   -0.17986980
     atom   47 type  4   force =     0.00025034    0.00004659   -0.00029018
     atom   48 type  4   force =     0.00014862    0.00026850   -0.00032696
     atom   49 type  4   force =     0.00330724    0.00043600   -0.00004059
     atom   50 type  4   force =    -0.00354441    0.00014145   -0.00068670
     atom   51 type  4   force =     0.00032236   -0.00077218   -0.00018995
     atom   52 type  4   force =     0.00093742   -0.00102246    0.00041223
     atom   53 type  5   force =     0.00068158    0.00131321    0.00006491
     atom   54 type  5   force =    -0.00127092   -0.00133182   -0.00010829

     Total force =     0.376640     Total SCF correction =     0.000859
  @ DRIVER MODE: Message from server: STATUS
  @ DRIVER MODE: Message from server: GETFORCE
  @ DRIVER MODE: Returning v,forces,stress,ensemble

     Writing output data file ./calc.save/
  @ DRIVER MODE: Message from server: EXIT
  @ DRIVE MODE: Exiting

     General routines

     Parallel routines

   This run was terminated on:  18:47:21  14Sep2021

   JOB DONE.