     Program PWSCF v.6.7GPU starts on 23Sep2021 at  2: 7:16

     R & G space division:  proc/nbgrp/npool/nimage =      10
     Reading input from /storage/home/hcoda1/3/ntian30/research/carbon/CxH_vib/H2O_calc/ads_slab/CH2NHHHO_a/out_0028/pw.inp
Warning: card &CELL ignored
Warning: card   CELL_DYNAMICS='IPI', ignored
Warning: card / ignored

     Current dimensions of program PWSCF are:
     Max number of different atomic species (ntypx) = 10
     Max number of k-points (npk) =  40000
     Max angular momentum in pseudopotentials (lmaxx) =  3
     Presently no symmetry can be used with electric field

     Message from routine cell_base_init:
     DEPRECATED: use true lattice parameter, not A to a.u. conversion factor

     IMPORTANT: XC functional enforced from input :
     Exchange-correlation= BEEF-VDW
                           (   1   4  43  14   2   0   0)
     Any further DFT definition will be discarded
     Please, verify this is what you really want

  @ DRIVER MODE: Connecting to
 qe_1139763_2937325.sched-torque.pace.gatech.edujp7eball_scratch
  using UNIX socket
  @ DRIVER MODE: Message from server: STATUS
  @ DRIVER MODE: Message from server: INIT
  @ DRIVER MODE: Receiving replica           0          -1
  @ DRIVER MODE: Receiving encoded integer          25
  @ DRIVER MODE:  SCF:  T  FORCE:  T  STRESS:  F  VC:  F  ENSEMBLE:  F
  @ DRIVER MODE:  SCF:  T  FORCE:  T  STRESS:  F  VC:  F  ENSEMBLE:  F

     Using Slab Decomposition

     bravais-lattice index     =            0
     lattice parameter (alat)  =       1.8897  a.u.
     unit-cell volume          =    6658.9804 (a.u.)^3
     number of atoms/cell      =           55
     number of atomic types    =            5
     number of electrons       =       398.00
     number of Kohn-Sham states=          209
     kinetic-energy cutoff     =      29.3995  Ry
     charge density cutoff     =     293.9946  Ry
     scf convergence threshold =      7.3E-08
     mixing beta               =       0.0500
     number of iterations used =            8  plain     mixing
     Exchange-correlation= BEEF-VDW
                           (   1   4  43  14   2   0   0)

     celldm(1)=   1.889726  celldm(2)=   0.000000  celldm(3)=   0.000000
     celldm(4)=   0.000000  celldm(5)=   0.000000  celldm(6)=   0.000000

     crystal axes: (cart. coord. in units of alat)
               a(1) = (   6.579727   0.000000   0.000000 )
               a(2) = (  -0.000775   5.961596   0.000000 )
               a(3) = (   0.000000   0.000000  25.155947 )

     reciprocal axes: (cart. coord. in units 2 pi/alat)
               b(1) = (  0.151982  0.000020  0.000000 )
               b(2) = (  0.000000  0.167740  0.000000 )
               b(3) = (  0.000000  0.000000  0.039752 )

     PseudoPot. # 1 for Ti read from file:
     /storage/coda1/p-amedford6/0/shared/rich_project_chbe-medford/medford-share/data/pseudos_module/espresso/nninc/pbe/van/Ti.UPF
     MD5 check sum: 8e4df49b7f0d34bbd5052bf3f5ea0213
     Pseudo is Ultrasoft, Zval = 12.0
     Generated by new atomic code, or converted to UPF format
     Using radial grid of  851 points,  6 beta functions with:
                l(1) =   0
                l(2) =   0
                l(3) =   1
                l(4) =   1
                l(5) =   2
                l(6) =   2
     Q(r) pseudized with  8 coefficients,  rinner =    1.000   1.000   1.000
                                                       1.000   1.000

     PseudoPot. # 2 for O  read from file:
     /storage/coda1/p-amedford6/0/shared/rich_project_chbe-medford/medford-share/data/pseudos_module/espresso/nninc/pbe/van/O.UPF
     MD5 check sum: 78c19812648e8988a0fe644b0f25305e
     Pseudo is Ultrasoft, Zval =  6.0
     Generated by new atomic code, or converted to UPF format
     Using radial grid of  737 points,  4 beta functions with:
                l(1) =   0
                l(2) =   0
                l(3) =   1
                l(4) =   1
     Q(r) pseudized with  8 coefficients,  rinner =    0.800   0.800   0.800

     PseudoPot. # 3 for N  read from file:
     /storage/coda1/p-amedford6/0/shared/rich_project_chbe-medford/medford-share/data/pseudos_module/espresso/nninc/pbe/van/N.UPF
     MD5 check sum: 90d10febe142ad51ac9d5be1deb811c4
     Pseudo is Ultrasoft, Zval =  5.0
     Generated by new atomic code, or converted to UPF format
     Using radial grid of  729 points,  4 beta functions with:
                l(1) =   0
                l(2) =   0
                l(3) =   1
                l(4) =   1
     Q(r) pseudized with  8 coefficients,  rinner =    0.800   0.800   0.800

     PseudoPot. # 4 for C  read from file:
     /storage/coda1/p-amedford6/0/shared/rich_project_chbe-medford/medford-share/data/pseudos_module/espresso/nninc/pbe/van/C.UPF
     MD5 check sum: 1a69bf6b8db32088f5b2163dbdb77a27
     Pseudo is Ultrasoft, Zval =  4.0
     Generated by new atomic code, or converted to UPF format
     Using radial grid of  721 points,  4 beta functions with:
                l(1) =   0
                l(2) =   0
                l(3) =   1
                l(4) =   1
     Q(r) pseudized with  8 coefficients,  rinner =    0.800   0.800   0.800

     PseudoPot. # 5 for H  read from file:
     /storage/coda1/p-amedford6/0/shared/rich_project_chbe-medford/medford-share/data/pseudos_module/espresso/nninc/pbe/van/H.UPF
     MD5 check sum: b5ee9d7bfd3a09ee7748110bda690ff7
     Pseudo is Ultrasoft, Zval =  1.0
     Generated by new atomic code, or converted to UPF format
     Using radial grid of  615 points,  1 beta functions with:
                l(1) =   0
     Q(r) pseudized with  8 coefficients,  rinner =    0.800

     atomic species   valence    mass     pseudopotential
        Ti1           12.00    47.86700     Ti( 1.00)
        O1             6.00    15.99900     O ( 1.00)
        N1             5.00    14.00700     N ( 1.00)
        C1             4.00    12.01100     C ( 1.00)
        H1             1.00     1.00800     H ( 1.00)

     No symmetry found

   Cartesian axes

     site n.     atom                  positions (alat units)
         1           Ti1 tau(   1) = (   0.0004258   2.9801865   6.0000000  )
         2           Ti1 tau(   2) = (   3.2906075   1.4906267   6.0002472  )
         3           O1  tau(   3) = (   0.0006271   0.0005054   7.9858123  )
         4           O1  tau(   4) = (   3.2906025   0.0005020   7.3038282  )
         5           O1  tau(   5) = (   4.5942328   1.4918067   9.2879030  )
         6           O1  tau(   6) = (   1.9868534   1.4903216   9.2879459  )
         7           Ti1 tau(   7) = (   3.2907910   2.8959150   9.1758416  )
         8           Ti1 tau(   8) = (   0.0015273   1.4827037   9.2680791  )
         9           O1  tau(   9) = (   3.3134935   5.9450930  11.3716456  )
        10           O1  tau(  10) = (   0.0116148   5.9584955  10.6183126  )
        11           O1  tau(  11) = (   1.3009377   1.4930576  12.6823270  )
        12           O1  tau(  12) = (   5.3410967   1.4903504  12.6863499  )
        13           Ti1 tau(  13) = (   0.0342001   2.9430440  12.5112676  )
        14           Ti1 tau(  14) = (   3.3297267   1.2953541  12.7310232  )
        15           O1  tau(  15) = (   0.0493764   5.9086628  14.6689690  )
        16           O1  tau(  16) = (   3.3288597   0.0714287  14.0177558  )
        17           O1  tau(  17) = (   4.6153468   1.5975901  16.1787110  )
        18           O1  tau(  18) = (   2.0592605   1.5839887  16.0909148  )
        19           Ti1 tau(  19) = (   3.3163104   3.0362344  15.7082748  )
        20           Ti1 tau(  20) = (   0.1120434   1.3330501  15.8434463  )
        21           O1  tau(  21) = (   3.2904802   0.0005063   4.7018136  )
        22           O1  tau(  22) = (   0.0690725   0.1374024  17.2087871  )
        23           O1  tau(  23) = (   1.3043587   1.4918075   6.0039043  )
        24           O1  tau(  24) = (   5.2767064   1.4903225   6.0039473  )
        25           Ti1 tau(  25) = (   0.0000382   5.9609847   6.0000000  )
        26           Ti1 tau(  26) = (   3.2902200   4.4714249   6.0002472  )
        27           O1  tau(  27) = (   0.0002396   2.9813036   7.9858123  )
        28           O1  tau(  28) = (   3.2902150   2.9813002   7.3038282  )
        29           O1  tau(  29) = (   4.5938453   4.4726049   9.2879030  )
        30           O1  tau(  30) = (   1.9864658   4.4711199   9.2879459  )
        31           Ti1 tau(  31) = (   3.2891106   5.8743827   9.1763621  )
        32           Ti1 tau(  32) = (   0.0006254   4.4649316   9.2693709  )
        33           O1  tau(  33) = (   3.3165203   3.0043058  11.3207354  )
        34           O1  tau(  34) = (   0.0092240   2.9805883  10.6323155  )
        35           O1  tau(  35) = (   1.3050136   4.4578615  12.6552238  )
        36           O1  tau(  36) = (   5.3353050   4.4620295  12.6594116  )
        37           Ti1 tau(  37) = (   0.0330755   5.9154870  12.5003292  )
        38           Ti1 tau(  38) = (   3.3291962   4.3779952  12.4454333  )
        39           O1  tau(  39) = (   0.0233967   3.0352723  14.9286183  )
        40           O1  tau(  40) = (   3.3272303   3.0068708  13.9347379  )
        41           O1  tau(  41) = (   4.5962338   4.4808180  16.1645836  )
        42           O1  tau(  42) = (   2.0526765   4.4464907  16.1857218  )
        43           Ti1 tau(  43) = (   3.4309460   0.0633718  16.3216252  )
        44           Ti1 tau(  44) = (   0.1034465   4.5521166  15.9739525  )
        45           O1  tau(  45) = (   3.2900926   2.9813045   4.7018136  )
        46           O1  tau(  46) = (   1.3039711   4.4726057   6.0039043  )
        47           O1  tau(  47) = (   5.2763189   4.4711207   6.0039473  )
        48           N1  tau(  48) = (   6.1597698   3.4535781  18.2989460  )
        49           C1  tau(  49) = (   0.6557129   3.1470513  19.0816575  )
        50           H1  tau(  50) = (   1.2037892   3.9510289  19.5415217  )
        51           H1  tau(  51) = (   1.0557295   2.1499681  19.0337936  )
        52           H1  tau(  52) = (   5.6880836   4.3437965  18.4846543  )
        53           H1  tau(  53) = (   5.5056413   2.7003945  18.1017309  )
        54           O1  tau(  54) = (   3.2744276   0.0793712  18.1757868  )
        55           H1  tau(  55) = (   2.3604784   5.9194474  18.4805682  )

     number of k points=    10  Fermi-Dirac smearing, width (Ry)=  0.0073
                       cart. coord. in units 2pi/alat
        k(    1) = (   0.0000000   0.0000000   0.0000000), wk =   0.1250000
        k(    2) = (   0.0000000   0.0419351   0.0000000), wk =   0.2500000
        k(    3) = (   0.0000000  -0.0838702   0.0000000), wk =   0.1250000
        k(    4) = (   0.0379955   0.0000049   0.0000000), wk =   0.2500000
        k(    5) = (   0.0379955   0.0419400   0.0000000), wk =   0.2500000
        k(    6) = (   0.0379955  -0.0838652   0.0000000), wk =   0.2500000
        k(    7) = (   0.0379955  -0.0419301   0.0000000), wk =   0.2500000
        k(    8) = (  -0.0759910  -0.0000099   0.0000000), wk =   0.1250000
        k(    9) = (  -0.0759910   0.0419252   0.0000000), wk =   0.2500000
        k(   10) = (  -0.0759910  -0.0838800   0.0000000), wk =   0.1250000

     Initial potential from superposition of free atoms

     starting charge  381.99915, renormalised to  398.00000

     negative rho (up, down):  1.645E-02 0.000E+00

     %%%%%%%%%%%%%%%%%%%%%%%%%%%%%%%%%%%%%%%%%%%%%%%%%%%%%%%%%%%%%%%%%%%%%%%%
     %                                                                      %
     % You are using vdW-DF, which was implemented by the Thonhauser group. %
     % Please cite the following two papers that made this development      %
     % possible and the two reviews that describe the various versions:     %
     %                                                                      %
     %   T. Thonhauser et al., PRL 115, 136402 (2015).                      %
     %   T. Thonhauser et al., PRB 76, 125112 (2007).                       %
     %   K. Berland et al., Rep. Prog. Phys. 78, 066501 (2015).             %
     %   D.C. Langreth et al., J. Phys.: Condens. Matter 21, 084203 (2009). %
     %                                                                      %
     %                                                                      %
     % If you are calculating the stress with vdW-DF, please also cite:     %
     %                                                                      %
     %   R. Sabatini et al., J. Phys.: Condens. Matter 24, 424209 (2012).   %
     %                                                                      %
     %%%%%%%%%%%%%%%%%%%%%%%%%%%%%%%%%%%%%%%%%%%%%%%%%%%%%%%%%%%%%%%%%%%%%%%%

     Adding external electric field

     Computed dipole along edir(3) :
        Dipole              -10.2322 Ry au,        -26.0075 Debye
        Dipole field         -0.0193 Ry au,

        Potential amp.        1.7900 Ry
        Total length         46.3494 bohr

     Starting wfcs are  301 atomic wfcs
  @ DRIVER MODE: Message from server: STATUS
  @ DRIVER MODE: Message from server: POSDATA
  @ DRIVER MODE: Reading and sharing cell
  @ DRIVER MODE: Reading and sharing positions
  @ DRIVER MODE: Received positions

     Self-consistent Calculation

     iteration #  1     ecut=    29.40 Ry     beta= 0.05
     Davidson diagonalization with overlap
     c_bands:  1 eigenvalues not converged
     c_bands:  3 eigenvalues not converged
     c_bands:  3 eigenvalues not converged
     c_bands:  1 eigenvalues not converged
     c_bands:  4 eigenvalues not converged
     c_bands:  4 eigenvalues not converged
     c_bands:  4 eigenvalues not converged
     c_bands:  2 eigenvalues not converged
     c_bands:  3 eigenvalues not converged
     c_bands:  4 eigenvalues not converged
     ethr =  1.00E-05,  avg # of iterations = 20.0

[...]

     total energy              =   -2477.35381542 Ry
     estimated scf accuracy    <    5313.87742998 Ry

     iteration #  2     ecut=    29.40 Ry     beta= 0.05
     Davidson diagonalization with overlap
     ethr =  1.00E-02,  avg # of iterations = 23.4

[...]

     iteration # 82     ecut=    29.40 Ry     beta= 0.05
     Davidson diagonalization with overlap
     c_bands:  1 eigenvalues not converged
     ethr =  2.80E-10,  avg # of iterations = 14.5

[...]

     total energy              =   -2953.88659428 Ry
     estimated scf accuracy    <       0.00000008 Ry

     iteration # 86     ecut=    29.40 Ry     beta= 0.05
     Davidson diagonalization with overlap
     ethr =  2.05E-11,  avg # of iterations =  9.3

     negative rho (up, down):  1.574E-02 0.000E+00

     Adding external electric field

     Computed dipole along edir(3) :
        Dipole                0.8552 Ry au,          2.1737 Debye
        Dipole field          0.0016 Ry au,

        Potential amp.       -0.1496 Ry
        Total length         46.3494 bohr

     End of self-consistent calculation

          k = 0.0000 0.0000 0.0000 ( 18029 PWs)   bands (ev):

   -55.7650 -55.7117 -55.6776 -55.5807 -55.5418 -55.5407 -55.5270 -55.5069
   -55.4982 -55.4488 -55.4473 -55.3360 -55.3080 -55.2629 -54.6900 -54.6560
   -32.1975 -32.0837 -32.0658 -32.0604 -32.0442 -32.0314 -32.0022 -31.9811
   -31.9805 -31.9575 -31.9433 -31.8645 -31.8497 -31.8494 -31.8271 -31.8205
   -31.8194 -31.7900 -31.7694 -31.7442 -31.7422 -31.7349 -31.7254 -31.7218
   -31.7205 -31.7135 -31.6848 -31.6761 -31.6677 -31.6665 -31.6605 -31.6541
   -31.6433 -31.6362 -31.6136 -31.6033 -31.5303 -31.5284 -31.5085 -31.4755
   -31.4676 -31.4607 -31.0962 -31.0094 -30.9870 -30.9137 -30.8273 -30.7155
   -16.8586 -16.6116 -16.3768 -16.2114 -15.9887 -15.9370 -15.8758 -15.7033
   -15.5883 -15.5328 -15.3500 -15.2811 -15.2517 -15.2392 -15.2355 -15.2173
   -15.2045 -15.1611 -15.1436 -15.1414 -15.1357 -15.1015 -15.0739 -15.0328
   -14.9868 -14.9502 -14.8535 -14.7985 -14.7589 -14.5148 -14.4838 -13.1885
   -13.0720  -9.7816  -7.0435  -5.3290  -4.1425  -3.7399  -3.6264  -3.6154
    -3.5553  -3.4996  -3.3336  -3.2216  -3.1408  -3.1238  -2.9717  -2.8583
    -2.8125  -2.7469  -2.7106  -2.6719  -2.6355  -2.6242  -2.5923  -2.5004
    -2.4790  -2.4645  -2.4024  -2.3777  -2.3096  -2.2883  -2.2553  -2.2426
    -2.1360  -2.0845  -2.0500  -2.0413  -2.0251  -1.9974  -1.9703  -1.9632
    -1.9358  -1.8521  -1.7984  -1.7431  -1.7165  -1.7008  -1.3976  -1.3248
    -1.2901  -1.2540  -1.1632  -1.1455  -1.1101  -1.0922  -1.0770  -1.0701
    -0.9552  -0.8868  -0.8274  -0.7975  -0.7541  -0.7226  -0.6087  -0.5574
    -0.5061  -0.4659  -0.4528  -0.4279  -0.3419  -0.3145  -0.2986  -0.1975
    -0.1544  -0.0898  -0.0199  -0.0058   0.0427   0.0729   0.1107   0.1483
     0.2066   0.2392   0.2568   0.3006   0.3396   0.3505   0.4086   0.4250
     0.5207   0.6048   0.6237   0.6929   0.7826   0.8282   0.9490   1.0112
     1.2827   1.3367   1.3496   1.5282   1.9041   1.9496   3.3656   3.4029
     3.5190   3.5321   3.6071   3.6187   3.7033   3.8591   3.9072   4.0182
     4.0553

[...]

          k = 0.0380-0.0419 0.0000 ( 17876 PWs)   bands (ev):

[...]

          k =-0.0760-0.0000 0.0000 ( 17886 PWs)   bands (ev):

[...]

          k =-0.0760-0.0839 0.0000 ( 17948 PWs)   bands (ev):

   -55.7642 -55.6948 -55.6944 -55.5700 -55.5522 -55.5276 -55.5243 -55.5231
   -55.4919 -55.4536 -55.4463 -55.3322 -55.3104 -55.2666 -54.6734 -54.6725
   -32.0289 -32.0129 -32.0129 -32.0126 -31.9879 -31.9874 -31.9846 -31.9731
   -31.9139 -31.8878 -31.8702 -31.8571 -31.8523 -31.8321 -31.8181 -31.8149
   -31.8143 -31.8114 -31.8075 -31.8025 -31.7774 -31.7512 -31.7424 -31.7354
   -31.7284 -31.7256 -31.7118 -31.7091 -31.7078 -31.6994 -31.6986 -31.6799
   -31.6766 -31.6722 -31.6429 -31.6116 -31.5928 -31.5572 -31.5343 -31.5306
   -31.5162 -31.4712 -31.0001 -30.9993 -30.9097 -30.9084 -30.8709 -30.8701
   -16.8395 -16.6015 -16.0506 -15.8007 -15.7079 -15.6975 -15.5655 -15.4986
   -15.4872 -15.4455 -15.4266 -15.4050 -15.3985 -15.3737 -15.3337 -15.2789
   -15.2494 -15.2226 -15.2164 -15.1767 -15.1694 -15.1508 -15.1482 -15.1266
   -15.0769 -15.0357 -15.0222 -15.0081 -14.8224 -14.7723 -14.6384 -13.1741
   -13.1736  -9.7822  -7.0353  -5.3135  -4.1267  -3.3617  -3.1743  -3.0109
    -2.9394  -2.8808  -2.7907  -2.7479  -2.7322  -2.6883  -2.6650  -2.6424
    -2.5622  -2.5483  -2.5186  -2.5069  -2.4778  -2.4631  -2.4564  -2.4468
    -2.4025  -2.3938  -2.3845  -2.3520  -2.3441  -2.3339  -2.2946  -2.2731
    -2.2635  -2.2527  -2.2048  -2.1804  -2.1027  -2.0634  -1.9657  -1.8824
    -1.8716  -1.8483  -1.8009  -1.7890  -1.7468  -1.7310  -1.6878  -1.6135
    -1.5294  -1.4619  -1.3495  -1.3068  -1.2955  -1.2366  -1.2184  -1.1622
    -1.1293  -1.0993  -1.0692  -0.9687  -0.9356  -0.8791  -0.7625  -0.6983
    -0.6858  -0.6629  -0.6525  -0.6168  -0.5965  -0.5812  -0.5504  -0.4686
    -0.4306  -0.4159  -0.4061  -0.3699  -0.2443  -0.1228  -0.0785  -0.0187
     0.0479   0.0638   0.1171   0.1569   0.3121   0.3459   0.4437   0.4586
     0.4795   0.5930   0.6002   0.6801   0.7211   0.7675   0.7961   0.8283
     0.8332   0.8731   1.6979   1.7064   1.7700   1.7701   3.3752   3.7458
     3.8488   3.8656   3.8833   3.9241   3.9381   3.9672   3.9726   4.0369
     4.0524

     the Fermi energy is     3.4077 ev

!    total energy              =   -2953.88660135 Ry
     estimated scf accuracy    <       0.00000005 Ry
     smearing contrib. (-TS)   =      -0.02910481 Ry
     internal energy E=F+TS    =   -2953.85749654 Ry

     The total energy is F=E-TS. E is the sum of the following terms:
     one-electron contribution =  -23669.73087470 Ry
     hartree contribution      =   11925.83305448 Ry
     xc contribution           =    -488.84560001 Ry
     ewald contribution        =    9278.88454356 Ry
     electric field correction =       0.00138013 Ry

     convergence has been achieved in  86 iterations

     Forces acting on atoms (cartesian axes, Ry/au):

     atom    1 type  1   force =    -0.00001379   -0.00029033    0.09375917
     atom    2 type  1   force =    -0.00010102    0.00049172   -0.17554823
     atom    3 type  2   force =     0.00011052   -0.00024320   -0.02088716
     atom    4 type  2   force =     0.00001189   -0.00197741    0.05496826
     atom    5 type  2   force =    -0.00643777   -0.00243758    0.00276569
     atom    6 type  2   force =     0.00859567   -0.00176812    0.00360432
     atom    7 type  1   force =     0.00058565   -0.00336416    0.00969016
     atom    8 type  1   force =    -0.00066818    0.00048095    0.00110247
     atom    9 type  2   force =    -0.00001407    0.00059734   -0.00097088
     atom   10 type  2   force =    -0.00025151    0.00115434   -0.00781641
     atom   11 type  2   force =    -0.00011395   -0.00001640    0.00016748
     atom   12 type  2   force =    -0.00042572   -0.00018035    0.00003003
     atom   13 type  1   force =    -0.00027850    0.00001490   -0.00045517
     atom   14 type  1   force =    -0.00062189    0.00041170    0.00041169
     atom   15 type  2   force =    -0.00005210    0.00106385   -0.00001591
     atom   16 type  2   force =    -0.00007421    0.00005755   -0.00018526
     atom   17 type  2   force =    -0.00036240    0.00054160   -0.00031727
     atom   18 type  2   force =     0.00012418    0.00066937   -0.00021325
     atom   19 type  1   force =     0.00003493   -0.00014387    0.00061592
     atom   20 type  1   force =    -0.00010402   -0.00034861   -0.00003591
     atom   21 type  2   force =     0.00001484    0.00008713    0.10333484
     atom   22 type  2   force =    -0.00014389    0.00021389    0.00012059
     atom   23 type  2   force =    -0.07188111   -0.00017629   -0.02713974
     atom   24 type  2   force =     0.07174348    0.00029426   -0.02721880
     atom   25 type  1   force =     0.00009087   -0.00020287    0.09355874
     atom   26 type  1   force =    -0.00025261   -0.00138366   -0.17567298
     atom   27 type  2   force =     0.00015017   -0.00016173   -0.01963856
     atom   28 type  2   force =     0.00011029   -0.00028383    0.05021066
     atom   29 type  2   force =    -0.00550425    0.00259690    0.00165937
     atom   30 type  2   force =     0.00764952    0.00269127    0.00255235
     atom   31 type  1   force =     0.00070541    0.00797733   -0.00206297
     atom   32 type  1   force =    -0.00070957   -0.00207045    0.00020458
     atom   33 type  2   force =    -0.00017004   -0.00073701   -0.00011921
     atom   34 type  2   force =     0.00011462   -0.00173288   -0.00873826
     atom   35 type  2   force =    -0.00003972   -0.00011929   -0.00058656
     atom   36 type  2   force =    -0.00019832   -0.00019257   -0.00039451
     atom   37 type  1   force =     0.00044721    0.00066799   -0.00074199
     atom   38 type  1   force =    -0.00062036   -0.00052248    0.00020314
     atom   39 type  2   force =    -0.00003006    0.00010193    0.00023076
     atom   40 type  2   force =     0.00011578    0.00002297    0.00064959
     atom   41 type  2   force =    -0.00057826   -0.00018359    0.00003606
     atom   42 type  2   force =     0.00061106    0.00011803   -0.00069333
     atom   43 type  1   force =    -0.00029055    0.00043826   -0.00036859
     atom   44 type  1   force =     0.00000984   -0.00129762    0.00004610
     atom   45 type  2   force =     0.00001539   -0.00005345    0.10312418
     atom   46 type  2   force =    -0.07189403   -0.00001629   -0.02715401
     atom   47 type  2   force =     0.07179456    0.00040548   -0.02724190
     atom   48 type  3   force =    -0.00432260    0.01172863    0.00228147
     atom   49 type  4   force =     0.00063237    0.00036296    0.00049772
     atom   50 type  5   force =    -0.00036720    0.00013079    0.00013273
     atom   51 type  5   force =    -0.00005964   -0.00067945    0.00073945
     atom   52 type  5   force =     0.00548572   -0.01175330   -0.00312121
     atom   53 type  5   force =    -0.00115776   -0.00059909    0.00016917
     atom   54 type  2   force =    -0.00125515   -0.00059764   -0.00042992
     atom   55 type  5   force =    -0.00015974    0.00021238    0.00090131

     Total force =     0.362544     Total SCF correction =     0.000869
  @ DRIVER MODE: Message from server: STATUS
  @ DRIVER MODE: Message from server: GETFORCE
  @ DRIVER MODE: Returning v,forces,stress,ensemble

     Writing output data file ./calc.save/
  @ DRIVER MODE: Message from server: EXIT
  @ DRIVE MODE: Exiting

     General routines

     Parallel routines

   This run was terminated on:   2:29:58  23Sep2021

   JOB DONE.