     Program PWSCF v.6.7GPU starts on 22Sep2021 at 19:56: 1

     R & G space division:  proc/nbgrp/npool/nimage =      10
     Reading input from /storage/home/hcoda1/3/ntian30/research/carbon/CxH_vib/H2O_calc/ads_slab/CH2N2HHO_a/out_0010/pw.inp
Warning: card &CELL ignored
Warning: card   CELL_DYNAMICS='IPI', ignored
Warning: card / ignored

     Current dimensions of program PWSCF are:
     Max number of different atomic species (ntypx) = 10
     Max number of k-points (npk) =  40000
     Max angular momentum in pseudopotentials (lmaxx) =  3
     Presently no symmetry can be used with electric field

     Message from routine cell_base_init:
     DEPRECATED: use true lattice parameter, not A to a.u. conversion factor

     IMPORTANT: XC functional enforced from input :
     Exchange-correlation= BEEF-VDW
                           (   1   4  43  14   2   0   0)
     Any further DFT definition will be discarded
     Please, verify this is what you really want

  @ DRIVER MODE: Connecting to
 qe_1139763_2937323.sched-torque.pace.gatech.edua9kjay72_scratch
  using UNIX socket
  @ DRIVER MODE: Message from server: STATUS
  @ DRIVER MODE: Message from server: INIT
  @ DRIVER MODE: Receiving replica           0          -1
  @ DRIVER MODE: Receiving encoded integer          25
  @ DRIVER MODE:  SCF:  T  FORCE:  T  STRESS:  F  VC:  F  ENSEMBLE:  F
  @ DRIVER MODE:  SCF:  T  FORCE:  T  STRESS:  F  VC:  F  ENSEMBLE:  F

     Using Slab Decomposition

     bravais-lattice index     =            0
     lattice parameter (alat)  =       1.8897  a.u.
     unit-cell volume          =    6658.9804 (a.u.)^3
     number of atoms/cell      =           55
     number of atomic types    =            5
     number of electrons       =       402.00
     number of Kohn-Sham states=          211
     kinetic-energy cutoff     =      29.3995  Ry
     charge density cutoff     =     293.9946  Ry
     scf convergence threshold =      7.3E-08
     mixing beta               =       0.0500
     number of iterations used =            8  plain     mixing
     Exchange-correlation= BEEF-VDW
                           (   1   4  43  14   2   0   0)

     celldm(1)=   1.889726  celldm(2)=   0.000000  celldm(3)=   0.000000
     celldm(4)=   0.000000  celldm(5)=   0.000000  celldm(6)=   0.000000

     crystal axes: (cart. coord. in units of alat)
               a(1) = (   6.579727   0.000000   0.000000 )
               a(2) = (  -0.000775   5.961596   0.000000 )
               a(3) = (   0.000000   0.000000  25.155947 )

     reciprocal axes: (cart. coord. in units 2 pi/alat)
               b(1) = (  0.151982  0.000020  0.000000 )
               b(2) = (  0.000000  0.167740  0.000000 )
               b(3) = (  0.000000  0.000000  0.039752 )

     PseudoPot. # 1 for Ti read from file:
     /storage/coda1/p-amedford6/0/shared/rich_project_chbe-medford/medford-share/data/pseudos_module/espresso/nninc/pbe/van/Ti.UPF
     MD5 check sum: 8e4df49b7f0d34bbd5052bf3f5ea0213
     Pseudo is Ultrasoft, Zval = 12.0
     Generated by new atomic code, or converted to UPF format
     Using radial grid of  851 points,  6 beta functions with:
                l(1) =   0
                l(2) =   0
                l(3) =   1
                l(4) =   1
                l(5) =   2
                l(6) =   2
     Q(r) pseudized with  8 coefficients,  rinner =    1.000   1.000   1.000
                                                       1.000   1.000

     PseudoPot. # 2 for O  read from file:
     /storage/coda1/p-amedford6/0/shared/rich_project_chbe-medford/medford-share/data/pseudos_module/espresso/nninc/pbe/van/O.UPF
     MD5 check sum: 78c19812648e8988a0fe644b0f25305e
     Pseudo is Ultrasoft, Zval =  6.0
     Generated by new atomic code, or converted to UPF format
     Using radial grid of  737 points,  4 beta functions with:
                l(1) =   0
                l(2) =   0
                l(3) =   1
                l(4) =   1
     Q(r) pseudized with  8 coefficients,  rinner =    0.800   0.800   0.800

     PseudoPot. # 3 for N  read from file:
     /storage/coda1/p-amedford6/0/shared/rich_project_chbe-medford/medford-share/data/pseudos_module/espresso/nninc/pbe/van/N.UPF
     MD5 check sum: 90d10febe142ad51ac9d5be1deb811c4
     Pseudo is Ultrasoft, Zval =  5.0
     Generated by new atomic code, or converted to UPF format
     Using radial grid of  729 points,  4 beta functions with:
                l(1) =   0
                l(2) =   0
                l(3) =   1
                l(4) =   1
     Q(r) pseudized with  8 coefficients,  rinner =    0.800   0.800   0.800

     PseudoPot. # 4 for C  read from file:
     /storage/coda1/p-amedford6/0/shared/rich_project_chbe-medford/medford-share/data/pseudos_module/espresso/nninc/pbe/van/C.UPF
     MD5 check sum: 1a69bf6b8db32088f5b2163dbdb77a27
     Pseudo is Ultrasoft, Zval =  4.0
     Generated by new atomic code, or converted to UPF format
     Using radial grid of  721 points,  4 beta functions with:
                l(1) =   0
                l(2) =   0
                l(3) =   1
                l(4) =   1
     Q(r) pseudized with  8 coefficients,  rinner =    0.800   0.800   0.800

     PseudoPot. # 5 for H  read from file:
     /storage/coda1/p-amedford6/0/shared/rich_project_chbe-medford/medford-share/data/pseudos_module/espresso/nninc/pbe/van/H.UPF
     MD5 check sum: b5ee9d7bfd3a09ee7748110bda690ff7
     Pseudo is Ultrasoft, Zval =  1.0
     Generated by new atomic code, or converted to UPF format
     Using radial grid of  615 points,  1 beta functions with:
                l(1) =   0
     Q(r) pseudized with  8 coefficients,  rinner =    0.800

     atomic species   valence    mass     pseudopotential
        Ti1           12.00    47.86700     Ti( 1.00)
        O1             6.00    15.99900     O ( 1.00)
        N1             5.00    14.00700     N ( 1.00)
        C1             4.00    12.01100     C ( 1.00)
        H1             1.00     1.00800     H ( 1.00)

     No symmetry found

   Cartesian axes

     site n.     atom                  positions (alat units)
         1           Ti1 tau(   1) = (   0.0004258   2.9801865   6.0000000  )
         2           Ti1 tau(   2) = (   3.2906075   1.4906267   6.0002472  )
         3           O1  tau(   3) = (   0.0006271   0.0005054   7.9858123  )
         4           O1  tau(   4) = (   3.2906025   0.0005020   7.3038282  )
         5           O1  tau(   5) = (   4.5942328   1.4918067   9.2879030  )
         6           O1  tau(   6) = (   1.9868534   1.4903216   9.2879459  )
         7           Ti1 tau(   7) = (   3.2907910   2.8959150   9.1758416  )
         8           Ti1 tau(   8) = (   0.0015273   1.4827037   9.2680791  )
         9           O1  tau(   9) = (   3.3002520   5.9418316  11.2747492  )
        10           O1  tau(  10) = (   0.0116148   5.9584955  10.6183126  )
        11           O1  tau(  11) = (   1.2897458   1.4862980  12.6211975  )
        12           O1  tau(  12) = (   5.3051886   1.5023792  12.6347999  )
        13           Ti1 tau(  13) = (   0.0146078   2.8478158  12.7200684  )
        14           Ti1 tau(  14) = (   3.3063360   1.3081926  12.6482236  )
        15           O1  tau(  15) = (   0.0235978   5.9609164  14.6274833  )
        16           O1  tau(  16) = (   3.2983906   0.0399142  13.8749830  )
        17           O1  tau(  17) = (   4.5813539   1.5856785  16.0626423  )
        18           O1  tau(  18) = (   2.0324892   1.5097802  16.0098020  )
        19           Ti1 tau(  19) = (   3.2774956   2.9544257  15.6266065  )
        20           Ti1 tau(  20) = (   6.5530467   1.3151789  15.9772938  )
        21           O1  tau(  21) = (   3.2904802   0.0005063   4.7018136  )
        22           O1  tau(  22) = (   6.5059356   5.9265713  17.1294848  )
        23           O1  tau(  23) = (   1.3043587   1.4918075   6.0039043  )
        24           O1  tau(  24) = (   5.2767064   1.4903225   6.0039473  )
        25           Ti1 tau(  25) = (   0.0000382   5.9609847   6.0000000  )
        26           Ti1 tau(  26) = (   3.2902200   4.4714249   6.0002472  )
        27           O1  tau(  27) = (   0.0002396   2.9813036   7.9858123  )
        28           O1  tau(  28) = (   3.2902150   2.9813002   7.3038282  )
        29           O1  tau(  29) = (   4.5938453   4.4726049   9.2879030  )
        30           O1  tau(  30) = (   1.9864658   4.4711199   9.2879459  )
        31           Ti1 tau(  31) = (   3.2891106   5.8743827   9.1763621  )
        32           Ti1 tau(  32) = (   0.0006254   4.4649316   9.2693709  )
        33           O1  tau(  33) = (   3.2992753   3.0242338  11.2405823  )
        34           O1  tau(  34) = (   0.0092240   2.9805883  10.6323155  )
        35           O1  tau(  35) = (   1.2972400   4.4705050  12.6241655  )
        36           O1  tau(  36) = (   5.3008088   4.4694758  12.6340222  )
        37           Ti1 tau(  37) = (   0.0289225   5.8314391  12.5906285  )
        38           Ti1 tau(  38) = (   3.3189507   4.3956991  12.4097224  )
        39           O1  tau(  39) = (   0.0312427   2.9750824  14.7260556  )
        40           O1  tau(  40) = (   3.2762925   2.9668711  13.8358254  )
        41           O1  tau(  41) = (   4.5358187   4.4455929  15.9064879  )
        42           O1  tau(  42) = (   2.0572077   4.4429961  16.0439637  )
        43           Ti1 tau(  43) = (   3.2186928   5.9141907  16.2420754  )
        44           Ti1 tau(  44) = (   6.4642982   4.4840528  15.9061301  )
        45           O1  tau(  45) = (   3.2900926   2.9813045   4.7018136  )
        46           O1  tau(  46) = (   1.3039711   4.4726057   6.0039043  )
        47           O1  tau(  47) = (   5.2763189   4.4711207   6.0039473  )
        48           N1  tau(  48) = (   0.2499663   2.3419386  17.9913213  )
        49           C1  tau(  49) = (   0.6208863   1.8800663  19.1394302  )
        50           H1  tau(  50) = (   0.7431952   2.5333404  19.9929579  )
        51           H1  tau(  51) = (   0.8399735   0.8189210  19.2161768  )
        52           N1  tau(  52) = (   6.5658643   3.6116587  17.7752569  )
        53           H1  tau(  53) = (   0.1300021   4.2235620  18.5825096  )
        54           O1  tau(  54) = (   3.3713844   5.9089882  18.0735649  )
        55           H1  tau(  55) = (   4.1655974   0.3538959  18.4550359  )

     number of k points=    10  Fermi-Dirac smearing, width (Ry)=  0.0073
                       cart. coord. in units 2pi/alat
        k(    1) = (   0.0000000   0.0000000   0.0000000), wk =   0.1250000
        k(    2) = (   0.0000000   0.0419351   0.0000000), wk =   0.2500000
        k(    3) = (   0.0000000  -0.0838702   0.0000000), wk =   0.1250000
        k(    4) = (   0.0379955   0.0000049   0.0000000), wk =   0.2500000
        k(    5) = (   0.0379955   0.0419400   0.0000000), wk =   0.2500000
        k(    6) = (   0.0379955  -0.0838652   0.0000000), wk =   0.2500000
        k(    7) = (   0.0379955  -0.0419301   0.0000000), wk =   0.2500000
        k(    8) = (  -0.0759910  -0.0000099   0.0000000), wk =   0.1250000
        k(    9) = (  -0.0759910   0.0419252   0.0000000), wk =   0.2500000
        k(   10) = (  -0.0759910  -0.0838800   0.0000000), wk =   0.1250000

     Initial potential from superposition of free atoms

     starting charge  385.99915, renormalised to  402.00000

     negative rho (up, down):  1.591E-02 0.000E+00

     %%%%%%%%%%%%%%%%%%%%%%%%%%%%%%%%%%%%%%%%%%%%%%%%%%%%%%%%%%%%%%%%%%%%%%%%
     %                                                                      %
     % You are using vdW-DF, which was implemented by the Thonhauser group. %
     % Please cite the following two papers that made this development      %
     % possible and the two reviews that describe the various versions:     %
     %                                                                      %
     %   T. Thonhauser et al., PRL 115, 136402 (2015).                      %
     %   T. Thonhauser et al., PRB 76, 125112 (2007).                       %
     %   K. Berland et al., Rep. Prog. Phys. 78, 066501 (2015).             %
     %   D.C. Langreth et al., J. Phys.: Condens. Matter 21, 084203 (2009). %
     %                                                                      %
     %                                                                      %
     % If you are calculating the stress with vdW-DF, please also cite:     %
     %                                                                      %
     %   R. Sabatini et al., J. Phys.: Condens. Matter 24, 424209 (2012).   %
     %                                                                      %
     %%%%%%%%%%%%%%%%%%%%%%%%%%%%%%%%%%%%%%%%%%%%%%%%%%%%%%%%%%%%%%%%%%%%%%%%

     Adding external electric field

     Computed dipole along edir(3) :
        Dipole              -11.3527 Ry au,        -28.8557 Debye
        Dipole field         -0.0214 Ry au,

        Potential amp.        1.9860 Ry
        Total length         46.3494 bohr

     Starting wfcs are  304 atomic wfcs
  @ DRIVER MODE: Message from server: STATUS
  @ DRIVER MODE: Message from server: POSDATA
  @ DRIVER MODE: Reading and sharing cell
  @ DRIVER MODE: Reading and sharing positions
  @ DRIVER MODE: Received positions

     Self-consistent Calculation

     iteration #  1     ecut=    29.40 Ry     beta= 0.05
     Davidson diagonalization with overlap
     c_bands:  4 eigenvalues not converged
     c_bands:  3 eigenvalues not converged
     c_bands:  3 eigenvalues not converged
     c_bands:  5 eigenvalues not converged
     c_bands:  5 eigenvalues not converged
     c_bands:  1 eigenvalues not converged
     c_bands:  5 eigenvalues not converged
     c_bands:  4 eigenvalues not converged
     c_bands:  5 eigenvalues not converged
     c_bands:  1 eigenvalues not converged
     ethr =  1.00E-05,  avg # of iterations = 24.0

[...]

     total energy              =   -2410.16462205 Ry
     estimated scf accuracy    <    6308.32697045 Ry

     iteration #  2     ecut=    29.40 Ry     beta= 0.05
     Davidson diagonalization with overlap
     ethr =  1.00E-02,  avg # of iterations = 22.8

[...]

     iteration # 53     ecut=    29.40 Ry     beta= 0.05
     Davidson diagonalization with overlap
     c_bands:  1 eigenvalues not converged
     c_bands:  1 eigenvalues not converged
     c_bands:  1 eigenvalues not converged
     c_bands:  1 eigenvalues not converged
     ethr =  1.43E-06,  avg # of iterations = 12.8

[...]

     total energy              =   -2972.72730572 Ry
     estimated scf accuracy    <       0.00000018 Ry

     iteration # 77     ecut=    29.40 Ry     beta= 0.05
     Davidson diagonalization with overlap
     ethr =  4.44E-11,  avg # of iterations =  5.3

     negative rho (up, down):  1.622E-02 0.000E+00

     Adding external electric field

     Computed dipole along edir(3) :
        Dipole                0.4647 Ry au,          1.1813 Debye
        Dipole field          0.0009 Ry au,

        Potential amp.       -0.0813 Ry
        Total length         46.3494 bohr

     End of self-consistent calculation

          k = 0.0000 0.0000 0.0000 ( 18029 PWs)   bands (ev):

   -56.5367 -56.5031 -55.8845 -55.8490 -55.6218 -55.5622 -55.3783 -55.3241
   -55.2996 -55.2284 -55.1982 -55.1876 -55.1537 -55.0308 -55.0308 -54.9829
   -32.9689 -32.8215 -32.7935 -32.7041 -32.6129 -32.5946 -32.3675 -32.1040
   -32.1023 -32.0749 -32.0277 -32.0240 -31.9909 -31.8677 -31.8505 -31.8426
   -31.7897 -31.7659 -31.7251 -31.7075 -31.6901 -31.6456 -31.6431 -31.5854
   -31.5834 -31.5791 -31.5764 -31.5326 -31.5285 -31.5247 -31.5043 -31.5042
   -31.4825 -31.4779 -31.4220 -31.4037 -31.3974 -31.3526 -31.3147 -31.2925
   -31.2872 -31.2775 -31.2412 -31.2400 -31.2165 -31.2029 -31.1735 -31.1536
   -17.8393 -16.7220 -16.2879 -16.1696 -15.9795 -15.9064 -15.8816 -15.8503
   -15.7845 -15.6126 -15.5326 -15.5075 -15.4978 -15.4385 -15.2710 -15.1744
   -15.1571 -15.0907 -15.0130 -14.9888 -14.9497 -14.8963 -14.8691 -14.8546
   -14.8389 -14.8037 -14.6810 -14.6007 -14.5024 -14.3218 -14.3047 -13.6853
   -13.5758 -11.9755  -7.7249  -5.1719  -4.3464  -4.2725  -3.7947  -3.7732
    -3.6042  -3.4246  -3.3686  -3.2232  -3.1649  -3.1155  -3.0593  -3.0448
    -2.9411  -2.7993  -2.7960  -2.7389  -2.7159  -2.7126  -2.6949  -2.5939
    -2.5265  -2.5174  -2.4222  -2.3316  -2.3097  -2.2705  -2.2307  -2.2231
    -2.1794  -2.1401  -2.0856  -2.0490  -2.0324  -1.9353  -1.9159  -1.8091
    -1.7833  -1.7537  -1.7477  -1.7164  -1.6773  -1.6196  -1.5414  -1.4249
    -1.3406  -1.3206  -1.2484  -1.2393  -1.2177  -1.0558  -1.0150  -1.0127
    -0.9522  -0.8765  -0.8471  -0.7914  -0.7539  -0.7099  -0.6576  -0.6168
    -0.5801  -0.4512  -0.4473  -0.3963  -0.3140  -0.2912  -0.2596  -0.2367
    -0.1557  -0.1004  -0.0643   0.0075   0.0674   0.0733   0.1181   0.1764
     0.2849   0.3278   0.3525   0.3833   0.4261   0.4495   0.5181   0.5659
     0.5968   0.6058   0.6817   0.7837   0.8010   0.8354   0.9248   0.9493
     1.0353   1.0725   1.0895   1.1667   1.1939   1.3735   1.4119   1.5819
     2.3858   2.7280   2.8780   3.1605   3.1756   3.4679   3.6903   3.7181
     3.7208   3.8009   3.9386

[...]

          k = 0.0380-0.0419 0.0000 ( 17876 PWs)   bands (ev):

[...]

          k =-0.0760-0.0000 0.0000 ( 17886 PWs)   bands (ev):

[...]

          k =-0.0760-0.0839 0.0000 ( 17948 PWs)   bands (ev):

   -56.5202 -56.5195 -55.8725 -55.8608 -55.6164 -55.5675 -55.3721 -55.3301
   -55.2976 -55.2270 -55.2000 -55.1712 -55.1700 -55.0321 -55.0237 -54.9899
   -32.8074 -32.8067 -32.7861 -32.7851 -32.6571 -32.6568 -32.1936 -32.1841
   -32.0662 -32.0533 -32.0530 -32.0451 -31.9246 -31.8858 -31.8443 -31.8376
   -31.7945 -31.7884 -31.7014 -31.6689 -31.6267 -31.6090 -31.5908 -31.5857
   -31.5728 -31.5627 -31.5483 -31.5369 -31.5213 -31.5178 -31.5169 -31.5079
   -31.4713 -31.4672 -31.4283 -31.4085 -31.3953 -31.3938 -31.3853 -31.3569
   -31.3557 -31.2971 -31.2800 -31.2577 -31.2444 -31.2415 -31.2190 -31.1752
   -17.8258 -16.1501 -16.1054 -16.1011 -16.0179 -16.0155 -15.8117 -15.8046
   -15.6239 -15.6003 -15.5263 -15.4578 -15.3487 -15.3154 -15.2914 -15.2402
   -15.1950 -15.1670 -15.1104 -15.0785 -14.9962 -14.9648 -14.9488 -14.9375
   -14.9048 -14.8521 -14.7196 -14.6851 -14.6674 -14.5859 -14.4524 -13.6798
   -13.6791 -11.9332  -7.6561  -5.2303  -4.4212  -3.7477  -3.2175  -3.1892
    -3.1405  -3.1314  -2.9332  -2.8928  -2.8719  -2.8204  -2.7876  -2.7745
    -2.7237  -2.7178  -2.6359  -2.5836  -2.5519  -2.5393  -2.5152  -2.4555
    -2.4339  -2.4040  -2.3920  -2.3603  -2.3493  -2.3396  -2.3162  -2.2491
    -2.1969  -2.1469  -2.1103  -2.0729  -2.0159  -2.0106  -1.9765  -1.9679
    -1.8893  -1.7898  -1.7584  -1.6843  -1.6023  -1.5688  -1.5408  -1.5218
    -1.4801  -1.4229  -1.3953  -1.3470  -1.3211  -1.2679  -1.2322  -1.2221
    -1.1564  -1.1180  -1.0512  -1.0295  -0.9491  -0.8381  -0.7824  -0.7578
    -0.7305  -0.7179  -0.6491  -0.5855  -0.5376  -0.5183  -0.4464  -0.4383
    -0.4116  -0.3617  -0.3470  -0.3146  -0.1997  -0.1348  -0.0762   0.0080
     0.0478   0.0844   0.1645   0.2174   0.2423   0.3181   0.3980   0.4780
     0.4952   0.5329   0.5404   0.7059   0.7381   0.8435   0.8789   0.9542
     0.9885   1.0287   1.1487   1.1896   1.2236   1.2248   1.2455   1.2633
     2.3312   3.2977   3.3004   3.3502   3.3583   3.6260   3.6344   3.7722
     3.7742   3.8929   3.9322

     the Fermi energy is     2.6072 ev

!    total energy              =   -2972.72732255 Ry
     estimated scf accuracy    <       0.00000005 Ry
     smearing contrib. (-TS)   =      -0.00744705 Ry
     internal energy E=F+TS    =   -2972.71987550 Ry

     The total energy is F=E-TS. E is the sum of the following terms:
     one-electron contribution =  -24031.77868985 Ry
     hartree contribution      =   12109.54606215 Ry
     xc contribution           =    -493.28640519 Ry
     ewald contribution        =    9442.79874980 Ry
     electric field correction =       0.00040759 Ry

     convergence has been achieved in  77 iterations

     Forces acting on atoms (cartesian axes, Ry/au):

     atom    1 type  1   force =    -0.00000561   -0.00043154    0.11615997
     atom    2 type  1   force =    -0.00006939    0.00014513   -0.15937992
     atom    3 type  2   force =     0.00002670    0.00000819   -0.05252567
     atom    4 type  2   force =     0.00005343   -0.00013789    0.02469425
     atom    5 type  2   force =    -0.00348626   -0.00224455   -0.01040390
     atom    6 type  2   force =     0.00528385   -0.00174665   -0.01060190
     atom    7 type  1   force =     0.00000031   -0.00613326    0.04627583
     atom    8 type  1   force =     0.00041583    0.01612725    0.08038404
     atom    9 type  2   force =    -0.00000915   -0.00061127    0.00014587
     atom   10 type  2   force =    -0.00257388    0.00058469   -0.04972739
     atom   11 type  2   force =    -0.00055073   -0.00012526   -0.00014921
     atom   12 type  2   force =     0.00059014   -0.00027176    0.00000578
     atom   13 type  1   force =    -0.00017928    0.00043090   -0.00001937
     atom   14 type  1   force =     0.00017733    0.00007668   -0.00109315
     atom   15 type  2   force =    -0.00023311   -0.00016816   -0.00047238
     atom   16 type  2   force =     0.00012832   -0.00063830    0.00072782
     atom   17 type  2   force =     0.00008962    0.00054437    0.00010688
     atom   18 type  2   force =     0.00001733    0.00059826   -0.00024388
     atom   19 type  1   force =    -0.00054613   -0.00020433   -0.00051916
     atom   20 type  1   force =     0.00058600   -0.00007585   -0.00036303
     atom   21 type  2   force =     0.00004882    0.00021559    0.09892018
     atom   22 type  2   force =     0.00000550   -0.00022540   -0.00027378
     atom   23 type  2   force =    -0.07985645    0.00004238   -0.03165025
     atom   24 type  2   force =     0.07975314    0.00047743   -0.03170723
     atom   25 type  1   force =     0.00007066   -0.00057739    0.11645643
     atom   26 type  1   force =    -0.00011765   -0.00143178   -0.15990518
     atom   27 type  2   force =     0.00007174   -0.00069910   -0.05053929
     atom   28 type  2   force =     0.00005432    0.00166775    0.02023048
     atom   29 type  2   force =    -0.00168743    0.00505319   -0.01369414
     atom   30 type  2   force =     0.00360269    0.00547568   -0.01382593
     atom   31 type  1   force =    -0.00016871    0.00218885    0.03176392
     atom   32 type  1   force =     0.00031910   -0.01973416    0.08003254
     atom   33 type  2   force =     0.00014266   -0.00037185    0.00015763
     atom   34 type  2   force =    -0.00158592    0.00085472   -0.06327314
     atom   35 type  2   force =     0.00040042    0.00002744   -0.00016605
     atom   36 type  2   force =     0.00016194   -0.00005388   -0.00023918
     atom   37 type  1   force =    -0.00013900   -0.00023379   -0.00060819
     atom   38 type  1   force =     0.00013930    0.00045533    0.00008037
     atom   39 type  2   force =    -0.00028129    0.00053634    0.00013843
     atom   40 type  2   force =     0.00023864    0.00010273    0.00064504
     atom   41 type  2   force =     0.00116469    0.00003981   -0.00014871
     atom   42 type  2   force =    -0.00118225   -0.00049983    0.00003351
     atom   43 type  1   force =    -0.00051250    0.00036768   -0.00037542
     atom   44 type  1   force =    -0.00003571    0.00012998    0.00059757
     atom   45 type  2   force =     0.00005421    0.00003184    0.09872790
     atom   46 type  2   force =    -0.07990654    0.00000583   -0.03165057
     atom   47 type  2   force =     0.07980149    0.00043651   -0.03172251
     atom   48 type  3   force =    -0.00141561    0.00558812   -0.00295465
     atom   49 type  4   force =     0.00383082   -0.02544073    0.00053536
     atom   50 type  5   force =     0.00028240    0.00583476    0.00447755
     atom   51 type  5   force =    -0.00209646    0.01241147   -0.00040723
     atom   52 type  3   force =    -0.00133995    0.00159687   -0.00216378
     atom   53 type  5   force =    -0.00029698    0.00017063   -0.00031309
     atom   54 type  2   force =    -0.00032495   -0.00019463   -0.00079345
     atom   55 type  5   force =     0.00108950    0.00002495    0.00061338

     Total force =     0.397818     Total SCF correction =     0.001036
  @ DRIVER MODE: Message from server: STATUS
  @ DRIVER MODE: Message from server: GETFORCE
  @ DRIVER MODE: Returning v,forces,stress,ensemble

     Writing output data file ./calc.save/
  @ DRIVER MODE: Message from server: EXIT
  @ DRIVE MODE: Exiting

     General routines

     Parallel routines

   This run was terminated on:  20:17:12  22Sep2021

   JOB DONE.