     Program PWSCF v.6.7GPU starts on 28Sep2021 at 19:16:36

     R & G space division:  proc/nbgrp/npool/nimage =       8
     Reading input from /storage/home/hcoda1/3/ntian30/research/carbon/CxH_vib/H2O_calc/ads_slab/CH3OHN2H2O_a/out_0051/pw.inp
Warning: card &CELL ignored
Warning: card   CELL_DYNAMICS='IPI', ignored
Warning: card / ignored

     Current dimensions of program PWSCF are:
     Max number of different atomic species (ntypx) = 10
     Max number of k-points (npk) =  40000
     Max angular momentum in pseudopotentials (lmaxx) =  3
     Presently no symmetry can be used with electric field

     Message from routine cell_base_init:
     DEPRECATED: use true lattice parameter, not A to a.u. conversion factor

     IMPORTANT: XC functional enforced from input :
     Exchange-correlation= BEEF-VDW
                           (   1   4  43  14   2   0   0)
     Any further DFT definition will be discarded
     Please, verify this is what you really want

  @ DRIVER MODE: Connecting to
 qe_1139763_3000313.sched-torque.pace.gatech.edu4876o9ut_scratch
  using UNIX socket
  @ DRIVER MODE: Message from server: STATUS
  @ DRIVER MODE: Message from server: INIT
  @ DRIVER MODE: Receiving replica           0          -1
  @ DRIVER MODE: Receiving encoded integer          25
  @ DRIVER MODE:  SCF:  T  FORCE:  T  STRESS:  F  VC:  F  ENSEMBLE:  F
  @ DRIVER MODE:  SCF:  T  FORCE:  T  STRESS:  F  VC:  F  ENSEMBLE:  F

     Using Slab Decomposition

     bravais-lattice index     =            0
     lattice parameter (alat)  =       1.8897  a.u.
     unit-cell volume          =    6658.9804 (a.u.)^3
     number of atoms/cell      =           58
     number of atomic types    =            5
     number of electrons       =       410.00
     number of Kohn-Sham states=          215
     kinetic-energy cutoff     =      29.3995  Ry
     charge density cutoff     =     293.9946  Ry
     scf convergence threshold =      7.3E-08
     mixing beta               =       0.0500
     number of iterations used =            8  plain     mixing
     Exchange-correlation= BEEF-VDW
                           (   1   4  43  14   2   0   0)

     celldm(1)=   1.889726  celldm(2)=   0.000000  celldm(3)=   0.000000
     celldm(4)=   0.000000  celldm(5)=   0.000000  celldm(6)=   0.000000

     crystal axes: (cart. coord. in units of alat)
               a(1) = (   6.579727   0.000000   0.000000 )
               a(2) = (  -0.000775   5.961596   0.000000 )
               a(3) = (   0.000000   0.000000  25.155947 )

     reciprocal axes: (cart. coord. in units 2 pi/alat)
               b(1) = (  0.151982  0.000020  0.000000 )
               b(2) = (  0.000000  0.167740  0.000000 )
               b(3) = (  0.000000  0.000000  0.039752 )

     PseudoPot. # 1 for Ti read from file:
     /storage/coda1/p-amedford6/0/shared/rich_project_chbe-medford/medford-share/data/pseudos_module/espresso/nninc/pbe/van/Ti.UPF
     MD5 check sum: 8e4df49b7f0d34bbd5052bf3f5ea0213
     Pseudo is Ultrasoft, Zval = 12.0
     Generated by new atomic code, or converted to UPF format
     Using radial grid of  851 points,  6 beta functions with:
                l(1) =   0
                l(2) =   0
                l(3) =   1
                l(4) =   1
                l(5) =   2
                l(6) =   2
     Q(r) pseudized with  8 coefficients,  rinner =    1.000   1.000   1.000
                                                       1.000   1.000

     PseudoPot. # 2 for O  read from file:
     /storage/coda1/p-amedford6/0/shared/rich_project_chbe-medford/medford-share/data/pseudos_module/espresso/nninc/pbe/van/O.UPF
     MD5 check sum: 78c19812648e8988a0fe644b0f25305e
     Pseudo is Ultrasoft, Zval =  6.0
     Generated by new atomic code, or converted to UPF format
     Using radial grid of  737 points,  4 beta functions with:
                l(1) =   0
                l(2) =   0
                l(3) =   1
                l(4) =   1
     Q(r) pseudized with  8 coefficients,  rinner =    0.800   0.800   0.800

     PseudoPot. # 3 for C  read from file:
     /storage/coda1/p-amedford6/0/shared/rich_project_chbe-medford/medford-share/data/pseudos_module/espresso/nninc/pbe/van/C.UPF
     MD5 check sum: 1a69bf6b8db32088f5b2163dbdb77a27
     Pseudo is Ultrasoft, Zval =  4.0
     Generated by new atomic code, or converted to UPF format
     Using radial grid of  721 points,  4 beta functions with:
                l(1) =   0
                l(2) =   0
                l(3) =   1
                l(4) =   1
     Q(r) pseudized with  8 coefficients,  rinner =    0.800   0.800   0.800

     PseudoPot. # 4 for H  read from file:
     /storage/coda1/p-amedford6/0/shared/rich_project_chbe-medford/medford-share/data/pseudos_module/espresso/nninc/pbe/van/H.UPF
     MD5 check sum: b5ee9d7bfd3a09ee7748110bda690ff7
     Pseudo is Ultrasoft, Zval =  1.0
     Generated by new atomic code, or converted to UPF format
     Using radial grid of  615 points,  1 beta functions with:
                l(1) =   0
     Q(r) pseudized with  8 coefficients,  rinner =    0.800

     PseudoPot. # 5 for N  read from file:
     /storage/coda1/p-amedford6/0/shared/rich_project_chbe-medford/medford-share/data/pseudos_module/espresso/nninc/pbe/van/N.UPF
     MD5 check sum: 90d10febe142ad51ac9d5be1deb811c4
     Pseudo is Ultrasoft, Zval =  5.0
     Generated by new atomic code, or converted to UPF format
     Using radial grid of  729 points,  4 beta functions with:
                l(1) =   0
                l(2) =   0
                l(3) =   1
                l(4) =   1
     Q(r) pseudized with  8 coefficients,  rinner =    0.800   0.800   0.800

     atomic species   valence    mass     pseudopotential
        Ti1           12.00    47.86700     Ti( 1.00)
        O1             6.00    15.99900     O ( 1.00)
        C1             4.00    12.01100     C ( 1.00)
        H1             1.00     1.00800     H ( 1.00)
        N1             5.00    14.00700     N ( 1.00)

     No symmetry found

   Cartesian axes

     site n.     atom                  positions (alat units)
         1           Ti1 tau(   1) = (   0.0004258   2.9801865   6.0000000  )
         2           Ti1 tau(   2) = (   3.2906075   1.4906267   6.0002472  )
         3           O1  tau(   3) = (   0.0006271   0.0005054   7.9858123  )
         4           O1  tau(   4) = (   3.2906025   0.0005020   7.3038282  )
         5           O1  tau(   5) = (   4.5942328   1.4918067   9.2879030  )
         6           O1  tau(   6) = (   1.9868534   1.4903216   9.2879459  )
         7           Ti1 tau(   7) = (   3.3250738   2.9918783   9.1599549  )
         8           Ti1 tau(   8) = (   0.0412716   1.4903975   9.2658274  )
         9           O1  tau(   9) = (   3.2852344   0.0116916  11.3753809  )
        10           O1  tau(  10) = (   6.5701620   0.0027176  10.6052010  )
        11           O1  tau(  11) = (   1.2758103   1.4969824  12.6410148  )
        12           O1  tau(  12) = (   5.2796941   1.4985041  12.6691897  )
        13           Ti1 tau(  13) = (   6.5531116   2.9870417  12.5348353  )
        14           Ti1 tau(  14) = (   3.2504356   1.4995581  12.5215122  )
        15           O1  tau(  15) = (   0.0383206   0.0046779  14.6787597  )
        16           O1  tau(  16) = (   3.2537876   0.0095675  14.0320577  )
        17           O1  tau(  17) = (   4.5855444   1.5609978  16.0639115  )
        18           O1  tau(  18) = (   2.0343745   1.5440679  16.2001998  )
        19           Ti1 tau(  19) = (   3.3058624   3.0043567  15.7064231  )
        20           Ti1 tau(  20) = (   6.5549511   1.4266458  15.8675638  )
        21           O1  tau(  21) = (   3.2904802   0.0005063   4.7018136  )
        22           O1  tau(  22) = (   6.4974171   0.0126247  17.2237355  )
        23           O1  tau(  23) = (   1.3043587   1.4918075   6.0039043  )
        24           O1  tau(  24) = (   5.2767064   1.4903225   6.0039473  )
        25           Ti1 tau(  25) = (   0.0000382   5.9609847   6.0000000  )
        26           Ti1 tau(  26) = (   3.2902200   4.4714249   6.0002472  )
        27           O1  tau(  27) = (   0.0002396   2.9813036   7.9858123  )
        28           O1  tau(  28) = (   3.2902150   2.9813002   7.3038282  )
        29           O1  tau(  29) = (   4.5938453   4.4726049   9.2879030  )
        30           O1  tau(  30) = (   1.9864658   4.4711199   9.2879459  )
        31           Ti1 tau(  31) = (   3.3194574   0.0113313   9.1541029  )
        32           Ti1 tau(  32) = (   0.0414074   4.4589881   9.2683624  )
        33           O1  tau(  33) = (   3.2821265   2.9896323  11.3676027  )
        34           O1  tau(  34) = (   6.5712111   2.9825298  10.6251173  )
        35           O1  tau(  35) = (   1.2751242   4.4805681  12.6359318  )
        36           O1  tau(  36) = (   5.2791817   4.4782367  12.6627471  )
        37           Ti1 tau(  37) = (   6.5506445   0.0032150  12.4806913  )
        38           Ti1 tau(  38) = (   3.2507345   4.4881811  12.5195668  )
        39           O1  tau(  39) = (   0.0469291   2.9928743  14.8464778  )
        40           O1  tau(  40) = (   3.2514374   2.9975957  13.9281162  )
        41           O1  tau(  41) = (   4.5866068   4.4203933  16.0984022  )
        42           O1  tau(  42) = (   2.0418857   4.4579080  16.2200674  )
        43           Ti1 tau(  43) = (   3.2648600   0.0292614  15.8571223  )
        44           Ti1 tau(  44) = (   6.5763064   4.6169283  15.9626260  )
        45           O1  tau(  45) = (   3.2900926   2.9813045   4.7018136  )
        46           O1  tau(  46) = (   1.3039711   4.4726057   6.0039043  )
        47           O1  tau(  47) = (   5.2763189   4.4711207   6.0039473  )
        48           C1  tau(  48) = (   6.0301898   2.9050411  18.9351799  )
        49           O1  tau(  49) = (   0.1575529   2.9516393  17.6723866  )
        50           H1  tau(  50) = (   4.9714676   2.8818909  18.6991823  )
        51           H1  tau(  51) = (   1.1132637   2.8218831  17.8130049  )
        52           H1  tau(  52) = (   6.2985093   1.9952365  19.4696065  )
        53           H1  tau(  53) = (   6.2732381   3.7939772  19.5169533  )
        54           N1  tau(  54) = (   4.8840950   3.1052494  22.6850861  )
        55           N1  tau(  55) = (   4.2680757   3.3403818  21.7970487  )
        56           O1  tau(  56) = (   3.8772584   0.1041246  18.3039653  )
        57           H1  tau(  57) = (   4.8407149   0.0692883  18.0716375  )
        58           H1  tau(  58) = (   3.6680196   5.2122673  18.6877519  )

     number of k points=    10  Fermi-Dirac smearing, width (Ry)=  0.0073
                       cart. coord. in units 2pi/alat
        k(    1) = (   0.0000000   0.0000000   0.0000000), wk =   0.1250000
        k(    2) = (   0.0000000   0.0419351   0.0000000), wk =   0.2500000
        k(    3) = (   0.0000000  -0.0838702   0.0000000), wk =   0.1250000
        k(    4) = (   0.0379955   0.0000049   0.0000000), wk =   0.2500000
        k(    5) = (   0.0379955   0.0419400   0.0000000), wk =   0.2500000
        k(    6) = (   0.0379955  -0.0838652   0.0000000), wk =   0.2500000
        k(    7) = (   0.0379955  -0.0419301   0.0000000), wk =   0.2500000
        k(    8) = (  -0.0759910  -0.0000099   0.0000000), wk =   0.1250000
        k(    9) = (  -0.0759910   0.0419252   0.0000000), wk =   0.2500000
        k(   10) = (  -0.0759910  -0.0838800   0.0000000), wk =   0.1250000

     Initial potential from superposition of free atoms

     starting charge  393.99913, renormalised to  410.00000

     negative rho (up, down):  9.554E-03 0.000E+00

     %%%%%%%%%%%%%%%%%%%%%%%%%%%%%%%%%%%%%%%%%%%%%%%%%%%%%%%%%%%%%%%%%%%%%%%%
     %                                                                      %
     % You are using vdW-DF, which was implemented by the Thonhauser group. %
     % Please cite the following two papers that made this development      %
     % possible and the two reviews that describe the various versions:     %
     %                                                                      %
     %   T. Thonhauser et al., PRL 115, 136402 (2015).                      %
     %   T. Thonhauser et al., PRB 76, 125112 (2007).                       %
     %   K. Berland et al., Rep. Prog. Phys. 78, 066501 (2015).             %
     %   D.C. Langreth et al., J. Phys.: Condens. Matter 21, 084203 (2009). %
     %                                                                      %
     %                                                                      %
     % If you are calculating the stress with vdW-DF, please also cite:     %
     %                                                                      %
     %   R. Sabatini et al., J. Phys.: Condens. Matter 24, 424209 (2012).   %
     %                                                                      %
     %%%%%%%%%%%%%%%%%%%%%%%%%%%%%%%%%%%%%%%%%%%%%%%%%%%%%%%%%%%%%%%%%%%%%%%%

     Adding external electric field

     Computed dipole along edir(3) :
        Dipole              -20.0784 Ry au,        -51.0342 Debye
        Dipole field         -0.0379 Ry au,

        Potential amp.        3.5124 Ry
        Total length         46.3494 bohr

     Starting wfcs are  310 atomic wfcs
  @ DRIVER MODE: Message from server: STATUS
  @ DRIVER MODE: Message from server: POSDATA
  @ DRIVER MODE: Reading and sharing cell
  @ DRIVER MODE: Reading and sharing positions
  @ DRIVER MODE: Received positions

     Self-consistent Calculation

     iteration #  1     ecut=    29.40 Ry     beta= 0.05
     Davidson diagonalization with overlap
     c_bands:  1 eigenvalues not converged
     c_bands:  1 eigenvalues not converged
     c_bands:  5 eigenvalues not converged
     c_bands:  1 eigenvalues not converged
     c_bands:  4 eigenvalues not converged
     c_bands:  3 eigenvalues not converged
     ethr =  1.00E-05,  avg # of iterations = 32.1

[...]

     total energy              =   -2098.57631704 Ry
     estimated scf accuracy    <   10668.33296855 Ry

     iteration #  2     ecut=    29.40 Ry     beta= 0.05
     Davidson diagonalization with overlap
     ethr =  1.00E-02,  avg # of iterations = 29.9

[...]

     iteration # 97     ecut=    29.40 Ry     beta= 0.05
     Davidson diagonalization with overlap
     ethr =  2.63E-11,  avg # of iterations =  1.7

[...]

     total energy              =   -3007.66303002 Ry
     estimated scf accuracy    <       0.00000007 Ry

     iteration # 98     ecut=    29.40 Ry     beta= 0.05
     Davidson diagonalization with overlap
     c_bands:  1 eigenvalues not converged
     c_bands:  1 eigenvalues not converged
     ethr =  1.81E-11,  avg # of iterations = 14.9

     negative rho (up, down):  1.051E-02 0.000E+00

     Adding external electric field

     Computed dipole along edir(3) :
        Dipole                1.2320 Ry au,          3.1313 Debye
        Dipole field          0.0023 Ry au,

        Potential amp.       -0.2155 Ry
        Total length         46.3494 bohr

     End of self-consistent calculation

          k = 0.0000 0.0000 0.0000 ( 18029 PWs)   bands (ev):

   -54.9346 -54.9105 -54.8986 -54.8762 -54.8616 -54.8561 -54.8288 -54.8097
   -54.7815 -54.7785 -54.7441 -54.7237 -54.6923 -54.6898 -53.9987 -53.9646
   -31.5003 -31.4745 -31.4062 -31.3134 -31.2541 -31.2487 -31.2366 -31.2347
   -31.1992 -31.1648 -31.1558 -31.1533 -31.1490 -31.1259 -31.1194 -31.1133
   -31.0971 -31.0782 -31.0724 -31.0707 -31.0639 -31.0560 -31.0332 -31.0271
   -31.0267 -31.0213 -31.0062 -31.0039 -31.0028 -30.9670 -30.9500 -30.9299
   -30.9285 -30.9275 -30.9191 -30.9184 -30.9081 -30.8777 -30.8637 -30.8593
   -30.8547 -30.8353 -30.4107 -30.3084 -30.2868 -30.2269 -30.1405 -30.0295
   -21.6265 -19.8090 -18.3168 -15.7675 -15.5215 -15.3822 -15.2848 -15.1611
   -15.0310 -14.9571 -14.8368 -14.7648 -14.6711 -14.6573 -14.6394 -14.6177
   -14.5848 -14.5587 -14.5018 -14.4966 -14.4420 -14.4386 -14.4279 -14.4171
   -14.3842 -14.3680 -14.3379 -14.3286 -14.1662 -14.1005 -14.0409 -13.8972
   -12.4996 -12.3803 -10.8244  -6.8772  -6.5551  -6.1078  -4.8562  -4.7842
    -4.7281  -4.6336  -3.5492  -3.1009  -2.9497  -2.9132  -2.8916  -2.8704
    -2.7451  -2.6503  -2.6180  -2.4624  -2.3718  -2.2362  -2.2090  -2.1768
    -2.1384  -2.0703  -2.0152  -1.9283  -1.8985  -1.8592  -1.8383  -1.8146
    -1.7997  -1.7724  -1.7428  -1.6707  -1.6330  -1.5487  -1.5321  -1.4448
    -1.3915  -1.3828  -1.3400  -1.2771  -1.2739  -1.2632  -1.2236  -1.2094
    -1.2011  -1.1910  -1.1845  -1.0224  -0.9779  -0.9443  -0.8206  -0.7106
    -0.6190  -0.6090  -0.5050  -0.4915  -0.4285  -0.4241  -0.3845  -0.3450
    -0.2829  -0.1862  -0.1290  -0.0832  -0.0688   0.0418   0.1070   0.1213
     0.1847   0.2588   0.2740   0.2955   0.3251   0.4120   0.4797   0.5219
     0.5561   0.6208   0.6308   0.6778   0.7071   0.7482   0.8335   0.8874
     0.8910   0.9780   0.9953   1.0084   1.0337   1.0394   1.1375   1.1716
     1.2157   1.2436   1.3950   1.4299   1.6210   1.6569   1.9166   2.0154
     2.0268   2.1882   2.6129   2.6674   4.1555   4.2235   4.2600   4.2673
     4.2819   4.3615   4.6438   4.6503   4.6635   4.6755   4.6834

[...]

          k = 0.0380-0.0419 0.0000 ( 17876 PWs)   bands (ev):

[...]

          k =-0.0760-0.0000 0.0000 ( 17886 PWs)   bands (ev):

[...]

          k =-0.0760-0.0839 0.0000 ( 17948 PWs)   bands (ev):

   -54.9176 -54.9154 -54.8951 -54.8914 -54.8566 -54.8516 -54.8215 -54.8172
   -54.7888 -54.7635 -54.7588 -54.7081 -54.7054 -54.6939 -53.9817 -53.9816
   -31.3872 -31.3092 -31.2990 -31.2229 -31.2193 -31.1972 -31.1898 -31.1880
   -31.1811 -31.1583 -31.1438 -31.1420 -31.1344 -31.1282 -31.1094 -31.0952
   -31.0795 -31.0776 -31.0687 -31.0676 -31.0659 -31.0648 -31.0592 -31.0538
   -31.0289 -31.0235 -31.0193 -31.0143 -31.0140 -31.0113 -31.0105 -31.0102
   -31.0098 -30.9812 -30.9725 -30.9616 -30.9604 -30.9333 -30.9309 -30.8950
   -30.8918 -30.8772 -30.2994 -30.2993 -30.2235 -30.2231 -30.1838 -30.1836
   -21.6264 -19.8054 -18.3157 -15.3424 -15.2291 -15.0634 -14.9549 -14.9451
   -14.9166 -14.8579 -14.8141 -14.7830 -14.7429 -14.7328 -14.7032 -14.6853
   -14.6802 -14.6225 -14.5386 -14.5329 -14.5192 -14.4838 -14.4568 -14.4428
   -14.4408 -14.4264 -14.3895 -14.3876 -14.3684 -14.3572 -14.3005 -14.2093
   -12.4816 -12.4809 -10.8271  -6.8764  -6.5573  -6.1099  -4.8536  -4.7910
    -4.7221  -4.6216  -3.5409  -2.7569  -2.5298  -2.4964  -2.4232  -2.2555
    -2.1782  -2.1573  -2.0816  -2.0577  -2.0223  -1.9439  -1.9401  -1.9057
    -1.8662  -1.8416  -1.8359  -1.8176  -1.7999  -1.7663  -1.7455  -1.7244
    -1.7109  -1.6959  -1.6491  -1.6401  -1.6043  -1.6008  -1.5862  -1.5745
    -1.5555  -1.5444  -1.4644  -1.4356  -1.3928  -1.3090  -1.2923  -1.1626
    -1.1571  -1.1119  -1.0746  -1.0366  -1.0172  -0.9962  -0.9709  -0.9403
    -0.9087  -0.7368  -0.7157  -0.6731  -0.6220  -0.6156  -0.5427  -0.5266
    -0.4722  -0.4402  -0.3509  -0.3091  -0.2698  -0.1615  -0.1345  -0.1219
     0.0153   0.0219   0.0673   0.0689   0.1099   0.1496   0.1631   0.1690
     0.2440   0.2764   0.3127   0.3387   0.3624   0.5405   0.5768   0.6355
     0.7247   0.7430   0.9219   0.9516   0.9957   1.0766   1.1379   1.1919
     1.2142   1.3222   1.3300   1.3533   1.4449   1.4933   1.4946   1.5245
     2.3781   2.3811   2.4819   2.4847   4.2797   4.4106   4.4169   4.4968
     4.5706   4.6634   4.6651   4.6782   4.7084   4.7185   4.7196

     the Fermi energy is     4.2115 ev

!    total energy              =   -3007.66303774 Ry
     estimated scf accuracy    <       0.00000007 Ry
     smearing contrib. (-TS)   =      -0.03685357 Ry
     internal energy E=F+TS    =   -3007.62618417 Ry

     The total energy is F=E-TS. E is the sum of the following terms:
     one-electron contribution =  -22339.18214090 Ry
     hartree contribution      =   11271.37792776 Ry
     xc contribution           =    -502.08965464 Ry
     ewald contribution        =    8562.26481942 Ry
     electric field correction =       0.00286418 Ry

     convergence has been achieved in  98 iterations

     Forces acting on atoms (cartesian axes, Ry/au):

     atom    1 type  1   force =    -0.00027171   -0.00001842    0.09250977
     atom    2 type  1   force =    -0.00012867    0.00114943   -0.18321040
     atom    3 type  2   force =     0.00054852   -0.00040194   -0.02387655
     atom    4 type  2   force =     0.00079813    0.00021328    0.05087465
     atom    5 type  2   force =    -0.01549159   -0.00014534    0.00436493
     atom    6 type  2   force =     0.01420177   -0.00033062    0.00504951
     atom    7 type  1   force =    -0.00010345    0.00020447    0.00004142
     atom    8 type  1   force =    -0.00007060    0.00015929   -0.00000860
     atom    9 type  2   force =     0.00007383    0.00004674    0.00013067
     atom   10 type  2   force =     0.00000166    0.00001913   -0.00006708
     atom   11 type  2   force =     0.00017350    0.00002005   -0.00013028
     atom   12 type  2   force =     0.00003922    0.00004036   -0.00005165
     atom   13 type  1   force =     0.00017634    0.00011847   -0.00001204
     atom   14 type  1   force =     0.00026595    0.00016908   -0.00009888
     atom   15 type  2   force =     0.00027887    0.00040837    0.00002080
     atom   16 type  2   force =     0.00014980   -0.00001711    0.00020249
     atom   17 type  2   force =    -0.00009622   -0.00004287    0.00039551
     atom   18 type  2   force =     0.00023267   -0.00001267    0.00034366
     atom   19 type  1   force =     0.00010247    0.00006465    0.00007997
     atom   20 type  1   force =     0.00023532   -0.00008057   -0.00026742
     atom   21 type  2   force =     0.00002983    0.00001618    0.10488386
     atom   22 type  2   force =    -0.00028488    0.00009482    0.00016842
     atom   23 type  2   force =    -0.06801455   -0.00010854   -0.02682407
     atom   24 type  2   force =     0.06787871    0.00034546   -0.02686454
     atom   25 type  1   force =    -0.00011887   -0.00002135    0.09594827
     atom   26 type  1   force =    -0.00010321   -0.00144670   -0.18312604
     atom   27 type  2   force =     0.00049984   -0.00019772   -0.02268311
     atom   28 type  2   force =     0.00086563    0.00017837    0.05126240
     atom   29 type  2   force =    -0.01540859    0.00050396    0.00453865
     atom   30 type  2   force =     0.01415646    0.00078242    0.00523709
     atom   31 type  1   force =    -0.00009741    0.00005893   -0.00002235
     atom   32 type  1   force =    -0.00007323    0.00017058   -0.00005442
     atom   33 type  2   force =     0.00012322   -0.00003167    0.00018560
     atom   34 type  2   force =    -0.00000056    0.00007121    0.00002326
     atom   35 type  2   force =     0.00013258   -0.00001110   -0.00002616
     atom   36 type  2   force =     0.00008260   -0.00000929    0.00009629
     atom   37 type  1   force =     0.00016002    0.00006147   -0.00009644
     atom   38 type  1   force =     0.00015984   -0.00003989    0.00005716
     atom   39 type  2   force =     0.00017030   -0.00012425   -0.00018749
     atom   40 type  2   force =     0.00002280   -0.00018652    0.00002858
     atom   41 type  2   force =     0.00031722   -0.00017621   -0.00028758
     atom   42 type  2   force =    -0.00010132   -0.00003585    0.00003726
     atom   43 type  1   force =    -0.00006185   -0.00045780    0.00120276
     atom   44 type  1   force =    -0.00001123    0.00011066    0.00029565
     atom   45 type  2   force =     0.00003542    0.00001985    0.10482473
     atom   46 type  2   force =    -0.06802758   -0.00051140   -0.02681168
     atom   47 type  2   force =     0.06788761   -0.00009251   -0.02688979
     atom   48 type  3   force =    -0.00009437   -0.00009930   -0.00025113
     atom   49 type  2   force =    -0.00031085   -0.00011658    0.00008269
     atom   50 type  4   force =    -0.00010892   -0.00039014    0.00007439
     atom   51 type  4   force =     0.00010429   -0.00012342    0.00007268
     atom   52 type  4   force =     0.00032250   -0.00037036    0.00007762
     atom   53 type  4   force =     0.00007048    0.00015495   -0.00018340
     atom   54 type  5   force =    -0.00075871   -0.00002467   -0.00084594
     atom   55 type  5   force =     0.00020472   -0.00001959   -0.00003306
     atom   56 type  2   force =     0.00390830    0.01875315   -0.00804866
     atom   57 type  4   force =    -0.00101716   -0.00212647    0.00073479
     atom   58 type  4   force =    -0.00365491   -0.01616451    0.00711321

     Total force =     0.369129     Total SCF correction =     0.000931
  @ DRIVER MODE: Message from server: STATUS
  @ DRIVER MODE: Message from server: GETFORCE
  @ DRIVER MODE: Returning v,forces,stress,ensemble

     Writing output data file ./calc.save/
  @ DRIVER MODE: Message from server: EXIT
  @ DRIVE MODE: Exiting

     General routines

     Parallel routines

   This run was terminated on:  19:50:26  28Sep2021

   JOB DONE.