     Program PWSCF v.6.7GPU starts on 23Aug2021 at 14:46: 6

     R & G space division:  proc/nbgrp/npool/nimage =       6
     Reading input from /storage/home/hcoda1/3/ntian30/research/carbon/CH_vib/ads_slab/CHNNH3_a/out_0004/pw.inp
Warning: card &CELL ignored
Warning: card   CELL_DYNAMICS='IPI', ignored
Warning: card / ignored

     Current dimensions of program PWSCF are:
     Max number of different atomic species (ntypx) = 10
     Max number of k-points (npk) =  40000
     Max angular momentum in pseudopotentials (lmaxx) =  3
     Presently no symmetry can be used with electric field

     Message from routine cell_base_init:
     DEPRECATED: use true lattice parameter, not A to a.u. conversion factor

     IMPORTANT: XC functional enforced from input :
     Exchange-correlation= BEEF-VDW
                           (   1   4  43  14   2   0   0)
     Any further DFT definition will be discarded
     Please, verify this is what you really want

  @ DRIVER MODE: Connecting to
 qe_1139763_2632800.sched-torque.pace.gatech.edud7ff70ng_scratch
  using UNIX socket
  @ DRIVER MODE: Message from server: STATUS
  @ DRIVER MODE: Message from server: INIT
  @ DRIVER MODE: Receiving replica           0          -1
  @ DRIVER MODE: Receiving encoded integer          25
  @ DRIVER MODE:  SCF:  T  FORCE:  T  STRESS:  F  VC:  F  ENSEMBLE:  F
  @ DRIVER MODE:  SCF:  T  FORCE:  T  STRESS:  F  VC:  F  ENSEMBLE:  F

     Using Slab Decomposition

     bravais-lattice index     =            0
     lattice parameter (alat)  =       1.8897  a.u.
     unit-cell volume          =    6658.9804 (a.u.)^3
     number of atoms/cell      =           54
     number of atomic types    =            5
     number of electrons       =       396.00
     number of Kohn-Sham states=          208
     kinetic-energy cutoff     =      29.3995  Ry
     charge density cutoff     =     293.9946  Ry
     scf convergence threshold =      7.3E-08
     mixing beta               =       0.0500
     number of iterations used =            8  plain     mixing
     Exchange-correlation= BEEF-VDW
                           (   1   4  43  14   2   0   0)

     celldm(1)=   1.889726  celldm(2)=   0.000000  celldm(3)=   0.000000
     celldm(4)=   0.000000  celldm(5)=   0.000000  celldm(6)=   0.000000

     crystal axes: (cart. coord. in units of alat)
               a(1) = (   6.579727   0.000000   0.000000 )
               a(2) = (  -0.000775   5.961596   0.000000 )
               a(3) = (   0.000000   0.000000  25.155947 )

     reciprocal axes: (cart. coord. in units 2 pi/alat)
               b(1) = (  0.151982  0.000020  0.000000 )
               b(2) = (  0.000000  0.167740  0.000000 )
               b(3) = (  0.000000  0.000000  0.039752 )

     PseudoPot. # 1 for Ti read from file:
     /storage/coda1/p-amedford6/0/shared/rich_project_chbe-medford/medford-share/data/pseudos_module/espresso/nninc/pbe/van/Ti.UPF
     MD5 check sum: 8e4df49b7f0d34bbd5052bf3f5ea0213
     Pseudo is Ultrasoft, Zval = 12.0
     Generated by new atomic code, or converted to UPF format
     Using radial grid of  851 points,  6 beta functions with:
                l(1) =   0
                l(2) =   0
                l(3) =   1
                l(4) =   1
                l(5) =   2
                l(6) =   2
     Q(r) pseudized with  8 coefficients,  rinner =    1.000   1.000   1.000
                                                       1.000   1.000

     PseudoPot. # 2 for O  read from file:
     /storage/coda1/p-amedford6/0/shared/rich_project_chbe-medford/medford-share/data/pseudos_module/espresso/nninc/pbe/van/O.UPF
     MD5 check sum: 78c19812648e8988a0fe644b0f25305e
     Pseudo is Ultrasoft, Zval =  6.0
     Generated by new atomic code, or converted to UPF format
     Using radial grid of  737 points,  4 beta functions with:
                l(1) =   0
                l(2) =   0
                l(3) =   1
                l(4) =   1
     Q(r) pseudized with  8 coefficients,  rinner =    0.800   0.800   0.800

     PseudoPot. # 3 for N  read from file:
     /storage/coda1/p-amedford6/0/shared/rich_project_chbe-medford/medford-share/data/pseudos_module/espresso/nninc/pbe/van/N.UPF
     MD5 check sum: 90d10febe142ad51ac9d5be1deb811c4
     Pseudo is Ultrasoft, Zval =  5.0
     Generated by new atomic code, or converted to UPF format
     Using radial grid of  729 points,  4 beta functions with:
                l(1) =   0
                l(2) =   0
                l(3) =   1
                l(4) =   1
     Q(r) pseudized with  8 coefficients,  rinner =    0.800   0.800   0.800

     PseudoPot. # 4 for C  read from file:
     /storage/coda1/p-amedford6/0/shared/rich_project_chbe-medford/medford-share/data/pseudos_module/espresso/nninc/pbe/van/C.UPF
     MD5 check sum: 1a69bf6b8db32088f5b2163dbdb77a27
     Pseudo is Ultrasoft, Zval =  4.0
     Generated by new atomic code, or converted to UPF format
     Using radial grid of  721 points,  4 beta functions with:
                l(1) =   0
                l(2) =   0
                l(3) =   1
                l(4) =   1
     Q(r) pseudized with  8 coefficients,  rinner =    0.800   0.800   0.800

     PseudoPot. # 5 for H  read from file:
     /storage/coda1/p-amedford6/0/shared/rich_project_chbe-medford/medford-share/data/pseudos_module/espresso/nninc/pbe/van/H.UPF
     MD5 check sum: b5ee9d7bfd3a09ee7748110bda690ff7
     Pseudo is Ultrasoft, Zval =  1.0
     Generated by new atomic code, or converted to UPF format
     Using radial grid of  615 points,  1 beta functions with:
                l(1) =   0
     Q(r) pseudized with  8 coefficients,  rinner =    0.800

     atomic species   valence    mass     pseudopotential
        Ti1           12.00    47.86700     Ti( 1.00)
        O1             6.00    15.99900     O ( 1.00)
        N1             5.00    14.00700     N ( 1.00)
        C1             4.00    12.01100     C ( 1.00)
        H1             1.00     1.00800     H ( 1.00)

     No symmetry found

   Cartesian axes

     site n.     atom                  positions (alat units)
         1           Ti1 tau(   1) = (   0.0004258   2.9801865   6.0000000  )
         2           Ti1 tau(   2) = (   3.2906075   1.4906267   6.0002472  )
         3           O1  tau(   3) = (   0.0006271   0.0005054   7.9858123  )
         4           O1  tau(   4) = (   3.2906025   0.0005020   7.3038282  )
         5           O1  tau(   5) = (   4.5942328   1.4918067   9.2879030  )
         6           O1  tau(   6) = (   1.9868534   1.4903216   9.2879459  )
         7           Ti1 tau(   7) = (   3.2907910   2.8959150   9.1758416  )
         8           Ti1 tau(   8) = (   0.0015273   1.4827037   9.2680791  )
         9           O1  tau(   9) = (   3.2881108   5.9505233  11.3735460  )
        10           O1  tau(  10) = (   0.0116148   5.9584955  10.6183126  )
        11           O1  tau(  11) = (   1.2866665   1.4805866  12.6825740  )
        12           O1  tau(  12) = (   5.2924821   1.4818622  12.6792165  )
        13           Ti1 tau(  13) = (   0.0021322   2.9639872  12.5157261  )
        14           Ti1 tau(  14) = (   3.2862601   1.4710115  12.5283183  )
        15           O1  tau(  15) = (   6.5551702   5.8950557  14.7042857  )
        16           O1  tau(  16) = (   3.2890300   5.9388001  13.9877656  )
        17           O1  tau(  17) = (   4.5349758   1.4880922  16.1718967  )
        18           O1  tau(  18) = (   2.0258431   1.4790072  16.1496753  )
        19           Ti1 tau(  19) = (   3.2732025   2.9690136  15.7622034  )
        20           Ti1 tau(  20) = (   6.5610264   1.3286824  15.8731419  )
        21           O1  tau(  21) = (   3.2904802   0.0005063   4.7018136  )
        22           O1  tau(  22) = (   6.5785393   0.0648448  17.2431192  )
        23           O1  tau(  23) = (   1.3043587   1.4918075   6.0039043  )
        24           O1  tau(  24) = (   5.2767064   1.4903225   6.0039473  )
        25           Ti1 tau(  25) = (   0.0000382   5.9609847   6.0000000  )
        26           Ti1 tau(  26) = (   3.2902200   4.4714249   6.0002472  )
        27           O1  tau(  27) = (   0.0002396   2.9813036   7.9858123  )
        28           O1  tau(  28) = (   3.2902150   2.9813002   7.3038282  )
        29           O1  tau(  29) = (   4.5938453   4.4726049   9.2879030  )
        30           O1  tau(  30) = (   1.9864658   4.4711199   9.2879459  )
        31           Ti1 tau(  31) = (   3.2891106   5.8743827   9.1763621  )
        32           Ti1 tau(  32) = (   0.0006254   4.4649316   9.2693709  )
        33           O1  tau(  33) = (   3.2883663   2.9615298  11.3703760  )
        34           O1  tau(  34) = (   0.0092240   2.9805883  10.6323155  )
        35           O1  tau(  35) = (   1.2870507   4.4533538  12.6624524  )
        36           O1  tau(  36) = (   5.2892318   4.4513974  12.6520950  )
        37           Ti1 tau(  37) = (   6.5724215   5.9362995  12.5032772  )
        38           Ti1 tau(  38) = (   3.2850067   4.4496593  12.5237361  )
        39           O1  tau(  39) = (   6.5755915   2.9911963  14.9688396  )
        40           O1  tau(  40) = (   3.2879019   2.9755095  13.9706832  )
        41           O1  tau(  41) = (   4.5370027   4.4458050  16.2043726  )
        42           O1  tau(  42) = (   2.0318725   4.4540161  16.1993262  )
        43           Ti1 tau(  43) = (   3.2771836   5.9440081  15.7837661  )
        44           Ti1 tau(  44) = (   6.5399960   4.5546841  16.0715688  )
        45           O1  tau(  45) = (   3.2900926   2.9813045   4.7018136  )
        46           O1  tau(  46) = (   1.3039711   4.4726057   6.0039043  )
        47           O1  tau(  47) = (   5.2763189   4.4711207   6.0039473  )
        48           N1  tau(  48) = (   0.1065663   3.2211123  17.9981644  )
        49           C1  tau(  49) = (   0.5134299   2.5375629  18.8400175  )
        50           H1  tau(  50) = (   1.0173682   1.8396193  19.5020221  )
        51           N1  tau(  51) = (   2.4304062   0.3108210  19.4519584  )
        52           H1  tau(  52) = (   3.2527645   0.6626300  18.9680575  )
        53           H1  tau(  53) = (   1.8610457   5.7841108  18.7610151  )
        54           H1  tau(  54) = (   2.7602249   5.5844085  20.1185638  )

     number of k points=    10  Fermi-Dirac smearing, width (Ry)=  0.0073
                       cart. coord. in units 2pi/alat
        k(    1) = (   0.0000000   0.0000000   0.0000000), wk =   0.1250000
        k(    2) = (   0.0000000   0.0419351   0.0000000), wk =   0.2500000
        k(    3) = (   0.0000000  -0.0838702   0.0000000), wk =   0.1250000
        k(    4) = (   0.0379955   0.0000049   0.0000000), wk =   0.2500000
        k(    5) = (   0.0379955   0.0419400   0.0000000), wk =   0.2500000
        k(    6) = (   0.0379955  -0.0838652   0.0000000), wk =   0.2500000
        k(    7) = (   0.0379955  -0.0419301   0.0000000), wk =   0.2500000
        k(    8) = (  -0.0759910  -0.0000099   0.0000000), wk =   0.1250000
        k(    9) = (  -0.0759910   0.0419252   0.0000000), wk =   0.2500000
        k(   10) = (  -0.0759910  -0.0838800   0.0000000), wk =   0.1250000

     Initial potential from superposition of free atoms

     starting charge  379.99915, renormalised to  396.00000

     negative rho (up, down):  1.529E-02 0.000E+00

     %%%%%%%%%%%%%%%%%%%%%%%%%%%%%%%%%%%%%%%%%%%%%%%%%%%%%%%%%%%%%%%%%%%%%%%%
     %                                                                      %
     % You are using vdW-DF, which was implemented by the Thonhauser group. %
     % Please cite the following two papers that made this development      %
     % possible and the two reviews that describe the various versions:     %
     %                                                                      %
     %   T. Thonhauser et al., PRL 115, 136402 (2015).                      %
     %   T. Thonhauser et al., PRB 76, 125112 (2007).                       %
     %   K. Berland et al., Rep. Prog. Phys. 78, 066501 (2015).             %
     %   D.C. Langreth et al., J. Phys.: Condens. Matter 21, 084203 (2009). %
     %                                                                      %
     %                                                                      %
     % If you are calculating the stress with vdW-DF, please also cite:     %
     %                                                                      %
     %   R. Sabatini et al., J. Phys.: Condens. Matter 24, 424209 (2012).   %
     %                                                                      %
     %%%%%%%%%%%%%%%%%%%%%%%%%%%%%%%%%%%%%%%%%%%%%%%%%%%%%%%%%%%%%%%%%%%%%%%%

     Adding external electric field

     Computed dipole along edir(3) :
        Dipole              -10.2017 Ry au,        -25.9301 Debye
        Dipole field         -0.0193 Ry au,

        Potential amp.        1.7846 Ry
        Total length         46.3494 bohr

     Starting wfcs are  300 atomic wfcs
  @ DRIVER MODE: Message from server: STATUS
  @ DRIVER MODE: Message from server: POSDATA
  @ DRIVER MODE: Reading and sharing cell
  @ DRIVER MODE: Reading and sharing positions
  @ DRIVER MODE: Received positions

     Self-consistent Calculation

     iteration #  1     ecut=    29.40 Ry     beta= 0.05
     Davidson diagonalization with overlap
     c_bands:  1 eigenvalues not converged
     c_bands:  2 eigenvalues not converged
     c_bands:  2 eigenvalues not converged
     c_bands:  1 eigenvalues not converged
     c_bands:  2 eigenvalues not converged
     c_bands:  2 eigenvalues not converged
     c_bands:  2 eigenvalues not converged
     c_bands:  3 eigenvalues not converged
     c_bands:  2 eigenvalues not converged
     c_bands:  1 eigenvalues not converged
     ethr =  1.00E-05,  avg # of iterations = 20.0

[...]

     total energy              =   -2543.08563283 Ry
     estimated scf accuracy    <    4460.12367007 Ry

     iteration #  2     ecut=    29.40 Ry     beta= 0.05
     Davidson diagonalization with overlap
     ethr =  1.00E-02,  avg # of iterations = 26.9

[...]

     iteration #100     ecut=    29.40 Ry     beta= 0.05
     Davidson diagonalization with overlap
     ethr =  3.17E-11,  avg # of iterations =  4.8

[...]

     total energy              =   -2940.42004680 Ry
     estimated scf accuracy    <       0.00000024 Ry

     iteration #101     ecut=    29.40 Ry     beta= 0.05
     Davidson diagonalization with overlap
     c_bands:  1 eigenvalues not converged
     c_bands:  1 eigenvalues not converged
     ethr =  3.17E-11,  avg # of iterations = 13.6

     negative rho (up, down):  1.581E-02 0.000E+00

     Adding external electric field

     Computed dipole along edir(3) :
        Dipole                1.3035 Ry au,          3.3132 Debye
        Dipole field          0.0025 Ry au,

        Potential amp.       -0.2280 Ry
        Total length         46.3494 bohr

     End of self-consistent calculation

          k = 0.0000 0.0000 0.0000 ( 18029 PWs)   bands (ev):

   -55.3745 -55.3385 -55.3262 -55.2921 -55.2508 -55.2449 -55.2164 -55.2159
   -55.1918 -55.1749 -55.1575 -55.1556 -55.1219 -55.0894 -54.3539 -54.3198
   -31.9421 -31.8185 -31.8056 -31.7388 -31.6844 -31.6813 -31.6736 -31.6608
   -31.6152 -31.6051 -31.5829 -31.5746 -31.5708 -31.5442 -31.5294 -31.5228
   -31.5108 -31.4984 -31.4889 -31.4846 -31.4787 -31.4641 -31.4399 -31.4289
   -31.4263 -31.4224 -31.3943 -31.3917 -31.3834 -31.3815 -31.3736 -31.3546
   -31.3530 -31.3470 -31.3417 -31.3395 -31.3057 -31.2909 -31.2893 -31.2836
   -31.2666 -31.2127 -30.7632 -30.6692 -30.6471 -30.5796 -30.4928 -30.3819
   -16.9366 -16.1953 -15.9274 -15.7792 -15.6679 -15.5692 -15.4455 -15.4264
   -15.2958 -15.2080 -15.0879 -15.0429 -15.0204 -15.0070 -14.9912 -14.9853
   -14.9148 -14.9099 -14.8847 -14.8704 -14.8664 -14.8515 -14.8105 -14.8085
   -14.7682 -14.7476 -14.6964 -14.6101 -14.5290 -14.4601 -14.1646 -12.8565
   -12.7391  -8.1934  -4.9884  -4.8941  -4.3228  -3.5364  -3.3869  -3.2900
    -3.2685  -3.2656  -3.1209  -3.0479  -2.9654  -2.8510  -2.7630  -2.6987
    -2.6230  -2.5744  -2.5604  -2.5424  -2.3662  -2.3329  -2.2891  -2.2438
    -2.2124  -2.1791  -2.1579  -2.1300  -2.1169  -2.1111  -2.0766  -1.9344
    -1.8893  -1.8436  -1.7930  -1.7699  -1.7135  -1.6960  -1.6591  -1.6528
    -1.6466  -1.6018  -1.5817  -1.5529  -1.4605  -1.3943  -1.2792  -1.2209
    -1.0791  -1.0093  -0.9548  -0.9409  -0.8589  -0.8556  -0.8275  -0.7515
    -0.7429  -0.7115  -0.5904  -0.4901  -0.4540  -0.4031  -0.3553  -0.3258
    -0.2842  -0.1972  -0.1494  -0.1362  -0.1258  -0.0241   0.0229   0.0339
     0.1095   0.1544   0.1708   0.1761   0.2909   0.3044   0.3702   0.4199
     0.4500   0.5176   0.5657   0.5701   0.5804   0.6154   0.6166   0.7079
     0.7304   0.7379   0.8123   0.9580   1.1792   1.2345   1.2416   1.5753
     1.5778   1.6687   1.8526   2.2448   2.2929   3.7243   3.7965   3.8698
     3.8765   3.9025   3.9622   4.1995   4.2046   4.2282   4.2299   4.2587

[...]

          k = 0.0380-0.0419 0.0000 ( 17876 PWs)   bands (ev):

[...]

          k =-0.0760-0.0000 0.0000 ( 17886 PWs)   bands (ev):

[...]

          k =-0.0760-0.0839 0.0000 ( 17948 PWs)   bands (ev):

   -55.3579 -55.3549 -55.3093 -55.3089 -55.2402 -55.2360 -55.2308 -55.2139
   -55.1792 -55.1755 -55.1733 -55.1393 -55.1384 -55.0919 -54.3369 -54.3367
   -31.7469 -31.7444 -31.7258 -31.6498 -31.6337 -31.6334 -31.6280 -31.6006
   -31.6003 -31.5811 -31.5745 -31.5699 -31.5612 -31.5132 -31.5086 -31.5064
   -31.5054 -31.5050 -31.4993 -31.4944 -31.4705 -31.4678 -31.4479 -31.4464
   -31.4434 -31.4396 -31.4295 -31.4290 -31.4286 -31.4232 -31.4084 -31.4064
   -31.3998 -31.3887 -31.3862 -31.3707 -31.3682 -31.3675 -31.3199 -31.3191
   -31.3046 -31.2960 -30.6598 -30.6597 -30.5757 -30.5756 -30.5362 -30.5361
   -16.9283 -15.6997 -15.5992 -15.5807 -15.3891 -15.3725 -15.3409 -15.3368
   -15.1850 -15.1548 -15.1473 -15.1306 -15.0817 -15.0743 -15.0683 -15.0558
   -14.9780 -14.9671 -14.9650 -14.9478 -14.8870 -14.8771 -14.8741 -14.8679
   -14.8642 -14.8218 -14.8182 -14.7244 -14.7215 -14.6351 -14.5270 -12.8407
   -12.8406  -8.1951  -4.9844  -4.8954  -4.3239  -2.9682  -2.8808  -2.8455
    -2.8415  -2.8036  -2.6009  -2.5684  -2.5403  -2.4826  -2.4154  -2.3743
    -2.3628  -2.3438  -2.2842  -2.2352  -2.2305  -2.2131  -2.1925  -2.1912
    -2.1676  -2.1397  -2.1003  -2.0901  -2.0693  -2.0521  -2.0236  -2.0042
    -1.9756  -1.9575  -1.9346  -1.9273  -1.8165  -1.8052  -1.7292  -1.6940
    -1.6379  -1.5763  -1.5712  -1.4735  -1.4664  -1.4097  -1.4003  -1.3822
    -1.2637  -1.1779  -1.1242  -1.1138  -1.1061  -0.9926  -0.9445  -0.9130
    -0.8795  -0.8563  -0.7772  -0.7142  -0.6948  -0.6542  -0.5784  -0.5687
    -0.5087  -0.3961  -0.3661  -0.3442  -0.3287  -0.3227  -0.2691  -0.2574
    -0.1842  -0.1386  -0.1047  -0.0943  -0.0582  -0.0182   0.1532   0.1644
     0.2056   0.3200   0.3816   0.4942   0.5686   0.5831   0.6628   0.6982
     0.7406   0.8012   0.8937   0.9338   0.9381   1.0169   1.0425   1.0849
     1.0930   2.0258   2.0261   2.1128   2.1131   3.8617   3.9764   3.9859
     4.0322   4.1317   4.1572   4.2439   4.2628   4.3097   4.3115   4.3790

     the Fermi energy is     3.7870 ev

!    total energy              =   -2940.42005161 Ry
     estimated scf accuracy    <       0.00000003 Ry
     smearing contrib. (-TS)   =      -0.03734042 Ry
     internal energy E=F+TS    =   -2940.38271119 Ry

     The total energy is F=E-TS. E is the sum of the following terms:
     one-electron contribution =  -23617.16285134 Ry
     hartree contribution      =   11900.39507283 Ry
     xc contribution           =    -485.96273736 Ry
     ewald contribution        =    9262.34459821 Ry
     electric field correction =       0.00320647 Ry

     convergence has been achieved in 101 iterations

     Forces acting on atoms (cartesian axes, Ry/au):

     atom    1 type  1   force =     0.00013938   -0.00015814    0.09347084
     atom    2 type  1   force =    -0.00005793   -0.00032681   -0.17810181
     atom    3 type  2   force =     0.00009481   -0.00033354   -0.02052894
     atom    4 type  2   force =     0.00002487   -0.00189701    0.05841179
     atom    5 type  2   force =    -0.01038527   -0.00109369    0.00771986
     atom    6 type  2   force =     0.01183816   -0.00048308    0.00667486
     atom    7 type  1   force =    -0.00028877    0.00213676   -0.01417751
     atom    8 type  1   force =     0.00032915    0.00048804   -0.00325396
     atom    9 type  2   force =    -0.00006638    0.00009217   -0.00002437
     atom   10 type  2   force =    -0.00246744    0.00081851    0.00005599
     atom   11 type  2   force =    -0.00017536   -0.00027935    0.00029688
     atom   12 type  2   force =    -0.00011884   -0.00013235   -0.00056494
     atom   13 type  1   force =    -0.00001822   -0.00006943    0.00003070
     atom   14 type  1   force =     0.00009285    0.00018920    0.00012428
     atom   15 type  2   force =     0.00030750    0.00031989   -0.00040758
     atom   16 type  2   force =     0.00028052    0.00000102   -0.00008843
     atom   17 type  2   force =     0.00017374   -0.00014046   -0.00052275
     atom   18 type  2   force =     0.00023091    0.00033792   -0.00009561
     atom   19 type  1   force =    -0.00005332    0.00013677    0.00002602
     atom   20 type  1   force =    -0.00057944    0.00011552   -0.00015966
     atom   21 type  2   force =     0.00010009    0.00000227    0.10390922
     atom   22 type  2   force =     0.00043118    0.00107481   -0.00004848
     atom   23 type  2   force =    -0.07039790   -0.00011121   -0.02693899
     atom   24 type  2   force =     0.07037421    0.00035486   -0.02698568
     atom   25 type  1   force =     0.00019588   -0.00015980    0.09277611
     atom   26 type  1   force =    -0.00009211   -0.00029583   -0.17830061
     atom   27 type  2   force =     0.00012742   -0.00023899   -0.01952848
     atom   28 type  2   force =     0.00007280   -0.00167799    0.05799502
     atom   29 type  2   force =    -0.01079922   -0.00122072    0.00799199
     atom   30 type  2   force =     0.01213980   -0.00083478    0.00703132
     atom   31 type  1   force =    -0.00034543    0.00574901   -0.01493088
     atom   32 type  1   force =     0.00039120   -0.00105902   -0.00337625
     atom   33 type  2   force =    -0.00030940    0.00005458   -0.00020529
     atom   34 type  2   force =    -0.00155554   -0.00229800    0.00038890
     atom   35 type  2   force =    -0.00008395    0.00013274   -0.00003233
     atom   36 type  2   force =     0.00009953    0.00009822    0.00012426
     atom   37 type  1   force =     0.00024431   -0.00002634    0.00002667
     atom   38 type  1   force =     0.00003729    0.00013421   -0.00009879
     atom   39 type  2   force =     0.00009868    0.00019037    0.00009945
     atom   40 type  2   force =     0.00014371    0.00000814   -0.00008390
     atom   41 type  2   force =    -0.00017377    0.00019100   -0.00009125
     atom   42 type  2   force =     0.00059380    0.00005358    0.00001076
     atom   43 type  1   force =    -0.00029392    0.00012526    0.00039218
     atom   44 type  1   force =    -0.00021231   -0.00020506    0.00003208
     atom   45 type  2   force =     0.00009451   -0.00002373    0.10384183
     atom   46 type  2   force =    -0.07039459   -0.00005047   -0.02691799
     atom   47 type  2   force =     0.07034878    0.00036648   -0.02694763
     atom   48 type  3   force =     0.00829051   -0.01623084    0.01917868
     atom   49 type  4   force =    -0.00886150    0.01693035   -0.01894856
     atom   50 type  5   force =     0.00034655   -0.00082415   -0.00012302
     atom   51 type  3   force =    -0.00119073    0.00048500   -0.00044268
     atom   52 type  5   force =     0.00020451   -0.00034166   -0.00020529
     atom   53 type  5   force =     0.00091328    0.00122550    0.00021286
     atom   54 type  5   force =     0.00016141   -0.00129971    0.00130912

     Total force =     0.367980     Total SCF correction =     0.000305
  @ DRIVER MODE: Message from server: STATUS
  @ DRIVER MODE: Message from server: GETFORCE
  @ DRIVER MODE: Returning v,forces,stress,ensemble

     Writing output data file ./calc.save/
  @ DRIVER MODE: Message from server: EXIT
  @ DRIVE MODE: Exiting

     General routines

     Parallel routines

   This run was terminated on:  15:27: 3  23Aug2021

   JOB DONE.