     Program PWSCF v.6.7GPU starts on 22Sep2021 at 22:24:41

     R & G space division:  proc/nbgrp/npool/nimage =      10
     Reading input from /storage/home/hcoda1/3/ntian30/research/carbon/CxH_vib/H2O_calc/ads_slab/CHNHHO_a/out_0020/pw.inp
Warning: card &CELL ignored
Warning: card   CELL_DYNAMICS='IPI', ignored
Warning: card / ignored

     Current dimensions of program PWSCF are:
     Max number of different atomic species (ntypx) = 10
     Max number of k-points (npk) =  40000
     Max angular momentum in pseudopotentials (lmaxx) =  3
     Presently no symmetry can be used with electric field

     Message from routine cell_base_init:
     DEPRECATED: use true lattice parameter, not A to a.u. conversion factor

     IMPORTANT: XC functional enforced from input :
     Exchange-correlation= BEEF-VDW
                           (   1   4  43  14   2   0   0)
     Any further DFT definition will be discarded
     Please, verify this is what you really want

  @ DRIVER MODE: Connecting to
 qe_1139763_2937314.sched-torque.pace.gatech.edu2c5jex_m_scratch
  using UNIX socket
  @ DRIVER MODE: Message from server: STATUS
  @ DRIVER MODE: Message from server: INIT
  @ DRIVER MODE: Receiving replica           0          -1
  @ DRIVER MODE: Receiving encoded integer          25
  @ DRIVER MODE:  SCF:  T  FORCE:  T  STRESS:  F  VC:  F  ENSEMBLE:  F
  @ DRIVER MODE:  SCF:  T  FORCE:  T  STRESS:  F  VC:  F  ENSEMBLE:  F

     Using Slab Decomposition

     bravais-lattice index     =            0
     lattice parameter (alat)  =       1.8897  a.u.
     unit-cell volume          =    6658.9804 (a.u.)^3
     number of atoms/cell      =           53
     number of atomic types    =            5
     number of electrons       =       396.00
     number of Kohn-Sham states=          208
     kinetic-energy cutoff     =      29.3995  Ry
     charge density cutoff     =     293.9946  Ry
     scf convergence threshold =      7.3E-08
     mixing beta               =       0.0500
     number of iterations used =            8  plain     mixing
     Exchange-correlation= BEEF-VDW
                           (   1   4  43  14   2   0   0)

     celldm(1)=   1.889726  celldm(2)=   0.000000  celldm(3)=   0.000000
     celldm(4)=   0.000000  celldm(5)=   0.000000  celldm(6)=   0.000000

     crystal axes: (cart. coord. in units of alat)
               a(1) = (   6.579727   0.000000   0.000000 )
               a(2) = (  -0.000775   5.961596   0.000000 )
               a(3) = (   0.000000   0.000000  25.155947 )

     reciprocal axes: (cart. coord. in units 2 pi/alat)
               b(1) = (  0.151982  0.000020  0.000000 )
               b(2) = (  0.000000  0.167740  0.000000 )
               b(3) = (  0.000000  0.000000  0.039752 )

     PseudoPot. # 1 for Ti read from file:
     /storage/coda1/p-amedford6/0/shared/rich_project_chbe-medford/medford-share/data/pseudos_module/espresso/nninc/pbe/van/Ti.UPF
     MD5 check sum: 8e4df49b7f0d34bbd5052bf3f5ea0213
     Pseudo is Ultrasoft, Zval = 12.0
     Generated by new atomic code, or converted to UPF format
     Using radial grid of  851 points,  6 beta functions with:
                l(1) =   0
                l(2) =   0
                l(3) =   1
                l(4) =   1
                l(5) =   2
                l(6) =   2
     Q(r) pseudized with  8 coefficients,  rinner =    1.000   1.000   1.000
                                                       1.000   1.000

     PseudoPot. # 2 for O  read from file:
     /storage/coda1/p-amedford6/0/shared/rich_project_chbe-medford/medford-share/data/pseudos_module/espresso/nninc/pbe/van/O.UPF
     MD5 check sum: 78c19812648e8988a0fe644b0f25305e
     Pseudo is Ultrasoft, Zval =  6.0
     Generated by new atomic code, or converted to UPF format
     Using radial grid of  737 points,  4 beta functions with:
                l(1) =   0
                l(2) =   0
                l(3) =   1
                l(4) =   1
     Q(r) pseudized with  8 coefficients,  rinner =    0.800   0.800   0.800

     PseudoPot. # 3 for N  read from file:
     /storage/coda1/p-amedford6/0/shared/rich_project_chbe-medford/medford-share/data/pseudos_module/espresso/nninc/pbe/van/N.UPF
     MD5 check sum: 90d10febe142ad51ac9d5be1deb811c4
     Pseudo is Ultrasoft, Zval =  5.0
     Generated by new atomic code, or converted to UPF format
     Using radial grid of  729 points,  4 beta functions with:
                l(1) =   0
                l(2) =   0
                l(3) =   1
                l(4) =   1
     Q(r) pseudized with  8 coefficients,  rinner =    0.800   0.800   0.800

     PseudoPot. # 4 for C  read from file:
     /storage/coda1/p-amedford6/0/shared/rich_project_chbe-medford/medford-share/data/pseudos_module/espresso/nninc/pbe/van/C.UPF
     MD5 check sum: 1a69bf6b8db32088f5b2163dbdb77a27
     Pseudo is Ultrasoft, Zval =  4.0
     Generated by new atomic code, or converted to UPF format
     Using radial grid of  721 points,  4 beta functions with:
                l(1) =   0
                l(2) =   0
                l(3) =   1
                l(4) =   1
     Q(r) pseudized with  8 coefficients,  rinner =    0.800   0.800   0.800

     PseudoPot. # 5 for H  read from file:
     /storage/coda1/p-amedford6/0/shared/rich_project_chbe-medford/medford-share/data/pseudos_module/espresso/nninc/pbe/van/H.UPF
     MD5 check sum: b5ee9d7bfd3a09ee7748110bda690ff7
     Pseudo is Ultrasoft, Zval =  1.0
     Generated by new atomic code, or converted to UPF format
     Using radial grid of  615 points,  1 beta functions with:
                l(1) =   0
     Q(r) pseudized with  8 coefficients,  rinner =    0.800

     atomic species   valence    mass     pseudopotential
        Ti1           12.00    47.86700     Ti( 1.00)
        O1             6.00    15.99900     O ( 1.00)
        N1             5.00    14.00700     N ( 1.00)
        C1             4.00    12.01100     C ( 1.00)
        H1             1.00     1.00800     H ( 1.00)

     No symmetry found

   Cartesian axes

     site n.     atom                  positions (alat units)
         1           Ti1 tau(   1) = (   0.0004258   2.9801865   6.0000000  )
         2           Ti1 tau(   2) = (   3.2906075   1.4906267   6.0002472  )
         3           O1  tau(   3) = (   0.0006271   0.0005054   7.9858123  )
         4           O1  tau(   4) = (   3.2906025   0.0005020   7.3038282  )
         5           O1  tau(   5) = (   4.5942328   1.4918067   9.2879030  )
         6           O1  tau(   6) = (   1.9868534   1.4903216   9.2879459  )
         7           Ti1 tau(   7) = (   3.2907910   2.8959150   9.1758416  )
         8           Ti1 tau(   8) = (   0.0015273   1.4827037   9.2680791  )
         9           O1  tau(   9) = (   3.2817170   5.9459930  11.3074998  )
        10           O1  tau(  10) = (   0.0116148   5.9584955  10.6183126  )
        11           O1  tau(  11) = (   1.2737360   1.4926482  12.6406718  )
        12           O1  tau(  12) = (   5.2902952   1.4950437  12.6299455  )
        13           Ti1 tau(  13) = (   6.5743562   2.8588748  12.6391164  )
        14           Ti1 tau(  14) = (   3.2840152   1.3010445  12.6757008  )
        15           O1  tau(  15) = (   6.5722207   0.0022838  14.6395268  )
        16           O1  tau(  16) = (   3.2882888   0.0547267  13.9272720  )
        17           O1  tau(  17) = (   4.5277618   1.5549090  16.0796657  )
        18           O1  tau(  18) = (   1.9889223   1.5445724  16.0964948  )
        19           Ti1 tau(  19) = (   3.2710169   3.0098750  15.6493427  )
        20           Ti1 tau(  20) = (   0.0212523   1.3583160  16.0154628  )
        21           O1  tau(  21) = (   3.2904802   0.0005063   4.7018136  )
        22           O1  tau(  22) = (   6.5278121   5.9442159  17.1408904  )
        23           O1  tau(  23) = (   1.3043587   1.4918075   6.0039043  )
        24           O1  tau(  24) = (   5.2767064   1.4903225   6.0039473  )
        25           Ti1 tau(  25) = (   0.0000382   5.9609847   6.0000000  )
        26           Ti1 tau(  26) = (   3.2902200   4.4714249   6.0002472  )
        27           O1  tau(  27) = (   0.0002396   2.9813036   7.9858123  )
        28           O1  tau(  28) = (   3.2902150   2.9813002   7.3038282  )
        29           O1  tau(  29) = (   4.5938453   4.4726049   9.2879030  )
        30           O1  tau(  30) = (   1.9864658   4.4711199   9.2879459  )
        31           Ti1 tau(  31) = (   3.2891106   5.8743827   9.1763621  )
        32           Ti1 tau(  32) = (   0.0006254   4.4649316   9.2693709  )
        33           O1  tau(  33) = (   3.2809651   3.0158959  11.2742024  )
        34           O1  tau(  34) = (   0.0092240   2.9805883  10.6323155  )
        35           O1  tau(  35) = (   1.2801966   4.4796301  12.6363892  )
        36           O1  tau(  36) = (   5.2833020   4.4787161  12.6245292  )
        37           Ti1 tau(  37) = (   6.5725262   5.8449372  12.5269696  )
        38           Ti1 tau(  38) = (   3.2830651   4.3950422  12.4122791  )
        39           O1  tau(  39) = (   6.5612936   2.9998473  14.7091997  )
        40           O1  tau(  40) = (   3.2734765   2.9867355  13.8776313  )
        41           O1  tau(  41) = (   4.5260587   4.4294304  16.0527172  )
        42           O1  tau(  42) = (   1.9919704   4.4458081  16.0639873  )
        43           Ti1 tau(  43) = (   3.3135318   0.0270965  16.3071496  )
        44           Ti1 tau(  44) = (   0.0294795   4.5257316  15.8201724  )
        45           O1  tau(  45) = (   3.2900926   2.9813045   4.7018136  )
        46           O1  tau(  46) = (   1.3039711   4.4726057   6.0039043  )
        47           O1  tau(  47) = (   5.2763189   4.4711207   6.0039473  )
        48           N1  tau(  48) = (   6.4282372   2.9740631  17.7102171  )
        49           C1  tau(  49) = (   0.6535733   3.0176064  18.7020832  )
        50           H1  tau(  50) = (   1.7291544   2.9413089  18.4820742  )
        51           H1  tau(  51) = (   5.4510488   3.0579230  17.9716058  )
        52           O1  tau(  52) = (   3.3635319   0.0010587  18.1193045  )
        53           H1  tau(  53) = (   4.1580425   0.0400832  18.6733683  )

     number of k points=    10  Fermi-Dirac smearing, width (Ry)=  0.0073
                       cart. coord. in units 2pi/alat
        k(    1) = (   0.0000000   0.0000000   0.0000000), wk =   0.1250000
        k(    2) = (   0.0000000   0.0419351   0.0000000), wk =   0.2500000
        k(    3) = (   0.0000000  -0.0838702   0.0000000), wk =   0.1250000
        k(    4) = (   0.0379955   0.0000049   0.0000000), wk =   0.2500000
        k(    5) = (   0.0379955   0.0419400   0.0000000), wk =   0.2500000
        k(    6) = (   0.0379955  -0.0838652   0.0000000), wk =   0.2500000
        k(    7) = (   0.0379955  -0.0419301   0.0000000), wk =   0.2500000
        k(    8) = (  -0.0759910  -0.0000099   0.0000000), wk =   0.1250000
        k(    9) = (  -0.0759910   0.0419252   0.0000000), wk =   0.2500000
        k(   10) = (  -0.0759910  -0.0838800   0.0000000), wk =   0.1250000

     Initial potential from superposition of free atoms

     starting charge  379.99917, renormalised to  396.00000

     negative rho (up, down):  1.778E-02 0.000E+00

     %%%%%%%%%%%%%%%%%%%%%%%%%%%%%%%%%%%%%%%%%%%%%%%%%%%%%%%%%%%%%%%%%%%%%%%%
     %                                                                      %
     % You are using vdW-DF, which was implemented by the Thonhauser group. %
     % Please cite the following two papers that made this development      %
     % possible and the two reviews that describe the various versions:     %
     %                                                                      %
     %   T. Thonhauser et al., PRL 115, 136402 (2015).                      %
     %   T. Thonhauser et al., PRB 76, 125112 (2007).                       %
     %   K. Berland et al., Rep. Prog. Phys. 78, 066501 (2015).             %
     %   D.C. Langreth et al., J. Phys.: Condens. Matter 21, 084203 (2009). %
     %                                                                      %
     %                                                                      %
     % If you are calculating the stress with vdW-DF, please also cite:     %
     %                                                                      %
     %   R. Sabatini et al., J. Phys.: Condens. Matter 24, 424209 (2012).   %
     %                                                                      %
     %%%%%%%%%%%%%%%%%%%%%%%%%%%%%%%%%%%%%%%%%%%%%%%%%%%%%%%%%%%%%%%%%%%%%%%%

     Adding external electric field

     Computed dipole along edir(3) :
        Dipole               -8.0653 Ry au,        -20.5000 Debye
        Dipole field         -0.0152 Ry au,

        Potential amp.        1.4109 Ry
        Total length         46.3494 bohr

     Starting wfcs are  299 atomic wfcs
  @ DRIVER MODE: Message from server: STATUS
  @ DRIVER MODE: Message from server: POSDATA
  @ DRIVER MODE: Reading and sharing cell
  @ DRIVER MODE: Reading and sharing positions
  @ DRIVER MODE: Received positions

     Self-consistent Calculation

     iteration #  1     ecut=    29.40 Ry     beta= 0.05
     Davidson diagonalization with overlap
     c_bands:  2 eigenvalues not converged
     c_bands:  1 eigenvalues not converged
     c_bands:  3 eigenvalues not converged
     c_bands:  2 eigenvalues not converged
     c_bands:  1 eigenvalues not converged
     c_bands:  4 eigenvalues not converged
     c_bands:  1 eigenvalues not converged
     c_bands:  1 eigenvalues not converged
     ethr =  1.00E-05,  avg # of iterations = 19.3

[...]

     total energy              =   -2618.22743374 Ry
     estimated scf accuracy    <    3681.23316014 Ry

     iteration #  2     ecut=    29.40 Ry     beta= 0.05
     Davidson diagonalization with overlap
     ethr =  1.00E-02,  avg # of iterations = 21.8

[...]

     iteration # 59     ecut=    29.40 Ry     beta= 0.05
     Davidson diagonalization with overlap
     c_bands:  1 eigenvalues not converged
     ethr =  3.75E-07,  avg # of iterations =  7.8

[...]

     total energy              =   -2951.37637534 Ry
     estimated scf accuracy    <       0.00000009 Ry

     iteration # 83     ecut=    29.40 Ry     beta= 0.05
     Davidson diagonalization with overlap
     ethr =  2.35E-11,  avg # of iterations =  1.7

     negative rho (up, down):  1.666E-02 0.000E+00

     Adding external electric field

     Computed dipole along edir(3) :
        Dipole                0.1796 Ry au,          0.4565 Debye
        Dipole field          0.0003 Ry au,

        Potential amp.       -0.0314 Ry
        Total length         46.3494 bohr

     End of self-consistent calculation

          k = 0.0000 0.0000 0.0000 ( 18029 PWs)   bands (ev):

   -56.4292 -56.3953 -56.1528 -56.1513 -56.1175 -55.9519 -55.8987 -55.8637
   -55.8579 -55.8520 -55.8168 -55.7249 -55.6740 -55.5332 -55.2800 -55.2460
   -32.8936 -32.7234 -32.7031 -32.6243 -32.5835 -32.5168 -32.4900 -32.4464
   -32.4356 -32.4228 -32.3723 -32.3691 -32.3670 -32.3630 -32.3533 -32.3117
   -32.2900 -32.2651 -32.2564 -32.1806 -32.1683 -32.1592 -32.1455 -32.1226
   -32.1082 -32.1014 -32.0999 -32.0665 -32.0649 -32.0588 -32.0366 -32.0169
   -32.0000 -31.9778 -31.9684 -31.9582 -31.9436 -31.8705 -31.8693 -31.7925
   -31.7637 -31.7450 -31.6802 -31.6082 -31.5850 -31.4986 -31.4132 -31.3011
   -16.9167 -16.8257 -16.5944 -16.4420 -16.2763 -16.1831 -16.0555 -16.0302
   -15.9406 -15.9024 -15.8166 -15.7820 -15.7428 -15.6679 -15.6111 -15.5881
   -15.5541 -15.5250 -15.5159 -15.5122 -15.5022 -15.4952 -15.4562 -15.3382
   -15.2974 -15.2461 -15.2346 -15.2203 -15.0885 -14.8305 -14.7863 -13.7775
   -13.6636  -8.2434  -4.6849  -4.2809  -4.2187  -4.1224  -3.9459  -3.8890
    -3.8313  -3.6019  -3.5578  -3.5545  -3.3589  -3.2988  -3.2042  -3.1622
    -3.1473  -3.1023  -3.0299  -3.0189  -2.9880  -2.8994  -2.8594  -2.8511
    -2.8253  -2.7802  -2.7698  -2.6899  -2.6462  -2.6239  -2.5545  -2.5059
    -2.4741  -2.4595  -2.4349  -2.4244  -2.3834  -2.3703  -2.3492  -2.2012
    -2.1848  -2.1630  -2.0854  -2.0102  -1.8558  -1.7747  -1.7631  -1.6649
    -1.5872  -1.5739  -1.5236  -1.4746  -1.3883  -1.3738  -1.3673  -1.3289
    -1.2443  -1.2236  -1.1798  -1.1281  -1.0538  -0.9650  -0.9596  -0.9090
    -0.8741  -0.8100  -0.7221  -0.6884  -0.6289  -0.5874  -0.5564  -0.4832
    -0.4339  -0.4076  -0.3847  -0.3736  -0.3130  -0.2519  -0.2049  -0.1784
    -0.1085  -0.0968  -0.0539   0.0117   0.0334   0.0407   0.1595   0.2018
     0.2147   0.2651   0.3776   0.4350   0.5208   0.5814   0.6522   0.7458
     0.7525   0.9601   1.0686   1.3001   1.3404   2.5788   2.7598   2.8815
     2.9506   3.1517   3.1987   3.2356   3.5073   3.5251   3.5331   3.6311

[...]

          k = 0.0380-0.0419 0.0000 ( 17876 PWs)   bands (ev):

[...]

          k =-0.0760-0.0000 0.0000 ( 17886 PWs)   bands (ev):

[...]

          k =-0.0760-0.0839 0.0000 ( 17948 PWs)   bands (ev):

   -56.4127 -56.4117 -56.1521 -56.1361 -56.1324 -55.9457 -55.9047 -55.8610
   -55.8588 -55.8389 -55.8299 -55.7269 -55.6721 -55.5350 -55.2635 -55.2623
   -32.7101 -32.7099 -32.7082 -32.7078 -32.5354 -32.5341 -32.4561 -32.4513
   -32.4243 -32.3814 -32.3698 -32.3440 -32.3392 -32.3282 -32.3217 -32.2858
   -32.2483 -32.2420 -32.2187 -32.1714 -32.1707 -32.1682 -32.1663 -32.1532
   -32.1306 -32.1223 -32.1217 -32.0731 -32.0696 -32.0637 -32.0618 -32.0599
   -32.0454 -32.0104 -31.9876 -31.9625 -31.9497 -31.9355 -31.8820 -31.8749
   -31.7950 -31.7486 -31.5982 -31.5974 -31.4947 -31.4933 -31.4564 -31.4555
   -16.9016 -16.2455 -16.2205 -16.1258 -16.0957 -16.0749 -16.0548 -16.0516
   -15.8945 -15.8853 -15.8718 -15.8033 -15.7523 -15.7337 -15.6971 -15.6918
   -15.6388 -15.6237 -15.6105 -15.5588 -15.5503 -15.5305 -15.5162 -15.4805
   -15.4497 -15.4219 -15.2566 -15.2019 -15.1469 -15.1198 -14.9189 -13.7666
   -13.7658  -8.2547  -4.6767  -4.1101  -3.5313  -3.4921  -3.3704  -3.3576
    -3.2318  -3.2267  -3.1489  -3.0751  -3.0747  -2.9992  -2.9852  -2.9775
    -2.9380  -2.9209  -2.9133  -2.9125  -2.8709  -2.8618  -2.8410  -2.8235
    -2.8206  -2.8047  -2.7659  -2.7248  -2.7044  -2.6915  -2.6365  -2.6232
    -2.5005  -2.4375  -2.4123  -2.4119  -2.3873  -2.3508  -2.3212  -2.3044
    -2.2751  -2.2365  -2.1588  -2.0377  -2.0170  -1.8211  -1.8036  -1.7719
    -1.7508  -1.7065  -1.7010  -1.6348  -1.5847  -1.5700  -1.5528  -1.5277
    -1.4269  -1.3760  -1.3257  -1.3231  -1.2720  -1.2517  -1.2028  -1.1014
    -1.0523  -1.0226  -0.9965  -0.9833  -0.9455  -0.9197  -0.8668  -0.8259
    -0.8214  -0.7943  -0.7511  -0.5824  -0.4119  -0.3684  -0.3470  -0.2759
    -0.2603  -0.2113  -0.0777  -0.0322  -0.0213   0.0149   0.0544   0.0849
     0.0981   0.1608   0.3440   0.3582   0.4269   0.4740   0.4801   0.5679
     0.6638   1.1246   1.1324   1.1592   1.1601   2.6060   3.3046   3.3066
     3.3084   3.3248   3.4058   3.4658   3.4748   3.5128   3.5910   3.6310

     the Fermi energy is     2.7233 ev

!    total energy              =   -2951.37637985 Ry
     estimated scf accuracy    <       0.00000007 Ry
     smearing contrib. (-TS)   =      -0.01730443 Ry
     internal energy E=F+TS    =   -2951.35907542 Ry

     The total energy is F=E-TS. E is the sum of the following terms:
     one-electron contribution =  -24273.39591344 Ry
     hartree contribution      =   12222.72770699 Ry
     xc contribution           =    -487.05352196 Ry
     ewald contribution        =    9586.36259213 Ry
     electric field correction =       0.00006086 Ry

     convergence has been achieved in  83 iterations

     Forces acting on atoms (cartesian axes, Ry/au):

     atom    1 type  1   force =     0.00006711   -0.00028660    0.10084118
     atom    2 type  1   force =    -0.00005685    0.00024945   -0.16923121
     atom    3 type  2   force =     0.00000495   -0.00004341   -0.02995549
     atom    4 type  2   force =     0.00000126   -0.00099220    0.04187777
     atom    5 type  2   force =    -0.00518551   -0.00241594   -0.00305539
     atom    6 type  2   force =     0.00633585   -0.00183321   -0.00466540
     atom    7 type  1   force =    -0.00066031   -0.00538136    0.02535455
     atom    8 type  1   force =     0.00077764    0.01605078    0.04135707
     atom    9 type  2   force =    -0.00021539    0.00023002    0.00012535
     atom   10 type  2   force =    -0.00258104    0.00083276   -0.03443554
     atom   11 type  2   force =     0.00009188    0.00003045    0.00005624
     atom   12 type  2   force =     0.00024225   -0.00035612    0.00003606
     atom   13 type  1   force =    -0.00070492   -0.00010954   -0.00009268
     atom   14 type  1   force =     0.00018229    0.00011080    0.00030537
     atom   15 type  2   force =     0.00022487    0.00009566    0.00006479
     atom   16 type  2   force =     0.00004491   -0.00013841   -0.00017603
     atom   17 type  2   force =    -0.00004488    0.00012024    0.00016629
     atom   18 type  2   force =     0.00015793   -0.00007521    0.00008044
     atom   19 type  1   force =     0.00005610    0.00021745    0.00032556
     atom   20 type  1   force =    -0.00000593    0.00026201    0.00051111
     atom   21 type  2   force =     0.00007209    0.00015342    0.10150154
     atom   22 type  2   force =    -0.00001879    0.00020834    0.00026762
     atom   23 type  2   force =    -0.07488079   -0.00008767   -0.02881501
     atom   24 type  2   force =     0.07481134    0.00036453   -0.02884525
     atom   25 type  1   force =     0.00018799   -0.00035292    0.10070486
     atom   26 type  1   force =     0.00001184   -0.00115168   -0.16944417
     atom   27 type  2   force =     0.00004535   -0.00040016   -0.02843950
     atom   28 type  2   force =     0.00000916    0.00074658    0.03785719
     atom   29 type  2   force =    -0.00387674    0.00436683   -0.00528218
     atom   30 type  2   force =     0.00495432    0.00489067   -0.00695304
     atom   31 type  1   force =    -0.00064285    0.00466091    0.01118280
     atom   32 type  1   force =     0.00089107   -0.01905267    0.04072099
     atom   33 type  2   force =     0.00044161   -0.00001904    0.00020213
     atom   34 type  2   force =    -0.00214258    0.00071226   -0.03968171
     atom   35 type  2   force =     0.00011356   -0.00048575   -0.00015477
     atom   36 type  2   force =     0.00015901   -0.00021977    0.00008834
     atom   37 type  1   force =    -0.00004454   -0.00011264    0.00012309
     atom   38 type  1   force =     0.00001595    0.00005171    0.00017894
     atom   39 type  2   force =    -0.00003345    0.00035199   -0.00024857
     atom   40 type  2   force =     0.00032325   -0.00005488    0.00016512
     atom   41 type  2   force =     0.00009603    0.00007384    0.00030254
     atom   42 type  2   force =    -0.00011075    0.00010913    0.00025207
     atom   43 type  1   force =     0.00018947   -0.00004472    0.00069532
     atom   44 type  1   force =    -0.00018642    0.00008436   -0.00060524
     atom   45 type  2   force =     0.00006706   -0.00000226    0.10129517
     atom   46 type  2   force =    -0.07492916   -0.00001370   -0.02884526
     atom   47 type  2   force =     0.07484321    0.00041463   -0.02887184
     atom   48 type  3   force =     0.01267245   -0.00112346   -0.00234659
     atom   49 type  4   force =     0.00098605    0.00006318   -0.00033762
     atom   50 type  5   force =    -0.00044226   -0.00051096    0.00020721
     atom   51 type  5   force =    -0.01271714    0.00036485    0.00299824
     atom   52 type  2   force =    -0.00020518   -0.00017976    0.00151180
     atom   53 type  5   force =     0.00060762   -0.00037278   -0.00087427

     Total force =     0.370223     Total SCF correction =     0.000742
  @ DRIVER MODE: Message from server: STATUS
  @ DRIVER MODE: Message from server: GETFORCE
  @ DRIVER MODE: Returning v,forces,stress,ensemble

     Writing output data file ./calc.save/
  @ DRIVER MODE: Message from server: EXIT
  @ DRIVE MODE: Exiting

     General routines

     Parallel routines

   This run was terminated on:  22:45:52  22Sep2021

   JOB DONE.