     Program PWSCF v.6.7GPU starts on 25Aug2021 at 12:27:53

     R & G space division:  proc/nbgrp/npool/nimage =       6
     Reading input from /storage/home/hcoda1/3/ntian30/research/carbon/CH3_vib_end_on/ads_slab/CH3N2H2_f/out_0038/pw.inp
Warning: card &CELL ignored
Warning: card   CELL_DYNAMICS='IPI', ignored
Warning: card / ignored

     Current dimensions of program PWSCF are:
     Max number of different atomic species (ntypx) = 10
     Max number of k-points (npk) =  40000
     Max angular momentum in pseudopotentials (lmaxx) =  3
     Presently no symmetry can be used with electric field

     Message from routine cell_base_init:
     DEPRECATED: use true lattice parameter, not A to a.u. conversion factor

     IMPORTANT: XC functional enforced from input :
     Exchange-correlation= BEEF-VDW
                           (   1   4  43  14   2   0   0)
     Any further DFT definition will be discarded
     Please, verify this is what you really want

  @ DRIVER MODE: Connecting to
 qe_1139763_2643870.sched-torque.pace.gatech.edugahtaimp_scratch
  using UNIX socket
  @ DRIVER MODE: Message from server: STATUS
  @ DRIVER MODE: Message from server: INIT
  @ DRIVER MODE: Receiving replica           0          -1
  @ DRIVER MODE: Receiving encoded integer          25
  @ DRIVER MODE:  SCF:  T  FORCE:  T  STRESS:  F  VC:  F  ENSEMBLE:  F
  @ DRIVER MODE:  SCF:  T  FORCE:  T  STRESS:  F  VC:  F  ENSEMBLE:  F

     Using Slab Decomposition

     bravais-lattice index     =            0
     lattice parameter (alat)  =       1.8897  a.u.
     unit-cell volume          =    6658.9804 (a.u.)^3
     number of atoms/cell      =           55
     number of atomic types    =            5
     number of electrons       =       397.00
     number of Kohn-Sham states=          208
     kinetic-energy cutoff     =      29.3995  Ry
     charge density cutoff     =     293.9946  Ry
     scf convergence threshold =      7.3E-08
     mixing beta               =       0.0500
     number of iterations used =            8  plain     mixing
     Exchange-correlation= BEEF-VDW
                           (   1   4  43  14   2   0   0)

     celldm(1)=   1.889726  celldm(2)=   0.000000  celldm(3)=   0.000000
     celldm(4)=   0.000000  celldm(5)=   0.000000  celldm(6)=   0.000000

     crystal axes: (cart. coord. in units of alat)
               a(1) = (   6.579727   0.000000   0.000000 )
               a(2) = (  -0.000775   5.961596   0.000000 )
               a(3) = (   0.000000   0.000000  25.155947 )

     reciprocal axes: (cart. coord. in units 2 pi/alat)
               b(1) = (  0.151982  0.000020  0.000000 )
               b(2) = (  0.000000  0.167740  0.000000 )
               b(3) = (  0.000000  0.000000  0.039752 )

     PseudoPot. # 1 for Ti read from file:
     /storage/coda1/p-amedford6/0/shared/rich_project_chbe-medford/medford-share/data/pseudos_module/espresso/nninc/pbe/van/Ti.UPF
     MD5 check sum: 8e4df49b7f0d34bbd5052bf3f5ea0213
     Pseudo is Ultrasoft, Zval = 12.0
     Generated by new atomic code, or converted to UPF format
     Using radial grid of  851 points,  6 beta functions with:
                l(1) =   0
                l(2) =   0
                l(3) =   1
                l(4) =   1
                l(5) =   2
                l(6) =   2
     Q(r) pseudized with  8 coefficients,  rinner =    1.000   1.000   1.000
                                                       1.000   1.000

     PseudoPot. # 2 for O  read from file:
     /storage/coda1/p-amedford6/0/shared/rich_project_chbe-medford/medford-share/data/pseudos_module/espresso/nninc/pbe/van/O.UPF
     MD5 check sum: 78c19812648e8988a0fe644b0f25305e
     Pseudo is Ultrasoft, Zval =  6.0
     Generated by new atomic code, or converted to UPF format
     Using radial grid of  737 points,  4 beta functions with:
                l(1) =   0
                l(2) =   0
                l(3) =   1
                l(4) =   1
     Q(r) pseudized with  8 coefficients,  rinner =    0.800   0.800   0.800

     PseudoPot. # 3 for N  read from file:
     /storage/coda1/p-amedford6/0/shared/rich_project_chbe-medford/medford-share/data/pseudos_module/espresso/nninc/pbe/van/N.UPF
     MD5 check sum: 90d10febe142ad51ac9d5be1deb811c4
     Pseudo is Ultrasoft, Zval =  5.0
     Generated by new atomic code, or converted to UPF format
     Using radial grid of  729 points,  4 beta functions with:
                l(1) =   0
                l(2) =   0
                l(3) =   1
                l(4) =   1
     Q(r) pseudized with  8 coefficients,  rinner =    0.800   0.800   0.800

     PseudoPot. # 4 for C  read from file:
     /storage/coda1/p-amedford6/0/shared/rich_project_chbe-medford/medford-share/data/pseudos_module/espresso/nninc/pbe/van/C.UPF
     MD5 check sum: 1a69bf6b8db32088f5b2163dbdb77a27
     Pseudo is Ultrasoft, Zval =  4.0
     Generated by new atomic code, or converted to UPF format
     Using radial grid of  721 points,  4 beta functions with:
                l(1) =   0
                l(2) =   0
                l(3) =   1
                l(4) =   1
     Q(r) pseudized with  8 coefficients,  rinner =    0.800   0.800   0.800

     PseudoPot. # 5 for H  read from file:
     /storage/coda1/p-amedford6/0/shared/rich_project_chbe-medford/medford-share/data/pseudos_module/espresso/nninc/pbe/van/H.UPF
     MD5 check sum: b5ee9d7bfd3a09ee7748110bda690ff7
     Pseudo is Ultrasoft, Zval =  1.0
     Generated by new atomic code, or converted to UPF format
     Using radial grid of  615 points,  1 beta functions with:
                l(1) =   0
     Q(r) pseudized with  8 coefficients,  rinner =    0.800

     atomic species   valence    mass     pseudopotential
        Ti1           12.00    47.86700     Ti( 1.00)
        O1             6.00    15.99900     O ( 1.00)
        N1             5.00    14.00700     N ( 1.00)
        C1             4.00    12.01100     C ( 1.00)
        H1             1.00     1.00800     H ( 1.00)

     No symmetry found

   Cartesian axes

     site n.     atom                  positions (alat units)
         1           Ti1 tau(   1) = (   0.0004258   2.9801865   6.0000000  )
         2           Ti1 tau(   2) = (   3.2906075   1.4906267   6.0002472  )
         3           O1  tau(   3) = (   0.0006271   0.0005054   7.9858123  )
         4           O1  tau(   4) = (   3.2906025   0.0005020   7.3038282  )
         5           O1  tau(   5) = (   4.5942328   1.4918067   9.2879030  )
         6           O1  tau(   6) = (   1.9868534   1.4903216   9.2879459  )
         7           Ti1 tau(   7) = (   3.2907910   2.8959150   9.1758416  )
         8           Ti1 tau(   8) = (   0.0015273   1.4827037   9.2680791  )
         9           O1  tau(   9) = (   3.2830128   5.9597860  11.3344455  )
        10           O1  tau(  10) = (   0.0116148   5.9584955  10.6183126  )
        11           O1  tau(  11) = (   1.2885291   1.4855062  12.6376555  )
        12           O1  tau(  12) = (   5.2724004   1.4911608  12.5936499  )
        13           Ti1 tau(  13) = (   0.0410009   3.0319447  12.6084003  )
        14           Ti1 tau(  14) = (   3.3739341   1.4916561  12.4823474  )
        15           O1  tau(  15) = (   6.4862162   0.0153916  14.6455093  )
        16           O1  tau(  16) = (   3.3439542   5.9611638  13.9051029  )
        17           O1  tau(  17) = (   4.4933269   1.5483200  16.1231154  )
        18           O1  tau(  18) = (   1.9964937   1.4536654  15.9127221  )
        19           Ti1 tau(  19) = (   3.1412959   3.0017366  15.7441667  )
        20           Ti1 tau(  20) = (   6.4823597   1.5369342  15.8006069  )
        21           O1  tau(  21) = (   3.2904802   0.0005063   4.7018136  )
        22           O1  tau(  22) = (   6.5709111   0.0522475  17.2082838  )
        23           O1  tau(  23) = (   1.3043587   1.4918075   6.0039043  )
        24           O1  tau(  24) = (   5.2767064   1.4903225   6.0039473  )
        25           Ti1 tau(  25) = (   0.0000382   5.9609847   6.0000000  )
        26           Ti1 tau(  26) = (   3.2902200   4.4714249   6.0002472  )
        27           O1  tau(  27) = (   0.0002396   2.9813036   7.9858123  )
        28           O1  tau(  28) = (   3.2902150   2.9813002   7.3038282  )
        29           O1  tau(  29) = (   4.5938453   4.4726049   9.2879030  )
        30           O1  tau(  30) = (   1.9864658   4.4711199   9.2879459  )
        31           Ti1 tau(  31) = (   3.2891106   5.8743827   9.1763621  )
        32           Ti1 tau(  32) = (   0.0006254   4.4649316   9.2693709  )
        33           O1  tau(  33) = (   3.2833609   2.9822938  11.3349093  )
        34           O1  tau(  34) = (   0.0092240   2.9805883  10.6323155  )
        35           O1  tau(  35) = (   1.2838611   4.4860338  12.6468719  )
        36           O1  tau(  36) = (   5.2760156   4.4607002  12.6015494  )
        37           Ti1 tau(  37) = (   0.0673138   0.0440259  12.5461749  )
        38           Ti1 tau(  38) = (   3.3712377   4.4654930  12.4933830  )
        39           O1  tau(  39) = (   6.5217465   2.9589972  14.6412948  )
        40           O1  tau(  40) = (   3.2809526   2.9956502  13.9333893  )
        41           O1  tau(  41) = (   4.4911989   4.4583117  16.1637052  )
        42           O1  tau(  42) = (   1.9937212   4.5427850  15.9740970  )
        43           Ti1 tau(  43) = (   3.2955853   0.0167752  15.6963065  )
        44           Ti1 tau(  44) = (   6.5082246   4.6715011  16.1069148  )
        45           O1  tau(  45) = (   3.2900926   2.9813045   4.7018136  )
        46           O1  tau(  46) = (   1.3039711   4.4726057   6.0039043  )
        47           O1  tau(  47) = (   5.2763189   4.4711207   6.0039473  )
        48           N1  tau(  48) = (   1.3945086   2.8365607  18.1849301  )
        49           N1  tau(  49) = (   0.1777896   2.9650562  17.4211889  )
        50           C1  tau(  50) = (   1.4118813   3.7128676  19.3556819  )
        51           H1  tau(  51) = (   0.5171711   3.5996102  19.9880000  )
        52           H1  tau(  52) = (   2.2935099   3.4681107  19.9517681  )
        53           H1  tau(  53) = (   1.4703795   4.7520035  19.0319817  )
        54           H1  tau(  54) = (   1.4679882   1.8621926  18.4823179  )
        55           H1  tau(  55) = (   5.9558665   2.8747675  18.0551794  )

     number of k points=    10  Fermi-Dirac smearing, width (Ry)=  0.0073
                       cart. coord. in units 2pi/alat
        k(    1) = (   0.0000000   0.0000000   0.0000000), wk =   0.1250000
        k(    2) = (   0.0000000   0.0419351   0.0000000), wk =   0.2500000
        k(    3) = (   0.0000000  -0.0838702   0.0000000), wk =   0.1250000
        k(    4) = (   0.0379955   0.0000049   0.0000000), wk =   0.2500000
        k(    5) = (   0.0379955   0.0419400   0.0000000), wk =   0.2500000
        k(    6) = (   0.0379955  -0.0838652   0.0000000), wk =   0.2500000
        k(    7) = (   0.0379955  -0.0419301   0.0000000), wk =   0.2500000
        k(    8) = (  -0.0759910  -0.0000099   0.0000000), wk =   0.1250000
        k(    9) = (  -0.0759910   0.0419252   0.0000000), wk =   0.2500000
        k(   10) = (  -0.0759910  -0.0838800   0.0000000), wk =   0.1250000

     Initial potential from superposition of free atoms

     starting charge  380.99914, renormalised to  397.00000

     negative rho (up, down):  1.540E-02 0.000E+00

     %%%%%%%%%%%%%%%%%%%%%%%%%%%%%%%%%%%%%%%%%%%%%%%%%%%%%%%%%%%%%%%%%%%%%%%%
     %                                                                      %
     % You are using vdW-DF, which was implemented by the Thonhauser group. %
     % Please cite the following two papers that made this development      %
     % possible and the two reviews that describe the various versions:     %
     %                                                                      %
     %   T. Thonhauser et al., PRL 115, 136402 (2015).                      %
     %   T. Thonhauser et al., PRB 76, 125112 (2007).                       %
     %   K. Berland et al., Rep. Prog. Phys. 78, 066501 (2015).             %
     %   D.C. Langreth et al., J. Phys.: Condens. Matter 21, 084203 (2009). %
     %                                                                      %
     %                                                                      %
     % If you are calculating the stress with vdW-DF, please also cite:     %
     %                                                                      %
     %   R. Sabatini et al., J. Phys.: Condens. Matter 24, 424209 (2012).   %
     %                                                                      %
     %%%%%%%%%%%%%%%%%%%%%%%%%%%%%%%%%%%%%%%%%%%%%%%%%%%%%%%%%%%%%%%%%%%%%%%%

     Adding external electric field

     Computed dipole along edir(3) :
        Dipole               -9.6180 Ry au,        -24.4465 Debye
        Dipole field         -0.0182 Ry au,

        Potential amp.        1.6825 Ry
        Total length         46.3494 bohr

     Starting wfcs are  301 atomic wfcs
  @ DRIVER MODE: Message from server: STATUS
  @ DRIVER MODE: Message from server: POSDATA
  @ DRIVER MODE: Reading and sharing cell
  @ DRIVER MODE: Reading and sharing positions
  @ DRIVER MODE: Received positions

     Self-consistent Calculation

     iteration #  1     ecut=    29.40 Ry     beta= 0.05
     Davidson diagonalization with overlap
     c_bands:  1 eigenvalues not converged
     c_bands:  1 eigenvalues not converged
     c_bands:  1 eigenvalues not converged
     c_bands:  1 eigenvalues not converged
     c_bands:  1 eigenvalues not converged
     c_bands:  1 eigenvalues not converged
     c_bands:  2 eigenvalues not converged
     ethr =  1.00E-05,  avg # of iterations = 18.8

[...]

     total energy              =   -2533.49530432 Ry
     estimated scf accuracy    <    4540.23238872 Ry

     iteration #  2     ecut=    29.40 Ry     beta= 0.05
     Davidson diagonalization with overlap
     ethr =  1.00E-02,  avg # of iterations = 24.9

[...]

     iteration # 51     ecut=    29.40 Ry     beta= 0.05
     Davidson diagonalization with overlap
     c_bands:  1 eigenvalues not converged
     c_bands:  1 eigenvalues not converged
     c_bands:  1 eigenvalues not converged
     ethr =  3.11E-07,  avg # of iterations = 16.0

[...]

     total energy              =   -2941.66156292 Ry
     estimated scf accuracy    <       0.00000024 Ry

     iteration # 68     ecut=    29.40 Ry     beta= 0.05
     Davidson diagonalization with overlap
     ethr =  4.68E-11,  avg # of iterations = 11.1

     negative rho (up, down):  1.607E-02 0.000E+00

     Adding external electric field

     Computed dipole along edir(3) :
        Dipole                0.9415 Ry au,          2.3930 Debye
        Dipole field          0.0018 Ry au,

        Potential amp.       -0.1647 Ry
        Total length         46.3494 bohr

     End of self-consistent calculation

          k = 0.0000 0.0000 0.0000 ( 18029 PWs)   bands (ev):

   -55.6870 -55.6703 -55.6529 -55.6337 -55.5933 -55.5392 -55.5318 -55.5016
   -55.4957 -55.4676 -55.4656 -55.4315 -55.2596 -55.0354 -54.6677 -54.6337
   -32.2213 -32.1700 -32.0437 -32.0333 -32.0000 -31.9855 -31.9799 -31.9560
   -31.9311 -31.8994 -31.8974 -31.8909 -31.8478 -31.8393 -31.8260 -31.8240
   -31.8074 -31.7919 -31.7833 -31.7482 -31.7442 -31.7374 -31.7222 -31.7186
   -31.6953 -31.6908 -31.6882 -31.6805 -31.6662 -31.6643 -31.6569 -31.6473
   -31.6417 -31.6321 -31.6186 -31.6092 -31.5778 -31.5099 -31.4661 -31.3015
   -31.2922 -31.2381 -31.0749 -30.9863 -30.9639 -30.8917 -30.8052 -30.6941
   -16.7663 -16.4177 -16.1630 -15.9336 -15.8426 -15.8122 -15.6599 -15.5281
   -15.4187 -15.3371 -15.2523 -15.2331 -15.2258 -15.2153 -15.1890 -15.1834
   -15.1360 -15.1317 -15.1121 -15.0992 -15.0489 -15.0325 -15.0289 -14.9343
   -14.8705 -14.8352 -14.8203 -14.7856 -14.7482 -14.3338 -13.1700 -13.0535
   -11.8103  -8.9793  -5.4342  -4.3636  -3.8400  -3.7892  -3.6452  -3.5946
    -3.5344  -3.4960  -3.3179  -3.2155  -2.9427  -2.8856  -2.8562  -2.8470
    -2.7900  -2.7586  -2.6019  -2.5760  -2.5050  -2.4957  -2.4808  -2.4518
    -2.4433  -2.4365  -2.3983  -2.3765  -2.3482  -2.2437  -2.1046  -2.0952
    -2.0721  -2.0387  -2.0010  -1.9525  -1.9361  -1.9159  -1.8975  -1.8852
    -1.8723  -1.7374  -1.7023  -1.5862  -1.4965  -1.4495  -1.3695  -1.2993
    -1.2697  -1.1587  -1.1187  -1.1063  -1.0923  -1.0813  -0.9817  -0.8761
    -0.8589  -0.8211  -0.7659  -0.7100  -0.6394  -0.5945  -0.5438  -0.4913
    -0.4672  -0.4517  -0.4490  -0.4138  -0.3227  -0.1811  -0.1291  -0.0947
    -0.0725   0.0040   0.0393   0.0953   0.1194   0.1432   0.1791   0.2321
     0.2756   0.2822   0.2956   0.3101   0.3148   0.4892   0.5386   0.5804
     0.6135   0.6598   0.8209   0.8432   0.9648   1.0390   1.1988   1.2801
     1.3546   1.4327   1.5464   1.6297   1.9259   1.9717   3.4436   3.5310
     3.5758   3.5895   3.6849   3.7263   3.8964   3.9268   3.9412   4.0012

[...]

          k = 0.0380-0.0419 0.0000 ( 17876 PWs)   bands (ev):

[...]

          k =-0.0760-0.0000 0.0000 ( 17886 PWs)   bands (ev):

[...]

          k =-0.0760-0.0839 0.0000 ( 17948 PWs)   bands (ev):

   -55.6703 -55.6696 -55.6556 -55.6482 -55.5872 -55.5451 -55.5192 -55.5083
   -55.4851 -55.4836 -55.4515 -55.4458 -55.2585 -55.0364 -54.6506 -54.6506
   -32.0304 -32.0207 -31.9856 -31.9850 -31.9656 -31.9649 -31.9452 -31.9386
   -31.8858 -31.8851 -31.8748 -31.8697 -31.8528 -31.8351 -31.8100 -31.8053
   -31.8009 -31.7973 -31.7909 -31.7905 -31.7892 -31.7889 -31.7851 -31.7460
   -31.7372 -31.7257 -31.7175 -31.7063 -31.6855 -31.6846 -31.6825 -31.6758
   -31.6658 -31.6618 -31.6586 -31.6561 -31.6155 -31.5123 -31.4628 -31.3638
   -31.2943 -31.2641 -30.9767 -30.9766 -30.8877 -30.8876 -30.8485 -30.8484
   -16.7398 -15.8651 -15.8040 -15.6460 -15.6108 -15.5913 -15.5564 -15.4957
   -15.4125 -15.3853 -15.3806 -15.3338 -15.3081 -15.2752 -15.2370 -15.2225
   -15.2154 -15.1966 -15.1844 -15.1503 -15.1408 -15.1291 -15.1219 -15.0466
   -15.0088 -15.0045 -14.9992 -14.8955 -14.7691 -14.5014 -13.1553 -13.1552
   -11.8167  -8.9937  -5.4481  -4.3506  -3.7640  -3.1579  -3.0709  -2.8960
    -2.8405  -2.8117  -2.7957  -2.6296  -2.6185  -2.6040  -2.5564  -2.5365
    -2.5262  -2.5177  -2.5091  -2.4880  -2.4752  -2.4408  -2.4308  -2.3954
    -2.3812  -2.3633  -2.3464  -2.3296  -2.3097  -2.2956  -2.2796  -2.2382
    -2.2187  -2.2080  -2.1870  -2.1436  -1.9329  -1.8829  -1.8376  -1.8337
    -1.8224  -1.8031  -1.7481  -1.7430  -1.7095  -1.6583  -1.5796  -1.4346
    -1.3891  -1.3726  -1.2796  -1.2580  -1.2054  -1.1333  -1.0875  -1.0705
    -1.0360  -0.9716  -0.9354  -0.8980  -0.8316  -0.8068  -0.8008  -0.7073
    -0.6864  -0.6502  -0.6435  -0.5651  -0.5140  -0.4514  -0.4361  -0.4197
    -0.3881  -0.3546  -0.3366  -0.2690  -0.1766  -0.1755  -0.1532  -0.0433
     0.0471   0.2756   0.3383   0.3753   0.4202   0.5139   0.5821   0.6069
     0.6230   0.6444   0.6639   0.7122   0.8392   0.8492   0.8834   0.9963
     1.0973   1.6468   1.7182   1.7190   1.7915   1.7916   3.7449   3.7632
     3.7839   3.8302   3.9495   3.9565   3.9787   3.9808   4.1034   4.1165

     the Fermi energy is     3.4451 ev

!    total energy              =   -2941.66158638 Ry
     estimated scf accuracy    <       0.00000005 Ry
     smearing contrib. (-TS)   =      -0.02152261 Ry
     internal energy E=F+TS    =   -2941.64006376 Ry

     The total energy is F=E-TS. E is the sum of the following terms:
     one-electron contribution =  -24275.99589480 Ry
     hartree contribution      =   12228.44613552 Ry
     xc contribution           =    -486.87214462 Ry
     ewald contribution        =    9592.78016745 Ry
     electric field correction =       0.00167268 Ry

     convergence has been achieved in  68 iterations

     Forces acting on atoms (cartesian axes, Ry/au):

     atom    1 type  1   force =     0.00018017   -0.00011695    0.09635646
     atom    2 type  1   force =    -0.00021773   -0.00063766   -0.17552289
     atom    3 type  2   force =    -0.00004311   -0.00003496   -0.02418144
     atom    4 type  2   force =     0.00005044   -0.00143858    0.05290775
     atom    5 type  2   force =    -0.01180940   -0.00048955    0.00396518
     atom    6 type  2   force =     0.01312237    0.00023774    0.00230235
     atom    7 type  1   force =    -0.00140329    0.00080374   -0.01149214
     atom    8 type  1   force =     0.00053479    0.00920602    0.02521876
     atom    9 type  2   force =    -0.00010824    0.00017667    0.00039901
     atom   10 type  2   force =    -0.00086395    0.00148582   -0.01580563
     atom   11 type  2   force =    -0.00020067   -0.00049704    0.00039604
     atom   12 type  2   force =    -0.00013007   -0.00026225    0.00003093
     atom   13 type  1   force =     0.00054559   -0.00091675    0.00005198
     atom   14 type  1   force =    -0.00008282   -0.00040177    0.00022607
     atom   15 type  2   force =     0.00018098    0.00004865   -0.00026883
     atom   16 type  2   force =     0.00006890    0.00025347    0.00008068
     atom   17 type  2   force =    -0.00052722    0.00035091    0.00049739
     atom   18 type  2   force =     0.00011606    0.00010756    0.00033052
     atom   19 type  1   force =     0.00008232   -0.00047028    0.00023290
     atom   20 type  1   force =     0.00015714    0.00027042    0.00062253
     atom   21 type  2   force =     0.00007416   -0.00008095    0.10319543
     atom   22 type  2   force =    -0.00045441   -0.00033305    0.00012543
     atom   23 type  2   force =    -0.07146170   -0.00018082   -0.02770819
     atom   24 type  2   force =     0.07138579    0.00025233   -0.02770782
     atom   25 type  1   force =     0.00003275   -0.00027389    0.09581206
     atom   26 type  1   force =    -0.00014841   -0.00022826   -0.17569332
     atom   27 type  2   force =     0.00009318   -0.00012483   -0.02328584
     atom   28 type  2   force =     0.00007887   -0.00129543    0.05333589
     atom   29 type  2   force =    -0.01193970   -0.00005516    0.00376130
     atom   30 type  2   force =     0.01319011    0.00043201    0.00213825
     atom   31 type  1   force =    -0.00141702    0.00344774   -0.01082238
     atom   32 type  1   force =     0.00064344   -0.01009781    0.02563258
     atom   33 type  2   force =    -0.00038979    0.00004833    0.00005998
     atom   34 type  2   force =     0.00074875    0.00090272   -0.02307190
     atom   35 type  2   force =    -0.00011761    0.00029380   -0.00002226
     atom   36 type  2   force =    -0.00021982    0.00059639   -0.00028605
     atom   37 type  1   force =    -0.00082442   -0.00102247   -0.00015755
     atom   38 type  1   force =    -0.00002642   -0.00010288   -0.00004966
     atom   39 type  2   force =    -0.00035261    0.00001121    0.00059248
     atom   40 type  2   force =     0.00048176    0.00024315    0.00027615
     atom   41 type  2   force =     0.00005830    0.00050074    0.00028172
     atom   42 type  2   force =     0.00009713    0.00033118   -0.00023480
     atom   43 type  1   force =     0.00020040    0.00002730   -0.00023672
     atom   44 type  1   force =    -0.00021713   -0.00048644    0.00002235
     atom   45 type  2   force =     0.00007008   -0.00008826    0.10322960
     atom   46 type  2   force =    -0.07146403   -0.00016866   -0.02770483
     atom   47 type  2   force =     0.07139133    0.00030363   -0.02771968
     atom   48 type  3   force =     0.00034229    0.00024663    0.00015131
     atom   49 type  3   force =     0.00124654   -0.00138470    0.00124009
     atom   50 type  4   force =     0.00070222   -0.00009196    0.00076354
     atom   51 type  5   force =     0.00113253    0.00036063   -0.00060075
     atom   52 type  5   force =    -0.00029202    0.00073608   -0.00066259
     atom   53 type  5   force =    -0.00027177   -0.00161162    0.00058577
     atom   54 type  5   force =    -0.00176078    0.00154021   -0.00145914
     atom   55 type  5   force =    -0.00026425   -0.00032211   -0.00012809

     Total force =     0.367327     Total SCF correction =     0.000478
  @ DRIVER MODE: Message from server: STATUS
  @ DRIVER MODE: Message from server: GETFORCE
  @ DRIVER MODE: Returning v,forces,stress,ensemble

     Writing output data file ./calc.save/
  @ DRIVER MODE: Message from server: EXIT
  @ DRIVE MODE: Exiting

     General routines

     Parallel routines

   This run was terminated on:  12:58:30  25Aug2021

   JOB DONE.