     Program PWSCF v.6.7GPU starts on 26Sep2021 at 14:42:23

     R & G space division:  proc/nbgrp/npool/nimage =       8
     Reading input from /storage/home/hcoda1/3/ntian30/research/carbon/CxH_vib/H2O_calc/ads_slab/CH3ON2H2O_a/out_0048/pw.inp
Warning: card &CELL ignored
Warning: card   CELL_DYNAMICS='IPI', ignored
Warning: card / ignored

     Current dimensions of program PWSCF are:
     Max number of different atomic species (ntypx) = 10
     Max number of k-points (npk) =  40000
     Max angular momentum in pseudopotentials (lmaxx) =  3
     Presently no symmetry can be used with electric field

     Message from routine cell_base_init:
     DEPRECATED: use true lattice parameter, not A to a.u. conversion factor

     IMPORTANT: XC functional enforced from input :
     Exchange-correlation= BEEF-VDW
                           (   1   4  43  14   2   0   0)
     Any further DFT definition will be discarded
     Please, verify this is what you really want

  @ DRIVER MODE: Connecting to
 qe_1139763_2971672.sched-torque.pace.gatech.edukb923oi0_scratch
  using UNIX socket
  @ DRIVER MODE: Message from server: STATUS
  @ DRIVER MODE: Message from server: INIT
  @ DRIVER MODE: Receiving replica           0          -1
  @ DRIVER MODE: Receiving encoded integer          25
  @ DRIVER MODE:  SCF:  T  FORCE:  T  STRESS:  F  VC:  F  ENSEMBLE:  F
  @ DRIVER MODE:  SCF:  T  FORCE:  T  STRESS:  F  VC:  F  ENSEMBLE:  F

     Using Slab Decomposition

     bravais-lattice index     =            0
     lattice parameter (alat)  =       1.8897  a.u.
     unit-cell volume          =    6658.9804 (a.u.)^3
     number of atoms/cell      =           57
     number of atomic types    =            5
     number of electrons       =       409.00
     number of Kohn-Sham states=          214
     kinetic-energy cutoff     =      29.3995  Ry
     charge density cutoff     =     293.9946  Ry
     scf convergence threshold =      7.3E-08
     mixing beta               =       0.0500
     number of iterations used =            8  plain     mixing
     Exchange-correlation= BEEF-VDW
                           (   1   4  43  14   2   0   0)

     celldm(1)=   1.889726  celldm(2)=   0.000000  celldm(3)=   0.000000
     celldm(4)=   0.000000  celldm(5)=   0.000000  celldm(6)=   0.000000

     crystal axes: (cart. coord. in units of alat)
               a(1) = (   6.579727   0.000000   0.000000 )
               a(2) = (  -0.000775   5.961596   0.000000 )
               a(3) = (   0.000000   0.000000  25.155947 )

     reciprocal axes: (cart. coord. in units 2 pi/alat)
               b(1) = (  0.151982  0.000020  0.000000 )
               b(2) = (  0.000000  0.167740  0.000000 )
               b(3) = (  0.000000  0.000000  0.039752 )

     PseudoPot. # 1 for Ti read from file:
     /storage/coda1/p-amedford6/0/shared/rich_project_chbe-medford/medford-share/data/pseudos_module/espresso/nninc/pbe/van/Ti.UPF
     MD5 check sum: 8e4df49b7f0d34bbd5052bf3f5ea0213
     Pseudo is Ultrasoft, Zval = 12.0
     Generated by new atomic code, or converted to UPF format
     Using radial grid of  851 points,  6 beta functions with:
                l(1) =   0
                l(2) =   0
                l(3) =   1
                l(4) =   1
                l(5) =   2
                l(6) =   2
     Q(r) pseudized with  8 coefficients,  rinner =    1.000   1.000   1.000
                                                       1.000   1.000

     PseudoPot. # 2 for O  read from file:
     /storage/coda1/p-amedford6/0/shared/rich_project_chbe-medford/medford-share/data/pseudos_module/espresso/nninc/pbe/van/O.UPF
     MD5 check sum: 78c19812648e8988a0fe644b0f25305e
     Pseudo is Ultrasoft, Zval =  6.0
     Generated by new atomic code, or converted to UPF format
     Using radial grid of  737 points,  4 beta functions with:
                l(1) =   0
                l(2) =   0
                l(3) =   1
                l(4) =   1
     Q(r) pseudized with  8 coefficients,  rinner =    0.800   0.800   0.800

     PseudoPot. # 3 for C  read from file:
     /storage/coda1/p-amedford6/0/shared/rich_project_chbe-medford/medford-share/data/pseudos_module/espresso/nninc/pbe/van/C.UPF
     MD5 check sum: 1a69bf6b8db32088f5b2163dbdb77a27
     Pseudo is Ultrasoft, Zval =  4.0
     Generated by new atomic code, or converted to UPF format
     Using radial grid of  721 points,  4 beta functions with:
                l(1) =   0
                l(2) =   0
                l(3) =   1
                l(4) =   1
     Q(r) pseudized with  8 coefficients,  rinner =    0.800   0.800   0.800

     PseudoPot. # 4 for H  read from file:
     /storage/coda1/p-amedford6/0/shared/rich_project_chbe-medford/medford-share/data/pseudos_module/espresso/nninc/pbe/van/H.UPF
     MD5 check sum: b5ee9d7bfd3a09ee7748110bda690ff7
     Pseudo is Ultrasoft, Zval =  1.0
     Generated by new atomic code, or converted to UPF format
     Using radial grid of  615 points,  1 beta functions with:
                l(1) =   0
     Q(r) pseudized with  8 coefficients,  rinner =    0.800

     PseudoPot. # 5 for N  read from file:
     /storage/coda1/p-amedford6/0/shared/rich_project_chbe-medford/medford-share/data/pseudos_module/espresso/nninc/pbe/van/N.UPF
     MD5 check sum: 90d10febe142ad51ac9d5be1deb811c4
     Pseudo is Ultrasoft, Zval =  5.0
     Generated by new atomic code, or converted to UPF format
     Using radial grid of  729 points,  4 beta functions with:
                l(1) =   0
                l(2) =   0
                l(3) =   1
                l(4) =   1
     Q(r) pseudized with  8 coefficients,  rinner =    0.800   0.800   0.800

     atomic species   valence    mass     pseudopotential
        Ti1           12.00    47.86700     Ti( 1.00)
        O1             6.00    15.99900     O ( 1.00)
        C1             4.00    12.01100     C ( 1.00)
        H1             1.00     1.00800     H ( 1.00)
        N1             5.00    14.00700     N ( 1.00)

     No symmetry found

   Cartesian axes

     site n.     atom                  positions (alat units)
         1           Ti1 tau(   1) = (   0.0004258   2.9801865   6.0000000  )
         2           Ti1 tau(   2) = (   3.2906075   1.4906267   6.0002472  )
         3           O1  tau(   3) = (   0.0006271   0.0005054   7.9858123  )
         4           O1  tau(   4) = (   3.2906025   0.0005020   7.3038282  )
         5           O1  tau(   5) = (   4.5942328   1.4918067   9.2879030  )
         6           O1  tau(   6) = (   1.9868534   1.4903216   9.2879459  )
         7           Ti1 tau(   7) = (   3.3113259   3.0354369   9.1618307  )
         8           Ti1 tau(   8) = (   0.0141821   1.6139659   9.3625064  )
         9           O1  tau(   9) = (   3.2964399   0.0287090  11.3517035  )
        10           O1  tau(  10) = (   0.0046459   0.0167322  10.6079620  )
        11           O1  tau(  11) = (   1.2916403   1.5142126  12.6509924  )
        12           O1  tau(  12) = (   5.2954765   1.5212855  12.6445515  )
        13           Ti1 tau(  13) = (   0.0303381   3.0181167  12.7741416  )
        14           Ti1 tau(  14) = (   3.3376880   1.5190318  12.5019279  )
        15           O1  tau(  15) = (   6.5702980   0.0162101  14.7136675  )
        16           O1  tau(  16) = (   3.3118210   0.0215951  13.9605728  )
        17           O1  tau(  17) = (   4.5586303   1.5408398  16.0643691  )
        18           O1  tau(  18) = (   2.0376984   1.5397913  16.0346728  )
        19           Ti1 tau(  19) = (   3.2806018   3.0126274  15.6982083  )
        20           Ti1 tau(  20) = (   0.0204579   1.3876160  16.0921805  )
        21           O1  tau(  21) = (   3.2904802   0.0005063   4.7018136  )
        22           O1  tau(  22) = (   0.0362274   0.0182013  17.2505027  )
        23           O1  tau(  23) = (   1.3043587   1.4918075   6.0039043  )
        24           O1  tau(  24) = (   5.2767064   1.4903225   6.0039473  )
        25           Ti1 tau(  25) = (   0.0000382   5.9609847   6.0000000  )
        26           Ti1 tau(  26) = (   3.2902200   4.4714249   6.0002472  )
        27           O1  tau(  27) = (   0.0002396   2.9813036   7.9858123  )
        28           O1  tau(  28) = (   3.2902150   2.9813002   7.3038282  )
        29           O1  tau(  29) = (   4.5938453   4.4726049   9.2879030  )
        30           O1  tau(  30) = (   1.9864658   4.4711199   9.2879459  )
        31           Ti1 tau(  31) = (   3.2918133   0.0584897   9.1554610  )
        32           Ti1 tau(  32) = (   0.0176696   4.5429683   9.2683582  )
        33           O1  tau(  33) = (   3.2944385   3.0046939  11.3531965  )
        34           O1  tau(  34) = (   0.0071923   2.9964285  10.5824339  )
        35           O1  tau(  35) = (   1.2923070   4.5060354  12.6395470  )
        36           O1  tau(  36) = (   5.2930342   4.4972821  12.6335129  )
        37           Ti1 tau(  37) = (   0.0360028   0.0369787  12.5252624  )
        38           Ti1 tau(  38) = (   3.3378333   4.5109478  12.5016189  )
        39           O1  tau(  39) = (   0.0182598   3.0415135  14.6926035  )
        40           O1  tau(  40) = (   3.2973286   3.0139918  13.9115332  )
        41           O1  tau(  41) = (   4.5518717   4.4752506  16.0920674  )
        42           O1  tau(  42) = (   2.0385343   4.4722040  16.0556704  )
        43           Ti1 tau(  43) = (   3.3273276   0.0437280  15.7880462  )
        44           Ti1 tau(  44) = (   0.0148993   4.5306414  15.9319406  )
        45           O1  tau(  45) = (   3.2900926   2.9813045   4.7018136  )
        46           O1  tau(  46) = (   1.3039711   4.4726057   6.0039043  )
        47           O1  tau(  47) = (   5.2763189   4.4711207   6.0039473  )
        48           C1  tau(  48) = (   6.0619278   3.0088867  18.6555636  )
        49           O1  tau(  49) = (   6.5788924   2.9994598  17.3400993  )
        50           H1  tau(  50) = (   4.9713474   2.8828304  18.6515055  )
        51           H1  tau(  51) = (   6.4909130   2.1836263  19.2313859  )
        52           H1  tau(  52) = (   6.3070107   3.9563896  19.1453893  )
        53           N1  tau(  53) = (   5.9950546   3.0301018  22.7159517  )
        54           N1  tau(  54) = (   5.2276613   3.1827328  21.9368001  )
        55           O1  tau(  55) = (   3.1818816   0.0591848  18.2305797  )
        56           H1  tau(  56) = (   3.8437189   5.3938241  18.5518935  )
        57           H1  tau(  57) = (   2.3086839   5.6188137  18.3735615  )

     number of k points=    10  Fermi-Dirac smearing, width (Ry)=  0.0073
                       cart. coord. in units 2pi/alat
        k(    1) = (   0.0000000   0.0000000   0.0000000), wk =   0.1250000
        k(    2) = (   0.0000000   0.0419351   0.0000000), wk =   0.2500000
        k(    3) = (   0.0000000  -0.0838702   0.0000000), wk =   0.1250000
        k(    4) = (   0.0379955   0.0000049   0.0000000), wk =   0.2500000
        k(    5) = (   0.0379955   0.0419400   0.0000000), wk =   0.2500000
        k(    6) = (   0.0379955  -0.0838652   0.0000000), wk =   0.2500000
        k(    7) = (   0.0379955  -0.0419301   0.0000000), wk =   0.2500000
        k(    8) = (  -0.0759910  -0.0000099   0.0000000), wk =   0.1250000
        k(    9) = (  -0.0759910   0.0419252   0.0000000), wk =   0.2500000
        k(   10) = (  -0.0759910  -0.0838800   0.0000000), wk =   0.1250000

     Initial potential from superposition of free atoms

     starting charge  392.99914, renormalised to  409.00000

     negative rho (up, down):  9.752E-03 0.000E+00

     %%%%%%%%%%%%%%%%%%%%%%%%%%%%%%%%%%%%%%%%%%%%%%%%%%%%%%%%%%%%%%%%%%%%%%%%
     %                                                                      %
     % You are using vdW-DF, which was implemented by the Thonhauser group. %
     % Please cite the following two papers that made this development      %
     % possible and the two reviews that describe the various versions:     %
     %                                                                      %
     %   T. Thonhauser et al., PRL 115, 136402 (2015).                      %
     %   T. Thonhauser et al., PRB 76, 125112 (2007).                       %
     %   K. Berland et al., Rep. Prog. Phys. 78, 066501 (2015).             %
     %   D.C. Langreth et al., J. Phys.: Condens. Matter 21, 084203 (2009). %
     %                                                                      %
     %                                                                      %
     % If you are calculating the stress with vdW-DF, please also cite:     %
     %                                                                      %
     %   R. Sabatini et al., J. Phys.: Condens. Matter 24, 424209 (2012).   %
     %                                                                      %
     %%%%%%%%%%%%%%%%%%%%%%%%%%%%%%%%%%%%%%%%%%%%%%%%%%%%%%%%%%%%%%%%%%%%%%%%

     Adding external electric field

     Computed dipole along edir(3) :
        Dipole              -18.5761 Ry au,        -47.2158 Debye
        Dipole field         -0.0351 Ry au,

        Potential amp.        3.2496 Ry
        Total length         46.3494 bohr

     Starting wfcs are  309 atomic wfcs
  @ DRIVER MODE: Message from server: STATUS
  @ DRIVER MODE: Message from server: POSDATA
  @ DRIVER MODE: Reading and sharing cell
  @ DRIVER MODE: Reading and sharing positions
  @ DRIVER MODE: Received positions

     Self-consistent Calculation

     iteration #  1     ecut=    29.40 Ry     beta= 0.05
     Davidson diagonalization with overlap
     c_bands:  3 eigenvalues not converged
     c_bands:  2 eigenvalues not converged
     c_bands:  2 eigenvalues not converged
     c_bands:  5 eigenvalues not converged
     c_bands:  5 eigenvalues not converged
     c_bands:  5 eigenvalues not converged
     c_bands:  1 eigenvalues not converged
     c_bands:  3 eigenvalues not converged
     ethr =  1.00E-05,  avg # of iterations = 28.5

[...]

     total energy              =   -2113.08745721 Ry
     estimated scf accuracy    <   10298.09357545 Ry

     iteration #  2     ecut=    29.40 Ry     beta= 0.05
     Davidson diagonalization with overlap
     ethr =  1.00E-02,  avg # of iterations = 30.4

[...]

     iteration # 69     ecut=    29.40 Ry     beta= 0.05
     Davidson diagonalization with overlap
     c_bands:  1 eigenvalues not converged
     ethr =  8.50E-11,  avg # of iterations = 15.8

[...]

     total energy              =   -3006.52130574 Ry
     estimated scf accuracy    <       0.00000017 Ry

     iteration # 73     ecut=    29.40 Ry     beta= 0.05
     Davidson diagonalization with overlap
     ethr =  2.21E-11,  avg # of iterations =  9.3

     negative rho (up, down):  1.093E-02 0.000E+00

     Adding external electric field

     Computed dipole along edir(3) :
        Dipole                0.9876 Ry au,          2.5102 Debye
        Dipole field          0.0019 Ry au,

        Potential amp.       -0.1728 Ry
        Total length         46.3494 bohr

     End of self-consistent calculation

          k = 0.0000 0.0000 0.0000 ( 18029 PWs)   bands (ev):

   -55.2926 -55.2582 -55.2566 -55.2219 -55.2001 -55.1834 -55.1760 -55.1404
   -55.0900 -55.0712 -55.0550 -55.0478 -55.0140 -54.9602 -54.2990 -54.2649
   -31.8153 -31.7617 -31.6842 -31.6530 -31.6321 -31.5844 -31.5670 -31.5641
   -31.5272 -31.5222 -31.4857 -31.4731 -31.4659 -31.4569 -31.4524 -31.4396
   -31.4330 -31.3973 -31.3922 -31.3840 -31.3799 -31.3613 -31.3573 -31.3483
   -31.3405 -31.3341 -31.3187 -31.2968 -31.2866 -31.2811 -31.2779 -31.2700
   -31.2672 -31.2516 -31.2392 -31.2288 -31.2272 -31.1924 -31.1776 -31.1571
   -31.1448 -31.1435 -30.7082 -30.6125 -30.5901 -30.5248 -30.4388 -30.3276
   -21.4116 -18.7424 -17.2005 -16.0075 -15.7368 -15.5767 -15.4455 -15.4103
   -15.2237 -15.1017 -14.9685 -14.9448 -14.8910 -14.8640 -14.8295 -14.8184
   -14.8136 -14.8015 -14.7936 -14.7469 -14.7122 -14.6947 -14.6942 -14.6708
   -14.6222 -14.5686 -14.5039 -14.4387 -14.4099 -14.3677 -14.2986 -14.2910
   -12.7997 -12.6818  -9.1214  -6.5889  -6.5575  -4.5501  -4.5389  -3.9180
    -3.7653  -3.4704  -3.3695  -3.2741  -3.2177  -3.1952  -3.1750  -3.0962
    -2.9608  -2.8527  -2.7479  -2.5175  -2.4628  -2.4194  -2.3882  -2.3591
    -2.2022  -2.1774  -2.1089  -2.0976  -2.0889  -2.0782  -2.0508  -2.0221
    -1.9959  -1.9651  -1.9051  -1.8815  -1.8111  -1.6804  -1.6719  -1.6392
    -1.5933  -1.5771  -1.5757  -1.5487  -1.5046  -1.4858  -1.4608  -1.4556
    -1.3588  -1.2637  -1.2221  -1.1288  -1.0501  -0.9767  -0.8535  -0.8160
    -0.7424  -0.7094  -0.6931  -0.6394  -0.5899  -0.5790  -0.5212  -0.4744
    -0.3666  -0.3220  -0.2823  -0.2423  -0.1939  -0.1495  -0.0783  -0.0458
    -0.0133  -0.0084   0.0122   0.2108   0.2224   0.2731   0.2852   0.3829
     0.4357   0.4702   0.4837   0.4927   0.5305   0.6060   0.6619   0.6704
     0.7022   0.7378   0.7574   0.8049   0.8458   0.8968   0.9259   0.9611
     1.0276   1.0685   1.2218   1.3183   1.3607   1.4767   1.6337   1.7251
     1.7985   1.8991   2.3117   2.3690   3.8890   3.9229   3.9498   3.9680
     4.0362   4.1353   4.2516   4.3427   4.3519   4.3824

[...]

          k = 0.0380-0.0419 0.0000 ( 17876 PWs)   bands (ev):

[...]

          k =-0.0760-0.0000 0.0000 ( 17886 PWs)   bands (ev):

[...]

          k =-0.0760-0.0839 0.0000 ( 17948 PWs)   bands (ev):

   -55.2805 -55.2686 -55.2422 -55.2377 -55.1970 -55.1811 -55.1653 -55.1512
   -55.0927 -55.0682 -55.0573 -55.0332 -55.0287 -54.9628 -54.2824 -54.2813
   -31.6272 -31.6107 -31.5846 -31.5822 -31.5725 -31.5711 -31.5537 -31.5212
   -31.5150 -31.4971 -31.4943 -31.4834 -31.4488 -31.4381 -31.4171 -31.4133
   -31.4081 -31.4063 -31.4054 -31.3986 -31.3958 -31.3923 -31.3806 -31.3721
   -31.3662 -31.3576 -31.3565 -31.3551 -31.3495 -31.3237 -31.2981 -31.2856
   -31.2824 -31.2806 -31.2783 -31.2698 -31.2603 -31.2485 -31.2389 -31.2295
   -31.1881 -31.1543 -30.6035 -30.6021 -30.5216 -30.5207 -30.4823 -30.4814
   -21.4115 -18.7414 -17.1700 -15.4756 -15.3666 -15.2371 -15.1727 -15.1499
   -15.1238 -15.0702 -15.0540 -14.9986 -14.9942 -14.9439 -14.9375 -14.8948
   -14.8878 -14.8336 -14.8055 -14.7964 -14.7679 -14.7347 -14.7187 -14.7176
   -14.6778 -14.6562 -14.6476 -14.6171 -14.6098 -14.5477 -14.5090 -14.4776
   -12.7841 -12.7822  -9.1233  -6.5895  -6.5511  -4.5505  -4.5461  -3.8270
    -3.7242  -3.4957  -3.2598  -2.9681  -2.7610  -2.5764  -2.4866  -2.4180
    -2.3646  -2.3468  -2.2372  -2.2127  -2.1829  -2.1481  -2.1252  -2.1148
    -2.0973  -2.0883  -2.0811  -2.0634  -2.0295  -2.0077  -1.9843  -1.9593
    -1.9441  -1.9208  -1.9031  -1.8956  -1.8710  -1.8431  -1.8360  -1.8333
    -1.7706  -1.7307  -1.5727  -1.5278  -1.5074  -1.4164  -1.3969  -1.3803
    -1.3548  -1.3408  -1.3241  -1.2052  -1.1539  -1.1236  -1.0178  -0.9998
    -0.9737  -0.8350  -0.8107  -0.7774  -0.7507  -0.7091  -0.6365  -0.6158
    -0.5604  -0.5477  -0.4456  -0.4090  -0.3842  -0.3709  -0.2740  -0.2523
    -0.2472  -0.2206  -0.1583  -0.1259  -0.0816  -0.0519  -0.0206   0.0037
     0.0499   0.0697   0.1634   0.1837   0.2203   0.2633   0.3570   0.5251
     0.6169   0.7270   0.7528   0.7997   0.8601   0.9021   0.9545   1.0063
     1.0545   1.0602   1.1236   1.1602   1.2451   1.2589   1.2623   1.3305
     2.0864   2.0867   2.1744   2.1834   4.1300   4.1383   4.1954   4.2152
     4.3547   4.3609   4.3743   4.3820   4.4770   4.5371

     the Fermi energy is     3.8588 ev

!    total energy              =   -3006.52132012 Ry
     estimated scf accuracy    <       0.00000005 Ry
     smearing contrib. (-TS)   =      -0.02294742 Ry
     internal energy E=F+TS    =   -3006.49837271 Ry

     The total energy is F=E-TS. E is the sum of the following terms:
     one-electron contribution =  -22560.03591192 Ry
     hartree contribution      =   11379.30377718 Ry
     xc contribution           =    -501.14902588 Ry
     ewald contribution        =    8675.38094739 Ry
     electric field correction =       0.00184052 Ry

     convergence has been achieved in  73 iterations

     Forces acting on atoms (cartesian axes, Ry/au):

     atom    1 type  1   force =    -0.00015005   -0.00167795    0.10541887
     atom    2 type  1   force =    -0.00021349    0.00113429   -0.17917586
     atom    3 type  2   force =     0.00020630   -0.00553507   -0.03234371
     atom    4 type  2   force =     0.00010265    0.00071950    0.04629514
     atom    5 type  2   force =    -0.01803853    0.00052672    0.00423355
     atom    6 type  2   force =     0.01843441   -0.00044631    0.00410161
     atom    7 type  1   force =     0.00007016    0.00019629    0.00002981
     atom    8 type  1   force =     0.00006728    0.00030600   -0.00014170
     atom    9 type  2   force =     0.00017573    0.00034470   -0.00003642
     atom   10 type  2   force =     0.00017065   -0.00000185    0.00003641
     atom   11 type  2   force =     0.00005469   -0.00035341   -0.00037992
     atom   12 type  2   force =    -0.00006890   -0.00052454   -0.00052034
     atom   13 type  1   force =     0.00047683    0.00023770    0.00009109
     atom   14 type  1   force =    -0.00026239   -0.00042577   -0.00047294
     atom   15 type  2   force =     0.00004163   -0.00055962    0.00026090
     atom   16 type  2   force =    -0.00008011    0.00031836    0.00003541
     atom   17 type  2   force =    -0.00054073   -0.00070747    0.00008917
     atom   18 type  2   force =     0.00016646   -0.00061363    0.00026392
     atom   19 type  1   force =     0.00044694   -0.00038309   -0.00004580
     atom   20 type  1   force =    -0.00009436   -0.00072296   -0.00058636
     atom   21 type  2   force =    -0.00003367    0.00009963    0.10398955
     atom   22 type  2   force =    -0.00000301   -0.00052269    0.00034956
     atom   23 type  2   force =    -0.06944277    0.00052842   -0.02946506
     atom   24 type  2   force =     0.06919449    0.00098556   -0.02951924
     atom   25 type  1   force =    -0.00003661    0.00156477    0.11482526
     atom   26 type  1   force =    -0.00022137   -0.00047902   -0.17918162
     atom   27 type  2   force =     0.00021404    0.00414511   -0.02605036
     atom   28 type  2   force =     0.00042852    0.00092945    0.04808093
     atom   29 type  2   force =    -0.01631457    0.00162151    0.00384211
     atom   30 type  2   force =     0.01736596    0.00217295    0.00361209
     atom   31 type  1   force =    -0.00014433    0.00010469   -0.00026201
     atom   32 type  1   force =     0.00011038   -0.00008163    0.00023835
     atom   33 type  2   force =     0.00029001   -0.00050613    0.00022007
     atom   34 type  2   force =    -0.00004085   -0.00030857   -0.00027344
     atom   35 type  2   force =    -0.00045286   -0.00013009    0.00001459
     atom   36 type  2   force =     0.00053184    0.00002269    0.00000412
     atom   37 type  1   force =     0.00046128   -0.00073143   -0.00004693
     atom   38 type  1   force =    -0.00036593   -0.00007507   -0.00041944
     atom   39 type  2   force =    -0.00041426   -0.00048121   -0.00053670
     atom   40 type  2   force =     0.00035544   -0.00040515   -0.00024003
     atom   41 type  2   force =    -0.00033687    0.00012066    0.00018291
     atom   42 type  2   force =    -0.00015422    0.00001379    0.00025987
     atom   43 type  1   force =     0.00026844    0.00026450    0.00127603
     atom   44 type  1   force =     0.00000524   -0.00037191   -0.00058823
     atom   45 type  2   force =    -0.00003610    0.00007873    0.10403434
     atom   46 type  2   force =    -0.06904936   -0.00107706   -0.02952060
     atom   47 type  2   force =     0.06886311   -0.00063414   -0.02959737
     atom   48 type  3   force =    -0.00030519    0.00001482    0.00052976
     atom   49 type  2   force =     0.00004681    0.00026309   -0.00115247
     atom   50 type  4   force =    -0.00040184   -0.00005907    0.00002691
     atom   51 type  4   force =     0.00028814   -0.00025314    0.00012539
     atom   52 type  4   force =    -0.00004673    0.00033881   -0.00044831
     atom   53 type  5   force =    -0.00107522   -0.00017779   -0.00109951
     atom   54 type  5   force =     0.00052761    0.00036222    0.00080698
     atom   55 type  2   force =    -0.00104437    0.00613032   -0.00398246
     atom   56 type  4   force =     0.00198352   -0.00446930    0.00194487
     atom   57 type  4   force =    -0.00197985   -0.00083020    0.00086727

     Total force =     0.374699     Total SCF correction =     0.000475
  @ DRIVER MODE: Message from server: STATUS
  @ DRIVER MODE: Message from server: GETFORCE
  @ DRIVER MODE: Returning v,forces,stress,ensemble

     Writing output data file ./calc.save/
  @ DRIVER MODE: Message from server: EXIT
  @ DRIVE MODE: Exiting

     General routines

     Parallel routines

   This run was terminated on:  15:12: 7  26Sep2021

   JOB DONE.