     Program PWSCF v.6.7GPU starts on 28Sep2021 at 20: 8:53

     R & G space division:  proc/nbgrp/npool/nimage =       8
     Reading input from /storage/home/hcoda1/3/ntian30/research/carbon/CxH_vib/H2O_calc/ads_slab/CHHO_a/out_0019/pw.inp
Warning: card &CELL ignored
Warning: card   CELL_DYNAMICS='IPI', ignored
Warning: card / ignored

     Current dimensions of program PWSCF are:
     Max number of different atomic species (ntypx) = 10
     Max number of k-points (npk) =  40000
     Max angular momentum in pseudopotentials (lmaxx) =  3
     Presently no symmetry can be used with electric field

     Message from routine cell_base_init:
     DEPRECATED: use true lattice parameter, not A to a.u. conversion factor

     IMPORTANT: XC functional enforced from input :
     Exchange-correlation= BEEF-VDW
                           (   1   4  43  14   2   0   0)
     Any further DFT definition will be discarded
     Please, verify this is what you really want

  @ DRIVER MODE: Connecting to
 qe_1139763_3011330.sched-torque.pace.gatech.edur7q1mfsv_scratch
  using UNIX socket
  @ DRIVER MODE: Message from server: STATUS
  @ DRIVER MODE: Message from server: INIT
  @ DRIVER MODE: Receiving replica           0          -1
  @ DRIVER MODE: Receiving encoded integer          25
  @ DRIVER MODE:  SCF:  T  FORCE:  T  STRESS:  F  VC:  F  ENSEMBLE:  F
  @ DRIVER MODE:  SCF:  T  FORCE:  T  STRESS:  F  VC:  F  ENSEMBLE:  F

     Using Slab Decomposition

     bravais-lattice index     =            0
     lattice parameter (alat)  =       1.8897  a.u.
     unit-cell volume          =    6658.9804 (a.u.)^3
     number of atoms/cell      =           51
     number of atomic types    =            4
     number of electrons       =       390.00
     number of Kohn-Sham states=          205
     kinetic-energy cutoff     =      29.3995  Ry
     charge density cutoff     =     293.9946  Ry
     scf convergence threshold =      7.3E-08
     mixing beta               =       0.0500
     number of iterations used =            8  plain     mixing
     Exchange-correlation= BEEF-VDW
                           (   1   4  43  14   2   0   0)

     celldm(1)=   1.889726  celldm(2)=   0.000000  celldm(3)=   0.000000
     celldm(4)=   0.000000  celldm(5)=   0.000000  celldm(6)=   0.000000

     crystal axes: (cart. coord. in units of alat)
               a(1) = (   6.579727   0.000000   0.000000 )
               a(2) = (  -0.000775   5.961596   0.000000 )
               a(3) = (   0.000000   0.000000  25.155947 )

     reciprocal axes: (cart. coord. in units 2 pi/alat)
               b(1) = (  0.151982  0.000020  0.000000 )
               b(2) = (  0.000000  0.167740  0.000000 )
               b(3) = (  0.000000  0.000000  0.039752 )

     PseudoPot. # 1 for Ti read from file:
     /storage/coda1/p-amedford6/0/shared/rich_project_chbe-medford/medford-share/data/pseudos_module/espresso/nninc/pbe/van/Ti.UPF
     MD5 check sum: 8e4df49b7f0d34bbd5052bf3f5ea0213
     Pseudo is Ultrasoft, Zval = 12.0
     Generated by new atomic code, or converted to UPF format
     Using radial grid of  851 points,  6 beta functions with:
                l(1) =   0
                l(2) =   0
                l(3) =   1
                l(4) =   1
                l(5) =   2
                l(6) =   2
     Q(r) pseudized with  8 coefficients,  rinner =    1.000   1.000   1.000
                                                       1.000   1.000

     PseudoPot. # 2 for O  read from file:
     /storage/coda1/p-amedford6/0/shared/rich_project_chbe-medford/medford-share/data/pseudos_module/espresso/nninc/pbe/van/O.UPF
     MD5 check sum: 78c19812648e8988a0fe644b0f25305e
     Pseudo is Ultrasoft, Zval =  6.0
     Generated by new atomic code, or converted to UPF format
     Using radial grid of  737 points,  4 beta functions with:
                l(1) =   0
                l(2) =   0
                l(3) =   1
                l(4) =   1
     Q(r) pseudized with  8 coefficients,  rinner =    0.800   0.800   0.800

     PseudoPot. # 3 for C  read from file:
     /storage/coda1/p-amedford6/0/shared/rich_project_chbe-medford/medford-share/data/pseudos_module/espresso/nninc/pbe/van/C.UPF
     MD5 check sum: 1a69bf6b8db32088f5b2163dbdb77a27
     Pseudo is Ultrasoft, Zval =  4.0
     Generated by new atomic code, or converted to UPF format
     Using radial grid of  721 points,  4 beta functions with:
                l(1) =   0
                l(2) =   0
                l(3) =   1
                l(4) =   1
     Q(r) pseudized with  8 coefficients,  rinner =    0.800   0.800   0.800

     PseudoPot. # 4 for H  read from file:
     /storage/coda1/p-amedford6/0/shared/rich_project_chbe-medford/medford-share/data/pseudos_module/espresso/nninc/pbe/van/H.UPF
     MD5 check sum: b5ee9d7bfd3a09ee7748110bda690ff7
     Pseudo is Ultrasoft, Zval =  1.0
     Generated by new atomic code, or converted to UPF format
     Using radial grid of  615 points,  1 beta functions with:
                l(1) =   0
     Q(r) pseudized with  8 coefficients,  rinner =    0.800

     atomic species   valence    mass     pseudopotential
        Ti1           12.00    47.86700     Ti( 1.00)
        O1             6.00    15.99900     O ( 1.00)
        C1             4.00    12.01100     C ( 1.00)
        H1             1.00     1.00800     H ( 1.00)

     No symmetry found

   Cartesian axes

     site n.     atom                  positions (alat units)
         1           Ti1 tau(   1) = (   0.0004258   2.9801865   6.0000000  )
         2           Ti1 tau(   2) = (   3.2906075   1.4906267   6.0002472  )
         3           O1  tau(   3) = (   0.0006271   0.0005054   7.9858123  )
         4           O1  tau(   4) = (   3.2906025   0.0005020   7.3038282  )
         5           O1  tau(   5) = (   4.5942328   1.4918067   9.2879030  )
         6           O1  tau(   6) = (   1.9868534   1.4903216   9.2879459  )
         7           Ti1 tau(   7) = (   3.2576716   2.8711746   9.2039182  )
         8           Ti1 tau(   8) = (   6.5366639   1.4374725   9.3495247  )
         9           O1  tau(   9) = (   3.2654967   5.9220709  11.3209648  )
        10           O1  tau(  10) = (   0.0059489   5.9503157  10.5690854  )
        11           O1  tau(  11) = (   1.2710110   1.4830968  12.6026389  )
        12           O1  tau(  12) = (   5.2956248   1.4563849  12.6219738  )
        13           Ti1 tau(  13) = (   6.4707115   3.0232854  12.7046045  )
        14           Ti1 tau(  14) = (   3.3012427   1.2792539  12.6712786  )
        15           O1  tau(  15) = (   0.1208522   5.9439793  14.6184240  )
        16           O1  tau(  16) = (   3.2955454   0.0555021  13.9474554  )
        17           O1  tau(  17) = (   4.3710900   1.5417649  16.0729971  )
        18           O1  tau(  18) = (   1.7386421   2.0841158  16.4311239  )
        19           Ti1 tau(  19) = (   3.2301957   3.0269898  15.6570758  )
        20           Ti1 tau(  20) = (   6.3022331   1.4673853  15.8568112  )
        21           O1  tau(  21) = (   3.2904802   0.0005063   4.7018136  )
        22           O1  tau(  22) = (   6.3638003   5.9514110  17.1305022  )
        23           O1  tau(  23) = (   1.3043587   1.4918075   6.0039043  )
        24           O1  tau(  24) = (   5.2767064   1.4903225   6.0039473  )
        25           Ti1 tau(  25) = (   0.0000382   5.9609847   6.0000000  )
        26           Ti1 tau(  26) = (   3.2902200   4.4714249   6.0002472  )
        27           O1  tau(  27) = (   0.0002396   2.9813036   7.9858123  )
        28           O1  tau(  28) = (   3.2902150   2.9813002   7.3038282  )
        29           O1  tau(  29) = (   4.5938453   4.4726049   9.2879030  )
        30           O1  tau(  30) = (   1.9864658   4.4711199   9.2879459  )
        31           Ti1 tau(  31) = (   3.2576593   5.8570409   9.1743550  )
        32           Ti1 tau(  32) = (   6.5358986   4.4093296   9.3482377  )
        33           O1  tau(  33) = (   3.2940825   2.9875588  11.2901943  )
        34           O1  tau(  34) = (   6.5570357   2.9690702  10.5578446  )
        35           O1  tau(  35) = (   1.2556184   4.4285683  12.6007990  )
        36           O1  tau(  36) = (   5.2653856   4.4527926  12.6146307  )
        37           Ti1 tau(  37) = (   0.0986422   0.0400065  12.6561080  )
        38           Ti1 tau(  38) = (   3.2648468   4.3768915  12.4074939  )
        39           O1  tau(  39) = (   6.4357771   2.9845043  14.6319670  )
        40           O1  tau(  40) = (   3.2191030   2.9668167  13.8952198  )
        41           O1  tau(  41) = (   4.5664177   4.3244647  16.1555655  )
        42           O1  tau(  42) = (   2.0966903   4.6357478  16.0503417  )
        43           Ti1 tau(  43) = (   3.4732119   5.7943257  16.4097380  )
        44           Ti1 tau(  44) = (   0.0705528   4.5403211  16.0661977  )
        45           O1  tau(  45) = (   3.2900926   2.9813045   4.7018136  )
        46           O1  tau(  46) = (   1.3039711   4.4726057   6.0039043  )
        47           O1  tau(  47) = (   5.2763189   4.4711207   6.0039473  )
        48           C1  tau(  48) = (   0.6899253   2.7405959  17.1512775  )
        49           H1  tau(  49) = (   0.8031679   2.6269330  18.2321311  )
        50           O1  tau(  50) = (   3.3389373   5.9192928  18.2161996  )
        51           H1  tau(  51) = (   4.0398012   0.2866715  18.7870949  )

     number of k points=    10  Fermi-Dirac smearing, width (Ry)=  0.0073
                       cart. coord. in units 2pi/alat
        k(    1) = (   0.0000000   0.0000000   0.0000000), wk =   0.1250000
        k(    2) = (   0.0000000   0.0419351   0.0000000), wk =   0.2500000
        k(    3) = (   0.0000000  -0.0838702   0.0000000), wk =   0.1250000
        k(    4) = (   0.0379955   0.0000049   0.0000000), wk =   0.2500000
        k(    5) = (   0.0379955   0.0419400   0.0000000), wk =   0.2500000
        k(    6) = (   0.0379955  -0.0838652   0.0000000), wk =   0.2500000
        k(    7) = (   0.0379955  -0.0419301   0.0000000), wk =   0.2500000
        k(    8) = (  -0.0759910  -0.0000099   0.0000000), wk =   0.1250000
        k(    9) = (  -0.0759910   0.0419252   0.0000000), wk =   0.2500000
        k(   10) = (  -0.0759910  -0.0838800   0.0000000), wk =   0.1250000

     Initial potential from superposition of free atoms

     starting charge  373.99919, renormalised to  390.00000

     negative rho (up, down):  1.956E-02 0.000E+00

     %%%%%%%%%%%%%%%%%%%%%%%%%%%%%%%%%%%%%%%%%%%%%%%%%%%%%%%%%%%%%%%%%%%%%%%%
     %                                                                      %
     % You are using vdW-DF, which was implemented by the Thonhauser group. %
     % Please cite the following two papers that made this development      %
     % possible and the two reviews that describe the various versions:     %
     %                                                                      %
     %   T. Thonhauser et al., PRL 115, 136402 (2015).                      %
     %   T. Thonhauser et al., PRB 76, 125112 (2007).                       %
     %   K. Berland et al., Rep. Prog. Phys. 78, 066501 (2015).             %
     %   D.C. Langreth et al., J. Phys.: Condens. Matter 21, 084203 (2009). %
     %                                                                      %
     %                                                                      %
     % If you are calculating the stress with vdW-DF, please also cite:     %
     %                                                                      %
     %   R. Sabatini et al., J. Phys.: Condens. Matter 24, 424209 (2012).   %
     %                                                                      %
     %%%%%%%%%%%%%%%%%%%%%%%%%%%%%%%%%%%%%%%%%%%%%%%%%%%%%%%%%%%%%%%%%%%%%%%%

     Adding external electric field

     Computed dipole along edir(3) :
        Dipole               -3.9292 Ry au,         -9.9870 Debye
        Dipole field         -0.0074 Ry au,

        Potential amp.        0.6874 Ry
        Total length         46.3494 bohr

     Starting wfcs are  294 atomic wfcs
  @ DRIVER MODE: Message from server: STATUS
  @ DRIVER MODE: Message from server: POSDATA
  @ DRIVER MODE: Reading and sharing cell
  @ DRIVER MODE: Reading and sharing positions
  @ DRIVER MODE: Received positions

     Self-consistent Calculation

     iteration #  1     ecut=    29.40 Ry     beta= 0.05
     Davidson diagonalization with overlap
     c_bands:  5 eigenvalues not converged
     c_bands:  2 eigenvalues not converged
     c_bands:  4 eigenvalues not converged
     c_bands:  4 eigenvalues not converged
     c_bands:  1 eigenvalues not converged
     c_bands:  4 eigenvalues not converged
     c_bands:  1 eigenvalues not converged
     c_bands:  1 eigenvalues not converged
     c_bands:  3 eigenvalues not converged
     ethr =  1.00E-05,  avg # of iterations = 20.8

[...]

     total energy              =   -2904.76688970 Ry
     estimated scf accuracy    <     307.93804413 Ry

     iteration #  2     ecut=    29.40 Ry     beta= 0.05
     Davidson diagonalization with overlap
     ethr =  1.00E-02,  avg # of iterations = 12.0

[...]

     iteration # 51     ecut=    29.40 Ry     beta= 0.05
     Davidson diagonalization with overlap
     c_bands:  1 eigenvalues not converged
     ethr =  4.02E-10,  avg # of iterations =  8.0

[...]

     total energy              =   -2930.00830300 Ry
     estimated scf accuracy    <       0.00000007 Ry

     iteration # 57     ecut=    29.40 Ry     beta= 0.05
     Davidson diagonalization with overlap
     ethr =  1.92E-11,  avg # of iterations =  5.0

     negative rho (up, down):  1.953E-02 0.000E+00

     Adding external electric field

     Computed dipole along edir(3) :
        Dipole                0.5449 Ry au,          1.3850 Debye
        Dipole field          0.0010 Ry au,

        Potential amp.       -0.0953 Ry
        Total length         46.3494 bohr

     End of self-consistent calculation

          k = 0.0000 0.0000 0.0000 ( 18029 PWs)   bands (ev):

   -56.4317 -56.3966 -56.1711 -55.9780 -55.8982 -55.8736 -55.8602 -55.8306
   -55.7731 -55.7302 -55.7287 -55.5627 -55.4829 -55.4372 -55.1233 -55.0893
   -32.8566 -32.6963 -32.6659 -32.6416 -32.6121 -32.5415 -32.5209 -32.4832
   -32.3979 -32.3838 -32.3828 -32.3780 -32.2648 -32.2458 -32.2258 -32.2019
   -32.1698 -32.1389 -32.1148 -32.0820 -32.0732 -32.0636 -32.0339 -32.0334
   -32.0251 -32.0044 -31.9896 -31.9854 -31.9846 -31.9672 -31.9328 -31.9291
   -31.9192 -31.8875 -31.8318 -31.8189 -31.8020 -31.7950 -31.7725 -31.7148
   -31.6136 -31.5203 -31.4973 -31.4582 -31.4341 -31.3377 -31.2525 -31.1411
   -18.1622 -17.1427 -16.7854 -16.6485 -16.5116 -16.3182 -16.2631 -16.1362
   -15.9523 -15.8535 -15.7854 -15.7451 -15.6666 -15.6641 -15.5835 -15.5319
   -15.5156 -15.4823 -15.4617 -15.4315 -15.3829 -15.3788 -15.3202 -15.2834
   -15.2391 -15.1856 -15.1329 -15.0502 -15.0063 -14.8176 -13.6227 -13.5119
    -8.0258  -4.8469  -4.5550  -4.1564  -4.0505  -4.0147  -3.8925  -3.7558
    -3.7027  -3.6365  -3.4237  -3.4038  -3.3038  -3.2411  -3.2231  -3.1379
    -3.0874  -3.0304  -3.0248  -2.9600  -2.9162  -2.8822  -2.8353  -2.7847
    -2.6967  -2.6898  -2.6657  -2.6019  -2.5874  -2.4857  -2.4770  -2.3782
    -2.3612  -2.3539  -2.3334  -2.3025  -2.2736  -2.1741  -2.1595  -2.1173
    -2.0206  -2.0015  -1.8992  -1.7833  -1.6797  -1.6706  -1.6435  -1.5515
    -1.5062  -1.4941  -1.4577  -1.4110  -1.3859  -1.3279  -1.2805  -1.2231
    -1.1786  -1.0631  -1.0112  -0.9635  -0.8804  -0.8594  -0.7927  -0.7738
    -0.6736  -0.6439  -0.5890  -0.5757  -0.5385  -0.4648  -0.3850  -0.3520
    -0.3266  -0.2731  -0.2375  -0.1801  -0.1623  -0.1532  -0.1136  -0.0761
    -0.0428   0.0399   0.0508   0.1188   0.2047   0.2967   0.3255   0.4265
     0.4593   0.5940   0.6295   0.8681   0.8977   0.9071   1.0911   1.1375
     1.4584   1.5090   2.1987   2.8479   2.9971   3.2797   3.2863   3.3527
     3.3999   3.4934   3.5420   3.6320   3.7372

[...]

          k = 0.0380-0.0419 0.0000 ( 17876 PWs)   bands (ev):

[...]

          k =-0.0760-0.0000 0.0000 ( 17886 PWs)   bands (ev):

[...]

          k =-0.0760-0.0839 0.0000 ( 17948 PWs)   bands (ev):

   -56.4192 -56.4089 -56.1702 -55.9787 -55.8879 -55.8703 -55.8646 -55.8393
   -55.7652 -55.7372 -55.7280 -55.5643 -55.4768 -55.4431 -55.1065 -55.1060
   -32.6870 -32.6783 -32.6744 -32.6691 -32.5948 -32.5690 -32.5608 -32.5262
   -32.4140 -32.3652 -32.3044 -32.2120 -32.2055 -32.2013 -32.1943 -32.1790
   -32.1357 -32.1143 -32.1121 -32.1003 -32.0987 -32.0960 -32.0861 -32.0614
   -32.0486 -32.0312 -32.0193 -32.0103 -31.9861 -31.9832 -31.9656 -31.9417
   -31.9255 -31.9129 -31.8959 -31.8274 -31.8214 -31.8092 -31.7771 -31.7706
   -31.6000 -31.5482 -31.4473 -31.4469 -31.3354 -31.3338 -31.2950 -31.2942
   -18.1235 -17.1329 -16.4818 -16.4523 -16.2417 -16.1390 -15.9683 -15.9451
   -15.9407 -15.9077 -15.8530 -15.8393 -15.8224 -15.6740 -15.6507 -15.6344
   -15.5719 -15.5048 -15.4630 -15.4366 -15.4125 -15.3759 -15.3602 -15.3488
   -15.3472 -15.3316 -15.2777 -15.1993 -15.1830 -14.9379 -13.6155 -13.6147
    -8.0247  -4.8416  -4.3734  -3.7419  -3.5417  -3.4748  -3.4372  -3.2771
    -3.1857  -3.1753  -3.1051  -3.0933  -3.0438  -3.0060  -2.9680  -2.9371
    -2.9189  -2.8689  -2.8581  -2.8219  -2.7955  -2.7730  -2.7648  -2.7535
    -2.7283  -2.7220  -2.7040  -2.6912  -2.6714  -2.6500  -2.6153  -2.5717
    -2.5070  -2.4359  -2.3028  -2.2873  -2.2631  -2.1923  -2.1728  -2.1215
    -2.1057  -2.0850  -2.0666  -2.0186  -1.9840  -1.9565  -1.7039  -1.6824
    -1.6284  -1.5768  -1.5223  -1.4904  -1.4609  -1.4459  -1.3836  -1.2773
    -1.2386  -1.2020  -1.1835  -1.1623  -1.1577  -1.0808  -1.0548  -0.9933
    -0.9463  -0.9156  -0.8389  -0.8032  -0.7722  -0.7519  -0.6951  -0.6316
    -0.6164  -0.5386  -0.4911  -0.4718  -0.4158  -0.2772  -0.2456  -0.1437
    -0.0929  -0.0542   0.0523   0.1736   0.2395   0.2451   0.3566   0.3838
     0.4020   0.5006   0.5530   0.5727   0.6108   0.7580   1.2843   1.2989
     1.3087   1.3103   2.3454   3.3850   3.3979   3.4034   3.4135   3.4330
     3.5441   3.6123   3.6765   3.7555   3.7939

     the Fermi energy is     2.6313 ev

!    total energy              =   -2930.00835290 Ry
     estimated scf accuracy    <       0.00000004 Ry
     smearing contrib. (-TS)   =      -0.00366385 Ry
     internal energy E=F+TS    =   -2930.00468905 Ry

     The total energy is F=E-TS. E is the sum of the following terms:
     one-electron contribution =  -24473.12237707 Ry
     hartree contribution      =   12320.22887605 Ry
     xc contribution           =    -481.34662326 Ry
     ewald contribution        =    9704.23487492 Ry
     electric field correction =       0.00056031 Ry

     convergence has been achieved in  57 iterations

     Forces acting on atoms (cartesian axes, Ry/au):

     atom    1 type  1   force =     0.00045074   -0.00032897    0.13413410
     atom    2 type  1   force =     0.00012171    0.00528358   -0.16227061
     atom    3 type  2   force =    -0.00070484    0.00272889   -0.05106598
     atom    4 type  2   force =    -0.00084247   -0.00120533    0.04169227
     atom    5 type  2   force =    -0.01386798   -0.00296283    0.00211953
     atom    6 type  2   force =     0.01179612   -0.00438979    0.00139388
     atom    7 type  1   force =     0.00052570   -0.00030170   -0.00023901
     atom    8 type  1   force =    -0.00006633   -0.00037970    0.00019373
     atom    9 type  2   force =     0.00018075   -0.00023133   -0.00007512
     atom   10 type  2   force =    -0.00025716    0.00015299   -0.00038625
     atom   11 type  2   force =     0.00016792   -0.00095257    0.00006989
     atom   12 type  2   force =    -0.00073627    0.00012199    0.00013450
     atom   13 type  1   force =     0.00064381    0.00021530    0.00009178
     atom   14 type  1   force =    -0.00003928   -0.00011096    0.00043650
     atom   15 type  2   force =     0.00037542   -0.00009163   -0.00023493
     atom   16 type  2   force =     0.00083735    0.00010831   -0.00018817
     atom   17 type  2   force =     0.00073855   -0.00039091    0.00041846
     atom   18 type  2   force =     0.00048529   -0.00015417   -0.00008673
     atom   19 type  1   force =    -0.00009770    0.00074700   -0.00000528
     atom   20 type  1   force =     0.00006846   -0.00007325    0.00085414
     atom   21 type  2   force =     0.00019847    0.00006017    0.10034444
     atom   22 type  2   force =     0.00009909   -0.00042600   -0.00025770
     atom   23 type  2   force =    -0.07799933    0.00019674   -0.03357305
     atom   24 type  2   force =     0.07804544    0.00070891   -0.03359146
     atom   25 type  1   force =     0.00016938   -0.00022287    0.13670950
     atom   26 type  1   force =     0.00017621   -0.00663325   -0.16251177
     atom   27 type  2   force =     0.00014691    0.00093137   -0.05023736
     atom   28 type  2   force =    -0.00050760   -0.00055511    0.04262024
     atom   29 type  2   force =    -0.01247240    0.00585521    0.00018820
     atom   30 type  2   force =     0.01101777   -0.00027148   -0.00034793
     atom   31 type  1   force =     0.00029613   -0.00026557   -0.00022510
     atom   32 type  1   force =    -0.00023262    0.00015707    0.00013900
     atom   33 type  2   force =    -0.00027591    0.00009940    0.00006072
     atom   34 type  2   force =     0.00037345   -0.00021360   -0.00034459
     atom   35 type  2   force =     0.00135276    0.00037748   -0.00012379
     atom   36 type  2   force =    -0.00057485   -0.00013021   -0.00032557
     atom   37 type  1   force =    -0.00050049    0.00078747   -0.00037375
     atom   38 type  1   force =    -0.00027799    0.00034131   -0.00035459
     atom   39 type  2   force =     0.00060858   -0.00023059    0.00001884
     atom   40 type  2   force =    -0.00005383    0.00017028   -0.00061684
     atom   41 type  2   force =     0.00099777   -0.00042641    0.00039633
     atom   42 type  2   force =    -0.00018954    0.00039141   -0.00012253
     atom   43 type  1   force =     0.00071343   -0.00060800    0.00188475
     atom   44 type  1   force =     0.00032618    0.00088887    0.00073507
     atom   45 type  2   force =     0.00016298   -0.00002124    0.09985725
     atom   46 type  2   force =    -0.07801816    0.00000883   -0.03358432
     atom   47 type  2   force =     0.07806985    0.00053655   -0.03362235
     atom   48 type  3   force =     0.00014714    0.00021477    0.00142465
     atom   49 type  4   force =    -0.00114369    0.00036647   -0.00076668
     atom   50 type  2   force =    -0.01219182   -0.00555283   -0.00799228
     atom   51 type  4   force =     0.01175690    0.00567995    0.00760595

     Total force =     0.385069     Total SCF correction =     0.000644
  @ DRIVER MODE: Message from server: STATUS
  @ DRIVER MODE: Message from server: GETFORCE
  @ DRIVER MODE: Returning v,forces,stress,ensemble

     Writing output data file ./calc.save/
  @ DRIVER MODE: Message from server: EXIT
  @ DRIVE MODE: Exiting

     General routines

     Parallel routines

   This run was terminated on:  20:27:11  28Sep2021

   JOB DONE.