     Program PWSCF v.6.7GPU starts on 16Sep2021 at  4:21:13

     R & G space division:  proc/nbgrp/npool/nimage =      10
     Reading input from /storage/home/hcoda1/3/ntian30/research/carbon/CxH_vib/H2O_calc/ads_slab/CH2OH2O_a/out_0038/pw.inp
Warning: card &CELL ignored
Warning: card   CELL_DYNAMICS='IPI', ignored
Warning: card / ignored

     Current dimensions of program PWSCF are:
     Max number of different atomic species (ntypx) = 10
     Max number of k-points (npk) =  40000
     Max angular momentum in pseudopotentials (lmaxx) =  3
     Presently no symmetry can be used with electric field

     Message from routine cell_base_init:
     DEPRECATED: use true lattice parameter, not A to a.u. conversion factor

     IMPORTANT: XC functional enforced from input :
     Exchange-correlation= BEEF-VDW
                           (   1   4  43  14   2   0   0)
     Any further DFT definition will be discarded
     Please, verify this is what you really want

  @ DRIVER MODE: Connecting to
 qe_1139763_2852613.sched-torque.pace.gatech.educyb1ea87_scratch
  using UNIX socket
  @ DRIVER MODE: Message from server: STATUS
  @ DRIVER MODE: Message from server: INIT
  @ DRIVER MODE: Receiving replica           0          -1
  @ DRIVER MODE: Receiving encoded integer          25
  @ DRIVER MODE:  SCF:  T  FORCE:  T  STRESS:  F  VC:  F  ENSEMBLE:  F
  @ DRIVER MODE:  SCF:  T  FORCE:  T  STRESS:  F  VC:  F  ENSEMBLE:  F

     Using Slab Decomposition

     bravais-lattice index     =            0
     lattice parameter (alat)  =       1.8897  a.u.
     unit-cell volume          =    6658.9804 (a.u.)^3
     number of atoms/cell      =           54
     number of atomic types    =            4
     number of electrons       =       398.00
     number of Kohn-Sham states=          209
     kinetic-energy cutoff     =      29.3995  Ry
     charge density cutoff     =     293.9946  Ry
     scf convergence threshold =      7.3E-08
     mixing beta               =       0.0500
     number of iterations used =            8  plain     mixing
     Exchange-correlation= BEEF-VDW
                           (   1   4  43  14   2   0   0)

     celldm(1)=   1.889726  celldm(2)=   0.000000  celldm(3)=   0.000000
     celldm(4)=   0.000000  celldm(5)=   0.000000  celldm(6)=   0.000000

     crystal axes: (cart. coord. in units of alat)
               a(1) = (   6.579727   0.000000   0.000000 )
               a(2) = (  -0.000775   5.961596   0.000000 )
               a(3) = (   0.000000   0.000000  25.155947 )

     reciprocal axes: (cart. coord. in units 2 pi/alat)
               b(1) = (  0.151982  0.000020  0.000000 )
               b(2) = (  0.000000  0.167740  0.000000 )
               b(3) = (  0.000000  0.000000  0.039752 )

     PseudoPot. # 1 for O  read from file:
     /storage/coda1/p-amedford6/0/shared/rich_project_chbe-medford/medford-share/data/pseudos_module/espresso/nninc/pbe/van/O.UPF
     MD5 check sum: 78c19812648e8988a0fe644b0f25305e
     Pseudo is Ultrasoft, Zval =  6.0
     Generated by new atomic code, or converted to UPF format
     Using radial grid of  737 points,  4 beta functions with:
                l(1) =   0
                l(2) =   0
                l(3) =   1
                l(4) =   1
     Q(r) pseudized with  8 coefficients,  rinner =    0.800   0.800   0.800

     PseudoPot. # 2 for Ti read from file:
     /storage/coda1/p-amedford6/0/shared/rich_project_chbe-medford/medford-share/data/pseudos_module/espresso/nninc/pbe/van/Ti.UPF
     MD5 check sum: 8e4df49b7f0d34bbd5052bf3f5ea0213
     Pseudo is Ultrasoft, Zval = 12.0
     Generated by new atomic code, or converted to UPF format
     Using radial grid of  851 points,  6 beta functions with:
                l(1) =   0
                l(2) =   0
                l(3) =   1
                l(4) =   1
                l(5) =   2
                l(6) =   2
     Q(r) pseudized with  8 coefficients,  rinner =    1.000   1.000   1.000
                                                       1.000   1.000

     PseudoPot. # 3 for C  read from file:
     /storage/coda1/p-amedford6/0/shared/rich_project_chbe-medford/medford-share/data/pseudos_module/espresso/nninc/pbe/van/C.UPF
     MD5 check sum: 1a69bf6b8db32088f5b2163dbdb77a27
     Pseudo is Ultrasoft, Zval =  4.0
     Generated by new atomic code, or converted to UPF format
     Using radial grid of  721 points,  4 beta functions with:
                l(1) =   0
                l(2) =   0
                l(3) =   1
                l(4) =   1
     Q(r) pseudized with  8 coefficients,  rinner =    0.800   0.800   0.800

     PseudoPot. # 4 for H  read from file:
     /storage/coda1/p-amedford6/0/shared/rich_project_chbe-medford/medford-share/data/pseudos_module/espresso/nninc/pbe/van/H.UPF
     MD5 check sum: b5ee9d7bfd3a09ee7748110bda690ff7
     Pseudo is Ultrasoft, Zval =  1.0
     Generated by new atomic code, or converted to UPF format
     Using radial grid of  615 points,  1 beta functions with:
                l(1) =   0
     Q(r) pseudized with  8 coefficients,  rinner =    0.800

     atomic species   valence    mass     pseudopotential
        O1             6.00    15.99900     O ( 1.00)
        Ti1           12.00    47.86700     Ti( 1.00)
        C1             4.00    12.01100     C ( 1.00)
        H1             1.00     1.00800     H ( 1.00)

     No symmetry found

   Cartesian axes

     site n.     atom                  positions (alat units)
         1           O1  tau(   1) = (   3.2904802   0.0005063   4.7018136  )
         2           O1  tau(   2) = (   3.2900926   2.9813045   4.7018136  )
         3           Ti1 tau(   3) = (   0.0004258   2.9801865   6.0000000  )
         4           Ti1 tau(   4) = (   0.0000382   5.9609847   6.0000000  )
         5           Ti1 tau(   5) = (   3.2906075   1.4906267   6.0002472  )
         6           Ti1 tau(   6) = (   3.2902200   4.4714249   6.0002472  )
         7           O1  tau(   7) = (   1.3043587   1.4918075   6.0039043  )
         8           O1  tau(   8) = (   1.3039711   4.4726057   6.0039043  )
         9           O1  tau(   9) = (   5.2767064   1.4903225   6.0039473  )
        10           O1  tau(  10) = (   5.2763189   4.4711207   6.0039473  )
        11           O1  tau(  11) = (   3.2906025   0.0005020   7.3038282  )
        12           O1  tau(  12) = (   3.2902150   2.9813002   7.3038282  )
        13           O1  tau(  13) = (   0.0006271   0.0005054   7.9858123  )
        14           O1  tau(  14) = (   0.0002396   2.9813036   7.9858123  )
        15           Ti1 tau(  15) = (   3.3036605   0.0548493   9.1550340  )
        16           Ti1 tau(  16) = (   3.3179312   3.0323762   9.1622521  )
        17           Ti1 tau(  17) = (   0.0293130   4.5303424   9.2586280  )
        18           Ti1 tau(  18) = (   0.0255512   1.6071936   9.3606264  )
        19           O1  tau(  19) = (   4.5942328   1.4918067   9.2879030  )
        20           O1  tau(  20) = (   4.5938453   4.4726049   9.2879030  )
        21           O1  tau(  21) = (   1.9868534   1.4903216   9.2879459  )
        22           O1  tau(  22) = (   1.9864658   4.4711199   9.2879459  )
        23           O1  tau(  23) = (   0.0067149   0.0090568  10.6008527  )
        24           O1  tau(  24) = (   0.0066098   2.9904127  10.5810825  )
        25           O1  tau(  25) = (   3.3023248   2.9935247  11.3558429  )
        26           O1  tau(  26) = (   3.3019398   0.0103095  11.3581380  )
        27           Ti1 tau(  27) = (   0.0322082   0.0188897  12.5014682  )
        28           Ti1 tau(  28) = (   3.3323403   4.4947089  12.5096490  )
        29           Ti1 tau(  29) = (   3.3327227   1.5059056  12.5040540  )
        30           Ti1 tau(  30) = (   0.0321551   3.0004163  12.7750784  )
        31           O1  tau(  31) = (   1.2963378   4.4834263  12.6382484  )
        32           O1  tau(  32) = (   1.2968596   1.4996660  12.6342602  )
        33           O1  tau(  33) = (   5.3004736   4.4821179  12.6410582  )
        34           O1  tau(  34) = (   5.3007909   1.4998706  12.6367838  )
        35           O1  tau(  35) = (   3.3017874   2.9879694  13.9086975  )
        36           O1  tau(  36) = (   3.3040514   0.0100701  13.9766235  )
        37           O1  tau(  37) = (   0.0177811   0.0165449  14.6846256  )
        38           O1  tau(  38) = (   0.0218693   2.9952767  14.7100221  )
        39           Ti1 tau(  39) = (   3.3083447   2.9915206  15.7010863  )
        40           Ti1 tau(  40) = (   3.3165693   0.0114089  15.8055842  )
        41           Ti1 tau(  41) = (   0.0300915   4.5703342  15.9344200  )
        42           Ti1 tau(  42) = (   0.0294271   1.3911826  15.9958598  )
        43           O1  tau(  43) = (   4.5666857   4.4545776  16.0545193  )
        44           O1  tau(  44) = (   4.5654216   1.5273373  16.0688375  )
        45           O1  tau(  45) = (   2.0398213   1.5345912  16.0698912  )
        46           O1  tau(  46) = (   2.0372649   4.4468515  16.0554978  )
        47           O1  tau(  47) = (   0.0160947   0.0056016  17.2166677  )
        48           O1  tau(  48) = (   6.5639191   3.0028441  17.4181802  )
        49           C1  tau(  49) = (   6.3909186   3.0704891  18.6902598  )
        50           H1  tau(  50) = (   6.3116585   4.0479728  19.1570877  )
        51           H1  tau(  51) = (   6.3127454   2.1532251  19.2664540  )
        52           O1  tau(  52) = (   3.2659488   5.9319982  18.2141537  )
        53           H1  tau(  53) = (   4.0486762   5.9278262  18.7801078  )
        54           H1  tau(  54) = (   2.4767005   5.9275743  18.7583984  )

     number of k points=    10  Fermi-Dirac smearing, width (Ry)=  0.0073
                       cart. coord. in units 2pi/alat
        k(    1) = (   0.0000000   0.0000000   0.0000000), wk =   0.1250000
        k(    2) = (   0.0000000   0.0419351   0.0000000), wk =   0.2500000
        k(    3) = (   0.0000000  -0.0838702   0.0000000), wk =   0.1250000
        k(    4) = (   0.0379955   0.0000049   0.0000000), wk =   0.2500000
        k(    5) = (   0.0379955   0.0419400   0.0000000), wk =   0.2500000
        k(    6) = (   0.0379955  -0.0838652   0.0000000), wk =   0.2500000
        k(    7) = (   0.0379955  -0.0419301   0.0000000), wk =   0.2500000
        k(    8) = (  -0.0759910  -0.0000099   0.0000000), wk =   0.1250000
        k(    9) = (  -0.0759910   0.0419252   0.0000000), wk =   0.2500000
        k(   10) = (  -0.0759910  -0.0838800   0.0000000), wk =   0.1250000

     Initial potential from superposition of free atoms

     starting charge  381.99917, renormalised to  398.00000

     negative rho (up, down):  1.686E-02 0.000E+00

     %%%%%%%%%%%%%%%%%%%%%%%%%%%%%%%%%%%%%%%%%%%%%%%%%%%%%%%%%%%%%%%%%%%%%%%%
     %                                                                      %
     % You are using vdW-DF, which was implemented by the Thonhauser group. %
     % Please cite the following two papers that made this development      %
     % possible and the two reviews that describe the various versions:     %
     %                                                                      %
     %   T. Thonhauser et al., PRL 115, 136402 (2015).                      %
     %   T. Thonhauser et al., PRB 76, 125112 (2007).                       %
     %   K. Berland et al., Rep. Prog. Phys. 78, 066501 (2015).             %
     %   D.C. Langreth et al., J. Phys.: Condens. Matter 21, 084203 (2009). %
     %                                                                      %
     %                                                                      %
     % If you are calculating the stress with vdW-DF, please also cite:     %
     %                                                                      %
     %   R. Sabatini et al., J. Phys.: Condens. Matter 24, 424209 (2012).   %
     %                                                                      %
     %%%%%%%%%%%%%%%%%%%%%%%%%%%%%%%%%%%%%%%%%%%%%%%%%%%%%%%%%%%%%%%%%%%%%%%%

     Adding external electric field

     Computed dipole along edir(3) :
        Dipole               -9.6373 Ry au,        -24.4955 Debye
        Dipole field         -0.0182 Ry au,

        Potential amp.        1.6859 Ry
        Total length         46.3494 bohr

     Starting wfcs are  300 atomic wfcs
  @ DRIVER MODE: Message from server: STATUS
  @ DRIVER MODE: Message from server: POSDATA
  @ DRIVER MODE: Reading and sharing cell
  @ DRIVER MODE: Reading and sharing positions
  @ DRIVER MODE: Received positions

     Self-consistent Calculation

     iteration #  1     ecut=    29.40 Ry     beta= 0.05
     Davidson diagonalization with overlap
     c_bands:  1 eigenvalues not converged
     c_bands:  3 eigenvalues not converged
     c_bands:  2 eigenvalues not converged
     c_bands:  2 eigenvalues not converged
     c_bands:  2 eigenvalues not converged
     c_bands:  1 eigenvalues not converged
     c_bands:  2 eigenvalues not converged
     c_bands:  1 eigenvalues not converged
     c_bands:  2 eigenvalues not converged
     ethr =  1.00E-05,  avg # of iterations = 19.6

[...]

     total energy              =   -2526.81869682 Ry
     estimated scf accuracy    <    4873.63783090 Ry

     iteration #  2     ecut=    29.40 Ry     beta= 0.05
     Davidson diagonalization with overlap
     ethr =  1.00E-02,  avg # of iterations = 26.5

[...]

     iteration # 75     ecut=    29.40 Ry     beta= 0.05
     Davidson diagonalization with overlap
     ethr =  2.65E-11,  avg # of iterations =  6.2

[...]

     total energy              =   -2964.99522656 Ry
     estimated scf accuracy    <       0.00000008 Ry

     iteration # 76     ecut=    29.40 Ry     beta= 0.05
     Davidson diagonalization with overlap
     c_bands:  1 eigenvalues not converged
     ethr =  1.99E-11,  avg # of iterations = 14.1

     negative rho (up, down):  1.528E-02 0.000E+00

     Adding external electric field

     Computed dipole along edir(3) :
        Dipole                1.2230 Ry au,          3.1086 Debye
        Dipole field          0.0023 Ry au,

        Potential amp.       -0.2139 Ry
        Total length         46.3494 bohr

     End of self-consistent calculation

          k = 0.0000 0.0000 0.0000 ( 18029 PWs)   bands (ev):

   -55.5388 -55.5021 -55.5016 -55.4654 -55.4626 -55.4178 -55.3814 -55.3142
   -55.3015 -55.2782 -55.2681 -55.2589 -55.2170 -55.2091 -54.5501 -54.5160
   -32.0572 -32.0091 -31.8955 -31.8522 -31.8511 -31.8330 -31.8127 -31.8044
   -31.7805 -31.7688 -31.7356 -31.7253 -31.6976 -31.6855 -31.6830 -31.6489
   -31.6454 -31.6393 -31.6344 -31.6311 -31.6023 -31.5970 -31.5895 -31.5851
   -31.5576 -31.5538 -31.5500 -31.5296 -31.5226 -31.5208 -31.4752 -31.4741
   -31.4477 -31.4462 -31.4330 -31.4275 -31.4214 -31.4074 -31.3959 -31.3941
   -31.3913 -31.3745 -30.9596 -30.8634 -30.8411 -30.7761 -30.6900 -30.5790
   -19.3631 -19.1903 -16.2541 -15.9914 -15.8197 -15.7086 -15.6616 -15.4595
   -15.3665 -15.2858 -15.2219 -15.1446 -15.1279 -15.0903 -15.0643 -15.0586
   -15.0535 -15.0049 -14.9957 -14.9563 -14.9444 -14.9431 -14.9244 -14.9056
   -14.8237 -14.7214 -14.6780 -14.6597 -14.6006 -14.5444 -14.5304 -13.0506
   -12.9326  -9.0156  -7.1794  -5.2199  -5.1810  -3.7953  -3.5780  -3.4579
    -3.4233  -3.3883  -3.3200  -3.1374  -3.1290  -3.0363  -2.7989  -2.7085
    -2.6753  -2.6176  -2.6076  -2.5075  -2.4668  -2.3604  -2.3516  -2.3474
    -2.3312  -2.3056  -2.2724  -2.2305  -2.2060  -2.1939  -2.0661  -2.0549
    -1.9266  -1.9210  -1.8976  -1.8426  -1.8380  -1.7957  -1.7826  -1.7792
    -1.7664  -1.7182  -1.7064  -1.5933  -1.5195  -1.4563  -1.3707  -1.2312
    -1.1701  -1.1067  -1.0434  -1.0085  -0.9461  -0.9429  -0.8885  -0.8480
    -0.7896  -0.7782  -0.7708  -0.6743  -0.5757  -0.5536  -0.5233  -0.4451
    -0.3663  -0.2806  -0.2612  -0.2590  -0.2577  -0.2366  -0.0991  -0.0156
     0.0412   0.0468   0.1429   0.1761   0.2112   0.2255   0.2576   0.2783
     0.3344   0.4092   0.4208   0.4341   0.4598   0.5055   0.5111   0.6238
     0.7000   0.7014   0.7377   0.7704   0.9461   0.9808   1.1078   1.2149
     1.3813   1.4744   1.5462   1.6474   2.0604   2.1180   3.6344   3.6761
     3.6911   3.7336   3.7831   3.8097   3.8774   4.0764   4.0929   4.1029
     4.1420

[...]

          k = 0.0380-0.0419 0.0000 ( 17876 PWs)   bands (ev):

[...]

          k =-0.0760-0.0000 0.0000 ( 17886 PWs)   bands (ev):

[...]

          k =-0.0760-0.0839 0.0000 ( 17948 PWs)   bands (ev):

   -55.5274 -55.5134 -55.4848 -55.4820 -55.4610 -55.4075 -55.3916 -55.3107
   -55.2862 -55.2838 -55.2727 -55.2604 -55.2223 -55.2119 -54.5335 -54.5325
   -31.8679 -31.8531 -31.8331 -31.8205 -31.8177 -31.7983 -31.7739 -31.7553
   -31.7428 -31.7379 -31.7377 -31.7297 -31.6964 -31.6625 -31.6559 -31.6521
   -31.6430 -31.6404 -31.6372 -31.6347 -31.6287 -31.6100 -31.6089 -31.6079
   -31.6030 -31.5885 -31.5675 -31.5521 -31.5391 -31.5376 -31.5307 -31.5135
   -31.4960 -31.4916 -31.4844 -31.4831 -31.4647 -31.4469 -31.4414 -31.4362
   -31.4057 -31.3990 -30.8544 -30.8531 -30.7730 -30.7721 -30.7336 -30.7327
   -19.3542 -19.1901 -15.7055 -15.5963 -15.5619 -15.4150 -15.4109 -15.3598
   -15.3516 -15.3157 -15.2358 -15.2323 -15.1824 -15.1634 -15.1288 -15.1052
   -15.0933 -15.0478 -15.0455 -15.0267 -15.0029 -14.9843 -14.9678 -14.9403
   -14.9162 -14.9089 -14.8711 -14.8628 -14.7982 -14.7429 -14.7226 -13.0351
   -13.0327  -9.0165  -7.1768  -5.1969  -5.1578  -3.7560  -3.1560  -2.9894
    -2.8021  -2.7876  -2.6543  -2.6194  -2.6014  -2.5110  -2.4776  -2.4440
    -2.3809  -2.3701  -2.3636  -2.3419  -2.3369  -2.3233  -2.3021  -2.2655
    -2.2554  -2.2235  -2.1937  -2.1798  -2.1593  -2.1494  -2.1209  -2.1015
    -2.0890  -2.0852  -2.0234  -1.9953  -1.9102  -1.8439  -1.7629  -1.7104
    -1.6792  -1.6769  -1.6406  -1.6020  -1.5943  -1.5790  -1.4330  -1.3839
    -1.2611  -1.2476  -1.2285  -1.1522  -1.1371  -1.1110  -1.0971  -1.0303
    -0.9445  -0.9402  -0.9170  -0.8886  -0.8012  -0.7332  -0.6919  -0.6563
    -0.6124  -0.5822  -0.5084  -0.4949  -0.4840  -0.4216  -0.3812  -0.2962
    -0.2824  -0.2633  -0.2121  -0.1831  -0.1489  -0.0796  -0.0615  -0.0392
     0.0425   0.1089   0.1148   0.3246   0.4869   0.5160   0.5325   0.6174
     0.6640   0.7729   0.7961   0.8054   0.8476   0.8931   0.9805   1.0065
     1.0083   1.0858   1.8347   1.8354   1.9228   1.9335   3.5660   3.8798
     3.9442   3.9676   3.9926   4.1079   4.1105   4.1297   4.1383   4.2809
     4.2939

     the Fermi energy is     3.6125 ev

!    total energy              =   -2964.99523488 Ry
     estimated scf accuracy    <       0.00000005 Ry
     smearing contrib. (-TS)   =      -0.03111417 Ry
     internal energy E=F+TS    =   -2964.96412071 Ry

     The total energy is F=E-TS. E is the sum of the following terms:
     one-electron contribution =  -24342.56384842 Ry
     hartree contribution      =   12264.34366537 Ry
     xc contribution           =    -490.11004848 Ry
     ewald contribution        =    9603.36328815 Ry
     electric field correction =       0.00282266 Ry

     convergence has been achieved in  76 iterations

     Forces acting on atoms (cartesian axes, Ry/au):

     atom    1 type  1   force =    -0.00009776    0.00006595    0.10408269
     atom    2 type  1   force =    -0.00008820    0.00006273    0.10410688
     atom    3 type  2   force =    -0.00029795   -0.00188260    0.10329723
     atom    4 type  2   force =    -0.00015689    0.00150884    0.11462168
     atom    5 type  2   force =    -0.00037777    0.00124923   -0.17936683
     atom    6 type  2   force =    -0.00016802   -0.00076966   -0.17974674
     atom    7 type  1   force =    -0.06941830    0.00065339   -0.02930166
     atom    8 type  1   force =    -0.06896362   -0.00122673   -0.02934638
     atom    9 type  1   force =     0.06906168    0.00114722   -0.02936297
     atom   10 type  1   force =     0.06869335   -0.00080765   -0.02941723
     atom   11 type  1   force =     0.00042004    0.00056428    0.04681644
     atom   12 type  1   force =     0.00063175    0.00080967    0.04852102
     atom   13 type  1   force =     0.00026703   -0.00568691   -0.03324759
     atom   14 type  1   force =     0.00033177    0.00340039   -0.02637916
     atom   15 type  2   force =    -0.00010569   -0.00002294    0.00040301
     atom   16 type  2   force =     0.00001493    0.00003471    0.00051637
     atom   17 type  2   force =    -0.00002317    0.00012526    0.00041891
     atom   18 type  2   force =    -0.00006521   -0.00032740    0.00008023
     atom   19 type  1   force =    -0.01805742   -0.00015700    0.00403303
     atom   20 type  1   force =    -0.01682923    0.00147802    0.00328419
     atom   21 type  1   force =     0.01932693   -0.00136778    0.00448082
     atom   22 type  1   force =     0.01788970    0.00116432    0.00355720
     atom   23 type  1   force =     0.00001882    0.00002674   -0.00014365
     atom   24 type  1   force =    -0.00005323   -0.00000465   -0.00008750
     atom   25 type  1   force =    -0.00005010    0.00000586   -0.00060025
     atom   26 type  1   force =    -0.00022980    0.00014242   -0.00067444
     atom   27 type  2   force =     0.00004324    0.00013985   -0.00043827
     atom   28 type  2   force =     0.00022853    0.00001868   -0.00011081
     atom   29 type  2   force =     0.00021594    0.00001283   -0.00023485
     atom   30 type  2   force =    -0.00008518    0.00020568    0.00019441
     atom   31 type  1   force =    -0.00065293   -0.00024430    0.00053683
     atom   32 type  1   force =    -0.00056187    0.00032635    0.00056736
     atom   33 type  1   force =     0.00041268   -0.00014289    0.00035288
     atom   34 type  1   force =     0.00033328    0.00019160    0.00038294
     atom   35 type  1   force =    -0.00014825    0.00001032    0.00024261
     atom   36 type  1   force =    -0.00009041    0.00000868   -0.00013959
     atom   37 type  1   force =    -0.00036200    0.00000791   -0.00018490
     atom   38 type  1   force =    -0.00051739    0.00026842   -0.00003127
     atom   39 type  2   force =    -0.00017549   -0.00007801    0.00128943
     atom   40 type  2   force =     0.00005637    0.00021810   -0.00147633
     atom   41 type  2   force =    -0.00029507   -0.00086128   -0.00054037
     atom   42 type  2   force =    -0.00026922    0.00085070   -0.00040174
     atom   43 type  1   force =    -0.00002987    0.00022806    0.00032087
     atom   44 type  1   force =    -0.00008809   -0.00009796    0.00011566
     atom   45 type  1   force =    -0.00039173   -0.00025264   -0.00000671
     atom   46 type  1   force =    -0.00044516    0.00041665    0.00014295
     atom   47 type  1   force =    -0.00010783   -0.00018541    0.00005608
     atom   48 type  1   force =    -0.00022461    0.00012011    0.00063894
     atom   49 type  3   force =     0.00020139   -0.00055171    0.00021463
     atom   50 type  4   force =     0.00049447   -0.00114929    0.00043745
     atom   51 type  4   force =     0.00037980   -0.00028234   -0.00063125
     atom   52 type  1   force =     0.01461652    0.00072501   -0.00818511
     atom   53 type  4   force =     0.00121628   -0.00000043   -0.00077346
     atom   54 type  4   force =    -0.01542704   -0.00008837    0.00711631

     Total force =     0.375276     Total SCF correction =     0.000618
  @ DRIVER MODE: Message from server: STATUS
  @ DRIVER MODE: Message from server: GETFORCE
  @ DRIVER MODE: Returning v,forces,stress,ensemble

     Writing output data file ./calc.save/
  @ DRIVER MODE: Message from server: EXIT
  @ DRIVE MODE: Exiting

     General routines

     Parallel routines

   This run was terminated on:   4:41:24  16Sep2021

   JOB DONE.