     Program PWSCF v.7.0 starts on 16Aug2022 at 14:45:13

     R & G space division:  proc/nbgrp/npool/nimage =       6

     Reading input from /storage/coda1/p-amedford6/0/ntian30/BEEF_carbon_assisted/ACS_sus_calc/ads_slab/NH2/BEEF_carbon_assisted.log/pw.inp
Warning: card &CELL ignored
Warning: card   CELL_DYNAMICS='IPI', ignored
Warning: card / ignored

     Current dimensions of program PWSCF are:
     Max number of different atomic species (ntypx) = 10
     Max number of k-points (npk) =  40000
     Max angular momentum in pseudopotentials (lmaxx) =  4
     Presently no symmetry can be used with electric field

     Message from routine cell_base_init:
     DEPRECATED: use true lattice parameter, not A to a.u. conversion factor

     IMPORTANT: XC functional enforced from input :
     Exchange-correlation= BEEF-VDW
                           (   1   4  43  14   2   0   0)
     Any further DFT definition will be discarded
     Please, verify this is what you really want

  @ DRIVER MODE: Connecting to
 qe_1139763_4802579.sched-torque.pace.gatech.eduq63uvqpc_scratch
  using UNIX socket
  @ DRIVER MODE: Message from server: STATUS
  @ DRIVER MODE: Message from server: INIT
  @ DRIVER MODE: Receiving replica           0          -1
  @ DRIVER MODE: Receiving parameter string
 lscf : 1, lforce : 1, lstress : 0, lmovecell : 0, lensemb : 0,

     Using Slab Decomposition

     bravais-lattice index     =            0
     lattice parameter (alat)  =       1.8897  a.u.
     unit-cell volume          =    6658.9804 (a.u.)^3
     number of atoms/cell      =           50
     number of atomic types    =            4
     number of electrons       =       385.00
     number of Kohn-Sham states=          202
     kinetic-energy cutoff     =      29.3995  Ry
     charge density cutoff     =     293.9946  Ry
     scf convergence threshold =      7.3E-08
     mixing beta               =       0.0500
     number of iterations used =            8  plain     mixing
     energy convergence thresh.=      1.0E-04
     force convergence thresh. =      1.0E-03
     Exchange-correlation= BEEF-VDW
                           (   1   4  43  14   2   0   0)
     nstep                     =           50

     celldm(1)=   1.889726  celldm(2)=   0.000000  celldm(3)=   0.000000
     celldm(4)=   0.000000  celldm(5)=   0.000000  celldm(6)=   0.000000

     crystal axes: (cart. coord. in units of alat)
               a(1) = (   6.579727   0.000000   0.000000 )
               a(2) = (  -0.000775   5.961596   0.000000 )
               a(3) = (   0.000000   0.000000  25.155947 )

     reciprocal axes: (cart. coord. in units 2 pi/alat)
               b(1) = (  0.151982  0.000020  0.000000 )
               b(2) = (  0.000000  0.167740  0.000000 )
               b(3) = (  0.000000  0.000000  0.039752 )

     PseudoPot. # 1 for Ti read from file:
     /storage/coda1/p-amedford6/0/shared/rich_project_chbe-medford/medford-share/data/pseudos_module/espresso/nninc/pbe/van/Ti.UPF
     MD5 check sum: 8e4df49b7f0d34bbd5052bf3f5ea0213
     Pseudo is Ultrasoft, Zval = 12.0
     Generated by new atomic code, or converted to UPF format
     Using radial grid of  851 points,  6 beta functions with:
                l(1) =   0
                l(2) =   0
                l(3) =   1
                l(4) =   1
                l(5) =   2
                l(6) =   2
     Q(r) pseudized with  8 coefficients,  rinner =    1.000   1.000   1.000
                                                       1.000   1.000

     PseudoPot. # 2 for O  read from file:
     /storage/coda1/p-amedford6/0/shared/rich_project_chbe-medford/medford-share/data/pseudos_module/espresso/nninc/pbe/van/O.UPF
     MD5 check sum: 78c19812648e8988a0fe644b0f25305e
     Pseudo is Ultrasoft, Zval =  6.0
     Generated by new atomic code, or converted to UPF format
     Using radial grid of  737 points,  4 beta functions with:
                l(1) =   0
                l(2) =   0
                l(3) =   1
                l(4) =   1
     Q(r) pseudized with  8 coefficients,  rinner =    0.800   0.800   0.800

     PseudoPot. # 3 for H  read from file:
     /storage/coda1/p-amedford6/0/shared/rich_project_chbe-medford/medford-share/data/pseudos_module/espresso/nninc/pbe/van/H.UPF
     MD5 check sum: b5ee9d7bfd3a09ee7748110bda690ff7
     Pseudo is Ultrasoft, Zval =  1.0
     Generated by new atomic code, or converted to UPF format
     Using radial grid of  615 points,  1 beta functions with:
                l(1) =   0
     Q(r) pseudized with  8 coefficients,  rinner =    0.800

     PseudoPot. # 4 for N  read from file:
     /storage/coda1/p-amedford6/0/shared/rich_project_chbe-medford/medford-share/data/pseudos_module/espresso/nninc/pbe/van/N.UPF
     MD5 check sum: 90d10febe142ad51ac9d5be1deb811c4
     Pseudo is Ultrasoft, Zval =  5.0
     Generated by new atomic code, or converted to UPF format
     Using radial grid of  729 points,  4 beta functions with:
                l(1) =   0
                l(2) =   0
                l(3) =   1
                l(4) =   1
     Q(r) pseudized with  8 coefficients,  rinner =    0.800   0.800   0.800

     atomic species   valence    mass     pseudopotential
        Ti1           12.00    47.86700     Ti( 1.00)
        O1             6.00    15.99900     O ( 1.00)
        H1             1.00     1.00800     H ( 1.00)
        N1             5.00    14.00700     N ( 1.00)

     Starting magnetic structure
     atomic species   magnetization
        Ti1          0.083
        O1           0.167
        H1           1.000
        N1           0.200

     No symmetry found

   Cartesian axes

     site n.     atom                  positions (alat units)
         1           Ti1 tau(   1) = (   0.0004258   2.9801865   6.0000000  )
         2           Ti1 tau(   2) = (   3.2906075   1.4906267   6.0002472  )
         3           O1  tau(   3) = (   0.0006271   0.0005054   7.9858123  )
         4           O1  tau(   4) = (   3.2906025   0.0005020   7.3038282  )
         5           O1  tau(   5) = (   4.5942328   1.4918067   9.2879030  )
         6           O1  tau(   6) = (   1.9868534   1.4903216   9.2879459  )
         7           Ti1 tau(   7) = (   3.2907910   2.8959150   9.1758416  )
         8           Ti1 tau(   8) = (   0.0015273   1.4827037   9.2680791  )
         9           O1  tau(   9) = (   3.3258991   5.9546141  11.3332578  )
        10           O1  tau(  10) = (   0.0116148   5.9584955  10.6183126  )
        11           O1  tau(  11) = (   1.3488932   1.4798543  12.6053297  )
        12           O1  tau(  12) = (   5.3234149   1.4779677  12.6259018  )
        13           Ti1 tau(  13) = (   0.0250334   2.9927558  12.6206450  )
        14           Ti1 tau(  14) = (   3.3016322   1.4795038  12.4820857  )
        15           O1  tau(  15) = (   0.0664024   0.0157593  14.6586037  )
        16           O1  tau(  16) = (   3.3323282   0.0041071  13.9289915  )
        17           O1  tau(  17) = (   4.5995015   1.5314437  16.0640773  )
        18           O1  tau(  18) = (   2.1161456   1.5293183  16.0749432  )
        19           Ti1 tau(  19) = (   3.3498380   3.0088313  15.6963580  )
        20           Ti1 tau(  20) = (   0.0530739   1.5396549  15.8437714  )
        21           O1  tau(  21) = (   3.2904802   0.0005063   4.7018136  )
        22           O1  tau(  22) = (   0.0625368   0.0441461  17.2188842  )
        23           O1  tau(  23) = (   1.3043587   1.4918075   6.0039043  )
        24           O1  tau(  24) = (   5.2767064   1.4903225   6.0039473  )
        25           Ti1 tau(  25) = (   0.0000382   5.9609847   6.0000000  )
        26           Ti1 tau(  26) = (   3.2902200   4.4714249   6.0002472  )
        27           O1  tau(  27) = (   0.0002396   2.9813036   7.9858123  )
        28           O1  tau(  28) = (   3.2902150   2.9813002   7.3038282  )
        29           O1  tau(  29) = (   4.5938453   4.4726049   9.2879030  )
        30           O1  tau(  30) = (   1.9864658   4.4711199   9.2879459  )
        31           Ti1 tau(  31) = (   3.2891106   5.8743827   9.1763621  )
        32           Ti1 tau(  32) = (   0.0006254   4.4649316   9.2693709  )
        33           O1  tau(  33) = (   3.3263537   2.9785333  11.3304563  )
        34           O1  tau(  34) = (   0.0092240   2.9805883  10.6323155  )
        35           O1  tau(  35) = (   1.3430786   4.4678698  12.6172051  )
        36           O1  tau(  36) = (   5.3277099   4.4710525  12.6377626  )
        37           Ti1 tau(  37) = (   0.0170098   0.0068522  12.5677129  )
        38           Ti1 tau(  38) = (   3.3012998   4.4598595  12.4837504  )
        39           O1  tau(  39) = (   0.0613649   2.9331972  14.6385027  )
        40           O1  tau(  40) = (   3.3336062   2.9900835  13.9042222  )
        41           O1  tau(  41) = (   4.5971590   4.4874278  16.0927711  )
        42           O1  tau(  42) = (   2.1143488   4.4887574  16.1000639  )
        43           Ti1 tau(  43) = (   3.3470598   0.0240971  15.7232225  )
        44           Ti1 tau(  44) = (   0.0592690   4.6672874  16.1350517  )
        45           O1  tau(  45) = (   3.2900926   2.9813045   4.7018136  )
        46           O1  tau(  46) = (   1.3039711   4.4726057   6.0039043  )
        47           O1  tau(  47) = (   5.2763189   4.4711207   6.0039473  )
        48           H1  tau(  48) = (   5.8602933   2.9036204  18.0417654  )
        49           H1  tau(  49) = (   0.9096825   2.8932289  17.9980414  )
        50           N1  tau(  50) = (   0.0797844   2.9726167  17.4194980  )

     number of k points=    10  Fermi-Dirac smearing, width (Ry)=  0.0073
                       cart. coord. in units 2pi/alat
        k(    1) = (   0.0000000   0.0000000   0.0000000), wk =   0.0625000
        k(    2) = (   0.0000000   0.0419351   0.0000000), wk =   0.1250000
        k(    3) = (   0.0000000  -0.0838702   0.0000000), wk =   0.0625000
        k(    4) = (   0.0379955   0.0000049   0.0000000), wk =   0.1250000
        k(    5) = (   0.0379955   0.0419400   0.0000000), wk =   0.1250000
        k(    6) = (   0.0379955  -0.0838652   0.0000000), wk =   0.1250000
        k(    7) = (   0.0379955  -0.0419301   0.0000000), wk =   0.1250000
        k(    8) = (  -0.0759910  -0.0000099   0.0000000), wk =   0.0625000
        k(    9) = (  -0.0759910   0.0419252   0.0000000), wk =   0.1250000
        k(   10) = (  -0.0759910  -0.0838800   0.0000000), wk =   0.0625000

     Initial potential from superposition of free atoms

     starting charge     368.9992, renormalised to     385.0000

     negative rho (up, down):  1.134E-02 1.061E-02

     %%%%%%%%%%%%%%%%%%%%%%%%%%%%%%%%%%%%%%%%%%%%%%%%%%%%%%%%%%%%%%%%%%%%%%%%
     %                                                                      %
     % You are using vdW-DF, which was implemented by the Thonhauser group. %
     % Please cite the following two papers that made this development      %
     % possible and the two reviews that describe the various versions:     %
     %                                                                      %
[...]
     atom   5 (R=0.710)  charge=  4.8257  magn= -0.0002
     atom   6 (R=0.710)  charge=  4.8259  magn= -0.0002
     atom   7 (R=0.710)  charge=  7.7825  magn=  0.0009
     atom   8 (R=0.710)  charge=  7.7744  magn=  0.0071
     atom   9 (R=0.710)  charge=  4.8406  magn= -0.0001
     atom  10 (R=0.710)  charge=  4.8151  magn= -0.0006
     atom  11 (R=0.710)  charge=  4.8237  magn= -0.0002
     atom  12 (R=0.710)  charge=  4.8244  magn= -0.0002
     atom  13 (R=0.710)  charge=  7.7701  magn=  0.0012
     atom  14 (R=0.710)  charge=  7.7820  magn=  0.0004
     atom  15 (R=0.710)  charge=  4.8160  magn= -0.0001
     atom  16 (R=0.710)  charge=  4.8382  magn= -0.0001
     atom  17 (R=0.710)  charge=  4.8147  magn= -0.0000
     atom  18 (R=0.710)  charge=  4.8141  magn= -0.0000
     atom  19 (R=0.710)  charge=  7.8097  magn=  0.0001
     atom  20 (R=0.710)  charge=  7.7843  magn=  0.0002
     atom  21 (R=0.710)  charge=  4.7139  magn= -0.0010
     atom  22 (R=0.710)  charge=  4.7947  magn=  0.0000
     atom  23 (R=0.710)  charge=  4.8179  magn= -0.0030
     atom  24 (R=0.710)  charge=  4.8178  magn= -0.0030
     atom  25 (R=0.710)  charge=  7.8003  magn=  0.0253
     atom  26 (R=0.710)  charge=  7.7839  magn=  0.0011
     atom  27 (R=0.710)  charge=  4.8197  magn= -0.0020
     atom  28 (R=0.710)  charge=  4.8544  magn= -0.0003
     atom  29 (R=0.710)  charge=  4.8265  magn= -0.0002
     atom  30 (R=0.710)  charge=  4.8266  magn= -0.0002
     atom  31 (R=0.710)  charge=  7.7827  magn=  0.0009
     atom  32 (R=0.710)  charge=  7.7745  magn=  0.0071
     atom  33 (R=0.710)  charge=  4.8392  magn= -0.0001
     atom  34 (R=0.710)  charge=  4.8024  magn= -0.0006
     atom  35 (R=0.710)  charge=  4.8245  magn= -0.0002
     atom  36 (R=0.710)  charge=  4.8242  magn= -0.0002
     atom  37 (R=0.710)  charge=  7.7700  magn=  0.0014
     atom  38 (R=0.710)  charge=  7.7825  magn=  0.0004
     atom  39 (R=0.710)  charge=  4.8106  magn= -0.0000
     atom  40 (R=0.710)  charge=  4.8449  magn= -0.0001
     atom  41 (R=0.710)  charge=  4.8131  magn= -0.0000
     atom  42 (R=0.710)  charge=  4.8130  magn= -0.0000
     atom  43 (R=0.710)  charge=  7.8062  magn=  0.0000
     atom  44 (R=0.710)  charge=  7.8123  magn=  0.0000
     atom  45 (R=0.710)  charge=  4.7139  magn= -0.0010
     atom  46 (R=0.710)  charge=  4.8179  magn= -0.0030
     atom  47 (R=0.710)  charge=  4.8178  magn= -0.0030
     atom  48 (R=0.419)  charge=  0.4481  magn= -0.0000
     atom  49 (R=0.419)  charge=  0.4490  magn= -0.0000
     atom  50 (R=0.419)  charge=  1.3336  magn=  0.0000

     End of self-consistent calculation

 ------ SPIN UP ------------

          k = 0.0000 0.0000 0.0000 ( 18029 PWs)   bands (ev):

   -56.2175 -56.1898 -56.1835 -56.1538 -56.0925 -56.0196 -56.0121 -56.0077
   -55.9769 -55.9743 -55.9629 -55.9292 -55.7394 -55.4395 -55.1698 -55.1358
   -32.7503 -32.6851 -32.5332 -32.5139 -32.5133 -32.5083 -32.4970 -32.4562
   -32.4528 -32.4270 -32.3881 -32.3857 -32.3741 -32.3702 -32.3347 -32.3216
   -32.3184 -32.3073 -32.2828 -32.2797 -32.2400 -32.2148 -32.2059 -32.1935
   -32.1926 -32.1804 -32.1707 -32.1655 -32.1612 -32.1416 -32.1408 -32.1378
   -32.1312 -32.1196 -32.1157 -32.1133 -32.0749 -31.9936 -31.9217 -31.7303
   -31.7053 -31.6414 -31.5762 -31.4890 -31.4664 -31.3934 -31.3069 -31.1954
   -16.9234 -16.6631 -16.4488 -16.3414 -16.2708 -16.2142 -16.0209 -15.9030
   -15.8661 -15.7679 -15.7265 -15.6957 -15.6919 -15.6677 -15.6467 -15.6240
   -15.6104 -15.5952 -15.5580 -15.5487 -15.5125 -15.4581 -15.3542 -15.3392
   -15.3266 -15.2840 -15.2334 -15.2203 -14.7539 -13.6702 -13.5538 -13.5030
    -4.7173  -4.3005  -4.1100  -4.0948  -4.0614  -4.0234  -3.7945  -3.7524
    -3.3989  -3.3605  -3.3535  -3.3185  -3.2985  -3.2647  -3.0831  -3.0134
    -3.0048  -2.9655  -2.9637  -2.9489  -2.9476  -2.9168  -2.9123  -2.7950
    -2.7244  -2.6104  -2.5884  -2.5063  -2.4931  -2.4748  -2.4432  -2.4231
    -2.4140  -2.4060  -2.3771  -2.3659  -2.2251  -2.1918  -2.0402  -1.9924
    -1.9778  -1.8440  -1.7974  -1.6654  -1.6473  -1.6151  -1.5914  -1.5807
    -1.4879  -1.4681  -1.3769  -1.3313  -1.2620  -1.2584  -1.1932  -1.1762
    -1.0680  -1.0588  -1.0440  -0.9488  -0.9330  -0.9225  -0.8748  -0.7846
    -0.6287  -0.5925  -0.5892  -0.5662  -0.4936  -0.4500  -0.3706  -0.3497
    -0.3409  -0.2864  -0.2557  -0.2139  -0.1845  -0.1671  -0.1603  -0.1107
     0.0709   0.1082   0.1620   0.1964   0.2042   0.3546   0.3963   0.4743
     0.5779   0.7797   0.8067   0.8536   0.9704   1.0465   1.4258   1.4702
     2.9350   2.9999   3.0224   3.0731   3.1856   3.2042   3.3837   3.4185
     3.4363   3.4462

[...]

          k =-0.0760-0.0000 0.0000 ( 17886 PWs)   bands (ev):

[...]

 ------ SPIN DOWN ----------

[...]

          k = 0.0380-0.0419 0.0000 ( 17876 PWs)   bands (ev):

[...]

          k =-0.0760-0.0839 0.0000 ( 17948 PWs)   bands (ev):

   -56.1714 -56.1701 -56.1528 -56.1517 -56.0879 -56.0236 -55.9952 -55.9881
   -55.9781 -55.9764 -55.9448 -55.9441 -55.7381 -55.4402 -55.1506 -55.1505
   -32.5538 -32.5512 -32.4806 -32.4797 -32.4728 -32.4488 -32.4453 -32.4443
   -32.3935 -32.3857 -32.3652 -32.3595 -32.3512 -32.3136 -32.2946 -32.2897
   -32.2885 -32.2851 -32.2837 -32.2813 -32.2781 -32.2669 -32.2660 -32.2276
   -32.2039 -32.2007 -32.1981 -32.1835 -32.1777 -32.1777 -32.1754 -32.1751
   -32.1594 -32.1586 -32.1477 -32.1409 -32.0772 -31.9961 -31.9183 -31.7887
   -31.7067 -31.6636 -31.4765 -31.4764 -31.3879 -31.3877 -31.3479 -31.3479
   -16.3791 -16.3462 -16.1247 -16.1156 -16.1027 -16.1002 -15.9197 -15.8892
   -15.8862 -15.8534 -15.8362 -15.8019 -15.7639 -15.7320 -15.6989 -15.6881
   -15.6786 -15.6653 -15.6421 -15.6282 -15.6224 -15.6144 -15.5055 -15.5013
   -15.4718 -15.4093 -15.3345 -15.1958 -14.9132 -13.6576 -13.6575 -13.5220
    -4.7407  -3.6752  -3.6383  -3.3556  -3.3454  -3.3390  -3.2857  -3.1247
    -3.0773  -3.0504  -3.0424  -3.0000  -2.9959  -2.9849  -2.9715  -2.9418
    -2.9241  -2.9185  -2.8957  -2.8544  -2.8463  -2.8415  -2.8085  -2.8057
    -2.7997  -2.7576  -2.7281  -2.7157  -2.6971  -2.6763  -2.6454  -2.3999
    -2.3842  -2.3271  -2.3227  -2.3168  -2.2728  -2.2504  -2.2458  -2.2376
    -2.1452  -2.0421  -1.9135  -1.8812  -1.8713  -1.7894  -1.7410  -1.6296
    -1.5916  -1.5609  -1.5578  -1.4944  -1.4434  -1.3979  -1.3839  -1.3124
    -1.2774  -1.2657  -1.1645  -1.1460  -1.1430  -1.1381  -1.0306  -0.9500
    -0.9471  -0.9389  -0.9063  -0.8996  -0.7993  -0.7971  -0.7525  -0.6802
    -0.6730  -0.6520  -0.5079  -0.3769  -0.1832  -0.1473  -0.1125  -0.0446
     0.0344   0.0911   0.1201   0.1285   0.1411   0.2009   0.2391   0.3496
     0.3530   0.4595   0.5587   0.8000   1.2169   1.2176   1.2894   1.2896
     3.2293   3.2379   3.2687   3.2964   3.4644   3.4693   3.4865   3.4876
     3.6315   3.6474

     the Fermi energy is     2.9408 ev

!    total energy              =   -2906.48872366 Ry
     estimated scf accuracy    <       0.00000005 Ry
     smearing contrib. (-TS)   =      -0.02169318 Ry
     internal energy E=F+TS    =   -2906.46703047 Ry

     total magnetization       =     0.10 Bohr mag/cell
     absolute magnetization    =     0.15 Bohr mag/cell

     convergence has been achieved in 109 iterations

     Forces acting on atoms (cartesian axes, Ry/au):

     atom    1 type  1   force =     0.00013694   -0.00026272    0.09699889
     atom    2 type  1   force =    -0.00010331   -0.00055233   -0.17533424
     atom    3 type  2   force =     0.00015306   -0.00009253   -0.02524584
     atom    4 type  2   force =     0.00004781   -0.00152760    0.05279879
     atom    5 type  2   force =    -0.01199962   -0.00048961    0.00192156
     atom    6 type  2   force =     0.01460413   -0.00002398    0.00353756
     atom    7 type  1   force =     0.00107459    0.00033063   -0.01167747
     atom    8 type  1   force =    -0.00053666    0.00752495    0.03115416
     atom    9 type  2   force =     0.00006678    0.00014003   -0.00036357
     atom   10 type  2   force =    -0.00053998    0.00072863   -0.01779426
     atom   11 type  2   force =     0.00026450   -0.00020065    0.00000910
     atom   12 type  2   force =    -0.00022734   -0.00007481    0.00000962
     atom   13 type  1   force =    -0.00026268    0.00078311    0.00099451
     atom   14 type  1   force =    -0.00067717    0.00039646   -0.00175035
     atom   15 type  2   force =    -0.00021034   -0.00048334   -0.00028501
     atom   16 type  2   force =     0.00025095    0.00000296    0.00103253
     atom   17 type  2   force =    -0.00020847   -0.00014176    0.00014070
     atom   18 type  2   force =    -0.00036141   -0.00000623   -0.00000303
     atom   19 type  1   force =    -0.00027128    0.00030871    0.00093204
     atom   20 type  1   force =    -0.00014333    0.00145661   -0.00045519
     atom   21 type  2   force =     0.00003422   -0.00009053    0.10317141
     atom   22 type  2   force =    -0.00023599    0.00082389    0.00140668
     atom   23 type  2   force =    -0.07151483   -0.00018402   -0.02782486
     atom   24 type  2   force =     0.07144955    0.00028271   -0.02788474
     atom   25 type  1   force =     0.00000716   -0.00024245    0.09651006
     atom   26 type  1   force =    -0.00010567   -0.00040092   -0.17551197
     atom   27 type  2   force =     0.00018773   -0.00020124   -0.02434316
     atom   28 type  2   force =     0.00009335   -0.00126496    0.05259736
     atom   29 type  2   force =    -0.01215932    0.00019949    0.00167195
     atom   30 type  2   force =     0.01465289    0.00048146    0.00332423
     atom   31 type  1   force =     0.00098648    0.00316928   -0.01221277
     atom   32 type  1   force =    -0.00070790   -0.00921739    0.03161114
     atom   33 type  2   force =     0.00010961    0.00002926    0.00013626
     atom   34 type  2   force =    -0.00009531    0.00026732   -0.02687745
     atom   35 type  2   force =     0.00047594    0.00016138    0.00021730
     atom   36 type  2   force =    -0.00040425    0.00018740    0.00026403
     atom   37 type  1   force =    -0.00055510    0.00021502    0.00029941
     atom   38 type  1   force =    -0.00074053   -0.00005883   -0.00171183
     atom   39 type  2   force =    -0.00004866   -0.00013456    0.00015339
     atom   40 type  2   force =     0.00014116   -0.00011882    0.00056225
     atom   41 type  2   force =    -0.00061853    0.00013992   -0.00015080
     atom   42 type  2   force =    -0.00006599    0.00010761   -0.00020748
     atom   43 type  1   force =    -0.00015058   -0.00002835    0.00084057
     atom   44 type  1   force =    -0.00026307   -0.00154539   -0.00082566
     atom   45 type  2   force =     0.00001314   -0.00009580    0.10316255
     atom   46 type  2   force =    -0.07151711   -0.00011225   -0.02781479
     atom   47 type  2   force =     0.07147373    0.00029181   -0.02788465
     atom   48 type  3   force =    -0.00032548   -0.00023613   -0.00063383
     atom   49 type  3   force =    -0.00017383    0.00030110    0.00045269
     atom   50 type  4   force =    -0.00099998   -0.00054256    0.00088218

     Total force =     0.368940     Total SCF correction =     0.000583
  @ DRIVER MODE: Message from server: STATUS
  @ DRIVER MODE: Message from server: GETFORCE
  @ DRIVER MODE: Returning v,forces,stress

     Writing config to output data dir ./calc.save/
  @ DRIVER MODE: Message from server: STATUS
  @ DRIVER MODE: Message from server: INIT
  @ DRIVER MODE: Receiving replica           0           0
  @ DRIVER MODE: Receiving parameter string
 lscf : 0, lforce : 0, lstress : 0, lmovecell : 0, lensemb : 1,
  @ DRIVER MODE: Message from server: STATUS
  @ DRIVER MODE: Message from server: POSDATA
  @ DRIVER MODE: Reading and sharing cell
  @ DRIVER MODE: Reading and sharing positions
  @ DRIVER MODE: Received positions
     NEW-OLD atomic charge density approx. for the potential

[...]

     Adding external electric field

     Computed dipole along edir(3) :
        Dipole                0.6506 Ry au,          1.6538 Debye
        Dipole field          0.0012 Ry au,

        Potential amp.       -0.1138 Ry
        Total length         46.3494 bohr

     Generating pointlists ...
  @ DRIVER MODE: BEEF-vdw

[...]

     negative rho (up, down):  1.038E-02 1.038E-02

     negative rho (up, down):  1.038E-02 1.038E-02
 BEEFens 2000 ensemble energies
             -0.341536957459211E+02
             -0.201196033942117E+01
             -0.702922817326150E+01
              0.237096401135429E+02
             -0.117341031329583E+02
             -0.906768714218657E+01
             -0.236676817875244E+02
             -0.495235390748507E+02
             -0.211270013238282E+02
             -0.222653366420623E+02
             -0.207347100308556E+02
              0.421876296538655E+01
              0.197577313365944E+01
             -0.105879556708267E+01
              0.169023404224062E+01
              0.261198498320073E+02
             -0.100244727184611E+02
             -0.708561192519377E+01
              0.116035406302107E+02
             -0.609862188284996E+02
              0.306007547394521E+02
             -0.131552725028949E+02
             -0.235403898326745E+01
             -0.550190751194195E+01
             -0.980462826894836E+00
             -0.206796341272954E+01
              0.472710050310254E+02
             -0.148753006351523E+02
             -0.391968709505380E+01
             -0.299418560877620E+02
              0.386513074622998E+02
             -0.425932833655736E+01
             -0.210347430340881E+02
              0.110488770850989E+02
             -0.202875488549080E+01
              0.128514029625771E+02
             -0.531654870002512E+00
              0.268909791447936E+01
              0.186894554758149E+02
             -0.537863541050116E+02
              0.299695531952123E+02
              0.802203515308182E+01
             -0.618751862269070E+01
             -0.172048519599330E+02
              0.680044673806373E+01
             -0.108050885875222E+02
              0.245194551856463E+02
              0.195974621052870E+02
             -0.126230017761088E+02
             -0.161451985278704E+02
             -0.170871969707774E+02
             -0.204843527782215E+02
              0.104056351328645E+02
             -0.266501461010405E+02
              0.816443241700063E+01
              0.340995844582996E+02
              0.393269979526185E+02
              0.183036264758570E+02
              0.813133715026707E+01
              0.170792219002938E+02
[...]
             -0.402040413146614E+02
              0.275046265051361E+01
             -0.147327508936366E+01
             -0.560155802619425E+01
              0.547305381962815E-01
             -0.357882607815829E+02
             -0.689809752651273E+01
              0.482432334072057E+01
              0.732157627572161E+01
              0.268220439803017E+02
             -0.234692071174116E+02
              0.305460944595595E+02
             -0.218918518920406E+02
              0.140783541095055E+02
              0.221631894817410E+02

 BEEF-vdW xc energy contributions
           1 :   -403.164058949280
           2 :    351.402865502862
           3 :   -267.692934426787
           4 :    180.099422672451
           5 :   -111.209305926065
           6 :    70.1070306555198
           7 :   -53.1477440300107
           8 :    50.3185179298370
           9 :   -52.1930183512030
          10 :    53.5411337826308
          11 :   -53.1660139387113
          12 :    51.6464016117992
          13 :   -49.4340218107344
          14 :    46.2987809621074
          15 :   -41.9141743058784
          16 :    36.5040920903705
          17 :   -30.9878157491221
          18 :    26.5124572302396
          19 :   -23.8740835809329
          20 :    23.1707648209688
          21 :   -23.9109982912784
          22 :    25.3398617784235
          23 :   -26.7771345423774
          24 :    27.7347032894916
          25 :   -27.9035051930066
          26 :    27.0958721406612
          27 :   -25.2881812713335
          28 :    22.6877038748226
          29 :   -19.7683745602744
          30 :    17.1507607228698
          31 :   -47.2432363794157
          32 :   -32.0825444240634
  @ DRIVER MODE: Message from server: STATUS
  @ DRIVER MODE: Message from server: GETFORCE
  @ DRIVER MODE: Returning v,forces,stress
  @ DRIVE MODE: Returning Ensemble Energies
  @ DRIVE MODE: Returning Ensemble Energies
  @ DRIVE MODE: Returning Ensemble Energies
  @ DRIVE MODE: Returning Ensemble Energies
  @ DRIVE MODE: Returning Ensemble Energies
  @ DRIVE MODE: Returning Ensemble Energies

     Writing config to output data dir ./calc.save/
  @ DRIVER MODE: Message from server: EXIT
  @ DRIVE MODE: Exiting

     General routines

     Parallel routines

   This run was terminated on:  16:11:37  16Aug2022

   JOB DONE.