     Program PWSCF v.6.7GPU starts on 18Aug2021 at 20:16: 2

     R & G space division:  proc/nbgrp/npool/nimage =       6
     Reading input from /storage/home/hcoda1/3/ntian30/research/carbon/CH3_vib_side_on/ads_slab/CH3_a/out_0024/pw.inp
Warning: card &CELL ignored
Warning: card   CELL_DYNAMICS='IPI', ignored
Warning: card / ignored

     Current dimensions of program PWSCF are:
     Max number of different atomic species (ntypx) = 10
     Max number of k-points (npk) =  40000
     Max angular momentum in pseudopotentials (lmaxx) =  3
     Presently no symmetry can be used with electric field

     Message from routine cell_base_init:
     DEPRECATED: use true lattice parameter, not A to a.u. conversion factor

     IMPORTANT: XC functional enforced from input :
     Exchange-correlation= BEEF-VDW
                           (   1   4  43  14   2   0   0)
     Any further DFT definition will be discarded
     Please, verify this is what you really want

  @ DRIVER MODE: Connecting to
 qe_1139763_2594175.sched-torque.pace.gatech.edu9x2yrpqp_scratch
  using UNIX socket
  @ DRIVER MODE: Message from server: STATUS
  @ DRIVER MODE: Message from server: INIT
  @ DRIVER MODE: Receiving replica           0          -1
  @ DRIVER MODE: Receiving encoded integer          25
  @ DRIVER MODE:  SCF:  T  FORCE:  T  STRESS:  F  VC:  F  ENSEMBLE:  F
  @ DRIVER MODE:  SCF:  T  FORCE:  T  STRESS:  F  VC:  F  ENSEMBLE:  F

     Using Slab Decomposition

     bravais-lattice index     =            0
     lattice parameter (alat)  =       1.8897  a.u.
     unit-cell volume          =    6658.9804 (a.u.)^3
     number of atoms/cell      =           51
     number of atomic types    =            4
     number of electrons       =       385.00
     number of Kohn-Sham states=          202
     kinetic-energy cutoff     =      29.3995  Ry
     charge density cutoff     =     293.9946  Ry
     scf convergence threshold =      7.3E-08
     mixing beta               =       0.0500
     number of iterations used =            8  plain     mixing
     Exchange-correlation= BEEF-VDW
                           (   1   4  43  14   2   0   0)

     celldm(1)=   1.889726  celldm(2)=   0.000000  celldm(3)=   0.000000
     celldm(4)=   0.000000  celldm(5)=   0.000000  celldm(6)=   0.000000

     crystal axes: (cart. coord. in units of alat)
               a(1) = (   6.579727   0.000000   0.000000 )
               a(2) = (  -0.000775   5.961596   0.000000 )
               a(3) = (   0.000000   0.000000  25.155947 )

     reciprocal axes: (cart. coord. in units 2 pi/alat)
               b(1) = (  0.151982  0.000020  0.000000 )
               b(2) = (  0.000000  0.167740  0.000000 )
               b(3) = (  0.000000  0.000000  0.039752 )

     PseudoPot. # 1 for Ti read from file:
     /storage/coda1/p-amedford6/0/shared/rich_project_chbe-medford/medford-share/data/pseudos_module/espresso/nninc/pbe/van/Ti.UPF
     MD5 check sum: 8e4df49b7f0d34bbd5052bf3f5ea0213
     Pseudo is Ultrasoft, Zval = 12.0
     Generated by new atomic code, or converted to UPF format
     Using radial grid of  851 points,  6 beta functions with:
                l(1) =   0
                l(2) =   0
                l(3) =   1
                l(4) =   1
                l(5) =   2
                l(6) =   2
     Q(r) pseudized with  8 coefficients,  rinner =    1.000   1.000   1.000
                                                       1.000   1.000

     PseudoPot. # 2 for O  read from file:
     /storage/coda1/p-amedford6/0/shared/rich_project_chbe-medford/medford-share/data/pseudos_module/espresso/nninc/pbe/van/O.UPF
     MD5 check sum: 78c19812648e8988a0fe644b0f25305e
     Pseudo is Ultrasoft, Zval =  6.0
     Generated by new atomic code, or converted to UPF format
     Using radial grid of  737 points,  4 beta functions with:
                l(1) =   0
                l(2) =   0
                l(3) =   1
                l(4) =   1
     Q(r) pseudized with  8 coefficients,  rinner =    0.800   0.800   0.800

     PseudoPot. # 3 for C  read from file:
     /storage/coda1/p-amedford6/0/shared/rich_project_chbe-medford/medford-share/data/pseudos_module/espresso/nninc/pbe/van/C.UPF
     MD5 check sum: 1a69bf6b8db32088f5b2163dbdb77a27
     Pseudo is Ultrasoft, Zval =  4.0
     Generated by new atomic code, or converted to UPF format
     Using radial grid of  721 points,  4 beta functions with:
                l(1) =   0
                l(2) =   0
                l(3) =   1
                l(4) =   1
     Q(r) pseudized with  8 coefficients,  rinner =    0.800   0.800   0.800

     PseudoPot. # 4 for H  read from file:
     /storage/coda1/p-amedford6/0/shared/rich_project_chbe-medford/medford-share/data/pseudos_module/espresso/nninc/pbe/van/H.UPF
     MD5 check sum: b5ee9d7bfd3a09ee7748110bda690ff7
     Pseudo is Ultrasoft, Zval =  1.0
     Generated by new atomic code, or converted to UPF format
     Using radial grid of  615 points,  1 beta functions with:
                l(1) =   0
     Q(r) pseudized with  8 coefficients,  rinner =    0.800

     atomic species   valence    mass     pseudopotential
        Ti1           12.00    47.86700     Ti( 1.00)
        O1             6.00    15.99900     O ( 1.00)
        C1             4.00    12.01100     C ( 1.00)
        H1             1.00     1.00800     H ( 1.00)

     No symmetry found

   Cartesian axes

     site n.     atom                  positions (alat units)
         1           Ti1 tau(   1) = (   0.0004258   2.9801865   6.0000000  )
         2           Ti1 tau(   2) = (   3.2906075   1.4906267   6.0002472  )
         3           O1  tau(   3) = (   0.0006271   0.0005054   7.9858123  )
         4           O1  tau(   4) = (   3.2906025   0.0005020   7.3038282  )
         5           O1  tau(   5) = (   4.5942328   1.4918067   9.2879030  )
         6           O1  tau(   6) = (   1.9868534   1.4903216   9.2879459  )
         7           Ti1 tau(   7) = (   3.3226903   2.9514341   9.1576891  )
         8           Ti1 tau(   8) = (   0.0343464   1.5915341   9.3698150  )
         9           O1  tau(   9) = (   3.2914246   5.9565917  11.3520874  )
        10           O1  tau(  10) = (   0.0056322   0.0001635  10.6062760  )
        11           O1  tau(  11) = (   1.2817320   1.4815673  12.6483243  )
        12           O1  tau(  12) = (   5.2831613   1.4908443  12.6423163  )
        13           Ti1 tau(  13) = (   0.0382653   2.9371430  12.8126397  )
        14           Ti1 tau(  14) = (   3.3532929   1.4821923  12.4951370  )
        15           O1  tau(  15) = (   6.5662424   5.9331786  14.6600200  )
        16           O1  tau(  16) = (   3.2816364   5.9551084  13.9465949  )
        17           O1  tau(  17) = (   4.5315606   1.5040344  16.0986503  )
        18           O1  tau(  18) = (   2.0287349   1.4998145  16.0995964  )
        19           Ti1 tau(  19) = (   3.2668404   2.9769305  15.7222481  )
        20           Ti1 tau(  20) = (   6.5415330   1.4777109  16.1743724  )
        21           O1  tau(  21) = (   3.2904802   0.0005063   4.7018136  )
        22           O1  tau(  22) = (   6.5659521   0.0029676  17.1944956  )
        23           O1  tau(  23) = (   1.3043587   1.4918075   6.0039043  )
        24           O1  tau(  24) = (   5.2767064   1.4903225   6.0039473  )
        25           Ti1 tau(  25) = (   0.0000382   5.9609847   6.0000000  )
        26           Ti1 tau(  26) = (   3.2902200   4.4714249   6.0002472  )
        27           O1  tau(  27) = (   0.0002396   2.9813036   7.9858123  )
        28           O1  tau(  28) = (   3.2902150   2.9813002   7.3038282  )
        29           O1  tau(  29) = (   4.5938453   4.4726049   9.2879030  )
        30           O1  tau(  30) = (   1.9864658   4.4711199   9.2879459  )
        31           Ti1 tau(  31) = (   3.3086233   5.9367107   9.1526142  )
        32           Ti1 tau(  32) = (   0.0357814   4.5182409   9.2638332  )
        33           O1  tau(  33) = (   3.2921447   2.9709340  11.3500156  )
        34           O1  tau(  34) = (   0.0064783   2.9842416  10.5732297  )
        35           O1  tau(  35) = (   1.2836142   4.4569143  12.6423601  )
        36           O1  tau(  36) = (   5.2821634   4.4598214  12.6376843  )
        37           Ti1 tau(  37) = (   0.0453433   5.9192801  12.5257453  )
        38           Ti1 tau(  38) = (   3.3504828   4.4607682  12.4868234  )
        39           O1  tau(  39) = (   0.0004961   2.9772524  14.7247240  )
        40           O1  tau(  40) = (   3.2810368   2.9729593  13.9290527  )
        41           O1  tau(  41) = (   4.5304642   4.4591278  16.0913236  )
        42           O1  tau(  42) = (   2.0231910   4.4609068  16.0933517  )
        43           Ti1 tau(  43) = (   3.2586866   5.9546939  15.7393459  )
        44           Ti1 tau(  44) = (   6.5465221   4.6060206  15.8931146  )
        45           O1  tau(  45) = (   3.2900926   2.9813045   4.7018136  )
        46           O1  tau(  46) = (   1.3039711   4.4726057   6.0039043  )
        47           O1  tau(  47) = (   5.2763189   4.4711207   6.0039473  )
        48           C1  tau(  48) = (   6.5676456   2.8990966  17.8516705  )
        49           H1  tau(  49) = (   6.5659762   3.9554521  18.1205428  )
        50           H1  tau(  50) = (   0.8773746   2.4756544  18.3284787  )
        51           H1  tau(  51) = (   5.6845275   2.4719798  18.3496978  )

     number of k points=    10  Fermi-Dirac smearing, width (Ry)=  0.0073
                       cart. coord. in units 2pi/alat
        k(    1) = (   0.0000000   0.0000000   0.0000000), wk =   0.1250000
        k(    2) = (   0.0000000   0.0419351   0.0000000), wk =   0.2500000
        k(    3) = (   0.0000000  -0.0838702   0.0000000), wk =   0.1250000
        k(    4) = (   0.0379955   0.0000049   0.0000000), wk =   0.2500000
        k(    5) = (   0.0379955   0.0419400   0.0000000), wk =   0.2500000
        k(    6) = (   0.0379955  -0.0838652   0.0000000), wk =   0.2500000
        k(    7) = (   0.0379955  -0.0419301   0.0000000), wk =   0.2500000
        k(    8) = (  -0.0759910  -0.0000099   0.0000000), wk =   0.1250000
        k(    9) = (  -0.0759910   0.0419252   0.0000000), wk =   0.2500000
        k(   10) = (  -0.0759910  -0.0838800   0.0000000), wk =   0.1250000

     Initial potential from superposition of free atoms

     starting charge  368.99918, renormalised to  385.00000

     negative rho (up, down):  2.031E-02 0.000E+00

     %%%%%%%%%%%%%%%%%%%%%%%%%%%%%%%%%%%%%%%%%%%%%%%%%%%%%%%%%%%%%%%%%%%%%%%%
     %                                                                      %
     % You are using vdW-DF, which was implemented by the Thonhauser group. %
     % Please cite the following two papers that made this development      %
     % possible and the two reviews that describe the various versions:     %
     %                                                                      %
     %   T. Thonhauser et al., PRL 115, 136402 (2015).                      %
     %   T. Thonhauser et al., PRB 76, 125112 (2007).                       %
     %   K. Berland et al., Rep. Prog. Phys. 78, 066501 (2015).             %
     %   D.C. Langreth et al., J. Phys.: Condens. Matter 21, 084203 (2009). %
     %                                                                      %
     %                                                                      %
     % If you are calculating the stress with vdW-DF, please also cite:     %
     %                                                                      %
     %   R. Sabatini et al., J. Phys.: Condens. Matter 24, 424209 (2012).   %
     %                                                                      %
     %%%%%%%%%%%%%%%%%%%%%%%%%%%%%%%%%%%%%%%%%%%%%%%%%%%%%%%%%%%%%%%%%%%%%%%%

     Adding external electric field

     Computed dipole along edir(3) :
        Dipole               -1.9982 Ry au,         -5.0790 Debye
        Dipole field         -0.0038 Ry au,

        Potential amp.        0.3496 Ry
        Total length         46.3494 bohr

     Starting wfcs are  291 atomic wfcs
  @ DRIVER MODE: Message from server: STATUS
  @ DRIVER MODE: Message from server: POSDATA
  @ DRIVER MODE: Reading and sharing cell
  @ DRIVER MODE: Reading and sharing positions
  @ DRIVER MODE: Received positions

     Self-consistent Calculation

     iteration #  1     ecut=    29.40 Ry     beta= 0.05
     Davidson diagonalization with overlap
     c_bands:  2 eigenvalues not converged
     c_bands:  1 eigenvalues not converged
     c_bands:  3 eigenvalues not converged
     c_bands:  1 eigenvalues not converged
     ethr =  1.00E-05,  avg # of iterations = 18.6

[...]

     total energy              =   -2900.52478767 Ry
     estimated scf accuracy    <      12.60058977 Ry

     iteration #  2     ecut=    29.40 Ry     beta= 0.05
     Davidson diagonalization with overlap
     ethr =  3.27E-03,  avg # of iterations =  1.0

[...]

     iteration # 34     ecut=    29.40 Ry     beta= 0.05
     Davidson diagonalization with overlap
     c_bands:  1 eigenvalues not converged
     ethr =  1.55E-08,  avg # of iterations = 14.7

[...]

     total energy              =   -2899.02566953 Ry
     estimated scf accuracy    <       0.00000011 Ry

     iteration # 49     ecut=    29.40 Ry     beta= 0.05
     Davidson diagonalization with overlap
     ethr =  2.79E-11,  avg # of iterations =  2.9

     negative rho (up, down):  1.950E-02 0.000E+00

     Adding external electric field

     Computed dipole along edir(3) :
        Dipole                0.4672 Ry au,          1.1874 Debye
        Dipole field          0.0009 Ry au,

        Potential amp.       -0.0817 Ry
        Total length         46.3494 bohr

     End of self-consistent calculation

          k = 0.0000 0.0000 0.0000 ( 18029 PWs)   bands (ev):

   -56.2366 -56.2158 -56.2001 -56.1795 -56.1263 -56.1251 -56.0887 -56.0732
   -56.0035 -55.9972 -55.9648 -55.9622 -55.8918 -55.8704 -55.2531 -55.2190
   -32.7803 -32.7042 -32.6037 -32.5743 -32.5416 -32.5275 -32.5040 -32.4735
   -32.4637 -32.4595 -32.4449 -32.4429 -32.4380 -32.3982 -32.3972 -32.3630
   -32.3600 -32.3574 -32.3424 -32.3264 -32.3061 -32.3020 -32.2913 -32.2756
   -32.2739 -32.2540 -32.2494 -32.2409 -32.2321 -32.2250 -32.2173 -32.1890
   -32.1651 -32.1572 -32.1385 -32.1313 -32.1097 -32.0980 -32.0907 -32.0798
   -32.0755 -31.9728 -31.6633 -31.5653 -31.5429 -31.4797 -31.3937 -31.2827
   -16.9846 -16.6856 -16.5413 -16.3929 -16.3651 -16.2462 -16.0643 -15.9288
   -15.9145 -15.8397 -15.8118 -15.8064 -15.7756 -15.7581 -15.7495 -15.7430
   -15.6898 -15.6856 -15.6503 -15.6397 -15.6099 -15.5361 -15.5125 -15.4524
   -15.4113 -15.3548 -15.2598 -15.2313 -15.1978 -13.7540 -13.6356  -9.4763
    -4.3413  -4.1725  -4.1467  -4.1279  -4.0436  -3.8050  -3.7870  -3.5391
    -3.4176  -3.3970  -3.3726  -3.3677  -3.3185  -3.1810  -3.0904  -3.0635
    -3.0628  -3.0504  -3.0219  -3.0139  -2.9826  -2.9800  -2.9476  -2.9248
    -2.8953  -2.7305  -2.6532  -2.6473  -2.5757  -2.5376  -2.5227  -2.5029
    -2.4671  -2.4580  -2.4425  -2.4273  -2.3745  -2.2875  -2.2370  -2.1461
    -2.0665  -2.0360  -1.9448  -1.8544  -1.7791  -1.6887  -1.6617  -1.6359
    -1.5592  -1.5536  -1.4860  -1.4404  -1.4245  -1.3303  -1.2663  -1.2341
    -1.1346  -1.0948  -1.0044  -0.9867  -0.9745  -0.9583  -0.9461  -0.7694
    -0.7213  -0.6987  -0.6902  -0.5704  -0.5574  -0.5324  -0.5015  -0.4429
    -0.4030  -0.3490  -0.3187  -0.2723  -0.2543  -0.2483  -0.2319  -0.2082
    -0.1283  -0.0490  -0.0306   0.0631   0.1149   0.2366   0.3026   0.4079
     0.4950   0.6734   0.7712   0.8055   0.8486   0.9393   1.3610   1.4234
     2.9524   2.9942   3.0190   3.0538   3.0658   3.2227   3.3284   3.4054
     3.4074   3.4471

[...]

          k = 0.0380-0.0419 0.0000 ( 17876 PWs)   bands (ev):

[...]

          k =-0.0760-0.0000 0.0000 ( 17886 PWs)   bands (ev):

[...]

          k =-0.0760-0.0839 0.0000 ( 17948 PWs)   bands (ev):

   -56.2250 -56.2116 -56.1984 -56.1967 -56.1199 -56.1151 -56.0988 -56.0793
   -55.9993 -55.9820 -55.9813 -55.9594 -55.8944 -55.8730 -55.2365 -55.2354
   -32.5838 -32.5811 -32.5276 -32.5168 -32.5131 -32.5094 -32.4954 -32.4882
   -32.4527 -32.4366 -32.4252 -32.4213 -32.3912 -32.3721 -32.3661 -32.3566
   -32.3542 -32.3515 -32.3429 -32.3401 -32.3259 -32.3198 -32.3143 -32.3102
   -32.2993 -32.2991 -32.2970 -32.2765 -32.2438 -32.2408 -32.2354 -32.2276
   -32.2009 -32.1845 -32.1836 -32.1751 -32.1641 -32.1349 -32.1272 -32.1192
   -32.0893 -32.0212 -31.5562 -31.5549 -31.4766 -31.4758 -31.4372 -31.4363
   -16.4198 -16.3948 -16.1658 -16.1563 -16.1485 -16.0840 -15.9989 -15.9768
   -15.9600 -15.9557 -15.9010 -15.8821 -15.8739 -15.8374 -15.7798 -15.7716
   -15.7641 -15.7405 -15.6892 -15.6830 -15.6281 -15.6028 -15.5876 -15.5835
   -15.5652 -15.5609 -15.4631 -15.4201 -15.3862 -13.7379 -13.7358  -9.4920
    -3.7123  -3.6808  -3.4170  -3.3709  -3.3656  -3.2869  -3.2039  -3.1731
    -3.1480  -3.1379  -3.0818  -3.0751  -3.0729  -3.0639  -3.0389  -3.0275
    -3.0046  -2.9924  -2.9869  -2.9736  -2.9295  -2.8656  -2.8573  -2.8565
    -2.8451  -2.7998  -2.7896  -2.7824  -2.7635  -2.7627  -2.7083  -2.5098
    -2.4905  -2.4262  -2.3775  -2.3550  -2.3309  -2.3212  -2.2954  -2.2710
    -2.2057  -2.1351  -2.0176  -1.9792  -1.9560  -1.9411  -1.8872  -1.8381
    -1.7229  -1.6820  -1.6552  -1.6368  -1.5709  -1.4975  -1.4722  -1.4576
    -1.3741  -1.3466  -1.3048  -1.2405  -1.2037  -1.1906  -1.1395  -1.1265
    -1.0405  -0.9802  -0.9447  -0.8992  -0.8904  -0.8570  -0.8083  -0.7576
    -0.7447  -0.6838  -0.6219  -0.5246  -0.3155  -0.2299  -0.2205  -0.1783
    -0.1214  -0.0953   0.0123   0.0468   0.0612   0.1553   0.2214   0.2874
     0.3047   0.3299   0.3976   0.8819   1.1313   1.1322   1.2238   1.2342
     3.1568   3.1667   3.1965   3.2636   3.4099   3.4160   3.4351   3.4408
     3.5342   3.5838

     the Fermi energy is     2.9196 ev

!    total energy              =   -2899.02577557 Ry
     estimated scf accuracy    <       0.00000004 Ry
     smearing contrib. (-TS)   =      -0.02330231 Ry
     internal energy E=F+TS    =   -2899.00247326 Ry

     The total energy is F=E-TS. E is the sum of the following terms:
     one-electron contribution =  -24814.09775620 Ry
     hartree contribution      =   12485.99289444 Ry
     xc contribution           =    -474.69791046 Ry
     ewald contribution        =    9903.79988709 Ry
     electric field correction =       0.00041187 Ry

     convergence has been achieved in  49 iterations

     Forces acting on atoms (cartesian axes, Ry/au):

     atom    1 type  1   force =    -0.00012666   -0.00193669    0.10691992
     atom    2 type  1   force =    -0.00037772    0.00069433   -0.18022092
     atom    3 type  2   force =     0.00035177   -0.00663912   -0.03350698
     atom    4 type  2   force =     0.00056871   -0.00063147    0.04568470
     atom    5 type  2   force =    -0.01961455   -0.00121297    0.00435007
     atom    6 type  2   force =     0.02144672   -0.00006796    0.00423380
     atom    7 type  1   force =    -0.00029084    0.00034843   -0.00015013
     atom    8 type  1   force =    -0.00049160    0.00048363    0.00014154
     atom    9 type  2   force =    -0.00004797   -0.00039167   -0.00056422
     atom   10 type  2   force =     0.00010101    0.00045819   -0.00035952
     atom   11 type  2   force =     0.00013926   -0.00002089   -0.00003362
     atom   12 type  2   force =     0.00027258   -0.00014344   -0.00003608
     atom   13 type  1   force =    -0.00056001    0.00008932    0.00063773
     atom   14 type  1   force =    -0.00057679    0.00015598    0.00002847
     atom   15 type  2   force =    -0.00006586    0.00018991   -0.00012797
     atom   16 type  2   force =    -0.00003391   -0.00004068    0.00048879
     atom   17 type  2   force =    -0.00092886   -0.00094108   -0.00027835
     atom   18 type  2   force =     0.00071581   -0.00077254   -0.00041656
     atom   19 type  1   force =    -0.00013892    0.00038870   -0.00024629
     atom   20 type  1   force =     0.00028315    0.00066663    0.00072746
     atom   21 type  2   force =     0.00000404    0.00003379    0.10434669
     atom   22 type  2   force =    -0.00008387   -0.00018884   -0.00075435
     atom   23 type  2   force =    -0.06877151    0.00084244   -0.02966208
     atom   24 type  2   force =     0.06852856    0.00129892   -0.02973374
     atom   25 type  1   force =    -0.00010584    0.00130889    0.11807545
     atom   26 type  1   force =    -0.00020970   -0.00066677   -0.18053580
     atom   27 type  2   force =     0.00055746    0.00239779   -0.02741059
     atom   28 type  2   force =     0.00073092   -0.00048998    0.04720030
     atom   29 type  2   force =    -0.01934750    0.00075287    0.00375101
     atom   30 type  2   force =     0.01929376    0.00249118    0.00343396
     atom   31 type  1   force =    -0.00008104   -0.00074292    0.00034312
     atom   32 type  1   force =    -0.00042361    0.00003381    0.00034580
     atom   33 type  2   force =    -0.00013383    0.00036217   -0.00074447
     atom   34 type  2   force =    -0.00007671    0.00004121   -0.00013792
     atom   35 type  2   force =     0.00041922    0.00022407   -0.00041981
     atom   36 type  2   force =    -0.00078450    0.00001633   -0.00040856
     atom   37 type  1   force =    -0.00055897    0.00050693    0.00059359
     atom   38 type  1   force =     0.00015100   -0.00042417    0.00035727
     atom   39 type  2   force =    -0.00028394   -0.00014624   -0.00010948
     atom   40 type  2   force =    -0.00004331    0.00078287    0.00059260
     atom   41 type  2   force =    -0.00020562    0.00126933   -0.00023453
     atom   42 type  2   force =     0.00032933    0.00125572   -0.00044371
     atom   43 type  1   force =    -0.00011637    0.00067446   -0.00018962
     atom   44 type  1   force =     0.00033738    0.00019821    0.00000383
     atom   45 type  2   force =    -0.00000393    0.00005941    0.10435813
     atom   46 type  2   force =    -0.06830812   -0.00103485   -0.02972006
     atom   47 type  2   force =     0.06815923   -0.00065247   -0.02976081
     atom   48 type  3   force =    -0.00474627   -0.00349139    0.00379987
     atom   49 type  4   force =     0.00025544   -0.00059132   -0.00016970
     atom   50 type  4   force =     0.00014800    0.00066789   -0.00040014
     atom   51 type  4   force =     0.00474496    0.00253402   -0.00363810

     Total force =     0.377517     Total SCF correction =     0.000593
  @ DRIVER MODE: Message from server: STATUS
  @ DRIVER MODE: Message from server: GETFORCE
  @ DRIVER MODE: Returning v,forces,stress,ensemble

     Writing output data file ./calc.save/
  @ DRIVER MODE: Message from server: EXIT
  @ DRIVE MODE: Exiting

     General routines

     Parallel routines

   This run was terminated on:  20:36:10  18Aug2021

   JOB DONE.