     Program PWSCF v.6.7GPU starts on 15Sep2021 at 19:39:42

     R & G space division:  proc/nbgrp/npool/nimage =      10
     Reading input from /storage/home/hcoda1/3/ntian30/research/carbon/CxH_vib/H2O_calc/ads_slab/CH3N2HH2O_a/out_0013/pw.inp
Warning: card &CELL ignored
Warning: card   CELL_DYNAMICS='IPI', ignored
Warning: card / ignored

     Current dimensions of program PWSCF are:
     Max number of different atomic species (ntypx) = 10
     Max number of k-points (npk) =  40000
     Max angular momentum in pseudopotentials (lmaxx) =  3
     Presently no symmetry can be used with electric field

     Message from routine cell_base_init:
     DEPRECATED: use true lattice parameter, not A to a.u. conversion factor

     IMPORTANT: XC functional enforced from input :
     Exchange-correlation= BEEF-VDW
                           (   1   4  43  14   2   0   0)
     Any further DFT definition will be discarded
     Please, verify this is what you really want

  @ DRIVER MODE: Connecting to
 qe_1139763_2852617.sched-torque.pace.gatech.edupc551f3h_scratch
  using UNIX socket
  @ DRIVER MODE: Message from server: STATUS
  @ DRIVER MODE: Message from server: INIT
  @ DRIVER MODE: Receiving replica           0          -1
  @ DRIVER MODE: Receiving encoded integer          25
  @ DRIVER MODE:  SCF:  T  FORCE:  T  STRESS:  F  VC:  F  ENSEMBLE:  F
  @ DRIVER MODE:  SCF:  T  FORCE:  T  STRESS:  F  VC:  F  ENSEMBLE:  F

     Using Slab Decomposition

     bravais-lattice index     =            0
     lattice parameter (alat)  =       1.8897  a.u.
     unit-cell volume          =    6658.9804 (a.u.)^3
     number of atoms/cell      =           57
     number of atomic types    =            5
     number of electrons       =       404.00
     number of Kohn-Sham states=          212
     kinetic-energy cutoff     =      29.3995  Ry
     charge density cutoff     =     293.9946  Ry
     scf convergence threshold =      7.3E-08
     mixing beta               =       0.0500
     number of iterations used =            8  plain     mixing
     Exchange-correlation= BEEF-VDW
                           (   1   4  43  14   2   0   0)

     celldm(1)=   1.889726  celldm(2)=   0.000000  celldm(3)=   0.000000
     celldm(4)=   0.000000  celldm(5)=   0.000000  celldm(6)=   0.000000

     crystal axes: (cart. coord. in units of alat)
               a(1) = (   6.579727   0.000000   0.000000 )
               a(2) = (  -0.000775   5.961596   0.000000 )
               a(3) = (   0.000000   0.000000  25.155947 )

     reciprocal axes: (cart. coord. in units 2 pi/alat)
               b(1) = (  0.151982  0.000020  0.000000 )
               b(2) = (  0.000000  0.167740  0.000000 )
               b(3) = (  0.000000  0.000000  0.039752 )

     PseudoPot. # 1 for Ti read from file:
     /storage/coda1/p-amedford6/0/shared/rich_project_chbe-medford/medford-share/data/pseudos_module/espresso/nninc/pbe/van/Ti.UPF
     MD5 check sum: 8e4df49b7f0d34bbd5052bf3f5ea0213
     Pseudo is Ultrasoft, Zval = 12.0
     Generated by new atomic code, or converted to UPF format
     Using radial grid of  851 points,  6 beta functions with:
                l(1) =   0
                l(2) =   0
                l(3) =   1
                l(4) =   1
                l(5) =   2
                l(6) =   2
     Q(r) pseudized with  8 coefficients,  rinner =    1.000   1.000   1.000
                                                       1.000   1.000

     PseudoPot. # 2 for O  read from file:
     /storage/coda1/p-amedford6/0/shared/rich_project_chbe-medford/medford-share/data/pseudos_module/espresso/nninc/pbe/van/O.UPF
     MD5 check sum: 78c19812648e8988a0fe644b0f25305e
     Pseudo is Ultrasoft, Zval =  6.0
     Generated by new atomic code, or converted to UPF format
     Using radial grid of  737 points,  4 beta functions with:
                l(1) =   0
                l(2) =   0
                l(3) =   1
                l(4) =   1
     Q(r) pseudized with  8 coefficients,  rinner =    0.800   0.800   0.800

     PseudoPot. # 3 for N  read from file:
     /storage/coda1/p-amedford6/0/shared/rich_project_chbe-medford/medford-share/data/pseudos_module/espresso/nninc/pbe/van/N.UPF
     MD5 check sum: 90d10febe142ad51ac9d5be1deb811c4
     Pseudo is Ultrasoft, Zval =  5.0
     Generated by new atomic code, or converted to UPF format
     Using radial grid of  729 points,  4 beta functions with:
                l(1) =   0
                l(2) =   0
                l(3) =   1
                l(4) =   1
     Q(r) pseudized with  8 coefficients,  rinner =    0.800   0.800   0.800

     PseudoPot. # 4 for C  read from file:
     /storage/coda1/p-amedford6/0/shared/rich_project_chbe-medford/medford-share/data/pseudos_module/espresso/nninc/pbe/van/C.UPF
     MD5 check sum: 1a69bf6b8db32088f5b2163dbdb77a27
     Pseudo is Ultrasoft, Zval =  4.0
     Generated by new atomic code, or converted to UPF format
     Using radial grid of  721 points,  4 beta functions with:
                l(1) =   0
                l(2) =   0
                l(3) =   1
                l(4) =   1
     Q(r) pseudized with  8 coefficients,  rinner =    0.800   0.800   0.800

     PseudoPot. # 5 for H  read from file:
     /storage/coda1/p-amedford6/0/shared/rich_project_chbe-medford/medford-share/data/pseudos_module/espresso/nninc/pbe/van/H.UPF
     MD5 check sum: b5ee9d7bfd3a09ee7748110bda690ff7
     Pseudo is Ultrasoft, Zval =  1.0
     Generated by new atomic code, or converted to UPF format
     Using radial grid of  615 points,  1 beta functions with:
                l(1) =   0
     Q(r) pseudized with  8 coefficients,  rinner =    0.800

     atomic species   valence    mass     pseudopotential
        Ti1           12.00    47.86700     Ti( 1.00)
        O1             6.00    15.99900     O ( 1.00)
        N1             5.00    14.00700     N ( 1.00)
        C1             4.00    12.01100     C ( 1.00)
        H1             1.00     1.00800     H ( 1.00)

     No symmetry found

   Cartesian axes

     site n.     atom                  positions (alat units)
         1           Ti1 tau(   1) = (   0.0004258   2.9801865   6.0000000  )
         2           Ti1 tau(   2) = (   3.2906075   1.4906267   6.0002472  )
         3           O1  tau(   3) = (   0.0006271   0.0005054   7.9858123  )
         4           O1  tau(   4) = (   3.2906025   0.0005020   7.3038282  )
         5           O1  tau(   5) = (   4.5942328   1.4918067   9.2879030  )
         6           O1  tau(   6) = (   1.9868534   1.4903216   9.2879459  )
         7           Ti1 tau(   7) = (   3.2907910   2.8959150   9.1758416  )
         8           Ti1 tau(   8) = (   0.0015273   1.4827037   9.2680791  )
         9           O1  tau(   9) = (   3.2846840   0.0164488  11.3171736  )
        10           O1  tau(  10) = (   0.0116148   5.9584955  10.6183126  )
        11           O1  tau(  11) = (   1.2780696   1.4966870  12.6228330  )
        12           O1  tau(  12) = (   5.2671132   1.5021727  12.6038655  )
        13           Ti1 tau(  13) = (   0.0814623   2.9703834  12.6092300  )
        14           Ti1 tau(  14) = (   3.3984034   1.5042134  12.4754612  )
        15           O1  tau(  15) = (   6.5611900   5.9602394  14.6246442  )
        16           O1  tau(  16) = (   3.2847170   0.0117735  13.9091713  )
        17           O1  tau(  17) = (   4.5127615   1.5439160  15.9886145  )
        18           O1  tau(  18) = (   2.0245574   1.5486524  15.9865356  )
        19           Ti1 tau(  19) = (   3.2678410   3.0292036  15.6627315  )
        20           Ti1 tau(  20) = (   6.5437773   1.5790868  15.8036792  )
        21           O1  tau(  21) = (   3.2904802   0.0005063   4.7018136  )
        22           O1  tau(  22) = (   6.5616667   0.0409992  17.2467836  )
        23           O1  tau(  23) = (   1.3043587   1.4918075   6.0039043  )
        24           O1  tau(  24) = (   5.2767064   1.4903225   6.0039473  )
        25           Ti1 tau(  25) = (   0.0000382   5.9609847   6.0000000  )
        26           Ti1 tau(  26) = (   3.2902200   4.4714249   6.0002472  )
        27           O1  tau(  27) = (   0.0002396   2.9813036   7.9858123  )
        28           O1  tau(  28) = (   3.2902150   2.9813002   7.3038282  )
        29           O1  tau(  29) = (   4.5938453   4.4726049   9.2879030  )
        30           O1  tau(  30) = (   1.9864658   4.4711199   9.2879459  )
        31           Ti1 tau(  31) = (   3.2891106   5.8743827   9.1763621  )
        32           Ti1 tau(  32) = (   0.0006254   4.4649316   9.2693709  )
        33           O1  tau(  33) = (   3.2886753   2.9955121  11.3174028  )
        34           O1  tau(  34) = (   0.0092240   2.9805883  10.6323155  )
        35           O1  tau(  35) = (   1.2771457   4.4765085  12.6200386  )
        36           O1  tau(  36) = (   5.2716127   4.4859779  12.5990880  )
        37           Ti1 tau(  37) = (   0.0719143   5.9417653  12.6408960  )
        38           Ti1 tau(  38) = (   3.4009286   4.4967646  12.4819834  )
        39           O1  tau(  39) = (   6.5633752   2.9851081  14.6229342  )
        40           O1  tau(  40) = (   3.2806164   3.0132077  13.8636590  )
        41           O1  tau(  41) = (   4.5054435   4.4842064  16.0752605  )
        42           O1  tau(  42) = (   2.0287922   4.4846499  16.0567397  )
        43           Ti1 tau(  43) = (   3.2585180   0.0608266  15.7494983  )
        44           Ti1 tau(  44) = (   6.5556145   4.6328118  16.1363011  )
        45           O1  tau(  45) = (   3.2900926   2.9813045   4.7018136  )
        46           O1  tau(  46) = (   1.3039711   4.4726057   6.0039043  )
        47           O1  tau(  47) = (   5.2763189   4.4711207   6.0039473  )
        48           N1  tau(  48) = (   6.4582227   2.6263240  18.5734135  )
        49           N1  tau(  49) = (   6.5493832   2.9496485  17.3103279  )
        50           C1  tau(  50) = (   0.1500853   3.5596473  19.6455425  )
        51           H1  tau(  51) = (   6.1911903   4.4878083  19.4849519  )
        52           H1  tau(  52) = (   6.4401482   3.1080517  20.5902855  )
        53           H1  tau(  53) = (   1.2308410   3.8049764  19.6956042  )
        54           H1  tau(  54) = (   6.5044843   1.6253530  18.7706356  )
        55           O1  tau(  55) = (   3.2415852   0.0755412  18.2049893  )
        56           H1  tau(  56) = (   4.0109045   5.4607113  18.3409029  )
        57           H1  tau(  57) = (   2.4534619   5.4803556  18.3240773  )

     number of k points=    10  Fermi-Dirac smearing, width (Ry)=  0.0073
                       cart. coord. in units 2pi/alat
        k(    1) = (   0.0000000   0.0000000   0.0000000), wk =   0.1250000
        k(    2) = (   0.0000000   0.0419351   0.0000000), wk =   0.2500000
        k(    3) = (   0.0000000  -0.0838702   0.0000000), wk =   0.1250000
        k(    4) = (   0.0379955   0.0000049   0.0000000), wk =   0.2500000
        k(    5) = (   0.0379955   0.0419400   0.0000000), wk =   0.2500000
        k(    6) = (   0.0379955  -0.0838652   0.0000000), wk =   0.2500000
        k(    7) = (   0.0379955  -0.0419301   0.0000000), wk =   0.2500000
        k(    8) = (  -0.0759910  -0.0000099   0.0000000), wk =   0.1250000
        k(    9) = (  -0.0759910   0.0419252   0.0000000), wk =   0.2500000
        k(   10) = (  -0.0759910  -0.0838800   0.0000000), wk =   0.1250000

     Initial potential from superposition of free atoms

     starting charge  387.99913, renormalised to  404.00000

     negative rho (up, down):  1.445E-02 0.000E+00

     %%%%%%%%%%%%%%%%%%%%%%%%%%%%%%%%%%%%%%%%%%%%%%%%%%%%%%%%%%%%%%%%%%%%%%%%
     %                                                                      %
     % You are using vdW-DF, which was implemented by the Thonhauser group. %
     % Please cite the following two papers that made this development      %
     % possible and the two reviews that describe the various versions:     %
     %                                                                      %
     %   T. Thonhauser et al., PRL 115, 136402 (2015).                      %
     %   T. Thonhauser et al., PRB 76, 125112 (2007).                       %
     %   K. Berland et al., Rep. Prog. Phys. 78, 066501 (2015).             %
     %   D.C. Langreth et al., J. Phys.: Condens. Matter 21, 084203 (2009). %
     %                                                                      %
     %                                                                      %
     % If you are calculating the stress with vdW-DF, please also cite:     %
     %                                                                      %
     %   R. Sabatini et al., J. Phys.: Condens. Matter 24, 424209 (2012).   %
     %                                                                      %
     %%%%%%%%%%%%%%%%%%%%%%%%%%%%%%%%%%%%%%%%%%%%%%%%%%%%%%%%%%%%%%%%%%%%%%%%

     Adding external electric field

     Computed dipole along edir(3) :
        Dipole              -13.5668 Ry au,        -34.4835 Debye
        Dipole field         -0.0256 Ry au,

        Potential amp.        2.3733 Ry
        Total length         46.3494 bohr

     Starting wfcs are  306 atomic wfcs
  @ DRIVER MODE: Message from server: STATUS
  @ DRIVER MODE: Message from server: POSDATA
  @ DRIVER MODE: Reading and sharing cell
  @ DRIVER MODE: Reading and sharing positions
  @ DRIVER MODE: Received positions

     Self-consistent Calculation

     iteration #  1     ecut=    29.40 Ry     beta= 0.05
     Davidson diagonalization with overlap
     c_bands:  4 eigenvalues not converged
     c_bands:  4 eigenvalues not converged
     c_bands:  4 eigenvalues not converged
     c_bands:  4 eigenvalues not converged
     c_bands:  3 eigenvalues not converged
     c_bands:  3 eigenvalues not converged
     ethr =  1.00E-05,  avg # of iterations = 25.3

[...]

     total energy              =   -2339.32470827 Ry
     estimated scf accuracy    <    7248.80291780 Ry

     iteration #  2     ecut=    29.40 Ry     beta= 0.05
     Davidson diagonalization with overlap
     ethr =  1.00E-02,  avg # of iterations = 24.0

[...]

     iteration # 56     ecut=    29.40 Ry     beta= 0.05
     Davidson diagonalization with overlap
     c_bands:  1 eigenvalues not converged
     ethr =  1.18E-06,  avg # of iterations = 10.7

[...]

     total energy              =   -2975.23034205 Ry
     estimated scf accuracy    <       0.00000010 Ry

     iteration # 78     ecut=    29.40 Ry     beta= 0.05
     Davidson diagonalization with overlap
     ethr =  2.59E-11,  avg # of iterations =  6.1

     negative rho (up, down):  1.507E-02 0.000E+00

     Adding external electric field

     Computed dipole along edir(3) :
        Dipole                1.1621 Ry au,          2.9538 Debye
        Dipole field          0.0022 Ry au,

        Potential amp.       -0.2033 Ry
        Total length         46.3494 bohr

     End of self-consistent calculation

          k = 0.0000 0.0000 0.0000 ( 18029 PWs)   bands (ev):

   -55.5051 -55.4711 -55.3323 -55.2958 -55.2621 -55.2284 -55.2020 -55.1984
   -55.1874 -55.1644 -55.1530 -55.0142 -54.5536 -54.4356 -54.4016 -54.3897
   -31.9782 -31.8677 -31.7994 -31.7844 -31.7211 -31.7121 -31.6765 -31.6584
   -31.6213 -31.6041 -31.6006 -31.5736 -31.5640 -31.5196 -31.5116 -31.5006
   -31.4817 -31.4797 -31.4554 -31.4379 -31.4250 -31.4166 -31.4135 -31.3958
   -31.3922 -31.3845 -31.3748 -31.3676 -31.3654 -31.3632 -31.3412 -31.3298
   -31.3172 -31.2999 -31.2064 -31.1791 -31.0475 -30.8406 -30.7779 -30.7637
   -30.7576 -30.7348 -30.7249 -30.6577 -30.6000 -30.5715 -30.5694 -30.4603
   -18.7868 -17.7576 -16.0738 -15.8817 -15.6094 -15.4861 -15.4589 -15.2750
   -15.1986 -15.1472 -15.0150 -14.9679 -14.9386 -14.9085 -14.8959 -14.8387
   -14.8113 -14.7844 -14.7548 -14.7503 -14.7307 -14.7090 -14.6676 -14.6099
   -14.5851 -14.5236 -14.4734 -14.4517 -14.3585 -14.3540 -13.9295 -12.9373
   -12.8217 -11.9121  -8.8084  -6.5567  -5.6227  -4.3261  -4.0687  -3.4586
    -3.3829  -3.3240  -3.2080  -3.1417  -2.9900  -2.9499  -2.9017  -2.7769
    -2.6049  -2.5468  -2.5210  -2.4920  -2.4076  -2.2741  -2.2626  -2.2148
    -2.1868  -2.1662  -2.1510  -2.1357  -2.0402  -2.0016  -1.9645  -1.8501
    -1.8180  -1.7953  -1.7785  -1.7696  -1.7535  -1.6887  -1.6567  -1.6380
    -1.6282  -1.5911  -1.5565  -1.5455  -1.4146  -1.3971  -1.2792  -1.1470
    -1.1269  -1.0715  -1.0468  -0.8879  -0.8814  -0.8611  -0.8192  -0.8117
    -0.7398  -0.6669  -0.6243  -0.5502  -0.4319  -0.4223  -0.3871  -0.2413
    -0.2378  -0.2151  -0.1768  -0.1653  -0.1143  -0.1053  -0.0591   0.0036
     0.0965   0.1660   0.2733   0.2757   0.3285   0.3681   0.3807   0.4381
     0.4551   0.5043   0.5165   0.5239   0.5761   0.6109   0.6235   0.6817
     0.7325   0.8497   0.9190   0.9438   0.9904   1.1127   1.1879   1.2357
     1.2407   1.4091   1.5316   1.5584   1.5866   1.7868   1.8184   2.1534
     2.1972   3.6689   3.6855   3.7754   3.8344   3.9485   4.0202   4.1087
     4.1881   4.2579   4.3501   4.3984

[...]

          k = 0.0380-0.0419 0.0000 ( 17876 PWs)   bands (ev):

[...]

          k =-0.0760-0.0000 0.0000 ( 17886 PWs)   bands (ev):

[...]

          k =-0.0760-0.0839 0.0000 ( 17948 PWs)   bands (ev):

   -55.4882 -55.4878 -55.3178 -55.3101 -55.2452 -55.2449 -55.1966 -55.1905
   -55.1759 -55.1734 -55.1670 -55.0158 -54.5521 -54.4186 -54.4185 -54.3912
   -31.7937 -31.7936 -31.7846 -31.7846 -31.6807 -31.6636 -31.6092 -31.6087
   -31.5700 -31.5653 -31.5620 -31.5572 -31.5546 -31.5489 -31.5164 -31.5114
   -31.4896 -31.4804 -31.4780 -31.4706 -31.4384 -31.4362 -31.4281 -31.4254
   -31.4147 -31.4122 -31.4016 -31.3991 -31.3948 -31.3889 -31.3883 -31.3830
   -31.3556 -31.3315 -31.3162 -31.2141 -30.9570 -30.8012 -30.7667 -30.7476
   -30.7475 -30.7466 -30.6537 -30.6536 -30.6189 -30.6146 -30.6146 -30.6001
   -18.7857 -17.7517 -15.4970 -15.4309 -15.3602 -15.3563 -15.2515 -15.1986
   -15.1038 -15.0931 -15.0860 -15.0829 -14.9823 -14.9790 -14.9130 -14.9041
   -14.8648 -14.8580 -14.8543 -14.8376 -14.8228 -14.8176 -14.8027 -14.7562
   -14.7389 -14.7330 -14.5696 -14.5446 -14.4292 -14.4108 -14.0537 -12.9239
   -12.9237 -11.9134  -8.8190  -6.5406  -5.6144  -4.2712  -4.0949  -2.9647
    -2.9136  -2.7883  -2.6609  -2.5287  -2.5162  -2.4952  -2.4588  -2.2927
    -2.2798  -2.2644  -2.2548  -2.2134  -2.2019  -2.1831  -2.1688  -2.1150
    -2.0975  -2.0788  -2.0739  -2.0628  -2.0549  -2.0468  -2.0374  -2.0297
    -2.0062  -1.9590  -1.9379  -1.8551  -1.7705  -1.7608  -1.6837  -1.5542
    -1.5476  -1.5359  -1.5344  -1.5218  -1.5123  -1.4710  -1.4334  -1.3808
    -1.2650  -1.1514  -1.1014  -1.0831  -1.0267  -1.0098  -0.9213  -0.8410
    -0.8058  -0.7874  -0.7021  -0.6534  -0.5747  -0.5587  -0.5213  -0.4709
    -0.4471  -0.4337  -0.4175  -0.4092  -0.3469  -0.3022  -0.2344  -0.2208
    -0.1647  -0.1335  -0.1049  -0.0819  -0.0412   0.0519   0.0601   0.0896
     0.1151   0.1300   0.2029   0.3548   0.3957   0.6349   0.6441   0.7154
     0.8442   0.8669   0.8740   0.9499   0.9636   1.0012   1.0223   1.1427
     1.1657   1.1901   1.3183   1.3535   1.4435   1.9564   1.9573   2.0162
     2.0167   3.5317   4.1331   4.1431   4.1603   4.1736   4.1991   4.2056
     4.2480   4.2614   4.3947   4.4414

     the Fermi energy is     3.6449 ev

!    total energy              =   -2975.23035305 Ry
     estimated scf accuracy    <       0.00000006 Ry
     smearing contrib. (-TS)   =      -0.02108393 Ry
     internal energy E=F+TS    =   -2975.20926912 Ry

     The total energy is F=E-TS. E is the sum of the following terms:
     one-electron contribution =  -23878.67588782 Ry
     hartree contribution      =   12036.75489607 Ry
     xc contribution           =    -494.92727366 Ry
     ewald contribution        =    9361.63644769 Ry
     electric field correction =       0.00254861 Ry

     convergence has been achieved in  78 iterations

     Forces acting on atoms (cartesian axes, Ry/au):

     atom    1 type  1   force =     0.00016844   -0.00023082    0.09948360
     atom    2 type  1   force =    -0.00014592   -0.00039018   -0.17309422
     atom    3 type  2   force =    -0.00006908   -0.00000440   -0.02914482
     atom    4 type  2   force =     0.00003960   -0.00102577    0.04891214
     atom    5 type  2   force =    -0.01223841    0.00099198    0.00048861
     atom    6 type  2   force =     0.01354652    0.00186412   -0.00110814
     atom    7 type  1   force =    -0.00136129   -0.00053156   -0.00300416
     atom    8 type  1   force =     0.00094535   -0.00607873    0.04540788
     atom    9 type  2   force =    -0.00000261   -0.00023331   -0.00001920
     atom   10 type  2   force =    -0.00155537    0.00261619   -0.03092504
     atom   11 type  2   force =    -0.00017245   -0.00044969    0.00004585
     atom   12 type  2   force =     0.00009999   -0.00023517    0.00015551
     atom   13 type  1   force =    -0.00020217   -0.00054671   -0.00039267
     atom   14 type  1   force =     0.00030615   -0.00016387    0.00022121
     atom   15 type  2   force =     0.00000087   -0.00010694   -0.00022770
     atom   16 type  2   force =    -0.00021605    0.00005150    0.00012712
     atom   17 type  2   force =     0.00023736   -0.00025831    0.00018038
     atom   18 type  2   force =    -0.00005642   -0.00036769   -0.00000003
     atom   19 type  1   force =     0.00004394   -0.00013090    0.00036080
     atom   20 type  1   force =     0.00009014   -0.00059639    0.00018552
     atom   21 type  2   force =     0.00008812   -0.00000481    0.10255436
     atom   22 type  2   force =     0.00005451   -0.00021667    0.00006127
     atom   23 type  2   force =    -0.07249382   -0.00009325   -0.02845211
     atom   24 type  2   force =     0.07245805    0.00033915   -0.02843252
     atom   25 type  1   force =     0.00009296   -0.00027572    0.09898053
     atom   26 type  1   force =    -0.00006289   -0.00041299   -0.17326254
     atom   27 type  2   force =    -0.00003317    0.00000521   -0.02844621
     atom   28 type  2   force =     0.00009470   -0.00075966    0.04807816
     atom   29 type  2   force =    -0.01260656    0.00062867    0.00052255
     atom   30 type  2   force =     0.01384198    0.00095738   -0.00104593
     atom   31 type  1   force =    -0.00146128    0.00225696   -0.00571902
     atom   32 type  1   force =     0.00112289    0.00383708    0.04591552
     atom   33 type  2   force =    -0.00006476   -0.00026276   -0.00009654
     atom   34 type  2   force =    -0.00096297    0.00134117   -0.03378098
     atom   35 type  2   force =    -0.00027978    0.00004818   -0.00023691
     atom   36 type  2   force =     0.00049737    0.00009843   -0.00003133
     atom   37 type  1   force =    -0.00032230    0.00007585    0.00020313
     atom   38 type  1   force =     0.00018807   -0.00029263    0.00002575
     atom   39 type  2   force =     0.00002777   -0.00052342    0.00043076
     atom   40 type  2   force =    -0.00005125    0.00017209   -0.00026975
     atom   41 type  2   force =    -0.00011807   -0.00024241    0.00006202
     atom   42 type  2   force =     0.00020278   -0.00018217   -0.00008442
     atom   43 type  1   force =     0.00005582    0.00002333   -0.00008456
     atom   44 type  1   force =    -0.00003903   -0.00018453   -0.00005245
     atom   45 type  2   force =     0.00009603   -0.00001271    0.10255026
     atom   46 type  2   force =    -0.07251456   -0.00000428   -0.02844383
     atom   47 type  2   force =     0.07247309    0.00038147   -0.02843563
     atom   48 type  3   force =    -0.00238354   -0.00116176   -0.00132709
     atom   49 type  3   force =     0.00007082   -0.00049082    0.00014038
     atom   50 type  4   force =     0.01867857   -0.00133073   -0.00076037
     atom   51 type  5   force =    -0.00409503    0.00406980   -0.00071626
     atom   52 type  5   force =    -0.00260312   -0.00094815    0.00248605
     atom   53 type  5   force =    -0.00957240   -0.00155181    0.00012338
     atom   54 type  5   force =     0.00025790    0.00019222    0.00028624
     atom   55 type  2   force =     0.00064659    0.00058518   -0.00033113
     atom   56 type  5   force =    -0.00023308   -0.00038128   -0.00023561
     atom   57 type  5   force =    -0.00050899    0.00014701    0.00017218

     Total force =     0.372707     Total SCF correction =     0.000657
  @ DRIVER MODE: Message from server: STATUS
  @ DRIVER MODE: Message from server: GETFORCE
  @ DRIVER MODE: Returning v,forces,stress,ensemble

     Writing output data file ./calc.save/
  @ DRIVER MODE: Message from server: EXIT
  @ DRIVE MODE: Exiting

     General routines

     Parallel routines

   This run was terminated on:  20: 0:30  15Sep2021

   JOB DONE.