     Program PWSCF v.6.7GPU starts on 24Aug2021 at 21:48:16

     R & G space division:  proc/nbgrp/npool/nimage =      72
     Reading input from /storage/home/hcoda1/3/ntian30/research/carbon/CH2_vib/ads_slab/CH2NNH3_a/out_0033/pw.inp
Warning: card &CELL ignored
Warning: card   CELL_DYNAMICS='IPI', ignored
Warning: card / ignored

     Current dimensions of program PWSCF are:
     Max number of different atomic species (ntypx) = 10
     Max number of k-points (npk) =  40000
     Max angular momentum in pseudopotentials (lmaxx) =  3
     Presently no symmetry can be used with electric field

     Message from routine cell_base_init:
     DEPRECATED: use true lattice parameter, not A to a.u. conversion factor

     IMPORTANT: XC functional enforced from input :
     Exchange-correlation= BEEF-VDW
                           (   1   4  43  14   2   0   0)
     Any further DFT definition will be discarded
     Please, verify this is what you really want

  @ DRIVER MODE: Connecting to
 qe_1139763_2641442.sched-torque.pace.gatech.edums7oaxi4_scratch
  using UNIX socket
  @ DRIVER MODE: Message from server: STATUS
  @ DRIVER MODE: Message from server: INIT
  @ DRIVER MODE: Receiving replica           0          -1
  @ DRIVER MODE: Receiving encoded integer          25
  @ DRIVER MODE:  SCF:  T  FORCE:  T  STRESS:  F  VC:  F  ENSEMBLE:  F
  @ DRIVER MODE:  SCF:  T  FORCE:  T  STRESS:  F  VC:  F  ENSEMBLE:  F

     Using Slab Decomposition

     bravais-lattice index     =            0
     lattice parameter (alat)  =       1.8897  a.u.
     unit-cell volume          =    6658.9804 (a.u.)^3
     number of atoms/cell      =           55
     number of atomic types    =            5
     number of electrons       =       397.00
     number of Kohn-Sham states=          208
     kinetic-energy cutoff     =      29.3995  Ry
     charge density cutoff     =     293.9946  Ry
     scf convergence threshold =      7.3E-08
     mixing beta               =       0.0500
     number of iterations used =            8  plain     mixing
     Exchange-correlation= BEEF-VDW
                           (   1   4  43  14   2   0   0)

     celldm(1)=   1.889726  celldm(2)=   0.000000  celldm(3)=   0.000000
     celldm(4)=   0.000000  celldm(5)=   0.000000  celldm(6)=   0.000000

     crystal axes: (cart. coord. in units of alat)
               a(1) = (   6.579727   0.000000   0.000000 )
               a(2) = (  -0.000775   5.961596   0.000000 )
               a(3) = (   0.000000   0.000000  25.155947 )

     reciprocal axes: (cart. coord. in units 2 pi/alat)
               b(1) = (  0.151982  0.000020  0.000000 )
               b(2) = (  0.000000  0.167740  0.000000 )
               b(3) = (  0.000000  0.000000  0.039752 )

     PseudoPot. # 1 for Ti read from file:
     /storage/coda1/p-amedford6/0/shared/rich_project_chbe-medford/medford-share/data/pseudos_module/espresso/nninc/pbe/van/Ti.UPF
     MD5 check sum: 8e4df49b7f0d34bbd5052bf3f5ea0213
     Pseudo is Ultrasoft, Zval = 12.0
     Generated by new atomic code, or converted to UPF format
     Using radial grid of  851 points,  6 beta functions with:
                l(1) =   0
                l(2) =   0
                l(3) =   1
                l(4) =   1
                l(5) =   2
                l(6) =   2
     Q(r) pseudized with  8 coefficients,  rinner =    1.000   1.000   1.000
                                                       1.000   1.000

     PseudoPot. # 2 for O  read from file:
     /storage/coda1/p-amedford6/0/shared/rich_project_chbe-medford/medford-share/data/pseudos_module/espresso/nninc/pbe/van/O.UPF
     MD5 check sum: 78c19812648e8988a0fe644b0f25305e
     Pseudo is Ultrasoft, Zval =  6.0
     Generated by new atomic code, or converted to UPF format
     Using radial grid of  737 points,  4 beta functions with:
                l(1) =   0
                l(2) =   0
                l(3) =   1
                l(4) =   1
     Q(r) pseudized with  8 coefficients,  rinner =    0.800   0.800   0.800

     PseudoPot. # 3 for N  read from file:
     /storage/coda1/p-amedford6/0/shared/rich_project_chbe-medford/medford-share/data/pseudos_module/espresso/nninc/pbe/van/N.UPF
     MD5 check sum: 90d10febe142ad51ac9d5be1deb811c4
     Pseudo is Ultrasoft, Zval =  5.0
     Generated by new atomic code, or converted to UPF format
     Using radial grid of  729 points,  4 beta functions with:
                l(1) =   0
                l(2) =   0
                l(3) =   1
                l(4) =   1
     Q(r) pseudized with  8 coefficients,  rinner =    0.800   0.800   0.800

     PseudoPot. # 4 for C  read from file:
     /storage/coda1/p-amedford6/0/shared/rich_project_chbe-medford/medford-share/data/pseudos_module/espresso/nninc/pbe/van/C.UPF
     MD5 check sum: 1a69bf6b8db32088f5b2163dbdb77a27
     Pseudo is Ultrasoft, Zval =  4.0
     Generated by new atomic code, or converted to UPF format
     Using radial grid of  721 points,  4 beta functions with:
                l(1) =   0
                l(2) =   0
                l(3) =   1
                l(4) =   1
     Q(r) pseudized with  8 coefficients,  rinner =    0.800   0.800   0.800

     PseudoPot. # 5 for H  read from file:
     /storage/coda1/p-amedford6/0/shared/rich_project_chbe-medford/medford-share/data/pseudos_module/espresso/nninc/pbe/van/H.UPF
     MD5 check sum: b5ee9d7bfd3a09ee7748110bda690ff7
     Pseudo is Ultrasoft, Zval =  1.0
     Generated by new atomic code, or converted to UPF format
     Using radial grid of  615 points,  1 beta functions with:
                l(1) =   0
     Q(r) pseudized with  8 coefficients,  rinner =    0.800

     atomic species   valence    mass     pseudopotential
        Ti1           12.00    47.86700     Ti( 1.00)
        O1             6.00    15.99900     O ( 1.00)
        N1             5.00    14.00700     N ( 1.00)
        C1             4.00    12.01100     C ( 1.00)
        H1             1.00     1.00800     H ( 1.00)

     No symmetry found

   Cartesian axes

     site n.     atom                  positions (alat units)
         1           Ti1 tau(   1) = (   0.0004258   2.9801865   6.0000000  )
         2           Ti1 tau(   2) = (   3.2906075   1.4906267   6.0002472  )
         3           O1  tau(   3) = (   0.0006271   0.0005054   7.9858123  )
         4           O1  tau(   4) = (   3.2906025   0.0005020   7.3038282  )
         5           O1  tau(   5) = (   4.5942328   1.4918067   9.2879030  )
         6           O1  tau(   6) = (   1.9868534   1.4903216   9.2879459  )
         7           Ti1 tau(   7) = (   3.2907910   2.8959150   9.1758416  )
         8           Ti1 tau(   8) = (   0.0015273   1.4827037   9.2680791  )
         9           O1  tau(   9) = (   3.2870044   0.0008392  11.3329265  )
        10           O1  tau(  10) = (   0.0116148   5.9584955  10.6183126  )
        11           O1  tau(  11) = (   1.3103063   1.4923116  12.6208530  )
        12           O1  tau(  12) = (   5.2933663   1.4849185  12.6124200  )
        13           Ti1 tau(  13) = (   6.5212574   2.9536302  12.6166858  )
        14           Ti1 tau(  14) = (   3.2058376   1.4897313  12.4816367  )
        15           O1  tau(  15) = (   6.5713238   0.0136578  14.6546308  )
        16           O1  tau(  16) = (   3.3039920   0.0133407  13.9274802  )
        17           O1  tau(  17) = (   4.5398155   1.5323753  16.0810081  )
        18           O1  tau(  18) = (   2.0543055   1.5218724  16.0470058  )
        19           Ti1 tau(  19) = (   3.2774803   3.0107093  15.7022328  )
        20           Ti1 tau(  20) = (   6.5342633   1.5374647  15.8423947  )
        21           O1  tau(  21) = (   3.2904802   0.0005063   4.7018136  )
        22           O1  tau(  22) = (   0.0034288   0.0322173  17.2228558  )
        23           O1  tau(  23) = (   1.3043587   1.4918075   6.0039043  )
        24           O1  tau(  24) = (   5.2767064   1.4903225   6.0039473  )
        25           Ti1 tau(  25) = (   0.0000382   5.9609847   6.0000000  )
        26           Ti1 tau(  26) = (   3.2902200   4.4714249   6.0002472  )
        27           O1  tau(  27) = (   0.0002396   2.9813036   7.9858123  )
        28           O1  tau(  28) = (   3.2902150   2.9813002   7.3038282  )
        29           O1  tau(  29) = (   4.5938453   4.4726049   9.2879030  )
        30           O1  tau(  30) = (   1.9864658   4.4711199   9.2879459  )
        31           Ti1 tau(  31) = (   3.2891106   5.8743827   9.1763621  )
        32           Ti1 tau(  32) = (   0.0006254   4.4649316   9.2693709  )
        33           O1  tau(  33) = (   3.2848367   2.9872869  11.3311783  )
        34           O1  tau(  34) = (   0.0092240   2.9805883  10.6323155  )
        35           O1  tau(  35) = (   1.3050274   4.4824158  12.6313026  )
        36           O1  tau(  36) = (   5.2955027   4.4751037  12.6224712  )
        37           Ti1 tau(  37) = (   6.5218534   5.9301143  12.5590122  )
        38           Ti1 tau(  38) = (   3.2037265   4.4702053  12.4865905  )
        39           O1  tau(  39) = (   6.5652647   2.9430126  14.6458727  )
        40           O1  tau(  40) = (   3.3006234   2.9978660  13.9063397  )
        41           O1  tau(  41) = (   4.5289998   4.4870283  16.1192093  )
        42           O1  tau(  42) = (   2.0463452   4.4937679  16.0531255  )
        43           Ti1 tau(  43) = (   3.2679282   0.0255942  15.7259849  )
        44           Ti1 tau(  44) = (   6.5624932   4.6695214  16.1100661  )
        45           O1  tau(  45) = (   3.2900926   2.9813045   4.7018136  )
        46           O1  tau(  46) = (   1.3039711   4.4726057   6.0039043  )
        47           O1  tau(  47) = (   5.2763189   4.4711207   6.0039473  )
        48           N1  tau(  48) = (   0.0665130   2.9625449  17.3937163  )
        49           C1  tau(  49) = (   0.2662726   2.8715582  18.6342609  )
        50           H1  tau(  50) = (   0.3859136   3.7587535  19.2661104  )
        51           H1  tau(  51) = (   0.3502417   1.8926937  19.1273272  )
        52           N1  tau(  52) = (   3.5829462   4.8819607  19.5834040  )
        53           H1  tau(  53) = (   4.1394342   5.6773527  19.8504637  )
        54           H1  tau(  54) = (   4.0752263   4.4438539  18.8113048  )
        55           H1  tau(  55) = (   3.6086599   4.2347498  20.3655469  )

     number of k points=    10  Fermi-Dirac smearing, width (Ry)=  0.0073
                       cart. coord. in units 2pi/alat
        k(    1) = (   0.0000000   0.0000000   0.0000000), wk =   0.1250000
        k(    2) = (   0.0000000   0.0419351   0.0000000), wk =   0.2500000
        k(    3) = (   0.0000000  -0.0838702   0.0000000), wk =   0.1250000
        k(    4) = (   0.0379955   0.0000049   0.0000000), wk =   0.2500000
        k(    5) = (   0.0379955   0.0419400   0.0000000), wk =   0.2500000
        k(    6) = (   0.0379955  -0.0838652   0.0000000), wk =   0.2500000
        k(    7) = (   0.0379955  -0.0419301   0.0000000), wk =   0.2500000
        k(    8) = (  -0.0759910  -0.0000099   0.0000000), wk =   0.1250000
        k(    9) = (  -0.0759910   0.0419252   0.0000000), wk =   0.2500000
        k(   10) = (  -0.0759910  -0.0838800   0.0000000), wk =   0.1250000

     Initial potential from superposition of free atoms

     starting charge  380.99914, renormalised to  397.00000

     negative rho (up, down):  1.455E-02 0.000E+00

     %%%%%%%%%%%%%%%%%%%%%%%%%%%%%%%%%%%%%%%%%%%%%%%%%%%%%%%%%%%%%%%%%%%%%%%%
     %                                                                      %
     % You are using vdW-DF, which was implemented by the Thonhauser group. %
     % Please cite the following two papers that made this development      %
     % possible and the two reviews that describe the various versions:     %
     %                                                                      %
     %   T. Thonhauser et al., PRL 115, 136402 (2015).                      %
     %   T. Thonhauser et al., PRB 76, 125112 (2007).                       %
     %   K. Berland et al., Rep. Prog. Phys. 78, 066501 (2015).             %
     %   D.C. Langreth et al., J. Phys.: Condens. Matter 21, 084203 (2009). %
     %                                                                      %
     %                                                                      %
     % If you are calculating the stress with vdW-DF, please also cite:     %
     %                                                                      %
     %   R. Sabatini et al., J. Phys.: Condens. Matter 24, 424209 (2012).   %
     %                                                                      %
     %%%%%%%%%%%%%%%%%%%%%%%%%%%%%%%%%%%%%%%%%%%%%%%%%%%%%%%%%%%%%%%%%%%%%%%%

     Adding external electric field

     Computed dipole along edir(3) :
        Dipole              -10.1102 Ry au,        -25.6976 Debye
        Dipole field         -0.0191 Ry au,

        Potential amp.        1.7686 Ry
        Total length         46.3494 bohr

     Starting wfcs are  301 atomic wfcs
  @ DRIVER MODE: Message from server: STATUS
  @ DRIVER MODE: Message from server: POSDATA
  @ DRIVER MODE: Reading and sharing cell
  @ DRIVER MODE: Reading and sharing positions
  @ DRIVER MODE: Received positions

     Self-consistent Calculation

     iteration #  1     ecut=    29.40 Ry     beta= 0.05
     Davidson diagonalization with overlap
     c_bands:  2 eigenvalues not converged
     c_bands:  1 eigenvalues not converged
     c_bands:  1 eigenvalues not converged
     c_bands:  1 eigenvalues not converged
     c_bands:  1 eigenvalues not converged
     c_bands:  1 eigenvalues not converged
     c_bands:  1 eigenvalues not converged
     c_bands:  2 eigenvalues not converged
     ethr =  1.00E-05,  avg # of iterations = 19.0

[...]

     total energy              =   -2537.43540385 Ry
     estimated scf accuracy    <    4508.90346253 Ry

     iteration #  2     ecut=    29.40 Ry     beta= 0.05
     Davidson diagonalization with overlap
     ethr =  1.00E-02,  avg # of iterations = 24.5

[...]

     iteration # 62     ecut=    29.40 Ry     beta= 0.05
     Davidson diagonalization with overlap
     ethr =  4.91E-11,  avg # of iterations =  3.7

[...]

     total energy              =   -2941.70781133 Ry
     estimated scf accuracy    <       0.00000045 Ry

     iteration # 64     ecut=    29.40 Ry     beta= 0.05
     Davidson diagonalization with overlap
     c_bands:  1 eigenvalues not converged
     ethr =  3.16E-11,  avg # of iterations = 12.8

     negative rho (up, down):  1.503E-02 0.000E+00

     Adding external electric field

     Computed dipole along edir(3) :
        Dipole                0.8863 Ry au,          2.2527 Debye
        Dipole field          0.0017 Ry au,

        Potential amp.       -0.1550 Ry
        Total length         46.3494 bohr

     End of self-consistent calculation

          k = 0.0000 0.0000 0.0000 ( 18029 PWs)   bands (ev):

   -55.7590 -55.7505 -55.7249 -55.7146 -55.6447 -55.6041 -55.5879 -55.5696
   -55.5678 -55.5339 -55.5321 -55.4984 -55.2784 -55.0264 -54.7363 -54.7023
   -32.3035 -32.2413 -32.1053 -32.0945 -32.0665 -32.0631 -32.0518 -32.0225
   -32.0015 -31.9777 -31.9710 -31.9505 -31.9302 -31.9109 -31.9027 -31.8896
   -31.8757 -31.8632 -31.8488 -31.8159 -31.8135 -31.8108 -31.7693 -31.7626
   -31.7622 -31.7602 -31.7557 -31.7464 -31.7339 -31.7190 -31.7111 -31.7072
   -31.7020 -31.6981 -31.6851 -31.6751 -31.6442 -31.5326 -31.4594 -31.3078
   -31.2802 -31.2339 -31.1435 -31.0551 -31.0327 -30.9601 -30.8736 -30.7626
   -16.4992 -16.2339 -16.0171 -15.9127 -15.8775 -15.7618 -15.5977 -15.4785
   -15.4260 -15.3279 -15.3142 -15.2947 -15.2613 -15.2447 -15.2240 -15.2051
   -15.2007 -15.1829 -15.1694 -15.1181 -15.0953 -15.0579 -14.9607 -14.9311
   -14.8935 -14.8769 -14.8190 -14.8140 -14.6803 -14.3306 -14.0769 -13.2388
   -13.1224  -7.2965  -4.1757  -4.1463  -4.0273  -3.8750  -3.7659  -3.7125
    -3.6642  -3.6040  -3.3981  -3.3075  -3.2826  -2.9863  -2.9404  -2.9254
    -2.9033  -2.8778  -2.6584  -2.6036  -2.5720  -2.5548  -2.5401  -2.5270
    -2.5193  -2.4997  -2.4656  -2.3680  -2.3143  -2.2996  -2.1763  -2.1479
    -2.0876  -2.0708  -2.0242  -2.0093  -1.9963  -1.9913  -1.9632  -1.9469
    -1.9216  -1.8432  -1.7276  -1.5753  -1.5568  -1.5232  -1.4034  -1.3659
    -1.3020  -1.2184  -1.2002  -1.1842  -1.1500  -1.1385  -1.0592  -0.9461
    -0.9061  -0.8975  -0.7941  -0.7542  -0.7338  -0.6298  -0.6060  -0.5381
    -0.5215  -0.5116  -0.4787  -0.3187  -0.2608  -0.2259  -0.1613  -0.1380
    -0.0788  -0.0609  -0.0306   0.0521   0.1002   0.1268   0.1285   0.1774
     0.2159   0.2327   0.2367   0.2515   0.2717   0.4387   0.5145   0.5284
     0.5980   0.6095   0.7720   0.8161   0.8985   1.0004   1.0338   1.2114
     1.2857   1.3754   1.4780   1.6804   1.8570   1.9026   3.3781   3.4612
     3.5097   3.5222   3.6202   3.6616   3.8308   3.8390   3.8495   3.9240

[...]

          k = 0.0380-0.0419 0.0000 ( 17876 PWs)   bands (ev):

[...]

          k =-0.0760-0.0000 0.0000 ( 17886 PWs)   bands (ev):

[...]

          k =-0.0760-0.0839 0.0000 ( 17948 PWs)   bands (ev):

   -55.7423 -55.7414 -55.7333 -55.7316 -55.6388 -55.5937 -55.5886 -55.5850
   -55.5515 -55.5497 -55.5160 -55.5147 -55.2773 -55.0274 -54.7193 -54.7192
   -32.1085 -32.1057 -32.0569 -32.0562 -32.0377 -32.0367 -32.0219 -32.0097
   -31.9573 -31.9532 -31.9486 -31.9444 -31.9098 -31.8831 -31.8816 -31.8785
   -31.8693 -31.8634 -31.8615 -31.8607 -31.8548 -31.8524 -31.8420 -31.8078
   -31.8016 -31.7945 -31.7822 -31.7696 -31.7504 -31.7500 -31.7471 -31.7460
   -31.7306 -31.7298 -31.7246 -31.7217 -31.6421 -31.5351 -31.4559 -31.3745
   -31.2819 -31.2558 -31.0454 -31.0454 -30.9562 -30.9562 -30.9169 -30.9169
   -15.9385 -15.9072 -15.7021 -15.6751 -15.6715 -15.6553 -15.5304 -15.4673
   -15.4541 -15.4518 -15.3877 -15.3674 -15.3308 -15.3035 -15.2893 -15.2791
   -15.2733 -15.2671 -15.2185 -15.2127 -15.1949 -15.1877 -15.0847 -15.0752
   -15.0713 -15.0161 -14.9357 -14.7938 -14.6970 -14.5043 -14.0766 -13.2243
   -13.2242  -7.2930  -4.1950  -4.1171  -4.0385  -3.4398  -3.2284  -3.1911
    -2.9318  -2.9137  -2.9001  -2.8449  -2.6722  -2.6548  -2.6334  -2.6153
    -2.5815  -2.5806  -2.5615  -2.5596  -2.5486  -2.5142  -2.5025  -2.4728
    -2.4353  -2.4251  -2.4133  -2.4119  -2.3818  -2.3721  -2.3332  -2.3039
    -2.2947  -2.2762  -2.2614  -2.0919  -1.9838  -1.9585  -1.8955  -1.8876
    -1.8586  -1.8224  -1.8150  -1.7943  -1.7436  -1.6575  -1.4906  -1.4583
    -1.4401  -1.3779  -1.3604  -1.3095  -1.2297  -1.1558  -1.1336  -1.1282
    -1.0785  -0.9689  -0.9463  -0.9381  -0.8684  -0.8222  -0.8155  -0.7799
    -0.7512  -0.7183  -0.7140  -0.6220  -0.5725  -0.5296  -0.5246  -0.4763
    -0.4089  -0.3977  -0.3691  -0.2599  -0.2372  -0.1798  -0.1452  -0.0352
     0.0281   0.2263   0.2801   0.3163   0.3736   0.4484   0.5308   0.5462
     0.5505   0.5610   0.6167   0.6702   0.7746   0.7834   0.8386   0.9456
     1.0004   1.6038   1.6495   1.6501   1.7224   1.7225   3.6606   3.6723
     3.7112   3.7318   3.8699   3.8852   3.9090   3.9099   3.9615   4.0491

     the Fermi energy is     3.3753 ev

!    total energy              =   -2941.70784431 Ry
     estimated scf accuracy    <       0.00000003 Ry
     smearing contrib. (-TS)   =      -0.02185584 Ry
     internal energy E=F+TS    =   -2941.68598846 Ry

     The total energy is F=E-TS. E is the sum of the following terms:
     one-electron contribution =  -23925.34581773 Ry
     hartree contribution      =   12052.30461188 Ry
     xc contribution           =    -486.77161504 Ry
     ewald contribution        =    9418.12535007 Ry
     electric field correction =       0.00148237 Ry

     convergence has been achieved in  64 iterations

     Forces acting on atoms (cartesian axes, Ry/au):

     atom    1 type  1   force =     0.00002803   -0.00024467    0.09665319
     atom    2 type  1   force =     0.00003732   -0.00058309   -0.17537563
     atom    3 type  2   force =     0.00011649   -0.00004106   -0.02487801
     atom    4 type  2   force =    -0.00000097   -0.00141631    0.05293014
     atom    5 type  2   force =    -0.01228158   -0.00027007    0.00347197
     atom    6 type  2   force =     0.01364115    0.00026359    0.00254896
     atom    7 type  1   force =     0.00031456    0.00057815   -0.01137329
     atom    8 type  1   force =     0.00051721    0.00783928    0.02844434
     atom    9 type  2   force =     0.00020731    0.00041108    0.00047911
     atom   10 type  2   force =    -0.00291937    0.00138278   -0.01558187
     atom   11 type  2   force =     0.00067012   -0.00000664   -0.00001838
     atom   12 type  2   force =    -0.00008774   -0.00013687   -0.00014086
     atom   13 type  1   force =    -0.00018872   -0.00032376    0.00099117
     atom   14 type  1   force =     0.00018377   -0.00008069   -0.00018934
     atom   15 type  2   force =     0.00017913    0.00048879    0.00020819
     atom   16 type  2   force =    -0.00033097   -0.00035978   -0.00030674
     atom   17 type  2   force =    -0.00065248    0.00002251   -0.00046182
     atom   18 type  2   force =     0.00037653    0.00044423   -0.00004970
     atom   19 type  1   force =    -0.00049640   -0.00081102   -0.00019406
     atom   20 type  1   force =     0.00045949    0.00095324   -0.00114281
     atom   21 type  2   force =     0.00005455   -0.00005972    0.10318173
     atom   22 type  2   force =    -0.00079258    0.00006257    0.00069622
     atom   23 type  2   force =    -0.07150127   -0.00014919   -0.02771270
     atom   24 type  2   force =     0.07142620    0.00031331   -0.02778726
     atom   25 type  1   force =     0.00016844   -0.00024861    0.09628352
     atom   26 type  1   force =     0.00009436   -0.00022740   -0.17561442
     atom   27 type  2   force =     0.00017331   -0.00019026   -0.02392482
     atom   28 type  2   force =     0.00000152   -0.00117634    0.05284513
     atom   29 type  2   force =    -0.01241241    0.00039045    0.00316774
     atom   30 type  2   force =     0.01367061    0.00085650    0.00221228
     atom   31 type  1   force =     0.00028355    0.00324085   -0.01196387
     atom   32 type  1   force =     0.00065064   -0.01006631    0.02885238
     atom   33 type  2   force =     0.00024489   -0.00024171    0.00061308
     atom   34 type  2   force =    -0.00237740    0.00102462   -0.02372696
     atom   35 type  2   force =     0.00059534   -0.00070546   -0.00009033
     atom   36 type  2   force =    -0.00016512   -0.00079377    0.00017216
     atom   37 type  1   force =    -0.00017071   -0.00013585    0.00049077
     atom   38 type  1   force =     0.00029885    0.00036881   -0.00065320
     atom   39 type  2   force =    -0.00009380   -0.00074933    0.00119333
     atom   40 type  2   force =     0.00026703   -0.00062366   -0.00013608
     atom   41 type  2   force =    -0.00024042   -0.00062703   -0.00002400
     atom   42 type  2   force =    -0.00035818   -0.00025247   -0.00001700
     atom   43 type  1   force =    -0.00049309    0.00071802    0.00008949
     atom   44 type  1   force =    -0.00017335    0.00012043   -0.00038017
     atom   45 type  2   force =     0.00007266   -0.00006895    0.10320603
     atom   46 type  2   force =    -0.07153864   -0.00008117   -0.02774274
     atom   47 type  2   force =     0.07144496    0.00033885   -0.02780487
     atom   48 type  3   force =    -0.00019385   -0.00062528   -0.00124343
     atom   49 type  4   force =     0.00060852   -0.00103295    0.00078849
     atom   50 type  5   force =    -0.00040093    0.00074583    0.00113467
     atom   51 type  5   force =    -0.00026665    0.00066127   -0.00049749
     atom   52 type  3   force =    -0.00751397   -0.00989522   -0.00339676
     atom   53 type  5   force =     0.00834148    0.01227134    0.00315688
     atom   54 type  5   force =     0.00090874   -0.00095230    0.00086580
     atom   55 type  5   force =    -0.00038617   -0.00031954   -0.00224818

     Total force =     0.368600     Total SCF correction =     0.000488
  @ DRIVER MODE: Message from server: STATUS
  @ DRIVER MODE: Message from server: GETFORCE
  @ DRIVER MODE: Returning v,forces,stress,ensemble

     Writing output data file ./calc.save/
  @ DRIVER MODE: Message from server: EXIT
  @ DRIVE MODE: Exiting

     General routines

     Parallel routines

   This run was terminated on:  22:10:24  24Aug2021

   JOB DONE.