     Program PWSCF v.6.7GPU starts on 16Sep2021 at 16:40:39

     R & G space division:  proc/nbgrp/npool/nimage =      10
     Reading input from /storage/home/hcoda1/3/ntian30/research/carbon/CxH_vib/H2O_calc/ads_slab/CH3NNHHHH2O_a/out_0071/pw.inp
Warning: card &CELL ignored
Warning: card   CELL_DYNAMICS='IPI', ignored
Warning: card / ignored

     Current dimensions of program PWSCF are:
     Max number of different atomic species (ntypx) = 10
     Max number of k-points (npk) =  40000
     Max angular momentum in pseudopotentials (lmaxx) =  3
     Presently no symmetry can be used with electric field

     Message from routine cell_base_init:
     DEPRECATED: use true lattice parameter, not A to a.u. conversion factor

     IMPORTANT: XC functional enforced from input :
     Exchange-correlation= BEEF-VDW
                           (   1   4  43  14   2   0   0)
     Any further DFT definition will be discarded
     Please, verify this is what you really want

  @ DRIVER MODE: Connecting to
 qe_1139763_2852622.sched-torque.pace.gatech.edujuq7quu1_scratch
  using UNIX socket
  @ DRIVER MODE: Message from server: STATUS
  @ DRIVER MODE: Message from server: INIT
  @ DRIVER MODE: Receiving replica           0          -1
  @ DRIVER MODE: Receiving encoded integer          25
  @ DRIVER MODE:  SCF:  T  FORCE:  T  STRESS:  F  VC:  F  ENSEMBLE:  F
  @ DRIVER MODE:  SCF:  T  FORCE:  T  STRESS:  F  VC:  F  ENSEMBLE:  F

     Using Slab Decomposition

     bravais-lattice index     =            0
     lattice parameter (alat)  =       1.8897  a.u.
     unit-cell volume          =    6658.9804 (a.u.)^3
     number of atoms/cell      =           59
     number of atomic types    =            5
     number of electrons       =       406.00
     number of Kohn-Sham states=          213
     kinetic-energy cutoff     =      29.3995  Ry
     charge density cutoff     =     293.9946  Ry
     scf convergence threshold =      7.3E-08
     mixing beta               =       0.0500
     number of iterations used =            8  plain     mixing
     Exchange-correlation= BEEF-VDW
                           (   1   4  43  14   2   0   0)

     celldm(1)=   1.889726  celldm(2)=   0.000000  celldm(3)=   0.000000
     celldm(4)=   0.000000  celldm(5)=   0.000000  celldm(6)=   0.000000

     crystal axes: (cart. coord. in units of alat)
               a(1) = (   6.579727   0.000000   0.000000 )
               a(2) = (  -0.000775   5.961596   0.000000 )
               a(3) = (   0.000000   0.000000  25.155947 )

     reciprocal axes: (cart. coord. in units 2 pi/alat)
               b(1) = (  0.151982  0.000020  0.000000 )
               b(2) = (  0.000000  0.167740  0.000000 )
               b(3) = (  0.000000  0.000000  0.039752 )

     PseudoPot. # 1 for Ti read from file:
     /storage/coda1/p-amedford6/0/shared/rich_project_chbe-medford/medford-share/data/pseudos_module/espresso/nninc/pbe/van/Ti.UPF
     MD5 check sum: 8e4df49b7f0d34bbd5052bf3f5ea0213
     Pseudo is Ultrasoft, Zval = 12.0
     Generated by new atomic code, or converted to UPF format
     Using radial grid of  851 points,  6 beta functions with:
                l(1) =   0
                l(2) =   0
                l(3) =   1
                l(4) =   1
                l(5) =   2
                l(6) =   2
     Q(r) pseudized with  8 coefficients,  rinner =    1.000   1.000   1.000
                                                       1.000   1.000

     PseudoPot. # 2 for O  read from file:
     /storage/coda1/p-amedford6/0/shared/rich_project_chbe-medford/medford-share/data/pseudos_module/espresso/nninc/pbe/van/O.UPF
     MD5 check sum: 78c19812648e8988a0fe644b0f25305e
     Pseudo is Ultrasoft, Zval =  6.0
     Generated by new atomic code, or converted to UPF format
     Using radial grid of  737 points,  4 beta functions with:
                l(1) =   0
                l(2) =   0
                l(3) =   1
                l(4) =   1
     Q(r) pseudized with  8 coefficients,  rinner =    0.800   0.800   0.800

     PseudoPot. # 3 for N  read from file:
     /storage/coda1/p-amedford6/0/shared/rich_project_chbe-medford/medford-share/data/pseudos_module/espresso/nninc/pbe/van/N.UPF
     MD5 check sum: 90d10febe142ad51ac9d5be1deb811c4
     Pseudo is Ultrasoft, Zval =  5.0
     Generated by new atomic code, or converted to UPF format
     Using radial grid of  729 points,  4 beta functions with:
                l(1) =   0
                l(2) =   0
                l(3) =   1
                l(4) =   1
     Q(r) pseudized with  8 coefficients,  rinner =    0.800   0.800   0.800

     PseudoPot. # 4 for C  read from file:
     /storage/coda1/p-amedford6/0/shared/rich_project_chbe-medford/medford-share/data/pseudos_module/espresso/nninc/pbe/van/C.UPF
     MD5 check sum: 1a69bf6b8db32088f5b2163dbdb77a27
     Pseudo is Ultrasoft, Zval =  4.0
     Generated by new atomic code, or converted to UPF format
     Using radial grid of  721 points,  4 beta functions with:
                l(1) =   0
                l(2) =   0
                l(3) =   1
                l(4) =   1
     Q(r) pseudized with  8 coefficients,  rinner =    0.800   0.800   0.800

     PseudoPot. # 5 for H  read from file:
     /storage/coda1/p-amedford6/0/shared/rich_project_chbe-medford/medford-share/data/pseudos_module/espresso/nninc/pbe/van/H.UPF
     MD5 check sum: b5ee9d7bfd3a09ee7748110bda690ff7
     Pseudo is Ultrasoft, Zval =  1.0
     Generated by new atomic code, or converted to UPF format
     Using radial grid of  615 points,  1 beta functions with:
                l(1) =   0
     Q(r) pseudized with  8 coefficients,  rinner =    0.800

     atomic species   valence    mass     pseudopotential
        Ti1           12.00    47.86700     Ti( 1.00)
        O1             6.00    15.99900     O ( 1.00)
        N1             5.00    14.00700     N ( 1.00)
        C1             4.00    12.01100     C ( 1.00)
        H1             1.00     1.00800     H ( 1.00)

     No symmetry found

   Cartesian axes

     site n.     atom                  positions (alat units)
         1           Ti1 tau(   1) = (   0.0004258   2.9801865   6.0000000  )
         2           Ti1 tau(   2) = (   3.2906075   1.4906267   6.0002472  )
         3           O1  tau(   3) = (   0.0006271   0.0005054   7.9858123  )
         4           O1  tau(   4) = (   3.2906025   0.0005020   7.3038282  )
         5           O1  tau(   5) = (   4.5942328   1.4918067   9.2879030  )
         6           O1  tau(   6) = (   1.9868534   1.4903216   9.2879459  )
         7           Ti1 tau(   7) = (   3.2907910   2.8959150   9.1758416  )
         8           Ti1 tau(   8) = (   0.0015273   1.4827037   9.2680791  )
         9           O1  tau(   9) = (   3.2800960   5.9426830  11.3808346  )
        10           O1  tau(  10) = (   0.0116148   5.9584955  10.6183126  )
        11           O1  tau(  11) = (   1.2797812   1.4911726  12.6624455  )
        12           O1  tau(  12) = (   5.2824698   1.4871998  12.6412817  )
        13           Ti1 tau(  13) = (   0.0041451   2.9720195  12.5119452  )
        14           Ti1 tau(  14) = (   3.3095611   1.4699318  12.5307708  )
        15           O1  tau(  15) = (   6.5436702   0.0697967  14.6864816  )
        16           O1  tau(  16) = (   3.2812162   5.9597207  14.0300411  )
        17           O1  tau(  17) = (   4.5129646   1.5046642  16.2361130  )
        18           O1  tau(  18) = (   1.9708392   1.5012857  16.1671103  )
        19           Ti1 tau(  19) = (   3.2655272   2.9480959  15.7331506  )
        20           Ti1 tau(  20) = (   6.5674642   1.4497656  15.9937491  )
        21           O1  tau(  21) = (   3.2904802   0.0005063   4.7018136  )
        22           O1  tau(  22) = (   6.5217933   5.8323795  17.2454964  )
        23           O1  tau(  23) = (   1.3043587   1.4918075   6.0039043  )
        24           O1  tau(  24) = (   5.2767064   1.4903225   6.0039473  )
        25           Ti1 tau(  25) = (   0.0000382   5.9609847   6.0000000  )
        26           Ti1 tau(  26) = (   3.2902200   4.4714249   6.0002472  )
        27           O1  tau(  27) = (   0.0002396   2.9813036   7.9858123  )
        28           O1  tau(  28) = (   3.2902150   2.9813002   7.3038282  )
        29           O1  tau(  29) = (   4.5938453   4.4726049   9.2879030  )
        30           O1  tau(  30) = (   1.9864658   4.4711199   9.2879459  )
        31           Ti1 tau(  31) = (   3.2891106   5.8743827   9.1763621  )
        32           Ti1 tau(  32) = (   0.0006254   4.4649316   9.2693709  )
        33           O1  tau(  33) = (   3.2830490   2.9749636  11.3746576  )
        34           O1  tau(  34) = (   0.0092240   2.9805883  10.6323155  )
        35           O1  tau(  35) = (   1.2760807   4.4612897  12.6946019  )
        36           O1  tau(  36) = (   5.2846406   4.4647657  12.6742532  )
        37           Ti1 tau(  37) = (   0.0173662   5.9591775  12.4970172  )
        38           Ti1 tau(  38) = (   3.3070294   4.4569304  12.5379467  )
        39           O1  tau(  39) = (   6.5190077   2.9374781  14.9220565  )
        40           O1  tau(  40) = (   3.2909943   2.9519766  13.9498127  )
        41           O1  tau(  41) = (   4.5146313   4.4149292  16.1460290  )
        42           O1  tau(  42) = (   1.9668235   4.4047650  16.1116202  )
        43           Ti1 tau(  43) = (   3.2426406   5.9218513  15.8539982  )
        44           Ti1 tau(  44) = (   6.5337747   4.6515477  15.8702276  )
        45           O1  tau(  45) = (   3.2900926   2.9813045   4.7018136  )
        46           O1  tau(  46) = (   1.3039711   4.4726057   6.0039043  )
        47           O1  tau(  47) = (   5.2763189   4.4711207   6.0039473  )
        48           N1  tau(  48) = (   1.0802268   3.0592680  18.8437747  )
        49           N1  tau(  49) = (   6.4825355   2.6367244  18.1156036  )
        50           C1  tau(  50) = (   0.7269815   3.7261681  20.0984356  )
        51           H1  tau(  51) = (   0.0344531   4.5672025  19.9493712  )
        52           H1  tau(  52) = (   0.2718923   3.0081313  20.7822053  )
        53           H1  tau(  53) = (   1.6424345   4.1087450  20.5485440  )
        54           H1  tau(  54) = (   5.7152520   3.3097272  18.2274121  )
        55           H1  tau(  55) = (   6.1788988   1.7551022  18.5268573  )
        56           H1  tau(  56) = (   1.5478348   3.7306874  18.2371031  )
        57           O1  tau(  57) = (   3.1661568   0.0027346  18.3937517  )
        58           H1  tau(  58) = (   4.0701885   0.3469208  18.4697374  )
        59           H1  tau(  59) = (   2.5798038   0.7742236  18.4944111  )

     number of k points=    10  Fermi-Dirac smearing, width (Ry)=  0.0073
                       cart. coord. in units 2pi/alat
        k(    1) = (   0.0000000   0.0000000   0.0000000), wk =   0.1250000
        k(    2) = (   0.0000000   0.0419351   0.0000000), wk =   0.2500000
        k(    3) = (   0.0000000  -0.0838702   0.0000000), wk =   0.1250000
        k(    4) = (   0.0379955   0.0000049   0.0000000), wk =   0.2500000
        k(    5) = (   0.0379955   0.0419400   0.0000000), wk =   0.2500000
        k(    6) = (   0.0379955  -0.0838652   0.0000000), wk =   0.2500000
        k(    7) = (   0.0379955  -0.0419301   0.0000000), wk =   0.2500000
        k(    8) = (  -0.0759910  -0.0000099   0.0000000), wk =   0.1250000
        k(    9) = (  -0.0759910   0.0419252   0.0000000), wk =   0.2500000
        k(   10) = (  -0.0759910  -0.0838800   0.0000000), wk =   0.1250000

     Initial potential from superposition of free atoms

     starting charge  389.99912, renormalised to  406.00000

     negative rho (up, down):  1.306E-02 0.000E+00

     %%%%%%%%%%%%%%%%%%%%%%%%%%%%%%%%%%%%%%%%%%%%%%%%%%%%%%%%%%%%%%%%%%%%%%%%
     %                                                                      %
     % You are using vdW-DF, which was implemented by the Thonhauser group. %
     % Please cite the following two papers that made this development      %
     % possible and the two reviews that describe the various versions:     %
     %                                                                      %
     %   T. Thonhauser et al., PRL 115, 136402 (2015).                      %
     %   T. Thonhauser et al., PRB 76, 125112 (2007).                       %
     %   K. Berland et al., Rep. Prog. Phys. 78, 066501 (2015).             %
     %   D.C. Langreth et al., J. Phys.: Condens. Matter 21, 084203 (2009). %
     %                                                                      %
     %                                                                      %
     % If you are calculating the stress with vdW-DF, please also cite:     %
     %                                                                      %
     %   R. Sabatini et al., J. Phys.: Condens. Matter 24, 424209 (2012).   %
     %                                                                      %
     %%%%%%%%%%%%%%%%%%%%%%%%%%%%%%%%%%%%%%%%%%%%%%%%%%%%%%%%%%%%%%%%%%%%%%%%

     Adding external electric field

     Computed dipole along edir(3) :
        Dipole              -16.1150 Ry au,        -40.9603 Debye
        Dipole field         -0.0304 Ry au,

        Potential amp.        2.8191 Ry
        Total length         46.3494 bohr

     Starting wfcs are  308 atomic wfcs
  @ DRIVER MODE: Message from server: STATUS
  @ DRIVER MODE: Message from server: POSDATA
  @ DRIVER MODE: Reading and sharing cell
  @ DRIVER MODE: Reading and sharing positions
  @ DRIVER MODE: Received positions

     Self-consistent Calculation

     iteration #  1     ecut=    29.40 Ry     beta= 0.05
     Davidson diagonalization with overlap
     c_bands:  2 eigenvalues not converged
     c_bands:  3 eigenvalues not converged
     c_bands:  2 eigenvalues not converged
     c_bands:  3 eigenvalues not converged
     c_bands:  4 eigenvalues not converged
     c_bands:  2 eigenvalues not converged
     c_bands:  1 eigenvalues not converged
     c_bands:  5 eigenvalues not converged
     c_bands:  1 eigenvalues not converged
     ethr =  1.00E-05,  avg # of iterations = 23.1

[...]

     total energy              =   -2140.64217606 Ry
     estimated scf accuracy    <    9598.75495057 Ry

     iteration #  2     ecut=    29.40 Ry     beta= 0.05
     Davidson diagonalization with overlap
     ethr =  1.00E-02,  avg # of iterations = 32.7

[...]

     iteration # 68     ecut=    29.40 Ry     beta= 0.05
     Davidson diagonalization with overlap
     c_bands:  1 eigenvalues not converged
     ethr =  4.26E-11,  avg # of iterations = 13.6

[...]

     total energy              =   -2977.70011664 Ry
     estimated scf accuracy    <       0.00000009 Ry

     iteration # 70     ecut=    29.40 Ry     beta= 0.05
     Davidson diagonalization with overlap
     ethr =  2.17E-11,  avg # of iterations = 11.5

     negative rho (up, down):  1.407E-02 0.000E+00

     Adding external electric field

     Computed dipole along edir(3) :
        Dipole                1.3344 Ry au,          3.3916 Debye
        Dipole field          0.0025 Ry au,

        Potential amp.       -0.2334 Ry
        Total length         46.3494 bohr

     End of self-consistent calculation

          k = 0.0000 0.0000 0.0000 ( 18029 PWs)   bands (ev):

   -55.1216 -55.0849 -55.0774 -55.0432 -55.0376 -55.0323 -55.0008 -54.9649
   -54.9464 -54.9116 -54.9078 -54.8909 -54.8742 -54.8402 -54.1073 -54.0732
   -31.6834 -31.5972 -31.5698 -31.4899 -31.4356 -31.4328 -31.4192 -31.4134
   -31.3664 -31.3435 -31.3332 -31.3222 -31.3154 -31.3127 -31.2944 -31.2862
   -31.2659 -31.2632 -31.2609 -31.2427 -31.2299 -31.2206 -31.2033 -31.1986
   -31.1912 -31.1796 -31.1765 -31.1474 -31.1346 -31.1316 -31.1269 -31.1064
   -31.1036 -31.0960 -31.0926 -31.0687 -31.0598 -31.0431 -31.0358 -31.0338
   -31.0189 -31.0176 -30.5167 -30.4224 -30.4003 -30.3331 -30.2463 -30.1354
   -18.8090 -17.8164 -15.9528 -15.6974 -15.5608 -15.4598 -15.3251 -15.2188
   -15.1375 -15.0234 -14.9736 -14.8584 -14.8261 -14.8217 -14.7817 -14.7505
   -14.7018 -14.6631 -14.6609 -14.6385 -14.6192 -14.6114 -14.5685 -14.5617
   -14.5224 -14.5202 -14.5004 -14.3641 -14.2826 -14.2126 -14.0298 -13.1989
   -12.6100 -12.4925  -9.7740  -6.5437  -6.4009  -5.4472  -4.9171  -3.5298
    -3.2861  -3.1416  -3.0879  -3.0523  -3.0180  -2.9580  -2.8837  -2.7990
    -2.6516  -2.5838  -2.5587  -2.4065  -2.3324  -2.3225  -2.2664  -2.1663
    -2.1416  -2.0950  -2.0524  -1.9882  -1.9508  -1.9273  -1.9055  -1.8703
    -1.8668  -1.8125  -1.7586  -1.6895  -1.6000  -1.5685  -1.5225  -1.4789
    -1.4567  -1.4541  -1.4139  -1.4075  -1.3971  -1.3525  -1.3462  -1.3162
    -1.2700  -1.1606  -1.0105  -0.9481  -0.8579  -0.7641  -0.7379  -0.7132
    -0.6931  -0.6310  -0.6085  -0.5786  -0.5037  -0.4553  -0.3761  -0.3283
    -0.3072  -0.2276  -0.1228  -0.1059  -0.0989  -0.0103   0.0818   0.0947
     0.1093   0.1190   0.2169   0.2823   0.3161   0.3576   0.4219   0.4310
     0.4893   0.5180   0.5696   0.6358   0.6688   0.7484   0.7878   0.8087
     0.8139   0.8363   0.8577   0.8694   0.9494   0.9578   0.9833   1.0720
     1.1764   1.3310   1.4769   1.4876   1.8209   1.8220   1.9154   2.0990
     2.4916   2.5399   3.9728   4.0484   4.1069   4.1181   4.1236   4.2086
     4.4576   4.4755   4.4868   4.4884   4.5234

[...]

          k = 0.0380-0.0419 0.0000 ( 17876 PWs)   bands (ev):

[...]

          k =-0.0760-0.0000 0.0000 ( 17886 PWs)   bands (ev):

[...]

          k =-0.0760-0.0839 0.0000 ( 17948 PWs)   bands (ev):

   -55.1071 -55.0991 -55.0603 -55.0601 -55.0349 -55.0311 -54.9880 -54.9776
   -54.9320 -54.9256 -54.8928 -54.8916 -54.8906 -54.8418 -54.0902 -54.0901
   -31.5126 -31.4931 -31.4833 -31.3850 -31.3848 -31.3794 -31.3728 -31.3517
   -31.3516 -31.3311 -31.3260 -31.3204 -31.3107 -31.2919 -31.2782 -31.2638
   -31.2595 -31.2582 -31.2547 -31.2483 -31.2463 -31.2427 -31.2305 -31.2294
   -31.2002 -31.1995 -31.1823 -31.1800 -31.1799 -31.1713 -31.1710 -31.1652
   -31.1567 -31.1444 -31.1388 -31.1233 -31.1218 -31.1055 -31.0717 -31.0712
   -31.0698 -31.0463 -30.4130 -30.4129 -30.3293 -30.3291 -30.2897 -30.2897
   -18.8075 -17.8130 -15.5327 -15.3943 -15.2551 -15.1515 -15.1366 -15.0830
   -15.0341 -14.9921 -14.9509 -14.9062 -14.8963 -14.8782 -14.8498 -14.8227
   -14.7984 -14.7392 -14.7228 -14.7072 -14.6849 -14.6381 -14.6303 -14.6275
   -14.6204 -14.5742 -14.5716 -14.5465 -14.4780 -14.4759 -14.2888 -13.2008
   -12.5940 -12.5939  -9.7709  -6.5935  -6.3252  -5.4443  -4.9280  -3.5029
    -2.9492  -2.8137  -2.6562  -2.6202  -2.4750  -2.3743  -2.3292  -2.3009
    -2.2471  -2.2016  -2.1415  -2.1264  -2.1081  -2.0493  -2.0232  -2.0051
    -1.9738  -1.9548  -1.9411  -1.9230  -1.9051  -1.8767  -1.8509  -1.8421
    -1.8375  -1.8087  -1.7928  -1.7532  -1.7465  -1.7389  -1.6951  -1.6836
    -1.6573  -1.6015  -1.4933  -1.4830  -1.3307  -1.3283  -1.2936  -1.2487
    -1.2287  -1.2185  -1.1581  -1.1502  -1.1380  -0.9016  -0.8748  -0.8648
    -0.8375  -0.7790  -0.7618  -0.6992  -0.6898  -0.6059  -0.5910  -0.4891
    -0.4732  -0.4162  -0.3336  -0.3255  -0.3136  -0.2014  -0.1526  -0.1150
    -0.0888  -0.0784  -0.0612  -0.0231  -0.0230   0.0668   0.1102   0.1406
     0.1558   0.1857   0.3505   0.3989   0.4080   0.5472   0.5609   0.7096
     0.7723   0.7865   0.8776   0.8949   0.9824   0.9920   1.0316   1.1712
     1.1828   1.2063   1.2531   1.2815   1.3334   1.3385   2.2717   2.2730
     2.3598   2.3600   4.1051   4.2305   4.2368   4.2975   4.4068   4.4402
     4.4862   4.5198   4.5571   4.5598   4.6275

     the Fermi energy is     4.0348 ev

!    total energy              =   -2977.70013824 Ry
     estimated scf accuracy    <       0.00000004 Ry
     smearing contrib. (-TS)   =      -0.03675248 Ry
     internal energy E=F+TS    =   -2977.66338576 Ry

     The total energy is F=E-TS. E is the sum of the following terms:
     one-electron contribution =  -23083.33174484 Ry
     hartree contribution      =   11640.78784559 Ry
     xc contribution           =    -496.62298755 Ry
     ewald contribution        =    8961.50014089 Ry
     electric field correction =       0.00336015 Ry

     convergence has been achieved in  70 iterations

     Forces acting on atoms (cartesian axes, Ry/au):

     atom    1 type  1   force =     0.00017961   -0.00019009    0.09313205
     atom    2 type  1   force =    -0.00010447   -0.00033097   -0.17819159
     atom    3 type  2   force =     0.00002085   -0.00017554   -0.02037750
     atom    4 type  2   force =    -0.00002740   -0.00200553    0.05898907
     atom    5 type  2   force =    -0.01059643   -0.00142253    0.00860362
     atom    6 type  2   force =     0.01185916   -0.00070471    0.00713575
     atom    7 type  1   force =    -0.00089118    0.00313865   -0.01228104
     atom    8 type  1   force =     0.00054528    0.00112501   -0.00449514
     atom    9 type  2   force =    -0.00007500   -0.00036973    0.00014245
     atom   10 type  2   force =    -0.00129342   -0.00050766   -0.00193797
     atom   11 type  2   force =    -0.00021484   -0.00021862   -0.00005766
     atom   12 type  2   force =     0.00060590   -0.00007559   -0.00024253
     atom   13 type  1   force =    -0.00103237   -0.00062949    0.00022454
     atom   14 type  1   force =     0.00011865   -0.00004979    0.00016650
     atom   15 type  2   force =    -0.00026706   -0.00050332   -0.00006532
     atom   16 type  2   force =    -0.00001183   -0.00006893    0.00066434
     atom   17 type  2   force =    -0.00033976    0.00024850    0.00054727
     atom   18 type  2   force =     0.00024784   -0.00002172    0.00046720
     atom   19 type  1   force =     0.00031286    0.00016976    0.00055760
     atom   20 type  1   force =    -0.00030073   -0.00019513    0.00032307
     atom   21 type  2   force =     0.00007188   -0.00001753    0.10397736
     atom   22 type  2   force =     0.00009146   -0.00020981   -0.00118060
     atom   23 type  2   force =    -0.07039380   -0.00010753   -0.02688359
     atom   24 type  2   force =     0.07027201    0.00033953   -0.02692526
     atom   25 type  1   force =     0.00000370   -0.00022698    0.09276546
     atom   26 type  1   force =    -0.00020103   -0.00037164   -0.17830408
     atom   27 type  2   force =     0.00010515   -0.00028865   -0.01935172
     atom   28 type  2   force =     0.00003817   -0.00162473    0.05806316
     atom   29 type  2   force =    -0.01068155   -0.00080683    0.00800287
     atom   30 type  2   force =     0.01180006   -0.00047858    0.00652804
     atom   31 type  1   force =    -0.00072834    0.00504536   -0.01491166
     atom   32 type  1   force =     0.00039846   -0.00138966   -0.00477897
     atom   33 type  2   force =    -0.00011142    0.00021495    0.00029246
     atom   34 type  2   force =    -0.00128809    0.00140463   -0.00090320
     atom   35 type  2   force =     0.00019997    0.00014128    0.00001921
     atom   36 type  2   force =     0.00011417   -0.00001068   -0.00011721
     atom   37 type  1   force =    -0.00104054    0.00056324    0.00004484
     atom   38 type  1   force =     0.00014821   -0.00014485   -0.00004875
     atom   39 type  2   force =    -0.00001512   -0.00018112    0.00008038
     atom   40 type  2   force =    -0.00021111    0.00020309    0.00026121
     atom   41 type  2   force =    -0.00001251   -0.00019065    0.00032286
     atom   42 type  2   force =    -0.00013906   -0.00003364    0.00004361
     atom   43 type  1   force =     0.00029347    0.00007653    0.00027971
     atom   44 type  1   force =    -0.00013197    0.00021595   -0.00028836
     atom   45 type  2   force =     0.00003997   -0.00005006    0.10396407
     atom   46 type  2   force =    -0.07038360   -0.00005828   -0.02691511
     atom   47 type  2   force =     0.07029201    0.00037032   -0.02694547
     atom   48 type  3   force =     0.00005089    0.00022564   -0.00041275
     atom   49 type  3   force =    -0.00084749   -0.00030977    0.00020510
     atom   50 type  4   force =     0.00070182    0.00034629   -0.00048202
     atom   51 type  5   force =     0.00013554   -0.00027509    0.00009371
     atom   52 type  5   force =     0.00034079   -0.00061269    0.00048161
     atom   53 type  5   force =     0.00057510    0.00010784   -0.00021878
     atom   54 type  5   force =     0.00079355   -0.00024826   -0.00027058
     atom   55 type  5   force =     0.00042037    0.00085377    0.00002092
     atom   56 type  5   force =     0.00004475    0.00032634    0.00022266
     atom   57 type  2   force =     0.00078779   -0.00102285   -0.00120427
     atom   58 type  5   force =     0.00059452   -0.00032100    0.00012919
     atom   59 type  5   force =    -0.00086384    0.00133359    0.00103925

     Total force =     0.366069     Total SCF correction =     0.000353
  @ DRIVER MODE: Message from server: STATUS
  @ DRIVER MODE: Message from server: GETFORCE
  @ DRIVER MODE: Returning v,forces,stress,ensemble

     Writing output data file ./calc.save/
  @ DRIVER MODE: Message from server: EXIT
  @ DRIVE MODE: Exiting

     General routines

     Parallel routines

   This run was terminated on:  17: 1:30  16Sep2021

   JOB DONE.