     Program PWSCF v.6.7GPU starts on 18Oct2021 at 13: 2: 3

     R & G space division:  proc/nbgrp/npool/nimage =       8
     Reading input from /storage/home/hcoda1/3/ntian30/research/carbon/CxH_vib/Thiel_calc/ads_slab/H3N_perslab/out_0003/pw.inp
Warning: card &CELL ignored
Warning: card   CELL_DYNAMICS='IPI', ignored
Warning: card / ignored

     Current dimensions of program PWSCF are:
     Max number of different atomic species (ntypx) = 10
     Max number of k-points (npk) =  40000
     Max angular momentum in pseudopotentials (lmaxx) =  3
     Presently no symmetry can be used with electric field

     Message from routine cell_base_init:
     DEPRECATED: use true lattice parameter, not A to a.u. conversion factor

     IMPORTANT: XC functional enforced from input :
     Exchange-correlation= BEEF-VDW
                           (   1   4  43  14   2   0   0)
     Any further DFT definition will be discarded
     Please, verify this is what you really want

  @ DRIVER MODE: Connecting to
 qe_1139763_3255141.sched-torque.pace.gatech.edukuqyds_h_scratch
  using UNIX socket
  @ DRIVER MODE: Message from server: STATUS
  @ DRIVER MODE: Message from server: INIT
  @ DRIVER MODE: Receiving replica           0          -1
  @ DRIVER MODE: Receiving encoded integer          25
  @ DRIVER MODE:  SCF:  T  FORCE:  T  STRESS:  F  VC:  F  ENSEMBLE:  F
  @ DRIVER MODE:  SCF:  T  FORCE:  T  STRESS:  F  VC:  F  ENSEMBLE:  F

     Using Slab Decomposition

     bravais-lattice index     =            0
     lattice parameter (alat)  =       1.8897  a.u.
     unit-cell volume          =    9988.4706 (a.u.)^3
     number of atoms/cell      =           57
     number of atomic types    =            4
     number of electrons       =       434.00
     number of Kohn-Sham states=          227
     kinetic-energy cutoff     =      29.3995  Ry
     charge density cutoff     =     293.9946  Ry
     scf convergence threshold =      7.3E-08
     mixing beta               =       0.0500
     number of iterations used =            8  plain     mixing
     Exchange-correlation= BEEF-VDW
                           (   1   4  43  14   2   0   0)

     celldm(1)=   1.889726  celldm(2)=   0.000000  celldm(3)=   0.000000
     celldm(4)=   0.000000  celldm(5)=   0.000000  celldm(6)=   0.000000

     crystal axes: (cart. coord. in units of alat)
               a(1) = (   6.579727   0.000000   0.000000 )
               a(2) = (  -0.001163   8.942395   0.000000 )
               a(3) = (   0.000000   0.000000  25.155947 )

     reciprocal axes: (cart. coord. in units 2 pi/alat)
               b(1) = (  0.151982  0.000020  0.000000 )
               b(2) = (  0.000000  0.111827  0.000000 )
               b(3) = (  0.000000  0.000000  0.039752 )

     PseudoPot. # 1 for O  read from file:
     /storage/coda1/p-amedford6/0/shared/rich_project_chbe-medford/medford-share/data/pseudos_module/espresso/nninc/pbe/van/O.UPF
     MD5 check sum: 78c19812648e8988a0fe644b0f25305e
     Pseudo is Ultrasoft, Zval =  6.0
     Generated by new atomic code, or converted to UPF format
     Using radial grid of  737 points,  4 beta functions with:
                l(1) =   0
                l(2) =   0
                l(3) =   1
                l(4) =   1
     Q(r) pseudized with  8 coefficients,  rinner =    0.800   0.800   0.800

     PseudoPot. # 2 for Ti read from file:
     /storage/coda1/p-amedford6/0/shared/rich_project_chbe-medford/medford-share/data/pseudos_module/espresso/nninc/pbe/van/Ti.UPF
     MD5 check sum: 8e4df49b7f0d34bbd5052bf3f5ea0213
     Pseudo is Ultrasoft, Zval = 12.0
     Generated by new atomic code, or converted to UPF format
     Using radial grid of  851 points,  6 beta functions with:
                l(1) =   0
                l(2) =   0
                l(3) =   1
                l(4) =   1
                l(5) =   2
                l(6) =   2
     Q(r) pseudized with  8 coefficients,  rinner =    1.000   1.000   1.000
                                                       1.000   1.000

     PseudoPot. # 3 for N  read from file:
     /storage/coda1/p-amedford6/0/shared/rich_project_chbe-medford/medford-share/data/pseudos_module/espresso/nninc/pbe/van/N.UPF
     MD5 check sum: 90d10febe142ad51ac9d5be1deb811c4
     Pseudo is Ultrasoft, Zval =  5.0
     Generated by new atomic code, or converted to UPF format
     Using radial grid of  729 points,  4 beta functions with:
                l(1) =   0
                l(2) =   0
                l(3) =   1
                l(4) =   1
     Q(r) pseudized with  8 coefficients,  rinner =    0.800   0.800   0.800

     PseudoPot. # 4 for H  read from file:
     /storage/coda1/p-amedford6/0/shared/rich_project_chbe-medford/medford-share/data/pseudos_module/espresso/nninc/pbe/van/H.UPF
     MD5 check sum: b5ee9d7bfd3a09ee7748110bda690ff7
     Pseudo is Ultrasoft, Zval =  1.0
     Generated by new atomic code, or converted to UPF format
     Using radial grid of  615 points,  1 beta functions with:
                l(1) =   0
     Q(r) pseudized with  8 coefficients,  rinner =    0.800

     atomic species   valence    mass     pseudopotential
        O1             6.00    15.99900     O ( 1.00)
        Ti1           12.00    47.86700     Ti( 1.00)
        N1             5.00    14.00700     N ( 1.00)
        H1             1.00     1.00800     H ( 1.00)

     No symmetry found

   Cartesian axes

     site n.     atom                  positions (alat units)
         1           O1  tau(   1) = (   0.0007354   0.0005023  10.5931620  )
         2           O1  tau(   2) = (   3.2892737   8.9266665  13.9077113  )
         3           O1  tau(   3) = (   0.0003737   0.0634608  17.2091987  )
         4           O1  tau(   4) = (   0.0006271   0.0005054   7.9858123  )
         5           O1  tau(   5) = (   3.2894549   8.9236348  11.1922400  )
         6           O1  tau(   6) = (   0.0007594   0.0424130  14.5914122  )
         7           O1  tau(   7) = (   1.9868534   1.4903216   9.2879459  )
         8           O1  tau(   8) = (   5.2335215   1.6100056  12.5826540  )
         9           O1  tau(   9) = (   2.0120305   1.5790738  16.0735584  )
        10           Ti1 tau(  10) = (   0.0007404   1.4906270   9.2895810  )
        11           Ti1 tau(  11) = (   3.2904007   1.3515224  12.5049090  )
        12           Ti1 tau(  12) = (   0.0008134   1.3014534  15.8121839  )
        13           O1  tau(  13) = (   4.5942328   1.4918067   9.2879030  )
        14           O1  tau(  14) = (   1.3469525   1.6100319  12.5826758  )
        15           O1  tau(  15) = (   4.5681566   1.5786403  16.0735304  )
        16           Ti1 tau(  16) = (   3.2902859   2.9801868   9.2893338  )
        17           Ti1 tau(  17) = (   0.0004417   2.8262804  12.4730395  )
        18           Ti1 tau(  18) = (   3.2905157   2.9388596  15.7158142  )
        19           O1  tau(  19) = (   0.0003479   2.9813005  10.5931620  )
        20           O1  tau(  20) = (   3.2902015   2.9695883  13.9046685  )
        21           O1  tau(  21) = (   0.0002396   2.9813036   7.9858123  )
        22           O1  tau(  22) = (   3.2902718   2.9641339  11.1914307  )
        23           O1  tau(  23) = (  -0.0000899   3.0294973  14.7210216  )
        24           O1  tau(  24) = (   1.9864658   4.4711199   9.2879459  )
        25           O1  tau(  25) = (   5.2357187   4.5858611  12.5822034  )
        26           O1  tau(  26) = (   2.0270018   4.4833747  16.1008177  )
        27           Ti1 tau(  27) = (   0.0003529   4.4714252   9.2895810  )
        28           Ti1 tau(  28) = (   3.2904530   4.3245040  12.5108242  )
        29           Ti1 tau(  29) = (   0.0003810   4.5948835  15.7280669  )
        30           O1  tau(  30) = (   4.5938453   4.4726049   9.2879030  )
        31           O1  tau(  31) = (   1.3445752   4.5857260  12.5820564  )
        32           O1  tau(  32) = (   4.5522270   4.4834529  16.1006533  )
        33           Ti1 tau(  33) = (   3.2898983   5.9609850   9.2893338  )
        34           Ti1 tau(  34) = (   0.0007043   5.8101956  12.4536477  )
        35           Ti1 tau(  35) = (   3.2895928   5.9233606  15.7233983  )
        36           O1  tau(  36) = (  -0.0000397   5.9620987  10.5931620  )
        37           O1  tau(  37) = (   3.2897410   5.9500339  13.9181164  )
        38           O1  tau(  38) = (  -0.0004871   5.9201338  17.2318970  )
        39           O1  tau(  39) = (  -0.0001480   5.9621018   7.9858123  )
        40           O1  tau(  40) = (   3.2899950   5.9414595  11.1912600  )
        41           O1  tau(  41) = (   0.0000049   5.9985156  14.6402937  )
        42           O1  tau(  42) = (   1.9860782   7.4519181   9.2879459  )
        43           O1  tau(  43) = (   5.2353497   7.5549275  12.5688660  )
        44           O1  tau(  44) = (   2.0314850   7.4951575  16.0543809  )
        45           Ti1 tau(  45) = (  -0.0000347   7.4522234   9.2895810  )
        46           Ti1 tau(  46) = (   3.2900928   7.3055020  12.5043323  )
        47           Ti1 tau(  47) = (  -0.0004111   7.4010535  16.2820301  )
        48           O1  tau(  48) = (   4.5934577   7.4534031   9.2879030  )
        49           O1  tau(  49) = (   1.3438456   7.5546912  12.5687420  )
        50           O1  tau(  50) = (   4.5473438   7.4951267  16.0540408  )
        51           Ti1 tau(  51) = (   3.2895107   8.9417832   9.2893338  )
        52           Ti1 tau(  52) = (   0.0000527   8.7739242  12.4740011  )
        53           Ti1 tau(  53) = (   3.2894619   8.8771818  15.7086625  )
        54           N1  tau(  54) = (   6.5792827   2.9751808  17.9254469  )
        55           H1  tau(  55) = (   6.5791554   2.0483488  18.3259764  )
        56           H1  tau(  56) = (   5.7637502   3.4703839  18.2861980  )
        57           H1  tau(  57) = (   0.8147632   3.4704782  18.2867735  )

     number of k points=    10  Fermi-Dirac smearing, width (Ry)=  0.0073
                       cart. coord. in units 2pi/alat
        k(    1) = (   0.0000000   0.0000000   0.0000000), wk =   0.1250000
        k(    2) = (   0.0000000   0.0279567   0.0000000), wk =   0.2500000
        k(    3) = (   0.0000000  -0.0559134   0.0000000), wk =   0.1250000
        k(    4) = (   0.0379955   0.0000049   0.0000000), wk =   0.2500000
        k(    5) = (   0.0379955   0.0279617   0.0000000), wk =   0.2500000
        k(    6) = (   0.0379955  -0.0559085   0.0000000), wk =   0.2500000
        k(    7) = (   0.0379955  -0.0279518   0.0000000), wk =   0.2500000
        k(    8) = (  -0.0759910  -0.0000099   0.0000000), wk =   0.1250000
        k(    9) = (  -0.0759910   0.0279468   0.0000000), wk =   0.2500000
        k(   10) = (  -0.0759910  -0.0559233   0.0000000), wk =   0.1250000

     Initial potential from superposition of free atoms

     starting charge  415.99912, renormalised to  434.00000

     negative rho (up, down):  3.932E-02 0.000E+00

     %%%%%%%%%%%%%%%%%%%%%%%%%%%%%%%%%%%%%%%%%%%%%%%%%%%%%%%%%%%%%%%%%%%%%%%%
     %                                                                      %
     % You are using vdW-DF, which was implemented by the Thonhauser group. %
     % Please cite the following two papers that made this development      %
     % possible and the two reviews that describe the various versions:     %
     %                                                                      %
     %   T. Thonhauser et al., PRL 115, 136402 (2015).                      %
     %   T. Thonhauser et al., PRB 76, 125112 (2007).                       %
     %   K. Berland et al., Rep. Prog. Phys. 78, 066501 (2015).             %
     %   D.C. Langreth et al., J. Phys.: Condens. Matter 21, 084203 (2009). %
     %                                                                      %
     %                                                                      %
     % If you are calculating the stress with vdW-DF, please also cite:     %
     %                                                                      %
     %   R. Sabatini et al., J. Phys.: Condens. Matter 24, 424209 (2012).   %
     %                                                                      %
     %%%%%%%%%%%%%%%%%%%%%%%%%%%%%%%%%%%%%%%%%%%%%%%%%%%%%%%%%%%%%%%%%%%%%%%%

     Adding external electric field

     Computed dipole along edir(3) :
        Dipole               -2.8168 Ry au,         -7.1597 Debye
        Dipole field         -0.0035 Ry au,

        Potential amp.        0.3285 Ry
        Total length         46.3494 bohr

     Starting wfcs are  327 atomic wfcs
  @ DRIVER MODE: Message from server: STATUS
  @ DRIVER MODE: Message from server: POSDATA
  @ DRIVER MODE: Reading and sharing cell
  @ DRIVER MODE: Reading and sharing positions
  @ DRIVER MODE: Received positions

     Self-consistent Calculation

     iteration #  1     ecut=    29.40 Ry     beta= 0.05
     Davidson diagonalization with overlap
     c_bands:  2 eigenvalues not converged
     c_bands:  2 eigenvalues not converged
     c_bands:  2 eigenvalues not converged
     c_bands:  2 eigenvalues not converged
     c_bands:  5 eigenvalues not converged
     c_bands:  2 eigenvalues not converged
     c_bands:  1 eigenvalues not converged
     c_bands:  1 eigenvalues not converged
     c_bands:  2 eigenvalues not converged
     ethr =  1.00E-05,  avg # of iterations = 19.9

[...]

     total energy              =   -3273.63601158 Ry
     estimated scf accuracy    <      14.14410794 Ry

     iteration #  2     ecut=    29.40 Ry     beta= 0.05
     Davidson diagonalization with overlap
     ethr =  3.26E-03,  avg # of iterations =  1.0

[...]

     iteration # 39     ecut=    29.40 Ry     beta= 0.05
     Davidson diagonalization with overlap
     c_bands:  2 eigenvalues not converged
     ethr =  4.44E-06,  avg # of iterations = 15.4

[...]

     total energy              =   -3272.09258449 Ry
     estimated scf accuracy    <       0.00000015 Ry

     iteration # 62     ecut=    29.40 Ry     beta= 0.05
     Davidson diagonalization with overlap
     ethr =  3.46E-11,  avg # of iterations =  6.2

     negative rho (up, down):  3.696E-02 0.000E+00

     Adding external electric field

     Computed dipole along edir(3) :
        Dipole                1.2558 Ry au,          3.1920 Debye
        Dipole field          0.0016 Ry au,

        Potential amp.       -0.1465 Ry
        Total length         46.3494 bohr

     End of self-consistent calculation

          k = 0.0000 0.0000 0.0000 ( 26871 PWs)   bands (ev):

   -58.0027 -58.0001 -57.9779 -57.9773 -57.9768 -57.8737 -57.8242 -57.7996
   -57.7982 -57.7763 -57.7559 -57.7335 -57.6281 -57.5597 -57.4327 -57.0013
   -56.9781 -56.9704 -34.4042 -34.3819 -34.3814 -34.3711 -34.3677 -34.3361
   -34.3181 -34.3151 -34.3026 -34.2710 -34.2443 -34.2304 -34.2191 -34.1954
   -34.1949 -34.1851 -34.1698 -34.1589 -34.1267 -34.1229 -34.0993 -34.0989
   -34.0936 -34.0886 -34.0786 -34.0479 -34.0328 -34.0290 -34.0237 -34.0036
   -34.0005 -33.9926 -33.9815 -33.9797 -33.9763 -33.9705 -33.9474 -33.9401
   -33.9198 -33.8641 -33.8350 -33.7717 -33.7105 -33.7077 -33.6127 -33.3178
   -33.3164 -33.3081 -33.3025 -33.2955 -33.2262 -33.1653 -33.1567 -33.0254
   -18.8520 -18.4288 -18.2690 -18.2498 -18.2288 -18.2028 -18.0944 -18.0887
   -17.8494 -17.8183 -17.7893 -17.7820 -17.7193 -17.6816 -17.6733 -17.6619
   -17.6339 -17.6291 -17.6204 -17.5733 -17.5278 -17.4843 -17.4599 -17.4392
   -17.4230 -17.4211 -17.3933 -17.3332 -17.3136 -17.2569 -17.1160 -16.9527
   -16.8511 -15.4672 -15.4113 -15.4071  -7.6305  -7.3849  -6.1791  -5.9201
    -5.9077  -5.8292  -5.4567  -5.4460  -5.3560  -5.3503  -5.3347  -5.2659
    -5.2540  -5.2445  -5.2255  -5.1958  -5.1344  -5.1144  -5.0824  -4.9483
    -4.9463  -4.9190  -4.9016  -4.8446  -4.8067  -4.8011  -4.7780  -4.7574
    -4.7276  -4.6737  -4.6588  -4.6218  -4.6145  -4.5058  -4.4414  -4.3121
    -4.2953  -4.2908  -4.2718  -4.2248  -4.1864  -4.1595  -4.1317  -4.0795
    -4.0473  -3.9895  -3.9562  -3.9141  -3.8129  -3.7466  -3.7228  -3.6626
    -3.5670  -3.5297  -3.4202  -3.3983  -3.3318  -3.3156  -3.2524  -3.2381
    -3.1675  -3.1549  -3.1135  -3.0929  -3.0355  -2.9846  -2.9674  -2.9316
    -2.8862  -2.7693  -2.7584  -2.7501  -2.7282  -2.6935  -2.6693  -2.6387
    -2.6286  -2.5889  -2.5351  -2.4868  -2.4607  -2.4185  -2.4097  -2.3582
    -2.3089  -2.2995  -2.2257  -2.2048  -2.1823  -2.1583  -2.0697  -2.0155
    -1.8564  -1.8268  -1.8214  -1.7855  -1.7408  -1.6907  -1.6433  -1.4728
    -1.2335  -1.0313  -0.7444  -0.7039  -0.7025  -0.4449  -0.4391  -0.3126
     0.9722   1.2302   1.2634   1.4463   1.4508   1.5400   1.5887   1.5888
     1.6546   1.6854   1.7417

[...]

          k = 0.0380-0.0280 0.0000 ( 26873 PWs)   bands (ev):

[...]

          k =-0.0760-0.0000 0.0000 ( 26902 PWs)   bands (ev):

[...]

          k =-0.0760-0.0559 0.0000 ( 26868 PWs)   bands (ev):

   -57.9991 -57.9943 -57.9938 -57.9790 -57.9685 -57.8735 -57.8166 -57.8145
   -57.7906 -57.7731 -57.7613 -57.7315 -57.6280 -57.5599 -57.4326 -56.9955
   -56.9890 -56.9652 -34.4751 -34.4456 -34.3869 -34.3786 -34.3344 -34.3332
   -34.3288 -34.3281 -34.2791 -34.2418 -34.2063 -34.1908 -34.1904 -34.1741
   -34.1660 -34.1435 -34.1433 -34.1358 -34.1323 -34.1246 -34.1190 -34.0858
   -34.0756 -34.0709 -34.0679 -34.0619 -34.0554 -34.0392 -34.0311 -34.0267
   -34.0208 -34.0125 -34.0121 -33.9944 -33.9893 -33.9753 -33.9623 -33.9471
   -33.9172 -33.8395 -33.8198 -33.7757 -33.7114 -33.7090 -33.6427 -33.4040
   -33.3186 -33.3128 -33.2900 -33.2087 -33.2006 -33.1394 -33.1260 -33.1184
   -18.5336 -18.5178 -18.2094 -18.1241 -18.1083 -18.0837 -18.0706 -18.0210
   -17.9398 -17.8816 -17.8773 -17.8190 -17.7804 -17.7700 -17.7336 -17.7269
   -17.7105 -17.6995 -17.6681 -17.6393 -17.6375 -17.5382 -17.4540 -17.4214
   -17.4072 -17.3718 -17.3595 -17.3518 -17.2964 -17.2361 -17.1499 -17.0633
   -16.7453 -15.4672 -15.4621 -15.3468  -7.6386  -7.4001  -5.7892  -5.7791
    -5.7687  -5.7031  -5.3810  -5.3034  -5.2714  -5.2568  -5.1726  -5.1661
    -5.1642  -5.1508  -5.1473  -5.1242  -5.0956  -5.0828  -5.0294  -5.0206
    -5.0173  -4.9544  -4.9142  -4.9052  -4.8862  -4.8604  -4.7458  -4.7383
    -4.6346  -4.6054  -4.5455  -4.5115  -4.4992  -4.4689  -4.3921  -4.3877
    -4.3522  -4.3173  -4.1617  -4.1527  -4.1386  -4.1318  -4.0601  -4.0006
    -3.9747  -3.9424  -3.7101  -3.6516  -3.6414  -3.6314  -3.6179  -3.6105
    -3.5913  -3.5541  -3.5209  -3.4845  -3.4619  -3.4412  -3.4388  -3.3454
    -3.3061  -3.2656  -3.1641  -3.1437  -3.1338  -3.1050  -3.1006  -3.0756
    -3.0700  -3.0509  -3.0332  -2.9542  -2.9196  -2.9011  -2.8497  -2.7815
    -2.7644  -2.7616  -2.5895  -2.5368  -2.5272  -2.5076  -2.4723  -2.3805
    -2.3783  -2.2423  -2.2154  -2.1716  -2.1000  -2.0704  -2.0217  -2.0025
    -1.9896  -1.9690  -1.7776  -1.7602  -1.6863  -1.6271  -1.5759  -1.5549
    -1.5451  -1.3290  -0.9171  -0.6347  -0.6161  -0.5970  -0.4453  -0.4426
     1.1474   1.2042   1.2185   1.3209   1.3246   1.3372   1.3933   1.4534
     1.4838   1.5635   1.7071

     the Fermi energy is     1.0776 ev

!    total energy              =   -3272.09261687 Ry
     estimated scf accuracy    <       0.00000007 Ry
     smearing contrib. (-TS)   =      -0.03207545 Ry
     internal energy E=F+TS    =   -3272.06054142 Ry

     The total energy is F=E-TS. E is the sum of the following terms:
     one-electron contribution =  -34296.39029636 Ry
     hartree contribution      =   17208.18276124 Ry
     xc contribution           =    -536.11495289 Ry
     ewald contribution        =   14352.25996244 Ry
     electric field correction =       0.00198414 Ry

     convergence has been achieved in  62 iterations

     Forces acting on atoms (cartesian axes, Ry/au):

     atom    1 type  1   force =     0.00003276    0.00588937    0.05804692
     atom    2 type  1   force =    -0.00001579    0.00193921   -0.00323126
     atom    3 type  1   force =     0.00000814   -0.00367887   -0.00046074
     atom    4 type  1   force =     0.00005287   -0.00049637    0.10642199
     atom    5 type  1   force =    -0.00002217   -0.00000066    0.00971323
     atom    6 type  1   force =     0.00000804   -0.00120433    0.00065632
     atom    7 type  1   force =     0.06849544   -0.00032634   -0.02941307
     atom    8 type  1   force =     0.00472815   -0.02817995    0.00237846
     atom    9 type  1   force =     0.01018753   -0.02084187    0.00032357
     atom   10 type  2   force =    -0.00006457   -0.00346857   -0.18017609
     atom   11 type  2   force =     0.00008009    0.01995317   -0.00723944
     atom   12 type  2   force =    -0.00003050    0.02123390   -0.00286804
     atom   13 type  1   force =    -0.06859165   -0.00077837   -0.02938915
     atom   14 type  1   force =    -0.00464721   -0.02828905    0.00238733
     atom   15 type  1   force =    -0.01015319   -0.02082193    0.00034738
     atom   16 type  2   force =     0.00013198   -0.00169127    0.06499816
     atom   17 type  2   force =    -0.00015869    0.03517051    0.00379386
     atom   18 type  2   force =    -0.00002827    0.00973957   -0.00291727
     atom   19 type  1   force =     0.00001369    0.00479662    0.06365723
     atom   20 type  1   force =    -0.00000987    0.00175315   -0.00598283
     atom   21 type  1   force =     0.00005484    0.00136507    0.10699493
     atom   22 type  1   force =    -0.00001765   -0.00017600    0.00917463
     atom   23 type  1   force =     0.00001697   -0.00438898    0.00171643
     atom   24 type  1   force =     0.06777166   -0.00033993   -0.02933133
     atom   25 type  1   force =     0.00462330   -0.02912651    0.00294941
     atom   26 type  1   force =     0.00795485    0.00324267   -0.00403993
     atom   27 type  2   force =    -0.00008349   -0.00410050   -0.18530711
     atom   28 type  2   force =     0.00008925    0.02021966   -0.00748849
     atom   29 type  2   force =    -0.00004341    0.00003342    0.01290440
     atom   30 type  1   force =    -0.06786283   -0.00079751   -0.02930941
     atom   31 type  1   force =    -0.00456133   -0.02920827    0.00296942
     atom   32 type  1   force =    -0.00789841    0.00323192   -0.00398906
     atom   33 type  2   force =     0.00011169   -0.00147388    0.06546853
     atom   34 type  2   force =    -0.00015374    0.03610113    0.00374400
     atom   35 type  2   force =    -0.00000522   -0.00235551    0.00353901
     atom   36 type  1   force =     0.00003880    0.00367764    0.05589097
     atom   37 type  1   force =    -0.00001839   -0.00001088   -0.00175047
     atom   38 type  1   force =    -0.00000030   -0.00366730   -0.00035399
     atom   39 type  1   force =     0.00005380   -0.00022728    0.10723022
     atom   40 type  1   force =    -0.00002258    0.00004886    0.00943313
     atom   41 type  1   force =     0.00001131    0.00201186    0.00088915
     atom   42 type  1   force =     0.06799238   -0.00084772   -0.02927066
     atom   43 type  1   force =     0.00402029   -0.02909608    0.00271853
     atom   44 type  1   force =     0.01151314   -0.01071628    0.00418172
     atom   45 type  2   force =    -0.00009880    0.00396619   -0.18332744
     atom   46 type  2   force =     0.00007305    0.02028694   -0.00793522
     atom   47 type  2   force =     0.00000749    0.01036437   -0.01346446
     atom   48 type  1   force =    -0.06809031   -0.00129393   -0.02925202
     atom   49 type  1   force =    -0.00392400   -0.02918767    0.00272370
     atom   50 type  1   force =    -0.01150938   -0.01071861    0.00419009
     atom   51 type  2   force =     0.00011198   -0.00123703    0.06591404
     atom   52 type  2   force =    -0.00014969    0.03607795    0.00363791
     atom   53 type  2   force =    -0.00000104    0.02511701    0.00685736
     atom   54 type  3   force =    -0.00001784    0.02452704   -0.00037093
     atom   55 type  4   force =    -0.00000332   -0.01299289    0.00654179
     atom   56 type  4   force =     0.00459922   -0.00450190   -0.00276928
     atom   57 type  4   force =    -0.00459904   -0.00450502   -0.00275614

     Total force =     0.454362     Total SCF correction =     0.000748
  @ DRIVER MODE: Message from server: STATUS
  @ DRIVER MODE: Message from server: GETFORCE
  @ DRIVER MODE: Returning v,forces,stress,ensemble

     Writing output data file ./calc.save/
  @ DRIVER MODE: Message from server: EXIT
  @ DRIVE MODE: Exiting

     General routines

     Parallel routines

   This run was terminated on:  13:33:23  18Oct2021

   JOB DONE.