     Program PWSCF v.6.7GPU starts on 14Sep2021 at 15: 3: 5

     R & G space division:  proc/nbgrp/npool/nimage =      10
     Reading input from /storage/home/hcoda1/3/ntian30/research/carbon/CxH_vib/CH2_calc/ads_slab/CH2ON2_b/out_0004/pw.inp
Warning: card &CELL ignored
Warning: card   CELL_DYNAMICS='IPI', ignored
Warning: card / ignored

     Current dimensions of program PWSCF are:
     Max number of different atomic species (ntypx) = 10
     Max number of k-points (npk) =  40000
     Max angular momentum in pseudopotentials (lmaxx) =  3
     Presently no symmetry can be used with electric field

     Message from routine cell_base_init:
     DEPRECATED: use true lattice parameter, not A to a.u. conversion factor

     IMPORTANT: XC functional enforced from input :
     Exchange-correlation= BEEF-VDW
                           (   1   4  43  14   2   0   0)
     Any further DFT definition will be discarded
     Please, verify this is what you really want

  @ DRIVER MODE: Connecting to
 qe_1139763_2840441.sched-torque.pace.gatech.edu64dwsqln_scratch
  using UNIX socket
  @ DRIVER MODE: Message from server: STATUS
  @ DRIVER MODE: Message from server: INIT
  @ DRIVER MODE: Receiving replica           0          -1
  @ DRIVER MODE: Receiving encoded integer          25
  @ DRIVER MODE:  SCF:  T  FORCE:  T  STRESS:  F  VC:  F  ENSEMBLE:  F
  @ DRIVER MODE:  SCF:  T  FORCE:  T  STRESS:  F  VC:  F  ENSEMBLE:  F

     Using Slab Decomposition

     bravais-lattice index     =            0
     lattice parameter (alat)  =       1.8897  a.u.
     unit-cell volume          =    6658.9804 (a.u.)^3
     number of atoms/cell      =           53
     number of atomic types    =            5
     number of electrons       =       400.00
     number of Kohn-Sham states=          210
     kinetic-energy cutoff     =      29.3995  Ry
     charge density cutoff     =     293.9946  Ry
     scf convergence threshold =      7.3E-08
     mixing beta               =       0.0500
     number of iterations used =            8  plain     mixing
     Exchange-correlation= BEEF-VDW
                           (   1   4  43  14   2   0   0)

     celldm(1)=   1.889726  celldm(2)=   0.000000  celldm(3)=   0.000000
     celldm(4)=   0.000000  celldm(5)=   0.000000  celldm(6)=   0.000000

     crystal axes: (cart. coord. in units of alat)
               a(1) = (   6.579727   0.000000   0.000000 )
               a(2) = (  -0.000775   5.961596   0.000000 )
               a(3) = (   0.000000   0.000000  25.155947 )

     reciprocal axes: (cart. coord. in units 2 pi/alat)
               b(1) = (  0.151982  0.000020  0.000000 )
               b(2) = (  0.000000  0.167740  0.000000 )
               b(3) = (  0.000000  0.000000  0.039752 )

     PseudoPot. # 1 for C  read from file:
     /storage/coda1/p-amedford6/0/shared/rich_project_chbe-medford/medford-share/data/pseudos_module/espresso/nninc/pbe/van/C.UPF
     MD5 check sum: 1a69bf6b8db32088f5b2163dbdb77a27
     Pseudo is Ultrasoft, Zval =  4.0
     Generated by new atomic code, or converted to UPF format
     Using radial grid of  721 points,  4 beta functions with:
                l(1) =   0
                l(2) =   0
                l(3) =   1
                l(4) =   1
     Q(r) pseudized with  8 coefficients,  rinner =    0.800   0.800   0.800

     PseudoPot. # 2 for H  read from file:
     /storage/coda1/p-amedford6/0/shared/rich_project_chbe-medford/medford-share/data/pseudos_module/espresso/nninc/pbe/van/H.UPF
     MD5 check sum: b5ee9d7bfd3a09ee7748110bda690ff7
     Pseudo is Ultrasoft, Zval =  1.0
     Generated by new atomic code, or converted to UPF format
     Using radial grid of  615 points,  1 beta functions with:
                l(1) =   0
     Q(r) pseudized with  8 coefficients,  rinner =    0.800

     PseudoPot. # 3 for O  read from file:
     /storage/coda1/p-amedford6/0/shared/rich_project_chbe-medford/medford-share/data/pseudos_module/espresso/nninc/pbe/van/O.UPF
     MD5 check sum: 78c19812648e8988a0fe644b0f25305e
     Pseudo is Ultrasoft, Zval =  6.0
     Generated by new atomic code, or converted to UPF format
     Using radial grid of  737 points,  4 beta functions with:
                l(1) =   0
                l(2) =   0
                l(3) =   1
                l(4) =   1
     Q(r) pseudized with  8 coefficients,  rinner =    0.800   0.800   0.800

     PseudoPot. # 4 for Ti read from file:
     /storage/coda1/p-amedford6/0/shared/rich_project_chbe-medford/medford-share/data/pseudos_module/espresso/nninc/pbe/van/Ti.UPF
     MD5 check sum: 8e4df49b7f0d34bbd5052bf3f5ea0213
     Pseudo is Ultrasoft, Zval = 12.0
     Generated by new atomic code, or converted to UPF format
     Using radial grid of  851 points,  6 beta functions with:
                l(1) =   0
                l(2) =   0
                l(3) =   1
                l(4) =   1
                l(5) =   2
                l(6) =   2
     Q(r) pseudized with  8 coefficients,  rinner =    1.000   1.000   1.000
                                                       1.000   1.000

     PseudoPot. # 5 for N  read from file:
     /storage/coda1/p-amedford6/0/shared/rich_project_chbe-medford/medford-share/data/pseudos_module/espresso/nninc/pbe/van/N.UPF
     MD5 check sum: 90d10febe142ad51ac9d5be1deb811c4
     Pseudo is Ultrasoft, Zval =  5.0
     Generated by new atomic code, or converted to UPF format
     Using radial grid of  729 points,  4 beta functions with:
                l(1) =   0
                l(2) =   0
                l(3) =   1
                l(4) =   1
     Q(r) pseudized with  8 coefficients,  rinner =    0.800   0.800   0.800

     atomic species   valence    mass     pseudopotential
        C1             4.00    12.01100     C ( 1.00)
        H1             1.00     1.00800     H ( 1.00)
        O1             6.00    15.99900     O ( 1.00)
        Ti1           12.00    47.86700     Ti( 1.00)
        N1             5.00    14.00700     N ( 1.00)

     No symmetry found

   Cartesian axes

     site n.     atom                  positions (alat units)
         1           C1  tau(   1) = (   6.4247902   2.9910588  18.6917704  )
         2           H1  tau(   2) = (   6.3980358   3.9338040  19.2291268  )
         3           H1  tau(   3) = (   6.3671137   2.0386567  19.2103458  )
         4           O1  tau(   4) = (   3.2904802   0.0005063   4.7018136  )
         5           O1  tau(   5) = (   3.2900926   2.9813045   4.7018136  )
         6           O1  tau(   6) = (   1.3043587   1.4918075   6.0039043  )
         7           O1  tau(   7) = (   1.3039711   4.4726057   6.0039043  )
         8           O1  tau(   8) = (   5.2767064   1.4903225   6.0039473  )
         9           O1  tau(   9) = (   5.2763189   4.4711207   6.0039473  )
        10           O1  tau(  10) = (   3.2906025   0.0005020   7.3038282  )
        11           O1  tau(  11) = (   3.2902150   2.9813002   7.3038282  )
        12           O1  tau(  12) = (   0.0006271   0.0005054   7.9858123  )
        13           O1  tau(  13) = (   0.0002396   2.9813036   7.9858123  )
        14           O1  tau(  14) = (   4.5942328   1.4918067   9.2879030  )
        15           O1  tau(  15) = (   4.5938453   4.4726049   9.2879030  )
        16           O1  tau(  16) = (   1.9868534   1.4903216   9.2879459  )
        17           O1  tau(  17) = (   1.9864658   4.4711199   9.2879459  )
        18           O1  tau(  18) = (   0.0058113   2.9878523  10.5832334  )
        19           O1  tau(  19) = (   0.0062988   0.0093020  10.6005518  )
        20           O1  tau(  20) = (   3.2955317   2.9954032  11.3404818  )
        21           O1  tau(  21) = (   3.2944299   0.0136787  11.3445968  )
        22           O1  tau(  22) = (   5.2904553   1.5027675  12.6317203  )
        23           O1  tau(  23) = (   5.2914467   4.4836083  12.6349631  )
        24           O1  tau(  24) = (   1.2933861   1.5040032  12.6362007  )
        25           O1  tau(  25) = (   1.2922507   4.4849626  12.6395598  )
        26           O1  tau(  26) = (   3.2955364   2.9961609  13.9180299  )
        27           O1  tau(  27) = (   3.2969677   0.0155663  13.9438287  )
        28           O1  tau(  28) = (   0.0016464   0.0229801  14.6780835  )
        29           O1  tau(  29) = (   0.0078505   2.9966620  14.7218711  )
        30           O1  tau(  30) = (   4.5417949   4.4807699  16.1031406  )
        31           O1  tau(  31) = (   4.5422182   1.5234006  16.1020929  )
        32           O1  tau(  32) = (   2.0382733   4.4802786  16.1011463  )
        33           O1  tau(  33) = (   2.0385641   1.5240134  16.0993588  )
        34           O1  tau(  34) = (   6.5794991   0.0244991  17.1995468  )
        35           O1  tau(  35) = (   6.5588415   3.0026814  17.4289308  )
        36           Ti1 tau(  36) = (   0.0004258   2.9801865   6.0000000  )
        37           Ti1 tau(  37) = (   0.0000382   5.9609847   6.0000000  )
        38           Ti1 tau(  38) = (   3.2906075   1.4906267   6.0002472  )
        39           Ti1 tau(  39) = (   3.2902200   4.4714249   6.0002472  )
        40           Ti1 tau(  40) = (   3.2947477   0.0499856   9.1537742  )
        41           Ti1 tau(  41) = (   3.3215383   3.0289251   9.1580241  )
        42           Ti1 tau(  42) = (   0.0276872   4.5181110   9.2597866  )
        43           Ti1 tau(  43) = (   0.0223396   1.5961087   9.3523429  )
        44           Ti1 tau(  44) = (   3.3278215   4.4891914  12.4850086  )
        45           Ti1 tau(  45) = (   3.3277968   1.5111787  12.4828596  )
        46           Ti1 tau(  46) = (   0.0250534   0.0277200  12.4935153  )
        47           Ti1 tau(  47) = (   0.0290128   3.0118426  12.7617797  )
        48           Ti1 tau(  48) = (   3.2948489   3.0133751  15.7103116  )
        49           Ti1 tau(  49) = (   3.2995243   0.0226186  15.7353524  )
        50           Ti1 tau(  50) = (   0.0095488   1.4190105  15.9501391  )
        51           Ti1 tau(  51) = (   0.0117608   4.6113996  15.9785021  )
        52           N1  tau(  52) = (   3.7826193   3.0501191  20.3090129  )
        53           N1  tau(  53) = (   2.7364546   2.9530354  19.9655958  )

     number of k points=    10  Fermi-Dirac smearing, width (Ry)=  0.0073
                       cart. coord. in units 2pi/alat
        k(    1) = (   0.0000000   0.0000000   0.0000000), wk =   0.1250000
        k(    2) = (   0.0000000   0.0419351   0.0000000), wk =   0.2500000
        k(    3) = (   0.0000000  -0.0838702   0.0000000), wk =   0.1250000
        k(    4) = (   0.0379955   0.0000049   0.0000000), wk =   0.2500000
        k(    5) = (   0.0379955   0.0419400   0.0000000), wk =   0.2500000
        k(    6) = (   0.0379955  -0.0838652   0.0000000), wk =   0.2500000
        k(    7) = (   0.0379955  -0.0419301   0.0000000), wk =   0.2500000
        k(    8) = (  -0.0759910  -0.0000099   0.0000000), wk =   0.1250000
        k(    9) = (  -0.0759910   0.0419252   0.0000000), wk =   0.2500000
        k(   10) = (  -0.0759910  -0.0838800   0.0000000), wk =   0.1250000

     Initial potential from superposition of free atoms

     starting charge  383.99917, renormalised to  400.00000

     negative rho (up, down):  1.498E-02 0.000E+00

     %%%%%%%%%%%%%%%%%%%%%%%%%%%%%%%%%%%%%%%%%%%%%%%%%%%%%%%%%%%%%%%%%%%%%%%%
     %                                                                      %
     % You are using vdW-DF, which was implemented by the Thonhauser group. %
     % Please cite the following two papers that made this development      %
     % possible and the two reviews that describe the various versions:     %
     %                                                                      %
     %   T. Thonhauser et al., PRL 115, 136402 (2015).                      %
     %   T. Thonhauser et al., PRB 76, 125112 (2007).                       %
     %   K. Berland et al., Rep. Prog. Phys. 78, 066501 (2015).             %
     %   D.C. Langreth et al., J. Phys.: Condens. Matter 21, 084203 (2009). %
     %                                                                      %
     %                                                                      %
     % If you are calculating the stress with vdW-DF, please also cite:     %
     %                                                                      %
     %   R. Sabatini et al., J. Phys.: Condens. Matter 24, 424209 (2012).   %
     %                                                                      %
     %%%%%%%%%%%%%%%%%%%%%%%%%%%%%%%%%%%%%%%%%%%%%%%%%%%%%%%%%%%%%%%%%%%%%%%%

     Adding external electric field

     Computed dipole along edir(3) :
        Dipole              -12.3567 Ry au,        -31.4077 Debye
        Dipole field         -0.0233 Ry au,

        Potential amp.        2.1616 Ry
        Total length         46.3494 bohr

     Starting wfcs are  302 atomic wfcs
  @ DRIVER MODE: Message from server: STATUS
  @ DRIVER MODE: Message from server: POSDATA
  @ DRIVER MODE: Reading and sharing cell
  @ DRIVER MODE: Reading and sharing positions
  @ DRIVER MODE: Received positions

     Self-consistent Calculation

     iteration #  1     ecut=    29.40 Ry     beta= 0.05
     Davidson diagonalization with overlap
     c_bands:  2 eigenvalues not converged
     c_bands:  2 eigenvalues not converged
     c_bands:  2 eigenvalues not converged
     c_bands:  2 eigenvalues not converged
     c_bands:  4 eigenvalues not converged
     c_bands:  2 eigenvalues not converged
     c_bands:  5 eigenvalues not converged
     c_bands:  2 eigenvalues not converged
     c_bands:  3 eigenvalues not converged
     ethr =  1.00E-05,  avg # of iterations = 23.3

[...]

     total energy              =   -2430.18477091 Ry
     estimated scf accuracy    <    6093.33752376 Ry

     iteration #  2     ecut=    29.40 Ry     beta= 0.05
     Davidson diagonalization with overlap
     ethr =  1.00E-02,  avg # of iterations = 22.0

[...]

     iteration # 59     ecut=    29.40 Ry     beta= 0.05
     Davidson diagonalization with overlap
     c_bands:  3 eigenvalues not converged
     c_bands:  1 eigenvalues not converged
     ethr =  6.80E-11,  avg # of iterations = 12.8

[...]

     total energy              =   -2970.35115413 Ry
     estimated scf accuracy    <       0.00000023 Ry

     iteration # 62     ecut=    29.40 Ry     beta= 0.05
     Davidson diagonalization with overlap
     ethr =  5.86E-11,  avg # of iterations =  2.0

     negative rho (up, down):  1.509E-02 0.000E+00

     Adding external electric field

     Computed dipole along edir(3) :
        Dipole                0.9964 Ry au,          2.5327 Debye
        Dipole field          0.0019 Ry au,

        Potential amp.       -0.1743 Ry
        Total length         46.3494 bohr

     End of self-consistent calculation

          k = 0.0000 0.0000 0.0000 ( 18029 PWs)   bands (ev):

   -55.5216 -55.5134 -55.4845 -55.4771 -55.4176 -55.4001 -55.3754 -55.3113
   -55.3057 -55.2954 -55.2932 -55.2599 -55.2409 -55.2164 -54.5467 -54.5126
   -32.0845 -31.9945 -31.8954 -31.8852 -31.8319 -31.8266 -31.8198 -31.8000
   -31.7725 -31.7561 -31.7540 -31.7294 -31.7047 -31.6952 -31.6797 -31.6625
   -31.6471 -31.6463 -31.6363 -31.6163 -31.5966 -31.5929 -31.5841 -31.5789
   -31.5739 -31.5475 -31.5466 -31.5251 -31.5195 -31.5184 -31.4965 -31.4744
   -31.4694 -31.4448 -31.4376 -31.4374 -31.4297 -31.4264 -31.4034 -31.3991
   -31.3931 -31.3861 -30.9567 -30.8592 -30.8370 -30.7734 -30.6873 -30.5760
   -21.4040 -19.7408 -16.3055 -16.0049 -15.8634 -15.7328 -15.6763 -15.5649
   -15.4080 -15.3484 -15.2513 -15.2021 -15.1515 -15.1182 -15.1107 -15.0895
   -15.0783 -15.0547 -15.0519 -14.9842 -14.9732 -14.9368 -14.9238 -14.9234
   -14.8261 -14.7748 -14.7110 -14.6519 -14.5981 -14.5447 -14.5196 -13.0474
   -12.9290  -9.1232  -6.6667  -5.3890  -5.3862  -4.5582  -4.5478  -3.6545
    -3.4761  -3.4335  -3.4268  -3.3713  -3.3617  -3.2638  -3.1447  -3.1085
    -2.8237  -2.7346  -2.7010  -2.6881  -2.6796  -2.5500  -2.4894  -2.3721
    -2.3658  -2.3522  -2.3507  -2.3408  -2.2981  -2.2946  -2.2502  -2.2198
    -2.1340  -2.0734  -1.9636  -1.9525  -1.9273  -1.8646  -1.8316  -1.8092
    -1.8069  -1.7614  -1.7593  -1.7537  -1.7113  -1.6234  -1.5189  -1.4778
    -1.3857  -1.3457  -1.2367  -1.1056  -1.0267  -0.9871  -0.9342  -0.8841
    -0.8793  -0.8579  -0.8383  -0.8206  -0.8055  -0.6899  -0.5754  -0.5727
    -0.4724  -0.4197  -0.3933  -0.3808  -0.2825  -0.2636  -0.2564  -0.1781
    -0.0217  -0.0189  -0.0063   0.1136   0.1416   0.1584   0.2085   0.2303
     0.2703   0.2952   0.3489   0.4022   0.4174   0.4639   0.4724   0.4943
     0.5994   0.6581   0.6642   0.7226   0.7662   0.9518   0.9665   1.1067
     1.1655   1.3813   1.4781   1.5286   1.6470   2.0650   2.1242   3.6384
     3.6738   3.6942   3.7429   3.7753   3.8093   3.8738   4.0908   4.1000
     4.1269   4.1807

[...]

          k = 0.0380-0.0419 0.0000 ( 17876 PWs)   bands (ev):

[...]

          k =-0.0760-0.0000 0.0000 ( 17886 PWs)   bands (ev):

[...]

          k =-0.0760-0.0839 0.0000 ( 17948 PWs)   bands (ev):

   -55.5103 -55.4961 -55.4955 -55.4942 -55.4098 -55.3965 -55.3831 -55.3145
   -55.3016 -55.2892 -55.2770 -55.2766 -55.2471 -55.2197 -54.5301 -54.5292
   -31.8870 -31.8845 -31.8184 -31.8048 -31.8025 -31.8003 -31.7904 -31.7799
   -31.7687 -31.7434 -31.7273 -31.7147 -31.7018 -31.6623 -31.6509 -31.6447
   -31.6399 -31.6342 -31.6287 -31.6247 -31.6130 -31.6062 -31.6040 -31.6011
   -31.5972 -31.5956 -31.5775 -31.5710 -31.5432 -31.5339 -31.5295 -31.5153
   -31.5038 -31.4943 -31.4896 -31.4826 -31.4798 -31.4758 -31.4567 -31.4380
   -31.4285 -31.4138 -30.8503 -30.8491 -30.7699 -30.7692 -30.7309 -30.7300
   -21.4038 -19.7336 -15.7365 -15.7064 -15.6068 -15.4739 -15.4621 -15.4215
   -15.3806 -15.3219 -15.2727 -15.2548 -15.2247 -15.1937 -15.1920 -15.1547
   -15.1162 -15.0752 -15.0613 -15.0563 -15.0453 -14.9902 -14.9835 -14.9437
   -14.9247 -14.9182 -14.8742 -14.8667 -14.7920 -14.7514 -14.7295 -13.0316
   -13.0290  -9.1358  -6.6503  -5.3648  -5.3184  -4.5632  -4.5572  -3.5711
    -3.1695  -3.0259  -2.9901  -2.8307  -2.6950  -2.6848  -2.6297  -2.5392
    -2.5063  -2.4625  -2.4100  -2.3961  -2.3731  -2.3687  -2.3590  -2.3552
    -2.3470  -2.2960  -2.2776  -2.2407  -2.1883  -2.1789  -2.1657  -2.1594
    -2.1162  -2.1007  -2.0929  -2.0868  -2.0802  -2.0148  -1.9433  -1.8716
    -1.7812  -1.7384  -1.7193  -1.6829  -1.6473  -1.6122  -1.5904  -1.5727
    -1.4613  -1.4327  -1.2907  -1.2668  -1.2484  -1.2386  -1.1986  -1.1923
    -1.0605  -0.9837  -0.9738  -0.9498  -0.8936  -0.8604  -0.8170  -0.7907
    -0.7037  -0.6678  -0.6265  -0.5764  -0.4964  -0.4865  -0.4347  -0.4195
    -0.3374  -0.3235  -0.2922  -0.2892  -0.2233  -0.1784  -0.1029  -0.0973
    -0.0709   0.0345   0.0911   0.1062   0.2878   0.4588   0.4745   0.4887
     0.5971   0.6056   0.6555   0.7260   0.7403   0.8229   0.8782   0.9755
     0.9947   1.0044   1.0834   1.8371   1.8381   1.9276   1.9391   3.6353
     3.8542   3.8859   3.9072   3.9586   4.1153   4.1203   4.1336   4.1463
     4.2591   4.2767

     the Fermi energy is     3.6271 ev

!    total energy              =   -2970.35119699 Ry
     estimated scf accuracy    <       0.00000006 Ry
     smearing contrib. (-TS)   =      -0.03415012 Ry
     internal energy E=F+TS    =   -2970.31704687 Ry

     The total energy is F=E-TS. E is the sum of the following terms:
     one-electron contribution =  -23485.56849765 Ry
     hartree contribution      =   11835.41995647 Ry
     xc contribution           =    -491.50794386 Ry
     ewald contribution        =    9171.33756444 Ry
     electric field correction =       0.00187374 Ry

     convergence has been achieved in  62 iterations

     Forces acting on atoms (cartesian axes, Ry/au):

     atom    1 type  1   force =    -0.00027375    0.00002862   -0.00014053
     atom    2 type  2   force =    -0.00046436    0.00079938    0.00027252
     atom    3 type  2   force =     0.00015677   -0.00056563   -0.00030670
     atom    4 type  3   force =    -0.00007414    0.00002000    0.10419788
     atom    5 type  3   force =    -0.00005883   -0.00001053    0.10427129
     atom    6 type  3   force =    -0.06902531    0.00076217   -0.02907050
     atom    7 type  3   force =    -0.06857564   -0.00135697   -0.02908048
     atom    8 type  3   force =     0.06869043    0.00129246   -0.02914374
     atom    9 type  3   force =     0.06834041   -0.00097608   -0.02915502
     atom   10 type  3   force =     0.00016668    0.00039164    0.04598298
     atom   11 type  3   force =     0.00058571    0.00072240    0.04715733
     atom   12 type  3   force =     0.00031281   -0.00528995   -0.03191338
     atom   13 type  3   force =     0.00036255    0.00311411   -0.02589678
     atom   14 type  3   force =    -0.01817295   -0.00007394    0.00388101
     atom   15 type  3   force =    -0.01658771    0.00120837    0.00341786
     atom   16 type  3   force =     0.01842854   -0.00125419    0.00384807
     atom   17 type  3   force =     0.01758469    0.00142523    0.00328360
     atom   18 type  3   force =     0.00002177    0.00031459    0.00040068
     atom   19 type  3   force =     0.00003517   -0.00012211    0.00013533
     atom   20 type  3   force =    -0.00005517    0.00028091    0.00038227
     atom   21 type  3   force =    -0.00008239   -0.00021001   -0.00035165
     atom   22 type  3   force =     0.00034070    0.00030213    0.00026479
     atom   23 type  3   force =     0.00028239   -0.00025220    0.00029101
     atom   24 type  3   force =    -0.00035380    0.00037448    0.00013619
     atom   25 type  3   force =    -0.00025402   -0.00029052    0.00014796
     atom   26 type  3   force =    -0.00017926    0.00096456    0.00029825
     atom   27 type  3   force =    -0.00013407   -0.00033159    0.00015270
     atom   28 type  3   force =     0.00007853   -0.00018435   -0.00020964
     atom   29 type  3   force =     0.00001163    0.00050695   -0.00055032
     atom   30 type  3   force =     0.00032056    0.00001433    0.00027033
     atom   31 type  3   force =    -0.00098927    0.00086234   -0.00016532
     atom   32 type  3   force =     0.00002378   -0.00012783    0.00053448
     atom   33 type  3   force =     0.00105589    0.00093706    0.00011103
     atom   34 type  3   force =    -0.00014746   -0.00057953    0.00084899
     atom   35 type  3   force =    -0.00034999   -0.00015796   -0.00018816
     atom   36 type  4   force =    -0.00025909   -0.00177085    0.10175613
     atom   37 type  4   force =    -0.00009193    0.00137320    0.11448495
     atom   38 type  4   force =    -0.00032196    0.00051934   -0.18032430
     atom   39 type  4   force =    -0.00021808   -0.00039983   -0.18065123
     atom   40 type  4   force =     0.00025745    0.00080301   -0.00111932
     atom   41 type  4   force =     0.00020550   -0.00078192   -0.00090671
     atom   42 type  4   force =    -0.00022005    0.00089144   -0.00018836
     atom   43 type  4   force =    -0.00016880   -0.00019246    0.00002339
     atom   44 type  4   force =     0.00002374   -0.00011248    0.00015760
     atom   45 type  4   force =     0.00005907    0.00009137    0.00054276
     atom   46 type  4   force =    -0.00018654    0.00054989   -0.00007671
     atom   47 type  4   force =    -0.00030116   -0.00050325    0.00046887
     atom   48 type  4   force =    -0.00057400   -0.00779320    0.00083407
     atom   49 type  4   force =    -0.00051299    0.00548537    0.00029736
     atom   50 type  4   force =     0.00027537    0.00034423   -0.00031710
     atom   51 type  4   force =     0.00017513   -0.00047355   -0.00034136
     atom   52 type  5   force =     0.00111821    0.00042238    0.00134624
     atom   53 type  5   force =    -0.00028077   -0.00099100   -0.00010059

     Total force =     0.374287     Total SCF correction =     0.000442
  @ DRIVER MODE: Message from server: STATUS
  @ DRIVER MODE: Message from server: GETFORCE
  @ DRIVER MODE: Returning v,forces,stress,ensemble

     Writing output data file ./calc.save/
  @ DRIVER MODE: Message from server: EXIT
  @ DRIVE MODE: Exiting

     General routines

     Parallel routines

   This run was terminated on:  15:19:30  14Sep2021

   JOB DONE.