     Program PWSCF v.6.7GPU starts on 23Sep2021 at  7: 7:51

     R & G space division:  proc/nbgrp/npool/nimage =       8
     Reading input from /storage/home/hcoda1/3/ntian30/research/carbon/CxH_vib/H2O_calc/ads_slab/CH3N2HHO_a/out_0023/pw.inp
Warning: card &CELL ignored
Warning: card   CELL_DYNAMICS='IPI', ignored
Warning: card / ignored

     Current dimensions of program PWSCF are:
     Max number of different atomic species (ntypx) = 10
     Max number of k-points (npk) =  40000
     Max angular momentum in pseudopotentials (lmaxx) =  3
     Presently no symmetry can be used with electric field

     Message from routine cell_base_init:
     DEPRECATED: use true lattice parameter, not A to a.u. conversion factor

     IMPORTANT: XC functional enforced from input :
     Exchange-correlation= BEEF-VDW
                           (   1   4  43  14   2   0   0)
     Any further DFT definition will be discarded
     Please, verify this is what you really want

  @ DRIVER MODE: Connecting to
 qe_1139763_2941009.sched-torque.pace.gatech.edunh6r74dp_scratch
  using UNIX socket
  @ DRIVER MODE: Message from server: STATUS
  @ DRIVER MODE: Message from server: INIT
  @ DRIVER MODE: Receiving replica           0          -1
  @ DRIVER MODE: Receiving encoded integer          25
  @ DRIVER MODE:  SCF:  T  FORCE:  T  STRESS:  F  VC:  F  ENSEMBLE:  F
  @ DRIVER MODE:  SCF:  T  FORCE:  T  STRESS:  F  VC:  F  ENSEMBLE:  F

     Using Slab Decomposition

     bravais-lattice index     =            0
     lattice parameter (alat)  =       1.8897  a.u.
     unit-cell volume          =    6658.9804 (a.u.)^3
     number of atoms/cell      =           56
     number of atomic types    =            5
     number of electrons       =       403.00
     number of Kohn-Sham states=          211
     kinetic-energy cutoff     =      29.3995  Ry
     charge density cutoff     =     293.9946  Ry
     scf convergence threshold =      7.3E-08
     mixing beta               =       0.0500
     number of iterations used =            8  plain     mixing
     Exchange-correlation= BEEF-VDW
                           (   1   4  43  14   2   0   0)

     celldm(1)=   1.889726  celldm(2)=   0.000000  celldm(3)=   0.000000
     celldm(4)=   0.000000  celldm(5)=   0.000000  celldm(6)=   0.000000

     crystal axes: (cart. coord. in units of alat)
               a(1) = (   6.579727   0.000000   0.000000 )
               a(2) = (  -0.000775   5.961596   0.000000 )
               a(3) = (   0.000000   0.000000  25.155947 )

     reciprocal axes: (cart. coord. in units 2 pi/alat)
               b(1) = (  0.151982  0.000020  0.000000 )
               b(2) = (  0.000000  0.167740  0.000000 )
               b(3) = (  0.000000  0.000000  0.039752 )

     PseudoPot. # 1 for Ti read from file:
     /storage/coda1/p-amedford6/0/shared/rich_project_chbe-medford/medford-share/data/pseudos_module/espresso/nninc/pbe/van/Ti.UPF
     MD5 check sum: 8e4df49b7f0d34bbd5052bf3f5ea0213
     Pseudo is Ultrasoft, Zval = 12.0
     Generated by new atomic code, or converted to UPF format
     Using radial grid of  851 points,  6 beta functions with:
                l(1) =   0
                l(2) =   0
                l(3) =   1
                l(4) =   1
                l(5) =   2
                l(6) =   2
     Q(r) pseudized with  8 coefficients,  rinner =    1.000   1.000   1.000
                                                       1.000   1.000

     PseudoPot. # 2 for O  read from file:
     /storage/coda1/p-amedford6/0/shared/rich_project_chbe-medford/medford-share/data/pseudos_module/espresso/nninc/pbe/van/O.UPF
     MD5 check sum: 78c19812648e8988a0fe644b0f25305e
     Pseudo is Ultrasoft, Zval =  6.0
     Generated by new atomic code, or converted to UPF format
     Using radial grid of  737 points,  4 beta functions with:
                l(1) =   0
                l(2) =   0
                l(3) =   1
                l(4) =   1
     Q(r) pseudized with  8 coefficients,  rinner =    0.800   0.800   0.800

     PseudoPot. # 3 for N  read from file:
     /storage/coda1/p-amedford6/0/shared/rich_project_chbe-medford/medford-share/data/pseudos_module/espresso/nninc/pbe/van/N.UPF
     MD5 check sum: 90d10febe142ad51ac9d5be1deb811c4
     Pseudo is Ultrasoft, Zval =  5.0
     Generated by new atomic code, or converted to UPF format
     Using radial grid of  729 points,  4 beta functions with:
                l(1) =   0
                l(2) =   0
                l(3) =   1
                l(4) =   1
     Q(r) pseudized with  8 coefficients,  rinner =    0.800   0.800   0.800

     PseudoPot. # 4 for C  read from file:
     /storage/coda1/p-amedford6/0/shared/rich_project_chbe-medford/medford-share/data/pseudos_module/espresso/nninc/pbe/van/C.UPF
     MD5 check sum: 1a69bf6b8db32088f5b2163dbdb77a27
     Pseudo is Ultrasoft, Zval =  4.0
     Generated by new atomic code, or converted to UPF format
     Using radial grid of  721 points,  4 beta functions with:
                l(1) =   0
                l(2) =   0
                l(3) =   1
                l(4) =   1
     Q(r) pseudized with  8 coefficients,  rinner =    0.800   0.800   0.800

     PseudoPot. # 5 for H  read from file:
     /storage/coda1/p-amedford6/0/shared/rich_project_chbe-medford/medford-share/data/pseudos_module/espresso/nninc/pbe/van/H.UPF
     MD5 check sum: b5ee9d7bfd3a09ee7748110bda690ff7
     Pseudo is Ultrasoft, Zval =  1.0
     Generated by new atomic code, or converted to UPF format
     Using radial grid of  615 points,  1 beta functions with:
                l(1) =   0
     Q(r) pseudized with  8 coefficients,  rinner =    0.800

     atomic species   valence    mass     pseudopotential
        Ti1           12.00    47.86700     Ti( 1.00)
        O1             6.00    15.99900     O ( 1.00)
        N1             5.00    14.00700     N ( 1.00)
        C1             4.00    12.01100     C ( 1.00)
        H1             1.00     1.00800     H ( 1.00)

     No symmetry found

   Cartesian axes

     site n.     atom                  positions (alat units)
         1           Ti1 tau(   1) = (   0.0004258   2.9801865   6.0000000  )
         2           Ti1 tau(   2) = (   3.2906075   1.4906267   6.0002472  )
         3           O1  tau(   3) = (   0.0006271   0.0005054   7.9858123  )
         4           O1  tau(   4) = (   3.2906025   0.0005020   7.3038282  )
         5           O1  tau(   5) = (   4.5942328   1.4918067   9.2879030  )
         6           O1  tau(   6) = (   1.9868534   1.4903216   9.2879459  )
         7           Ti1 tau(   7) = (   3.2907910   2.8959150   9.1758416  )
         8           Ti1 tau(   8) = (   0.0015273   1.4827037   9.2680791  )
         9           O1  tau(   9) = (   3.2827749   5.9542966  11.3123607  )
        10           O1  tau(  10) = (   0.0116148   5.9584955  10.6183126  )
        11           O1  tau(  11) = (   1.2790800   1.4852124  12.6463597  )
        12           O1  tau(  12) = (   5.2943908   1.4901875  12.6352807  )
        13           Ti1 tau(  13) = (   6.5507123   3.1127926  12.6266869  )
        14           Ti1 tau(  14) = (   3.2873181   1.3120036  12.6863921  )
        15           O1  tau(  15) = (   6.5656690   0.0172326  14.6855350  )
        16           O1  tau(  16) = (   3.2842416   0.0515509  13.9244022  )
        17           O1  tau(  17) = (   4.5437539   1.5966601  16.0680646  )
        18           O1  tau(  18) = (   2.0303991   1.5956099  16.0781401  )
        19           Ti1 tau(  19) = (   3.2961159   3.0594788  15.6697774  )
        20           Ti1 tau(  20) = (   6.5318457   1.5630605  15.7780207  )
        21           O1  tau(  21) = (   3.2904802   0.0005063   4.7018136  )
        22           O1  tau(  22) = (   6.5726385   0.0820865  17.2550913  )
        23           O1  tau(  23) = (   1.3043587   1.4918075   6.0039043  )
        24           O1  tau(  24) = (   5.2767064   1.4903225   6.0039473  )
        25           Ti1 tau(  25) = (   0.0000382   5.9609847   6.0000000  )
        26           Ti1 tau(  26) = (   3.2902200   4.4714249   6.0002472  )
        27           O1  tau(  27) = (   0.0002396   2.9813036   7.9858123  )
        28           O1  tau(  28) = (   3.2902150   2.9813002   7.3038282  )
        29           O1  tau(  29) = (   4.5938453   4.4726049   9.2879030  )
        30           O1  tau(  30) = (   1.9864658   4.4711199   9.2879459  )
        31           Ti1 tau(  31) = (   3.2891106   5.8743827   9.1763621  )
        32           Ti1 tau(  32) = (   0.0006254   4.4649316   9.2693709  )
        33           O1  tau(  33) = (   3.2807365   3.0201584  11.2787527  )
        34           O1  tau(  34) = (   0.0092240   2.9805883  10.6323155  )
        35           O1  tau(  35) = (   1.2751182   4.4744369  12.6357194  )
        36           O1  tau(  36) = (   5.2842299   4.4734050  12.6250694  )
        37           Ti1 tau(  37) = (   0.0094520   0.1224552  12.5707632  )
        38           Ti1 tau(  38) = (   3.2670701   4.4034752  12.4162930  )
        39           O1  tau(  39) = (   6.5622168   3.0106679  14.6773207  )
        40           O1  tau(  40) = (   3.2891587   3.0115246  13.8909557  )
        41           O1  tau(  41) = (   4.5321968   4.4927823  16.1577793  )
        42           O1  tau(  42) = (   2.0250423   4.4919485  16.1304878  )
        43           Ti1 tau(  43) = (   3.2250977   0.0853664  16.3312049  )
        44           Ti1 tau(  44) = (   6.5532039   4.7053171  16.1332850  )
        45           O1  tau(  45) = (   3.2900926   2.9813045   4.7018136  )
        46           O1  tau(  46) = (   1.3039711   4.4726057   6.0039043  )
        47           O1  tau(  47) = (   5.2763189   4.4711207   6.0039473  )
        48           N1  tau(  48) = (   0.0650423   2.5931692  18.6004617  )
        49           N1  tau(  49) = (   0.0051179   2.9528117  17.3995676  )
        50           C1  tau(  50) = (   0.1360749   3.5155665  19.7334966  )
        51           H1  tau(  51) = (   6.1082608   4.3937080  19.5113757  )
        52           H1  tau(  52) = (   6.3628389   3.0028702  20.6266755  )
        53           H1  tau(  53) = (   1.1699357   3.8405576  19.8861820  )
        54           H1  tau(  54) = (   0.1060244   1.5775976  18.7788705  )
        55           O1  tau(  55) = (   3.2396048   0.1449850  18.2004881  )
        56           H1  tau(  56) = (   3.4111690   5.2654565  18.6466900  )

     number of k points=    10  Fermi-Dirac smearing, width (Ry)=  0.0073
                       cart. coord. in units 2pi/alat
        k(    1) = (   0.0000000   0.0000000   0.0000000), wk =   0.1250000
        k(    2) = (   0.0000000   0.0419351   0.0000000), wk =   0.2500000
        k(    3) = (   0.0000000  -0.0838702   0.0000000), wk =   0.1250000
        k(    4) = (   0.0379955   0.0000049   0.0000000), wk =   0.2500000
        k(    5) = (   0.0379955   0.0419400   0.0000000), wk =   0.2500000
        k(    6) = (   0.0379955  -0.0838652   0.0000000), wk =   0.2500000
        k(    7) = (   0.0379955  -0.0419301   0.0000000), wk =   0.2500000
        k(    8) = (  -0.0759910  -0.0000099   0.0000000), wk =   0.1250000
        k(    9) = (  -0.0759910   0.0419252   0.0000000), wk =   0.2500000
        k(   10) = (  -0.0759910  -0.0838800   0.0000000), wk =   0.1250000

     Initial potential from superposition of free atoms

     starting charge  386.99914, renormalised to  403.00000

     negative rho (up, down):  1.430E-02 0.000E+00

     %%%%%%%%%%%%%%%%%%%%%%%%%%%%%%%%%%%%%%%%%%%%%%%%%%%%%%%%%%%%%%%%%%%%%%%%
     %                                                                      %
     % You are using vdW-DF, which was implemented by the Thonhauser group. %
     % Please cite the following two papers that made this development      %
     % possible and the two reviews that describe the various versions:     %
     %                                                                      %
     %   T. Thonhauser et al., PRL 115, 136402 (2015).                      %
     %   T. Thonhauser et al., PRB 76, 125112 (2007).                       %
     %   K. Berland et al., Rep. Prog. Phys. 78, 066501 (2015).             %
     %   D.C. Langreth et al., J. Phys.: Condens. Matter 21, 084203 (2009). %
     %                                                                      %
     %                                                                      %
     % If you are calculating the stress with vdW-DF, please also cite:     %
     %                                                                      %
     %   R. Sabatini et al., J. Phys.: Condens. Matter 24, 424209 (2012).   %
     %                                                                      %
     %%%%%%%%%%%%%%%%%%%%%%%%%%%%%%%%%%%%%%%%%%%%%%%%%%%%%%%%%%%%%%%%%%%%%%%%

     Adding external electric field

     Computed dipole along edir(3) :
        Dipole              -12.7211 Ry au,        -32.3338 Debye
        Dipole field         -0.0240 Ry au,

        Potential amp.        2.2254 Ry
        Total length         46.3494 bohr

     Starting wfcs are  305 atomic wfcs
  @ DRIVER MODE: Message from server: STATUS
  @ DRIVER MODE: Message from server: POSDATA
  @ DRIVER MODE: Reading and sharing cell
  @ DRIVER MODE: Reading and sharing positions
  @ DRIVER MODE: Received positions

     Self-consistent Calculation

     iteration #  1     ecut=    29.40 Ry     beta= 0.05
     Davidson diagonalization with overlap
     c_bands:  5 eigenvalues not converged
     c_bands:  4 eigenvalues not converged
     c_bands:  3 eigenvalues not converged
     c_bands:  4 eigenvalues not converged
     c_bands:  5 eigenvalues not converged
     c_bands:  4 eigenvalues not converged
     c_bands:  1 eigenvalues not converged
     c_bands:  4 eigenvalues not converged
     ethr =  1.00E-05,  avg # of iterations = 25.4

[...]

     total energy              =   -2361.22952705 Ry
     estimated scf accuracy    <    6935.97045361 Ry

     iteration #  2     ecut=    29.40 Ry     beta= 0.05
     Davidson diagonalization with overlap
     ethr =  1.00E-02,  avg # of iterations = 24.9

[...]

     iteration # 78     ecut=    29.40 Ry     beta= 0.05
     Davidson diagonalization with overlap
     c_bands:  1 eigenvalues not converged
     ethr =  3.53E-10,  avg # of iterations = 10.3

[...]

     total energy              =   -2973.99530938 Ry
     estimated scf accuracy    <       0.00000009 Ry

     iteration # 88     ecut=    29.40 Ry     beta= 0.05
     Davidson diagonalization with overlap
     ethr =  2.33E-11,  avg # of iterations =  5.4

     negative rho (up, down):  1.502E-02 0.000E+00

     Adding external electric field

     Computed dipole along edir(3) :
        Dipole                1.1945 Ry au,          3.0361 Debye
        Dipole field          0.0023 Ry au,

        Potential amp.       -0.2090 Ry
        Total length         46.3494 bohr

     End of self-consistent calculation

          k = 0.0000 0.0000 0.0000 ( 18029 PWs)   bands (ev):

   -55.7002 -55.6664 -55.3860 -55.3521 -55.2775 -55.1693 -55.1142 -55.0365
   -54.9905 -54.9585 -54.8300 -54.7363 -54.6953 -54.6245 -54.5273 -54.4933
   -32.1601 -31.9946 -31.9707 -31.8616 -31.8553 -31.7836 -31.7620 -31.6515
   -31.6067 -31.6043 -31.5932 -31.5394 -31.5371 -31.5178 -31.4967 -31.4923
   -31.4885 -31.3949 -31.3865 -31.3707 -31.3350 -31.3159 -31.3056 -31.2947
   -31.2746 -31.2712 -31.2375 -31.1997 -31.1763 -31.1747 -31.1652 -31.1472
   -31.0970 -31.0300 -30.9916 -30.9525 -30.9503 -30.9266 -30.9204 -30.9063
   -30.8957 -30.8569 -30.8384 -30.8347 -30.8336 -30.7448 -30.6597 -30.5478
   -19.0754 -16.2303 -16.0567 -15.7654 -15.5946 -15.3876 -15.3589 -15.2636
   -15.1606 -15.1441 -15.0401 -14.9752 -14.8904 -14.8215 -14.8021 -14.7531
   -14.7236 -14.6957 -14.6810 -14.6715 -14.6333 -14.6014 -14.5845 -14.5087
   -14.4637 -14.4454 -14.4180 -14.3531 -14.2570 -13.9916 -13.9282 -13.0249
   -12.9115 -12.5768  -9.3400  -6.2073  -4.7709  -4.7147  -3.7777  -3.5355
    -3.4505  -3.3305  -3.1219  -3.0725  -2.8944  -2.7734  -2.7532  -2.5328
    -2.5050  -2.3931  -2.3782  -2.3293  -2.3255  -2.2913  -2.2248  -2.1965
    -2.1246  -2.0644  -2.0373  -2.0036  -1.9505  -1.8951  -1.8906  -1.8768
    -1.8195  -1.7510  -1.7232  -1.7141  -1.6702  -1.6065  -1.5979  -1.5817
    -1.5626  -1.5410  -1.3981  -1.2918  -1.2307  -1.1925  -1.1429  -1.0859
    -1.0331  -1.0202  -0.9197  -0.8398  -0.7983  -0.6810  -0.6532  -0.6126
    -0.5282  -0.5040  -0.4613  -0.4422  -0.4008  -0.3937  -0.2887  -0.2713
    -0.2372  -0.1943  -0.0757  -0.0275  -0.0193   0.0622   0.1214   0.2015
     0.2430   0.2585   0.2831   0.3692   0.3969   0.4142   0.4224   0.4946
     0.5135   0.5623   0.6159   0.6986   0.7110   0.7509   0.7853   0.7983
     0.9281   0.9363   1.0260   1.0501   1.0611   1.1254   1.2195   1.2794
     1.3907   1.4049   1.4976   1.4980   1.5185   1.7171   1.8911   2.0502
     2.0905   3.5011   3.6204   3.6825   3.7202   3.9309   3.9425   4.2050
     4.2802   4.2838   4.3737

[...]

          k = 0.0380-0.0419 0.0000 ( 17876 PWs)   bands (ev):

[...]

          k =-0.0760-0.0000 0.0000 ( 17886 PWs)   bands (ev):

[...]

          k =-0.0760-0.0839 0.0000 ( 17948 PWs)   bands (ev):

   -55.6834 -55.6830 -55.3716 -55.3663 -55.2769 -55.1634 -55.1200 -55.0287
   -54.9981 -54.9589 -54.8279 -54.7340 -54.6972 -54.6267 -54.5107 -54.5097
   -31.9804 -31.9800 -31.9757 -31.9755 -31.8070 -31.8065 -31.6898 -31.6842
   -31.5698 -31.5657 -31.5643 -31.5580 -31.5537 -31.4930 -31.4829 -31.4675
   -31.4345 -31.3854 -31.3836 -31.3612 -31.3464 -31.3460 -31.3341 -31.3338
   -31.2576 -31.2440 -31.2372 -31.2332 -31.2055 -31.1943 -31.1651 -31.1560
   -31.0891 -31.0397 -31.0352 -30.9920 -30.9589 -30.9538 -30.9530 -30.9112
   -30.8732 -30.8468 -30.8460 -30.8376 -30.7412 -30.7399 -30.7028 -30.7019
   -19.0720 -16.2232 -15.4714 -15.4612 -15.3170 -15.3077 -15.2302 -15.1405
   -15.1222 -15.0936 -15.0450 -15.0227 -14.9414 -14.8852 -14.8657 -14.8403
   -14.8216 -14.8073 -14.7495 -14.7465 -14.7309 -14.7175 -14.6513 -14.6130
   -14.5827 -14.5763 -14.4680 -14.3886 -14.3042 -14.1559 -14.0647 -13.0145
   -13.0140 -12.5773  -9.3465  -6.2003  -4.7627  -4.7131  -3.7707  -3.4226
    -2.6501  -2.6069  -2.5159  -2.4375  -2.4298  -2.3837  -2.3830  -2.3016
    -2.2490  -2.1910  -2.1667  -2.1587  -2.1580  -2.1271  -2.1181  -2.0637
    -2.0587  -2.0412  -2.0383  -1.9819  -1.9570  -1.9427  -1.8909  -1.8356
    -1.7850  -1.7484  -1.7264  -1.6861  -1.6670  -1.6640  -1.5792  -1.5645
    -1.5375  -1.5100  -1.4652  -1.4350  -1.3798  -1.3578  -1.3014  -1.1741
    -1.1028  -1.0170  -0.9116  -0.8902  -0.8574  -0.8241  -0.8113  -0.7889
    -0.7561  -0.6407  -0.6303  -0.5808  -0.5486  -0.5205  -0.5035  -0.4755
    -0.4529  -0.3518  -0.3098  -0.2803  -0.2402  -0.2062  -0.1780  -0.1448
    -0.0934  -0.0540  -0.0441  -0.0130   0.0209   0.0354   0.1887   0.2682
     0.4011   0.4290   0.5193   0.5662   0.5980   0.6275   0.6558   0.7749
     0.8224   0.8448   0.8814   0.9030   1.0016   1.0984   1.1188   1.1867
     1.2215   1.3266   1.3575   1.4452   1.4965   1.8800   1.8878   1.9087
     1.9092   3.3787   4.0462   4.0490   4.0607   4.0739   4.2391   4.2420
     4.3425   4.3667   4.5042

     the Fermi energy is     3.4576 ev

!    total energy              =   -2973.99531346 Ry
     estimated scf accuracy    <       0.00000005 Ry
     smearing contrib. (-TS)   =      -0.01689281 Ry
     internal energy E=F+TS    =   -2973.97842065 Ry

     The total energy is F=E-TS. E is the sum of the following terms:
     one-electron contribution =  -23438.28388402 Ry
     hartree contribution      =   11816.59342831 Ry
     xc contribution           =    -493.95498436 Ry
     ewald contribution        =    9141.66432692 Ry
     electric field correction =       0.00269251 Ry

     convergence has been achieved in  88 iterations

     Forces acting on atoms (cartesian axes, Ry/au):

     atom    1 type  1   force =     0.00012034   -0.00023987    0.10266226
     atom    2 type  1   force =    -0.00011945    0.00009025   -0.16809621
     atom    3 type  2   force =    -0.00000977    0.00045894   -0.03239625
     atom    4 type  2   force =     0.00002719   -0.00097371    0.04011467
     atom    5 type  2   force =    -0.00542779   -0.00191385   -0.00433171
     atom    6 type  2   force =     0.00666274   -0.00135837   -0.00593069
     atom    7 type  1   force =    -0.00053760   -0.00531583    0.03002487
     atom    8 type  1   force =     0.00069513    0.00860876    0.04850479
     atom    9 type  2   force =     0.00012308   -0.00131431   -0.00106127
     atom   10 type  2   force =    -0.00253546    0.00301301   -0.03413673
     atom   11 type  2   force =    -0.00038057   -0.00008897   -0.00022815
     atom   12 type  2   force =     0.00047918   -0.00036944   -0.00011027
     atom   13 type  1   force =     0.00022661   -0.00161479    0.00018690
     atom   14 type  1   force =     0.00017558   -0.00078902    0.00070292
     atom   15 type  2   force =     0.00008593    0.00004100   -0.00027051
     atom   16 type  2   force =    -0.00013028    0.00004567    0.00172720
     atom   17 type  2   force =    -0.00103526   -0.00058935    0.00038562
     atom   18 type  2   force =     0.00065189   -0.00110385    0.00052001
     atom   19 type  1   force =     0.00059707   -0.00098131   -0.00073387
     atom   20 type  1   force =    -0.00077908   -0.00037927   -0.00022557
     atom   21 type  2   force =     0.00004998    0.00012487    0.10115042
     atom   22 type  2   force =    -0.00011396    0.00050841    0.00033286
     atom   23 type  2   force =    -0.07541953   -0.00012028   -0.02930362
     atom   24 type  2   force =     0.07533273    0.00030160   -0.02932044
     atom   25 type  1   force =     0.00013782   -0.00022903    0.10280083
     atom   26 type  1   force =    -0.00004091   -0.00130696   -0.16849853
     atom   27 type  2   force =     0.00011851    0.00017432   -0.03116790
     atom   28 type  2   force =    -0.00000938    0.00072137    0.03583365
     atom   29 type  2   force =    -0.00425634    0.00378575   -0.00626026
     atom   30 type  2   force =     0.00527994    0.00442342   -0.00778529
     atom   31 type  1   force =    -0.00054223    0.00495168    0.01591650
     atom   32 type  1   force =     0.00077106   -0.01041503    0.04918770
     atom   33 type  2   force =     0.00002682   -0.00089725   -0.00137064
     atom   34 type  2   force =    -0.00240564    0.00222453   -0.04430627
     atom   35 type  2   force =     0.00055587    0.00019995   -0.00013594
     atom   36 type  2   force =    -0.00018451    0.00023001   -0.00006513
     atom   37 type  1   force =     0.00027113    0.00038459   -0.00047145
     atom   38 type  1   force =     0.00042218    0.00140383    0.00104422
     atom   39 type  2   force =     0.00036113    0.00045388    0.00011098
     atom   40 type  2   force =     0.00005924    0.00015867    0.00048960
     atom   41 type  2   force =    -0.00091373   -0.00022818    0.00011314
     atom   42 type  2   force =     0.00043368    0.00025555    0.00032060
     atom   43 type  1   force =     0.00027141    0.00027043   -0.00150171
     atom   44 type  1   force =    -0.00064411   -0.00019470   -0.00094681
     atom   45 type  2   force =     0.00007169   -0.00001999    0.10095296
     atom   46 type  2   force =    -0.07547602   -0.00005018   -0.02931929
     atom   47 type  2   force =     0.07538882    0.00038366   -0.02931519
     atom   48 type  3   force =    -0.00010203   -0.00112274    0.00078673
     atom   49 type  3   force =     0.00034645   -0.00064754   -0.00107892
     atom   50 type  4   force =    -0.00008798    0.00314695   -0.00182337
     atom   51 type  5   force =     0.00147666   -0.00233993    0.00105446
     atom   52 type  5   force =    -0.00077867    0.00013217   -0.00057199
     atom   53 type  5   force =    -0.00015826   -0.00042583   -0.00100158
     atom   54 type  5   force =    -0.00003549   -0.00068392   -0.00148109
     atom   55 type  2   force =    -0.00032862    0.00037551   -0.00100800
     atom   56 type  5   force =     0.00123281   -0.00115524   -0.00066922

     Total force =     0.372791     Total SCF correction =     0.000373
  @ DRIVER MODE: Message from server: STATUS
  @ DRIVER MODE: Message from server: GETFORCE
  @ DRIVER MODE: Returning v,forces,stress,ensemble

     Writing output data file ./calc.save/
  @ DRIVER MODE: Message from server: EXIT
  @ DRIVE MODE: Exiting

     General routines

     Parallel routines

   This run was terminated on:   7:36:30  23Sep2021

   JOB DONE.