     Program PWSCF v.6.7GPU starts on  2Aug2021 at 19:35:39

     R & G space division:  proc/nbgrp/npool/nimage =      16
     Reading input from /storage/home/hcoda1/3/ntian30/research/carbon/02Aug_vib_paired/ads_slab/CH3N2_b/out_0024/pw.inp
Warning: card &CELL ignored
Warning: card   CELL_DYNAMICS='IPI', ignored
Warning: card / ignored

     Current dimensions of program PWSCF are:
     Max number of different atomic species (ntypx) = 10
     Max number of k-points (npk) =  40000
     Max angular momentum in pseudopotentials (lmaxx) =  3
     Presently no symmetry can be used with electric field

     Message from routine cell_base_init:
     DEPRECATED: use true lattice parameter, not A to a.u. conversion factor

     IMPORTANT: XC functional enforced from input :
     Exchange-correlation= BEEF-VDW
                           (   1   4  43  14   2   0   0)
     Any further DFT definition will be discarded
     Please, verify this is what you really want

  @ DRIVER MODE: Connecting to
 qe_1139763_2482536.sched-torque.pace.gatech.edus5oifa0o_scratch
  using UNIX socket
  @ DRIVER MODE: Message from server: STATUS
  @ DRIVER MODE: Message from server: INIT
  @ DRIVER MODE: Receiving replica           0          -1
  @ DRIVER MODE: Receiving encoded integer          25
  @ DRIVER MODE:  SCF:  T  FORCE:  T  STRESS:  F  VC:  F  ENSEMBLE:  F
  @ DRIVER MODE:  SCF:  T  FORCE:  T  STRESS:  F  VC:  F  ENSEMBLE:  F

     Using Slab Decomposition

     bravais-lattice index     =            0
     lattice parameter (alat)  =       1.8897  a.u.
     unit-cell volume          =    6658.9804 (a.u.)^3
     number of atoms/cell      =           53
     number of atomic types    =            5
     number of electrons       =       395.00
     number of Kohn-Sham states=          207
     kinetic-energy cutoff     =      29.3995  Ry
     charge density cutoff     =     293.9946  Ry
     scf convergence threshold =      7.3E-08
     mixing beta               =       0.0500
     number of iterations used =            8  plain     mixing
     Exchange-correlation= BEEF-VDW
                           (   1   4  43  14   2   0   0)

     celldm(1)=   1.889726  celldm(2)=   0.000000  celldm(3)=   0.000000
     celldm(4)=   0.000000  celldm(5)=   0.000000  celldm(6)=   0.000000

     crystal axes: (cart. coord. in units of alat)
               a(1) = (   6.579727   0.000000   0.000000 )
               a(2) = (  -0.000775   5.961596   0.000000 )
               a(3) = (   0.000000   0.000000  25.155947 )

     reciprocal axes: (cart. coord. in units 2 pi/alat)
               b(1) = (  0.151982  0.000020  0.000000 )
               b(2) = (  0.000000  0.167740  0.000000 )
               b(3) = (  0.000000  0.000000  0.039752 )

     PseudoPot. # 1 for Ti read from file:
     /storage/coda1/p-amedford6/0/shared/rich_project_chbe-medford/medford-share/data/pseudos_module/espresso/nninc/pbe/van/Ti.UPF
     MD5 check sum: 8e4df49b7f0d34bbd5052bf3f5ea0213
     Pseudo is Ultrasoft, Zval = 12.0
     Generated by new atomic code, or converted to UPF format
     Using radial grid of  851 points,  6 beta functions with:
                l(1) =   0
                l(2) =   0
                l(3) =   1
                l(4) =   1
                l(5) =   2
                l(6) =   2
     Q(r) pseudized with  8 coefficients,  rinner =    1.000   1.000   1.000
                                                       1.000   1.000

     PseudoPot. # 2 for O  read from file:
     /storage/coda1/p-amedford6/0/shared/rich_project_chbe-medford/medford-share/data/pseudos_module/espresso/nninc/pbe/van/O.UPF
     MD5 check sum: 78c19812648e8988a0fe644b0f25305e
     Pseudo is Ultrasoft, Zval =  6.0
     Generated by new atomic code, or converted to UPF format
     Using radial grid of  737 points,  4 beta functions with:
                l(1) =   0
                l(2) =   0
                l(3) =   1
                l(4) =   1
     Q(r) pseudized with  8 coefficients,  rinner =    0.800   0.800   0.800

     PseudoPot. # 3 for N  read from file:
     /storage/coda1/p-amedford6/0/shared/rich_project_chbe-medford/medford-share/data/pseudos_module/espresso/nninc/pbe/van/N.UPF
     MD5 check sum: 90d10febe142ad51ac9d5be1deb811c4
     Pseudo is Ultrasoft, Zval =  5.0
     Generated by new atomic code, or converted to UPF format
     Using radial grid of  729 points,  4 beta functions with:
                l(1) =   0
                l(2) =   0
                l(3) =   1
                l(4) =   1
     Q(r) pseudized with  8 coefficients,  rinner =    0.800   0.800   0.800

     PseudoPot. # 4 for C  read from file:
     /storage/coda1/p-amedford6/0/shared/rich_project_chbe-medford/medford-share/data/pseudos_module/espresso/nninc/pbe/van/C.UPF
     MD5 check sum: 1a69bf6b8db32088f5b2163dbdb77a27
     Pseudo is Ultrasoft, Zval =  4.0
     Generated by new atomic code, or converted to UPF format
     Using radial grid of  721 points,  4 beta functions with:
                l(1) =   0
                l(2) =   0
                l(3) =   1
                l(4) =   1
     Q(r) pseudized with  8 coefficients,  rinner =    0.800   0.800   0.800

     PseudoPot. # 5 for H  read from file:
     /storage/coda1/p-amedford6/0/shared/rich_project_chbe-medford/medford-share/data/pseudos_module/espresso/nninc/pbe/van/H.UPF
     MD5 check sum: b5ee9d7bfd3a09ee7748110bda690ff7
     Pseudo is Ultrasoft, Zval =  1.0
     Generated by new atomic code, or converted to UPF format
     Using radial grid of  615 points,  1 beta functions with:
                l(1) =   0
     Q(r) pseudized with  8 coefficients,  rinner =    0.800

     atomic species   valence    mass     pseudopotential
        Ti1           12.00    47.86700     Ti( 1.00)
        O1             6.00    15.99900     O ( 1.00)
        N1             5.00    14.00700     N ( 1.00)
        C1             4.00    12.01100     C ( 1.00)
        H1             1.00     1.00800     H ( 1.00)

     No symmetry found

   Cartesian axes

     site n.     atom                  positions (alat units)
         1           Ti1 tau(   1) = (   0.0004258   2.9801865   6.0000000  )
         2           Ti1 tau(   2) = (   3.2906075   1.4906267   6.0002472  )
         3           O1  tau(   3) = (   0.0006271   0.0005054   7.9858123  )
         4           O1  tau(   4) = (   3.2906025   0.0005020   7.3038282  )
         5           O1  tau(   5) = (   4.5942328   1.4918067   9.2879030  )
         6           O1  tau(   6) = (   1.9868534   1.4903216   9.2879459  )
         7           Ti1 tau(   7) = (   3.2907910   2.8959150   9.1758416  )
         8           Ti1 tau(   8) = (   0.0015273   1.4827037   9.2680791  )
         9           O1  tau(   9) = (   3.3037365   0.0094216  11.3222111  )
        10           O1  tau(  10) = (   0.0116148   5.9584955  10.6183126  )
        11           O1  tau(  11) = (   1.3152514   1.5075076  12.6320051  )
        12           O1  tau(  12) = (   5.3186361   1.4995162  12.6508707  )
        13           Ti1 tau(  13) = (   6.5540705   2.9956815  12.5884341  )
        14           Ti1 tau(  14) = (   3.2234832   1.4927074  12.4921739  )
        15           O1  tau(  15) = (   0.0610261   5.9052480  14.6017706  )
        16           O1  tau(  16) = (   3.2936532   0.0132264  13.8830087  )
        17           O1  tau(  17) = (   4.5722397   1.5061520  16.0138922  )
        18           O1  tau(  18) = (   2.0767725   1.5295127  16.0808449  )
        19           Ti1 tau(  19) = (   3.3650854   3.0251465  15.6907462  )
        20           Ti1 tau(  20) = (   0.0387768   1.3037779  15.7216176  )
        21           O1  tau(  21) = (   3.2904802   0.0005063   4.7018136  )
        22           O1  tau(  22) = (   0.0189486   0.1070799  17.1824039  )
        23           O1  tau(  23) = (   1.3043587   1.4918075   6.0039043  )
        24           O1  tau(  24) = (   5.2767064   1.4903225   6.0039473  )
        25           Ti1 tau(  25) = (   0.0000382   5.9609847   6.0000000  )
        26           Ti1 tau(  26) = (   3.2902200   4.4714249   6.0002472  )
        27           O1  tau(  27) = (   0.0002396   2.9813036   7.9858123  )
        28           O1  tau(  28) = (   3.2902150   2.9813002   7.3038282  )
        29           O1  tau(  29) = (   4.5938453   4.4726049   9.2879030  )
        30           O1  tau(  30) = (   1.9864658   4.4711199   9.2879459  )
        31           Ti1 tau(  31) = (   3.2891106   5.8743827   9.1763621  )
        32           Ti1 tau(  32) = (   0.0006254   4.4649316   9.2693709  )
        33           O1  tau(  33) = (   3.3043114   2.9829305  11.3227053  )
        34           O1  tau(  34) = (   0.0092240   2.9805883  10.6323155  )
        35           O1  tau(  35) = (   1.3131995   4.4620516  12.6081187  )
        36           O1  tau(  36) = (   5.3117129   4.4692194  12.6284301  )
        37           Ti1 tau(  37) = (   6.5303063   5.9583428  12.5400172  )
        38           Ti1 tau(  38) = (   3.2255477   4.4746212  12.4748647  )
        39           O1  tau(  39) = (   0.0377805   3.0059521  14.8845374  )
        40           O1  tau(  40) = (   3.3120027   2.9986483  13.8863452  )
        41           O1  tau(  41) = (   4.5434534   4.5277214  16.0148975  )
        42           O1  tau(  42) = (   2.1165747   4.4940517  16.0783766  )
        43           Ti1 tau(  43) = (   3.3042555   0.0241951  15.7004812  )
        44           Ti1 tau(  44) = (   0.0495666   4.4505358  16.3362958  )
        45           O1  tau(  45) = (   3.2900926   2.9813045   4.7018136  )
        46           O1  tau(  46) = (   1.3039711   4.4726057   6.0039043  )
        47           O1  tau(  47) = (   5.2763189   4.4711207   6.0039473  )
        48           N1  tau(  48) = (   0.5348212   3.4288502  18.0689430  )
        49           C1  tau(  49) = (   1.3556880   3.0079929  19.2215664  )
        50           H1  tau(  50) = (   1.4862090   3.8900195  19.8496782  )
        51           H1  tau(  51) = (   0.8469181   2.2141957  19.7747163  )
        52           H1  tau(  52) = (   2.3296892   2.6851793  18.8624704  )
        53           N1  tau(  53) = (   5.9145885   3.2636146  17.9655992  )

     number of k points=    10  Fermi-Dirac smearing, width (Ry)=  0.0073
                       cart. coord. in units 2pi/alat
        k(    1) = (   0.0000000   0.0000000   0.0000000), wk =   0.1250000
        k(    2) = (   0.0000000   0.0419351   0.0000000), wk =   0.2500000
        k(    3) = (   0.0000000  -0.0838702   0.0000000), wk =   0.1250000
        k(    4) = (   0.0379955   0.0000049   0.0000000), wk =   0.2500000
        k(    5) = (   0.0379955   0.0419400   0.0000000), wk =   0.2500000
        k(    6) = (   0.0379955  -0.0838652   0.0000000), wk =   0.2500000
        k(    7) = (   0.0379955  -0.0419301   0.0000000), wk =   0.2500000
        k(    8) = (  -0.0759910  -0.0000099   0.0000000), wk =   0.1250000
        k(    9) = (  -0.0759910   0.0419252   0.0000000), wk =   0.2500000
        k(   10) = (  -0.0759910  -0.0838800   0.0000000), wk =   0.1250000

     Initial potential from superposition of free atoms

     starting charge  378.99916, renormalised to  395.00000

     negative rho (up, down):  1.609E-02 0.000E+00

     %%%%%%%%%%%%%%%%%%%%%%%%%%%%%%%%%%%%%%%%%%%%%%%%%%%%%%%%%%%%%%%%%%%%%%%%
     %                                                                      %
     % You are using vdW-DF, which was implemented by the Thonhauser group. %
     % Please cite the following two papers that made this development      %
     % possible and the two reviews that describe the various versions:     %
     %                                                                      %
     %   T. Thonhauser et al., PRL 115, 136402 (2015).                      %
     %   T. Thonhauser et al., PRB 76, 125112 (2007).                       %
     %   K. Berland et al., Rep. Prog. Phys. 78, 066501 (2015).             %
     %   D.C. Langreth et al., J. Phys.: Condens. Matter 21, 084203 (2009). %
     %                                                                      %
     %                                                                      %
     % If you are calculating the stress with vdW-DF, please also cite:     %
     %                                                                      %
     %   R. Sabatini et al., J. Phys.: Condens. Matter 24, 424209 (2012).   %
     %                                                                      %
     %%%%%%%%%%%%%%%%%%%%%%%%%%%%%%%%%%%%%%%%%%%%%%%%%%%%%%%%%%%%%%%%%%%%%%%%

     Adding external electric field

     Computed dipole along edir(3) :
        Dipole               -8.5794 Ry au,        -21.8067 Debye
        Dipole field         -0.0162 Ry au,

        Potential amp.        1.5008 Ry
        Total length         46.3494 bohr

     Starting wfcs are  299 atomic wfcs
  @ DRIVER MODE: Message from server: STATUS
  @ DRIVER MODE: Message from server: POSDATA
  @ DRIVER MODE: Reading and sharing cell
  @ DRIVER MODE: Reading and sharing positions
  @ DRIVER MODE: Received positions

     Self-consistent Calculation

     iteration #  1     ecut=    29.40 Ry     beta= 0.05
     Davidson diagonalization with overlap
     c_bands:  1 eigenvalues not converged
     c_bands:  2 eigenvalues not converged
     c_bands:  1 eigenvalues not converged
     c_bands:  3 eigenvalues not converged
     c_bands:  1 eigenvalues not converged
     c_bands:  2 eigenvalues not converged
     c_bands:  2 eigenvalues not converged
     c_bands:  2 eigenvalues not converged
     ethr =  1.00E-05,  avg # of iterations = 19.2

[...]

     total energy              =   -2599.37061739 Ry
     estimated scf accuracy    <    3763.60477997 Ry

[...]

     iteration #  3     ecut=    29.40 Ry     beta= 0.05
     Davidson diagonalization with overlap
     ethr =  1.00E-02,  avg # of iterations = 14.7

[...]

     iteration # 40     ecut=    29.40 Ry     beta= 0.05
     Davidson diagonalization with overlap
     c_bands:  1 eigenvalues not converged
     c_bands:  1 eigenvalues not converged
     c_bands:  1 eigenvalues not converged
     ethr =  1.43E-06,  avg # of iterations = 17.8

[...]

     total energy              =   -2939.12537078 Ry
     estimated scf accuracy    <       0.00000009 Ry

     iteration # 62     ecut=    29.40 Ry     beta= 0.05
     Davidson diagonalization with overlap
     ethr =  2.25E-11,  avg # of iterations = 13.0

     negative rho (up, down):  1.617E-02 0.000E+00

     Adding external electric field

     Computed dipole along edir(3) :
        Dipole                0.9104 Ry au,          2.3141 Debye
        Dipole field          0.0017 Ry au,

        Potential amp.       -0.1593 Ry
        Total length         46.3494 bohr

     End of self-consistent calculation

          k = 0.0000 0.0000 0.0000 ( 18029 PWs)   bands (ev):

   -55.7761 -55.7701 -55.7421 -55.7341 -55.6836 -55.6353 -55.5967 -55.5628
   -55.5557 -55.5220 -55.5197 -55.4466 -54.9568 -54.8081 -54.7562 -54.7222
   -32.3189 -32.2601 -32.1748 -32.0962 -32.0684 -32.0565 -32.0476 -32.0215
   -32.0060 -31.9703 -31.9404 -31.9285 -31.9220 -31.9051 -31.8830 -31.8819
   -31.8789 -31.8784 -31.8654 -31.8353 -31.8333 -31.8218 -31.8005 -31.7921
   -31.7891 -31.7825 -31.7814 -31.7557 -31.7411 -31.7365 -31.7258 -31.7108
   -31.7070 -31.6695 -31.6362 -31.5640 -31.4931 -31.3387 -31.1680 -31.1632
   -31.1060 -31.0751 -31.0671 -31.0527 -30.9802 -30.9142 -30.8937 -30.7824
   -19.4385 -16.5175 -16.2527 -15.9674 -15.9156 -15.8412 -15.7480 -15.6250
   -15.5294 -15.4107 -15.3719 -15.3158 -15.3084 -15.2641 -15.2370 -15.2330
   -15.2066 -15.1986 -15.1345 -15.1270 -15.0763 -15.0646 -15.0168 -14.9815
   -14.9702 -14.9151 -14.8464 -14.8048 -14.6857 -14.1602 -13.2577 -13.1412
   -12.3012  -7.2587  -4.9319  -4.7746  -3.8998  -3.7574  -3.7028  -3.6854
    -3.6408  -3.4403  -3.3516  -3.2842  -3.0444  -2.9530  -2.9285  -2.9178
    -2.8687  -2.7112  -2.6644  -2.6043  -2.5890  -2.5625  -2.5406  -2.5324
    -2.4968  -2.4869  -2.4550  -2.4250  -2.3266  -2.2132  -2.1839  -2.1059
    -2.0909  -2.0750  -2.0448  -2.0349  -2.0253  -2.0154  -1.9968  -1.9595
    -1.8940  -1.8519  -1.7868  -1.7026  -1.5611  -1.5392  -1.4611  -1.3855
    -1.3055  -1.2631  -1.2411  -1.2129  -1.1732  -1.0930  -1.0674  -0.9213
    -0.8242  -0.7911  -0.7739  -0.7314  -0.6956  -0.5933  -0.5716  -0.5426
    -0.5334  -0.5058  -0.4318  -0.3754  -0.2437  -0.2130  -0.2089  -0.1712
    -0.1006  -0.0468   0.0069   0.0559   0.0636   0.0995   0.1596   0.1847
     0.1895   0.2324   0.2746   0.3496   0.3757   0.4498   0.4538   0.5180
     0.5617   0.6436   0.7510   0.8731   1.0166   1.1537   1.1980   1.2671
     1.3625   1.4588   1.8374   1.8830   2.1419   3.3373   3.4446   3.4680
     3.4802   3.5869   3.7955   3.8179   3.8670   3.8873   3.8954

[...]

          k = 0.0380-0.0419 0.0000 ( 17876 PWs)   bands (ev):

[...]

          k =-0.0760-0.0000 0.0000 ( 17886 PWs)   bands (ev):

[...]

          k =-0.0760-0.0839 0.0000 ( 17948 PWs)   bands (ev):

   -55.7591 -55.7589 -55.7527 -55.7512 -55.6764 -55.6425 -55.5797 -55.5793
   -55.5391 -55.5387 -55.5152 -55.4509 -54.9555 -54.8093 -54.7392 -54.7391
   -32.1225 -32.1189 -32.0754 -32.0753 -32.0539 -32.0537 -32.0199 -32.0051
   -31.9989 -31.9900 -31.9213 -31.9161 -31.9053 -31.8990 -31.8824 -31.8801
   -31.8796 -31.8784 -31.8780 -31.8725 -31.8542 -31.8516 -31.8503 -31.8138
   -31.7844 -31.7829 -31.7811 -31.7686 -31.7684 -31.7591 -31.7581 -31.7563
   -31.7550 -31.7365 -31.7119 -31.6609 -31.4403 -31.3209 -31.1699 -31.1597
   -31.0846 -31.0655 -31.0653 -30.9761 -30.9759 -30.9370 -30.9370 -30.9171
   -19.4364 -15.9180 -15.9118 -15.7505 -15.7160 -15.6502 -15.6414 -15.5736
   -15.5066 -15.4618 -15.4568 -15.3417 -15.3395 -15.3251 -15.3033 -15.2492
   -15.2329 -15.2314 -15.2282 -15.2204 -15.2084 -15.1809 -15.1504 -15.0998
   -15.0948 -15.0737 -15.0637 -14.9420 -14.5320 -14.4705 -13.2431 -13.2429
   -12.3037  -7.2455  -4.9339  -4.7717  -3.6270  -3.2072  -3.1908  -3.0030
    -2.9196  -2.9084  -2.8932  -2.7410  -2.7290  -2.7116  -2.6539  -2.6475
    -2.6373  -2.6007  -2.5847  -2.5607  -2.5197  -2.5148  -2.4667  -2.4638
    -2.4491  -2.4257  -2.4087  -2.4027  -2.3898  -2.3742  -2.3375  -2.2808
    -2.2429  -2.2158  -2.1874  -2.0908  -2.0303  -1.9944  -1.9275  -1.9189
    -1.8678  -1.8432  -1.8286  -1.7614  -1.6917  -1.6620  -1.5780  -1.4864
    -1.4682  -1.4527  -1.3340  -1.3201  -1.2452  -1.2217  -1.1378  -1.1207
    -1.0811  -0.9704  -0.9470  -0.9157  -0.8810  -0.8371  -0.7736  -0.7368
    -0.7348  -0.6860  -0.6418  -0.5857  -0.5245  -0.5126  -0.4973  -0.4885
    -0.4248  -0.3911  -0.3692  -0.2869  -0.2718  -0.1901  -0.0463  -0.0134
     0.1442   0.1933   0.3021   0.3295   0.4205   0.4422   0.5361   0.5393
     0.5725   0.7014   0.7201   0.7378   0.7538   0.7739   0.7977   0.9366
     1.6313   1.6315   1.7031   1.7031   2.0798   3.6703   3.7073   3.7576
     3.7795   3.8835   3.8885   3.8911   3.8989   4.0204   4.0239

     the Fermi energy is     3.3509 ev

!    total energy              =   -2939.12541578 Ry
     estimated scf accuracy    <       0.00000007 Ry
     smearing contrib. (-TS)   =      -0.02052585 Ry
     internal energy E=F+TS    =   -2939.10488993 Ry

     The total energy is F=E-TS. E is the sum of the following terms:
     one-electron contribution =  -24212.92841856 Ry
     hartree contribution      =   12195.20385051 Ry
     xc contribution           =    -485.19556947 Ry
     ewald contribution        =    9563.81368336 Ry
     electric field correction =       0.00156423 Ry

     convergence has been achieved in  62 iterations

     Forces acting on atoms (cartesian axes, Ry/au):

     atom    1 type  1   force =     0.00011493   -0.00019805    0.09587765
     atom    2 type  1   force =     0.00005956   -0.00061729   -0.17549403
     atom    3 type  2   force =     0.00017550   -0.00019609   -0.02305717
     atom    4 type  2   force =     0.00003976   -0.00128512    0.05262501
     atom    5 type  2   force =    -0.00976721   -0.00031366    0.00253137
     atom    6 type  2   force =     0.01165074    0.00022701    0.00290953
     atom    7 type  1   force =     0.00088617    0.00001666   -0.00991401
     atom    8 type  1   force =    -0.00000135    0.00532192    0.01818012
     atom    9 type  2   force =    -0.00001671   -0.00028909   -0.00011060
     atom   10 type  2   force =    -0.00253642    0.00216140   -0.01349161
     atom   11 type  2   force =    -0.00097573    0.00010960    0.00017588
     atom   12 type  2   force =     0.00038908   -0.00025574    0.00048931
     atom   13 type  1   force =     0.00011221   -0.00008459    0.00053714
     atom   14 type  1   force =    -0.00003997   -0.00016868   -0.00014853
     atom   15 type  2   force =    -0.00060142    0.00021920    0.00044168
     atom   16 type  2   force =    -0.00043580    0.00007643    0.00020165
     atom   17 type  2   force =    -0.00016707   -0.00008652   -0.00033848
     atom   18 type  2   force =     0.00030076    0.00022267    0.00005320
     atom   19 type  1   force =    -0.00060083   -0.00057931    0.00071372
     atom   20 type  1   force =    -0.00026255    0.00036117   -0.00072214
     atom   21 type  2   force =     0.00007378   -0.00006275    0.10323128
     atom   22 type  2   force =     0.00008299   -0.00012655   -0.00047658
     atom   23 type  2   force =    -0.07158580   -0.00019064   -0.02754803
     atom   24 type  2   force =     0.07156093    0.00031017   -0.02760862
     atom   25 type  1   force =     0.00013103   -0.00029625    0.09519922
     atom   26 type  1   force =     0.00009381   -0.00046563   -0.17563589
     atom   27 type  2   force =     0.00015787   -0.00011811   -0.02180100
     atom   28 type  2   force =     0.00008198   -0.00106074    0.05250216
     atom   29 type  2   force =    -0.01014603    0.00023514    0.00290915
     atom   30 type  2   force =     0.01196265    0.00052154    0.00328291
     atom   31 type  1   force =     0.00089048    0.00415895   -0.01178380
     atom   32 type  1   force =     0.00012121   -0.00634014    0.01831193
     atom   33 type  2   force =     0.00016304    0.00041656   -0.00011007
     atom   34 type  2   force =    -0.00308410   -0.00009968   -0.00867488
     atom   35 type  2   force =    -0.00021551    0.00006684    0.00001833
     atom   36 type  2   force =    -0.00003152    0.00028137   -0.00005657
     atom   37 type  1   force =     0.00045565   -0.00094705    0.00021157
     atom   38 type  1   force =    -0.00032271    0.00008803    0.00034709
     atom   39 type  2   force =     0.00011135   -0.00024703    0.00053281
     atom   40 type  2   force =    -0.00008683    0.00026502    0.00016971
     atom   41 type  2   force =     0.00004296   -0.00014689   -0.00019781
     atom   42 type  2   force =    -0.00046383    0.00013801   -0.00043408
     atom   43 type  1   force =     0.00021688    0.00051088    0.00011202
     atom   44 type  1   force =    -0.00018391   -0.00073214   -0.00098311
     atom   45 type  2   force =     0.00008088   -0.00006144    0.10318256
     atom   46 type  2   force =    -0.07159718   -0.00009942   -0.02754003
     atom   47 type  2   force =     0.07158037    0.00025397   -0.02760707
     atom   48 type  3   force =     0.00045601   -0.00158854    0.00172853
     atom   49 type  4   force =    -0.00195909   -0.00317396    0.00328239
     atom   50 type  5   force =     0.00066836    0.00074485   -0.00049188
     atom   51 type  5   force =     0.00153750    0.00362336   -0.00449770
     atom   52 type  5   force =     0.00009156   -0.00107040   -0.00048594
     atom   53 type  3   force =     0.00079158    0.00057074   -0.00054829

     Total force =     0.364882     Total SCF correction =     0.000868
  @ DRIVER MODE: Message from server: STATUS
  @ DRIVER MODE: Message from server: GETFORCE
  @ DRIVER MODE: Returning v,forces,stress,ensemble

     Writing output data file ./calc.save/
  @ DRIVER MODE: Message from server: EXIT
  @ DRIVE MODE: Exiting

     General routines

     Parallel routines

   This run was terminated on:  19:50:13   2Aug2021

   JOB DONE.