     Program PWSCF v.6.7GPU starts on 24Sep2021 at 10: 8:29

     R & G space division:  proc/nbgrp/npool/nimage =       8
     Reading input from /storage/home/hcoda1/3/ntian30/research/carbon/CxH_vib/H2O_calc/ads_slab/CH2NNHHHHO_a/out_0053/pw.inp
Warning: card &CELL ignored
Warning: card   CELL_DYNAMICS='IPI', ignored
Warning: card / ignored

     Current dimensions of program PWSCF are:
     Max number of different atomic species (ntypx) = 10
     Max number of k-points (npk) =  40000
     Max angular momentum in pseudopotentials (lmaxx) =  3
     Presently no symmetry can be used with electric field

     Message from routine cell_base_init:
     DEPRECATED: use true lattice parameter, not A to a.u. conversion factor

     IMPORTANT: XC functional enforced from input :
     Exchange-correlation= BEEF-VDW
                           (   1   4  43  14   2   0   0)
     Any further DFT definition will be discarded
     Please, verify this is what you really want

  @ DRIVER MODE: Connecting to
 qe_1139763_2947316.sched-torque.pace.gatech.edu9cbot_29_scratch
  using UNIX socket
  @ DRIVER MODE: Message from server: STATUS
  @ DRIVER MODE: Message from server: INIT
  @ DRIVER MODE: Receiving replica           0          -1
  @ DRIVER MODE: Receiving encoded integer          25
  @ DRIVER MODE:  SCF:  T  FORCE:  T  STRESS:  F  VC:  F  ENSEMBLE:  F
  @ DRIVER MODE:  SCF:  T  FORCE:  T  STRESS:  F  VC:  F  ENSEMBLE:  F

     Using Slab Decomposition

     bravais-lattice index     =            0
     lattice parameter (alat)  =       1.8897  a.u.
     unit-cell volume          =    6658.9804 (a.u.)^3
     number of atoms/cell      =           57
     number of atomic types    =            5
     number of electrons       =       404.00
     number of Kohn-Sham states=          212
     kinetic-energy cutoff     =      29.3995  Ry
     charge density cutoff     =     293.9946  Ry
     scf convergence threshold =      7.3E-08
     mixing beta               =       0.0500
     number of iterations used =            8  plain     mixing
     Exchange-correlation= BEEF-VDW
                           (   1   4  43  14   2   0   0)

     celldm(1)=   1.889726  celldm(2)=   0.000000  celldm(3)=   0.000000
     celldm(4)=   0.000000  celldm(5)=   0.000000  celldm(6)=   0.000000

     crystal axes: (cart. coord. in units of alat)
               a(1) = (   6.579727   0.000000   0.000000 )
               a(2) = (  -0.000775   5.961596   0.000000 )
               a(3) = (   0.000000   0.000000  25.155947 )

     reciprocal axes: (cart. coord. in units 2 pi/alat)
               b(1) = (  0.151982  0.000020  0.000000 )
               b(2) = (  0.000000  0.167740  0.000000 )
               b(3) = (  0.000000  0.000000  0.039752 )

     PseudoPot. # 1 for Ti read from file:
     /storage/coda1/p-amedford6/0/shared/rich_project_chbe-medford/medford-share/data/pseudos_module/espresso/nninc/pbe/van/Ti.UPF
     MD5 check sum: 8e4df49b7f0d34bbd5052bf3f5ea0213
     Pseudo is Ultrasoft, Zval = 12.0
     Generated by new atomic code, or converted to UPF format
     Using radial grid of  851 points,  6 beta functions with:
                l(1) =   0
                l(2) =   0
                l(3) =   1
                l(4) =   1
                l(5) =   2
                l(6) =   2
     Q(r) pseudized with  8 coefficients,  rinner =    1.000   1.000   1.000
                                                       1.000   1.000

     PseudoPot. # 2 for O  read from file:
     /storage/coda1/p-amedford6/0/shared/rich_project_chbe-medford/medford-share/data/pseudos_module/espresso/nninc/pbe/van/O.UPF
     MD5 check sum: 78c19812648e8988a0fe644b0f25305e
     Pseudo is Ultrasoft, Zval =  6.0
     Generated by new atomic code, or converted to UPF format
     Using radial grid of  737 points,  4 beta functions with:
                l(1) =   0
                l(2) =   0
                l(3) =   1
                l(4) =   1
     Q(r) pseudized with  8 coefficients,  rinner =    0.800   0.800   0.800

     PseudoPot. # 3 for N  read from file:
     /storage/coda1/p-amedford6/0/shared/rich_project_chbe-medford/medford-share/data/pseudos_module/espresso/nninc/pbe/van/N.UPF
     MD5 check sum: 90d10febe142ad51ac9d5be1deb811c4
     Pseudo is Ultrasoft, Zval =  5.0
     Generated by new atomic code, or converted to UPF format
     Using radial grid of  729 points,  4 beta functions with:
                l(1) =   0
                l(2) =   0
                l(3) =   1
                l(4) =   1
     Q(r) pseudized with  8 coefficients,  rinner =    0.800   0.800   0.800

     PseudoPot. # 4 for C  read from file:
     /storage/coda1/p-amedford6/0/shared/rich_project_chbe-medford/medford-share/data/pseudos_module/espresso/nninc/pbe/van/C.UPF
     MD5 check sum: 1a69bf6b8db32088f5b2163dbdb77a27
     Pseudo is Ultrasoft, Zval =  4.0
     Generated by new atomic code, or converted to UPF format
     Using radial grid of  721 points,  4 beta functions with:
                l(1) =   0
                l(2) =   0
                l(3) =   1
                l(4) =   1
     Q(r) pseudized with  8 coefficients,  rinner =    0.800   0.800   0.800

     PseudoPot. # 5 for H  read from file:
     /storage/coda1/p-amedford6/0/shared/rich_project_chbe-medford/medford-share/data/pseudos_module/espresso/nninc/pbe/van/H.UPF
     MD5 check sum: b5ee9d7bfd3a09ee7748110bda690ff7
     Pseudo is Ultrasoft, Zval =  1.0
     Generated by new atomic code, or converted to UPF format
     Using radial grid of  615 points,  1 beta functions with:
                l(1) =   0
     Q(r) pseudized with  8 coefficients,  rinner =    0.800

     atomic species   valence    mass     pseudopotential
        Ti1           12.00    47.86700     Ti( 1.00)
        O1             6.00    15.99900     O ( 1.00)
        N1             5.00    14.00700     N ( 1.00)
        C1             4.00    12.01100     C ( 1.00)
        H1             1.00     1.00800     H ( 1.00)

     No symmetry found

   Cartesian axes

     site n.     atom                  positions (alat units)
         1           Ti1 tau(   1) = (   0.0004258   2.9801865   6.0000000  )
         2           Ti1 tau(   2) = (   3.2906075   1.4906267   6.0002472  )
         3           O1  tau(   3) = (   0.0006271   0.0005054   7.9858123  )
         4           O1  tau(   4) = (   3.2906025   0.0005020   7.3038282  )
         5           O1  tau(   5) = (   4.5942328   1.4918067   9.2879030  )
         6           O1  tau(   6) = (   1.9868534   1.4903216   9.2879459  )
         7           Ti1 tau(   7) = (   3.2907910   2.8959150   9.1758416  )
         8           Ti1 tau(   8) = (   0.0015273   1.4827037   9.2680791  )
         9           O1  tau(   9) = (   3.3027076   5.9092304  11.3732431  )
        10           O1  tau(  10) = (   0.0116148   5.9584955  10.6183126  )
        11           O1  tau(  11) = (   1.2953868   1.4751764  12.6403503  )
        12           O1  tau(  12) = (   5.3168701   1.4807623  12.6366210  )
        13           Ti1 tau(  13) = (   0.0172323   2.9996225  12.5311828  )
        14           Ti1 tau(  14) = (   3.3257086   1.2755711  12.7138078  )
        15           O1  tau(  15) = (   6.5733368   0.1082846  14.6600873  )
        16           O1  tau(  16) = (   3.3238075   0.0838359  14.0473399  )
        17           O1  tau(  17) = (   4.5575128   1.5393005  16.2317518  )
        18           O1  tau(  18) = (   2.0302387   1.4963625  16.2670071  )
        19           Ti1 tau(  19) = (   3.2366114   2.9448900  15.6849520  )
        20           Ti1 tau(  20) = (   6.5300729   1.3987400  16.1165465  )
        21           O1  tau(  21) = (   3.2904802   0.0005063   4.7018136  )
        22           O1  tau(  22) = (   0.0022030   5.7760056  17.1861099  )
        23           O1  tau(  23) = (   1.3043587   1.4918075   6.0039043  )
        24           O1  tau(  24) = (   5.2767064   1.4903225   6.0039473  )
        25           Ti1 tau(  25) = (   0.0000382   5.9609847   6.0000000  )
        26           Ti1 tau(  26) = (   3.2902200   4.4714249   6.0002472  )
        27           O1  tau(  27) = (   0.0002396   2.9813036   7.9858123  )
        28           O1  tau(  28) = (   3.2902150   2.9813002   7.3038282  )
        29           O1  tau(  29) = (   4.5938453   4.4726049   9.2879030  )
        30           O1  tau(  30) = (   1.9864658   4.4711199   9.2879459  )
        31           Ti1 tau(  31) = (   3.2891106   5.8743827   9.1763621  )
        32           Ti1 tau(  32) = (   0.0006254   4.4649316   9.2693709  )
        33           O1  tau(  33) = (   3.3012885   2.9833904  11.3212188  )
        34           O1  tau(  34) = (   0.0092240   2.9805883  10.6323155  )
        35           O1  tau(  35) = (   1.2895456   4.4501540  12.7025460  )
        36           O1  tau(  36) = (   5.3143371   4.4382646  12.6927937  )
        37           Ti1 tau(  37) = (   0.0343555   0.0433052  12.5107970  )
        38           Ti1 tau(  38) = (   3.3217552   4.3482123  12.4486840  )
        39           O1  tau(  39) = (   0.0141661   2.9064423  14.8877341  )
        40           O1  tau(  40) = (   3.2920978   2.9424077  13.9176102  )
        41           O1  tau(  41) = (   4.5506947   4.3398720  16.1100615  )
        42           O1  tau(  42) = (   2.0210198   4.4131678  16.0160425  )
        43           Ti1 tau(  43) = (   3.3132698   5.9358869  16.2610495  )
        44           Ti1 tau(  44) = (   0.0826266   4.5979890  15.7080129  )
        45           O1  tau(  45) = (   3.2900926   2.9813045   4.7018136  )
        46           O1  tau(  46) = (   1.3039711   4.4726057   6.0039043  )
        47           O1  tau(  47) = (   5.2763189   4.4711207   6.0039473  )
        48           N1  tau(  48) = (   6.5643472   2.7424576  18.0625816  )
        49           C1  tau(  49) = (   0.8744728   2.5686873  19.0232366  )
        50           H1  tau(  50) = (   0.8543601   3.1364980  19.9465443  )
        51           H1  tau(  51) = (   1.6733950   1.8773151  18.8242213  )
        52           N1  tau(  52) = (   5.5366205   3.6779994  18.4753393  )
        53           H1  tau(  53) = (   5.9486539   4.6347284  18.5635686  )
        54           H1  tau(  54) = (   4.8775701   3.8234783  17.6645784  )
        55           H1  tau(  55) = (   5.0440791   3.3775604  19.3232938  )
        56           O1  tau(  56) = (   3.4091604   5.6710612  18.1444331  )
        57           H1  tau(  57) = (   3.1368125   0.4262250  18.7404830  )

     number of k points=    10  Fermi-Dirac smearing, width (Ry)=  0.0073
                       cart. coord. in units 2pi/alat
        k(    1) = (   0.0000000   0.0000000   0.0000000), wk =   0.1250000
        k(    2) = (   0.0000000   0.0419351   0.0000000), wk =   0.2500000
        k(    3) = (   0.0000000  -0.0838702   0.0000000), wk =   0.1250000
        k(    4) = (   0.0379955   0.0000049   0.0000000), wk =   0.2500000
        k(    5) = (   0.0379955   0.0419400   0.0000000), wk =   0.2500000
        k(    6) = (   0.0379955  -0.0838652   0.0000000), wk =   0.2500000
        k(    7) = (   0.0379955  -0.0419301   0.0000000), wk =   0.2500000
        k(    8) = (  -0.0759910  -0.0000099   0.0000000), wk =   0.1250000
        k(    9) = (  -0.0759910   0.0419252   0.0000000), wk =   0.2500000
        k(   10) = (  -0.0759910  -0.0838800   0.0000000), wk =   0.1250000

     Initial potential from superposition of free atoms

     starting charge  387.99913, renormalised to  404.00000

     negative rho (up, down):  1.546E-02 0.000E+00

     %%%%%%%%%%%%%%%%%%%%%%%%%%%%%%%%%%%%%%%%%%%%%%%%%%%%%%%%%%%%%%%%%%%%%%%%
     %                                                                      %
     % You are using vdW-DF, which was implemented by the Thonhauser group. %
     % Please cite the following two papers that made this development      %
     % possible and the two reviews that describe the various versions:     %
     %                                                                      %
     %   T. Thonhauser et al., PRL 115, 136402 (2015).                      %
     %   T. Thonhauser et al., PRB 76, 125112 (2007).                       %
     %   K. Berland et al., Rep. Prog. Phys. 78, 066501 (2015).             %
     %   D.C. Langreth et al., J. Phys.: Condens. Matter 21, 084203 (2009). %
     %                                                                      %
     %                                                                      %
     % If you are calculating the stress with vdW-DF, please also cite:     %
     %                                                                      %
     %   R. Sabatini et al., J. Phys.: Condens. Matter 24, 424209 (2012).   %
     %                                                                      %
     %%%%%%%%%%%%%%%%%%%%%%%%%%%%%%%%%%%%%%%%%%%%%%%%%%%%%%%%%%%%%%%%%%%%%%%%

     Adding external electric field

     Computed dipole along edir(3) :
        Dipole              -13.5815 Ry au,        -34.5207 Debye
        Dipole field         -0.0256 Ry au,

        Potential amp.        2.3759 Ry
        Total length         46.3494 bohr

     Starting wfcs are  306 atomic wfcs
  @ DRIVER MODE: Message from server: STATUS
  @ DRIVER MODE: Message from server: POSDATA
  @ DRIVER MODE: Reading and sharing cell
  @ DRIVER MODE: Reading and sharing positions
  @ DRIVER MODE: Received positions

     Self-consistent Calculation

     iteration #  1     ecut=    29.40 Ry     beta= 0.05
     Davidson diagonalization with overlap
     c_bands:  5 eigenvalues not converged
     c_bands:  1 eigenvalues not converged
     c_bands:  1 eigenvalues not converged
     c_bands:  1 eigenvalues not converged
     c_bands:  3 eigenvalues not converged
     c_bands:  4 eigenvalues not converged
     c_bands:  4 eigenvalues not converged
     c_bands:  2 eigenvalues not converged
     ethr =  1.00E-05,  avg # of iterations = 29.7

[...]

     total energy              =   -2247.87299137 Ry
     estimated scf accuracy    <    8242.10365611 Ry

     iteration #  2     ecut=    29.40 Ry     beta= 0.05
     Davidson diagonalization with overlap
     ethr =  1.00E-02,  avg # of iterations = 25.2

[...]

     iteration # 55     ecut=    29.40 Ry     beta= 0.05
     Davidson diagonalization with overlap
     c_bands:  1 eigenvalues not converged
     ethr =  2.72E-07,  avg # of iterations = 12.8

[...]

     total energy              =   -2975.12432074 Ry
     estimated scf accuracy    <       0.00000010 Ry

     iteration # 78     ecut=    29.40 Ry     beta= 0.05
     Davidson diagonalization with overlap
     ethr =  2.55E-11,  avg # of iterations = 10.4

     negative rho (up, down):  1.376E-02 0.000E+00

     Adding external electric field

     Computed dipole along edir(3) :
        Dipole                1.3781 Ry au,          3.5029 Debye
        Dipole field          0.0026 Ry au,

        Potential amp.       -0.2411 Ry
        Total length         46.3494 bohr

     End of self-consistent calculation

          k = 0.0000 0.0000 0.0000 ( 18029 PWs)   bands (ev):

   -55.3804 -55.2431 -55.2091 -55.1177 -55.0824 -55.0767 -55.0726 -55.0386
   -55.0322 -54.9840 -54.9573 -54.9193 -54.8663 -54.7390 -54.2236 -54.1896
   -31.7286 -31.7105 -31.6097 -31.5995 -31.5851 -31.5744 -31.5340 -31.5253
   -31.5158 -31.4891 -31.4464 -31.4411 -31.3957 -31.3678 -31.3663 -31.3564
   -31.3505 -31.3093 -31.3005 -31.2983 -31.2816 -31.2711 -31.2665 -31.2613
   -31.2593 -31.2203 -31.2164 -31.2161 -31.2132 -31.1998 -31.1902 -31.1853
   -31.1780 -31.1458 -31.1382 -31.1061 -31.0989 -31.0841 -31.0765 -31.0724
   -31.0002 -30.9066 -30.6300 -30.5427 -30.5203 -30.4473 -30.3609 -30.2492
   -19.1860 -16.3146 -15.9213 -15.7651 -15.5838 -15.4457 -15.4053 -15.1821
   -15.1260 -15.0397 -15.0183 -14.9003 -14.7846 -14.7841 -14.7630 -14.7567
   -14.7412 -14.6959 -14.6900 -14.6869 -14.6689 -14.6475 -14.6267 -14.6166
   -14.5791 -14.5372 -14.3869 -14.3656 -14.3469 -14.3038 -14.1649 -14.0002
   -12.7225 -12.6060  -9.1877  -7.6887  -6.8953  -6.1320  -4.3247  -3.6238
    -3.2701  -3.1725  -3.1499  -3.1393  -3.0066  -2.8357  -2.6410  -2.5791
    -2.5165  -2.4018  -2.3735  -2.2772  -2.2549  -2.2143  -2.1585  -2.1361
    -2.1077  -2.0541  -2.0407  -2.0324  -1.9420  -1.9223  -1.8215  -1.7990
    -1.7661  -1.7070  -1.6809  -1.6142  -1.5820  -1.5599  -1.5583  -1.5500
    -1.5270  -1.5130  -1.4911  -1.4387  -1.4083  -1.3444  -1.2800  -1.2037
    -1.1298  -0.9086  -0.8601  -0.8400  -0.7872  -0.7487  -0.6871  -0.6713
    -0.6411  -0.6300  -0.5643  -0.4511  -0.4034  -0.3611  -0.3056  -0.2811
    -0.2511  -0.1441  -0.0677  -0.0488  -0.0031   0.0360   0.0616   0.1257
     0.1596   0.2032   0.2675   0.2857   0.3637   0.3880   0.4266   0.4700
     0.5134   0.5769   0.6211   0.6712   0.6787   0.7084   0.7257   0.7572
     0.8430   0.8605   0.9009   0.9359   0.9970   1.0510   1.0755   1.2492
     1.3733   1.4090   1.4782   1.7450   1.8026   1.8190   1.9934   2.3709
     2.4165   3.8431   3.9835   3.9953   4.0021   4.0711   4.1248   4.1471
     4.3293   4.3727   4.4907   4.5239

[...]

          k = 0.0380-0.0419 0.0000 ( 17876 PWs)   bands (ev):

[...]

          k =-0.0760-0.0000 0.0000 ( 17886 PWs)   bands (ev):

[...]

          k =-0.0760-0.0839 0.0000 ( 17948 PWs)   bands (ev):

   -55.3797 -55.2262 -55.2259 -55.1031 -55.0968 -55.0772 -55.0558 -55.0550
   -55.0254 -54.9909 -54.9560 -54.9137 -54.8719 -54.7401 -54.2069 -54.2061
   -31.6500 -31.5899 -31.5878 -31.5440 -31.5438 -31.5197 -31.5193 -31.4984
   -31.4372 -31.4119 -31.3911 -31.3788 -31.3755 -31.3723 -31.3643 -31.3461
   -31.3455 -31.3415 -31.3380 -31.3282 -31.3245 -31.3058 -31.2985 -31.2777
   -31.2649 -31.2575 -31.2510 -31.2415 -31.2326 -31.2307 -31.2269 -31.2212
   -31.2122 -31.2061 -31.1799 -31.1437 -31.1158 -31.1032 -31.0916 -31.0788
   -31.0019 -30.9787 -30.5332 -30.5327 -30.4434 -30.4422 -30.4044 -30.4038
   -19.1822 -16.3012 -15.4527 -15.4059 -15.2191 -15.2158 -15.1894 -15.1270
   -15.0880 -15.0368 -15.0206 -14.9848 -14.9462 -14.9299 -14.9049 -14.8337
   -14.7901 -14.7637 -14.7524 -14.7160 -14.7004 -14.6995 -14.6680 -14.6456
   -14.6351 -14.5694 -14.5570 -14.4905 -14.4332 -14.4086 -14.2776 -14.2380
   -12.7080 -12.7076  -9.1754  -7.7000  -6.8807  -6.1408  -4.3540  -3.6137
    -2.6429  -2.6393  -2.4408  -2.4075  -2.3421  -2.2713  -2.2379  -2.2177
    -2.1706  -2.1634  -2.1239  -2.1017  -2.0649  -2.0371  -2.0293  -2.0120
    -1.9954  -1.9727  -1.9510  -1.9337  -1.9280  -1.8983  -1.8771  -1.8668
    -1.8243  -1.8168  -1.7924  -1.7741  -1.7400  -1.6781  -1.6154  -1.4953
    -1.4570  -1.4289  -1.4086  -1.3939  -1.3658  -1.3298  -1.3143  -1.3016
    -1.2706  -1.2575  -1.1510  -1.0006  -0.9902  -0.8946  -0.8612  -0.8566
    -0.7499  -0.7181  -0.6837  -0.6606  -0.6124  -0.5669  -0.4645  -0.4529
    -0.4197  -0.3496  -0.2481  -0.2361  -0.2207  -0.1920  -0.1685  -0.1624
    -0.1051  -0.0661  -0.0287   0.0201   0.0423   0.0649   0.0960   0.1876
     0.2207   0.3344   0.4566   0.4944   0.5173   0.5511   0.6854   0.7292
     0.7837   0.8548   0.9209   0.9411   1.0441   1.0625   1.0941   1.1491
     1.2204   1.2698   1.2858   1.3141   1.3268   2.1637   2.1717   2.2367
     2.2370   3.7985   4.0080   4.2587   4.3312   4.3522   4.3817   4.4042
     4.4362   4.4631   4.5055   4.5204

     the Fermi energy is     3.8789 ev

!    total energy              =   -2975.12433307 Ry
     estimated scf accuracy    <       0.00000006 Ry
     smearing contrib. (-TS)   =      -0.03094945 Ry
     internal energy E=F+TS    =   -2975.09338362 Ry

     The total energy is F=E-TS. E is the sum of the following terms:
     one-electron contribution =  -23513.51756120 Ry
     hartree contribution      =   11855.09475424 Ry
     xc contribution           =    -494.85627312 Ry
     ewald contribution        =    9178.18211231 Ry
     electric field correction =       0.00358415 Ry

     convergence has been achieved in  78 iterations

     Forces acting on atoms (cartesian axes, Ry/au):

     atom    1 type  1   force =     0.00014028   -0.00021002    0.09450787
     atom    2 type  1   force =    -0.00007512    0.00039535   -0.17564738
     atom    3 type  2   force =     0.00003388   -0.00002856   -0.02143355
     atom    4 type  2   force =     0.00000372   -0.00223511    0.05510167
     atom    5 type  2   force =    -0.00783070   -0.00314188    0.00367831
     atom    6 type  2   force =     0.00955190   -0.00256913    0.00357047
     atom    7 type  1   force =     0.00003061   -0.00298550    0.00578914
     atom    8 type  1   force =    -0.00023203    0.00257396    0.00565372
     atom    9 type  2   force =    -0.00035328   -0.00029831   -0.00002900
     atom   10 type  2   force =    -0.00116145   -0.00257106   -0.00858573
     atom   11 type  2   force =    -0.00074700   -0.00069914   -0.00015338
     atom   12 type  2   force =     0.00035026   -0.00070324   -0.00007129
     atom   13 type  1   force =     0.00008928    0.00006311    0.00046584
     atom   14 type  1   force =    -0.00015751   -0.00048138    0.00032137
     atom   15 type  2   force =     0.00012769   -0.00041393    0.00007893
     atom   16 type  2   force =     0.00006394   -0.00063990   -0.00074361
     atom   17 type  2   force =     0.00025988    0.00057185   -0.00038622
     atom   18 type  2   force =    -0.00056852    0.00050191   -0.00051935
     atom   19 type  1   force =     0.00031854    0.00036701   -0.00013631
     atom   20 type  1   force =     0.00016186   -0.00032584   -0.00014038
     atom   21 type  2   force =     0.00005423    0.00002562    0.10329647
     atom   22 type  2   force =    -0.00002857    0.00082456   -0.00049463
     atom   23 type  2   force =    -0.07177349   -0.00020121   -0.02724185
     atom   24 type  2   force =     0.07160950    0.00024009   -0.02730565
     atom   25 type  1   force =     0.00006668   -0.00033744    0.09389422
     atom   26 type  1   force =    -0.00017572   -0.00122893   -0.17592124
     atom   27 type  2   force =     0.00013671   -0.00024378   -0.02015898
     atom   28 type  2   force =     0.00003625   -0.00056009    0.05062584
     atom   29 type  2   force =    -0.00678067    0.00147628    0.00204216
     atom   30 type  2   force =     0.00847572    0.00183221    0.00195550
     atom   31 type  1   force =     0.00015022    0.00700311   -0.00366597
     atom   32 type  1   force =    -0.00027629   -0.00257769    0.00512241
     atom   33 type  2   force =    -0.00000511    0.00032455   -0.00016389
     atom   34 type  2   force =    -0.00012125    0.00279229   -0.00831669
     atom   35 type  2   force =     0.00023704    0.00066531   -0.00030280
     atom   36 type  2   force =    -0.00099254    0.00053956   -0.00044750
     atom   37 type  1   force =     0.00013464   -0.00041564    0.00013817
     atom   38 type  1   force =    -0.00015793   -0.00002955   -0.00005052
     atom   39 type  2   force =    -0.00008856    0.00000613    0.00013650
     atom   40 type  2   force =    -0.00047176    0.00013715   -0.00004032
     atom   41 type  2   force =     0.00015635   -0.00004065   -0.00056903
     atom   42 type  2   force =     0.00021866    0.00002707    0.00003829
     atom   43 type  1   force =     0.00006313    0.00115327   -0.00390532
     atom   44 type  1   force =    -0.00004335   -0.00051356   -0.00008473
     atom   45 type  2   force =     0.00001713   -0.00011138    0.10305750
     atom   46 type  2   force =    -0.07183812   -0.00004167   -0.02729943
     atom   47 type  2   force =     0.07167653    0.00035318   -0.02733902
     atom   48 type  3   force =     0.00001111    0.00032252   -0.00133460
     atom   49 type  4   force =     0.00049773    0.00004820    0.00025753
     atom   50 type  5   force =     0.00030465   -0.00035945   -0.00068795
     atom   51 type  5   force =    -0.00122584    0.00027398   -0.00034839
     atom   52 type  3   force =     0.00025931   -0.00015094   -0.00089794
     atom   53 type  5   force =    -0.00057954    0.00050397   -0.00051635
     atom   54 type  5   force =     0.00034113    0.00020019    0.00068155
     atom   55 type  5   force =     0.00027760    0.00012446    0.00026277
     atom   56 type  2   force =    -0.00282044    0.00981194    0.01279835
     atom   57 type  5   force =     0.00264864   -0.00904387   -0.00853561

     Total force =     0.363311     Total SCF correction =     0.000437
  @ DRIVER MODE: Message from server: STATUS
  @ DRIVER MODE: Message from server: GETFORCE
  @ DRIVER MODE: Returning v,forces,stress,ensemble

     Writing output data file ./calc.save/
  @ DRIVER MODE: Message from server: EXIT
  @ DRIVE MODE: Exiting

     General routines

     Parallel routines

   This run was terminated on:  10:37:37  24Sep2021

   JOB DONE.