     Program PWSCF v.7.0 starts on 16Aug2022 at 14:44: 6

     R & G space division:  proc/nbgrp/npool/nimage =       6

     Reading input from /storage/coda1/p-amedford6/0/ntian30/BEEF_carbon_assisted/slab/rutile_O_br_vacant/BEEF_carbon_assisted.log/pw.inp
Warning: card &CELL ignored
Warning: card   CELL_DYNAMICS='IPI', ignored
Warning: card / ignored

     Current dimensions of program PWSCF are:
     Max number of different atomic species (ntypx) = 10
     Max number of k-points (npk) =  40000
     Max angular momentum in pseudopotentials (lmaxx) =  4
     Presently no symmetry can be used with electric field

     Message from routine cell_base_init:
     DEPRECATED: use true lattice parameter, not A to a.u. conversion factor

     IMPORTANT: XC functional enforced from input :
     Exchange-correlation= BEEF-VDW
                           (   1   4  43  14   2   0   0)
     Any further DFT definition will be discarded
     Please, verify this is what you really want

  @ DRIVER MODE: Connecting to
 qe_1139763_4802525.sched-torque.pace.gatech.eduxozegnmj_scratch
  using UNIX socket
  @ DRIVER MODE: Message from server: STATUS
  @ DRIVER MODE: Message from server: INIT
  @ DRIVER MODE: Receiving replica           0          -1
  @ DRIVER MODE: Receiving parameter string
 lscf : 1, lforce : 1, lstress : 0, lmovecell : 0, lensemb : 0,

     Using Slab Decomposition

     bravais-lattice index     =            0
     lattice parameter (alat)  =       1.8897  a.u.
     unit-cell volume          =    6658.9804 (a.u.)^3
     number of atoms/cell      =           47
     number of atomic types    =            2
     number of electrons       =       378.00
     number of Kohn-Sham states=          199
     kinetic-energy cutoff     =      29.3995  Ry
     charge density cutoff     =     293.9946  Ry
     scf convergence threshold =      7.3E-08
     mixing beta               =       0.0500
     number of iterations used =            8  plain     mixing
     energy convergence thresh.=      1.0E-04
     force convergence thresh. =      1.0E-03
     Exchange-correlation= BEEF-VDW
                           (   1   4  43  14   2   0   0)
     nstep                     =           50

     celldm(1)=   1.889726  celldm(2)=   0.000000  celldm(3)=   0.000000
     celldm(4)=   0.000000  celldm(5)=   0.000000  celldm(6)=   0.000000

     crystal axes: (cart. coord. in units of alat)
               a(1) = (   6.579727   0.000000   0.000000 )
               a(2) = (  -0.000775   5.961596   0.000000 )
               a(3) = (   0.000000   0.000000  25.155947 )

     reciprocal axes: (cart. coord. in units 2 pi/alat)
               b(1) = (  0.151982  0.000020  0.000000 )
               b(2) = (  0.000000  0.167740  0.000000 )
               b(3) = (  0.000000  0.000000  0.039752 )

     PseudoPot. # 1 for Ti read from file:
     /storage/coda1/p-amedford6/0/shared/rich_project_chbe-medford/medford-share/data/pseudos_module/espresso/nninc/pbe/van/Ti.UPF
     MD5 check sum: 8e4df49b7f0d34bbd5052bf3f5ea0213
     Pseudo is Ultrasoft, Zval = 12.0
     Generated by new atomic code, or converted to UPF format
     Using radial grid of  851 points,  6 beta functions with:
                l(1) =   0
                l(2) =   0
                l(3) =   1
                l(4) =   1
                l(5) =   2
                l(6) =   2
     Q(r) pseudized with  8 coefficients,  rinner =    1.000   1.000   1.000
                                                       1.000   1.000

     PseudoPot. # 2 for O  read from file:
     /storage/coda1/p-amedford6/0/shared/rich_project_chbe-medford/medford-share/data/pseudos_module/espresso/nninc/pbe/van/O.UPF
     MD5 check sum: 78c19812648e8988a0fe644b0f25305e
     Pseudo is Ultrasoft, Zval =  6.0
     Generated by new atomic code, or converted to UPF format
     Using radial grid of  737 points,  4 beta functions with:
                l(1) =   0
                l(2) =   0
                l(3) =   1
                l(4) =   1
     Q(r) pseudized with  8 coefficients,  rinner =    0.800   0.800   0.800

     atomic species   valence    mass     pseudopotential
        Ti1           12.00    47.86700     Ti( 1.00)
        O1             6.00    15.99900     O ( 1.00)

     Starting magnetic structure
     atomic species   magnetization
        Ti1          0.083
        O1           0.167

     No symmetry found

   Cartesian axes

     site n.     atom                  positions (alat units)
         1           Ti1 tau(   1) = (   0.0004258   2.9801865   6.0000000  )
         2           Ti1 tau(   2) = (   3.2906075   1.4906267   6.0002472  )
         3           O1  tau(   3) = (   0.0006271   0.0005054   7.9858123  )
         4           O1  tau(   4) = (   3.2906025   0.0005020   7.3038282  )
         5           O1  tau(   5) = (   4.5942328   1.4918067   9.2879030  )
         6           O1  tau(   6) = (   1.9868534   1.4903216   9.2879459  )
         7           Ti1 tau(   7) = (   3.2895655   2.9803496   9.1561551  )
         8           Ti1 tau(   8) = (   6.5792279   1.4901203   9.2542590  )
         9           O1  tau(   9) = (   3.2908496   0.0003861  11.3974292  )
        10           O1  tau(  10) = (   0.0009741   0.0005107  10.6121890  )
        11           O1  tau(  11) = (   1.2851668   1.4970119  12.6717501  )
        12           O1  tau(  12) = (   5.2960956   1.4969944  12.6716611  )
        13           Ti1 tau(  13) = (   0.0014209   2.9817635  12.4865077  )
        14           Ti1 tau(  14) = (   3.2920103   1.4923710  12.5431595  )
        15           O1  tau(  15) = (   0.0005111   0.0003601  14.6908606  )
        16           O1  tau(  16) = (   3.2907661   0.0003422  14.0280135  )
        17           O1  tau(  17) = (   4.5563287   1.5043111  16.1972802  )
        18           O1  tau(  18) = (   2.0238984   1.5042417  16.1969189  )
        19           Ti1 tau(  19) = (   3.2900530   2.9812534  15.7923096  )
        20           Ti1 tau(  20) = (   0.0002900   1.3462356  15.9516996  )
        21           O1  tau(  21) = (   3.2904802   0.0005063   4.7018136  )
        22           O1  tau(  22) = (   0.0005067   0.0002908  17.2230471  )
        23           O1  tau(  23) = (   1.3043587   1.4918075   6.0039043  )
        24           O1  tau(  24) = (   5.2767064   1.4903225   6.0039473  )
        25           Ti1 tau(  25) = (   0.0000382   5.9609847   6.0000000  )
        26           Ti1 tau(  26) = (   3.2902200   4.4714249   6.0002472  )
        27           O1  tau(  27) = (   0.0002396   2.9813036   7.9858123  )
        28           O1  tau(  28) = (   3.2902150   2.9813002   7.3038282  )
        29           O1  tau(  29) = (   4.5938453   4.4726049   9.2879030  )
        30           O1  tau(  30) = (   1.9864658   4.4711199   9.2879459  )
        31           Ti1 tau(  31) = (   3.2890184   5.9611387   9.1545655  )
        32           Ti1 tau(  32) = (   6.5788211   4.4731772   9.2541010  )
        33           O1  tau(  33) = (   3.2904314   2.9811918  11.3932170  )
        34           O1  tau(  34) = (   0.0006808   2.9813391  10.6259032  )
        35           O1  tau(  35) = (   1.2847872   4.4655815  12.6717948  )
        36           O1  tau(  36) = (   5.2956760   4.4653813  12.6716352  )
        37           Ti1 tau(  37) = (   0.0020938   0.0010105  12.4782417  )
        38           Ti1 tau(  38) = (   3.2917349   4.4701355  12.5431901  )
        39           O1  tau(  39) = (   0.0000992   2.9811129  15.0245885  )
        40           O1  tau(  40) = (   3.2903432   2.9811263  13.9978513  )
        41           O1  tau(  41) = (   4.5559250   4.4580163  16.1971803  )
        42           O1  tau(  42) = (   2.0234811   4.4579909  16.1969720  )
        43           Ti1 tau(  43) = (   3.2904469   0.0004528  15.8318627  )
        44           Ti1 tau(  44) = (   0.0000435   4.6159127  15.9515978  )
        45           O1  tau(  45) = (   3.2900926   2.9813045   4.7018136  )
        46           O1  tau(  46) = (   1.3039711   4.4726057   6.0039043  )
        47           O1  tau(  47) = (   5.2763189   4.4711207   6.0039473  )

     number of k points=    10  Fermi-Dirac smearing, width (Ry)=  0.0073
                       cart. coord. in units 2pi/alat
        k(    1) = (   0.0000000   0.0000000   0.0000000), wk =   0.0625000
        k(    2) = (   0.0000000   0.0419351   0.0000000), wk =   0.1250000
        k(    3) = (   0.0000000  -0.0838702   0.0000000), wk =   0.0625000
        k(    4) = (   0.0379955   0.0000049   0.0000000), wk =   0.1250000
        k(    5) = (   0.0379955   0.0419400   0.0000000), wk =   0.1250000
        k(    6) = (   0.0379955  -0.0838652   0.0000000), wk =   0.1250000
        k(    7) = (   0.0379955  -0.0419301   0.0000000), wk =   0.1250000
        k(    8) = (  -0.0759910  -0.0000099   0.0000000), wk =   0.0625000
        k(    9) = (  -0.0759910   0.0419252   0.0000000), wk =   0.1250000
        k(   10) = (  -0.0759910  -0.0838800   0.0000000), wk =   0.0625000

     Initial potential from superposition of free atoms

     starting charge     361.9992, renormalised to     378.0000

     negative rho (up, down):  1.291E-02 1.079E-02

     %%%%%%%%%%%%%%%%%%%%%%%%%%%%%%%%%%%%%%%%%%%%%%%%%%%%%%%%%%%%%%%%%%%%%%%%
     %                                                                      %
     % You are using vdW-DF, which was implemented by the Thonhauser group. %
     % Please cite the following two papers that made this development      %
     % possible and the two reviews that describe the various versions:     %
     %                                                                      %
     %   T. Thonhauser et al., PRL 115, 136402 (2015).                      %
     %   T. Thonhauser et al., PRB 76, 125112 (2007).                       %
     %   K. Berland et al., Rep. Prog. Phys. 78, 066501 (2015).             %
     %   D.C. Langreth et al., J. Phys.: Condens. Matter 21, 084203 (2009). %
     %                                                                      %
     %                                                                      %
     % If you are calculating the stress with vdW-DF, please also cite:     %
     %                                                                      %
     %   R. Sabatini et al., J. Phys.: Condens. Matter 24, 424209 (2012).   %
     %                                                                      %
     %%%%%%%%%%%%%%%%%%%%%%%%%%%%%%%%%%%%%%%%%%%%%%%%%%%%%%%%%%%%%%%%%%%%%%%%

     Adding external electric field

     Computed dipole along edir(3) :
        Dipole                1.1416 Ry au,          2.9015 Debye
        Dipole field          0.0022 Ry au,

        Potential amp.       -0.1997 Ry
        Total length         46.3494 bohr

[...]

     Starting wfcs are  284 atomic wfcs
  @ DRIVER MODE: Message from server: STATUS
  @ DRIVER MODE: Message from server: POSDATA
  @ DRIVER MODE: Reading and sharing cell
  @ DRIVER MODE: Reading and sharing positions
  @ DRIVER MODE: Received positions

     Self-consistent Calculation

     iteration #  1     ecut=    29.40 Ry     beta= 0.05
[...]
     c_bands:  1 eigenvalues not converged
     c_bands:  1 eigenvalues not converged
     ethr =  2.09E-11,  avg # of iterations = 18.8

[...]

     Magnetic moment per site  (integrated on atomic sphere of radius R)
     atom   1 (R=0.740)  charge=  8.0673  magn=  0.1155
     atom   2 (R=0.740)  charge=  8.0460  magn=  0.0058
     atom   3 (R=0.740)  charge=  5.0352  magn= -0.0136
     atom   4 (R=0.740)  charge=  5.0739  magn= -0.0014
     atom   5 (R=0.740)  charge=  5.0338  magn= -0.0034
     atom   6 (R=0.740)  charge=  5.0338  magn= -0.0033
     atom   7 (R=0.740)  charge=  8.0457  magn=  0.0092
     atom   8 (R=0.740)  charge=  8.0499  magn=  0.0984
     atom   9 (R=0.740)  charge=  5.0394  magn= -0.0018
     atom  10 (R=0.740)  charge=  5.0478  magn= -0.0064
     atom  11 (R=0.740)  charge=  5.0325  magn= -0.0027
     atom  12 (R=0.740)  charge=  5.0326  magn= -0.0027
     atom  13 (R=0.740)  charge=  8.0560  magn=  0.0262
     atom  14 (R=0.740)  charge=  8.0499  magn=  0.0136
     atom  15 (R=0.740)  charge=  5.0483  magn= -0.0007
     atom  16 (R=0.740)  charge=  5.0335  magn= -0.0014
     atom  17 (R=0.740)  charge=  5.0152  magn= -0.0009
     atom  18 (R=0.740)  charge=  5.0151  magn= -0.0009
     atom  19 (R=0.740)  charge=  8.0777  magn=  0.0109
     atom  20 (R=0.740)  charge=  8.0902  magn=  0.0053
     atom  21 (R=0.740)  charge=  4.9132  magn= -0.0043
     atom  22 (R=0.740)  charge=  4.9955  magn= -0.0006
     atom  23 (R=0.740)  charge=  5.0275  magn= -0.0117
     atom  24 (R=0.740)  charge=  5.0276  magn= -0.0117
     atom  25 (R=0.740)  charge=  8.0675  magn=  0.1160
     atom  26 (R=0.740)  charge=  8.0460  magn=  0.0058
     atom  27 (R=0.740)  charge=  5.0346  magn= -0.0137
     atom  28 (R=0.740)  charge=  5.0734  magn= -0.0014
     atom  29 (R=0.740)  charge=  5.0338  magn= -0.0034
     atom  30 (R=0.740)  charge=  5.0338  magn= -0.0033
     atom  31 (R=0.740)  charge=  8.0461  magn=  0.0092
     atom  32 (R=0.740)  charge=  8.0499  magn=  0.0984
     atom  33 (R=0.740)  charge=  5.0395  magn= -0.0019
     atom  34 (R=0.740)  charge=  5.0427  magn= -0.0066
     atom  35 (R=0.740)  charge=  5.0324  magn= -0.0027
     atom  36 (R=0.740)  charge=  5.0325  magn= -0.0027
     atom  37 (R=0.740)  charge=  8.0518  magn=  0.0273
     atom  38 (R=0.740)  charge=  8.0499  magn=  0.0136
     atom  39 (R=0.740)  charge=  5.0311  magn= -0.0009
     atom  40 (R=0.740)  charge=  5.0467  magn= -0.0014
     atom  41 (R=0.740)  charge=  5.0152  magn= -0.0009
     atom  42 (R=0.740)  charge=  5.0151  magn= -0.0009
     atom  43 (R=0.740)  charge=  8.0771  magn=  0.0114
     atom  44 (R=0.740)  charge=  8.0902  magn=  0.0053
     atom  45 (R=0.740)  charge=  4.9131  magn= -0.0043
     atom  46 (R=0.740)  charge=  5.0275  magn= -0.0117
     atom  47 (R=0.740)  charge=  5.0276  magn= -0.0117

     End of self-consistent calculation

 ------ SPIN UP ------------

          k = 0.0000 0.0000 0.0000 ( 18029 PWs)   bands (ev):

   -56.2996 -56.2944 -56.2656 -56.2586 -56.1731 -56.1727 -56.1383 -56.1291
   -56.1224 -56.1029 -56.0977 -56.0924 -56.0911 -56.0389 -55.3361 -55.3020
   -32.8502 -32.8043 -32.7471 -32.6492 -32.6453 -32.6056 -32.5980 -32.5958
   -32.5952 -32.5594 -32.5170 -32.5042 -32.4885 -32.4730 -32.4676 -32.4661
   -32.4384 -32.4352 -32.4322 -32.4155 -32.4110 -32.4101 -32.3854 -32.3837
   -32.3728 -32.3685 -32.3554 -32.3520 -32.3361 -32.3051 -32.3023 -32.2797
   -32.2715 -32.2699 -32.2651 -32.2630 -32.2490 -32.2483 -32.2476 -32.2187
   -32.2178 -32.1197 -31.7465 -31.6455 -31.6233 -31.5653 -31.4790 -31.3652
   -17.1090 -16.8790 -16.7422 -16.6080 -16.4897 -16.3985 -16.2802 -16.2222
   -16.1559 -16.0304 -15.9671 -15.9331 -15.9050 -15.8802 -15.8752 -15.8611
   -15.8098 -15.8094 -15.7898 -15.7837 -15.7615 -15.7539 -15.7061 -15.6547
   -15.5823 -15.5117 -15.4232 -15.3661 -15.0624 -13.8266 -13.7066  -4.4339
    -4.2971  -4.2234  -4.1958  -4.1601  -4.0457  -3.8262  -3.8049  -3.7370
    -3.5793  -3.5258  -3.4740  -3.4174  -3.3446  -3.2861  -3.2738  -3.1673
    -3.1488  -3.1463  -3.1299  -3.0605  -3.0543  -3.0373  -3.0074  -2.9705
    -2.8655  -2.7535  -2.7098  -2.6681  -2.6611  -2.6446  -2.6166  -2.5859
    -2.5626  -2.5277  -2.5261  -2.4865  -2.4562  -2.3200  -2.1815  -2.1379
    -2.0582  -1.9795  -1.8940  -1.8418  -1.8017  -1.7623  -1.7289  -1.6719
    -1.6570  -1.6212  -1.5408  -1.4576  -1.4077  -1.3052  -1.2890  -1.2299
    -1.1927  -1.1194  -1.0624  -1.0525  -1.0220  -0.9390  -0.9021  -0.7870
    -0.7639  -0.7475  -0.7406  -0.7336  -0.6153  -0.5168  -0.4865  -0.4757
    -0.4696  -0.3890  -0.3426  -0.3328  -0.3209  -0.2953  -0.2628  -0.1922
    -0.1424  -0.0983   0.0492   0.2712   0.2815   0.3372   0.5788   0.6482
     0.6981   0.8544   1.2891   1.3388   2.7266   2.8416   2.8598   2.8923
     2.9587   2.9820   3.2756   3.3158   3.3415   3.3673   3.3794

[...]

          k =-0.0760-0.0000 0.0000 ( 17886 PWs)   bands (ev):

[...]

 ------ SPIN DOWN ----------

[...]

          k = 0.0380-0.0419 0.0000 ( 17876 PWs)   bands (ev):

[...]

          k =-0.0760-0.0839 0.0000 ( 17948 PWs)   bands (ev):

   -56.2522 -56.2517 -56.1482 -56.1097 -56.1062 -56.0919 -56.0909 -56.0866
   -56.0822 -56.0772 -56.0764 -56.0356 -55.9346 -55.9342 -55.3084 -55.3084
   -32.7189 -32.6433 -32.6405 -32.5392 -32.5236 -32.4769 -32.4765 -32.4639
   -32.4638 -32.4606 -32.4596 -32.4173 -32.4046 -32.4040 -32.4022 -32.3957
   -32.3906 -32.3857 -32.3827 -32.3770 -32.3725 -32.3538 -32.3507 -32.3492
   -32.3489 -32.3430 -32.3023 -32.2993 -32.2941 -32.2935 -32.2685 -32.2610
   -32.2446 -32.2412 -32.2381 -32.2174 -32.2083 -32.2081 -32.1777 -32.1768
   -32.1080 -32.1072 -31.6232 -31.6232 -31.5532 -31.5530 -31.5111 -31.5111
   -16.8216 -16.4664 -16.4272 -16.3326 -16.3240 -16.2319 -16.2120 -16.1206
   -16.0776 -16.0551 -16.0544 -16.0066 -15.9870 -15.9668 -15.9656 -15.9002
   -15.8850 -15.8578 -15.8544 -15.7924 -15.7902 -15.7870 -15.7859 -15.7505
   -15.7474 -15.7088 -15.7056 -15.6138 -15.4469 -13.8160 -13.8158  -3.8270
    -3.7337  -3.6789  -3.5400  -3.4847  -3.4517  -3.4038  -3.3771  -3.3099
    -3.2730  -3.2663  -3.1814  -3.1762  -3.1714  -3.1671  -3.1055  -3.0852
    -3.0604  -3.0421  -3.0167  -2.9837  -2.9635  -2.9613  -2.9351  -2.9295
    -2.9217  -2.9105  -2.8820  -2.8650  -2.8457  -2.8244  -2.6653  -2.6621
    -2.5806  -2.5105  -2.5102  -2.4310  -2.4172  -2.3722  -2.3349  -2.2875
    -2.2603  -2.1025  -2.0735  -2.0714  -2.0107  -1.9878  -1.9079  -1.8535
    -1.8346  -1.7853  -1.7385  -1.6200  -1.5990  -1.5787  -1.4728  -1.4692
    -1.3968  -1.3146  -1.2719  -1.2611  -1.2568  -1.2354  -1.2293  -1.2229
    -1.1167  -1.0546  -1.0122  -1.0046  -0.9932  -0.7997  -0.7350  -0.7257
    -0.6094  -0.5610  -0.3768  -0.3696  -0.3322  -0.2155  -0.2143  -0.2082
    -0.1553  -0.0288  -0.0176   0.0406   0.0840   0.0974   0.1425   0.1441
     1.0422   1.0433   1.1544   1.1550   2.9981   3.0887   3.0929   3.1503
     3.2935   3.3262   3.3784   3.4059   3.4237   3.4309   3.5435

     the Fermi energy is     2.8808 ev

!    total energy              =   -2883.85346799 Ry
     estimated scf accuracy    <       0.00000006 Ry
     smearing contrib. (-TS)   =      -0.03471492 Ry
     internal energy E=F+TS    =   -2883.81875308 Ry

     total magnetization       =     0.76 Bohr mag/cell
     absolute magnetization    =     1.06 Bohr mag/cell

     convergence has been achieved in  79 iterations

     Forces acting on atoms (cartesian axes, Ry/au):

     atom    1 type  1   force =     0.00010651   -0.00000070    0.08954670
     atom    2 type  1   force =    -0.00004851    0.00030737   -0.18494565
     atom    3 type  2   force =     0.00003106   -0.00000572   -0.02351632
     atom    4 type  2   force =    -0.00000966   -0.00002223    0.05255349
     atom    5 type  2   force =    -0.01400130   -0.00026934    0.00602329
     atom    6 type  2   force =     0.01397287    0.00021207    0.00599128
     atom    7 type  1   force =    -0.00003298    0.00001817   -0.00025745
     atom    8 type  1   force =     0.00001816    0.00044205   -0.00054627
     atom    9 type  2   force =     0.00001333    0.00001661    0.00108188
     atom   10 type  2   force =    -0.00000200    0.00000657    0.00077812
     atom   11 type  2   force =     0.00021542   -0.00024133    0.00065116
     atom   12 type  2   force =    -0.00023996   -0.00025686    0.00064965
     atom   13 type  1   force =    -0.00000214   -0.00000291   -0.00166470
     atom   14 type  1   force =     0.00003746   -0.00074108    0.00035863
     atom   15 type  2   force =    -0.00000296   -0.00001445   -0.00056933
     atom   16 type  2   force =     0.00001763    0.00001275    0.00020520
     atom   17 type  2   force =    -0.00000860    0.00023448    0.00002343
     atom   18 type  2   force =     0.00002340    0.00023260    0.00003375
     atom   19 type  1   force =    -0.00001745   -0.00001054   -0.00086745
     atom   20 type  1   force =     0.00002725    0.00017839   -0.00009609
     atom   21 type  2   force =     0.00005895    0.00007544    0.10534124
     atom   22 type  2   force =    -0.00001605   -0.00000391    0.00045134
     atom   23 type  2   force =    -0.06735517   -0.00026373   -0.02603971
     atom   24 type  2   force =     0.06726137    0.00016935   -0.02607700
     atom   25 type  1   force =     0.00010570    0.00001193    0.08864952
     atom   26 type  1   force =    -0.00006204   -0.00039548   -0.18495209
     atom   27 type  2   force =     0.00003210   -0.00001817   -0.02249290
     atom   28 type  2   force =    -0.00000636   -0.00002185    0.05261583
     atom   29 type  2   force =    -0.01400862   -0.00027243    0.00602101
     atom   30 type  2   force =     0.01397569    0.00022568    0.00598831
     atom   31 type  1   force =    -0.00003634    0.00001329    0.00008955
     atom   32 type  1   force =     0.00000956   -0.00044001   -0.00052864
     atom   33 type  2   force =     0.00001568    0.00001126   -0.00007543
     atom   34 type  2   force =    -0.00001395    0.00000558    0.00127307
     atom   35 type  2   force =     0.00020735    0.00026411    0.00064997
     atom   36 type  2   force =    -0.00023353    0.00025823    0.00065349
     atom   37 type  1   force =     0.00000189   -0.00001950   -0.00015913
     atom   38 type  1   force =     0.00002627    0.00076157    0.00035371
     atom   39 type  2   force =    -0.00001690    0.00000022   -0.00031230
     atom   40 type  2   force =     0.00001543    0.00001293   -0.00042868
     atom   41 type  2   force =    -0.00000696   -0.00022347    0.00002675
     atom   42 type  2   force =     0.00002875   -0.00023076    0.00002920
     atom   43 type  1   force =    -0.00001314   -0.00000137    0.00039120
     atom   44 type  1   force =    -0.00003174   -0.00016662   -0.00009602
     atom   45 type  2   force =     0.00005875    0.00007551    0.10530875
     atom   46 type  2   force =    -0.06735491   -0.00017878   -0.02603686
     atom   47 type  2   force =     0.06726070    0.00025508   -0.02607749

     Total force =     0.367211     Total SCF correction =     0.000823
  @ DRIVER MODE: Message from server: STATUS
  @ DRIVER MODE: Message from server: GETFORCE
  @ DRIVER MODE: Returning v,forces,stress

     Writing config to output data dir ./calc.save/
  @ DRIVER MODE: Message from server: STATUS
  @ DRIVER MODE: Message from server: INIT
  @ DRIVER MODE: Receiving replica           0           0
  @ DRIVER MODE: Receiving parameter string
 lscf : 0, lforce : 0, lstress : 0, lmovecell : 0, lensemb : 1,
  @ DRIVER MODE: Message from server: STATUS
  @ DRIVER MODE: Message from server: POSDATA
  @ DRIVER MODE: Reading and sharing cell
  @ DRIVER MODE: Reading and sharing positions
  @ DRIVER MODE: Received positions
     NEW-OLD atomic charge density approx. for the potential

[...]

     Adding external electric field

     Computed dipole along edir(3) :
        Dipole                0.5666 Ry au,          1.4402 Debye
        Dipole field          0.0011 Ry au,

        Potential amp.       -0.0991 Ry
        Total length         46.3494 bohr

     Generating pointlists ...
  @ DRIVER MODE: BEEF-vdw

[...]

     negative rho (up, down):  1.072E-02 1.072E-02

     negative rho (up, down):  1.072E-02 1.072E-02
 BEEFens 2000 ensemble energies
             -0.336736300620628E+02
             -0.198790339329892E+01
             -0.694134631289274E+01
              0.233723913320452E+02
             -0.115795432569767E+02
             -0.894908300069736E+01
             -0.233199425370356E+02
             -0.488201431077608E+02
             -0.208872306157597E+02
             -0.219680568486596E+02
             -0.204406573708936E+02
              0.417235597724535E+01
              0.195481736488810E+01
             -0.103032782950787E+01
              0.165990213521965E+01
              0.257649587815863E+02
             -0.988731390586040E+01
             -0.701570639044000E+01
              0.114096285226867E+02
             -0.601609878083291E+02
              0.301583358282230E+02
             -0.129851798767828E+02
             -0.230849759835123E+01
             -0.543224462289950E+01
             -0.990826957715740E+00
             -0.205147778385371E+01
              0.466197943805616E+02
             -0.146549606946380E+02
             -0.387709702417527E+01
             -0.295045054759462E+02
              0.381326430001577E+02
             -0.423286038035504E+01
             -0.207189964958997E+02
              0.109284827235752E+02
             -0.200037668313271E+01
              0.126281359806103E+02
             -0.538730220140792E+00
              0.269919957549322E+01
              0.183901182093575E+02
             -0.530555968892023E+02
              0.295514895956618E+02
              0.792577742627815E+01
             -0.608480670193657E+01
             -0.169928946431805E+02
              0.670111746805262E+01
             -0.106594328813403E+02
              0.241382669260311E+02
              0.193414875878872E+02
             -0.124709431518883E+02
             -0.159021633412182E+02
             -0.168264315764273E+02
             -0.202031602520108E+02
              0.102314826941194E+02
             -0.262760581266281E+02
              0.804182910920707E+01
              0.336524373744709E+02
              0.387522907128473E+02
              0.180658110510106E+02
              0.802662915020782E+01
              0.168345702020115E+02
[...]
             -0.396284776646249E+02
              0.269597284882639E+01
             -0.145983403628353E+01
             -0.551980137002175E+01
              0.510910690276773E-01
             -0.352874306621969E+02
             -0.682847049626800E+01
              0.474039699657950E+01
              0.721061953435171E+01
              0.264282347061819E+02
             -0.231299113143550E+02
              0.301643827704175E+02
             -0.215935040483107E+02
              0.138689897510726E+02
              0.218303840321101E+02

 BEEF-vdW xc energy contributions
           1 :   -397.598083900343
           2 :    346.613256431375
           3 :   -264.180703544057
           4 :    177.954313789086
           5 :   -110.145043505804
           6 :    69.6439864952602
           7 :   -52.8677457924088
           8 :    50.0350876474198
           9 :   -51.9311914899912
          10 :    53.3905769972808
          11 :   -53.1528665554844
          12 :    51.7105924757178
          13 :   -49.4896034080474
          14 :    46.2970610800086
          15 :   -41.8565871208924
          16 :    36.4181462561853
          17 :   -30.9099688302973
          18 :    26.4855301538804
          19 :   -23.9435649905556
          20 :    23.3654889168537
          21 :   -24.2215629595268
          22 :    25.7138035256297
          23 :   -27.1329891762363
          24 :    27.9867023050191
          25 :   -27.9901514929314
          26 :    26.9977649853093
          27 :   -25.0256548501990
          28 :    22.3032907438028
          29 :   -19.3112531920812
          30 :    16.6724563721630
          31 :   -46.4630541766358
          32 :   -31.5476077472123
  @ DRIVER MODE: Message from server: STATUS
  @ DRIVER MODE: Message from server: GETFORCE
  @ DRIVER MODE: Returning v,forces,stress
  @ DRIVE MODE: Returning Ensemble Energies
  @ DRIVE MODE: Returning Ensemble Energies
  @ DRIVE MODE: Returning Ensemble Energies
  @ DRIVE MODE: Returning Ensemble Energies
  @ DRIVE MODE: Returning Ensemble Energies

     Writing config to output data dir ./calc.save/
  @ DRIVE MODE: Returning Ensemble Energies
  @ DRIVER MODE: Message from server: EXIT
  @ DRIVE MODE: Exiting

     General routines

     Parallel routines

   This run was terminated on:  15:42:51  16Aug2022

   JOB DONE.