     Program PWSCF v.6.7GPU starts on 26Jul2021 at 15: 0:21

     R & G space division:  proc/nbgrp/npool/nimage =      16
     Reading input from /storage/home/hcoda1/3/ntian30/research/carbon/26Jul_spin_polarization/ads_slab/CH3NNHH_a/26Jul_spin_polarization.log/pw.inp
Warning: card &CELL ignored
Warning: card   CELL_DYNAMICS='IPI', ignored
Warning: card / ignored

     Current dimensions of program PWSCF are:
     Max number of different atomic species (ntypx) = 10
     Max number of k-points (npk) =  40000
     Max angular momentum in pseudopotentials (lmaxx) =  3
     Presently no symmetry can be used with electric field

     Message from routine cell_base_init:
     DEPRECATED: use true lattice parameter, not A to a.u. conversion factor

     IMPORTANT: XC functional enforced from input :
     Exchange-correlation= BEEF-VDW
                           (   1   4  43  14   2   0   0)
     Any further DFT definition will be discarded
     Please, verify this is what you really want

  @ DRIVER MODE: Connecting to
 qe_1139763_2431702.sched-torque.pace.gatech.edui0dqw0sx_scratch
  using UNIX socket
  @ DRIVER MODE: Message from server: STATUS
  @ DRIVER MODE: Message from server: INIT
  @ DRIVER MODE: Receiving replica           0          -1
  @ DRIVER MODE: Receiving encoded integer          25
  @ DRIVER MODE:  SCF:  T  FORCE:  T  STRESS:  F  VC:  F  ENSEMBLE:  F
  @ DRIVER MODE:  SCF:  T  FORCE:  T  STRESS:  F  VC:  F  ENSEMBLE:  F

     Using Slab Decomposition

     bravais-lattice index     =            0
     lattice parameter (alat)  =       1.8897  a.u.
     unit-cell volume          =    6658.9804 (a.u.)^3
     number of atoms/cell      =           55
     number of atomic types    =            5
     number of electrons       =       397.00
     number of Kohn-Sham states=          208
     kinetic-energy cutoff     =      29.3995  Ry
     charge density cutoff     =     293.9946  Ry
     scf convergence threshold =      7.3E-08
     mixing beta               =       0.0500
     number of iterations used =            8  plain     mixing
     Exchange-correlation= BEEF-VDW
                           (   1   4  43  14   2   0   0)

     celldm(1)=   1.889726  celldm(2)=   0.000000  celldm(3)=   0.000000
     celldm(4)=   0.000000  celldm(5)=   0.000000  celldm(6)=   0.000000

     crystal axes: (cart. coord. in units of alat)
               a(1) = (   6.579727   0.000000   0.000000 )
               a(2) = (  -0.000775   5.961596   0.000000 )
               a(3) = (   0.000000   0.000000  25.155947 )

     reciprocal axes: (cart. coord. in units 2 pi/alat)
               b(1) = (  0.151982  0.000020  0.000000 )
               b(2) = (  0.000000  0.167740  0.000000 )
               b(3) = (  0.000000  0.000000  0.039752 )

     PseudoPot. # 1 for Ti read from file:
     /storage/coda1/p-amedford6/0/shared/rich_project_chbe-medford/medford-share/data/pseudos_module/espresso/nninc/pbe/van/Ti.UPF
     MD5 check sum: 8e4df49b7f0d34bbd5052bf3f5ea0213
     Pseudo is Ultrasoft, Zval = 12.0
     Generated by new atomic code, or converted to UPF format
     Using radial grid of  851 points,  6 beta functions with:
                l(1) =   0
                l(2) =   0
                l(3) =   1
                l(4) =   1
                l(5) =   2
                l(6) =   2
     Q(r) pseudized with  8 coefficients,  rinner =    1.000   1.000   1.000
                                                       1.000   1.000

     PseudoPot. # 2 for O  read from file:
     /storage/coda1/p-amedford6/0/shared/rich_project_chbe-medford/medford-share/data/pseudos_module/espresso/nninc/pbe/van/O.UPF
     MD5 check sum: 78c19812648e8988a0fe644b0f25305e
     Pseudo is Ultrasoft, Zval =  6.0
     Generated by new atomic code, or converted to UPF format
     Using radial grid of  737 points,  4 beta functions with:
                l(1) =   0
                l(2) =   0
                l(3) =   1
                l(4) =   1
     Q(r) pseudized with  8 coefficients,  rinner =    0.800   0.800   0.800

     PseudoPot. # 3 for N  read from file:
     /storage/coda1/p-amedford6/0/shared/rich_project_chbe-medford/medford-share/data/pseudos_module/espresso/nninc/pbe/van/N.UPF
     MD5 check sum: 90d10febe142ad51ac9d5be1deb811c4
     Pseudo is Ultrasoft, Zval =  5.0
     Generated by new atomic code, or converted to UPF format
     Using radial grid of  729 points,  4 beta functions with:
                l(1) =   0
                l(2) =   0
                l(3) =   1
                l(4) =   1
     Q(r) pseudized with  8 coefficients,  rinner =    0.800   0.800   0.800

     PseudoPot. # 4 for C  read from file:
     /storage/coda1/p-amedford6/0/shared/rich_project_chbe-medford/medford-share/data/pseudos_module/espresso/nninc/pbe/van/C.UPF
     MD5 check sum: 1a69bf6b8db32088f5b2163dbdb77a27
     Pseudo is Ultrasoft, Zval =  4.0
     Generated by new atomic code, or converted to UPF format
     Using radial grid of  721 points,  4 beta functions with:
                l(1) =   0
                l(2) =   0
                l(3) =   1
                l(4) =   1
     Q(r) pseudized with  8 coefficients,  rinner =    0.800   0.800   0.800

     PseudoPot. # 5 for H  read from file:
     /storage/coda1/p-amedford6/0/shared/rich_project_chbe-medford/medford-share/data/pseudos_module/espresso/nninc/pbe/van/H.UPF
     MD5 check sum: b5ee9d7bfd3a09ee7748110bda690ff7
     Pseudo is Ultrasoft, Zval =  1.0
     Generated by new atomic code, or converted to UPF format
     Using radial grid of  615 points,  1 beta functions with:
                l(1) =   0
     Q(r) pseudized with  8 coefficients,  rinner =    0.800

     atomic species   valence    mass     pseudopotential
        Ti1           12.00    47.86700     Ti( 1.00)
        O1             6.00    15.99900     O ( 1.00)
        N1             5.00    14.00700     N ( 1.00)
        C1             4.00    12.01100     C ( 1.00)
        H1             1.00     1.00800     H ( 1.00)

     Starting magnetic structure
     atomic species   magnetization
        Ti1          0.000
        O1           0.000
        N1           0.040
        C1           0.046
        H1           0.000

     No symmetry found

   Cartesian axes

     site n.     atom                  positions (alat units)
         1           Ti1 tau(   1) = (   0.0004258   2.9801865   6.0000000  )
         2           Ti1 tau(   2) = (   3.2906075   1.4906267   6.0002472  )
         3           O1  tau(   3) = (   0.0006271   0.0005054   7.9858123  )
         4           O1  tau(   4) = (   3.2906025   0.0005020   7.3038282  )
         5           O1  tau(   5) = (   4.5942328   1.4918067   9.2879030  )
         6           O1  tau(   6) = (   1.9868534   1.4903216   9.2879459  )
         7           Ti1 tau(   7) = (   3.2907910   2.8959150   9.1758416  )
         8           Ti1 tau(   8) = (   0.0015273   1.4827037   9.2680791  )
         9           O1  tau(   9) = (   3.3020592   5.9599881  11.3075072  )
        10           O1  tau(  10) = (   0.0116148   5.9584955  10.6183126  )
        11           O1  tau(  11) = (   1.3218652   1.4872367  12.6142461  )
        12           O1  tau(  12) = (   5.3149618   1.4866655  12.6283206  )
        13           Ti1 tau(  13) = (   6.5343381   3.0098038  12.6530281  )
        14           Ti1 tau(  14) = (   3.2132235   1.4912063  12.4551521  )
        15           O1  tau(  15) = (   0.0515422   5.9562953  14.6829507  )
        16           O1  tau(  16) = (   3.3088797   0.0214154  13.8770011  )
        17           O1  tau(  17) = (   4.5726725   1.5412406  16.1224456  )
        18           O1  tau(  18) = (   2.0900022   1.5114086  15.9969863  )
        19           Ti1 tau(  19) = (   3.3311046   3.0200058  15.6476981  )
        20           Ti1 tau(  20) = (   0.0790784   1.4105808  15.8036947  )
        21           O1  tau(  21) = (   3.2904802   0.0005063   4.7018136  )
        22           O1  tau(  22) = (   0.0613336   0.0214447  17.2555488  )
        23           O1  tau(  23) = (   1.3043587   1.4918075   6.0039043  )
        24           O1  tau(  24) = (   5.2767064   1.4903225   6.0039473  )
        25           Ti1 tau(  25) = (   0.0000382   5.9609847   6.0000000  )
        26           Ti1 tau(  26) = (   3.2902200   4.4714249   6.0002472  )
        27           O1  tau(  27) = (   0.0002396   2.9813036   7.9858123  )
        28           O1  tau(  28) = (   3.2902150   2.9813002   7.3038282  )
        29           O1  tau(  29) = (   4.5938453   4.4726049   9.2879030  )
        30           O1  tau(  30) = (   1.9864658   4.4711199   9.2879459  )
        31           Ti1 tau(  31) = (   3.2891106   5.8743827   9.1763621  )
        32           Ti1 tau(  32) = (   0.0006254   4.4649316   9.2693709  )
        33           O1  tau(  33) = (   3.3026341   2.9893090  11.3092672  )
        34           O1  tau(  34) = (   0.0092240   2.9805883  10.6323155  )
        35           O1  tau(  35) = (   1.3182942   4.4670451  12.6271195  )
        36           O1  tau(  36) = (   5.3124783   4.4780259  12.6376329  )
        37           Ti1 tau(  37) = (   6.5365500   0.0194685  12.5464133  )
        38           Ti1 tau(  38) = (   3.2155898   4.4753301  12.4613306  )
        39           O1  tau(  39) = (   0.0167368   2.9407051  14.7244952  )
        40           O1  tau(  40) = (   3.3149560   2.9822459  13.8616979  )
        41           O1  tau(  41) = (   4.5706274   4.5128733  15.9228735  )
        42           O1  tau(  42) = (   2.1262058   4.4922812  16.0793225  )
        43           Ti1 tau(  43) = (   3.3222298   0.0210159  15.6751784  )
        44           Ti1 tau(  44) = (   6.5499002   4.5104744  16.2959303  )
        45           O1  tau(  45) = (   3.2900926   2.9813045   4.7018136  )
        46           O1  tau(  46) = (   1.3039711   4.4726057   6.0039043  )
        47           O1  tau(  47) = (   5.2763189   4.4711207   6.0039473  )
        48           N1  tau(  48) = (   0.3735289   2.9861087  17.6038306  )
        49           C1  tau(  49) = (   1.3580301   2.7301661  18.6431808  )
        50           H1  tau(  50) = (   1.5128655   3.6233449  19.2641712  )
        51           H1  tau(  51) = (   1.0354786   1.8978442  19.2795547  )
        52           H1  tau(  52) = (   2.3065860   2.4473273  18.1987077  )
        53           N1  tau(  53) = (   5.7326324   3.4596218  18.1373629  )
        54           H1  tau(  54) = (   5.8436824   4.0267099  18.9748678  )
        55           H1  tau(  55) = (   5.0375616   2.7244768  18.2555579  )

     number of k points=    10  Fermi-Dirac smearing, width (Ry)=  0.0073
                       cart. coord. in units 2pi/alat
        k(    1) = (   0.0000000   0.0000000   0.0000000), wk =   0.0625000
        k(    2) = (   0.0000000   0.0419351   0.0000000), wk =   0.1250000
        k(    3) = (   0.0000000  -0.0838702   0.0000000), wk =   0.0625000
        k(    4) = (   0.0379955   0.0000049   0.0000000), wk =   0.1250000
        k(    5) = (   0.0379955   0.0419400   0.0000000), wk =   0.1250000
        k(    6) = (   0.0379955  -0.0838652   0.0000000), wk =   0.1250000
[...]
     atom  22 (R=0.726)  charge=  4.9007  magn=  0.0000
     atom  23 (R=0.726)  charge=  4.9281  magn= -0.0008
     atom  24 (R=0.726)  charge=  4.9282  magn= -0.0007
     atom  25 (R=0.726)  charge=  7.9408  magn=  0.0062
     atom  26 (R=0.726)  charge=  7.9244  magn=  0.0004
     atom  27 (R=0.726)  charge=  4.9305  magn= -0.0006
     atom  28 (R=0.726)  charge=  4.9683  magn= -0.0001
     atom  29 (R=0.726)  charge=  4.9375  magn= -0.0001
     atom  30 (R=0.726)  charge=  4.9382  magn= -0.0001
     atom  31 (R=0.726)  charge=  7.9236  magn=  0.0003
     atom  32 (R=0.726)  charge=  7.9153  magn=  0.0020
     atom  33 (R=0.726)  charge=  4.9540  magn= -0.0000
     atom  34 (R=0.726)  charge=  4.9049  magn= -0.0002
     atom  35 (R=0.726)  charge=  4.9378  magn= -0.0001
     atom  36 (R=0.726)  charge=  4.9369  magn= -0.0001
     atom  37 (R=0.726)  charge=  7.9159  magn=  0.0005
     atom  38 (R=0.726)  charge=  7.9271  magn=  0.0002
     atom  39 (R=0.726)  charge=  4.9088  magn= -0.0000
     atom  40 (R=0.726)  charge=  4.9620  magn=  0.0000
     atom  41 (R=0.726)  charge=  4.9464  magn=  0.0000
     atom  42 (R=0.726)  charge=  4.9157  magn=  0.0000
     atom  43 (R=0.726)  charge=  7.9491  magn= -0.0000
     atom  44 (R=0.726)  charge=  7.9599  magn= -0.0000
     atom  45 (R=0.726)  charge=  4.8212  magn= -0.0005
     atom  46 (R=0.726)  charge=  4.9281  magn= -0.0007
     atom  47 (R=0.726)  charge=  4.9282  magn= -0.0008
     atom  48 (R=0.420)  charge=  1.3151  magn=  0.0000
     atom  49 (R=0.448)  charge=  0.8406  magn= -0.0000
     atom  50 (R=0.420)  charge=  0.4416  magn=  0.0000
     atom  51 (R=0.420)  charge=  0.4406  magn=  0.0000
     atom  52 (R=0.420)  charge=  0.4486  magn=  0.0000
     atom  53 (R=0.420)  charge=  1.3378  magn= -0.0000
     atom  54 (R=0.420)  charge=  0.4533  magn=  0.0000
     atom  55 (R=0.420)  charge=  0.4498  magn=  0.0000

     End of self-consistent calculation

 ------ SPIN UP ------------

          k = 0.0000 0.0000 0.0000 ( 18029 PWs)   bands (ev):

   -55.5762 -55.5743 -55.5422 -55.5364 -55.4611 -55.4238 -55.4232 -55.3876
   -55.3726 -55.3385 -55.3274 -55.2935 -55.0309 -54.8745 -54.5380 -54.5039
   -32.1362 -32.0538 -31.9586 -31.8917 -31.8878 -31.8760 -31.8693 -31.8196
   -31.8159 -31.8056 -31.7842 -31.7589 -31.7545 -31.7293 -31.7261 -31.7153
   -31.6759 -31.6601 -31.6584 -31.6497 -31.6487 -31.6345 -31.6136 -31.5965
   -31.5704 -31.5679 -31.5674 -31.5596 -31.5575 -31.5310 -31.5073 -31.5064
   -31.4945 -31.4918 -31.4817 -31.4759 -31.4407 -31.3051 -31.2558 -31.1544
   -31.1272 -31.0355 -30.9440 -30.8575 -30.8350 -30.7611 -30.6747 -30.5633
   -17.5819 -16.3614 -16.0484 -15.8343 -15.7254 -15.7222 -15.6380 -15.4165
   -15.2952 -15.2804 -15.1656 -15.1618 -15.1011 -15.0606 -15.0533 -15.0464
   -15.0135 -15.0023 -14.9831 -14.9481 -14.9157 -14.8974 -14.8739 -14.7722
   -14.7052 -14.6987 -14.6816 -14.6169 -14.5689 -14.2090 -13.0386 -12.9224
   -12.5368  -9.2019  -6.3466  -5.0889  -4.1921  -3.7398  -3.5502  -3.4738
    -3.4385  -3.3704  -3.3503  -3.1808  -3.1734  -2.7941  -2.7747  -2.7566
    -2.7355  -2.7320  -2.4631  -2.4100  -2.3950  -2.3919  -2.3741  -2.3573
    -2.3362  -2.3257  -2.2982  -2.2872  -2.1537  -2.1099  -2.0313  -2.0050
    -1.9895  -1.8790  -1.8532  -1.8330  -1.8213  -1.8081  -1.7786  -1.7719
    -1.7501  -1.6420  -1.5325  -1.4530  -1.4130  -1.3602  -1.3397  -1.1633
    -1.1100  -1.0507  -1.0270  -1.0025  -0.9881  -0.9544  -0.8799  -0.8553
    -0.7131  -0.6744  -0.6203  -0.5942  -0.5654  -0.5096  -0.4759  -0.4458
    -0.3505  -0.3375  -0.3260  -0.3139  -0.2580  -0.0655  -0.0178   0.0013
     0.0163   0.1154   0.1548   0.1796   0.2138   0.2705   0.2986   0.3632
     0.3919   0.4131   0.4229   0.4515   0.4681   0.6002   0.6254   0.6561
     0.7176   0.7709   0.8468   0.9592   1.0417   1.0984   1.2002   1.4181
     1.4856   1.5697   1.6791   1.7100   2.0555   2.1003   3.5618   3.6484
     3.6933   3.7059   3.8131   3.8674   4.0116   4.0233   4.0625   4.0948

[...]

          k =-0.0760-0.0000 0.0000 ( 17886 PWs)   bands (ev):

[...]

 ------ SPIN DOWN ----------

[...]

          k = 0.0380-0.0419 0.0000 ( 17876 PWs)   bands (ev):

[...]

          k =-0.0760-0.0839 0.0000 ( 17948 PWs)   bands (ev):

   -55.5603 -55.5495 -55.5481 -55.5470 -55.4489 -55.4341 -55.4091 -55.4016
   -55.3529 -55.3497 -55.3117 -55.3081 -55.0294 -54.8758 -54.5199 -54.5199
   -31.9417 -31.9313 -31.8646 -31.8639 -31.8436 -31.8422 -31.8412 -31.8270
   -31.8019 -31.7880 -31.7678 -31.7482 -31.7225 -31.7118 -31.7068 -31.6810
   -31.6778 -31.6665 -31.6654 -31.6651 -31.6650 -31.6524 -31.6489 -31.6460
   -31.6248 -31.6131 -31.6026 -31.6009 -31.5512 -31.5491 -31.5443 -31.5420
   -31.5323 -31.5292 -31.5264 -31.5247 -31.4108 -31.3162 -31.2575 -31.2157
   -31.1326 -31.0468 -30.8467 -30.8466 -30.7562 -30.7560 -30.7170 -30.7170
   -17.5699 -15.8213 -15.7814 -15.5264 -15.5179 -15.5149 -15.4754 -15.3512
   -15.3024 -15.2767 -15.2658 -15.2473 -15.2386 -15.1372 -15.1234 -15.1069
   -15.0970 -15.0697 -15.0270 -15.0218 -15.0127 -15.0037 -14.9920 -14.9252
   -14.8732 -14.8693 -14.7546 -14.6633 -14.5225 -14.4340 -13.0258 -13.0256
   -12.5560  -9.1630  -6.3055  -5.1184  -4.1251  -3.4203  -3.1219  -3.0743
    -2.7864  -2.7669  -2.7514  -2.6379  -2.5188  -2.5095  -2.4836  -2.4619
    -2.4275  -2.4147  -2.4045  -2.3964  -2.3784  -2.3604  -2.3496  -2.3100
    -2.2413  -2.2333  -2.2248  -2.2169  -2.2001  -2.1765  -2.1656  -2.1386
    -2.1140  -2.0791  -2.0199  -1.9892  -1.8396  -1.7959  -1.7338  -1.6958
    -1.6872  -1.6582  -1.6246  -1.6172  -1.5061  -1.4917  -1.4583  -1.3282
    -1.2677  -1.2596  -1.2271  -1.1394  -1.1008  -0.9718  -0.9585  -0.9214
    -0.8658  -0.8582  -0.8211  -0.7830  -0.7322  -0.6800  -0.6364  -0.6137
    -0.5955  -0.5241  -0.5236  -0.4762  -0.4199  -0.3495  -0.3264  -0.3190
    -0.2869  -0.2434  -0.1959  -0.1327  -0.0573  -0.0381  -0.0231   0.0760
     0.1494   0.3682   0.4153   0.5121   0.5340   0.5619   0.6217   0.6715
     0.7401   0.7548   0.7832   0.8573   0.8794   0.9708   0.9823   0.9995
     1.1771   1.6455   1.8501   1.8510   1.9190   1.9195   3.8582   3.8740
     3.8984   3.9221   4.0871   4.0914   4.1026   4.1053   4.2255   4.2560

     the Fermi energy is     3.5638 ev

!    total energy              =   -2941.63810916 Ry
     estimated scf accuracy    <       0.00000004 Ry
     smearing contrib. (-TS)   =      -0.02171327 Ry
     internal energy E=F+TS    =   -2941.61639589 Ry

     The total energy is F=E-TS. E is the sum of the following terms:
     one-electron contribution =  -24388.08912006 Ry
     hartree contribution      =   12286.00337515 Ry
     xc contribution           =    -486.94123383 Ry
     ewald contribution        =    9647.40809292 Ry
     electric field correction =       0.00248992 Ry

     total magnetization       =     0.02 Bohr mag/cell
     absolute magnetization    =     0.04 Bohr mag/cell

     convergence has been achieved in  70 iterations

     Forces acting on atoms (cartesian axes, Ry/au):

     atom    1 type  1   force =    -0.00001062   -0.00019695    0.09684766
     atom    2 type  1   force =     0.00008942   -0.00069097   -0.17462268
     atom    3 type  2   force =     0.00018429   -0.00005998   -0.02511503
     atom    4 type  2   force =     0.00000709   -0.00124789    0.05118533
     atom    5 type  2   force =    -0.01128436   -0.00080170    0.00227873
     atom    6 type  2   force =     0.01312381   -0.00035240    0.00272315
     atom    7 type  1   force =     0.00100363    0.00021606   -0.01338959
     atom    8 type  1   force =    -0.00009889    0.01533370    0.02827406
     atom    9 type  2   force =    -0.00007216   -0.00001167    0.00008233
     atom   10 type  2   force =    -0.00233905    0.00080584   -0.01058913
     atom   11 type  2   force =     0.00035750    0.00005429   -0.00001783
     atom   12 type  2   force =    -0.00043659   -0.00006628    0.00025223
     atom   13 type  1   force =     0.00015031   -0.00018933   -0.00004878
     atom   14 type  1   force =     0.00010254   -0.00022314    0.00003776
     atom   15 type  2   force =    -0.00004948    0.00021091   -0.00010459
     atom   16 type  2   force =    -0.00019841    0.00003528   -0.00018746
     atom   17 type  2   force =    -0.00011480    0.00007273   -0.00004775
     atom   18 type  2   force =    -0.00017013    0.00001776   -0.00016247
     atom   19 type  1   force =    -0.00031589    0.00021485    0.00006697
     atom   20 type  1   force =     0.00003836   -0.00049613    0.00017351
     atom   21 type  2   force =     0.00003726   -0.00009181    0.10298432
     atom   22 type  2   force =    -0.00007080    0.00036876    0.00050299
     atom   23 type  2   force =    -0.07179167   -0.00021459   -0.02780268
     atom   24 type  2   force =     0.07175009    0.00024169   -0.02786469
     atom   25 type  1   force =     0.00003107   -0.00025793    0.09645373
     atom   26 type  1   force =    -0.00000415   -0.00029303   -0.17488950
     atom   27 type  2   force =     0.00019417   -0.00025714   -0.02397058
     atom   28 type  2   force =     0.00005271   -0.00100640    0.05145578
     atom   29 type  2   force =    -0.01131282    0.00078667    0.00169195
     atom   30 type  2   force =     0.01300173    0.00111354    0.00209013
     atom   31 type  1   force =     0.00103622    0.00257192   -0.01541387
     atom   32 type  1   force =     0.00005511   -0.01663062    0.02915279
     atom   33 type  2   force =     0.00011687    0.00002993   -0.00012954
     atom   34 type  2   force =    -0.00270951    0.00093403   -0.01869216
     atom   35 type  2   force =     0.00017911   -0.00007398   -0.00009171
     atom   36 type  2   force =    -0.00038289   -0.00007301    0.00012906
     atom   37 type  1   force =    -0.00010643   -0.00019180    0.00015772
     atom   38 type  1   force =     0.00007541    0.00008708   -0.00005364
     atom   39 type  2   force =    -0.00003276    0.00043667   -0.00000021
     atom   40 type  2   force =    -0.00038028    0.00014830   -0.00013729
     atom   41 type  2   force =     0.00011036   -0.00001425   -0.00011849
     atom   42 type  2   force =     0.00000833    0.00021350    0.00001241
     atom   43 type  1   force =     0.00016496   -0.00000467   -0.00012386
     atom   44 type  1   force =    -0.00027624   -0.00046105   -0.00034922
     atom   45 type  2   force =     0.00005398   -0.00011067    0.10298661
     atom   46 type  2   force =    -0.07181542   -0.00015608   -0.02782611
     atom   47 type  2   force =     0.07175629    0.00022973   -0.02786843
     atom   48 type  3   force =    -0.00089599   -0.00014655    0.00056540
     atom   49 type  4   force =     0.00020037   -0.00024111    0.00004104
     atom   50 type  5   force =    -0.00032628    0.00011145    0.00012021
     atom   51 type  5   force =    -0.00045290   -0.00006312   -0.00024948
     atom   52 type  5   force =     0.00076616   -0.00023434    0.00013969
     atom   53 type  3   force =     0.00085980    0.00044135   -0.00008677
     atom   54 type  5   force =     0.00036228   -0.00011501    0.00109404
     atom   55 type  5   force =    -0.00022070    0.00029756   -0.00154605

     Total force =     0.367221     Total SCF correction =     0.000428
  @ DRIVER MODE: Message from server: STATUS
  @ DRIVER MODE: Message from server: GETFORCE
  @ DRIVER MODE: Returning v,forces,stress,ensemble

     Writing output data file ./calc.save/
  @ DRIVER MODE: Message from server: STATUS
  @ DRIVER MODE: Message from server: INIT
  @ DRIVER MODE: Receiving replica           0           0
  @ DRIVER MODE: Receiving encoded integer           2
  @ DRIVER MODE:  SCF:  T  FORCE:  T  STRESS:  F  VC:  F  ENSEMBLE:  F
  @ DRIVER MODE:  SCF:  F  FORCE:  F  STRESS:  F  VC:  F  ENSEMBLE:  T
  @ DRIVER MODE: Message from server: STATUS
  @ DRIVER MODE: Message from server: POSDATA
  @ DRIVER MODE: Reading and sharing positions
  @ DRIVER MODE: Received positions
     NEW-OLD atomic charge density approx. for the potential

[...]

     Adding external electric field

     Computed dipole along edir(3) :
        Dipole                1.1487 Ry au,          2.9196 Debye
        Dipole field          0.0022 Ry au,

        Potential amp.       -0.2009 Ry
        Total length         46.3494 bohr

     Generating pointlists ...
  @ DRIVER MODE: BEEF-vdw

[...]

     negative rho (up, down):  8.394E-03 8.394E-03

     negative rho (up, down):  8.394E-03 8.394E-03
 BEEFens 2000 ensemble energies
             -0.349387033840253E+02
             -0.203398413028492E+01
             -0.719710460684489E+01
              0.242506006322785E+02
             -0.119972894553402E+02
             -0.928791110676528E+01
             -0.242387001592422E+02
             -0.506906609370767E+02
             -0.216101237494701E+02
             -0.227815113826349E+02
             -0.211647003622964E+02
              0.427082108752660E+01
              0.200826490459089E+01
             -0.107042968233330E+01
              0.174244113508307E+01
              0.267070521855505E+02
             -0.102941797814565E+02
             -0.726548113266128E+01
              0.118556601757685E+02
             -0.623805890589311E+02
              0.312944344921186E+02
             -0.134219725235500E+02
             -0.242849606166084E+01
             -0.563322475194819E+01
             -0.979549513278073E+00
             -0.214328183518589E+01
              0.483824094418673E+02
             -0.151428368633945E+02
             -0.404034737209093E+01
             -0.306237542476712E+02
              0.395610672628217E+02
             -0.436930852066872E+01
             -0.215434453574779E+02
              0.112961892951128E+02
             -0.206404102728465E+01
              0.131425513717842E+02
             -0.545733468797636E+00
              0.272329436591116E+01
              0.190992124458518E+02
             -0.550627560438435E+02
              0.306789262591771E+02
              0.818161574751736E+01
             -0.629933093265061E+01
             -0.176002716015300E+02
              0.695240834573380E+01
             -0.110133576477671E+02
              0.251119413695466E+02
              0.200350363207933E+02
             -0.129151263585144E+02
             -0.165071045644237E+02
             -0.174575852646303E+02
             -0.209448733448370E+02
              0.106449138130981E+02
             -0.272971935793618E+02
              0.835678908371091E+01
              0.348563996992842E+02
              0.402143871956155E+02
              0.187142176507917E+02
              0.835894119720889E+01
              0.174719847917818E+02
[...]
             -0.411191418826342E+02
              0.279722248566679E+01
             -0.146244687029900E+01
             -0.572884846125601E+01
              0.589453799525756E-01
             -0.366061601368256E+02
             -0.706158413396112E+01
              0.496241058855203E+01
              0.746694049023469E+01
              0.274441156944776E+02
             -0.239888725982152E+02
              0.312678492507451E+02
             -0.223999559834394E+02
              0.144026791837520E+02
              0.226760015166756E+02

 BEEF-vdW xc energy contributions
           1 :   -412.536641141548
           2 :    359.501283629610
           3 :   -273.842151411947
           4 :    184.331131304144
           5 :   -113.963474627995
           6 :    71.8880251370543
           7 :   -54.3333459256727
           8 :    51.1259971044853
           9 :   -52.7278611302189
          10 :    53.8692231171605
          11 :   -53.3512520786939
          12 :    51.7562845129122
          13 :   -49.5225345142825
          14 :    46.3903481620191
          15 :   -41.9954152822750
          16 :    36.5394673359280
          17 :   -30.9438104633860
          18 :    26.3788894068036
          19 :   -23.6654899304141
          20 :    22.9138380431380
          21 :   -23.6274203882649
          22 :    25.0454931175139
          23 :   -26.4880710488432
          24 :    27.4726354318660
          25 :   -27.6931419269157
          26 :    26.9625831131310
          27 :   -25.2496577409547
          28 :    22.7420622318825
          29 :   -19.8846383607856
          30 :    17.2753481370434
          31 :   -48.5636599981802
          32 :   -33.0064963069894
  @ DRIVER MODE: Message from server: STATUS
  @ DRIVER MODE: Message from server: GETFORCE
  @ DRIVER MODE: Returning v,forces,stress,ensemble
  @ DRIVE MODE: Returning Ensemble Energies

     Writing output data file ./calc.save/
  @ DRIVER MODE: Message from server: EXIT
  @ DRIVE MODE: Exiting

     General routines

     Parallel routines

   This run was terminated on:  15:30:41  26Jul2021

   JOB DONE.