     Program PWSCF v.6.7GPU starts on 15Sep2021 at 15:51:26

     R & G space division:  proc/nbgrp/npool/nimage =      10
     Reading input from /storage/home/hcoda1/3/ntian30/research/carbon/CxH_vib/H2O_calc/ads_slab/CH2N2H2O_b/out_0001/pw.inp
Warning: card &CELL ignored
Warning: card   CELL_DYNAMICS='IPI', ignored
Warning: card / ignored

     Current dimensions of program PWSCF are:
     Max number of different atomic species (ntypx) = 10
     Max number of k-points (npk) =  40000
     Max angular momentum in pseudopotentials (lmaxx) =  3
     Presently no symmetry can be used with electric field

     Message from routine cell_base_init:
     DEPRECATED: use true lattice parameter, not A to a.u. conversion factor

     IMPORTANT: XC functional enforced from input :
     Exchange-correlation= BEEF-VDW
                           (   1   4  43  14   2   0   0)
     Any further DFT definition will be discarded
     Please, verify this is what you really want

  @ DRIVER MODE: Connecting to
 qe_1139763_2852605.sched-torque.pace.gatech.edu4ofaxvsf_scratch
  using UNIX socket
  @ DRIVER MODE: Message from server: STATUS
  @ DRIVER MODE: Message from server: INIT
  @ DRIVER MODE: Receiving replica           0          -1
  @ DRIVER MODE: Receiving encoded integer          25
  @ DRIVER MODE:  SCF:  T  FORCE:  T  STRESS:  F  VC:  F  ENSEMBLE:  F
  @ DRIVER MODE:  SCF:  T  FORCE:  T  STRESS:  F  VC:  F  ENSEMBLE:  F

     Using Slab Decomposition

     bravais-lattice index     =            0
     lattice parameter (alat)  =       1.8897  a.u.
     unit-cell volume          =    6658.9804 (a.u.)^3
     number of atoms/cell      =           55
     number of atomic types    =            5
     number of electrons       =       402.00
     number of Kohn-Sham states=          211
     kinetic-energy cutoff     =      29.3995  Ry
     charge density cutoff     =     293.9946  Ry
     scf convergence threshold =      7.3E-08
     mixing beta               =       0.0500
     number of iterations used =            8  plain     mixing
     Exchange-correlation= BEEF-VDW
                           (   1   4  43  14   2   0   0)

     celldm(1)=   1.889726  celldm(2)=   0.000000  celldm(3)=   0.000000
     celldm(4)=   0.000000  celldm(5)=   0.000000  celldm(6)=   0.000000

     crystal axes: (cart. coord. in units of alat)
               a(1) = (   6.579727   0.000000   0.000000 )
               a(2) = (  -0.000775   5.961596   0.000000 )
               a(3) = (   0.000000   0.000000  25.155947 )

     reciprocal axes: (cart. coord. in units 2 pi/alat)
               b(1) = (  0.151982  0.000020  0.000000 )
               b(2) = (  0.000000  0.167740  0.000000 )
               b(3) = (  0.000000  0.000000  0.039752 )

     PseudoPot. # 1 for Ti read from file:
     /storage/coda1/p-amedford6/0/shared/rich_project_chbe-medford/medford-share/data/pseudos_module/espresso/nninc/pbe/van/Ti.UPF
     MD5 check sum: 8e4df49b7f0d34bbd5052bf3f5ea0213
     Pseudo is Ultrasoft, Zval = 12.0
     Generated by new atomic code, or converted to UPF format
     Using radial grid of  851 points,  6 beta functions with:
                l(1) =   0
                l(2) =   0
                l(3) =   1
                l(4) =   1
                l(5) =   2
                l(6) =   2
     Q(r) pseudized with  8 coefficients,  rinner =    1.000   1.000   1.000
                                                       1.000   1.000

     PseudoPot. # 2 for O  read from file:
     /storage/coda1/p-amedford6/0/shared/rich_project_chbe-medford/medford-share/data/pseudos_module/espresso/nninc/pbe/van/O.UPF
     MD5 check sum: 78c19812648e8988a0fe644b0f25305e
     Pseudo is Ultrasoft, Zval =  6.0
     Generated by new atomic code, or converted to UPF format
     Using radial grid of  737 points,  4 beta functions with:
                l(1) =   0
                l(2) =   0
                l(3) =   1
                l(4) =   1
     Q(r) pseudized with  8 coefficients,  rinner =    0.800   0.800   0.800

     PseudoPot. # 3 for N  read from file:
     /storage/coda1/p-amedford6/0/shared/rich_project_chbe-medford/medford-share/data/pseudos_module/espresso/nninc/pbe/van/N.UPF
     MD5 check sum: 90d10febe142ad51ac9d5be1deb811c4
     Pseudo is Ultrasoft, Zval =  5.0
     Generated by new atomic code, or converted to UPF format
     Using radial grid of  729 points,  4 beta functions with:
                l(1) =   0
                l(2) =   0
                l(3) =   1
                l(4) =   1
     Q(r) pseudized with  8 coefficients,  rinner =    0.800   0.800   0.800

     PseudoPot. # 4 for C  read from file:
     /storage/coda1/p-amedford6/0/shared/rich_project_chbe-medford/medford-share/data/pseudos_module/espresso/nninc/pbe/van/C.UPF
     MD5 check sum: 1a69bf6b8db32088f5b2163dbdb77a27
     Pseudo is Ultrasoft, Zval =  4.0
     Generated by new atomic code, or converted to UPF format
     Using radial grid of  721 points,  4 beta functions with:
                l(1) =   0
                l(2) =   0
                l(3) =   1
                l(4) =   1
     Q(r) pseudized with  8 coefficients,  rinner =    0.800   0.800   0.800

     PseudoPot. # 5 for H  read from file:
     /storage/coda1/p-amedford6/0/shared/rich_project_chbe-medford/medford-share/data/pseudos_module/espresso/nninc/pbe/van/H.UPF
     MD5 check sum: b5ee9d7bfd3a09ee7748110bda690ff7
     Pseudo is Ultrasoft, Zval =  1.0
     Generated by new atomic code, or converted to UPF format
     Using radial grid of  615 points,  1 beta functions with:
                l(1) =   0
     Q(r) pseudized with  8 coefficients,  rinner =    0.800

     atomic species   valence    mass     pseudopotential
        Ti1           12.00    47.86700     Ti( 1.00)
        O1             6.00    15.99900     O ( 1.00)
        N1             5.00    14.00700     N ( 1.00)
        C1             4.00    12.01100     C ( 1.00)
        H1             1.00     1.00800     H ( 1.00)

     No symmetry found

   Cartesian axes

     site n.     atom                  positions (alat units)
         1           Ti1 tau(   1) = (   0.0004258   2.9801865   6.0000000  )
         2           Ti1 tau(   2) = (   3.2906075   1.4906267   6.0002472  )
         3           O1  tau(   3) = (   0.0006271   0.0005054   7.9858123  )
         4           O1  tau(   4) = (   3.2906025   0.0005020   7.3038282  )
         5           O1  tau(   5) = (   4.5942328   1.4918067   9.2879030  )
         6           O1  tau(   6) = (   1.9868534   1.4903216   9.2879459  )
         7           Ti1 tau(   7) = (   3.2907910   2.8959150   9.1758416  )
         8           Ti1 tau(   8) = (   0.0015273   1.4827037   9.2680791  )
         9           O1  tau(   9) = (   3.2934429   5.9466490  11.3040654  )
        10           O1  tau(  10) = (   0.0116148   5.9584955  10.6183126  )
        11           O1  tau(  11) = (   1.2867109   1.4782735  12.6190062  )
        12           O1  tau(  12) = (   5.2776945   1.4764076  12.5976694  )
        13           Ti1 tau(  13) = (   0.0846880   2.9559742  12.7004455  )
        14           Ti1 tau(  14) = (   3.4192946   1.4610250  12.4797112  )
        15           O1  tau(  15) = (   0.0040618   5.9510889  14.6015872  )
        16           O1  tau(  16) = (   3.2972055   5.9566395  13.8969661  )
        17           O1  tau(  17) = (   4.5327346   1.5242580  16.0225792  )
        18           O1  tau(  18) = (   2.0474321   1.5095568  15.9818283  )
        19           Ti1 tau(  19) = (   3.2830006   2.9631064  15.6531525  )
        20           Ti1 tau(  20) = (   6.5418150   1.5417905  15.9635021  )
        21           O1  tau(  21) = (   3.2904802   0.0005063   4.7018136  )
        22           O1  tau(  22) = (   0.0063621   0.0138944  17.1794403  )
        23           O1  tau(  23) = (   1.3043587   1.4918075   6.0039043  )
        24           O1  tau(  24) = (   5.2767064   1.4903225   6.0039473  )
        25           Ti1 tau(  25) = (   0.0000382   5.9609847   6.0000000  )
        26           Ti1 tau(  26) = (   3.2902200   4.4714249   6.0002472  )
        27           O1  tau(  27) = (   0.0002396   2.9813036   7.9858123  )
        28           O1  tau(  28) = (   3.2902150   2.9813002   7.3038282  )
        29           O1  tau(  29) = (   4.5938453   4.4726049   9.2879030  )
        30           O1  tau(  30) = (   1.9864658   4.4711199   9.2879459  )
        31           Ti1 tau(  31) = (   3.2891106   5.8743827   9.1763621  )
        32           Ti1 tau(  32) = (   0.0006254   4.4649316   9.2693709  )
        33           O1  tau(  33) = (   3.2987291   2.9703105  11.3060640  )
        34           O1  tau(  34) = (   0.0092240   2.9805883  10.6323155  )
        35           O1  tau(  35) = (   1.2872851   4.4534926  12.6272766  )
        36           O1  tau(  36) = (   5.2800973   4.4624318  12.6062822  )
        37           Ti1 tau(  37) = (   0.1009857   5.9355968  12.6779778  )
        38           Ti1 tau(  38) = (   3.4194502   4.4581092  12.4739500  )
        39           O1  tau(  39) = (   6.5579784   2.9468049  14.6267102  )
        40           O1  tau(  40) = (   3.2950467   2.9662764  13.8528306  )
        41           O1  tau(  41) = (   4.5369278   4.4531499  15.9976687  )
        42           O1  tau(  42) = (   2.0426393   4.4597293  15.9709435  )
        43           Ti1 tau(  43) = (   3.2485613   5.9322867  15.7552632  )
        44           Ti1 tau(  44) = (   6.5504849   4.5932964  16.0494500  )
        45           O1  tau(  45) = (   3.2900926   2.9813045   4.7018136  )
        46           O1  tau(  46) = (   1.3039711   4.4726057   6.0039043  )
        47           O1  tau(  47) = (   5.2763189   4.4711207   6.0039473  )
        48           N1  tau(  48) = (   0.6056314   2.9572148  18.5116157  )
        49           N1  tau(  49) = (   0.0870375   2.9660652  17.3203775  )
        50           C1  tau(  50) = (   6.5561155   3.1780822  19.6039678  )
        51           H1  tau(  51) = (   5.4868456   3.3930584  19.6151425  )
        52           H1  tau(  52) = (   0.5344647   3.1546629  20.5288580  )
        53           O1  tau(  53) = (   3.2552377   5.9566958  18.1335742  )
        54           H1  tau(  54) = (   4.0211122   0.5273114  18.4085372  )
        55           H1  tau(  55) = (   2.4596908   0.4732500  18.4230009  )

     number of k points=    10  Fermi-Dirac smearing, width (Ry)=  0.0073
                       cart. coord. in units 2pi/alat
        k(    1) = (   0.0000000   0.0000000   0.0000000), wk =   0.1250000
        k(    2) = (   0.0000000   0.0419351   0.0000000), wk =   0.2500000
        k(    3) = (   0.0000000  -0.0838702   0.0000000), wk =   0.1250000
        k(    4) = (   0.0379955   0.0000049   0.0000000), wk =   0.2500000
        k(    5) = (   0.0379955   0.0419400   0.0000000), wk =   0.2500000
        k(    6) = (   0.0379955  -0.0838652   0.0000000), wk =   0.2500000
        k(    7) = (   0.0379955  -0.0419301   0.0000000), wk =   0.2500000
        k(    8) = (  -0.0759910  -0.0000099   0.0000000), wk =   0.1250000
        k(    9) = (  -0.0759910   0.0419252   0.0000000), wk =   0.2500000
        k(   10) = (  -0.0759910  -0.0838800   0.0000000), wk =   0.1250000

     Initial potential from superposition of free atoms

     starting charge  385.99915, renormalised to  402.00000

     negative rho (up, down):  1.463E-02 0.000E+00

     %%%%%%%%%%%%%%%%%%%%%%%%%%%%%%%%%%%%%%%%%%%%%%%%%%%%%%%%%%%%%%%%%%%%%%%%
     %                                                                      %
     % You are using vdW-DF, which was implemented by the Thonhauser group. %
     % Please cite the following two papers that made this development      %
     % possible and the two reviews that describe the various versions:     %
     %                                                                      %
     %   T. Thonhauser et al., PRL 115, 136402 (2015).                      %
     %   T. Thonhauser et al., PRB 76, 125112 (2007).                       %
     %   K. Berland et al., Rep. Prog. Phys. 78, 066501 (2015).             %
     %   D.C. Langreth et al., J. Phys.: Condens. Matter 21, 084203 (2009). %
     %                                                                      %
     %                                                                      %
     % If you are calculating the stress with vdW-DF, please also cite:     %
     %                                                                      %
     %   R. Sabatini et al., J. Phys.: Condens. Matter 24, 424209 (2012).   %
     %                                                                      %
     %%%%%%%%%%%%%%%%%%%%%%%%%%%%%%%%%%%%%%%%%%%%%%%%%%%%%%%%%%%%%%%%%%%%%%%%

     Adding external electric field

     Computed dipole along edir(3) :
        Dipole              -11.9608 Ry au,        -30.4013 Debye
        Dipole field         -0.0226 Ry au,

        Potential amp.        2.0924 Ry
        Total length         46.3494 bohr

     Starting wfcs are  304 atomic wfcs
  @ DRIVER MODE: Message from server: STATUS
  @ DRIVER MODE: Message from server: POSDATA
  @ DRIVER MODE: Reading and sharing cell
  @ DRIVER MODE: Reading and sharing positions
  @ DRIVER MODE: Received positions

     Self-consistent Calculation

     iteration #  1     ecut=    29.40 Ry     beta= 0.05
     Davidson diagonalization with overlap
     c_bands:  3 eigenvalues not converged
     c_bands:  3 eigenvalues not converged
     c_bands:  5 eigenvalues not converged
     c_bands:  3 eigenvalues not converged
     c_bands:  3 eigenvalues not converged
     c_bands:  2 eigenvalues not converged
     c_bands:  4 eigenvalues not converged
     c_bands:  4 eigenvalues not converged
     c_bands:  3 eigenvalues not converged
     ethr =  1.00E-05,  avg # of iterations = 21.6

[...]

     total energy              =   -2415.31419250 Ry
     estimated scf accuracy    <    6283.97002154 Ry

     iteration #  2     ecut=    29.40 Ry     beta= 0.05
     Davidson diagonalization with overlap
     ethr =  1.00E-02,  avg # of iterations = 22.6

[...]

     iteration # 35     ecut=    29.40 Ry     beta= 0.05
     Davidson diagonalization with overlap
     c_bands:  3 eigenvalues not converged
     c_bands:  1 eigenvalues not converged
     ethr =  8.53E-07,  avg # of iterations = 11.6

[...]

     total energy              =   -2972.73810886 Ry
     estimated scf accuracy    <       0.00000022 Ry

     iteration # 63     ecut=    29.40 Ry     beta= 0.05
     Davidson diagonalization with overlap
     ethr =  2.23E-11,  avg # of iterations =  5.8

     negative rho (up, down):  1.530E-02 0.000E+00

     Adding external electric field

     Computed dipole along edir(3) :
        Dipole                0.6845 Ry au,          1.7398 Debye
        Dipole field          0.0013 Ry au,

        Potential amp.       -0.1197 Ry
        Total length         46.3494 bohr

     End of self-consistent calculation

          k = 0.0000 0.0000 0.0000 ( 18029 PWs)   bands (ev):

   -56.1062 -56.0724 -55.6472 -55.6133 -55.5551 -55.5361 -55.5207 -55.5006
   -55.4203 -55.3675 -55.3268 -55.2616 -54.9247 -54.8907 -54.8634 -54.8245
   -32.5583 -32.3974 -32.3699 -32.2662 -32.1821 -32.1733 -32.1144 -32.0689
   -32.0414 -31.8905 -31.8738 -31.8632 -31.8416 -31.8346 -31.8117 -31.7776
   -31.7705 -31.7695 -31.7512 -31.7493 -31.7443 -31.7156 -31.7082 -31.7065
   -31.6744 -31.6670 -31.6562 -31.6503 -31.6298 -31.5951 -31.5376 -31.5353
   -31.5059 -31.4791 -31.4543 -31.4221 -31.3950 -31.3247 -31.2536 -31.2301
   -31.1423 -31.1108 -31.0771 -31.0592 -31.0570 -31.0367 -30.9505 -30.9458
   -18.6928 -17.5577 -16.4295 -16.2153 -15.9782 -15.7407 -15.6953 -15.5696
   -15.5539 -15.5535 -15.4332 -15.4230 -15.3610 -15.2582 -15.1862 -15.1466
   -15.1001 -15.0881 -15.0699 -14.9803 -14.9664 -14.9461 -14.9367 -14.8646
   -14.8108 -14.7979 -14.6892 -14.6182 -14.5617 -14.5251 -14.2394 -13.4246
   -13.3113 -11.7370  -6.5518  -6.4535  -4.4428  -3.9809  -3.9282  -3.7133
    -3.5549  -3.4531  -3.3260  -3.3086  -3.1792  -3.0798  -2.9398  -2.9019
    -2.8755  -2.7953  -2.7899  -2.7671  -2.6318  -2.5921  -2.5512  -2.5289
    -2.5000  -2.4243  -2.4051  -2.3466  -2.3196  -2.2856  -2.1754  -2.1341
    -2.0969  -2.0839  -2.0563  -2.0135  -1.9727  -1.9493  -1.9454  -1.9310
    -1.8990  -1.8064  -1.7520  -1.6514  -1.5975  -1.4892  -1.4549  -1.4277
    -1.3723  -1.2825  -1.1548  -1.1458  -1.0784  -1.0398  -0.9843  -0.9596
    -0.8944  -0.8831  -0.8108  -0.7738  -0.6907  -0.6454  -0.6135  -0.5836
    -0.5635  -0.4700  -0.4219  -0.3464  -0.2847  -0.2269  -0.2098  -0.1119
    -0.0835  -0.0523  -0.0283   0.0295   0.0752   0.0880   0.1089   0.1357
     0.1661   0.1882   0.3112   0.3654   0.3782   0.4069   0.4310   0.5434
     0.6053   0.6831   0.7413   0.7808   0.8872   0.9014   0.9459   1.0712
     1.0861   1.0978   1.1491   1.3153   1.6232   1.6561   1.6971   1.7588
     2.9649   3.1217   3.2377   3.4571   3.5580   3.5901   3.8490   3.9515
     4.0004   4.0211   4.0325

[...]

          k = 0.0380-0.0419 0.0000 ( 17876 PWs)   bands (ev):

[...]

          k =-0.0760-0.0000 0.0000 ( 17886 PWs)   bands (ev):

[...]

          k =-0.0760-0.0839 0.0000 ( 17948 PWs)   bands (ev):

   -56.0893 -56.0891 -55.6323 -55.6279 -55.5409 -55.5349 -55.5197 -55.5168
   -55.4184 -55.3577 -55.3365 -55.2635 -54.9077 -54.9075 -54.8533 -54.8346
   -32.3831 -32.3827 -32.3742 -32.3741 -32.2180 -32.2178 -31.9391 -31.9338
   -31.8881 -31.8845 -31.8808 -31.8653 -31.8228 -31.8179 -31.7995 -31.7982
   -31.7852 -31.7808 -31.7558 -31.7507 -31.7501 -31.7469 -31.7442 -31.7404
   -31.7117 -31.6692 -31.6658 -31.6561 -31.6350 -31.6226 -31.5839 -31.5694
   -31.5659 -31.5268 -31.5115 -31.4625 -31.2762 -31.2431 -31.2429 -31.1621
   -31.1388 -31.1385 -31.0998 -31.0997 -31.0698 -31.0561 -31.0477 -31.0296
   -18.6918 -17.5523 -15.8042 -15.7987 -15.7351 -15.7293 -15.6635 -15.6000
   -15.4959 -15.4921 -15.4528 -15.3671 -15.2896 -15.2701 -15.2000 -15.1930
   -15.1914 -15.1825 -15.1125 -15.1023 -15.0743 -15.0509 -15.0262 -15.0201
   -14.9954 -14.9709 -14.7563 -14.7002 -14.6305 -14.5548 -14.4153 -13.4140
   -13.4139 -11.7421  -6.5376  -6.4574  -4.3980  -3.9722  -3.1386  -3.0131
    -2.9268  -2.9139  -2.8926  -2.8243  -2.7943  -2.7324  -2.7025  -2.6818
    -2.6067  -2.5932  -2.5410  -2.5353  -2.5048  -2.4860  -2.4340  -2.4256
    -2.4141  -2.4098  -2.3604  -2.3268  -2.3234  -2.3130  -2.2951  -2.2276
    -2.1650  -2.1293  -2.0895  -2.0617  -2.0589  -2.0115  -1.9860  -1.9534
    -1.8930  -1.8897  -1.8586  -1.8073  -1.6810  -1.6705  -1.5427  -1.4617
    -1.4439  -1.3749  -1.3168  -1.2832  -1.2174  -1.1568  -1.1289  -1.0267
    -1.0022  -0.9726  -0.9586  -0.9157  -0.9127  -0.8782  -0.7735  -0.7516
    -0.7132  -0.7089  -0.6309  -0.6019  -0.5444  -0.5218  -0.5118  -0.4708
    -0.4544  -0.3739  -0.3473  -0.2918  -0.2346  -0.1928  -0.1399  -0.0907
    -0.0142   0.0573   0.1104   0.1997   0.2100   0.2229   0.4301   0.4359
     0.5290   0.6129   0.7371   0.7637   0.7779   0.8809   0.9208   0.9427
     0.9695   1.1384   1.1808   1.4815   1.4831   1.5134   1.5138   1.7072
     2.9062   3.6549   3.6551   3.6905   3.6918   3.9186   3.9252   3.9715
     3.9766   4.0313   4.0550

     the Fermi energy is     3.0639 ev

!    total energy              =   -2972.73815066 Ry
     estimated scf accuracy    <       0.00000006 Ry
     smearing contrib. (-TS)   =      -0.01276996 Ry
     internal energy E=F+TS    =   -2972.72538070 Ry

     The total energy is F=E-TS. E is the sum of the following terms:
     one-electron contribution =  -24071.65897119 Ry
     hartree contribution      =   12129.47668479 Ry
     xc contribution           =    -493.18853356 Ry
     ewald contribution        =    9462.64455512 Ry
     electric field correction =       0.00088413 Ry

     convergence has been achieved in  63 iterations

     Forces acting on atoms (cartesian axes, Ry/au):

     atom    1 type  1   force =     0.00012480   -0.00029791    0.10866160
     atom    2 type  1   force =    -0.00011074   -0.00040909   -0.16781287
     atom    3 type  2   force =    -0.00015307   -0.00001085   -0.04365064
     atom    4 type  2   force =     0.00005062   -0.00075965    0.03947600
     atom    5 type  2   force =    -0.01330820    0.00016011   -0.00450876
     atom    6 type  2   force =     0.01490694    0.00103106   -0.00533215
     atom    7 type  1   force =    -0.00093099   -0.00248951    0.01138468
     atom    8 type  1   force =     0.00124935    0.00154126    0.07714230
     atom    9 type  2   force =    -0.00004609   -0.00014655   -0.00000903
     atom   10 type  2   force =    -0.00113895    0.00038403   -0.05082757
     atom   11 type  2   force =    -0.00009546    0.00036484    0.00019944
     atom   12 type  2   force =     0.00001205    0.00025265    0.00015119
     atom   13 type  1   force =     0.00044906    0.00001611   -0.00055192
     atom   14 type  1   force =    -0.00024105   -0.00007559   -0.00014642
     atom   15 type  2   force =    -0.00029467   -0.00011544    0.00094236
     atom   16 type  2   force =     0.00011813    0.00000792    0.00023863
     atom   17 type  2   force =    -0.00075216    0.00034084   -0.00001396
     atom   18 type  2   force =     0.00031041    0.00036551    0.00007250
     atom   19 type  1   force =     0.00040658   -0.00015596   -0.00028830
     atom   20 type  1   force =    -0.00015832    0.00004485   -0.00113495
     atom   21 type  2   force =     0.00007717    0.00005469    0.10125873
     atom   22 type  2   force =    -0.00010119   -0.00003322    0.00035756
     atom   23 type  2   force =    -0.07502755   -0.00002869   -0.03014828
     atom   24 type  2   force =     0.07500343    0.00042706   -0.03014603
     atom   25 type  1   force =     0.00022019   -0.00028680    0.10831010
     atom   26 type  1   force =    -0.00009959   -0.00045027   -0.16784036
     atom   27 type  2   force =    -0.00002038   -0.00025484   -0.04265445
     atom   28 type  2   force =     0.00011588   -0.00048086    0.03883689
     atom   29 type  2   force =    -0.01362583    0.00093705   -0.00473870
     atom   30 type  2   force =     0.01515863    0.00120058   -0.00561620
     atom   31 type  1   force =    -0.00124929    0.00053269    0.00708288
     atom   32 type  1   force =     0.00133260   -0.00408823    0.07758611
     atom   33 type  2   force =    -0.00004990    0.00012448   -0.00003381
     atom   34 type  2   force =    -0.00136860    0.00034186   -0.05687334
     atom   35 type  2   force =    -0.00002695   -0.00051190    0.00005689
     atom   36 type  2   force =    -0.00033411   -0.00022765   -0.00004888
     atom   37 type  1   force =    -0.00006801   -0.00001978   -0.00083062
     atom   38 type  1   force =    -0.00020262    0.00020774   -0.00040363
     atom   39 type  2   force =     0.00007535   -0.00009284    0.00012285
     atom   40 type  2   force =    -0.00002415    0.00028626    0.00048289
     atom   41 type  2   force =    -0.00002588   -0.00011122    0.00014846
     atom   42 type  2   force =    -0.00037709   -0.00002790    0.00009741
     atom   43 type  1   force =     0.00034358    0.00081679   -0.00025339
     atom   44 type  1   force =     0.00001359    0.00040785   -0.00068910
     atom   45 type  2   force =     0.00006919    0.00003602    0.10122059
     atom   46 type  2   force =    -0.07501609    0.00003706   -0.03010882
     atom   47 type  2   force =     0.07499312    0.00047151   -0.03011978
     atom   48 type  3   force =     0.00988846   -0.00187554   -0.00432452
     atom   49 type  3   force =    -0.00226058    0.00033618   -0.00224927
     atom   50 type  4   force =    -0.00729208    0.00176645    0.00677310
     atom   51 type  5   force =    -0.00042350    0.00089685    0.00099728
     atom   52 type  5   force =     0.00017942   -0.00031737   -0.00028838
     atom   53 type  2   force =     0.00037669    0.00059414    0.00053703
     atom   54 type  5   force =    -0.00082067   -0.00090948   -0.00020775
     atom   55 type  5   force =     0.00016852    0.00019270   -0.00028557

     Total force =     0.390473     Total SCF correction =     0.000563
  @ DRIVER MODE: Message from server: STATUS
  @ DRIVER MODE: Message from server: GETFORCE
  @ DRIVER MODE: Returning v,forces,stress,ensemble

     Writing output data file ./calc.save/
  @ DRIVER MODE: Message from server: EXIT
  @ DRIVE MODE: Exiting

     General routines

     Parallel routines

   This run was terminated on:  16: 8:37  15Sep2021

   JOB DONE.