     Program PWSCF v.6.7GPU starts on 15Jul2021 at 19:32:44

     R & G space division:  proc/nbgrp/npool/nimage =      16
     Reading input from /storage/home/hcoda1/3/ntian30/research/carbon/15Jul_vib/ads_slab/CH3N2_b/out_0006/pw.inp
Warning: card &CELL ignored
Warning: card   CELL_DYNAMICS='IPI', ignored
Warning: card / ignored

     Current dimensions of program PWSCF are:
     Max number of different atomic species (ntypx) = 10
     Max number of k-points (npk) =  40000
     Max angular momentum in pseudopotentials (lmaxx) =  3
     Presently no symmetry can be used with electric field

     Message from routine cell_base_init:
     DEPRECATED: use true lattice parameter, not A to a.u. conversion factor

     IMPORTANT: XC functional enforced from input :
     Exchange-correlation= BEEF-VDW
                           (   1   4  43  14   2   0   0)
     Any further DFT definition will be discarded
     Please, verify this is what you really want

  @ DRIVER MODE: Connecting to
 qe_1139763_2351645.sched-torque.pace.gatech.eduw9ubfyo8_scratch
  using UNIX socket
  @ DRIVER MODE: Message from server: STATUS
  @ DRIVER MODE: Message from server: INIT
  @ DRIVER MODE: Receiving replica           0          -1
  @ DRIVER MODE: Receiving encoded integer          25
  @ DRIVER MODE:  SCF:  T  FORCE:  T  STRESS:  F  VC:  F  ENSEMBLE:  F
  @ DRIVER MODE:  SCF:  T  FORCE:  T  STRESS:  F  VC:  F  ENSEMBLE:  F

     Using Slab Decomposition

     bravais-lattice index     =            0
     lattice parameter (alat)  =       1.8897  a.u.
     unit-cell volume          =    6658.9804 (a.u.)^3
     number of atoms/cell      =           53
     number of atomic types    =            5
     number of electrons       =       395.00
     number of Kohn-Sham states=          207
     kinetic-energy cutoff     =      29.3995  Ry
     charge density cutoff     =     293.9946  Ry
     scf convergence threshold =      7.3E-08
     mixing beta               =       0.0500
     number of iterations used =            8  plain     mixing
     Exchange-correlation= BEEF-VDW
                           (   1   4  43  14   2   0   0)

     celldm(1)=   1.889726  celldm(2)=   0.000000  celldm(3)=   0.000000
     celldm(4)=   0.000000  celldm(5)=   0.000000  celldm(6)=   0.000000

     crystal axes: (cart. coord. in units of alat)
               a(1) = (   6.579727   0.000000   0.000000 )
               a(2) = (  -0.000775   5.961596   0.000000 )
               a(3) = (   0.000000   0.000000  25.155947 )

     reciprocal axes: (cart. coord. in units 2 pi/alat)
               b(1) = (  0.151982  0.000020  0.000000 )
               b(2) = (  0.000000  0.167740  0.000000 )
               b(3) = (  0.000000  0.000000  0.039752 )

     PseudoPot. # 1 for Ti read from file:
     /storage/coda1/p-amedford6/0/shared/rich_project_chbe-medford/medford-share/data/pseudos_module/espresso/nninc/pbe/van/Ti.UPF
     MD5 check sum: 8e4df49b7f0d34bbd5052bf3f5ea0213
     Pseudo is Ultrasoft, Zval = 12.0
     Generated by new atomic code, or converted to UPF format
     Using radial grid of  851 points,  6 beta functions with:
                l(1) =   0
                l(2) =   0
                l(3) =   1
                l(4) =   1
                l(5) =   2
                l(6) =   2
     Q(r) pseudized with  8 coefficients,  rinner =    1.000   1.000   1.000
                                                       1.000   1.000

     PseudoPot. # 2 for O  read from file:
     /storage/coda1/p-amedford6/0/shared/rich_project_chbe-medford/medford-share/data/pseudos_module/espresso/nninc/pbe/van/O.UPF
     MD5 check sum: 78c19812648e8988a0fe644b0f25305e
     Pseudo is Ultrasoft, Zval =  6.0
     Generated by new atomic code, or converted to UPF format
     Using radial grid of  737 points,  4 beta functions with:
                l(1) =   0
                l(2) =   0
                l(3) =   1
                l(4) =   1
     Q(r) pseudized with  8 coefficients,  rinner =    0.800   0.800   0.800

     PseudoPot. # 3 for N  read from file:
     /storage/coda1/p-amedford6/0/shared/rich_project_chbe-medford/medford-share/data/pseudos_module/espresso/nninc/pbe/van/N.UPF
     MD5 check sum: 90d10febe142ad51ac9d5be1deb811c4
     Pseudo is Ultrasoft, Zval =  5.0
     Generated by new atomic code, or converted to UPF format
     Using radial grid of  729 points,  4 beta functions with:
                l(1) =   0
                l(2) =   0
                l(3) =   1
                l(4) =   1
     Q(r) pseudized with  8 coefficients,  rinner =    0.800   0.800   0.800

     PseudoPot. # 4 for C  read from file:
     /storage/coda1/p-amedford6/0/shared/rich_project_chbe-medford/medford-share/data/pseudos_module/espresso/nninc/pbe/van/C.UPF
     MD5 check sum: 1a69bf6b8db32088f5b2163dbdb77a27
     Pseudo is Ultrasoft, Zval =  4.0
     Generated by new atomic code, or converted to UPF format
     Using radial grid of  721 points,  4 beta functions with:
                l(1) =   0
                l(2) =   0
                l(3) =   1
                l(4) =   1
     Q(r) pseudized with  8 coefficients,  rinner =    0.800   0.800   0.800

     PseudoPot. # 5 for H  read from file:
     /storage/coda1/p-amedford6/0/shared/rich_project_chbe-medford/medford-share/data/pseudos_module/espresso/nninc/pbe/van/H.UPF
     MD5 check sum: b5ee9d7bfd3a09ee7748110bda690ff7
     Pseudo is Ultrasoft, Zval =  1.0
     Generated by new atomic code, or converted to UPF format
     Using radial grid of  615 points,  1 beta functions with:
                l(1) =   0
     Q(r) pseudized with  8 coefficients,  rinner =    0.800

     atomic species   valence    mass     pseudopotential
        Ti1           12.00    47.86700     Ti( 1.00)
        O1             6.00    15.99900     O ( 1.00)
        N1             5.00    14.00700     N ( 1.00)
        C1             4.00    12.01100     C ( 1.00)
        H1             1.00     1.00800     H ( 1.00)

     Starting magnetic structure
     atomic species   magnetization
        Ti1          0.000
        O1           0.000
        N1           0.000
        C1           0.025
        H1           0.000

     No symmetry found

   Cartesian axes

     site n.     atom                  positions (alat units)
         1           Ti1 tau(   1) = (   0.0004258   2.9801865   6.0000000  )
         2           Ti1 tau(   2) = (   3.2906075   1.4906267   6.0002472  )
         3           O1  tau(   3) = (   0.0006271   0.0005054   7.9858123  )
         4           O1  tau(   4) = (   3.2906025   0.0005020   7.3038282  )
         5           O1  tau(   5) = (   4.5942328   1.4918067   9.2879030  )
         6           O1  tau(   6) = (   1.9868534   1.4903216   9.2879459  )
         7           Ti1 tau(   7) = (   3.2907910   2.8959150   9.1758416  )
         8           Ti1 tau(   8) = (   0.0015273   1.4827037   9.2680791  )
         9           O1  tau(   9) = (   3.3037365   0.0094216  11.3222111  )
        10           O1  tau(  10) = (   0.0116148   5.9584955  10.6183126  )
        11           O1  tau(  11) = (   1.3152514   1.5075076  12.6320051  )
        12           O1  tau(  12) = (   5.3186361   1.4995162  12.6508707  )
        13           Ti1 tau(  13) = (   6.5540705   2.9956815  12.5884341  )
        14           Ti1 tau(  14) = (   3.2234832   1.4927074  12.4921739  )
        15           O1  tau(  15) = (   0.0610261   5.9052480  14.6017706  )
        16           O1  tau(  16) = (   3.2936532   0.0132264  13.8830087  )
        17           O1  tau(  17) = (   4.5722397   1.5061520  16.0138922  )
        18           O1  tau(  18) = (   2.0767725   1.5295127  16.0808449  )
        19           Ti1 tau(  19) = (   3.3650854   3.0251465  15.6907462  )
        20           Ti1 tau(  20) = (   0.0387768   1.3037779  15.7216176  )
        21           O1  tau(  21) = (   3.2904802   0.0005063   4.7018136  )
        22           O1  tau(  22) = (   0.0189486   0.1070799  17.1824039  )
        23           O1  tau(  23) = (   1.3043587   1.4918075   6.0039043  )
        24           O1  tau(  24) = (   5.2767064   1.4903225   6.0039473  )
        25           Ti1 tau(  25) = (   0.0000382   5.9609847   6.0000000  )
        26           Ti1 tau(  26) = (   3.2902200   4.4714249   6.0002472  )
        27           O1  tau(  27) = (   0.0002396   2.9813036   7.9858123  )
        28           O1  tau(  28) = (   3.2902150   2.9813002   7.3038282  )
        29           O1  tau(  29) = (   4.5938453   4.4726049   9.2879030  )
        30           O1  tau(  30) = (   1.9864658   4.4711199   9.2879459  )
        31           Ti1 tau(  31) = (   3.2891106   5.8743827   9.1763621  )
        32           Ti1 tau(  32) = (   0.0006254   4.4649316   9.2693709  )
        33           O1  tau(  33) = (   3.3043114   2.9829305  11.3227053  )
        34           O1  tau(  34) = (   0.0092240   2.9805883  10.6323155  )
        35           O1  tau(  35) = (   1.3131995   4.4620516  12.6081187  )
        36           O1  tau(  36) = (   5.3117129   4.4692194  12.6284301  )
        37           Ti1 tau(  37) = (   6.5303063   5.9583428  12.5400172  )
        38           Ti1 tau(  38) = (   3.2255477   4.4746212  12.4748647  )
        39           O1  tau(  39) = (   0.0377805   3.0059521  14.8845374  )
        40           O1  tau(  40) = (   3.3120027   2.9986483  13.8863452  )
        41           O1  tau(  41) = (   4.5434534   4.5277214  16.0148975  )
        42           O1  tau(  42) = (   2.1165747   4.4940517  16.0783766  )
        43           Ti1 tau(  43) = (   3.3042555   0.0241951  15.7004812  )
        44           Ti1 tau(  44) = (   0.0495666   4.4505358  16.3362958  )
        45           O1  tau(  45) = (   3.2900926   2.9813045   4.7018136  )
        46           O1  tau(  46) = (   1.3039711   4.4726057   6.0039043  )
        47           O1  tau(  47) = (   5.2763189   4.4711207   6.0039473  )
        48           N1  tau(  48) = (   0.5348212   3.4288502  18.0789430  )
        49           C1  tau(  49) = (   1.3556880   3.0079929  19.2215664  )
        50           H1  tau(  50) = (   1.4862090   3.8900195  19.8496782  )
        51           H1  tau(  51) = (   0.8469181   2.2141957  19.7647163  )
        52           H1  tau(  52) = (   2.3296892   2.6851793  18.8624704  )
        53           N1  tau(  53) = (   5.9145885   3.2636146  17.9655992  )

     number of k points=    10  Fermi-Dirac smearing, width (Ry)=  0.0073
                       cart. coord. in units 2pi/alat
        k(    1) = (   0.0000000   0.0000000   0.0000000), wk =   0.0625000
        k(    2) = (   0.0000000   0.0419351   0.0000000), wk =   0.1250000
        k(    3) = (   0.0000000  -0.0838702   0.0000000), wk =   0.0625000
        k(    4) = (   0.0379955   0.0000049   0.0000000), wk =   0.1250000
        k(    5) = (   0.0379955   0.0419400   0.0000000), wk =   0.1250000
        k(    6) = (   0.0379955  -0.0838652   0.0000000), wk =   0.1250000
        k(    7) = (   0.0379955  -0.0419301   0.0000000), wk =   0.1250000
        k(    8) = (  -0.0759910  -0.0000099   0.0000000), wk =   0.0625000
        k(    9) = (  -0.0759910   0.0419252   0.0000000), wk =   0.1250000
        k(   10) = (  -0.0759910  -0.0838800   0.0000000), wk =   0.0625000

     Initial potential from superposition of free atoms

     starting charge  378.99916, renormalised to  395.00000

     negative rho (up, down):  8.051E-03 8.058E-03

     %%%%%%%%%%%%%%%%%%%%%%%%%%%%%%%%%%%%%%%%%%%%%%%%%%%%%%%%%%%%%%%%%%%%%%%%
     %                                                                      %
     % You are using vdW-DF, which was implemented by the Thonhauser group. %
     % Please cite the following two papers that made this development      %
     % possible and the two reviews that describe the various versions:     %
     %                                                                      %
     %   T. Thonhauser et al., PRL 115, 136402 (2015).                      %
     %   T. Thonhauser et al., PRB 76, 125112 (2007).                       %
     %   K. Berland et al., Rep. Prog. Phys. 78, 066501 (2015).             %
     %   D.C. Langreth et al., J. Phys.: Condens. Matter 21, 084203 (2009). %
     %                                                                      %
     %                                                                      %
     % If you are calculating the stress with vdW-DF, please also cite:     %
     %                                                                      %
     %   R. Sabatini et al., J. Phys.: Condens. Matter 24, 424209 (2012).   %
     %                                                                      %
     %%%%%%%%%%%%%%%%%%%%%%%%%%%%%%%%%%%%%%%%%%%%%%%%%%%%%%%%%%%%%%%%%%%%%%%%

     Adding external electric field

     Computed dipole along edir(3) :
        Dipole               -8.5826 Ry au,        -21.8148 Debye
        Dipole field         -0.0162 Ry au,

        Potential amp.        1.5014 Ry
        Total length         46.3494 bohr

[...]

     Starting wfcs are  299 atomic wfcs
  @ DRIVER MODE: Message from server: STATUS
  @ DRIVER MODE: Message from server: POSDATA
  @ DRIVER MODE: Reading and sharing cell
  @ DRIVER MODE: Reading and sharing positions
  @ DRIVER MODE: Received positions

     Self-consistent Calculation

     iteration #  1     ecut=    29.40 Ry     beta= 0.05
     Davidson diagonalization with overlap
     c_bands:  1 eigenvalues not converged
     c_bands:  1 eigenvalues not converged
     c_bands:  1 eigenvalues not converged
     c_bands:  3 eigenvalues not converged
     c_bands:  1 eigenvalues not converged
     c_bands:  3 eigenvalues not converged
     c_bands:  1 eigenvalues not converged
     c_bands:  1 eigenvalues not converged
     c_bands:  1 eigenvalues not converged
     c_bands:  1 eigenvalues not converged
     c_bands:  1 eigenvalues not converged
     c_bands:  3 eigenvalues not converged
     c_bands:  1 eigenvalues not converged
     c_bands:  3 eigenvalues not converged
     c_bands:  1 eigenvalues not converged
     c_bands:  1 eigenvalues not converged
     ethr =  1.00E-05,  avg # of iterations = 19.2

[...]

     total energy              =   -2599.58622649 Ry
     estimated scf accuracy    <    3761.44277721 Ry

     total magnetization       =     0.00 Bohr mag/cell
     absolute magnetization    =     0.02 Bohr mag/cell

[...]

     iteration #  3     ecut=    29.40 Ry     beta= 0.05
     Davidson diagonalization with overlap
     ethr =  1.00E-02,  avg # of iterations = 14.5

[...]

     iteration # 68     ecut=    29.40 Ry     beta= 0.05
     Davidson diagonalization with overlap
     c_bands:  1 eigenvalues not converged
     ethr =  9.56E-09,  avg # of iterations = 13.6

[...]

     total energy              =   -2939.12585218 Ry
     estimated scf accuracy    <       0.00000009 Ry

[...]

     iteration # 83     ecut=    29.40 Ry     beta= 0.05
     Davidson diagonalization with overlap
     ethr =  2.29E-11,  avg # of iterations =  9.5

     negative rho (up, down):  8.111E-03 8.111E-03

[...]

     Adding external electric field

     Computed dipole along edir(3) :
        Dipole                0.9131 Ry au,          2.3208 Debye
        Dipole field          0.0017 Ry au,

        Potential amp.       -0.1597 Ry
        Total length         46.3494 bohr

     Magnetic moment per site  (integrated on atomic sphere of radius R)
     atom   1 (R=0.727)  charge=  7.9485  magn= -0.0042
     atom   2 (R=0.727)  charge=  7.9315  magn= -0.0004
     atom   3 (R=0.727)  charge=  4.9369  magn=  0.0003
     atom   4 (R=0.727)  charge=  4.9738  magn=  0.0001
     atom   5 (R=0.727)  charge=  4.9424  magn=  0.0001
     atom   6 (R=0.727)  charge=  4.9431  magn=  0.0001
     atom   7 (R=0.727)  charge=  7.9299  magn= -0.0003
     atom   8 (R=0.727)  charge=  7.9249  magn= -0.0006
     atom   9 (R=0.727)  charge=  4.9562  magn=  0.0000
     atom  10 (R=0.727)  charge=  4.9398  magn=  0.0000
     atom  11 (R=0.727)  charge=  4.9438  magn=  0.0000
     atom  12 (R=0.727)  charge=  4.9403  magn=  0.0000
     atom  13 (R=0.727)  charge=  7.9199  magn= -0.0003
     atom  14 (R=0.727)  charge=  7.9286  magn= -0.0001
     atom  15 (R=0.727)  charge=  4.9367  magn=  0.0001
     atom  16 (R=0.727)  charge=  4.9585  magn=  0.0000
     atom  17 (R=0.727)  charge=  4.9268  magn=  0.0000
     atom  18 (R=0.727)  charge=  4.9196  magn=  0.0000
     atom  19 (R=0.727)  charge=  7.9517  magn= -0.0000
     atom  20 (R=0.727)  charge=  7.9765  magn= -0.0001
     atom  21 (R=0.727)  charge=  4.8265  magn=  0.0004
     atom  22 (R=0.727)  charge=  4.9097  magn=  0.0002
     atom  23 (R=0.727)  charge=  4.9339  magn=  0.0006
     atom  24 (R=0.727)  charge=  4.9340  magn=  0.0006
     atom  25 (R=0.727)  charge=  7.9486  magn= -0.0042
     atom  26 (R=0.727)  charge=  7.9316  magn= -0.0004
     atom  27 (R=0.727)  charge=  4.9364  magn=  0.0003
     atom  28 (R=0.727)  charge=  4.9740  magn=  0.0001
     atom  29 (R=0.727)  charge=  4.9433  magn=  0.0001
     atom  30 (R=0.727)  charge=  4.9439  magn=  0.0001
     atom  31 (R=0.727)  charge=  7.9304  magn= -0.0002
     atom  32 (R=0.727)  charge=  7.9251  magn= -0.0007
     atom  33 (R=0.727)  charge=  4.9553  magn=  0.0000
     atom  34 (R=0.727)  charge=  4.9242  magn=  0.0001
     atom  35 (R=0.727)  charge=  4.9448  magn=  0.0001
     atom  36 (R=0.727)  charge=  4.9438  magn=  0.0000
     atom  37 (R=0.727)  charge=  7.9230  magn= -0.0002
     atom  38 (R=0.727)  charge=  7.9295  magn= -0.0001
     atom  39 (R=0.727)  charge=  4.9078  magn=  0.0001
     atom  40 (R=0.727)  charge=  4.9611  magn=  0.0000
     atom  41 (R=0.727)  charge=  4.9355  magn=  0.0000
     atom  42 (R=0.727)  charge=  4.9347  magn=  0.0000
     atom  43 (R=0.727)  charge=  7.9537  magn= -0.0000
     atom  44 (R=0.727)  charge=  7.9722  magn= -0.0003
     atom  45 (R=0.727)  charge=  4.8265  magn=  0.0004
     atom  46 (R=0.727)  charge=  4.9340  magn=  0.0006
     atom  47 (R=0.727)  charge=  4.9340  magn=  0.0006
     atom  48 (R=0.502)  charge=  2.0014  magn=  0.0000
     atom  49 (R=0.448)  charge=  0.8490  magn=  0.0000
     atom  50 (R=0.448)  charge=  0.4992  magn= -0.0000
     atom  51 (R=0.448)  charge=  0.5030  magn= -0.0000
     atom  52 (R=0.448)  charge=  0.5039  magn= -0.0000
     atom  53 (R=0.502)  charge=  1.9579  magn=  0.0001

     End of self-consistent calculation

 ------ SPIN UP ------------

          k = 0.0000 0.0000 0.0000 ( 18029 PWs)   bands (ev):

   -55.7703 -55.7680 -55.7363 -55.7320 -55.6815 -55.6333 -55.5943 -55.5604
   -55.5533 -55.5197 -55.5178 -55.4451 -54.9545 -54.8052 -54.7536 -54.7196
   -32.3168 -32.2564 -32.1729 -32.0930 -32.0619 -32.0543 -32.0452 -32.0155
   -32.0038 -31.9684 -31.9382 -31.9216 -31.9198 -31.9029 -31.8808 -31.8782
   -31.8765 -31.8760 -31.8632 -31.8331 -31.8264 -31.8197 -31.7987 -31.7900
   -31.7862 -31.7805 -31.7790 -31.7531 -31.7393 -31.7339 -31.7238 -31.7084
   -31.7045 -31.6671 -31.6346 -31.5622 -31.4906 -31.3363 -31.1656 -31.1604
   -31.1011 -31.0724 -31.0629 -31.0500 -30.9774 -30.9108 -30.8908 -30.7796
   -19.4269 -16.5156 -16.2509 -15.9657 -15.9137 -15.8395 -15.7460 -15.6231
   -15.5275 -15.4087 -15.3700 -15.3142 -15.3064 -15.2621 -15.2351 -15.2311
   -15.2051 -15.1970 -15.1324 -15.1250 -15.0746 -15.0630 -15.0150 -14.9799
   -14.9683 -14.9134 -14.8444 -14.8033 -14.6841 -14.1586 -13.2561 -13.1396
   -12.3677  -7.2633  -4.9475  -4.8012  -3.8978  -3.7554  -3.7058  -3.6832
    -3.6388  -3.4384  -3.3498  -3.2822  -3.0424  -2.9510  -2.9265  -2.9158
    -2.8667  -2.7094  -2.6590  -2.6029  -2.5866  -2.5604  -2.5385  -2.5303
    -2.4948  -2.4848  -2.4527  -2.4208  -2.3245  -2.2113  -2.1819  -2.1050
    -2.0886  -2.0728  -2.0427  -2.0332  -2.0232  -2.0135  -1.9947  -1.9578
    -1.8918  -1.8504  -1.7843  -1.7009  -1.5591  -1.5365  -1.4592  -1.3834
    -1.3041  -1.2612  -1.2395  -1.2109  -1.1711  -1.0912  -1.0653  -0.9192
    -0.8228  -0.7892  -0.7725  -0.7299  -0.6938  -0.5914  -0.5697  -0.5407
    -0.5318  -0.5040  -0.4286  -0.3739  -0.2420  -0.2111  -0.2073  -0.1696
    -0.0987  -0.0448   0.0085   0.0577   0.0656   0.1013   0.1615   0.1866
     0.1913   0.2341   0.2764   0.3522   0.3778   0.4517   0.4557   0.5196
     0.5636   0.6454   0.7528   0.8750   1.0191   1.1555   1.2000   1.2688
     1.3643   1.4607   1.8388   1.8846   2.1598   3.3405   3.4516   3.4707
     3.4831   3.5897   3.7999   3.8203   3.8697   3.8898   3.8978

[...]

          k =-0.0760-0.0000 0.0000 ( 17886 PWs)   bands (ev):

[...]

 ------ SPIN DOWN ----------

[...]

          k = 0.0380-0.0419 0.0000 ( 17876 PWs)   bands (ev):

[...]

          k =-0.0760-0.0839 0.0000 ( 17948 PWs)   bands (ev):

   -55.7612 -55.7611 -55.7508 -55.7494 -55.6749 -55.6409 -55.5781 -55.5777
   -55.5374 -55.5370 -55.5135 -55.4495 -54.9534 -54.8076 -54.7375 -54.7374
   -32.1205 -32.1170 -32.0751 -32.0750 -32.0561 -32.0560 -32.0182 -32.0031
   -31.9969 -31.9882 -31.9195 -31.9143 -31.9037 -31.8974 -31.8817 -31.8814
   -31.8799 -31.8784 -31.8772 -31.8706 -31.8526 -31.8500 -31.8486 -31.8121
   -31.7827 -31.7814 -31.7796 -31.7667 -31.7665 -31.7570 -31.7559 -31.7544
   -31.7532 -31.7349 -31.7102 -31.6595 -31.4381 -31.3190 -31.1678 -31.1578
   -31.0790 -31.0637 -31.0635 -30.9740 -30.9738 -30.9350 -30.9350 -30.9151
   -19.4245 -15.9159 -15.9098 -15.7483 -15.7137 -15.6481 -15.6393 -15.5716
   -15.5045 -15.4594 -15.4544 -15.3395 -15.3374 -15.3227 -15.3013 -15.2470
   -15.2307 -15.2295 -15.2257 -15.2180 -15.2064 -15.1792 -15.1484 -15.0974
   -15.0924 -15.0721 -15.0616 -14.9404 -14.5297 -14.4686 -13.2404 -13.2401
   -12.3698  -7.2496  -4.9493  -4.7992  -3.6321  -3.2051  -3.1888  -3.0012
    -2.9176  -2.9064  -2.8911  -2.7377  -2.7254  -2.7097  -2.6516  -2.6407
    -2.6346  -2.5987  -2.5825  -2.5587  -2.5179  -2.5133  -2.4647  -2.4616
    -2.4470  -2.4218  -2.4066  -2.4003  -2.3878  -2.3720  -2.3355  -2.2787
    -2.2410  -2.2140  -2.1853  -2.0889  -2.0284  -1.9925  -1.9254  -1.9168
    -1.8658  -1.8411  -1.8267  -1.7620  -1.6902  -1.6599  -1.5759  -1.4843
    -1.4661  -1.4506  -1.3322  -1.3181  -1.2432  -1.2196  -1.1358  -1.1186
    -1.0790  -0.9682  -0.9450  -0.9135  -0.8791  -0.8352  -0.7715  -0.7345
    -0.7325  -0.6837  -0.6400  -0.5838  -0.5226  -0.5107  -0.4952  -0.4863
    -0.4231  -0.3880  -0.3666  -0.2852  -0.2697  -0.1880  -0.0443  -0.0117
     0.1459   0.1950   0.3041   0.3318   0.4226   0.4442   0.5386   0.5418
     0.5741   0.7032   0.7222   0.7400   0.7560   0.7757   0.7997   0.9385
     1.6339   1.6341   1.7054   1.7056   2.0976   3.6722   3.7092   3.7593
     3.7807   3.8832   3.8888   3.8917   3.8990   4.0210   4.0249

     the Fermi energy is     3.3529 ev

!    total energy              =   -2939.12585676 Ry
     estimated scf accuracy    <       0.00000006 Ry
     smearing contrib. (-TS)   =      -0.02052187 Ry
     internal energy E=F+TS    =   -2939.10533489 Ry

     The total energy is F=E-TS. E is the sum of the following terms:
     one-electron contribution =  -24210.89649496 Ry
     hartree contribution      =   12194.20532503 Ry
     xc contribution           =    -485.20141206 Ry
     ewald contribution        =    9562.78567381 Ry
     electric field correction =       0.00157329 Ry

     total magnetization       =    -0.01 Bohr mag/cell
     absolute magnetization    =     0.03 Bohr mag/cell

     convergence has been achieved in  83 iterations

     Forces acting on atoms (cartesian axes, Ry/au):

     atom    1 type  1   force =     0.00008970   -0.00020375    0.09580188
     atom    2 type  1   force =     0.00007550   -0.00062615   -0.17548998
     atom    3 type  2   force =     0.00017787   -0.00019157   -0.02304475
     atom    4 type  2   force =     0.00004079   -0.00128683    0.05263546
     atom    5 type  2   force =    -0.00977377   -0.00031602    0.00253610
     atom    6 type  2   force =     0.01165321    0.00022511    0.00291818
     atom    7 type  1   force =     0.00088486   -0.00000586   -0.00990216
     atom    8 type  1   force =     0.00000493    0.00530203    0.01815693
     atom    9 type  2   force =    -0.00001417   -0.00028904   -0.00010957
     atom   10 type  2   force =    -0.00254002    0.00216617   -0.01348779
     atom   11 type  2   force =    -0.00097837    0.00010508    0.00018651
     atom   12 type  2   force =     0.00038888   -0.00025616    0.00049391
     atom   13 type  1   force =     0.00009181   -0.00008613    0.00052823
     atom   14 type  1   force =    -0.00003074   -0.00013358   -0.00016527
     atom   15 type  2   force =    -0.00065427    0.00014101    0.00047565
     atom   16 type  2   force =    -0.00043766    0.00007681    0.00019486
     atom   17 type  2   force =    -0.00017145   -0.00009644   -0.00036999
     atom   18 type  2   force =     0.00024864    0.00025366    0.00012205
     atom   19 type  1   force =    -0.00056590   -0.00058322    0.00071294
     atom   20 type  1   force =    -0.00030494    0.00031189   -0.00066088
     atom   21 type  2   force =     0.00006597   -0.00005862    0.10324281
     atom   22 type  2   force =     0.00002651    0.00001695   -0.00054676
     atom   23 type  2   force =    -0.07155044   -0.00019039   -0.02753775
     atom   24 type  2   force =     0.07153071    0.00031395   -0.02759743
     atom   25 type  1   force =     0.00012227   -0.00027061    0.09517983
     atom   26 type  1   force =     0.00008451   -0.00048458   -0.17564645
     atom   27 type  2   force =     0.00015992   -0.00012332   -0.02179546
     atom   28 type  2   force =     0.00008194   -0.00106164    0.05250910
     atom   29 type  2   force =    -0.01015683    0.00023378    0.00291069
     atom   30 type  2   force =     0.01197516    0.00051941    0.00329035
     atom   31 type  1   force =     0.00088419    0.00413799   -0.01176984
     atom   32 type  1   force =     0.00013836   -0.00633863    0.01830332
     atom   33 type  2   force =     0.00016121    0.00041621   -0.00010374
     atom   34 type  2   force =    -0.00308510   -0.00010862   -0.00866827
     atom   35 type  2   force =    -0.00021231    0.00006969    0.00002124
     atom   36 type  2   force =    -0.00003440    0.00028058   -0.00005513
     atom   37 type  1   force =     0.00042808   -0.00095208    0.00018222
     atom   38 type  1   force =    -0.00031617    0.00009676    0.00034284
     atom   39 type  2   force =     0.00013362   -0.00025046    0.00062639
     atom   40 type  2   force =    -0.00008348    0.00027327    0.00013941
     atom   41 type  2   force =     0.00013258   -0.00021993   -0.00009812
     atom   42 type  2   force =    -0.00060169   -0.00001165   -0.00031831
     atom   43 type  1   force =     0.00027067    0.00053319    0.00014100
     atom   44 type  1   force =     0.00083660   -0.00173484    0.00176306
     atom   45 type  2   force =     0.00007435   -0.00006163    0.10319807
     atom   46 type  2   force =    -0.07156437   -0.00009673   -0.02753200
     atom   47 type  2   force =     0.07154773    0.00025346   -0.02759276
     atom   48 type  3   force =    -0.00295729    0.00308006   -0.01057576
     atom   49 type  4   force =     0.00019088   -0.00131671    0.00411978
     atom   50 type  5   force =     0.00095931    0.00001283    0.00066205
     atom   51 type  5   force =    -0.00024265   -0.00063380    0.00094807
     atom   52 type  5   force =     0.00013639   -0.00062615   -0.00102909
     atom   53 type  3   force =     0.00267888   -0.00020474    0.00175435

     Total force =     0.364973     Total SCF correction =     0.000423
  @ DRIVER MODE: Message from server: STATUS
  @ DRIVER MODE: Message from server: GETFORCE
  @ DRIVER MODE: Returning v,forces,stress,ensemble

     Writing output data file ./calc.save/
  @ DRIVER MODE: Message from server: EXIT
  @ DRIVE MODE: Exiting

     General routines

     Parallel routines

   This run was terminated on:  20: 7: 4  15Jul2021

   JOB DONE.