     Program PWSCF v.6.7GPU starts on 25Sep2021 at 18:44:27

     R & G space division:  proc/nbgrp/npool/nimage =       8
     Reading input from /storage/home/hcoda1/3/ntian30/research/carbon/CxH_vib/H2O_calc/ads_slab/CH3OHN2HO_a/out_0008/pw.inp
Warning: card &CELL ignored
Warning: card   CELL_DYNAMICS='IPI', ignored
Warning: card / ignored

     Current dimensions of program PWSCF are:
     Max number of different atomic species (ntypx) = 10
     Max number of k-points (npk) =  40000
     Max angular momentum in pseudopotentials (lmaxx) =  3
     Presently no symmetry can be used with electric field

     Message from routine cell_base_init:
     DEPRECATED: use true lattice parameter, not A to a.u. conversion factor

     IMPORTANT: XC functional enforced from input :
     Exchange-correlation= BEEF-VDW
                           (   1   4  43  14   2   0   0)
     Any further DFT definition will be discarded
     Please, verify this is what you really want

  @ DRIVER MODE: Connecting to
 qe_1139763_2971668.sched-torque.pace.gatech.eduon6fmt0y_scratch
  using UNIX socket
  @ DRIVER MODE: Message from server: STATUS
  @ DRIVER MODE: Message from server: INIT
  @ DRIVER MODE: Receiving replica           0          -1
  @ DRIVER MODE: Receiving encoded integer          25
  @ DRIVER MODE:  SCF:  T  FORCE:  T  STRESS:  F  VC:  F  ENSEMBLE:  F
  @ DRIVER MODE:  SCF:  T  FORCE:  T  STRESS:  F  VC:  F  ENSEMBLE:  F

     Using Slab Decomposition

     bravais-lattice index     =            0
     lattice parameter (alat)  =       1.8897  a.u.
     unit-cell volume          =    6658.9804 (a.u.)^3
     number of atoms/cell      =           57
     number of atomic types    =            5
     number of electrons       =       409.00
     number of Kohn-Sham states=          214
     kinetic-energy cutoff     =      29.3995  Ry
     charge density cutoff     =     293.9946  Ry
     scf convergence threshold =      7.3E-08
     mixing beta               =       0.0500
     number of iterations used =            8  plain     mixing
     Exchange-correlation= BEEF-VDW
                           (   1   4  43  14   2   0   0)

     celldm(1)=   1.889726  celldm(2)=   0.000000  celldm(3)=   0.000000
     celldm(4)=   0.000000  celldm(5)=   0.000000  celldm(6)=   0.000000

     crystal axes: (cart. coord. in units of alat)
               a(1) = (   6.579727   0.000000   0.000000 )
               a(2) = (  -0.000775   5.961596   0.000000 )
               a(3) = (   0.000000   0.000000  25.155947 )

     reciprocal axes: (cart. coord. in units 2 pi/alat)
               b(1) = (  0.151982  0.000020  0.000000 )
               b(2) = (  0.000000  0.167740  0.000000 )
               b(3) = (  0.000000  0.000000  0.039752 )

     PseudoPot. # 1 for Ti read from file:
     /storage/coda1/p-amedford6/0/shared/rich_project_chbe-medford/medford-share/data/pseudos_module/espresso/nninc/pbe/van/Ti.UPF
     MD5 check sum: 8e4df49b7f0d34bbd5052bf3f5ea0213
     Pseudo is Ultrasoft, Zval = 12.0
     Generated by new atomic code, or converted to UPF format
     Using radial grid of  851 points,  6 beta functions with:
                l(1) =   0
                l(2) =   0
                l(3) =   1
                l(4) =   1
                l(5) =   2
                l(6) =   2
     Q(r) pseudized with  8 coefficients,  rinner =    1.000   1.000   1.000
                                                       1.000   1.000

     PseudoPot. # 2 for O  read from file:
     /storage/coda1/p-amedford6/0/shared/rich_project_chbe-medford/medford-share/data/pseudos_module/espresso/nninc/pbe/van/O.UPF
     MD5 check sum: 78c19812648e8988a0fe644b0f25305e
     Pseudo is Ultrasoft, Zval =  6.0
     Generated by new atomic code, or converted to UPF format
     Using radial grid of  737 points,  4 beta functions with:
                l(1) =   0
                l(2) =   0
                l(3) =   1
                l(4) =   1
     Q(r) pseudized with  8 coefficients,  rinner =    0.800   0.800   0.800

     PseudoPot. # 3 for C  read from file:
     /storage/coda1/p-amedford6/0/shared/rich_project_chbe-medford/medford-share/data/pseudos_module/espresso/nninc/pbe/van/C.UPF
     MD5 check sum: 1a69bf6b8db32088f5b2163dbdb77a27
     Pseudo is Ultrasoft, Zval =  4.0
     Generated by new atomic code, or converted to UPF format
     Using radial grid of  721 points,  4 beta functions with:
                l(1) =   0
                l(2) =   0
                l(3) =   1
                l(4) =   1
     Q(r) pseudized with  8 coefficients,  rinner =    0.800   0.800   0.800

     PseudoPot. # 4 for H  read from file:
     /storage/coda1/p-amedford6/0/shared/rich_project_chbe-medford/medford-share/data/pseudos_module/espresso/nninc/pbe/van/H.UPF
     MD5 check sum: b5ee9d7bfd3a09ee7748110bda690ff7
     Pseudo is Ultrasoft, Zval =  1.0
     Generated by new atomic code, or converted to UPF format
     Using radial grid of  615 points,  1 beta functions with:
                l(1) =   0
     Q(r) pseudized with  8 coefficients,  rinner =    0.800

     PseudoPot. # 5 for N  read from file:
     /storage/coda1/p-amedford6/0/shared/rich_project_chbe-medford/medford-share/data/pseudos_module/espresso/nninc/pbe/van/N.UPF
     MD5 check sum: 90d10febe142ad51ac9d5be1deb811c4
     Pseudo is Ultrasoft, Zval =  5.0
     Generated by new atomic code, or converted to UPF format
     Using radial grid of  729 points,  4 beta functions with:
                l(1) =   0
                l(2) =   0
                l(3) =   1
                l(4) =   1
     Q(r) pseudized with  8 coefficients,  rinner =    0.800   0.800   0.800

     atomic species   valence    mass     pseudopotential
        Ti1           12.00    47.86700     Ti( 1.00)
        O1             6.00    15.99900     O ( 1.00)
        C1             4.00    12.01100     C ( 1.00)
        H1             1.00     1.00800     H ( 1.00)
        N1             5.00    14.00700     N ( 1.00)

     No symmetry found

   Cartesian axes

     site n.     atom                  positions (alat units)
         1           Ti1 tau(   1) = (   0.0004258   2.9801865   6.0000000  )
         2           Ti1 tau(   2) = (   3.2906075   1.4906267   6.0002472  )
         3           O1  tau(   3) = (   0.0006271   0.0005054   7.9858123  )
         4           O1  tau(   4) = (   3.2906025   0.0005020   7.3038282  )
         5           O1  tau(   5) = (   4.5942328   1.4918067   9.2879030  )
         6           O1  tau(   6) = (   1.9868534   1.4903216   9.2879459  )
         7           Ti1 tau(   7) = (   3.3371032   3.0268772   9.1887580  )
         8           Ti1 tau(   8) = (   0.0611061   1.5258697   9.2809523  )
         9           O1  tau(   9) = (   3.3143856   0.0188946  11.3581724  )
        10           O1  tau(  10) = (   0.0164151   0.0031400  10.5895864  )
        11           O1  tau(  11) = (   1.3088961   1.4994640  12.6347600  )
        12           O1  tau(  12) = (   5.3347766   1.4946156  12.6347356  )
        13           Ti1 tau(  13) = (   0.0202478   3.0292801  12.5720800  )
        14           Ti1 tau(  14) = (   3.3188568   1.5851219  12.4260843  )
        15           O1  tau(  15) = (   0.0445434   5.9450813  14.6510506  )
        16           O1  tau(  16) = (   3.3207065   5.8849141  14.0104376  )
        17           O1  tau(  17) = (   4.6249962   1.5116716  16.1313945  )
        18           O1  tau(  18) = (   2.0639035   1.5439872  16.0680944  )
        19           Ti1 tau(  19) = (   3.3360141   2.9454253  15.6763505  )
        20           Ti1 tau(  20) = (   0.0686920   1.3314864  15.9334539  )
        21           O1  tau(  21) = (   3.2904802   0.0005063   4.7018136  )
        22           O1  tau(  22) = (   0.0979609   0.0039778  17.1657837  )
        23           O1  tau(  23) = (   1.3043587   1.4918075   6.0039043  )
        24           O1  tau(  24) = (   5.2767064   1.4903225   6.0039473  )
        25           Ti1 tau(  25) = (   0.0000382   5.9609847   6.0000000  )
        26           Ti1 tau(  26) = (   3.2902200   4.4714249   6.0002472  )
        27           O1  tau(  27) = (   0.0002396   2.9813036   7.9858123  )
        28           O1  tau(  28) = (   3.2902150   2.9813002   7.3038282  )
        29           O1  tau(  29) = (   4.5938453   4.4726049   9.2879030  )
        30           O1  tau(  30) = (   1.9864658   4.4711199   9.2879459  )
        31           Ti1 tau(  31) = (   3.3368545   0.0404040   9.1664313  )
        32           Ti1 tau(  32) = (   0.0604674   4.4799263   9.2696248  )
        33           O1  tau(  33) = (   3.3137611   2.9662427  11.3084074  )
        34           O1  tau(  34) = (   0.0134136   2.9850836  10.6046154  )
        35           O1  tau(  35) = (   1.3054726   4.4719986  12.6384794  )
        36           O1  tau(  36) = (   5.3362180   4.4781181  12.6390536  )
        37           Ti1 tau(  37) = (   0.0365240   0.0487139  12.4702884  )
        38           Ti1 tau(  38) = (   3.3180881   4.6653017  12.7087268  )
        39           O1  tau(  39) = (   0.0228105   2.9918545  14.7761892  )
        40           O1  tau(  40) = (   3.3431522   2.9700269  13.9040455  )
        41           O1  tau(  41) = (   4.6265974   4.4152401  16.1544535  )
        42           O1  tau(  42) = (   2.0571238   4.3592187  16.1146037  )
        43           Ti1 tau(  43) = (   3.3848590   5.9294639  16.2700006  )
        44           Ti1 tau(  44) = (   0.0517009   4.5268197  15.8466567  )
        45           O1  tau(  45) = (   3.2900926   2.9813045   4.7018136  )
        46           O1  tau(  46) = (   1.3039711   4.4726057   6.0039043  )
        47           O1  tau(  47) = (   5.2763189   4.4711207   6.0039473  )
        48           C1  tau(  48) = (   5.9450987   3.0517216  18.8599509  )
        49           O1  tau(  49) = (   0.1902289   3.0084098  17.6484507  )
        50           H1  tau(  50) = (   4.9625852   2.6832861  18.5889656  )
        51           H1  tau(  51) = (   1.1163247   3.1442434  17.8758057  )
        52           H1  tau(  52) = (   6.3899442   2.3914015  19.6026461  )
        53           H1  tau(  53) = (   5.8846647   4.0795385  19.2151274  )
        54           N1  tau(  54) = (   5.7598779   3.1323611  22.9045362  )
        55           N1  tau(  55) = (   4.9845974   3.1850264  22.1203839  )
        56           O1  tau(  56) = (   3.1467188   0.0118795  18.1166202  )
        57           H1  tau(  57) = (   2.2164505   0.0865285  18.3868412  )

     number of k points=    10  Fermi-Dirac smearing, width (Ry)=  0.0073
                       cart. coord. in units 2pi/alat
        k(    1) = (   0.0000000   0.0000000   0.0000000), wk =   0.1250000
        k(    2) = (   0.0000000   0.0419351   0.0000000), wk =   0.2500000
        k(    3) = (   0.0000000  -0.0838702   0.0000000), wk =   0.1250000
        k(    4) = (   0.0379955   0.0000049   0.0000000), wk =   0.2500000
        k(    5) = (   0.0379955   0.0419400   0.0000000), wk =   0.2500000
        k(    6) = (   0.0379955  -0.0838652   0.0000000), wk =   0.2500000
        k(    7) = (   0.0379955  -0.0419301   0.0000000), wk =   0.2500000
        k(    8) = (  -0.0759910  -0.0000099   0.0000000), wk =   0.1250000
        k(    9) = (  -0.0759910   0.0419252   0.0000000), wk =   0.2500000
        k(   10) = (  -0.0759910  -0.0838800   0.0000000), wk =   0.1250000

     Initial potential from superposition of free atoms

     starting charge  392.99914, renormalised to  409.00000

     negative rho (up, down):  9.140E-03 0.000E+00

     %%%%%%%%%%%%%%%%%%%%%%%%%%%%%%%%%%%%%%%%%%%%%%%%%%%%%%%%%%%%%%%%%%%%%%%%
     %                                                                      %
     % You are using vdW-DF, which was implemented by the Thonhauser group. %
     % Please cite the following two papers that made this development      %
     % possible and the two reviews that describe the various versions:     %
     %                                                                      %
     %   T. Thonhauser et al., PRL 115, 136402 (2015).                      %
     %   T. Thonhauser et al., PRB 76, 125112 (2007).                       %
     %   K. Berland et al., Rep. Prog. Phys. 78, 066501 (2015).             %
     %   D.C. Langreth et al., J. Phys.: Condens. Matter 21, 084203 (2009). %
     %                                                                      %
     %                                                                      %
     % If you are calculating the stress with vdW-DF, please also cite:     %
     %                                                                      %
     %   R. Sabatini et al., J. Phys.: Condens. Matter 24, 424209 (2012).   %
     %                                                                      %
     %%%%%%%%%%%%%%%%%%%%%%%%%%%%%%%%%%%%%%%%%%%%%%%%%%%%%%%%%%%%%%%%%%%%%%%%

     Adding external electric field

     Computed dipole along edir(3) :
        Dipole              -18.8687 Ry au,        -47.9594 Debye
        Dipole field         -0.0356 Ry au,

        Potential amp.        3.3008 Ry
        Total length         46.3494 bohr

     Starting wfcs are  309 atomic wfcs
  @ DRIVER MODE: Message from server: STATUS
  @ DRIVER MODE: Message from server: POSDATA
  @ DRIVER MODE: Reading and sharing cell
  @ DRIVER MODE: Reading and sharing positions
  @ DRIVER MODE: Received positions

     Self-consistent Calculation

     iteration #  1     ecut=    29.40 Ry     beta= 0.05
     Davidson diagonalization with overlap
     c_bands:  5 eigenvalues not converged
     c_bands:  5 eigenvalues not converged
     c_bands:  1 eigenvalues not converged
     c_bands:  4 eigenvalues not converged
     c_bands:  1 eigenvalues not converged
     c_bands:  3 eigenvalues not converged
     ethr =  1.00E-05,  avg # of iterations = 27.3

[...]

     total energy              =   -2113.17985196 Ry
     estimated scf accuracy    <   10331.00679559 Ry

     iteration #  2     ecut=    29.40 Ry     beta= 0.05
     Davidson diagonalization with overlap
     ethr =  1.00E-02,  avg # of iterations = 30.3

[...]

     iteration # 71     ecut=    29.40 Ry     beta= 0.05
     Davidson diagonalization with overlap
     c_bands:  1 eigenvalues not converged
     ethr =  1.96E-07,  avg # of iterations = 13.6

[...]

     total energy              =   -3006.45810019 Ry
     estimated scf accuracy    <       0.00000012 Ry

     iteration # 87     ecut=    29.40 Ry     beta= 0.05
     Davidson diagonalization with overlap
     ethr =  2.84E-11,  avg # of iterations =  4.6

     negative rho (up, down):  1.064E-02 0.000E+00

     Adding external electric field

     Computed dipole along edir(3) :
        Dipole                1.0539 Ry au,          2.6787 Debye
        Dipole field          0.0020 Ry au,

        Potential amp.       -0.1844 Ry
        Total length         46.3494 bohr

     End of self-consistent calculation

          k = 0.0000 0.0000 0.0000 ( 18029 PWs)   bands (ev):

   -55.3263 -55.2504 -55.2151 -55.1409 -55.1187 -55.0843 -55.0483 -55.0435
   -55.0415 -55.0227 -55.0128 -54.9827 -54.8959 -54.8199 -54.2099 -54.1759
   -31.7284 -31.7193 -31.6323 -31.6206 -31.5798 -31.5660 -31.5419 -31.5395
   -31.5046 -31.4932 -31.4816 -31.4168 -31.4041 -31.4038 -31.3772 -31.3588
   -31.3505 -31.3334 -31.3322 -31.3207 -31.3138 -31.3092 -31.2632 -31.2609
   -31.2591 -31.2525 -31.2493 -31.2368 -31.2304 -31.2113 -31.2048 -31.1943
   -31.1927 -31.1726 -31.1681 -31.1602 -31.1587 -31.1248 -31.0847 -31.0652
   -31.0341 -31.0237 -30.6162 -30.5298 -30.5072 -30.4331 -30.3468 -30.2352
   -21.5126 -19.7236 -16.1344 -15.9024 -15.7231 -15.5211 -15.4642 -15.3980
   -15.2106 -15.1372 -14.9814 -14.8561 -14.8422 -14.7847 -14.7824 -14.7738
   -14.7446 -14.7197 -14.6744 -14.6631 -14.6577 -14.6542 -14.5926 -14.5501
   -14.5471 -14.5204 -14.4996 -14.3726 -14.3256 -14.2710 -14.1008 -14.0789
   -12.7100 -12.5938 -10.5960  -6.6927  -6.4193  -4.6679  -4.6359  -4.5888
    -4.3979  -3.6508  -3.3769  -3.2520  -3.1513  -3.1326  -3.0685  -3.0177
    -2.8020  -2.7053  -2.6329  -2.5203  -2.3930  -2.3579  -2.3120  -2.2757
    -2.1829  -2.1656  -2.1338  -2.1033  -2.0476  -2.0198  -2.0120  -1.9990
    -1.9242  -1.9171  -1.7874  -1.7823  -1.7258  -1.6341  -1.6163  -1.5937
    -1.5867  -1.5519  -1.5499  -1.5070  -1.4834  -1.4598  -1.4336  -1.3570
    -1.3367  -1.2740  -1.2360  -1.0068  -0.8514  -0.8267  -0.7445  -0.7283
    -0.6968  -0.6678  -0.6481  -0.6376  -0.6000  -0.5845  -0.4809  -0.3778
    -0.3693  -0.3093  -0.2721  -0.2668  -0.1311  -0.0865  -0.0121   0.0105
     0.0429   0.0640   0.1483   0.1971   0.2188   0.2855   0.3168   0.4224
     0.4593   0.4789   0.5204   0.5756   0.6361   0.6702   0.7094   0.7128
     0.7454   0.7947   0.8240   0.8588   0.8811   0.9282   1.0310   1.0684
     1.0789   1.2191   1.2307   1.3128   1.4374   1.4894   1.7622   1.8146
     1.8617   2.0070   2.3836   2.4305   3.8735   3.9762   3.9972   4.0184
     4.0862   4.1680   4.3334   4.3564   4.4208   4.5224

[...]

          k = 0.0380-0.0419 0.0000 ( 17876 PWs)   bands (ev):

[...]

          k =-0.0760-0.0000 0.0000 ( 17886 PWs)   bands (ev):

[...]

          k =-0.0760-0.0839 0.0000 ( 17948 PWs)   bands (ev):

   -55.3256 -55.2373 -55.2281 -55.1350 -55.1143 -55.0901 -55.0474 -55.0424
   -55.0344 -55.0262 -55.0137 -54.9919 -54.8922 -54.8235 -54.1931 -54.1926
   -31.6389 -31.5759 -31.5661 -31.5484 -31.5396 -31.5394 -31.5335 -31.5175
   -31.4554 -31.4503 -31.4118 -31.3901 -31.3788 -31.3735 -31.3573 -31.3547
   -31.3514 -31.3494 -31.3427 -31.3368 -31.3318 -31.3298 -31.3145 -31.3124
   -31.2932 -31.2829 -31.2533 -31.2469 -31.2443 -31.2401 -31.2322 -31.2305
   -31.2243 -31.2194 -31.2157 -31.2111 -31.2086 -31.1703 -31.1517 -31.0887
   -31.0713 -31.0277 -30.5201 -30.5198 -30.4300 -30.4284 -30.3901 -30.3892
   -21.5124 -19.7198 -16.1110 -15.5322 -15.3756 -15.2049 -15.1910 -15.1116
   -15.0202 -15.0022 -14.9722 -14.9586 -14.9413 -14.9170 -14.9086 -14.8723
   -14.8107 -14.7688 -14.7457 -14.7374 -14.6904 -14.6852 -14.6817 -14.6189
   -14.6116 -14.5935 -14.5688 -14.5089 -14.4996 -14.3994 -14.3845 -14.2120
   -12.6961 -12.6953 -10.5980  -6.6930  -6.4211  -4.6649  -4.6428  -4.5747
    -4.3906  -3.6159  -3.3673  -2.6807  -2.5983  -2.5529  -2.4287  -2.3502
    -2.2978  -2.2473  -2.2263  -2.1810  -2.1599  -2.0904  -2.0559  -2.0466
    -2.0276  -2.0254  -1.9947  -1.9793  -1.9665  -1.9454  -1.9172  -1.8999
    -1.8895  -1.8686  -1.8484  -1.8227  -1.8104  -1.8009  -1.7859  -1.7702
    -1.6588  -1.6426  -1.6092  -1.4480  -1.4362  -1.3663  -1.3346  -1.3084
    -1.3051  -1.2744  -1.2600  -1.2184  -1.1135  -1.0840  -1.0349  -0.9997
    -0.8999  -0.8841  -0.8332  -0.7824  -0.7365  -0.7080  -0.6773  -0.6620
    -0.6090  -0.4699  -0.4494  -0.4044  -0.2851  -0.2117  -0.1961  -0.1836
    -0.1619  -0.1387  -0.0922  -0.0840  -0.0221  -0.0093   0.0612   0.0651
     0.0943   0.1157   0.2184   0.3403   0.4187   0.4632   0.5077   0.5571
     0.5905   0.6733   0.7500   0.8360   0.9118   0.9414   0.9553   1.0728
     1.1054   1.1580   1.2038   1.2242   1.2824   1.3181   1.3584   1.3915
     2.1757   2.1894   2.2458   2.2514   4.0539   4.3044   4.3644   4.3815
     4.3911   4.4234   4.4445   4.4957   4.5128   4.5363

     the Fermi energy is     3.8837 ev

!    total energy              =   -3006.45810619 Ry
     estimated scf accuracy    <       0.00000006 Ry
     smearing contrib. (-TS)   =      -0.02082655 Ry
     internal energy E=F+TS    =   -3006.43727964 Ry

     The total energy is F=E-TS. E is the sum of the following terms:
     one-electron contribution =  -22317.79365016 Ry
     hartree contribution      =   11258.43626443 Ry
     xc contribution           =    -501.14983630 Ry
     ewald contribution        =    8554.06784641 Ry
     electric field correction =       0.00209598 Ry

     convergence has been achieved in  87 iterations

     Forces acting on atoms (cartesian axes, Ry/au):

     atom    1 type  1   force =    -0.00037552   -0.00016850    0.09499332
     atom    2 type  1   force =    -0.00034603    0.00512770   -0.17479851
     atom    3 type  2   force =     0.00070982    0.00012871   -0.02673423
     atom    4 type  2   force =     0.00128990    0.00083218    0.05207720
     atom    5 type  2   force =    -0.01097334   -0.00256542    0.00076817
     atom    6 type  2   force =     0.01194661   -0.00381412    0.00178009
     atom    7 type  1   force =    -0.00021662    0.00038922    0.00066364
     atom    8 type  1   force =     0.00014706    0.00022540    0.00015792
     atom    9 type  2   force =     0.00024915    0.00075871   -0.00068466
     atom   10 type  2   force =    -0.00038952    0.00015851    0.00012712
     atom   11 type  2   force =     0.00044452   -0.00015399    0.00010026
     atom   12 type  2   force =    -0.00085584   -0.00015648    0.00035435
     atom   13 type  1   force =     0.00043532    0.00034576   -0.00021198
     atom   14 type  1   force =    -0.00034275   -0.00070101    0.00093663
     atom   15 type  2   force =    -0.00012566   -0.00051185   -0.00100387
     atom   16 type  2   force =    -0.00025555    0.00000928   -0.00021828
     atom   17 type  2   force =    -0.00083275    0.00037569    0.00009692
     atom   18 type  2   force =     0.00073915    0.00052450   -0.00026382
     atom   19 type  1   force =     0.00004127   -0.00080387    0.00014831
     atom   20 type  1   force =     0.00007484    0.00019429    0.00043087
     atom   21 type  2   force =    -0.00000303    0.00007156    0.10302466
     atom   22 type  2   force =    -0.00010174   -0.00014365    0.00103440
     atom   23 type  2   force =    -0.07194090    0.00013644   -0.02801036
     atom   24 type  2   force =     0.07177373    0.00063423   -0.02811643
     atom   25 type  1   force =    -0.00036854    0.00025953    0.10245298
     atom   26 type  1   force =    -0.00010307   -0.00474947   -0.17503647
     atom   27 type  2   force =     0.00084796    0.00117432   -0.02485649
     atom   28 type  2   force =     0.00119526    0.00025301    0.05170074
     atom   29 type  2   force =    -0.01193109    0.00381599    0.00170954
     atom   30 type  2   force =     0.01377121    0.00146773    0.00244384
     atom   31 type  1   force =    -0.00028715   -0.00015824    0.00079396
     atom   32 type  1   force =     0.00028491    0.00028656    0.00058789
     atom   33 type  2   force =     0.00000608    0.00020995    0.00006993
     atom   34 type  2   force =    -0.00027442   -0.00032152   -0.00058127
     atom   35 type  2   force =    -0.00023136    0.00004841   -0.00048364
     atom   36 type  2   force =    -0.00038098    0.00009992   -0.00010162
     atom   37 type  1   force =    -0.00005139   -0.00034055    0.00005079
     atom   38 type  1   force =    -0.00057332    0.00028528    0.00001902
     atom   39 type  2   force =    -0.00032123   -0.00025133    0.00074023
     atom   40 type  2   force =    -0.00019239    0.00011391    0.00027825
     atom   41 type  2   force =    -0.00120389   -0.00036353    0.00009370
     atom   42 type  2   force =     0.00138806    0.00007551   -0.00076174
     atom   43 type  1   force =    -0.00038403    0.00052779    0.00001594
     atom   44 type  1   force =     0.00026604   -0.00002015    0.00015268
     atom   45 type  2   force =     0.00000423    0.00013908    0.10260625
     atom   46 type  2   force =    -0.07183342   -0.00062794   -0.02795594
     atom   47 type  2   force =     0.07169266   -0.00013481   -0.02803158
     atom   48 type  3   force =     0.00376252   -0.00015047   -0.00194877
     atom   49 type  2   force =    -0.02471601   -0.00325061   -0.00100761
     atom   50 type  4   force =     0.00072744   -0.00056448   -0.00157701
     atom   51 type  4   force =     0.01784249    0.00292096    0.00448341
     atom   52 type  4   force =    -0.00036196    0.00020472   -0.00044206
     atom   53 type  4   force =     0.00017555   -0.00047150   -0.00149514
     atom   54 type  5   force =     0.00014836   -0.00007643    0.00036941
     atom   55 type  5   force =    -0.00052908    0.00006257   -0.00034074
     atom   56 type  2   force =     0.00083602   -0.00055674    0.00062976
     atom   57 type  4   force =    -0.00029756   -0.00080080   -0.00122996

     Total force =     0.366142     Total SCF correction =     0.000823
  @ DRIVER MODE: Message from server: STATUS
  @ DRIVER MODE: Message from server: GETFORCE
  @ DRIVER MODE: Returning v,forces,stress,ensemble

     Writing output data file ./calc.save/
  @ DRIVER MODE: Message from server: EXIT
  @ DRIVE MODE: Exiting

     General routines

     Parallel routines

   This run was terminated on:  19:21: 4  25Sep2021

   JOB DONE.