     Program PWSCF v.6.7GPU starts on 24Sep2021 at  2:51:49

     R & G space division:  proc/nbgrp/npool/nimage =       8
     Reading input from /storage/home/hcoda1/3/ntian30/research/carbon/CxH_vib/H2O_calc/ads_slab/CH3ON2HO_a/out_0032/pw.inp
Warning: card &CELL ignored
Warning: card   CELL_DYNAMICS='IPI', ignored
Warning: card / ignored

     Current dimensions of program PWSCF are:
     Max number of different atomic species (ntypx) = 10
     Max number of k-points (npk) =  40000
     Max angular momentum in pseudopotentials (lmaxx) =  3
     Presently no symmetry can be used with electric field

     Message from routine cell_base_init:
     DEPRECATED: use true lattice parameter, not A to a.u. conversion factor

     IMPORTANT: XC functional enforced from input :
     Exchange-correlation= BEEF-VDW
                           (   1   4  43  14   2   0   0)
     Any further DFT definition will be discarded
     Please, verify this is what you really want

  @ DRIVER MODE: Connecting to
 qe_1139763_2947306.sched-torque.pace.gatech.edurjdlongy_scratch
  using UNIX socket
  @ DRIVER MODE: Message from server: STATUS
  @ DRIVER MODE: Message from server: INIT
  @ DRIVER MODE: Receiving replica           0          -1
  @ DRIVER MODE: Receiving encoded integer          25
  @ DRIVER MODE:  SCF:  T  FORCE:  T  STRESS:  F  VC:  F  ENSEMBLE:  F
  @ DRIVER MODE:  SCF:  T  FORCE:  T  STRESS:  F  VC:  F  ENSEMBLE:  F

     Using Slab Decomposition

     bravais-lattice index     =            0
     lattice parameter (alat)  =       1.8897  a.u.
     unit-cell volume          =    6658.9804 (a.u.)^3
     number of atoms/cell      =           56
     number of atomic types    =            5
     number of electrons       =       408.00
     number of Kohn-Sham states=          214
     kinetic-energy cutoff     =      29.3995  Ry
     charge density cutoff     =     293.9946  Ry
     scf convergence threshold =      7.3E-08
     mixing beta               =       0.0500
     number of iterations used =            8  plain     mixing
     Exchange-correlation= BEEF-VDW
                           (   1   4  43  14   2   0   0)

     celldm(1)=   1.889726  celldm(2)=   0.000000  celldm(3)=   0.000000
     celldm(4)=   0.000000  celldm(5)=   0.000000  celldm(6)=   0.000000

     crystal axes: (cart. coord. in units of alat)
               a(1) = (   6.579727   0.000000   0.000000 )
               a(2) = (  -0.000775   5.961596   0.000000 )
               a(3) = (   0.000000   0.000000  25.155947 )

     reciprocal axes: (cart. coord. in units 2 pi/alat)
               b(1) = (  0.151982  0.000020  0.000000 )
               b(2) = (  0.000000  0.167740  0.000000 )
               b(3) = (  0.000000  0.000000  0.039752 )

     PseudoPot. # 1 for Ti read from file:
     /storage/coda1/p-amedford6/0/shared/rich_project_chbe-medford/medford-share/data/pseudos_module/espresso/nninc/pbe/van/Ti.UPF
     MD5 check sum: 8e4df49b7f0d34bbd5052bf3f5ea0213
     Pseudo is Ultrasoft, Zval = 12.0
     Generated by new atomic code, or converted to UPF format
     Using radial grid of  851 points,  6 beta functions with:
                l(1) =   0
                l(2) =   0
                l(3) =   1
                l(4) =   1
                l(5) =   2
                l(6) =   2
     Q(r) pseudized with  8 coefficients,  rinner =    1.000   1.000   1.000
                                                       1.000   1.000

     PseudoPot. # 2 for O  read from file:
     /storage/coda1/p-amedford6/0/shared/rich_project_chbe-medford/medford-share/data/pseudos_module/espresso/nninc/pbe/van/O.UPF
     MD5 check sum: 78c19812648e8988a0fe644b0f25305e
     Pseudo is Ultrasoft, Zval =  6.0
     Generated by new atomic code, or converted to UPF format
     Using radial grid of  737 points,  4 beta functions with:
                l(1) =   0
                l(2) =   0
                l(3) =   1
                l(4) =   1
     Q(r) pseudized with  8 coefficients,  rinner =    0.800   0.800   0.800

     PseudoPot. # 3 for C  read from file:
     /storage/coda1/p-amedford6/0/shared/rich_project_chbe-medford/medford-share/data/pseudos_module/espresso/nninc/pbe/van/C.UPF
     MD5 check sum: 1a69bf6b8db32088f5b2163dbdb77a27
     Pseudo is Ultrasoft, Zval =  4.0
     Generated by new atomic code, or converted to UPF format
     Using radial grid of  721 points,  4 beta functions with:
                l(1) =   0
                l(2) =   0
                l(3) =   1
                l(4) =   1
     Q(r) pseudized with  8 coefficients,  rinner =    0.800   0.800   0.800

     PseudoPot. # 4 for H  read from file:
     /storage/coda1/p-amedford6/0/shared/rich_project_chbe-medford/medford-share/data/pseudos_module/espresso/nninc/pbe/van/H.UPF
     MD5 check sum: b5ee9d7bfd3a09ee7748110bda690ff7
     Pseudo is Ultrasoft, Zval =  1.0
     Generated by new atomic code, or converted to UPF format
     Using radial grid of  615 points,  1 beta functions with:
                l(1) =   0
     Q(r) pseudized with  8 coefficients,  rinner =    0.800

     PseudoPot. # 5 for N  read from file:
     /storage/coda1/p-amedford6/0/shared/rich_project_chbe-medford/medford-share/data/pseudos_module/espresso/nninc/pbe/van/N.UPF
     MD5 check sum: 90d10febe142ad51ac9d5be1deb811c4
     Pseudo is Ultrasoft, Zval =  5.0
     Generated by new atomic code, or converted to UPF format
     Using radial grid of  729 points,  4 beta functions with:
                l(1) =   0
                l(2) =   0
                l(3) =   1
                l(4) =   1
     Q(r) pseudized with  8 coefficients,  rinner =    0.800   0.800   0.800

     atomic species   valence    mass     pseudopotential
        Ti1           12.00    47.86700     Ti( 1.00)
        O1             6.00    15.99900     O ( 1.00)
        C1             4.00    12.01100     C ( 1.00)
        H1             1.00     1.00800     H ( 1.00)
        N1             5.00    14.00700     N ( 1.00)

     No symmetry found

   Cartesian axes

     site n.     atom                  positions (alat units)
         1           Ti1 tau(   1) = (   0.0004258   2.9801865   6.0000000  )
         2           Ti1 tau(   2) = (   3.2906075   1.4906267   6.0002472  )
         3           O1  tau(   3) = (   0.0006271   0.0005054   7.9858123  )
         4           O1  tau(   4) = (   3.2906025   0.0005020   7.3038282  )
         5           O1  tau(   5) = (   4.5942328   1.4918067   9.2879030  )
         6           O1  tau(   6) = (   1.9868534   1.4903216   9.2879459  )
         7           Ti1 tau(   7) = (   3.3138730   3.1023225   9.2183157  )
         8           Ti1 tau(   8) = (   0.0392070   1.5780841   9.3433077  )
         9           O1  tau(   9) = (   3.2868017   0.0212601  11.3135411  )
        10           O1  tau(  10) = (   0.0022550   0.0140515  10.5858881  )
        11           O1  tau(  11) = (   1.2767464   1.5002397  12.6205121  )
        12           O1  tau(  12) = (   5.2993684   1.4943797  12.6172415  )
        13           Ti1 tau(  13) = (   0.0200588   3.0780815  12.7918821  )
        14           Ti1 tau(  14) = (   3.2574684   1.5637424  12.4212484  )
        15           O1  tau(  15) = (   6.5768379   0.0158506  14.6682411  )
        16           O1  tau(  16) = (   3.2886937   5.9311801  13.9109749  )
        17           O1  tau(  17) = (   4.5620935   1.5260772  16.0398494  )
        18           O1  tau(  18) = (   2.0292830   1.5431627  16.0187044  )
        19           Ti1 tau(  19) = (   3.3027642   2.9567202  15.6520962  )
        20           Ti1 tau(  20) = (   0.0552782   1.4362356  15.9688716  )
        21           O1  tau(  21) = (   3.2904802   0.0005063   4.7018136  )
        22           O1  tau(  22) = (   0.0488089   0.0211857  17.1900833  )
        23           O1  tau(  23) = (   1.3043587   1.4918075   6.0039043  )
        24           O1  tau(  24) = (   5.2767064   1.4903225   6.0039473  )
        25           Ti1 tau(  25) = (   0.0000382   5.9609847   6.0000000  )
        26           Ti1 tau(  26) = (   3.2902200   4.4714249   6.0002472  )
        27           O1  tau(  27) = (   0.0002396   2.9813036   7.9858123  )
        28           O1  tau(  28) = (   3.2902150   2.9813002   7.3038282  )
        29           O1  tau(  29) = (   4.5938453   4.4726049   9.2879030  )
        30           O1  tau(  30) = (   1.9864658   4.4711199   9.2879459  )
        31           Ti1 tau(  31) = (   3.3219941   0.1169887   9.1790125  )
        32           Ti1 tau(  32) = (   0.0373256   4.5280481   9.3594506  )
        33           O1  tau(  33) = (   3.2887547   2.9594671  11.2851190  )
        34           O1  tau(  34) = (   0.0046902   2.9985155  10.5475055  )
        35           O1  tau(  35) = (   1.2817606   4.4707209  12.6310527  )
        36           O1  tau(  36) = (   5.3098963   4.4869072  12.6241852  )
        37           Ti1 tau(  37) = (   6.5328698   0.0937101  12.6083326  )
        38           Ti1 tau(  38) = (   3.2790761   4.6595539  12.6693962  )
        39           O1  tau(  39) = (   0.0062896   2.9920245  14.6683812  )
        40           O1  tau(  40) = (   3.3079832   2.9813091  13.8732900  )
        41           O1  tau(  41) = (   4.5514670   4.4448635  16.0695425  )
        42           O1  tau(  42) = (   2.0242163   4.4286948  16.0089506  )
        43           Ti1 tau(  43) = (   3.3772342   5.9382356  16.2476532  )
        44           Ti1 tau(  44) = (   0.0845355   4.5653432  16.0322982  )
        45           O1  tau(  45) = (   3.2900926   2.9813045   4.7018136  )
        46           O1  tau(  46) = (   1.3039711   4.4726057   6.0039043  )
        47           O1  tau(  47) = (   5.2763189   4.4711207   6.0039473  )
        48           C1  tau(  48) = (   6.0101766   2.9784267  18.6088694  )
        49           O1  tau(  49) = (   6.5649008   2.9952511  17.2928482  )
        50           H1  tau(  50) = (   4.9185495   2.9407445  18.5675634  )
        51           H1  tau(  51) = (   6.3703738   2.0936667  19.1370987  )
        52           H1  tau(  52) = (   6.3118891   3.8824302  19.1399426  )
        53           N1  tau(  53) = (   6.0362039   3.1690275  22.5535725  )
        54           N1  tau(  54) = (   5.1417247   3.1052473  21.8962875  )
        55           O1  tau(  55) = (   3.2068502   5.9581871  18.0710493  )
        56           H1  tau(  56) = (   2.3500504   0.2277792  18.4614507  )

     number of k points=    10  Fermi-Dirac smearing, width (Ry)=  0.0073
                       cart. coord. in units 2pi/alat
        k(    1) = (   0.0000000   0.0000000   0.0000000), wk =   0.1250000
        k(    2) = (   0.0000000   0.0419351   0.0000000), wk =   0.2500000
        k(    3) = (   0.0000000  -0.0838702   0.0000000), wk =   0.1250000
        k(    4) = (   0.0379955   0.0000049   0.0000000), wk =   0.2500000
        k(    5) = (   0.0379955   0.0419400   0.0000000), wk =   0.2500000
        k(    6) = (   0.0379955  -0.0838652   0.0000000), wk =   0.2500000
        k(    7) = (   0.0379955  -0.0419301   0.0000000), wk =   0.2500000
        k(    8) = (  -0.0759910  -0.0000099   0.0000000), wk =   0.1250000
        k(    9) = (  -0.0759910   0.0419252   0.0000000), wk =   0.2500000
        k(   10) = (  -0.0759910  -0.0838800   0.0000000), wk =   0.1250000

     Initial potential from superposition of free atoms

     starting charge  391.99915, renormalised to  408.00000

     negative rho (up, down):  9.967E-03 0.000E+00

     %%%%%%%%%%%%%%%%%%%%%%%%%%%%%%%%%%%%%%%%%%%%%%%%%%%%%%%%%%%%%%%%%%%%%%%%
     %                                                                      %
     % You are using vdW-DF, which was implemented by the Thonhauser group. %
     % Please cite the following two papers that made this development      %
     % possible and the two reviews that describe the various versions:     %
     %                                                                      %
     %   T. Thonhauser et al., PRL 115, 136402 (2015).                      %
     %   T. Thonhauser et al., PRB 76, 125112 (2007).                       %
     %   K. Berland et al., Rep. Prog. Phys. 78, 066501 (2015).             %
     %   D.C. Langreth et al., J. Phys.: Condens. Matter 21, 084203 (2009). %
     %                                                                      %
     %                                                                      %
     % If you are calculating the stress with vdW-DF, please also cite:     %
     %                                                                      %
     %   R. Sabatini et al., J. Phys.: Condens. Matter 24, 424209 (2012).   %
     %                                                                      %
     %%%%%%%%%%%%%%%%%%%%%%%%%%%%%%%%%%%%%%%%%%%%%%%%%%%%%%%%%%%%%%%%%%%%%%%%

     Adding external electric field

     Computed dipole along edir(3) :
        Dipole              -16.8152 Ry au,        -42.7399 Debye
        Dipole field         -0.0317 Ry au,

        Potential amp.        2.9416 Ry
        Total length         46.3494 bohr

     Starting wfcs are  308 atomic wfcs
  @ DRIVER MODE: Message from server: STATUS
  @ DRIVER MODE: Message from server: POSDATA
  @ DRIVER MODE: Reading and sharing cell
  @ DRIVER MODE: Reading and sharing positions
  @ DRIVER MODE: Received positions

     Self-consistent Calculation

     iteration #  1     ecut=    29.40 Ry     beta= 0.05
     Davidson diagonalization with overlap
     c_bands:  4 eigenvalues not converged
     c_bands:  1 eigenvalues not converged
     c_bands:  5 eigenvalues not converged
     c_bands:  1 eigenvalues not converged
     c_bands:  2 eigenvalues not converged
     c_bands:  2 eigenvalues not converged
     c_bands:  1 eigenvalues not converged
     c_bands:  5 eigenvalues not converged
     ethr =  1.00E-05,  avg # of iterations = 27.4

[...]

     total energy              =   -2248.54642340 Ry
     estimated scf accuracy    <    8688.89931330 Ry

     iteration #  2     ecut=    29.40 Ry     beta= 0.05
     Davidson diagonalization with overlap
     ethr =  1.00E-02,  avg # of iterations = 29.1

[...]

     iteration # 62     ecut=    29.40 Ry     beta= 0.05
     Davidson diagonalization with overlap
     c_bands:  1 eigenvalues not converged
     ethr =  2.88E-08,  avg # of iterations =  6.7

[...]

     total energy              =   -3005.28885727 Ry
     estimated scf accuracy    <       0.00000008 Ry

     iteration # 81     ecut=    29.40 Ry     beta= 0.05
     Davidson diagonalization with overlap
     ethr =  1.88E-11,  avg # of iterations =  5.0

     negative rho (up, down):  1.138E-02 0.000E+00

     Adding external electric field

     Computed dipole along edir(3) :
        Dipole                0.5470 Ry au,          1.3903 Debye
        Dipole field          0.0010 Ry au,

        Potential amp.       -0.0957 Ry
        Total length         46.3494 bohr

     End of self-consistent calculation

          k = 0.0000 0.0000 0.0000 ( 18029 PWs)   bands (ev):

   -56.1297 -56.0822 -55.5720 -55.5527 -55.5386 -55.5146 -55.4812 -55.4573
   -55.4228 -55.3968 -55.3628 -55.3211 -55.3199 -55.1839 -54.7426 -54.7086
   -32.5426 -32.3939 -32.3436 -32.3092 -32.2145 -32.1690 -32.0755 -32.0189
   -32.0106 -31.9043 -31.8603 -31.8428 -31.8376 -31.8157 -31.8133 -31.7752
   -31.7725 -31.7590 -31.7385 -31.7317 -31.7280 -31.6866 -31.6773 -31.6619
   -31.6588 -31.6410 -31.6380 -31.6287 -31.6208 -31.6113 -31.6044 -31.5871
   -31.5722 -31.5670 -31.5608 -31.5258 -31.5170 -31.5140 -31.4836 -31.4385
   -31.4006 -31.3890 -31.1370 -31.0827 -31.0583 -30.9538 -30.8690 -30.7581
   -20.7312 -17.3366 -16.3424 -16.2866 -16.1454 -15.9088 -15.7644 -15.6869
   -15.4573 -15.4469 -15.3322 -15.3251 -15.2903 -15.1592 -15.1419 -15.1343
   -15.0830 -15.0685 -15.0454 -15.0433 -15.0395 -15.0312 -14.9736 -14.9544
   -14.9149 -14.8560 -14.7799 -14.7596 -14.7105 -14.6997 -14.6579 -14.4324
   -13.2439 -13.1352  -9.0873  -6.0742  -4.0950  -3.9844  -3.9179  -3.8885
    -3.8132  -3.7604  -3.5882  -3.4895  -3.4627  -3.3870  -3.2914  -3.1862
    -2.9719  -2.8205  -2.7575  -2.7187  -2.7099  -2.6764  -2.6352  -2.5735
    -2.5189  -2.4767  -2.4429  -2.4089  -2.3487  -2.3363  -2.3204  -2.2900
    -2.2703  -2.2493  -2.2134  -2.2016  -2.0704  -2.0337  -2.0041  -1.9925
    -1.9393  -1.9207  -1.9019  -1.8920  -1.8472  -1.7509  -1.6528  -1.6388
    -1.5949  -1.4089  -1.3331  -1.2872  -1.2087  -1.1432  -1.0659  -1.0453
    -1.0354  -0.9807  -0.9427  -0.8415  -0.8073  -0.7682  -0.7007  -0.6955
    -0.6561  -0.5965  -0.5713  -0.5099  -0.4821  -0.4486  -0.3099  -0.2741
    -0.2566  -0.1944  -0.1937  -0.1018  -0.0424   0.0106   0.0296   0.0851
     0.1251   0.1473   0.1983   0.2291   0.2429   0.3264   0.3755   0.3824
     0.4166   0.4559   0.4746   0.5063   0.5947   0.6429   0.6692   0.6949
     0.8390   0.8532   0.9076   1.0141   1.0238   1.2052   1.2751   1.3107
     1.4970   1.5354   1.8267   1.8724   3.1705   3.3337   3.6130   3.7254
     3.7695   3.8094   3.8849   3.9119   4.0663   4.1018

[...]

          k = 0.0380-0.0419 0.0000 ( 17876 PWs)   bands (ev):

[...]

          k =-0.0760-0.0000 0.0000 ( 17886 PWs)   bands (ev):

[...]

          k =-0.0760-0.0839 0.0000 ( 17948 PWs)   bands (ev):

   -56.1227 -56.0890 -55.5700 -55.5478 -55.5375 -55.5086 -55.4857 -55.4631
   -55.4246 -55.3980 -55.3543 -55.3292 -55.3182 -55.1858 -54.7257 -54.7253
   -32.3894 -32.3738 -32.3476 -32.3452 -32.2747 -32.2461 -31.9640 -31.8839
   -31.8549 -31.8376 -31.8149 -31.8053 -31.7919 -31.7864 -31.7768 -31.7621
   -31.7567 -31.7468 -31.7466 -31.7388 -31.7293 -31.7205 -31.7073 -31.7058
   -31.7038 -31.6871 -31.6818 -31.6569 -31.6485 -31.6472 -31.6298 -31.6234
   -31.6006 -31.5937 -31.5782 -31.5663 -31.5635 -31.5361 -31.5211 -31.5031
   -31.4391 -31.3926 -31.0715 -31.0713 -30.9526 -30.9509 -30.9111 -30.9102
   -20.7311 -17.2991 -16.3163 -15.6932 -15.6036 -15.5942 -15.5868 -15.5539
   -15.5181 -15.4534 -15.4388 -15.3707 -15.2987 -15.2680 -15.2272 -15.2023
   -15.1863 -15.1494 -15.1449 -15.0830 -15.0393 -15.0305 -15.0158 -15.0020
   -14.9575 -14.9495 -14.9406 -14.9245 -14.9156 -14.8546 -14.7548 -14.5772
   -13.2395 -13.2384  -9.0875  -6.0757  -4.0060  -3.9847  -3.9213  -3.8361
    -3.7012  -3.4590  -2.9261  -2.8459  -2.7671  -2.7649  -2.6960  -2.6762
    -2.6283  -2.6053  -2.5690  -2.5536  -2.5317  -2.4661  -2.4414  -2.4269
    -2.4234  -2.4147  -2.3986  -2.3797  -2.3373  -2.3281  -2.3153  -2.3057
    -2.2867  -2.2823  -2.2697  -2.2487  -2.2082  -2.1461  -2.0889  -1.9483
    -1.9401  -1.9142  -1.8950  -1.8708  -1.8456  -1.7947  -1.7131  -1.6931
    -1.6744  -1.5989  -1.5399  -1.3351  -1.3141  -1.2962  -1.2265  -1.1580
    -1.0916  -1.0739  -1.0393  -1.0051  -0.9817  -0.9419  -0.8850  -0.8509
    -0.8077  -0.7949  -0.7569  -0.7193  -0.6727  -0.6089  -0.6008  -0.5679
    -0.5181  -0.4942  -0.4041  -0.3960  -0.3718  -0.3543  -0.3207  -0.2293
    -0.1768  -0.1311  -0.0422  -0.0028   0.0376   0.1704   0.2368   0.2727
     0.3453   0.3870   0.4935   0.5153   0.5944   0.6163   0.6455   0.6708
     0.7364   0.8070   0.8586   0.9076   0.9482   0.9630   1.0141   1.0640
     1.6685   1.6710   1.6786   1.6849   3.7135   3.7396   3.7475   3.7807
     3.9848   4.0147   4.0886   4.1050   4.1258   4.1804

     the Fermi energy is     2.5788 ev

!    total energy              =   -3005.28886481 Ry
     estimated scf accuracy    <       0.00000004 Ry
     smearing contrib. (-TS)   =      -0.00015443 Ry
     internal energy E=F+TS    =   -3005.28871038 Ry

     The total energy is F=E-TS. E is the sum of the following terms:
     one-electron contribution =  -22581.58204349 Ry
     hartree contribution      =   11387.09526726 Ry
     xc contribution           =    -500.22264477 Ry
     ewald contribution        =    8689.42014602 Ry
     electric field correction =       0.00056460 Ry

     convergence has been achieved in  81 iterations

     Forces acting on atoms (cartesian axes, Ry/au):

     atom    1 type  1   force =     0.00011775    0.00010589    0.13278363
     atom    2 type  1   force =    -0.00011102    0.00820442   -0.15824777
     atom    3 type  2   force =     0.00029819   -0.00362224   -0.05307634
     atom    4 type  2   force =     0.00059204    0.00105034    0.04010874
     atom    5 type  2   force =    -0.00785955   -0.00194988   -0.00033769
     atom    6 type  2   force =     0.00845992   -0.00490343   -0.00004333
     atom    7 type  1   force =    -0.00017626   -0.00031682   -0.00005681
     atom    8 type  1   force =    -0.00001089   -0.00026526    0.00021285
     atom    9 type  2   force =     0.00013336    0.00009522    0.00001668
     atom   10 type  2   force =    -0.00003210    0.00020352    0.00008432
     atom   11 type  2   force =    -0.00003735    0.00013517   -0.00000786
     atom   12 type  2   force =     0.00036064   -0.00010350   -0.00005444
     atom   13 type  1   force =    -0.00018545    0.00002248    0.00015881
     atom   14 type  1   force =     0.00012061    0.00057533    0.00009285
     atom   15 type  2   force =    -0.00010789    0.00012736   -0.00004187
     atom   16 type  2   force =     0.00002529    0.00006070   -0.00042310
     atom   17 type  2   force =     0.00013293   -0.00045809    0.00022319
     atom   18 type  2   force =    -0.00008576   -0.00055499    0.00012290
     atom   19 type  1   force =    -0.00038543    0.00030990   -0.00005607
     atom   20 type  1   force =     0.00044044    0.00004504   -0.00006496
     atom   21 type  2   force =    -0.00006613    0.00009377    0.09918996
     atom   22 type  2   force =    -0.00024207    0.00014283    0.00004310
     atom   23 type  2   force =    -0.08058943    0.00058151   -0.03417624
     atom   24 type  2   force =     0.08036206    0.00110259   -0.03421757
     atom   25 type  1   force =    -0.00021513   -0.00017641    0.14169440
     atom   26 type  1   force =    -0.00019237   -0.00686327   -0.15775798
     atom   27 type  2   force =     0.00043758    0.00018174   -0.05211797
     atom   28 type  2   force =     0.00043961    0.00035752    0.04189053
     atom   29 type  2   force =    -0.00939781    0.00598184    0.00165214
     atom   30 type  2   force =     0.00931027    0.00235472    0.00176093
     atom   31 type  1   force =    -0.00002957    0.00010120    0.00012077
     atom   32 type  1   force =     0.00002376   -0.00014151   -0.00009946
     atom   33 type  2   force =    -0.00006517   -0.00032148    0.00027376
     atom   34 type  2   force =    -0.00009891   -0.00005433    0.00002439
     atom   35 type  2   force =     0.00063148    0.00026164   -0.00007347
     atom   36 type  2   force =    -0.00020002    0.00015142    0.00004998
     atom   37 type  1   force =    -0.00039281    0.00047325   -0.00063172
     atom   38 type  1   force =     0.00023961   -0.00034052   -0.00011931
     atom   39 type  2   force =    -0.00003044   -0.00000371    0.00027479
     atom   40 type  2   force =     0.00012870   -0.00008423   -0.00035133
     atom   41 type  2   force =     0.00073094    0.00014810    0.00019123
     atom   42 type  2   force =    -0.00038348    0.00035756    0.00001180
     atom   43 type  1   force =    -0.00058800   -0.00033960    0.00002413
     atom   44 type  1   force =     0.00003328   -0.00039029   -0.00040817
     atom   45 type  2   force =    -0.00007764    0.00018446    0.09876067
     atom   46 type  2   force =    -0.08055454   -0.00156572   -0.03413335
     atom   47 type  2   force =     0.08035669   -0.00103129   -0.03421543
     atom   48 type  3   force =     0.00029892   -0.00009043    0.00039203
     atom   49 type  2   force =    -0.00018878   -0.00032177    0.00056153
     atom   50 type  4   force =    -0.00042275    0.00016816   -0.00032663
     atom   51 type  4   force =    -0.00012936   -0.00008769    0.00010830
     atom   52 type  4   force =     0.00019410    0.00033478   -0.00030091
     atom   53 type  5   force =    -0.03581099   -0.00251787   -0.02629241
     atom   54 type  5   force =     0.03549757    0.00263152    0.02622017
     atom   55 type  2   force =    -0.00110003    0.00082447    0.00029174
     atom   56 type  4   force =     0.00040138   -0.00086410    0.00029186

     Total force =     0.388799     Total SCF correction =     0.000490
  @ DRIVER MODE: Message from server: STATUS
  @ DRIVER MODE: Message from server: GETFORCE
  @ DRIVER MODE: Returning v,forces,stress,ensemble

     Writing output data file ./calc.save/
  @ DRIVER MODE: Message from server: EXIT
  @ DRIVE MODE: Exiting

     General routines

     Parallel routines

   This run was terminated on:   3:19:31  24Sep2021

   JOB DONE.