     Program PWSCF v.6.7GPU starts on 24Aug2021 at  2:48:12

     R & G space division:  proc/nbgrp/npool/nimage =       6
     Reading input from /storage/home/hcoda1/3/ntian30/research/carbon/CH2_vib/ads_slab/CH2N2_b/out_0030/pw.inp
Warning: card &CELL ignored
Warning: card   CELL_DYNAMICS='IPI', ignored
Warning: card / ignored

     Current dimensions of program PWSCF are:
     Max number of different atomic species (ntypx) = 10
     Max number of k-points (npk) =  40000
     Max angular momentum in pseudopotentials (lmaxx) =  3
     Presently no symmetry can be used with electric field

     Message from routine cell_base_init:
     DEPRECATED: use true lattice parameter, not A to a.u. conversion factor

     IMPORTANT: XC functional enforced from input :
     Exchange-correlation= BEEF-VDW
                           (   1   4  43  14   2   0   0)
     Any further DFT definition will be discarded
     Please, verify this is what you really want

  @ DRIVER MODE: Connecting to
 qe_1139763_2632805.sched-torque.pace.gatech.eduv11y_f7s_scratch
  using UNIX socket
  @ DRIVER MODE: Message from server: STATUS
  @ DRIVER MODE: Message from server: INIT
  @ DRIVER MODE: Receiving replica           0          -1
  @ DRIVER MODE: Receiving encoded integer          25
  @ DRIVER MODE:  SCF:  T  FORCE:  T  STRESS:  F  VC:  F  ENSEMBLE:  F
  @ DRIVER MODE:  SCF:  T  FORCE:  T  STRESS:  F  VC:  F  ENSEMBLE:  F

     Using Slab Decomposition

     bravais-lattice index     =            0
     lattice parameter (alat)  =       1.8897  a.u.
     unit-cell volume          =    6658.9804 (a.u.)^3
     number of atoms/cell      =           52
     number of atomic types    =            5
     number of electrons       =       394.00
     number of Kohn-Sham states=          207
     kinetic-energy cutoff     =      29.3995  Ry
     charge density cutoff     =     293.9946  Ry
     scf convergence threshold =      7.3E-08
     mixing beta               =       0.0500
     number of iterations used =            8  plain     mixing
     Exchange-correlation= BEEF-VDW
                           (   1   4  43  14   2   0   0)

     celldm(1)=   1.889726  celldm(2)=   0.000000  celldm(3)=   0.000000
     celldm(4)=   0.000000  celldm(5)=   0.000000  celldm(6)=   0.000000

     crystal axes: (cart. coord. in units of alat)
               a(1) = (   6.579727   0.000000   0.000000 )
               a(2) = (  -0.000775   5.961596   0.000000 )
               a(3) = (   0.000000   0.000000  25.155947 )

     reciprocal axes: (cart. coord. in units 2 pi/alat)
               b(1) = (  0.151982  0.000020  0.000000 )
               b(2) = (  0.000000  0.167740  0.000000 )
               b(3) = (  0.000000  0.000000  0.039752 )

     PseudoPot. # 1 for Ti read from file:
     /storage/coda1/p-amedford6/0/shared/rich_project_chbe-medford/medford-share/data/pseudos_module/espresso/nninc/pbe/van/Ti.UPF
     MD5 check sum: 8e4df49b7f0d34bbd5052bf3f5ea0213
     Pseudo is Ultrasoft, Zval = 12.0
     Generated by new atomic code, or converted to UPF format
     Using radial grid of  851 points,  6 beta functions with:
                l(1) =   0
                l(2) =   0
                l(3) =   1
                l(4) =   1
                l(5) =   2
                l(6) =   2
     Q(r) pseudized with  8 coefficients,  rinner =    1.000   1.000   1.000
                                                       1.000   1.000

     PseudoPot. # 2 for O  read from file:
     /storage/coda1/p-amedford6/0/shared/rich_project_chbe-medford/medford-share/data/pseudos_module/espresso/nninc/pbe/van/O.UPF
     MD5 check sum: 78c19812648e8988a0fe644b0f25305e
     Pseudo is Ultrasoft, Zval =  6.0
     Generated by new atomic code, or converted to UPF format
     Using radial grid of  737 points,  4 beta functions with:
                l(1) =   0
                l(2) =   0
                l(3) =   1
                l(4) =   1
     Q(r) pseudized with  8 coefficients,  rinner =    0.800   0.800   0.800

     PseudoPot. # 3 for N  read from file:
     /storage/coda1/p-amedford6/0/shared/rich_project_chbe-medford/medford-share/data/pseudos_module/espresso/nninc/pbe/van/N.UPF
     MD5 check sum: 90d10febe142ad51ac9d5be1deb811c4
     Pseudo is Ultrasoft, Zval =  5.0
     Generated by new atomic code, or converted to UPF format
     Using radial grid of  729 points,  4 beta functions with:
                l(1) =   0
                l(2) =   0
                l(3) =   1
                l(4) =   1
     Q(r) pseudized with  8 coefficients,  rinner =    0.800   0.800   0.800

     PseudoPot. # 4 for C  read from file:
     /storage/coda1/p-amedford6/0/shared/rich_project_chbe-medford/medford-share/data/pseudos_module/espresso/nninc/pbe/van/C.UPF
     MD5 check sum: 1a69bf6b8db32088f5b2163dbdb77a27
     Pseudo is Ultrasoft, Zval =  4.0
     Generated by new atomic code, or converted to UPF format
     Using radial grid of  721 points,  4 beta functions with:
                l(1) =   0
                l(2) =   0
                l(3) =   1
                l(4) =   1
     Q(r) pseudized with  8 coefficients,  rinner =    0.800   0.800   0.800

     PseudoPot. # 5 for H  read from file:
     /storage/coda1/p-amedford6/0/shared/rich_project_chbe-medford/medford-share/data/pseudos_module/espresso/nninc/pbe/van/H.UPF
     MD5 check sum: b5ee9d7bfd3a09ee7748110bda690ff7
     Pseudo is Ultrasoft, Zval =  1.0
     Generated by new atomic code, or converted to UPF format
     Using radial grid of  615 points,  1 beta functions with:
                l(1) =   0
     Q(r) pseudized with  8 coefficients,  rinner =    0.800

     atomic species   valence    mass     pseudopotential
        Ti1           12.00    47.86700     Ti( 1.00)
        O1             6.00    15.99900     O ( 1.00)
        N1             5.00    14.00700     N ( 1.00)
        C1             4.00    12.01100     C ( 1.00)
        H1             1.00     1.00800     H ( 1.00)

     No symmetry found

   Cartesian axes

     site n.     atom                  positions (alat units)
         1           Ti1 tau(   1) = (   0.0004258   2.9801865   6.0000000  )
         2           Ti1 tau(   2) = (   3.2906075   1.4906267   6.0002472  )
         3           O1  tau(   3) = (   0.0006271   0.0005054   7.9858123  )
         4           O1  tau(   4) = (   3.2906025   0.0005020   7.3038282  )
         5           O1  tau(   5) = (   4.5942328   1.4918067   9.2879030  )
         6           O1  tau(   6) = (   1.9868534   1.4903216   9.2879459  )
         7           Ti1 tau(   7) = (   3.2907910   2.8959150   9.1758416  )
         8           Ti1 tau(   8) = (   0.0015273   1.4827037   9.2680791  )
         9           O1  tau(   9) = (   3.2944872   5.9444814  11.3088555  )
        10           O1  tau(  10) = (   0.0116148   5.9584955  10.6183126  )
        11           O1  tau(  11) = (   1.2913257   1.4757505  12.6225222  )
        12           O1  tau(  12) = (   5.2743172   1.4729811  12.6021195  )
        13           Ti1 tau(  13) = (   0.0890023   2.9564894  12.7220187  )
        14           Ti1 tau(  14) = (   3.4221593   1.4702301  12.4648352  )
        15           O1  tau(  15) = (   0.0068176   5.9411714  14.5947238  )
        16           O1  tau(  16) = (   3.2944910   5.9492763  13.8828731  )
        17           O1  tau(  17) = (   4.5250581   1.4982466  16.0456249  )
        18           O1  tau(  18) = (   2.0665045   1.4881935  16.0281199  )
        19           Ti1 tau(  19) = (   3.2778778   2.9684174  15.6871799  )
        20           Ti1 tau(  20) = (   6.5490154   1.5309925  16.0314916  )
        21           O1  tau(  21) = (   3.2904802   0.0005063   4.7018136  )
        22           O1  tau(  22) = (   0.0123181   0.0076990  17.1679072  )
        23           O1  tau(  23) = (   1.3043587   1.4918075   6.0039043  )
        24           O1  tau(  24) = (   5.2767064   1.4903225   6.0039473  )
        25           Ti1 tau(  25) = (   0.0000382   5.9609847   6.0000000  )
        26           Ti1 tau(  26) = (   3.2902200   4.4714249   6.0002472  )
        27           O1  tau(  27) = (   0.0002396   2.9813036   7.9858123  )
        28           O1  tau(  28) = (   3.2902150   2.9813002   7.3038282  )
        29           O1  tau(  29) = (   4.5938453   4.4726049   9.2879030  )
        30           O1  tau(  30) = (   1.9864658   4.4711199   9.2879459  )
        31           Ti1 tau(  31) = (   3.2891106   5.8743827   9.1763621  )
        32           Ti1 tau(  32) = (   0.0006254   4.4649316   9.2693709  )
        33           O1  tau(  33) = (   3.2980042   2.9668427  11.3079272  )
        34           O1  tau(  34) = (   0.0092240   2.9805883  10.6323155  )
        35           O1  tau(  35) = (   1.2899229   4.4488879  12.6271902  )
        36           O1  tau(  36) = (   5.2743549   4.4545148  12.6090941  )
        37           Ti1 tau(  37) = (   0.1039690   5.9375691  12.6739196  )
        38           Ti1 tau(  38) = (   3.4213609   4.4493060  12.4702176  )
        39           O1  tau(  39) = (   6.5648181   2.9459624  14.6378081  )
        40           O1  tau(  40) = (   3.2943236   2.9658899  13.8785053  )
        41           O1  tau(  41) = (   4.5287159   4.4634493  16.0515226  )
        42           O1  tau(  42) = (   2.0597896   4.4749507  16.0164256  )
        43           Ti1 tau(  43) = (   3.2714021   5.9517381  15.6902239  )
        44           Ti1 tau(  44) = (   6.5616293   4.5902425  16.0297769  )
        45           O1  tau(  45) = (   3.2900926   2.9813045   4.7018136  )
        46           O1  tau(  46) = (   1.3039711   4.4726057   6.0039043  )
        47           O1  tau(  47) = (   5.2763189   4.4711207   6.0039473  )
        48           N1  tau(  48) = (   0.6459789   3.0609845  18.5091170  )
        49           N1  tau(  49) = (   0.0956274   2.9759187  17.3381616  )
        50           C1  tau(  50) = (   0.0579326   3.2697647  19.6266723  )
        51           H1  tau(  51) = (   5.5568954   3.3836083  19.7010695  )
        52           H1  tau(  52) = (   0.6727643   3.3288843  20.5234281  )

     number of k points=    10  Fermi-Dirac smearing, width (Ry)=  0.0073
                       cart. coord. in units 2pi/alat
        k(    1) = (   0.0000000   0.0000000   0.0000000), wk =   0.1250000
        k(    2) = (   0.0000000   0.0419351   0.0000000), wk =   0.2500000
        k(    3) = (   0.0000000  -0.0838702   0.0000000), wk =   0.1250000
        k(    4) = (   0.0379955   0.0000049   0.0000000), wk =   0.2500000
        k(    5) = (   0.0379955   0.0419400   0.0000000), wk =   0.2500000
        k(    6) = (   0.0379955  -0.0838652   0.0000000), wk =   0.2500000
        k(    7) = (   0.0379955  -0.0419301   0.0000000), wk =   0.2500000
        k(    8) = (  -0.0759910  -0.0000099   0.0000000), wk =   0.1250000
        k(    9) = (  -0.0759910   0.0419252   0.0000000), wk =   0.2500000
        k(   10) = (  -0.0759910  -0.0838800   0.0000000), wk =   0.1250000

     Initial potential from superposition of free atoms

     starting charge  377.99917, renormalised to  394.00000

     negative rho (up, down):  1.507E-02 0.000E+00

     %%%%%%%%%%%%%%%%%%%%%%%%%%%%%%%%%%%%%%%%%%%%%%%%%%%%%%%%%%%%%%%%%%%%%%%%
     %                                                                      %
     % You are using vdW-DF, which was implemented by the Thonhauser group. %
     % Please cite the following two papers that made this development      %
     % possible and the two reviews that describe the various versions:     %
     %                                                                      %
     %   T. Thonhauser et al., PRL 115, 136402 (2015).                      %
     %   T. Thonhauser et al., PRB 76, 125112 (2007).                       %
     %   K. Berland et al., Rep. Prog. Phys. 78, 066501 (2015).             %
     %   D.C. Langreth et al., J. Phys.: Condens. Matter 21, 084203 (2009). %
     %                                                                      %
     %                                                                      %
     % If you are calculating the stress with vdW-DF, please also cite:     %
     %                                                                      %
     %   R. Sabatini et al., J. Phys.: Condens. Matter 24, 424209 (2012).   %
     %                                                                      %
     %%%%%%%%%%%%%%%%%%%%%%%%%%%%%%%%%%%%%%%%%%%%%%%%%%%%%%%%%%%%%%%%%%%%%%%%

     Adding external electric field

     Computed dipole along edir(3) :
        Dipole               -7.6445 Ry au,        -19.4305 Debye
        Dipole field         -0.0144 Ry au,

        Potential amp.        1.3373 Ry
        Total length         46.3494 bohr

     Starting wfcs are  298 atomic wfcs
  @ DRIVER MODE: Message from server: STATUS
  @ DRIVER MODE: Message from server: POSDATA
  @ DRIVER MODE: Reading and sharing cell
  @ DRIVER MODE: Reading and sharing positions
  @ DRIVER MODE: Received positions

     Self-consistent Calculation

     iteration #  1     ecut=    29.40 Ry     beta= 0.05
     Davidson diagonalization with overlap
     c_bands:  1 eigenvalues not converged
     c_bands:  1 eigenvalues not converged
     c_bands:  1 eigenvalues not converged
     c_bands:  1 eigenvalues not converged
     c_bands:  1 eigenvalues not converged
     c_bands:  1 eigenvalues not converged
     ethr =  1.00E-05,  avg # of iterations = 18.6

[...]

     total energy              =   -2699.58865784 Ry
     estimated scf accuracy    <    2638.66688415 Ry

[...]

     iteration #  3     ecut=    29.40 Ry     beta= 0.05
     Davidson diagonalization with overlap
     ethr =  1.00E-02,  avg # of iterations = 15.4

[...]

     iteration # 42     ecut=    29.40 Ry     beta= 0.05
     Davidson diagonalization with overlap
     c_bands:  1 eigenvalues not converged
     c_bands:  1 eigenvalues not converged
     ethr =  8.42E-07,  avg # of iterations =  9.0

[...]

     total energy              =   -2937.89145745 Ry
     estimated scf accuracy    <       0.00000010 Ry

     iteration # 67     ecut=    29.40 Ry     beta= 0.05
     Davidson diagonalization with overlap
     ethr =  2.60E-11,  avg # of iterations =  6.0

     negative rho (up, down):  1.605E-02 0.000E+00

     Adding external electric field

     Computed dipole along edir(3) :
        Dipole                0.5187 Ry au,          1.3185 Debye
        Dipole field          0.0010 Ry au,

        Potential amp.       -0.0907 Ry
        Total length         46.3494 bohr

     End of self-consistent calculation

          k = 0.0000 0.0000 0.0000 ( 18029 PWs)   bands (ev):

   -56.3149 -56.2811 -55.8951 -55.8926 -55.8591 -55.8586 -55.8299 -55.7962
   -55.6778 -55.6687 -55.6383 -55.6321 -55.1633 -55.1361 -55.1293 -55.0594
   -32.7709 -32.6070 -32.5797 -32.4738 -32.4364 -32.3944 -32.3806 -32.3575
   -32.3162 -32.1931 -32.1799 -32.1499 -32.1411 -32.1178 -32.1077 -32.0771
   -32.0618 -32.0609 -32.0581 -32.0310 -32.0266 -32.0229 -32.0214 -32.0083
   -31.9960 -31.9925 -31.9818 -31.9401 -31.9122 -31.9076 -31.8434 -31.8295
   -31.8144 -31.8020 -31.7874 -31.7421 -31.6621 -31.5650 -31.4901 -31.4668
   -31.3893 -31.3822 -31.3468 -31.3136 -31.2966 -31.2617 -31.1864 -31.1856
   -17.7325 -16.6872 -16.5307 -16.2523 -16.0266 -15.9992 -15.8624 -15.8293
   -15.8052 -15.7775 -15.6570 -15.6169 -15.5791 -15.4624 -15.4194 -15.4072
   -15.3895 -15.3705 -15.3645 -15.2756 -15.2523 -15.2353 -15.1838 -15.0891
   -15.0578 -15.0163 -14.8749 -14.8581 -14.7614 -14.5006 -13.6640 -13.5501
   -11.9223  -6.6262  -4.6177  -4.1554  -4.0628  -4.0181  -3.8656  -3.7824
    -3.5954  -3.5617  -3.4678  -3.2402  -3.1548  -3.1458  -3.0700  -3.0456
    -3.0352  -2.9430  -2.8760  -2.8446  -2.8221  -2.8004  -2.7426  -2.6648
    -2.6189  -2.5858  -2.5672  -2.5340  -2.4282  -2.3722  -2.3565  -2.3331
    -2.2733  -2.2589  -2.2352  -2.2307  -2.1947  -2.1824  -2.1023  -2.0688
    -1.9455  -1.8721  -1.7484  -1.7414  -1.6694  -1.6508  -1.6260  -1.4273
    -1.4021  -1.3277  -1.2929  -1.2369  -1.2104  -1.1556  -1.0952  -1.0610
    -0.9641  -0.9368  -0.9062  -0.8713  -0.8492  -0.8193  -0.7997  -0.7402
    -0.6923  -0.5170  -0.4753  -0.4409  -0.3463  -0.3315  -0.3014  -0.2631
    -0.2479  -0.1964  -0.1906  -0.1770  -0.1186  -0.1043  -0.0194   0.0477
     0.0538   0.1032   0.1775   0.2398   0.2761   0.3939   0.4426   0.5102
     0.6055   0.6137   0.6746   0.8245   0.8388   0.8586   0.8628   1.0709
     1.3188   1.4205   1.4624   1.5664   2.7687   2.9057   3.0147   3.2107
     3.3272   3.3463   3.5229   3.6632   3.7006   3.7588   3.7628

[...]

          k = 0.0380-0.0419 0.0000 ( 17876 PWs)   bands (ev):

[...]

          k =-0.0760-0.0000 0.0000 ( 17886 PWs)   bands (ev):

[...]

          k =-0.0760-0.0839 0.0000 ( 17948 PWs)   bands (ev):

   -56.2981 -56.2977 -55.8794 -55.8780 -55.8747 -55.8729 -55.8139 -55.8121
   -55.6673 -55.6562 -55.6487 -55.6445 -55.1462 -55.1462 -55.1319 -55.0635
   -32.5928 -32.5923 -32.5867 -32.5865 -32.4254 -32.4250 -32.2433 -32.2394
   -32.1830 -32.1774 -32.1546 -32.1525 -32.1360 -32.1330 -32.0929 -32.0890
   -32.0675 -32.0617 -32.0553 -32.0529 -32.0420 -32.0405 -32.0270 -32.0260
   -32.0152 -32.0021 -31.9813 -31.9724 -31.9467 -31.9360 -31.8868 -31.8804
   -31.8732 -31.8479 -31.8157 -31.8121 -31.5511 -31.4797 -31.4796 -31.4060
   -31.3786 -31.3785 -31.3582 -31.3419 -31.3395 -31.3395 -31.2691 -31.2441
   -17.7266 -16.0469 -16.0447 -16.0406 -16.0343 -15.9163 -15.9142 -15.7572
   -15.7552 -15.7295 -15.7241 -15.5785 -15.5550 -15.5139 -15.5130 -15.4730
   -15.4631 -15.3942 -15.3915 -15.3826 -15.3767 -15.3616 -15.3570 -15.3125
   -15.2712 -15.0329 -14.9601 -14.9003 -14.7854 -14.6910 -13.6527 -13.6525
   -11.9265  -6.6206  -4.5560  -4.0587  -3.3372  -3.3325  -3.1693  -3.1516
    -3.0974  -3.0961  -3.0156  -2.9722  -2.9710  -2.8557  -2.8335  -2.7924
    -2.7889  -2.7749  -2.7723  -2.7384  -2.7325  -2.7107  -2.7042  -2.6485
    -2.6337  -2.6268  -2.6217  -2.5483  -2.5047  -2.4768  -2.4436  -2.4102
    -2.3804  -2.2901  -2.2865  -2.2492  -2.2273  -2.1686  -2.1649  -2.1111
    -2.0758  -2.0084  -1.9989  -1.7871  -1.7411  -1.7318  -1.6808  -1.5949
    -1.5725  -1.4275  -1.3961  -1.3341  -1.3199  -1.2716  -1.2536  -1.2450
    -1.1580  -1.1503  -1.1415  -1.0647  -1.0572  -0.9961  -0.9597  -0.9265
    -0.8429  -0.8288  -0.7897  -0.7869  -0.7771  -0.7096  -0.6629  -0.5910
    -0.5427  -0.5293  -0.4105  -0.3612  -0.2941  -0.2315  -0.1889  -0.0847
    -0.0427  -0.0330   0.1765   0.1871   0.2322   0.3228   0.4435   0.4446
     0.4830   0.5746   0.5964   0.6220   0.6388   0.8361   0.9094   1.2383
     1.2394   1.2791   1.2796   1.5303   2.7277   3.4302   3.4312   3.4562
     3.4568   3.5933   3.6170   3.6537   3.6626   3.7462   3.7506

     the Fermi energy is     2.8551 ev

!    total energy              =   -2937.89147900 Ry
     estimated scf accuracy    <       0.00000006 Ry
     smearing contrib. (-TS)   =      -0.01395422 Ry
     internal energy E=F+TS    =   -2937.87752479 Ry

     The total energy is F=E-TS. E is the sum of the following terms:
     one-electron contribution =  -24293.58078384 Ry
     hartree contribution      =   12233.12846314 Ry
     xc contribution           =    -484.30786036 Ry
     ewald contribution        =    9606.88214846 Ry
     electric field correction =       0.00050782 Ry

     convergence has been achieved in  67 iterations

     Forces acting on atoms (cartesian axes, Ry/au):

     atom    1 type  1   force =     0.00010968   -0.00020851    0.10743790
     atom    2 type  1   force =    -0.00012448   -0.00062401   -0.16928216
     atom    3 type  2   force =    -0.00016048    0.00000589   -0.04193149
     atom    4 type  2   force =     0.00005546   -0.00093510    0.04203039
     atom    5 type  2   force =    -0.01491702    0.00022333   -0.00302109
     atom    6 type  2   force =     0.01655112    0.00103900   -0.00399684
     atom    7 type  1   force =    -0.00113431   -0.00212790    0.00241827
     atom    8 type  1   force =     0.00131457    0.00452857    0.07559564
     atom    9 type  2   force =     0.00004246    0.00010961    0.00044021
     atom   10 type  2   force =    -0.00132301    0.00009900   -0.04722970
     atom   11 type  2   force =    -0.00047399    0.00031913    0.00023107
     atom   12 type  2   force =    -0.00007803    0.00050280    0.00014034
     atom   13 type  1   force =     0.00045131   -0.00041617    0.00072041
     atom   14 type  1   force =    -0.00014115   -0.00011825   -0.00006273
     atom   15 type  2   force =    -0.00022745   -0.00020075    0.00017648
     atom   16 type  2   force =     0.00019617    0.00024289   -0.00018278
     atom   17 type  2   force =     0.00012773    0.00049396    0.00029438
     atom   18 type  2   force =    -0.00041002   -0.00005577   -0.00031029
     atom   19 type  1   force =     0.00018160    0.00076825   -0.00024013
     atom   20 type  1   force =     0.00017419    0.00009368    0.00011056
     atom   21 type  2   force =     0.00006858    0.00003733    0.10167939
     atom   22 type  2   force =    -0.00042584    0.00041842    0.00009148
     atom   23 type  2   force =    -0.07422434   -0.00003413   -0.02983037
     atom   24 type  2   force =     0.07417982    0.00041980   -0.02983311
     atom   25 type  1   force =     0.00025644   -0.00034987    0.10692268
     atom   26 type  1   force =    -0.00003035   -0.00037954   -0.16936422
     atom   27 type  2   force =    -0.00004116   -0.00029234   -0.04087494
     atom   28 type  2   force =     0.00011046   -0.00073851    0.04199957
     atom   29 type  2   force =    -0.01522160    0.00064062   -0.00331087
     atom   30 type  2   force =     0.01678494    0.00101413   -0.00428099
     atom   31 type  1   force =    -0.00133403    0.00038370    0.00217602
     atom   32 type  1   force =     0.00130787   -0.00711950    0.07622110
     atom   33 type  2   force =    -0.00004790    0.00016873    0.00016653
     atom   34 type  2   force =    -0.00146344   -0.00007991   -0.05553645
     atom   35 type  2   force =     0.00000409    0.00006066    0.00011403
     atom   36 type  2   force =    -0.00003430    0.00021862   -0.00014920
     atom   37 type  1   force =     0.00022500    0.00028520    0.00042029
     atom   38 type  1   force =     0.00011702    0.00022549   -0.00030892
     atom   39 type  2   force =    -0.00022534   -0.00003620   -0.00065008
     atom   40 type  2   force =     0.00007924    0.00026793    0.00014197
     atom   41 type  2   force =    -0.00041376    0.00024146   -0.00043581
     atom   42 type  2   force =     0.00017346    0.00021883    0.00022311
     atom   43 type  1   force =    -0.00013349    0.00061352    0.00024288
     atom   44 type  1   force =    -0.00021948    0.00019694   -0.00007894
     atom   45 type  2   force =     0.00006080    0.00000047    0.10170479
     atom   46 type  2   force =    -0.07421384    0.00001278   -0.02980042
     atom   47 type  2   force =     0.07416838    0.00044487   -0.02982143
     atom   48 type  3   force =     0.00087231    0.00092873    0.00128370
     atom   49 type  3   force =     0.00010467   -0.00017698   -0.00101946
     atom   50 type  4   force =     0.00515594   -0.00077640    0.00903175
     atom   51 type  5   force =     0.00008125    0.00028752   -0.00071547
     atom   52 type  5   force =    -0.00593575   -0.00084200   -0.00974704

     Total force =     0.389605     Total SCF correction =     0.000943
  @ DRIVER MODE: Message from server: STATUS
  @ DRIVER MODE: Message from server: GETFORCE
  @ DRIVER MODE: Returning v,forces,stress,ensemble

     Writing output data file ./calc.save/
  @ DRIVER MODE: Message from server: EXIT
  @ DRIVE MODE: Exiting

     General routines

     Parallel routines

   This run was terminated on:   3:14: 6  24Aug2021

   JOB DONE.