     Program PWSCF v.6.7GPU starts on  9Sep2021 at 23:16: 2

     R & G space division:  proc/nbgrp/npool/nimage =      10
     Reading input from /storage/home/hcoda1/3/ntian30/research/carbon/CxH_vib/CH3_calc/ads_slab/CH3N2OH_l/out_0009/pw.inp
Warning: card &CELL ignored
Warning: card   CELL_DYNAMICS='IPI', ignored
Warning: card / ignored

     Current dimensions of program PWSCF are:
     Max number of different atomic species (ntypx) = 10
     Max number of k-points (npk) =  40000
     Max angular momentum in pseudopotentials (lmaxx) =  3
     Presently no symmetry can be used with electric field

     Message from routine cell_base_init:
     DEPRECATED: use true lattice parameter, not A to a.u. conversion factor

     IMPORTANT: XC functional enforced from input :
     Exchange-correlation= BEEF-VDW
                           (   1   4  43  14   2   0   0)
     Any further DFT definition will be discarded
     Please, verify this is what you really want

  @ DRIVER MODE: Connecting to
 qe_1139763_2779712.sched-torque.pace.gatech.eduk4lt36y5_scratch
  using UNIX socket
  @ DRIVER MODE: Message from server: STATUS
  @ DRIVER MODE: Message from server: INIT
  @ DRIVER MODE: Receiving replica           0          -1
  @ DRIVER MODE: Receiving encoded integer          25
  @ DRIVER MODE:  SCF:  T  FORCE:  T  STRESS:  F  VC:  F  ENSEMBLE:  F
  @ DRIVER MODE:  SCF:  T  FORCE:  T  STRESS:  F  VC:  F  ENSEMBLE:  F

     Using Slab Decomposition

     bravais-lattice index     =            0
     lattice parameter (alat)  =       1.8897  a.u.
     unit-cell volume          =    6658.9804 (a.u.)^3
     number of atoms/cell      =           55
     number of atomic types    =            5
     number of electrons       =       402.00
     number of Kohn-Sham states=          211
     kinetic-energy cutoff     =      29.3995  Ry
     charge density cutoff     =     293.9946  Ry
     scf convergence threshold =      7.3E-08
     mixing beta               =       0.0500
     number of iterations used =            8  plain     mixing
     Exchange-correlation= BEEF-VDW
                           (   1   4  43  14   2   0   0)

     celldm(1)=   1.889726  celldm(2)=   0.000000  celldm(3)=   0.000000
     celldm(4)=   0.000000  celldm(5)=   0.000000  celldm(6)=   0.000000

     crystal axes: (cart. coord. in units of alat)
               a(1) = (   6.579727   0.000000   0.000000 )
               a(2) = (  -0.000775   5.961596   0.000000 )
               a(3) = (   0.000000   0.000000  25.155947 )

     reciprocal axes: (cart. coord. in units 2 pi/alat)
               b(1) = (  0.151982  0.000020  0.000000 )
               b(2) = (  0.000000  0.167740  0.000000 )
               b(3) = (  0.000000  0.000000  0.039752 )

     PseudoPot. # 1 for Ti read from file:
     /storage/coda1/p-amedford6/0/shared/rich_project_chbe-medford/medford-share/data/pseudos_module/espresso/nninc/pbe/van/Ti.UPF
     MD5 check sum: 8e4df49b7f0d34bbd5052bf3f5ea0213
     Pseudo is Ultrasoft, Zval = 12.0
     Generated by new atomic code, or converted to UPF format
     Using radial grid of  851 points,  6 beta functions with:
                l(1) =   0
                l(2) =   0
                l(3) =   1
                l(4) =   1
                l(5) =   2
                l(6) =   2
     Q(r) pseudized with  8 coefficients,  rinner =    1.000   1.000   1.000
                                                       1.000   1.000

     PseudoPot. # 2 for O  read from file:
     /storage/coda1/p-amedford6/0/shared/rich_project_chbe-medford/medford-share/data/pseudos_module/espresso/nninc/pbe/van/O.UPF
     MD5 check sum: 78c19812648e8988a0fe644b0f25305e
     Pseudo is Ultrasoft, Zval =  6.0
     Generated by new atomic code, or converted to UPF format
     Using radial grid of  737 points,  4 beta functions with:
                l(1) =   0
                l(2) =   0
                l(3) =   1
                l(4) =   1
     Q(r) pseudized with  8 coefficients,  rinner =    0.800   0.800   0.800

     PseudoPot. # 3 for N  read from file:
     /storage/coda1/p-amedford6/0/shared/rich_project_chbe-medford/medford-share/data/pseudos_module/espresso/nninc/pbe/van/N.UPF
     MD5 check sum: 90d10febe142ad51ac9d5be1deb811c4
     Pseudo is Ultrasoft, Zval =  5.0
     Generated by new atomic code, or converted to UPF format
     Using radial grid of  729 points,  4 beta functions with:
                l(1) =   0
                l(2) =   0
                l(3) =   1
                l(4) =   1
     Q(r) pseudized with  8 coefficients,  rinner =    0.800   0.800   0.800

     PseudoPot. # 4 for C  read from file:
     /storage/coda1/p-amedford6/0/shared/rich_project_chbe-medford/medford-share/data/pseudos_module/espresso/nninc/pbe/van/C.UPF
     MD5 check sum: 1a69bf6b8db32088f5b2163dbdb77a27
     Pseudo is Ultrasoft, Zval =  4.0
     Generated by new atomic code, or converted to UPF format
     Using radial grid of  721 points,  4 beta functions with:
                l(1) =   0
                l(2) =   0
                l(3) =   1
                l(4) =   1
     Q(r) pseudized with  8 coefficients,  rinner =    0.800   0.800   0.800

     PseudoPot. # 5 for H  read from file:
     /storage/coda1/p-amedford6/0/shared/rich_project_chbe-medford/medford-share/data/pseudos_module/espresso/nninc/pbe/van/H.UPF
     MD5 check sum: b5ee9d7bfd3a09ee7748110bda690ff7
     Pseudo is Ultrasoft, Zval =  1.0
     Generated by new atomic code, or converted to UPF format
     Using radial grid of  615 points,  1 beta functions with:
                l(1) =   0
     Q(r) pseudized with  8 coefficients,  rinner =    0.800

     atomic species   valence    mass     pseudopotential
        Ti1           12.00    47.86700     Ti( 1.00)
        O1             6.00    15.99900     O ( 1.00)
        N1             5.00    14.00700     N ( 1.00)
        C1             4.00    12.01100     C ( 1.00)
        H1             1.00     1.00800     H ( 1.00)

     No symmetry found

   Cartesian axes

     site n.     atom                  positions (alat units)
         1           Ti1 tau(   1) = (   0.0004258   2.9801865   6.0000000  )
         2           Ti1 tau(   2) = (   3.2906075   1.4906267   6.0002472  )
         3           O1  tau(   3) = (   0.0006271   0.0005054   7.9858123  )
         4           O1  tau(   4) = (   3.2906025   0.0005020   7.3038282  )
         5           O1  tau(   5) = (   4.5942328   1.4918067   9.2879030  )
         6           O1  tau(   6) = (   1.9868534   1.4903216   9.2879459  )
         7           Ti1 tau(   7) = (   3.2907910   2.8959150   9.1758416  )
         8           Ti1 tau(   8) = (   0.0015273   1.4827037   9.2680791  )
         9           O1  tau(   9) = (   3.3074573   5.9346435  11.2963613  )
        10           O1  tau(  10) = (   0.0116148   5.9584955  10.6183126  )
        11           O1  tau(  11) = (   1.3055178   1.4819292  12.6272398  )
        12           O1  tau(  12) = (   5.3158762   1.4804127  12.6185516  )
        13           Ti1 tau(  13) = (   0.0186029   2.8424156  12.6464711  )
        14           Ti1 tau(  14) = (   3.3167612   1.2924093  12.6669032  )
        15           O1  tau(  15) = (   0.0012442   5.9356390  14.6370070  )
        16           O1  tau(  16) = (   3.3127944   0.0275565  13.9018093  )
        17           O1  tau(  17) = (   4.5765900   1.5157235  16.0894388  )
        18           O1  tau(  18) = (   2.0422450   1.5317946  16.0210879  )
        19           Ti1 tau(  19) = (   3.3088329   2.9810726  15.6636066  )
        20           Ti1 tau(  20) = (   0.0236821   1.4688588  15.8133175  )
        21           O1  tau(  21) = (   3.2904802   0.0005063   4.7018136  )
        22           O1  tau(  22) = (   0.0676014   5.9495730  17.1734943  )
        23           O1  tau(  23) = (   1.3043587   1.4918075   6.0039043  )
        24           O1  tau(  24) = (   5.2767064   1.4903225   6.0039473  )
        25           Ti1 tau(  25) = (   0.0000382   5.9609847   6.0000000  )
        26           Ti1 tau(  26) = (   3.2902200   4.4714249   6.0002472  )
        27           O1  tau(  27) = (   0.0002396   2.9813036   7.9858123  )
        28           O1  tau(  28) = (   3.2902150   2.9813002   7.3038282  )
        29           O1  tau(  29) = (   4.5938453   4.4726049   9.2879030  )
        30           O1  tau(  30) = (   1.9864658   4.4711199   9.2879459  )
        31           Ti1 tau(  31) = (   3.2891106   5.8743827   9.1763621  )
        32           Ti1 tau(  32) = (   0.0006254   4.4649316   9.2693709  )
        33           O1  tau(  33) = (   3.3041982   3.0170362  11.2630756  )
        34           O1  tau(  34) = (   0.0092240   2.9805883  10.6323155  )
        35           O1  tau(  35) = (   1.3098214   4.4601496  12.6289764  )
        36           O1  tau(  36) = (   5.3139316   4.4642116  12.6209765  )
        37           Ti1 tau(  37) = (   0.0286784   5.8202107  12.5681754  )
        38           Ti1 tau(  38) = (   3.3194384   4.3879401  12.4232525  )
        39           O1  tau(  39) = (   6.5763552   2.9401740  14.6754030  )
        40           O1  tau(  40) = (   3.3328261   2.9762691  13.8808942  )
        41           O1  tau(  41) = (   4.5658580   4.4380642  16.1332302  )
        42           O1  tau(  42) = (   2.0359873   4.4031365  16.0422930  )
        43           Ti1 tau(  43) = (   3.3255947   5.9578944  16.3175027  )
        44           Ti1 tau(  44) = (   0.0374668   4.6230282  16.0307208  )
        45           O1  tau(  45) = (   3.2900926   2.9813045   4.7018136  )
        46           O1  tau(  46) = (   1.3039711   4.4726057   6.0039043  )
        47           O1  tau(  47) = (   5.2763189   4.4711207   6.0039473  )
        48           N1  tau(  48) = (   0.1245995   2.6662279  18.6673576  )
        49           N1  tau(  49) = (   0.0476076   2.8593738  17.4835824  )
        50           C1  tau(  50) = (   0.1295945   3.7926219  19.6405614  )
        51           H1  tau(  51) = (   6.3015398   4.7065717  19.2118634  )
        52           H1  tau(  52) = (   6.1525190   3.4626129  20.5140504  )
        53           H1  tau(  53) = (   1.1733748   3.9370966  19.9287387  )
        54           O1  tau(  54) = (   3.0981659   0.0197753  18.1302257  )
        55           H1  tau(  55) = (   2.1972620   0.2293568  18.4309947  )

     number of k points=    10  Fermi-Dirac smearing, width (Ry)=  0.0073
                       cart. coord. in units 2pi/alat
        k(    1) = (   0.0000000   0.0000000   0.0000000), wk =   0.1250000
        k(    2) = (   0.0000000   0.0419351   0.0000000), wk =   0.2500000
        k(    3) = (   0.0000000  -0.0838702   0.0000000), wk =   0.1250000
        k(    4) = (   0.0379955   0.0000049   0.0000000), wk =   0.2500000
        k(    5) = (   0.0379955   0.0419400   0.0000000), wk =   0.2500000
        k(    6) = (   0.0379955  -0.0838652   0.0000000), wk =   0.2500000
        k(    7) = (   0.0379955  -0.0419301   0.0000000), wk =   0.2500000
        k(    8) = (  -0.0759910  -0.0000099   0.0000000), wk =   0.1250000
        k(    9) = (  -0.0759910   0.0419252   0.0000000), wk =   0.2500000
        k(   10) = (  -0.0759910  -0.0838800   0.0000000), wk =   0.1250000

     Initial potential from superposition of free atoms

     starting charge  385.99915, renormalised to  402.00000

     negative rho (up, down):  1.432E-02 0.000E+00

     %%%%%%%%%%%%%%%%%%%%%%%%%%%%%%%%%%%%%%%%%%%%%%%%%%%%%%%%%%%%%%%%%%%%%%%%
     %                                                                      %
     % You are using vdW-DF, which was implemented by the Thonhauser group. %
     % Please cite the following two papers that made this development      %
     % possible and the two reviews that describe the various versions:     %
     %                                                                      %
     %   T. Thonhauser et al., PRL 115, 136402 (2015).                      %
     %   T. Thonhauser et al., PRB 76, 125112 (2007).                       %
     %   K. Berland et al., Rep. Prog. Phys. 78, 066501 (2015).             %
     %   D.C. Langreth et al., J. Phys.: Condens. Matter 21, 084203 (2009). %
     %                                                                      %
     %                                                                      %
     % If you are calculating the stress with vdW-DF, please also cite:     %
     %                                                                      %
     %   R. Sabatini et al., J. Phys.: Condens. Matter 24, 424209 (2012).   %
     %                                                                      %
     %%%%%%%%%%%%%%%%%%%%%%%%%%%%%%%%%%%%%%%%%%%%%%%%%%%%%%%%%%%%%%%%%%%%%%%%

     Adding external electric field

     Computed dipole along edir(3) :
        Dipole              -11.9923 Ry au,        -30.4815 Debye
        Dipole field         -0.0226 Ry au,

        Potential amp.        2.0979 Ry
        Total length         46.3494 bohr

     Starting wfcs are  304 atomic wfcs
  @ DRIVER MODE: Message from server: STATUS
  @ DRIVER MODE: Message from server: POSDATA
  @ DRIVER MODE: Reading and sharing cell
  @ DRIVER MODE: Reading and sharing positions
  @ DRIVER MODE: Received positions

     Self-consistent Calculation

     iteration #  1     ecut=    29.40 Ry     beta= 0.05
     Davidson diagonalization with overlap
     c_bands:  3 eigenvalues not converged
     c_bands:  5 eigenvalues not converged
     c_bands:  5 eigenvalues not converged
     c_bands:  4 eigenvalues not converged
     c_bands:  1 eigenvalues not converged
     c_bands:  4 eigenvalues not converged
     c_bands:  2 eigenvalues not converged
     c_bands:  5 eigenvalues not converged
     c_bands:  4 eigenvalues not converged
     ethr =  1.00E-05,  avg # of iterations = 23.8

[...]

     total energy              =   -2400.48994798 Ry
     estimated scf accuracy    <    6448.56218864 Ry

     iteration #  2     ecut=    29.40 Ry     beta= 0.05
     Davidson diagonalization with overlap
     ethr =  1.00E-02,  avg # of iterations = 22.2

[...]

     iteration # 61     ecut=    29.40 Ry     beta= 0.05
     Davidson diagonalization with overlap
     c_bands:  1 eigenvalues not converged
     ethr =  3.53E-07,  avg # of iterations =  7.5

[...]

     total energy              =   -2972.75611000 Ry
     estimated scf accuracy    <       0.00000008 Ry

     iteration # 82     ecut=    29.40 Ry     beta= 0.05
     Davidson diagonalization with overlap
     ethr =  1.92E-11,  avg # of iterations =  2.0

     negative rho (up, down):  1.507E-02 0.000E+00

     Adding external electric field

     Computed dipole along edir(3) :
        Dipole                0.5713 Ry au,          1.4521 Debye
        Dipole field          0.0011 Ry au,

        Potential amp.       -0.0999 Ry
        Total length         46.3494 bohr

     End of self-consistent calculation

          k = 0.0000 0.0000 0.0000 ( 18029 PWs)   bands (ev):

   -56.2665 -56.2327 -55.8604 -55.8254 -55.6048 -55.5951 -55.5469 -55.3981
   -55.3501 -55.3442 -55.2275 -55.1742 -55.0670 -55.0410 -55.0333 -54.9993
   -32.7168 -32.5590 -32.5322 -32.4247 -32.3410 -32.3398 -32.3322 -32.0865
   -32.0796 -32.0558 -32.0050 -31.9993 -31.9701 -31.9027 -31.8912 -31.8578
   -31.8277 -31.8255 -31.8194 -31.7699 -31.7504 -31.7457 -31.7107 -31.7095
   -31.6827 -31.6688 -31.6105 -31.5577 -31.5554 -31.5401 -31.5391 -31.5076
   -31.4869 -31.4295 -31.4264 -31.4101 -31.3850 -31.3668 -31.3432 -31.3251
   -31.3001 -31.2785 -31.2772 -31.2716 -31.2535 -31.2483 -31.1638 -31.0519
   -18.9320 -16.5590 -16.3795 -16.2202 -15.9877 -15.8382 -15.7531 -15.6997
   -15.6964 -15.5753 -15.5421 -15.4467 -15.3581 -15.2885 -15.2575 -15.2558
   -15.1604 -15.0993 -15.0507 -15.0277 -15.0004 -14.9770 -14.9666 -14.8827
   -14.8752 -14.8507 -14.8060 -14.6897 -14.6234 -14.3252 -14.3070 -13.5307
   -13.4185 -11.5499  -6.9666  -4.4443  -4.1243  -4.0679  -4.0420  -3.8907
    -3.7715  -3.5639  -3.4480  -3.2612  -3.2489  -3.1461  -2.9791  -2.9706
    -2.9168  -2.8466  -2.7688  -2.7001  -2.6558  -2.6446  -2.5539  -2.4925
    -2.4923  -2.4800  -2.4432  -2.4034  -2.3168  -2.2743  -2.2616  -2.2236
    -2.1764  -2.1290  -2.1253  -2.0797  -2.0534  -1.9947  -1.9306  -1.8948
    -1.8793  -1.8126  -1.7472  -1.7084  -1.6362  -1.5900  -1.5793  -1.5699
    -1.5199  -1.3234  -1.2827  -1.2588  -1.2359  -1.0938  -1.0509  -1.0164
    -0.9521  -0.9345  -0.8444  -0.8226  -0.8056  -0.7782  -0.7068  -0.6918
    -0.6586  -0.6313  -0.4429  -0.4076  -0.3367  -0.3281  -0.2588  -0.2278
    -0.1943  -0.1533  -0.1217  -0.0690  -0.0556  -0.0033   0.0426   0.0720
     0.2137   0.2434   0.3271   0.3347   0.3369   0.3595   0.4379   0.4711
     0.5442   0.5977   0.6030   0.6541   0.7428   0.7819   0.8953   0.9644
     0.9916   1.0114   1.0481   1.0987   1.2218   1.5117   1.5385   1.5773
     2.7093   2.9592   3.0895   3.2361   3.3907   3.4940   3.7978   3.8203
     3.8568   3.9008   4.0010

[...]

          k = 0.0380-0.0419 0.0000 ( 17876 PWs)   bands (ev):

[...]

          k =-0.0760-0.0000 0.0000 ( 17886 PWs)   bands (ev):

[...]

          k =-0.0760-0.0839 0.0000 ( 17948 PWs)   bands (ev):

   -56.2496 -56.2495 -55.8478 -55.8378 -55.5993 -55.5944 -55.5524 -55.3908
   -55.3572 -55.3448 -55.2258 -55.1721 -55.0686 -55.0431 -55.0168 -55.0156
   -32.5445 -32.5444 -32.5329 -32.5327 -32.3768 -32.3765 -32.1669 -32.1578
   -32.0414 -32.0333 -32.0312 -32.0270 -31.9078 -31.8707 -31.8608 -31.8300
   -31.8216 -31.8200 -31.8177 -31.7795 -31.7665 -31.7212 -31.7118 -31.6933
   -31.6308 -31.6299 -31.6253 -31.5972 -31.5922 -31.5894 -31.5532 -31.5436
   -31.4787 -31.4323 -31.4142 -31.4136 -31.3858 -31.3565 -31.3557 -31.3374
   -31.3287 -31.2880 -31.2807 -31.2757 -31.2450 -31.2436 -31.2067 -31.2057
   -18.9291 -16.3644 -15.9697 -15.9615 -15.8305 -15.8251 -15.6523 -15.6403
   -15.5976 -15.5478 -15.5179 -15.4826 -15.3550 -15.3300 -15.2598 -15.2351
   -15.1997 -15.1756 -15.1523 -15.1498 -15.1129 -15.0705 -15.0187 -15.0155
   -14.9642 -14.9627 -14.8370 -14.7614 -14.6836 -14.5092 -14.4604 -13.5218
   -13.5214 -11.5478  -6.9812  -4.3931  -4.1000  -4.0704  -3.8609  -3.1340
    -3.0920  -2.9667  -2.9409  -2.8662  -2.8297  -2.7582  -2.7007  -2.6775
    -2.6646  -2.6540  -2.5898  -2.5609  -2.5559  -2.5132  -2.4980  -2.4911
    -2.4572  -2.4122  -2.3808  -2.3586  -2.3536  -2.3476  -2.2679  -2.1958
    -2.1935  -2.1764  -2.1459  -2.1131  -2.0322  -2.0245  -1.9811  -1.9472
    -1.9171  -1.8286  -1.7895  -1.7532  -1.6970  -1.6705  -1.5812  -1.5784
    -1.5104  -1.4619  -1.3495  -1.3264  -1.3078  -1.2648  -1.2282  -1.1944
    -1.1229  -1.1016  -1.0452  -1.0419  -1.0284  -1.0060  -0.8960  -0.8553
    -0.7624  -0.7204  -0.6985  -0.6725  -0.6300  -0.6236  -0.5532  -0.5302
    -0.4920  -0.4659  -0.4008  -0.3949  -0.3608  -0.2967  -0.1884  -0.0302
     0.0632   0.1080   0.1290   0.1469   0.1931   0.3026   0.3086   0.3816
     0.4544   0.4671   0.4854   0.5144   0.6582   0.7384   0.8435   0.8651
     0.9167   0.9644   1.0236   1.0924   1.3826   1.3901   1.3937   1.3942
     2.7263   3.5099   3.5123   3.5406   3.5518   3.7321   3.7400   3.7577
     3.9026   3.9315   4.0044

     the Fermi energy is     2.8953 ev

!    total energy              =   -2972.75612547 Ry
     estimated scf accuracy    <       0.00000005 Ry
     smearing contrib. (-TS)   =      -0.01288256 Ry
     internal energy E=F+TS    =   -2972.74324291 Ry

     The total energy is F=E-TS. E is the sum of the following terms:
     one-electron contribution =  -23636.71310762 Ry
     hartree contribution      =   11911.42992089 Ry
     xc contribution           =    -493.08442888 Ry
     ewald contribution        =    9245.62375675 Ry
     electric field correction =       0.00061595 Ry

     convergence has been achieved in  82 iterations

     Forces acting on atoms (cartesian axes, Ry/au):

     atom    1 type  1   force =    -0.00001103   -0.00035863    0.10680024
     atom    2 type  1   force =    -0.00004605    0.00020313   -0.16493335
     atom    3 type  2   force =     0.00005579    0.00001968   -0.03811636
     atom    4 type  2   force =     0.00006500   -0.00063983    0.03456601
     atom    5 type  2   force =    -0.00367993   -0.00218763   -0.00715434
     atom    6 type  2   force =     0.00570506   -0.00177222   -0.00682872
     atom    7 type  1   force =     0.00025460   -0.00516382    0.03705928
     atom    8 type  1   force =    -0.00002274    0.01091713    0.05880103
     atom    9 type  2   force =    -0.00043660    0.00030631   -0.00076818
     atom   10 type  2   force =    -0.00076400   -0.00041252   -0.04421477
     atom   11 type  2   force =     0.00033829   -0.00023678    0.00033859
     atom   12 type  2   force =    -0.00068612   -0.00057283   -0.00001366
     atom   13 type  1   force =     0.00004459    0.00034639    0.00055244
     atom   14 type  1   force =    -0.00024931   -0.00009469    0.00042021
     atom   15 type  2   force =    -0.00017775   -0.00087497   -0.00098040
     atom   16 type  2   force =     0.00032732    0.00004442    0.00063033
     atom   17 type  2   force =    -0.00008768    0.00036602    0.00019124
     atom   18 type  2   force =     0.00042972    0.00049706   -0.00045767
     atom   19 type  1   force =    -0.00047436   -0.00054157   -0.00063750
     atom   20 type  1   force =     0.00010741   -0.00038016    0.00023646
     atom   21 type  2   force =     0.00004358    0.00021291    0.10036644
     atom   22 type  2   force =     0.00001496   -0.00192985    0.00036124
     atom   23 type  2   force =    -0.07692907   -0.00000904   -0.03001333
     atom   24 type  2   force =     0.07679812    0.00041830   -0.03007206
     atom   25 type  1   force =     0.00005469   -0.00042475    0.10685245
     atom   26 type  1   force =    -0.00017460   -0.00138217   -0.16529183
     atom   27 type  2   force =     0.00012605   -0.00063930   -0.03656132
     atom   28 type  2   force =     0.00003850    0.00111553    0.03014840
     atom   29 type  2   force =    -0.00206447    0.00417770   -0.01012702
     atom   30 type  2   force =     0.00412940    0.00462635   -0.00970342
     atom   31 type  1   force =     0.00024010    0.00323021    0.02260456
     atom   32 type  1   force =    -0.00015607   -0.01397509    0.05885024
     atom   33 type  2   force =    -0.00013935   -0.00118571   -0.00023191
     atom   34 type  2   force =    -0.00070527   -0.00008280   -0.05471858
     atom   35 type  2   force =    -0.00103753    0.00021212    0.00023099
     atom   36 type  2   force =     0.00049001   -0.00000690   -0.00019544
     atom   37 type  1   force =    -0.00013651   -0.00077702   -0.00010287
     atom   38 type  1   force =    -0.00057655    0.00003052   -0.00004361
     atom   39 type  2   force =    -0.00030615    0.00076109   -0.00033402
     atom   40 type  2   force =    -0.00024455   -0.00046708    0.00032873
     atom   41 type  2   force =    -0.00084810    0.00003247    0.00005286
     atom   42 type  2   force =    -0.00025269    0.00008053    0.00076430
     atom   43 type  1   force =     0.00080719    0.00102806   -0.00034996
     atom   44 type  1   force =    -0.00018847    0.00179797    0.00031544
     atom   45 type  2   force =     0.00003604    0.00000110    0.10016196
     atom   46 type  2   force =    -0.07696881    0.00003333   -0.03004456
     atom   47 type  2   force =     0.07686129    0.00046056   -0.03011199
     atom   48 type  3   force =     0.00048162   -0.00371599    0.00557893
     atom   49 type  3   force =    -0.00019333    0.00486812   -0.00318885
     atom   50 type  4   force =     0.00027334    0.00189081   -0.00146558
     atom   51 type  5   force =    -0.00040883   -0.00021911    0.00035293
     atom   52 type  5   force =    -0.00038767   -0.00026281   -0.00044059
     atom   53 type  5   force =    -0.00006147    0.00014597    0.00037643
     atom   54 type  2   force =     0.00104655   -0.00040581   -0.00097508
     atom   55 type  5   force =    -0.00035416    0.00089533    0.00113524

     Total force =     0.379794     Total SCF correction =     0.000483
  @ DRIVER MODE: Message from server: STATUS
  @ DRIVER MODE: Message from server: GETFORCE
  @ DRIVER MODE: Returning v,forces,stress,ensemble

     Writing output data file ./calc.save/
  @ DRIVER MODE: Message from server: EXIT
  @ DRIVE MODE: Exiting

     General routines

     Parallel routines

   This run was terminated on:  23:37:43   9Sep2021

   JOB DONE.