     Program PWSCF v.6.7GPU starts on 15Sep2021 at 17:32:16

     R & G space division:  proc/nbgrp/npool/nimage =      10
     Reading input from /storage/home/hcoda1/3/ntian30/research/carbon/CxH_vib/H2O_calc/ads_slab/CH2N2HH2O_a/out_0006/pw.inp
Warning: card &CELL ignored
Warning: card   CELL_DYNAMICS='IPI', ignored
Warning: card / ignored

     Current dimensions of program PWSCF are:
     Max number of different atomic species (ntypx) = 10
     Max number of k-points (npk) =  40000
     Max angular momentum in pseudopotentials (lmaxx) =  3
     Presently no symmetry can be used with electric field

     Message from routine cell_base_init:
     DEPRECATED: use true lattice parameter, not A to a.u. conversion factor

     IMPORTANT: XC functional enforced from input :
     Exchange-correlation= BEEF-VDW
                           (   1   4  43  14   2   0   0)
     Any further DFT definition will be discarded
     Please, verify this is what you really want

  @ DRIVER MODE: Connecting to
 qe_1139763_2852606.sched-torque.pace.gatech.edus27ioz19_scratch
  using UNIX socket
  @ DRIVER MODE: Message from server: STATUS
  @ DRIVER MODE: Message from server: INIT
  @ DRIVER MODE: Receiving replica           0          -1
  @ DRIVER MODE: Receiving encoded integer          25
  @ DRIVER MODE:  SCF:  T  FORCE:  T  STRESS:  F  VC:  F  ENSEMBLE:  F
  @ DRIVER MODE:  SCF:  T  FORCE:  T  STRESS:  F  VC:  F  ENSEMBLE:  F

     Using Slab Decomposition

     bravais-lattice index     =            0
     lattice parameter (alat)  =       1.8897  a.u.
     unit-cell volume          =    6658.9804 (a.u.)^3
     number of atoms/cell      =           56
     number of atomic types    =            5
     number of electrons       =       403.00
     number of Kohn-Sham states=          211
     kinetic-energy cutoff     =      29.3995  Ry
     charge density cutoff     =     293.9946  Ry
     scf convergence threshold =      7.3E-08
     mixing beta               =       0.0500
     number of iterations used =            8  plain     mixing
     Exchange-correlation= BEEF-VDW
                           (   1   4  43  14   2   0   0)

     celldm(1)=   1.889726  celldm(2)=   0.000000  celldm(3)=   0.000000
     celldm(4)=   0.000000  celldm(5)=   0.000000  celldm(6)=   0.000000

     crystal axes: (cart. coord. in units of alat)
               a(1) = (   6.579727   0.000000   0.000000 )
               a(2) = (  -0.000775   5.961596   0.000000 )
               a(3) = (   0.000000   0.000000  25.155947 )

     reciprocal axes: (cart. coord. in units 2 pi/alat)
               b(1) = (  0.151982  0.000020  0.000000 )
               b(2) = (  0.000000  0.167740  0.000000 )
               b(3) = (  0.000000  0.000000  0.039752 )

     PseudoPot. # 1 for Ti read from file:
     /storage/coda1/p-amedford6/0/shared/rich_project_chbe-medford/medford-share/data/pseudos_module/espresso/nninc/pbe/van/Ti.UPF
     MD5 check sum: 8e4df49b7f0d34bbd5052bf3f5ea0213
     Pseudo is Ultrasoft, Zval = 12.0
     Generated by new atomic code, or converted to UPF format
     Using radial grid of  851 points,  6 beta functions with:
                l(1) =   0
                l(2) =   0
                l(3) =   1
                l(4) =   1
                l(5) =   2
                l(6) =   2
     Q(r) pseudized with  8 coefficients,  rinner =    1.000   1.000   1.000
                                                       1.000   1.000

     PseudoPot. # 2 for O  read from file:
     /storage/coda1/p-amedford6/0/shared/rich_project_chbe-medford/medford-share/data/pseudos_module/espresso/nninc/pbe/van/O.UPF
     MD5 check sum: 78c19812648e8988a0fe644b0f25305e
     Pseudo is Ultrasoft, Zval =  6.0
     Generated by new atomic code, or converted to UPF format
     Using radial grid of  737 points,  4 beta functions with:
                l(1) =   0
                l(2) =   0
                l(3) =   1
                l(4) =   1
     Q(r) pseudized with  8 coefficients,  rinner =    0.800   0.800   0.800

     PseudoPot. # 3 for N  read from file:
     /storage/coda1/p-amedford6/0/shared/rich_project_chbe-medford/medford-share/data/pseudos_module/espresso/nninc/pbe/van/N.UPF
     MD5 check sum: 90d10febe142ad51ac9d5be1deb811c4
     Pseudo is Ultrasoft, Zval =  5.0
     Generated by new atomic code, or converted to UPF format
     Using radial grid of  729 points,  4 beta functions with:
                l(1) =   0
                l(2) =   0
                l(3) =   1
                l(4) =   1
     Q(r) pseudized with  8 coefficients,  rinner =    0.800   0.800   0.800

     PseudoPot. # 4 for C  read from file:
     /storage/coda1/p-amedford6/0/shared/rich_project_chbe-medford/medford-share/data/pseudos_module/espresso/nninc/pbe/van/C.UPF
     MD5 check sum: 1a69bf6b8db32088f5b2163dbdb77a27
     Pseudo is Ultrasoft, Zval =  4.0
     Generated by new atomic code, or converted to UPF format
     Using radial grid of  721 points,  4 beta functions with:
                l(1) =   0
                l(2) =   0
                l(3) =   1
                l(4) =   1
     Q(r) pseudized with  8 coefficients,  rinner =    0.800   0.800   0.800

     PseudoPot. # 5 for H  read from file:
     /storage/coda1/p-amedford6/0/shared/rich_project_chbe-medford/medford-share/data/pseudos_module/espresso/nninc/pbe/van/H.UPF
     MD5 check sum: b5ee9d7bfd3a09ee7748110bda690ff7
     Pseudo is Ultrasoft, Zval =  1.0
     Generated by new atomic code, or converted to UPF format
     Using radial grid of  615 points,  1 beta functions with:
                l(1) =   0
     Q(r) pseudized with  8 coefficients,  rinner =    0.800

     atomic species   valence    mass     pseudopotential
        Ti1           12.00    47.86700     Ti( 1.00)
        O1             6.00    15.99900     O ( 1.00)
        N1             5.00    14.00700     N ( 1.00)
        C1             4.00    12.01100     C ( 1.00)
        H1             1.00     1.00800     H ( 1.00)

     No symmetry found

   Cartesian axes

     site n.     atom                  positions (alat units)
         1           Ti1 tau(   1) = (   0.0004258   2.9801865   6.0000000  )
         2           Ti1 tau(   2) = (   3.2906075   1.4906267   6.0002472  )
         3           O1  tau(   3) = (   0.0006271   0.0005054   7.9858123  )
         4           O1  tau(   4) = (   3.2906025   0.0005020   7.3038282  )
         5           O1  tau(   5) = (   4.5942328   1.4918067   9.2879030  )
         6           O1  tau(   6) = (   1.9868534   1.4903216   9.2879459  )
         7           Ti1 tau(   7) = (   3.2907910   2.8959150   9.1758416  )
         8           Ti1 tau(   8) = (   0.0015273   1.4827037   9.2680791  )
         9           O1  tau(   9) = (   3.2932810   5.9556063  11.3276769  )
        10           O1  tau(  10) = (   0.0116148   5.9584955  10.6183126  )
        11           O1  tau(  11) = (   1.2966828   1.5020869  12.6141357  )
        12           O1  tau(  12) = (   5.2995835   1.4923495  12.6341875  )
        13           Ti1 tau(  13) = (   6.5470072   2.9473109  12.5798724  )
        14           Ti1 tau(  14) = (   3.2302912   1.4573256  12.5082679  )
        15           O1  tau(  15) = (   0.0525813   0.0137714  14.6435187  )
        16           O1  tau(  16) = (   3.2708393   0.0302713  13.9228694  )
        17           O1  tau(  17) = (   4.5627544   1.5900677  16.0055000  )
        18           O1  tau(  18) = (   2.0437599   1.5040777  16.0764052  )
        19           Ti1 tau(  19) = (   3.3063064   2.9825517  15.6619520  )
        20           Ti1 tau(  20) = (   6.5607061   1.3194196  15.9785141  )
        21           O1  tau(  21) = (   3.2904802   0.0005063   4.7018136  )
        22           O1  tau(  22) = (   6.3855286   5.9589440  17.1610702  )
        23           O1  tau(  23) = (   1.3043587   1.4918075   6.0039043  )
        24           O1  tau(  24) = (   5.2767064   1.4903225   6.0039473  )
        25           Ti1 tau(  25) = (   0.0000382   5.9609847   6.0000000  )
        26           Ti1 tau(  26) = (   3.2902200   4.4714249   6.0002472  )
        27           O1  tau(  27) = (   0.0002396   2.9813036   7.9858123  )
        28           O1  tau(  28) = (   3.2902150   2.9813002   7.3038282  )
        29           O1  tau(  29) = (   4.5938453   4.4726049   9.2879030  )
        30           O1  tau(  30) = (   1.9864658   4.4711199   9.2879459  )
        31           Ti1 tau(  31) = (   3.2891106   5.8743827   9.1763621  )
        32           Ti1 tau(  32) = (   0.0006254   4.4649316   9.2693709  )
        33           O1  tau(  33) = (   3.2946552   2.9814125  11.3288906  )
        34           O1  tau(  34) = (   0.0092240   2.9805883  10.6323155  )
        35           O1  tau(  35) = (   1.2978438   4.4726441  12.6233041  )
        36           O1  tau(  36) = (   5.2969606   4.4732664  12.6435870  )
        37           Ti1 tau(  37) = (   6.5415350   5.9305516  12.5357152  )
        38           Ti1 tau(  38) = (   3.2303862   4.4559975  12.4807118  )
        39           O1  tau(  39) = (   0.0164246   2.9899045  14.7829194  )
        40           O1  tau(  40) = (   3.2688228   2.9752494  13.8698570  )
        41           O1  tau(  41) = (   4.5210259   4.4573316  15.9082071  )
        42           O1  tau(  42) = (   2.0412773   4.4882057  16.0214637  )
        43           Ti1 tau(  43) = (   3.2233344   5.9452837  15.7820064  )
        44           Ti1 tau(  44) = (   6.5355943   4.4735413  15.8975681  )
        45           O1  tau(  45) = (   3.2900926   2.9813045   4.7018136  )
        46           O1  tau(  46) = (   1.3039711   4.4726057   6.0039043  )
        47           O1  tau(  47) = (   5.2763189   4.4711207   6.0039473  )
        48           N1  tau(  48) = (   0.2167872   2.3688911  18.0261765  )
        49           C1  tau(  49) = (   0.4968348   1.8934616  19.1878903  )
        50           H1  tau(  50) = (   0.5617972   2.5522217  20.0513624  )
        51           H1  tau(  51) = (   0.6371857   0.8299532  19.2874115  )
        52           N1  tau(  52) = (   6.5661014   3.6386027  17.7750644  )
        53           H1  tau(  53) = (   0.0713089   4.2532688  18.5884219  )
        54           O1  tau(  54) = (   3.6608114   5.9026821  18.0962282  )
        55           H1  tau(  55) = (   4.6425638   0.0038819  18.0438526  )
        56           H1  tau(  56) = (   3.3558581   0.7595698  18.5153002  )

     number of k points=    10  Fermi-Dirac smearing, width (Ry)=  0.0073
                       cart. coord. in units 2pi/alat
        k(    1) = (   0.0000000   0.0000000   0.0000000), wk =   0.1250000
        k(    2) = (   0.0000000   0.0419351   0.0000000), wk =   0.2500000
        k(    3) = (   0.0000000  -0.0838702   0.0000000), wk =   0.1250000
        k(    4) = (   0.0379955   0.0000049   0.0000000), wk =   0.2500000
        k(    5) = (   0.0379955   0.0419400   0.0000000), wk =   0.2500000
        k(    6) = (   0.0379955  -0.0838652   0.0000000), wk =   0.2500000
        k(    7) = (   0.0379955  -0.0419301   0.0000000), wk =   0.2500000
        k(    8) = (  -0.0759910  -0.0000099   0.0000000), wk =   0.1250000
        k(    9) = (  -0.0759910   0.0419252   0.0000000), wk =   0.2500000
        k(   10) = (  -0.0759910  -0.0838800   0.0000000), wk =   0.1250000

     Initial potential from superposition of free atoms

     starting charge  386.99914, renormalised to  403.00000

     negative rho (up, down):  1.554E-02 0.000E+00

     %%%%%%%%%%%%%%%%%%%%%%%%%%%%%%%%%%%%%%%%%%%%%%%%%%%%%%%%%%%%%%%%%%%%%%%%
     %                                                                      %
     % You are using vdW-DF, which was implemented by the Thonhauser group. %
     % Please cite the following two papers that made this development      %
     % possible and the two reviews that describe the various versions:     %
     %                                                                      %
     %   T. Thonhauser et al., PRL 115, 136402 (2015).                      %
     %   T. Thonhauser et al., PRB 76, 125112 (2007).                       %
     %   K. Berland et al., Rep. Prog. Phys. 78, 066501 (2015).             %
     %   D.C. Langreth et al., J. Phys.: Condens. Matter 21, 084203 (2009). %
     %                                                                      %
     %                                                                      %
     % If you are calculating the stress with vdW-DF, please also cite:     %
     %                                                                      %
     %   R. Sabatini et al., J. Phys.: Condens. Matter 24, 424209 (2012).   %
     %                                                                      %
     %%%%%%%%%%%%%%%%%%%%%%%%%%%%%%%%%%%%%%%%%%%%%%%%%%%%%%%%%%%%%%%%%%%%%%%%

     Adding external electric field

     Computed dipole along edir(3) :
        Dipole              -12.7991 Ry au,        -32.5320 Debye
        Dipole field         -0.0242 Ry au,

        Potential amp.        2.2390 Ry
        Total length         46.3494 bohr

     Starting wfcs are  305 atomic wfcs
  @ DRIVER MODE: Message from server: STATUS
  @ DRIVER MODE: Message from server: POSDATA
  @ DRIVER MODE: Reading and sharing cell
  @ DRIVER MODE: Reading and sharing positions
  @ DRIVER MODE: Received positions

     Self-consistent Calculation

     iteration #  1     ecut=    29.40 Ry     beta= 0.05
     Davidson diagonalization with overlap
     c_bands:  3 eigenvalues not converged
     c_bands:  3 eigenvalues not converged
     c_bands:  3 eigenvalues not converged
     c_bands:  5 eigenvalues not converged
     c_bands:  1 eigenvalues not converged
     c_bands:  1 eigenvalues not converged
     c_bands:  4 eigenvalues not converged
     c_bands:  3 eigenvalues not converged
     ethr =  1.00E-05,  avg # of iterations = 27.5

[...]

     total energy              =   -2369.02291077 Ry
     estimated scf accuracy    <    6884.75853059 Ry

     iteration #  2     ecut=    29.40 Ry     beta= 0.05
     Davidson diagonalization with overlap
     ethr =  1.00E-02,  avg # of iterations = 24.3

[...]

     iteration # 71     ecut=    29.40 Ry     beta= 0.05
     Davidson diagonalization with overlap
     c_bands:  1 eigenvalues not converged
     c_bands:  1 eigenvalues not converged
     c_bands:  1 eigenvalues not converged
     c_bands:  1 eigenvalues not converged
     ethr =  1.89E-11,  avg # of iterations = 17.8

[...]

     total energy              =   -2973.98313289 Ry
     estimated scf accuracy    <       0.00000021 Ry

     iteration # 72     ecut=    29.40 Ry     beta= 0.05
     Davidson diagonalization with overlap
     ethr =  1.89E-11,  avg # of iterations = 16.5

     negative rho (up, down):  1.541E-02 0.000E+00

     Adding external electric field

     Computed dipole along edir(3) :
        Dipole                0.9237 Ry au,          2.3479 Debye
        Dipole field          0.0017 Ry au,

        Potential amp.       -0.1616 Ry
        Total length         46.3494 bohr

     End of self-consistent calculation

          k = 0.0000 0.0000 0.0000 ( 18029 PWs)   bands (ev):

   -55.6138 -55.5858 -55.5798 -55.5478 -55.4952 -55.4837 -55.4537 -55.4313
   -55.3973 -55.3928 -55.3588 -55.3356 -55.0439 -54.9927 -54.5938 -54.5598
   -32.1298 -32.0979 -31.9861 -31.9311 -31.9176 -31.9056 -31.8841 -31.8713
   -31.8582 -31.8174 -31.7663 -31.7623 -31.7339 -31.7335 -31.7297 -31.7198
   -31.7152 -31.7118 -31.7087 -31.7067 -31.6760 -31.6712 -31.6626 -31.6347
   -31.6252 -31.6243 -31.6171 -31.6147 -31.5987 -31.5903 -31.5731 -31.5600
   -31.5475 -31.5413 -31.5359 -31.5062 -31.5036 -31.3072 -31.2677 -31.2439
   -31.1909 -31.1486 -31.0006 -30.9127 -30.8903 -30.8177 -30.7312 -30.6198
   -18.6677 -17.9002 -16.3337 -16.0914 -15.8516 -15.7746 -15.7423 -15.5286
   -15.4257 -15.3702 -15.2349 -15.1869 -15.1724 -15.1522 -15.1272 -15.0922
   -15.0668 -15.0533 -15.0462 -15.0298 -15.0043 -14.9774 -14.9573 -14.9536
   -14.9127 -14.8437 -14.7743 -14.7487 -14.6865 -14.6744 -14.2346 -13.0950
   -12.9786 -12.1345  -7.8136  -6.4519  -5.3073  -4.5190  -3.7075  -3.5695
    -3.5219  -3.4725  -3.4638  -3.2744  -3.1902  -3.0596  -2.8983  -2.8510
    -2.7806  -2.7424  -2.7043  -2.6410  -2.6013  -2.4947  -2.4562  -2.4265
    -2.4112  -2.3662  -2.3610  -2.3573  -2.2960  -2.2588  -2.1802  -2.1539
    -2.0752  -2.0048  -1.9763  -1.9493  -1.9279  -1.9104  -1.9072  -1.8582
    -1.8572  -1.8552  -1.7826  -1.7340  -1.6616  -1.6147  -1.5607  -1.4178
    -1.3743  -1.2619  -1.2210  -1.1000  -1.0960  -1.0729  -1.0492  -1.0102
    -1.0018  -0.8786  -0.7938  -0.7450  -0.7092  -0.6462  -0.5413  -0.5192
    -0.4330  -0.4262  -0.3742  -0.3597  -0.3459  -0.3163  -0.2373  -0.1221
    -0.1061  -0.0459   0.0029   0.0662   0.1101   0.1346   0.1733   0.2221
     0.2461   0.2888   0.3149   0.3244   0.3579   0.3958   0.4181   0.4957
     0.5686   0.6186   0.6672   0.7083   0.7145   0.8896   1.0019   1.0407
     1.1717   1.2093   1.3621   1.4297   1.4999   1.6216   1.9999   2.0456
     2.2065   3.4938   3.6076   3.6319   3.6419   3.7452   3.8787   3.9615
     4.0022   4.0265   4.0655

[...]

          k = 0.0380-0.0419 0.0000 ( 17876 PWs)   bands (ev):

[...]

          k =-0.0760-0.0000 0.0000 ( 17886 PWs)   bands (ev):

[...]

          k =-0.0760-0.0839 0.0000 ( 17948 PWs)   bands (ev):

   -55.5968 -55.5966 -55.5731 -55.5602 -55.4862 -55.4816 -55.4627 -55.4146
   -55.4136 -55.3785 -55.3733 -55.3376 -55.0372 -54.9993 -54.5769 -54.5765
   -31.9461 -31.9209 -31.9132 -31.9131 -31.8911 -31.8910 -31.8260 -31.8213
   -31.8130 -31.8081 -31.7892 -31.7393 -31.7355 -31.7324 -31.7230 -31.7217
   -31.7195 -31.7167 -31.7160 -31.7142 -31.7126 -31.7001 -31.6909 -31.6764
   -31.6736 -31.6691 -31.6474 -31.6187 -31.6177 -31.6080 -31.5993 -31.5951
   -31.5921 -31.5910 -31.5895 -31.5445 -31.5204 -31.2957 -31.2698 -31.2647
   -31.2478 -31.1921 -30.9031 -30.9029 -30.8136 -30.8132 -30.7746 -30.7744
   -18.6657 -17.8875 -15.7744 -15.6815 -15.5947 -15.5525 -15.4737 -15.4560
   -15.4012 -15.3364 -15.2978 -15.2796 -15.2381 -15.2088 -15.1649 -15.1527
   -15.1447 -15.1213 -15.0971 -15.0729 -15.0617 -15.0556 -15.0508 -15.0376
   -15.0042 -14.9726 -14.9354 -14.9315 -14.9030 -14.6604 -14.5843 -13.0805
   -13.0802 -12.0874  -7.7354  -6.4460  -5.3723  -4.5881  -3.1879  -3.0624
    -2.8925  -2.8521  -2.8044  -2.7505  -2.7428  -2.6885  -2.5643  -2.5552
    -2.5243  -2.4599  -2.4364  -2.4333  -2.4246  -2.4206  -2.3997  -2.3629
    -2.3623  -2.3077  -2.2985  -2.2872  -2.2818  -2.2625  -2.2462  -2.2431
    -2.2195  -2.1734  -2.1582  -2.1431  -2.0363  -1.9330  -1.8774  -1.8383
    -1.8081  -1.7625  -1.7576  -1.7372  -1.7220  -1.6836  -1.6676  -1.6118
    -1.4963  -1.4184  -1.3318  -1.3019  -1.2726  -1.2024  -1.1570  -1.0933
    -1.0527  -1.0472  -0.9635  -0.8484  -0.8365  -0.7991  -0.7709  -0.6946
    -0.6657  -0.6333  -0.5727  -0.5660  -0.5383  -0.5112  -0.4774  -0.3806
    -0.3647  -0.3585  -0.3292  -0.3196  -0.3085  -0.2677  -0.1948  -0.0956
    -0.0231  -0.0151   0.0889   0.2244   0.3127   0.4449   0.4729   0.5210
     0.5745   0.6149   0.6921   0.6993   0.7290   0.7895   0.8331   0.9011
     0.9245   0.9395   1.0275   1.0366   1.7936   1.7949   1.8656   1.8657
     2.1494   3.8583   3.8866   3.9074   3.9524   4.0295   4.0534   4.0543
     4.0605   4.1767   4.1834

     the Fermi energy is     3.5128 ev

!    total energy              =   -2973.98314725 Ry
     estimated scf accuracy    <       0.00000002 Ry
     smearing contrib. (-TS)   =      -0.02040122 Ry
     internal energy E=F+TS    =   -2973.96274604 Ry

     The total energy is F=E-TS. E is the sum of the following terms:
     one-electron contribution =  -24201.78871117 Ry
     hartree contribution      =   12195.51830845 Ry
     xc contribution           =    -494.26756254 Ry
     ewald contribution        =    9526.57360897 Ry
     electric field correction =       0.00161025 Ry

     convergence has been achieved in  72 iterations

     Forces acting on atoms (cartesian axes, Ry/au):

     atom    1 type  1   force =    -0.00005367   -0.00019706    0.09555252
     atom    2 type  1   force =     0.00001922   -0.00035653   -0.17554275
     atom    3 type  2   force =     0.00009500   -0.00012604   -0.02316077
     atom    4 type  2   force =     0.00000703   -0.00139041    0.05290679
     atom    5 type  2   force =    -0.01000759   -0.00075487    0.00325145
     atom    6 type  2   force =     0.01153760   -0.00009614    0.00282809
     atom    7 type  1   force =     0.00046055    0.00028020   -0.00663451
     atom    8 type  1   force =     0.00029282    0.00536906    0.01756899
     atom    9 type  2   force =    -0.00014973   -0.00015667   -0.00039970
     atom   10 type  2   force =    -0.00346571    0.00075429   -0.01263563
     atom   11 type  2   force =    -0.00081691   -0.00033002    0.00009339
     atom   12 type  2   force =     0.00033210   -0.00017652    0.00009779
     atom   13 type  1   force =    -0.00025418    0.00038437   -0.00024103
     atom   14 type  1   force =     0.00022053    0.00002864    0.00068190
     atom   15 type  2   force =    -0.00017535    0.00031473   -0.00010909
     atom   16 type  2   force =    -0.00004148   -0.00021079   -0.00009775
     atom   17 type  2   force =     0.00057212   -0.00015085   -0.00006209
     atom   18 type  2   force =    -0.00049708   -0.00028740    0.00016244
     atom   19 type  1   force =    -0.00007329    0.00001791    0.00031600
     atom   20 type  1   force =     0.00062803    0.00037356    0.00058528
     atom   21 type  2   force =     0.00006863    0.00003345    0.10316893
     atom   22 type  2   force =     0.00007542   -0.00003953   -0.00022334
     atom   23 type  2   force =    -0.07161569   -0.00013433   -0.02753767
     atom   24 type  2   force =     0.07154422    0.00036723   -0.02757940
     atom   25 type  1   force =     0.00018455   -0.00009497    0.09521012
     atom   26 type  1   force =     0.00008355   -0.00040313   -0.17572225
     atom   27 type  2   force =     0.00011232   -0.00023926   -0.02207822
     atom   28 type  2   force =     0.00002813   -0.00099131    0.05230891
     atom   29 type  2   force =    -0.01015636    0.00036975    0.00285684
     atom   30 type  2   force =     0.01155864    0.00074505    0.00247936
     atom   31 type  1   force =     0.00027519    0.00394469   -0.01130722
     atom   32 type  1   force =     0.00045900   -0.00673070    0.01786651
     atom   33 type  2   force =    -0.00007999    0.00005111   -0.00020375
     atom   34 type  2   force =    -0.00395408    0.00073747   -0.01213054
     atom   35 type  2   force =    -0.00022945    0.00009606   -0.00016432
     atom   36 type  2   force =     0.00000500    0.00004125   -0.00007537
     atom   37 type  1   force =    -0.00005424   -0.00040664    0.00026905
     atom   38 type  1   force =     0.00007033    0.00001850    0.00039413
     atom   39 type  2   force =     0.00036396   -0.00032886    0.00025244
     atom   40 type  2   force =    -0.00050531    0.00025995   -0.00010435
     atom   41 type  2   force =    -0.00001607    0.00015939   -0.00026022
     atom   42 type  2   force =     0.00046168    0.00028238    0.00010313
     atom   43 type  1   force =    -0.00012289   -0.00048679   -0.00001980
     atom   44 type  1   force =    -0.00006577   -0.00058977    0.00062234
     atom   45 type  2   force =     0.00007270   -0.00000395    0.10313202
     atom   46 type  2   force =    -0.07161730   -0.00003770   -0.02751406
     atom   47 type  2   force =     0.07154821    0.00035333   -0.02760370
     atom   48 type  3   force =    -0.00379574    0.00489202   -0.02264581
     atom   49 type  4   force =     0.00371745   -0.00333119    0.01593508
     atom   50 type  5   force =     0.00070578   -0.00060438    0.00190374
     atom   51 type  5   force =     0.00054198   -0.00066995    0.00023213
     atom   52 type  3   force =     0.00039647   -0.00232982    0.00363919
     atom   53 type  5   force =     0.00043499    0.00154726   -0.00044077
     atom   54 type  2   force =    -0.00062909   -0.00127547   -0.00059954
     atom   55 type  5   force =     0.00175552   -0.00003474    0.00015221
     atom   56 type  5   force =    -0.00025175    0.00154415    0.00052290

     Total force =     0.365878     Total SCF correction =     0.000347
  @ DRIVER MODE: Message from server: STATUS
  @ DRIVER MODE: Message from server: GETFORCE
  @ DRIVER MODE: Returning v,forces,stress,ensemble

     Writing output data file ./calc.save/
  @ DRIVER MODE: Message from server: EXIT
  @ DRIVE MODE: Exiting

     General routines

     Parallel routines

   This run was terminated on:  17:52:42  15Sep2021

   JOB DONE.