     Program PWSCF v.6.7GPU starts on 16Jul2021 at  4: 1: 6

     R & G space division:  proc/nbgrp/npool/nimage =      16
     Reading input from /storage/home/hcoda1/3/ntian30/research/carbon/15Jul_vib/ads_slab/CH3NH_a/out_0024/pw.inp
Warning: card &CELL ignored
Warning: card   CELL_DYNAMICS='IPI', ignored
Warning: card / ignored

     Current dimensions of program PWSCF are:
     Max number of different atomic species (ntypx) = 10
     Max number of k-points (npk) =  40000
     Max angular momentum in pseudopotentials (lmaxx) =  3
     Presently no symmetry can be used with electric field

     Message from routine cell_base_init:
     DEPRECATED: use true lattice parameter, not A to a.u. conversion factor

     IMPORTANT: XC functional enforced from input :
     Exchange-correlation= BEEF-VDW
                           (   1   4  43  14   2   0   0)
     Any further DFT definition will be discarded
     Please, verify this is what you really want

  @ DRIVER MODE: Connecting to
 qe_1139763_2351648.sched-torque.pace.gatech.edu_3146ybu_scratch
  using UNIX socket
  @ DRIVER MODE: Message from server: STATUS
  @ DRIVER MODE: Message from server: INIT
  @ DRIVER MODE: Receiving replica           0          -1
  @ DRIVER MODE: Receiving encoded integer          25
  @ DRIVER MODE:  SCF:  T  FORCE:  T  STRESS:  F  VC:  F  ENSEMBLE:  F
  @ DRIVER MODE:  SCF:  T  FORCE:  T  STRESS:  F  VC:  F  ENSEMBLE:  F

     Using Slab Decomposition

     bravais-lattice index     =            0
     lattice parameter (alat)  =       1.8897  a.u.
     unit-cell volume          =    6658.9804 (a.u.)^3
     number of atoms/cell      =           53
     number of atomic types    =            5
     number of electrons       =       391.00
     number of Kohn-Sham states=          205
     kinetic-energy cutoff     =      29.3995  Ry
     charge density cutoff     =     293.9946  Ry
     scf convergence threshold =      7.3E-08
     mixing beta               =       0.0500
     number of iterations used =            8  plain     mixing
     Exchange-correlation= BEEF-VDW
                           (   1   4  43  14   2   0   0)

     celldm(1)=   1.889726  celldm(2)=   0.000000  celldm(3)=   0.000000
     celldm(4)=   0.000000  celldm(5)=   0.000000  celldm(6)=   0.000000

     crystal axes: (cart. coord. in units of alat)
               a(1) = (   6.579727   0.000000   0.000000 )
               a(2) = (  -0.000775   5.961596   0.000000 )
               a(3) = (   0.000000   0.000000  25.155947 )

     reciprocal axes: (cart. coord. in units 2 pi/alat)
               b(1) = (  0.151982  0.000020  0.000000 )
               b(2) = (  0.000000  0.167740  0.000000 )
               b(3) = (  0.000000  0.000000  0.039752 )

     PseudoPot. # 1 for Ti read from file:
     /storage/coda1/p-amedford6/0/shared/rich_project_chbe-medford/medford-share/data/pseudos_module/espresso/nninc/pbe/van/Ti.UPF
     MD5 check sum: 8e4df49b7f0d34bbd5052bf3f5ea0213
     Pseudo is Ultrasoft, Zval = 12.0
     Generated by new atomic code, or converted to UPF format
     Using radial grid of  851 points,  6 beta functions with:
                l(1) =   0
                l(2) =   0
                l(3) =   1
                l(4) =   1
                l(5) =   2
                l(6) =   2
     Q(r) pseudized with  8 coefficients,  rinner =    1.000   1.000   1.000
                                                       1.000   1.000

     PseudoPot. # 2 for O  read from file:
     /storage/coda1/p-amedford6/0/shared/rich_project_chbe-medford/medford-share/data/pseudos_module/espresso/nninc/pbe/van/O.UPF
     MD5 check sum: 78c19812648e8988a0fe644b0f25305e
     Pseudo is Ultrasoft, Zval =  6.0
     Generated by new atomic code, or converted to UPF format
     Using radial grid of  737 points,  4 beta functions with:
                l(1) =   0
                l(2) =   0
                l(3) =   1
                l(4) =   1
     Q(r) pseudized with  8 coefficients,  rinner =    0.800   0.800   0.800

     PseudoPot. # 3 for H  read from file:
     /storage/coda1/p-amedford6/0/shared/rich_project_chbe-medford/medford-share/data/pseudos_module/espresso/nninc/pbe/van/H.UPF
     MD5 check sum: b5ee9d7bfd3a09ee7748110bda690ff7
     Pseudo is Ultrasoft, Zval =  1.0
     Generated by new atomic code, or converted to UPF format
     Using radial grid of  615 points,  1 beta functions with:
                l(1) =   0
     Q(r) pseudized with  8 coefficients,  rinner =    0.800

     PseudoPot. # 4 for N  read from file:
     /storage/coda1/p-amedford6/0/shared/rich_project_chbe-medford/medford-share/data/pseudos_module/espresso/nninc/pbe/van/N.UPF
     MD5 check sum: 90d10febe142ad51ac9d5be1deb811c4
     Pseudo is Ultrasoft, Zval =  5.0
     Generated by new atomic code, or converted to UPF format
     Using radial grid of  729 points,  4 beta functions with:
                l(1) =   0
                l(2) =   0
                l(3) =   1
                l(4) =   1
     Q(r) pseudized with  8 coefficients,  rinner =    0.800   0.800   0.800

     PseudoPot. # 5 for C  read from file:
     /storage/coda1/p-amedford6/0/shared/rich_project_chbe-medford/medford-share/data/pseudos_module/espresso/nninc/pbe/van/C.UPF
     MD5 check sum: 1a69bf6b8db32088f5b2163dbdb77a27
     Pseudo is Ultrasoft, Zval =  4.0
     Generated by new atomic code, or converted to UPF format
     Using radial grid of  721 points,  4 beta functions with:
                l(1) =   0
                l(2) =   0
                l(3) =   1
                l(4) =   1
     Q(r) pseudized with  8 coefficients,  rinner =    0.800   0.800   0.800

     atomic species   valence    mass     pseudopotential
        Ti1           12.00    47.86700     Ti( 1.00)
        O1             6.00    15.99900     O ( 1.00)
        H1             1.00     1.00800     H ( 1.00)
        N1             5.00    14.00700     N ( 1.00)
        C1             4.00    12.01100     C ( 1.00)

     Starting magnetic structure
     atomic species   magnetization
        Ti1          0.000
        O1           0.000
        H1           0.000
        N1           0.000
        C1           0.025

     No symmetry found

   Cartesian axes

     site n.     atom                  positions (alat units)
         1           Ti1 tau(   1) = (   0.0004258   2.9801865   6.0000000  )
         2           Ti1 tau(   2) = (   3.2906075   1.4906267   6.0002472  )
         3           O1  tau(   3) = (   0.0006271   0.0005054   7.9858123  )
         4           O1  tau(   4) = (   3.2906025   0.0005020   7.3038282  )
         5           O1  tau(   5) = (   4.5942328   1.4918067   9.2879030  )
         6           O1  tau(   6) = (   1.9868534   1.4903216   9.2879459  )
         7           Ti1 tau(   7) = (   3.2907910   2.8959150   9.1758416  )
         8           Ti1 tau(   8) = (   0.0015273   1.4827037   9.2680791  )
         9           O1  tau(   9) = (   3.2884659   0.0075485  11.3235732  )
        10           O1  tau(  10) = (   0.0116148   5.9584955  10.6183126  )
        11           O1  tau(  11) = (   1.3171120   1.5008813  12.6157184  )
        12           O1  tau(  12) = (   5.2946386   1.4924346  12.6071097  )
        13           Ti1 tau(  13) = (   6.5241923   2.9548932  12.6217359  )
        14           Ti1 tau(  14) = (   3.2094326   1.4975571  12.4685497  )
        15           O1  tau(  15) = (   6.5712017   0.0435206  14.6415704  )
        16           O1  tau(  16) = (   3.3105969   0.0188825  13.9167609  )
        17           O1  tau(  17) = (   4.5276945   1.5520673  16.0775932  )
        18           O1  tau(  18) = (   2.0451199   1.5488911  16.0433559  )
        19           Ti1 tau(  19) = (   3.3056363   3.0248959  15.6834923  )
        20           Ti1 tau(  20) = (   0.0598299   1.5678558  15.8702049  )
        21           O1  tau(  21) = (   3.2904802   0.0005063   4.7018136  )
        22           O1  tau(  22) = (   0.0261329   0.0581799  17.1997403  )
        23           O1  tau(  23) = (   1.3043587   1.4918075   6.0039043  )
        24           O1  tau(  24) = (   5.2767064   1.4903225   6.0039473  )
        25           Ti1 tau(  25) = (   0.0000382   5.9609847   6.0000000  )
        26           Ti1 tau(  26) = (   3.2902200   4.4714249   6.0002472  )
        27           O1  tau(  27) = (   0.0002396   2.9813036   7.9858123  )
        28           O1  tau(  28) = (   3.2902150   2.9813002   7.3038282  )
        29           O1  tau(  29) = (   4.5938453   4.4726049   9.2879030  )
        30           O1  tau(  30) = (   1.9864658   4.4711199   9.2879459  )
        31           Ti1 tau(  31) = (   3.2891106   5.8743827   9.1763621  )
        32           Ti1 tau(  32) = (   0.0006254   4.4649316   9.2693709  )
        33           O1  tau(  33) = (   3.2900467   2.9919642  11.3219399  )
        34           O1  tau(  34) = (   0.0092240   2.9805883  10.6323155  )
        35           O1  tau(  35) = (   1.3109590   4.4888342  12.6262493  )
        36           O1  tau(  36) = (   5.2962169   4.4808628  12.6191006  )
        37           Ti1 tau(  37) = (   6.5213093   5.9327278  12.5667326  )
        38           Ti1 tau(  38) = (   3.2063601   4.4772876  12.4706241  )
        39           O1  tau(  39) = (   6.5765807   2.9606619  14.6437028  )
        40           O1  tau(  40) = (   3.3047873   3.0036736  13.8926904  )
        41           O1  tau(  41) = (   4.5386289   4.5058657  16.0833063  )
        42           O1  tau(  42) = (   2.0584685   4.5123608  16.0729366  )
        43           Ti1 tau(  43) = (   3.3398093   0.0384087  15.7085799  )
        44           Ti1 tau(  44) = (   0.0478225   4.6849499  16.0879628  )
        45           O1  tau(  45) = (   3.2900926   2.9813045   4.7018136  )
        46           O1  tau(  46) = (   1.3039711   4.4726057   6.0039043  )
        47           O1  tau(  47) = (   5.2763189   4.4711207   6.0039473  )
        48           H1  tau(  48) = (   5.6109407   2.9912845  17.7881963  )
        49           N1  tau(  49) = (   6.5652763   3.0051276  17.4431066  )
        50           C1  tau(  50) = (   0.8863280   2.9891452  18.6126320  )
        51           H1  tau(  51) = (   1.3596840   3.9617220  18.7824638  )
        52           H1  tau(  52) = (   0.3315535   2.7344040  19.5171108  )
        53           H1  tau(  53) = (   1.6705027   2.2407838  18.4910999  )

     number of k points=    10  Fermi-Dirac smearing, width (Ry)=  0.0073
                       cart. coord. in units 2pi/alat
        k(    1) = (   0.0000000   0.0000000   0.0000000), wk =   0.0625000
        k(    2) = (   0.0000000   0.0419351   0.0000000), wk =   0.1250000
        k(    3) = (   0.0000000  -0.0838702   0.0000000), wk =   0.0625000
        k(    4) = (   0.0379955   0.0000049   0.0000000), wk =   0.1250000
        k(    5) = (   0.0379955   0.0419400   0.0000000), wk =   0.1250000
        k(    6) = (   0.0379955  -0.0838652   0.0000000), wk =   0.1250000
        k(    7) = (   0.0379955  -0.0419301   0.0000000), wk =   0.1250000
        k(    8) = (  -0.0759910  -0.0000099   0.0000000), wk =   0.0625000
[...]

     Initial potential from superposition of free atoms

     starting charge  374.99916, renormalised to  391.00000

     negative rho (up, down):  8.887E-03 8.894E-03

     %%%%%%%%%%%%%%%%%%%%%%%%%%%%%%%%%%%%%%%%%%%%%%%%%%%%%%%%%%%%%%%%%%%%%%%%
     %                                                                      %
     % You are using vdW-DF, which was implemented by the Thonhauser group. %
     % Please cite the following two papers that made this development      %
     % possible and the two reviews that describe the various versions:     %
     %                                                                      %
     %   T. Thonhauser et al., PRL 115, 136402 (2015).                      %
     %   T. Thonhauser et al., PRB 76, 125112 (2007).                       %
     %   K. Berland et al., Rep. Prog. Phys. 78, 066501 (2015).             %
     %   D.C. Langreth et al., J. Phys.: Condens. Matter 21, 084203 (2009). %
     %                                                                      %
     %                                                                      %
     % If you are calculating the stress with vdW-DF, please also cite:     %
     %                                                                      %
     %   R. Sabatini et al., J. Phys.: Condens. Matter 24, 424209 (2012).   %
     %                                                                      %
     %%%%%%%%%%%%%%%%%%%%%%%%%%%%%%%%%%%%%%%%%%%%%%%%%%%%%%%%%%%%%%%%%%%%%%%%

     Adding external electric field

     Computed dipole along edir(3) :
        Dipole               -5.8092 Ry au,        -14.7655 Debye
        Dipole field         -0.0110 Ry au,

        Potential amp.        1.0162 Ry
        Total length         46.3494 bohr

[...]

     Starting wfcs are  296 atomic wfcs
  @ DRIVER MODE: Message from server: STATUS
  @ DRIVER MODE: Message from server: POSDATA
  @ DRIVER MODE: Reading and sharing cell
  @ DRIVER MODE: Reading and sharing positions
  @ DRIVER MODE: Received positions

     Self-consistent Calculation

     iteration #  1     ecut=    29.40 Ry     beta= 0.05
     Davidson diagonalization with overlap
     c_bands:  3 eigenvalues not converged
     c_bands:  1 eigenvalues not converged
     c_bands:  1 eigenvalues not converged
     c_bands:  2 eigenvalues not converged
     c_bands:  4 eigenvalues not converged
     c_bands:  2 eigenvalues not converged
     c_bands:  1 eigenvalues not converged
     c_bands:  1 eigenvalues not converged
     c_bands:  2 eigenvalues not converged
     c_bands:  3 eigenvalues not converged
     c_bands:  1 eigenvalues not converged
     c_bands:  1 eigenvalues not converged
     c_bands:  2 eigenvalues not converged
     c_bands:  4 eigenvalues not converged
     c_bands:  2 eigenvalues not converged
     c_bands:  1 eigenvalues not converged
     c_bands:  1 eigenvalues not converged
     c_bands:  2 eigenvalues not converged
     ethr =  1.00E-05,  avg # of iterations = 19.5

[...]

     total energy              =   -2770.93556533 Ry
     estimated scf accuracy    <    1638.46181170 Ry

     total magnetization       =     0.01 Bohr mag/cell
     absolute magnetization    =     0.02 Bohr mag/cell

[...]

     iteration #  3     ecut=    29.40 Ry     beta= 0.05
     Davidson diagonalization with overlap
     ethr =  1.00E-02,  avg # of iterations = 16.1

[...]

     iteration # 55     ecut=    29.40 Ry     beta= 0.05
     Davidson diagonalization with overlap
     c_bands:  1 eigenvalues not converged
     c_bands:  1 eigenvalues not converged
     ethr =  4.03E-11,  avg # of iterations = 15.8

[...]

     total energy              =   -2920.42043610 Ry
     estimated scf accuracy    <       0.00000009 Ry

[...]

     iteration # 61     ecut=    29.40 Ry     beta= 0.05
     Davidson diagonalization with overlap
     ethr =  2.29E-11,  avg # of iterations =  2.1

     negative rho (up, down):  9.148E-03 9.148E-03

[...]

     Adding external electric field

     Computed dipole along edir(3) :
        Dipole                0.6953 Ry au,          1.7672 Debye
        Dipole field          0.0013 Ry au,

        Potential amp.       -0.1216 Ry
        Total length         46.3494 bohr

     Magnetic moment per site  (integrated on atomic sphere of radius R)
     atom   1 (R=0.717)  charge=  7.8574  magn= -0.0011
     atom   2 (R=0.717)  charge=  7.8410  magn=  0.0000
     atom   3 (R=0.717)  charge=  4.8649  magn=  0.0001
     atom   4 (R=0.717)  charge=  4.9003  magn=  0.0000
     atom   5 (R=0.717)  charge=  4.8705  magn=  0.0000
     atom   6 (R=0.717)  charge=  4.8712  magn=  0.0000
     atom   7 (R=0.717)  charge=  7.8398  magn= -0.0001
     atom   8 (R=0.717)  charge=  7.8316  magn= -0.0004
     atom   9 (R=0.717)  charge=  4.8873  magn=  0.0001
     atom  10 (R=0.717)  charge=  4.8598  magn=  0.0001
     atom  11 (R=0.717)  charge=  4.8722  magn=  0.0001
     atom  12 (R=0.717)  charge=  4.8711  magn=  0.0000
     atom  13 (R=0.717)  charge=  7.8297  magn= -0.0001
     atom  14 (R=0.717)  charge=  7.8426  magn= -0.0002
     atom  15 (R=0.717)  charge=  4.8599  magn=  0.0000
     atom  16 (R=0.717)  charge=  4.8822  magn=  0.0001
     atom  17 (R=0.717)  charge=  4.8580  magn=  0.0000
     atom  18 (R=0.717)  charge=  4.8645  magn=  0.0000
     atom  19 (R=0.717)  charge=  7.8684  magn= -0.0001
     atom  20 (R=0.717)  charge=  7.8397  magn= -0.0000
     atom  21 (R=0.717)  charge=  4.7572  magn= -0.0001
     atom  22 (R=0.717)  charge=  4.8381  magn= -0.0000
     atom  23 (R=0.717)  charge=  4.8628  magn=  0.0002
     atom  24 (R=0.717)  charge=  4.8628  magn=  0.0001
     atom  25 (R=0.717)  charge=  7.8575  magn= -0.0012
     atom  26 (R=0.717)  charge=  7.8411  magn=  0.0000
     atom  27 (R=0.717)  charge=  4.8641  magn=  0.0001
     atom  28 (R=0.717)  charge=  4.9005  magn=  0.0000
     atom  29 (R=0.717)  charge=  4.8713  magn=  0.0000
     atom  30 (R=0.717)  charge=  4.8719  magn=  0.0000
     atom  31 (R=0.717)  charge=  7.8400  magn= -0.0001
     atom  32 (R=0.717)  charge=  7.8317  magn= -0.0004
     atom  33 (R=0.717)  charge=  4.8864  magn=  0.0001
     atom  34 (R=0.717)  charge=  4.8464  magn=  0.0000
     atom  35 (R=0.717)  charge=  4.8727  magn=  0.0001
     atom  36 (R=0.717)  charge=  4.8718  magn=  0.0000
     atom  37 (R=0.717)  charge=  7.8314  magn= -0.0001
     atom  38 (R=0.717)  charge=  7.8428  magn= -0.0002
     atom  39 (R=0.717)  charge=  4.8524  magn=  0.0000
     atom  40 (R=0.717)  charge=  4.8881  magn=  0.0001
     atom  41 (R=0.717)  charge=  4.8603  magn=  0.0000
     atom  42 (R=0.717)  charge=  4.8621  magn=  0.0000
     atom  43 (R=0.717)  charge=  7.8657  magn= -0.0001
     atom  44 (R=0.717)  charge=  7.8696  magn=  0.0000
     atom  45 (R=0.717)  charge=  4.7572  magn= -0.0002
     atom  46 (R=0.717)  charge=  4.8628  magn=  0.0001
     atom  47 (R=0.717)  charge=  4.8629  magn=  0.0001
     atom  48 (R=0.419)  charge=  0.4540  magn=  0.0000
     atom  49 (R=0.419)  charge=  1.3226  magn= -0.0000
     atom  50 (R=0.450)  charge=  0.8486  magn=  0.0000
     atom  51 (R=0.419)  charge=  0.4410  magn= -0.0000
     atom  52 (R=0.419)  charge=  0.4441  magn= -0.0000
     atom  53 (R=0.419)  charge=  0.4432  magn= -0.0000

     End of self-consistent calculation

 ------ SPIN UP ------------

          k = 0.0000 0.0000 0.0000 ( 18029 PWs)   bands (ev):

   -55.9803 -55.9726 -55.9462 -55.9365 -55.8846 -55.8238 -55.8192 -55.7861
   -55.7846 -55.7521 -55.7454 -55.7117 -55.5558 -55.2750 -54.9541 -54.9200
   -32.5326 -32.4622 -32.3335 -32.3204 -32.2997 -32.2849 -32.2731 -32.2364
   -32.2217 -32.2198 -32.1955 -32.1885 -32.1557 -32.1320 -32.1243 -32.1173
   -32.1156 -32.0841 -32.0640 -32.0370 -32.0303 -32.0260 -32.0102 -31.9894
   -31.9792 -31.9770 -31.9723 -31.9622 -31.9487 -31.9421 -31.9400 -31.9345
   -31.9222 -31.9161 -31.8986 -31.8928 -31.8579 -31.8203 -31.7247 -31.5492
   -31.5426 -31.4717 -31.3607 -31.2730 -31.2506 -31.1774 -31.0910 -30.9799
   -16.7423 -16.4589 -16.2797 -16.1365 -16.1034 -16.0184 -15.8178 -15.6927
   -15.6798 -15.5766 -15.5388 -15.5159 -15.5081 -15.4813 -15.4781 -15.4193
   -15.4160 -15.4038 -15.3914 -15.3352 -15.3112 -15.2715 -15.1773 -15.1533
   -15.1377 -15.1113 -15.0302 -15.0229 -14.5831 -14.1010 -13.4561 -13.3397
    -8.9336  -4.3714  -4.1129  -3.9361  -3.8975  -3.8838  -3.8351  -3.5835
    -3.5672  -3.3050  -3.1922  -3.1770  -3.1671  -3.1518  -3.1370  -3.1178
    -2.8803  -2.8100  -2.7962  -2.7737  -2.7668  -2.7635  -2.7514  -2.7473
    -2.7051  -2.6451  -2.5260  -2.5143  -2.4084  -2.3612  -2.3384  -2.2908
    -2.2469  -2.2406  -2.2283  -2.2110  -2.1971  -2.1774  -2.1595  -2.0251
    -1.9614  -1.8333  -1.7858  -1.7796  -1.5819  -1.5376  -1.4478  -1.4240
    -1.4078  -1.4003  -1.3681  -1.2880  -1.1967  -1.1395  -1.1259  -1.0732
    -0.9965  -0.9849  -0.8745  -0.8699  -0.8067  -0.7502  -0.7409  -0.7314
    -0.6863  -0.6121  -0.5398  -0.4659  -0.4162  -0.3949  -0.3676  -0.2890
    -0.2589  -0.1624  -0.1439  -0.0970  -0.0940  -0.0449  -0.0031   0.0068
     0.0134   0.0281   0.0458   0.1944   0.3015   0.3580   0.3917   0.4025
     0.5579   0.5939   0.6821   0.7695   0.9953   1.0684   1.1618   1.2611
     1.3217   1.6391   1.6845   3.1627   3.2420   3.2945   3.3026   3.4041
     3.4067   3.6123   3.6243   3.6348   3.7031

[...]

          k =-0.0760-0.0000 0.0000 ( 17886 PWs)   bands (ev):

[...]

 ------ SPIN DOWN ----------

[...]

          k = 0.0380-0.0419 0.0000 ( 17876 PWs)   bands (ev):

[...]

          k =-0.0760-0.0839 0.0000 ( 17948 PWs)   bands (ev):

   -55.9658 -55.9650 -55.9560 -55.9540 -55.8796 -55.8295 -55.8044 -55.8000
   -55.7706 -55.7687 -55.7295 -55.7282 -55.5549 -55.2758 -54.9369 -54.9367
   -32.3373 -32.3345 -32.2788 -32.2782 -32.2656 -32.2613 -32.2605 -32.2452
   -32.1830 -32.1819 -32.1754 -32.1716 -32.1484 -32.1201 -32.1016 -32.0975
   -32.0872 -32.0853 -32.0845 -32.0834 -32.0817 -32.0693 -32.0669 -32.0355
   -32.0247 -32.0188 -31.9945 -31.9852 -31.9670 -31.9665 -31.9623 -31.9611
   -31.9443 -31.9436 -31.9419 -31.9401 -31.8884 -31.8231 -31.7199 -31.6124
   -31.5447 -31.4971 -31.2632 -31.2631 -31.1733 -31.1732 -31.1341 -31.1341
   -16.1940 -16.1606 -15.9251 -15.9155 -15.9067 -15.8904 -15.7460 -15.6940
   -15.6856 -15.6789 -15.6545 -15.6307 -15.5797 -15.5490 -15.5153 -15.5086
   -15.5021 -15.4968 -15.4404 -15.4339 -15.4116 -15.4042 -15.2907 -15.2865
   -15.2851 -15.2091 -15.1446 -15.0114 -14.7532 -14.1221 -13.4421 -13.4421
    -8.9373  -4.3828  -3.4886  -3.4504  -3.2684  -3.1928  -3.1650  -3.1519
    -3.1307  -3.0512  -2.8916  -2.8770  -2.8585  -2.8455  -2.8054  -2.8003
    -2.7886  -2.7747  -2.7676  -2.7499  -2.7160  -2.6755  -2.6468  -2.6398
    -2.6307  -2.6063  -2.5939  -2.5677  -2.5619  -2.5291  -2.5209  -2.5025
    -2.4786  -2.2175  -2.1981  -2.1808  -2.1115  -2.1047  -2.0700  -2.0618
    -2.0428  -2.0294  -1.9773  -1.8761  -1.7130  -1.6800  -1.6669  -1.6499
    -1.5848  -1.5645  -1.4157  -1.3875  -1.3707  -1.3308  -1.2818  -1.2523
    -1.2153  -1.1756  -1.1385  -1.0780  -1.0700  -0.9908  -0.9407  -0.9402
    -0.9128  -0.8434  -0.7644  -0.7472  -0.7355  -0.6943  -0.6806  -0.5991
    -0.5764  -0.4782  -0.4653  -0.3954  -0.3642  -0.2974  -0.0924   0.0039
     0.0628   0.0865   0.1396   0.2369   0.2913   0.3048   0.3384   0.3434
     0.4032   0.4439   0.5583   0.5660   0.6344   0.7380   1.2699   1.4324
     1.4330   1.5037   1.5038   3.4235   3.4292   3.4786   3.5095   3.6608
     3.6651   3.6881   3.6892   3.8103   3.8282

     the Fermi energy is     3.1550 ev

!    total energy              =   -2920.42047385 Ry
     estimated scf accuracy    <       0.00000006 Ry
     smearing contrib. (-TS)   =      -0.02203292 Ry
     internal energy E=F+TS    =   -2920.39844093 Ry

     The total energy is F=E-TS. E is the sum of the following terms:
     one-electron contribution =  -24727.20874370 Ry
     hartree contribution      =   12448.26738156 Ry
     xc contribution           =    -480.87510148 Ry
     ewald contribution        =    9839.41711043 Ry
     electric field correction =       0.00091227 Ry

     total magnetization       =    -0.01 Bohr mag/cell
     absolute magnetization    =     0.01 Bohr mag/cell

     convergence has been achieved in  61 iterations

     Forces acting on atoms (cartesian axes, Ry/au):

     atom    1 type  1   force =     0.00010063   -0.00018857    0.09689529
     atom    2 type  1   force =     0.00004660   -0.00050304   -0.17505751
     atom    3 type  2   force =     0.00012894    0.00000920   -0.02534583
     atom    4 type  2   force =    -0.00003386   -0.00128473    0.05235497
     atom    5 type  2   force =    -0.01223214   -0.00000843    0.00299816
     atom    6 type  2   force =     0.01366162    0.00058727    0.00233161
     atom    7 type  1   force =     0.00058615    0.00034197   -0.01303454
     atom    8 type  1   force =     0.00047738    0.00729059    0.03068210
     atom    9 type  2   force =     0.00056043    0.00003646   -0.00020157
     atom   10 type  2   force =    -0.00268081    0.00210974   -0.01738773
     atom   11 type  2   force =    -0.00014691    0.00007045   -0.00002951
     atom   12 type  2   force =     0.00047793    0.00033937    0.00017626
     atom   13 type  1   force =    -0.00012100   -0.00056526   -0.00018372
     atom   14 type  1   force =    -0.00042887    0.00004761    0.00081111
     atom   15 type  2   force =     0.00000668   -0.00074172    0.00082525
     atom   16 type  2   force =     0.00026200    0.00063346   -0.00048018
     atom   17 type  2   force =     0.00067199    0.00009853    0.00065012
     atom   18 type  2   force =    -0.00011754   -0.00008229    0.00003239
     atom   19 type  1   force =    -0.00003136    0.00053257   -0.00021314
     atom   20 type  1   force =    -0.00023791   -0.00061393    0.00004887
     atom   21 type  2   force =     0.00005534   -0.00002676    0.10310610
     atom   22 type  2   force =     0.00012288   -0.00085216    0.00099815
     atom   23 type  2   force =    -0.07165443   -0.00015284   -0.02781954
     atom   24 type  2   force =     0.07155749    0.00034450   -0.02787593
     atom   25 type  1   force =     0.00008871   -0.00013761    0.09660208
     atom   26 type  1   force =     0.00009445   -0.00023343   -0.17518250
     atom   27 type  2   force =     0.00011733   -0.00011621   -0.02441160
     atom   28 type  2   force =     0.00004286   -0.00104136    0.05227115
     atom   29 type  2   force =    -0.01243077    0.00064013    0.00279041
     atom   30 type  2   force =     0.01373331    0.00098496    0.00213721
     atom   31 type  1   force =     0.00045166    0.00314515   -0.01358295
     atom   32 type  1   force =     0.00033560   -0.00951833    0.03107594
     atom   33 type  2   force =    -0.00006975    0.00031225   -0.00059569
     atom   34 type  2   force =    -0.00206759    0.00181783   -0.02538903
     atom   35 type  2   force =    -0.00018843   -0.00029038    0.00037289
     atom   36 type  2   force =     0.00027194   -0.00077786    0.00040216
     atom   37 type  1   force =     0.00002676    0.00023368    0.00098187
     atom   38 type  1   force =    -0.00021631    0.00041377    0.00077951
     atom   39 type  2   force =    -0.00006021   -0.00018197   -0.00060676
     atom   40 type  2   force =     0.00042580    0.00007448    0.00057552
     atom   41 type  2   force =     0.00028683   -0.00024227   -0.00004698
     atom   42 type  2   force =    -0.00048399   -0.00039769   -0.00038617
     atom   43 type  1   force =    -0.00078766   -0.00022690    0.00046401
     atom   44 type  1   force =    -0.00027386   -0.00064549    0.00056488
     atom   45 type  2   force =     0.00003766   -0.00004801    0.10312255
     atom   46 type  2   force =    -0.07164874   -0.00006813   -0.02781641
     atom   47 type  2   force =     0.07156738    0.00034726   -0.02788218
     atom   48 type  3   force =     0.00000731   -0.00038423    0.00000864
     atom   49 type  4   force =     0.00047147    0.00065302    0.00001648
     atom   50 type  5   force =     0.00075490    0.00035184    0.00232914
     atom   51 type  3   force =    -0.00159792   -0.00080174   -0.00190827
     atom   52 type  3   force =    -0.00016175   -0.00148644   -0.00058810
     atom   53 type  3   force =     0.00024176    0.00020171   -0.00037900

     Total force =     0.368467     Total SCF correction =     0.000629
  @ DRIVER MODE: Message from server: STATUS
  @ DRIVER MODE: Message from server: GETFORCE
  @ DRIVER MODE: Returning v,forces,stress,ensemble

     Writing output data file ./calc.save/
  @ DRIVER MODE: Message from server: EXIT
  @ DRIVE MODE: Exiting

     General routines

     Parallel routines

   This run was terminated on:   4:31:58  16Jul2021

   JOB DONE.