     Program PWSCF v.6.7GPU starts on 23Aug2021 at 22:46:57

     R & G space division:  proc/nbgrp/npool/nimage =       6
     Reading input from /storage/home/hcoda1/3/ntian30/research/carbon/CH_vib/ads_slab/CHN2_b/out_0020/pw.inp
Warning: card &CELL ignored
Warning: card   CELL_DYNAMICS='IPI', ignored
Warning: card / ignored

     Current dimensions of program PWSCF are:
     Max number of different atomic species (ntypx) = 10
     Max number of k-points (npk) =  40000
     Max angular momentum in pseudopotentials (lmaxx) =  3
     Presently no symmetry can be used with electric field

     Message from routine cell_base_init:
     DEPRECATED: use true lattice parameter, not A to a.u. conversion factor

     IMPORTANT: XC functional enforced from input :
     Exchange-correlation= BEEF-VDW
                           (   1   4  43  14   2   0   0)
     Any further DFT definition will be discarded
     Please, verify this is what you really want

  @ DRIVER MODE: Connecting to
 qe_1139763_2632794.sched-torque.pace.gatech.edu6wx1_50d_scratch
  using UNIX socket
  @ DRIVER MODE: Message from server: STATUS
  @ DRIVER MODE: Message from server: INIT
  @ DRIVER MODE: Receiving replica           0          -1
  @ DRIVER MODE: Receiving encoded integer          25
  @ DRIVER MODE:  SCF:  T  FORCE:  T  STRESS:  F  VC:  F  ENSEMBLE:  F
  @ DRIVER MODE:  SCF:  T  FORCE:  T  STRESS:  F  VC:  F  ENSEMBLE:  F

     Using Slab Decomposition

     bravais-lattice index     =            0
     lattice parameter (alat)  =       1.8897  a.u.
     unit-cell volume          =    6658.9804 (a.u.)^3
     number of atoms/cell      =           51
     number of atomic types    =            5
     number of electrons       =       393.00
     number of Kohn-Sham states=          206
     kinetic-energy cutoff     =      29.3995  Ry
     charge density cutoff     =     293.9946  Ry
     scf convergence threshold =      7.3E-08
     mixing beta               =       0.0500
     number of iterations used =            8  plain     mixing
     Exchange-correlation= BEEF-VDW
                           (   1   4  43  14   2   0   0)

     celldm(1)=   1.889726  celldm(2)=   0.000000  celldm(3)=   0.000000
     celldm(4)=   0.000000  celldm(5)=   0.000000  celldm(6)=   0.000000

     crystal axes: (cart. coord. in units of alat)
               a(1) = (   6.579727   0.000000   0.000000 )
               a(2) = (  -0.000775   5.961596   0.000000 )
               a(3) = (   0.000000   0.000000  25.155947 )

     reciprocal axes: (cart. coord. in units 2 pi/alat)
               b(1) = (  0.151982  0.000020  0.000000 )
               b(2) = (  0.000000  0.167740  0.000000 )
               b(3) = (  0.000000  0.000000  0.039752 )

     PseudoPot. # 1 for Ti read from file:
     /storage/coda1/p-amedford6/0/shared/rich_project_chbe-medford/medford-share/data/pseudos_module/espresso/nninc/pbe/van/Ti.UPF
     MD5 check sum: 8e4df49b7f0d34bbd5052bf3f5ea0213
     Pseudo is Ultrasoft, Zval = 12.0
     Generated by new atomic code, or converted to UPF format
     Using radial grid of  851 points,  6 beta functions with:
                l(1) =   0
                l(2) =   0
                l(3) =   1
                l(4) =   1
                l(5) =   2
                l(6) =   2
     Q(r) pseudized with  8 coefficients,  rinner =    1.000   1.000   1.000
                                                       1.000   1.000

     PseudoPot. # 2 for O  read from file:
     /storage/coda1/p-amedford6/0/shared/rich_project_chbe-medford/medford-share/data/pseudos_module/espresso/nninc/pbe/van/O.UPF
     MD5 check sum: 78c19812648e8988a0fe644b0f25305e
     Pseudo is Ultrasoft, Zval =  6.0
     Generated by new atomic code, or converted to UPF format
     Using radial grid of  737 points,  4 beta functions with:
                l(1) =   0
                l(2) =   0
                l(3) =   1
                l(4) =   1
     Q(r) pseudized with  8 coefficients,  rinner =    0.800   0.800   0.800

     PseudoPot. # 3 for N  read from file:
     /storage/coda1/p-amedford6/0/shared/rich_project_chbe-medford/medford-share/data/pseudos_module/espresso/nninc/pbe/van/N.UPF
     MD5 check sum: 90d10febe142ad51ac9d5be1deb811c4
     Pseudo is Ultrasoft, Zval =  5.0
     Generated by new atomic code, or converted to UPF format
     Using radial grid of  729 points,  4 beta functions with:
                l(1) =   0
                l(2) =   0
                l(3) =   1
                l(4) =   1
     Q(r) pseudized with  8 coefficients,  rinner =    0.800   0.800   0.800

     PseudoPot. # 4 for C  read from file:
     /storage/coda1/p-amedford6/0/shared/rich_project_chbe-medford/medford-share/data/pseudos_module/espresso/nninc/pbe/van/C.UPF
     MD5 check sum: 1a69bf6b8db32088f5b2163dbdb77a27
     Pseudo is Ultrasoft, Zval =  4.0
     Generated by new atomic code, or converted to UPF format
     Using radial grid of  721 points,  4 beta functions with:
                l(1) =   0
                l(2) =   0
                l(3) =   1
                l(4) =   1
     Q(r) pseudized with  8 coefficients,  rinner =    0.800   0.800   0.800

     PseudoPot. # 5 for H  read from file:
     /storage/coda1/p-amedford6/0/shared/rich_project_chbe-medford/medford-share/data/pseudos_module/espresso/nninc/pbe/van/H.UPF
     MD5 check sum: b5ee9d7bfd3a09ee7748110bda690ff7
     Pseudo is Ultrasoft, Zval =  1.0
     Generated by new atomic code, or converted to UPF format
     Using radial grid of  615 points,  1 beta functions with:
                l(1) =   0
     Q(r) pseudized with  8 coefficients,  rinner =    0.800

     atomic species   valence    mass     pseudopotential
        Ti1           12.00    47.86700     Ti( 1.00)
        O1             6.00    15.99900     O ( 1.00)
        N1             5.00    14.00700     N ( 1.00)
        C1             4.00    12.01100     C ( 1.00)
        H1             1.00     1.00800     H ( 1.00)

     No symmetry found

   Cartesian axes

     site n.     atom                  positions (alat units)
         1           Ti1 tau(   1) = (   0.0004258   2.9801865   6.0000000  )
         2           Ti1 tau(   2) = (   3.2906075   1.4906267   6.0002472  )
         3           O1  tau(   3) = (   0.0006271   0.0005054   7.9858123  )
         4           O1  tau(   4) = (   3.2906025   0.0005020   7.3038282  )
         5           O1  tau(   5) = (   4.5942328   1.4918067   9.2879030  )
         6           O1  tau(   6) = (   1.9868534   1.4903216   9.2879459  )
         7           Ti1 tau(   7) = (   3.2907910   2.8959150   9.1758416  )
         8           Ti1 tau(   8) = (   0.0015273   1.4827037   9.2680791  )
         9           O1  tau(   9) = (   3.2950996   0.0139504  11.3317891  )
        10           O1  tau(  10) = (   0.0116148   5.9584955  10.6183126  )
        11           O1  tau(  11) = (   1.2919129   1.4990403  12.6236220  )
        12           O1  tau(  12) = (   5.2764399   1.5074276  12.6212280  )
        13           Ti1 tau(  13) = (   0.0528816   2.9532107  12.6238214  )
        14           Ti1 tau(  14) = (   3.3640876   1.5054642  12.4823551  )
        15           O1  tau(  15) = (   0.0126464   0.0517330  14.6735668  )
        16           O1  tau(  16) = (   3.2893787   0.0313947  13.9162352  )
        17           O1  tau(  17) = (   4.5455072   1.5470193  16.0571763  )
        18           O1  tau(  18) = (   2.0683839   1.5479149  16.0688871  )
        19           Ti1 tau(  19) = (   3.3004933   3.0285056  15.7062229  )
        20           Ti1 tau(  20) = (   6.5748692   1.5544668  15.8636821  )
        21           O1  tau(  21) = (   3.2904802   0.0005063   4.7018136  )
        22           O1  tau(  22) = (   0.0156978   0.0568370  17.2307755  )
        23           O1  tau(  23) = (   1.3043587   1.4918075   6.0039043  )
        24           O1  tau(  24) = (   5.2767064   1.4903225   6.0039473  )
        25           Ti1 tau(  25) = (   0.0000382   5.9609847   6.0000000  )
        26           Ti1 tau(  26) = (   3.2902200   4.4714249   6.0002472  )
        27           O1  tau(  27) = (   0.0002396   2.9813036   7.9858123  )
        28           O1  tau(  28) = (   3.2902150   2.9813002   7.3038282  )
        29           O1  tau(  29) = (   4.5938453   4.4726049   9.2879030  )
        30           O1  tau(  30) = (   1.9864658   4.4711199   9.2879459  )
        31           Ti1 tau(  31) = (   3.2891106   5.8743827   9.1763621  )
        32           Ti1 tau(  32) = (   0.0006254   4.4649316   9.2693709  )
        33           O1  tau(  33) = (   3.2930415   3.0011583  11.3325650  )
        34           O1  tau(  34) = (   0.0092240   2.9805883  10.6323155  )
        35           O1  tau(  35) = (   1.2898468   4.4882246  12.6384491  )
        36           O1  tau(  36) = (   5.2806636   4.4975927  12.6358184  )
        37           Ti1 tau(  37) = (   0.0525728   5.9296047  12.5528222  )
        38           Ti1 tau(  38) = (   3.3636738   4.4864912  12.4891182  )
        39           O1  tau(  39) = (   0.0107234   2.9627607  14.6747216  )
        40           O1  tau(  40) = (   3.2927234   3.0099296  13.9079960  )
        41           O1  tau(  41) = (   4.5395255   4.5218754  16.0742521  )
        42           O1  tau(  42) = (   2.0629885   4.5199598  16.0715304  )
        43           Ti1 tau(  43) = (   3.2878121   0.0461507  15.7166771  )
        44           Ti1 tau(  44) = (   0.0020781   4.6962996  16.1098215  )
        45           O1  tau(  45) = (   3.2900926   2.9813045   4.7018136  )
        46           O1  tau(  46) = (   1.3039711   4.4726057   6.0039043  )
        47           O1  tau(  47) = (   5.2763189   4.4711207   6.0039473  )
        48           N1  tau(  48) = (   0.1203982   2.9607606  18.6152809  )
        49           N1  tau(  49) = (   0.0157770   3.0106383  17.4001577  )
        50           C1  tau(  50) = (   0.0651646   2.9076078  19.8026698  )
        51           H1  tau(  51) = (   0.7410076   2.8879977  20.6380856  )

     number of k points=    10  Fermi-Dirac smearing, width (Ry)=  0.0073
                       cart. coord. in units 2pi/alat
        k(    1) = (   0.0000000   0.0000000   0.0000000), wk =   0.1250000
        k(    2) = (   0.0000000   0.0419351   0.0000000), wk =   0.2500000
        k(    3) = (   0.0000000  -0.0838702   0.0000000), wk =   0.1250000
        k(    4) = (   0.0379955   0.0000049   0.0000000), wk =   0.2500000
        k(    5) = (   0.0379955   0.0419400   0.0000000), wk =   0.2500000
        k(    6) = (   0.0379955  -0.0838652   0.0000000), wk =   0.2500000
        k(    7) = (   0.0379955  -0.0419301   0.0000000), wk =   0.2500000
        k(    8) = (  -0.0759910  -0.0000099   0.0000000), wk =   0.1250000
        k(    9) = (  -0.0759910   0.0419252   0.0000000), wk =   0.2500000
        k(   10) = (  -0.0759910  -0.0838800   0.0000000), wk =   0.1250000

     Initial potential from superposition of free atoms

     starting charge  376.99918, renormalised to  393.00000

     negative rho (up, down):  1.564E-02 0.000E+00

     %%%%%%%%%%%%%%%%%%%%%%%%%%%%%%%%%%%%%%%%%%%%%%%%%%%%%%%%%%%%%%%%%%%%%%%%
     %                                                                      %
     % You are using vdW-DF, which was implemented by the Thonhauser group. %
     % Please cite the following two papers that made this development      %
     % possible and the two reviews that describe the various versions:     %
     %                                                                      %
     %   T. Thonhauser et al., PRL 115, 136402 (2015).                      %
     %   T. Thonhauser et al., PRB 76, 125112 (2007).                       %
     %   K. Berland et al., Rep. Prog. Phys. 78, 066501 (2015).             %
     %   D.C. Langreth et al., J. Phys.: Condens. Matter 21, 084203 (2009). %
     %                                                                      %
     %                                                                      %
     % If you are calculating the stress with vdW-DF, please also cite:     %
     %                                                                      %
     %   R. Sabatini et al., J. Phys.: Condens. Matter 24, 424209 (2012).   %
     %                                                                      %
     %%%%%%%%%%%%%%%%%%%%%%%%%%%%%%%%%%%%%%%%%%%%%%%%%%%%%%%%%%%%%%%%%%%%%%%%

     Adding external electric field

     Computed dipole along edir(3) :
        Dipole               -7.5501 Ry au,        -19.1904 Debye
        Dipole field         -0.0142 Ry au,

        Potential amp.        1.3208 Ry
        Total length         46.3494 bohr

     Starting wfcs are  297 atomic wfcs
  @ DRIVER MODE: Message from server: STATUS
  @ DRIVER MODE: Message from server: POSDATA
  @ DRIVER MODE: Reading and sharing cell
  @ DRIVER MODE: Reading and sharing positions
  @ DRIVER MODE: Received positions

     Self-consistent Calculation

     iteration #  1     ecut=    29.40 Ry     beta= 0.05
     Davidson diagonalization with overlap
     c_bands:  1 eigenvalues not converged
     c_bands:  1 eigenvalues not converged
     c_bands:  1 eigenvalues not converged
     ethr =  1.00E-05,  avg # of iterations = 18.4

[...]

     total energy              =   -2707.52044603 Ry
     estimated scf accuracy    <    2541.59372123 Ry

[...]

     iteration #  5     ecut=    29.40 Ry     beta= 0.05
     Davidson diagonalization with overlap
     ethr =  1.00E-02,  avg # of iterations =  8.9

[...]

     iteration # 48     ecut=    29.40 Ry     beta= 0.05
     Davidson diagonalization with overlap
     c_bands:  1 eigenvalues not converged
     ethr =  8.53E-10,  avg # of iterations =  5.3

[...]

     total energy              =   -2936.63946513 Ry
     estimated scf accuracy    <       0.00000009 Ry

     iteration # 56     ecut=    29.40 Ry     beta= 0.05
     Davidson diagonalization with overlap
     ethr =  2.24E-11,  avg # of iterations = 10.3

     negative rho (up, down):  1.606E-02 0.000E+00

     Adding external electric field

     Computed dipole along edir(3) :
        Dipole                0.7450 Ry au,          1.8937 Debye
        Dipole field          0.0014 Ry au,

        Potential amp.       -0.1303 Ry
        Total length         46.3494 bohr

     End of self-consistent calculation

          k = 0.0000 0.0000 0.0000 ( 18029 PWs)   bands (ev):

   -55.9117 -55.9102 -55.8776 -55.8736 -55.7706 -55.7573 -55.7354 -55.7208
   -55.7196 -55.6869 -55.6867 -55.6531 -55.4697 -55.2253 -54.8900 -54.8560
   -32.4642 -32.3943 -32.2678 -32.2200 -32.2176 -32.2113 -32.2043 -32.1773
   -32.1543 -32.1289 -32.0982 -32.0886 -32.0836 -32.0639 -32.0564 -32.0500
   -32.0162 -32.0034 -31.9958 -31.9746 -31.9722 -31.9689 -31.9496 -31.9244
   -31.9177 -31.9099 -31.9070 -31.8980 -31.8961 -31.8887 -31.8833 -31.8619
   -31.8517 -31.8400 -31.8275 -31.8248 -31.7988 -31.6909 -31.6834 -31.5029
   -31.4552 -31.4543 -31.2973 -31.2088 -31.1863 -31.1140 -31.0275 -30.9165
   -19.2700 -16.6511 -16.3861 -16.1405 -16.0593 -16.0300 -15.9144 -15.7525
   -15.6353 -15.5744 -15.4741 -15.4682 -15.4482 -15.4151 -15.3849 -15.3602
   -15.3554 -15.3454 -15.3289 -15.2967 -15.2727 -15.2513 -15.2272 -15.1382
   -15.0811 -15.0459 -14.9859 -14.9780 -14.9686 -14.5065 -13.9313 -13.3927
   -13.2762  -6.6146  -5.3122  -4.2221  -4.0255  -3.9175  -3.8666  -3.8180
    -3.7629  -3.6587  -3.5219  -3.4526  -3.1392  -3.0870  -3.0750  -3.0503
    -3.0258  -2.8127  -2.7471  -2.7243  -2.6906  -2.6854  -2.6827  -2.6742
    -2.6572  -2.6247  -2.5033  -2.4471  -2.3751  -2.3349  -2.3060  -2.2984
    -2.2239  -2.1847  -2.1734  -2.1488  -2.1472  -2.1234  -2.1142  -2.0969
    -1.9595  -1.8927  -1.7703  -1.7057  -1.6718  -1.5204  -1.4930  -1.3892
    -1.3637  -1.3404  -1.3042  -1.2730  -1.2143  -1.0804  -1.0723  -1.0616
    -1.0296  -0.9310  -0.8783  -0.8053  -0.7495  -0.7303  -0.6803  -0.6686
    -0.6649  -0.6206  -0.4612  -0.3861  -0.3267  -0.3173  -0.2725  -0.2118
    -0.1820  -0.1036  -0.0614  -0.0315  -0.0175   0.0253   0.0623   0.0862
     0.0966   0.1064   0.1200   0.3056   0.3479   0.3660   0.4240   0.4418
     0.6138   0.6596   0.7440   0.8392   1.0574   1.1319   1.2157   1.3240
     1.3355   1.5801   1.7032   1.7489   3.2198   3.3094   3.3460   3.3547
     3.4619   3.5342   3.6764   3.6886   3.7089   3.7519

[...]

          k = 0.0380-0.0419 0.0000 ( 17876 PWs)   bands (ev):

[...]

          k =-0.0760-0.0000 0.0000 ( 17886 PWs)   bands (ev):

[...]

          k =-0.0760-0.0839 0.0000 ( 17948 PWs)   bands (ev):

   -55.8955 -55.8950 -55.8941 -55.8881 -55.7572 -55.7487 -55.7459 -55.7308
   -55.7047 -55.7024 -55.6716 -55.6685 -55.4685 -55.2263 -54.8730 -54.8729
   -32.2703 -32.2633 -32.2099 -32.2092 -32.1902 -32.1893 -32.1615 -32.1570
   -32.1172 -32.1097 -32.0837 -32.0815 -32.0422 -32.0348 -32.0266 -32.0243
   -32.0171 -32.0165 -32.0146 -32.0137 -32.0097 -32.0067 -31.9733 -31.9624
   -31.9537 -31.9476 -31.9336 -31.9301 -31.9050 -31.9043 -31.9025 -31.9000
   -31.8861 -31.8842 -31.8806 -31.8783 -31.8468 -31.6936 -31.6790 -31.5732
   -31.4763 -31.4571 -31.1991 -31.1990 -31.1101 -31.1100 -31.0708 -31.0707
   -19.2675 -16.0791 -16.0657 -15.8618 -15.8282 -15.8156 -15.8083 -15.6920
   -15.6128 -15.6046 -15.6035 -15.5019 -15.4900 -15.4816 -15.4495 -15.4397
   -15.4201 -15.4186 -15.3802 -15.3734 -15.3674 -15.3502 -15.3425 -15.2567
   -15.2304 -15.2262 -15.1947 -15.0814 -14.9465 -14.6865 -13.9371 -13.3781
   -13.3779  -6.6134  -5.2807  -4.1850  -3.9173  -3.3686  -3.3522  -3.0973
    -3.0659  -3.0568  -3.0015  -2.8292  -2.8119  -2.7882  -2.7662  -2.7356
    -2.7292  -2.7216  -2.7148  -2.6959  -2.6517  -2.6274  -2.5968  -2.5826
    -2.5681  -2.5676  -2.5371  -2.5242  -2.4828  -2.4684  -2.4580  -2.4354
    -2.4107  -2.4006  -2.2476  -2.1545  -2.1232  -2.0508  -2.0441  -2.0027
    -1.9765  -1.9614  -1.9380  -1.9026  -1.7607  -1.6460  -1.6103  -1.5955
    -1.5155  -1.4716  -1.3950  -1.3361  -1.2920  -1.2855  -1.2291  -1.1796
    -1.1187  -1.1078  -1.0443  -1.0114  -0.9733  -0.9411  -0.9007  -0.8704
    -0.8651  -0.7794  -0.7287  -0.7210  -0.6696  -0.6656  -0.6358  -0.5789
    -0.5596  -0.5315  -0.4089  -0.3890  -0.2814  -0.1993  -0.1376   0.0562
     0.1375   0.1623   0.2159   0.2863   0.3762   0.3899   0.4051   0.4109
     0.4593   0.5113   0.6174   0.6284   0.6667   0.7971   1.2555   1.4634
     1.4955   1.4963   1.5686   1.5688   3.5332   3.5427   3.5610   3.5772
     3.7328   3.7355   3.7553   3.7567   3.8915   3.9035

     the Fermi energy is     3.2213 ev

!    total energy              =   -2936.63952521 Ry
     estimated scf accuracy    <       0.00000006 Ry
     smearing contrib. (-TS)   =      -0.02146531 Ry
     internal energy E=F+TS    =   -2936.61805989 Ry

     The total energy is F=E-TS. E is the sum of the following terms:
     one-electron contribution =  -24291.75263689 Ry
     hartree contribution      =   12231.43619825 Ry
     xc contribution           =    -483.56227749 Ry
     ewald contribution        =    9607.25960876 Ry
     electric field correction =       0.00104748 Ry

     convergence has been achieved in  56 iterations

     Forces acting on atoms (cartesian axes, Ry/au):

     atom    1 type  1   force =     0.00009775   -0.00014622    0.09654196
     atom    2 type  1   force =    -0.00015402   -0.00057520   -0.17551013
     atom    3 type  2   force =    -0.00000210    0.00006309   -0.02460866
     atom    4 type  2   force =     0.00005354   -0.00130229    0.05296503
     atom    5 type  2   force =    -0.01198959    0.00010018    0.00365902
     atom    6 type  2   force =     0.01363910    0.00068885    0.00266849
     atom    7 type  1   force =    -0.00091573    0.00091111   -0.01121730
     atom    8 type  1   force =     0.00035731    0.00992767    0.02719555
     atom    9 type  2   force =    -0.00018580   -0.00023642    0.00015415
     atom   10 type  2   force =    -0.00143232    0.00227837   -0.01253057
     atom   11 type  2   force =    -0.00012414    0.00025455   -0.00026377
     atom   12 type  2   force =     0.00033050    0.00000172   -0.00057305
     atom   13 type  1   force =     0.00036053   -0.00123661   -0.00056488
     atom   14 type  1   force =     0.00042171    0.00001216    0.00001052
     atom   15 type  2   force =    -0.00002791   -0.00080172   -0.00043390
     atom   16 type  2   force =     0.00009818   -0.00047748    0.00005554
     atom   17 type  2   force =    -0.00046769   -0.00055079    0.00008292
     atom   18 type  2   force =    -0.00029748   -0.00067050   -0.00016386
     atom   19 type  1   force =     0.00003355   -0.00031662    0.00005217
     atom   20 type  1   force =     0.00012755   -0.00016628   -0.00010978
     atom   21 type  2   force =     0.00003554   -0.00004239    0.10327378
     atom   22 type  2   force =    -0.00033365   -0.00085278   -0.00101073
     atom   23 type  2   force =    -0.07148353   -0.00010381   -0.02768690
     atom   24 type  2   force =     0.07139797    0.00032111   -0.02769303
     atom   25 type  1   force =     0.00006901   -0.00012806    0.09604290
     atom   26 type  1   force =    -0.00022755   -0.00022143   -0.17568391
     atom   27 type  2   force =     0.00006147   -0.00013030   -0.02363055
     atom   28 type  2   force =     0.00005764   -0.00109314    0.05314727
     atom   29 type  2   force =    -0.01211610    0.00086917    0.00327088
     atom   30 type  2   force =     0.01367245    0.00133725    0.00232490
     atom   31 type  1   force =    -0.00082657    0.00333468   -0.01193071
     atom   32 type  1   force =     0.00043317   -0.01207502    0.02751549
     atom   33 type  2   force =     0.00022041    0.00015629    0.00010675
     atom   34 type  2   force =    -0.00107360    0.00252659   -0.02035839
     atom   35 type  2   force =     0.00016610   -0.00087217   -0.00029596
     atom   36 type  2   force =     0.00038802   -0.00059441   -0.00059158
     atom   37 type  1   force =     0.00005070    0.00117588   -0.00028566
     atom   38 type  1   force =     0.00032508    0.00031644   -0.00011553
     atom   39 type  2   force =    -0.00003331    0.00040307   -0.00083265
     atom   40 type  2   force =    -0.00001477    0.00005369   -0.00055264
     atom   41 type  2   force =     0.00044080   -0.00007298   -0.00009561
     atom   42 type  2   force =    -0.00052919    0.00010296    0.00085881
     atom   43 type  1   force =    -0.00009621   -0.00036390    0.00026643
     atom   44 type  1   force =    -0.00010771   -0.00013534   -0.00000616
     atom   45 type  2   force =     0.00004708   -0.00005498    0.10328015
     atom   46 type  2   force =    -0.07147888   -0.00006901   -0.02768884
     atom   47 type  2   force =     0.07140979    0.00034157   -0.02770131
     atom   48 type  3   force =     0.00032852   -0.00059901   -0.00277898
     atom   49 type  3   force =    -0.00001661   -0.00047594    0.00029952
     atom   50 type  4   force =     0.00422088   -0.00054494    0.00778367
     atom   51 type  5   force =    -0.00490989   -0.00026664   -0.00664086

     Total force =     0.367842     Total SCF correction =     0.000639
  @ DRIVER MODE: Message from server: STATUS
  @ DRIVER MODE: Message from server: GETFORCE
  @ DRIVER MODE: Returning v,forces,stress,ensemble

     Writing output data file ./calc.save/
  @ DRIVER MODE: Message from server: EXIT
  @ DRIVE MODE: Exiting

     General routines

     Parallel routines

   This run was terminated on:  23:12:13  23Aug2021

   JOB DONE.