     Program PWSCF v.6.7GPU starts on 15Jul2021 at 16:57: 9

     R & G space division:  proc/nbgrp/npool/nimage =      16
     Reading input from /storage/home/hcoda1/3/ntian30/research/carbon/15Jul_vib/ads_slab/CH3NNH3_a/out_0001/pw.inp
Warning: card &CELL ignored
Warning: card   CELL_DYNAMICS='IPI', ignored
Warning: card / ignored

     Current dimensions of program PWSCF are:
     Max number of different atomic species (ntypx) = 10
     Max number of k-points (npk) =  40000
     Max angular momentum in pseudopotentials (lmaxx) =  3
     Presently no symmetry can be used with electric field

     Message from routine cell_base_init:
     DEPRECATED: use true lattice parameter, not A to a.u. conversion factor

     IMPORTANT: XC functional enforced from input :
     Exchange-correlation= BEEF-VDW
                           (   1   4  43  14   2   0   0)
     Any further DFT definition will be discarded
     Please, verify this is what you really want

  @ DRIVER MODE: Connecting to
 qe_1139763_2351650.sched-torque.pace.gatech.edukg_7pazc_scratch
  using UNIX socket
  @ DRIVER MODE: Message from server: STATUS
  @ DRIVER MODE: Message from server: INIT
  @ DRIVER MODE: Receiving replica           0          -1
  @ DRIVER MODE: Receiving encoded integer          25
  @ DRIVER MODE:  SCF:  T  FORCE:  T  STRESS:  F  VC:  F  ENSEMBLE:  F
  @ DRIVER MODE:  SCF:  T  FORCE:  T  STRESS:  F  VC:  F  ENSEMBLE:  F

     Using Slab Decomposition

     bravais-lattice index     =            0
     lattice parameter (alat)  =       1.8897  a.u.
     unit-cell volume          =    6658.9804 (a.u.)^3
     number of atoms/cell      =           56
     number of atomic types    =            5
     number of electrons       =       398.00
     number of Kohn-Sham states=          209
     kinetic-energy cutoff     =      29.3995  Ry
     charge density cutoff     =     293.9946  Ry
     scf convergence threshold =      7.3E-08
     mixing beta               =       0.0500
     number of iterations used =            8  plain     mixing
     Exchange-correlation= BEEF-VDW
                           (   1   4  43  14   2   0   0)

     celldm(1)=   1.889726  celldm(2)=   0.000000  celldm(3)=   0.000000
     celldm(4)=   0.000000  celldm(5)=   0.000000  celldm(6)=   0.000000

     crystal axes: (cart. coord. in units of alat)
               a(1) = (   6.579727   0.000000   0.000000 )
               a(2) = (  -0.000775   5.961596   0.000000 )
               a(3) = (   0.000000   0.000000  25.155947 )

     reciprocal axes: (cart. coord. in units 2 pi/alat)
               b(1) = (  0.151982  0.000020  0.000000 )
               b(2) = (  0.000000  0.167740  0.000000 )
               b(3) = (  0.000000  0.000000  0.039752 )

     PseudoPot. # 1 for Ti read from file:
     /storage/coda1/p-amedford6/0/shared/rich_project_chbe-medford/medford-share/data/pseudos_module/espresso/nninc/pbe/van/Ti.UPF
     MD5 check sum: 8e4df49b7f0d34bbd5052bf3f5ea0213
     Pseudo is Ultrasoft, Zval = 12.0
     Generated by new atomic code, or converted to UPF format
     Using radial grid of  851 points,  6 beta functions with:
                l(1) =   0
                l(2) =   0
                l(3) =   1
                l(4) =   1
                l(5) =   2
                l(6) =   2
     Q(r) pseudized with  8 coefficients,  rinner =    1.000   1.000   1.000
                                                       1.000   1.000

     PseudoPot. # 2 for O  read from file:
     /storage/coda1/p-amedford6/0/shared/rich_project_chbe-medford/medford-share/data/pseudos_module/espresso/nninc/pbe/van/O.UPF
     MD5 check sum: 78c19812648e8988a0fe644b0f25305e
     Pseudo is Ultrasoft, Zval =  6.0
     Generated by new atomic code, or converted to UPF format
     Using radial grid of  737 points,  4 beta functions with:
                l(1) =   0
                l(2) =   0
                l(3) =   1
                l(4) =   1
     Q(r) pseudized with  8 coefficients,  rinner =    0.800   0.800   0.800

     PseudoPot. # 3 for N  read from file:
     /storage/coda1/p-amedford6/0/shared/rich_project_chbe-medford/medford-share/data/pseudos_module/espresso/nninc/pbe/van/N.UPF
     MD5 check sum: 90d10febe142ad51ac9d5be1deb811c4
     Pseudo is Ultrasoft, Zval =  5.0
     Generated by new atomic code, or converted to UPF format
     Using radial grid of  729 points,  4 beta functions with:
                l(1) =   0
                l(2) =   0
                l(3) =   1
                l(4) =   1
     Q(r) pseudized with  8 coefficients,  rinner =    0.800   0.800   0.800

     PseudoPot. # 4 for C  read from file:
     /storage/coda1/p-amedford6/0/shared/rich_project_chbe-medford/medford-share/data/pseudos_module/espresso/nninc/pbe/van/C.UPF
     MD5 check sum: 1a69bf6b8db32088f5b2163dbdb77a27
     Pseudo is Ultrasoft, Zval =  4.0
     Generated by new atomic code, or converted to UPF format
     Using radial grid of  721 points,  4 beta functions with:
                l(1) =   0
                l(2) =   0
                l(3) =   1
                l(4) =   1
     Q(r) pseudized with  8 coefficients,  rinner =    0.800   0.800   0.800

     PseudoPot. # 5 for H  read from file:
     /storage/coda1/p-amedford6/0/shared/rich_project_chbe-medford/medford-share/data/pseudos_module/espresso/nninc/pbe/van/H.UPF
     MD5 check sum: b5ee9d7bfd3a09ee7748110bda690ff7
     Pseudo is Ultrasoft, Zval =  1.0
     Generated by new atomic code, or converted to UPF format
     Using radial grid of  615 points,  1 beta functions with:
                l(1) =   0
     Q(r) pseudized with  8 coefficients,  rinner =    0.800

     atomic species   valence    mass     pseudopotential
        Ti1           12.00    47.86700     Ti( 1.00)
        O1             6.00    15.99900     O ( 1.00)
        N1             5.00    14.00700     N ( 1.00)
        C1             4.00    12.01100     C ( 1.00)
        H1             1.00     1.00800     H ( 1.00)

     Starting magnetic structure
     atomic species   magnetization
        Ti1          0.000
        O1           0.000
        N1           0.000
        C1           0.025
        H1           0.000

     No symmetry found

   Cartesian axes

     site n.     atom                  positions (alat units)
         1           Ti1 tau(   1) = (   0.0004258   2.9801865   6.0000000  )
         2           Ti1 tau(   2) = (   3.2906075   1.4906267   6.0002472  )
         3           O1  tau(   3) = (   0.0006271   0.0005054   7.9858123  )
         4           O1  tau(   4) = (   3.2906025   0.0005020   7.3038282  )
         5           O1  tau(   5) = (   4.5942328   1.4918067   9.2879030  )
         6           O1  tau(   6) = (   1.9868534   1.4903216   9.2879459  )
         7           Ti1 tau(   7) = (   3.2907910   2.8959150   9.1758416  )
         8           Ti1 tau(   8) = (   0.0015273   1.4827037   9.2680791  )
         9           O1  tau(   9) = (   3.3019049   5.9598586  11.2958584  )
        10           O1  tau(  10) = (   0.0116148   5.9584955  10.6183126  )
        11           O1  tau(  11) = (   1.3346742   1.4914638  12.6145280  )
        12           O1  tau(  12) = (   5.3113054   1.4894223  12.6320738  )
        13           Ti1 tau(  13) = (   6.4919192   2.9607050  12.7581921  )
        14           Ti1 tau(  14) = (   3.1808934   1.4809541  12.4628303  )
        15           O1  tau(  15) = (   0.0259758   5.9327586  14.5948705  )
        16           O1  tau(  16) = (   3.3179433   0.0111293  13.8771559  )
        17           O1  tau(  17) = (   4.5450242   1.5254396  16.0425357  )
        18           O1  tau(  18) = (   2.0945915   1.5254857  16.0466093  )
        19           Ti1 tau(  19) = (   3.3175380   3.0118254  15.6854273  )
        20           Ti1 tau(  20) = (   0.0287691   1.6153805  16.0968480  )
        21           O1  tau(  21) = (   3.2904802   0.0005063   4.7018136  )
        22           O1  tau(  22) = (   0.0272082   0.0527987  17.2096484  )
        23           O1  tau(  23) = (   1.3043587   1.4918075   6.0039043  )
        24           O1  tau(  24) = (   5.2767064   1.4903225   6.0039473  )
        25           Ti1 tau(  25) = (   0.0000382   5.9609847   6.0000000  )
        26           Ti1 tau(  26) = (   3.2902200   4.4714249   6.0002472  )
        27           O1  tau(  27) = (   0.0002396   2.9813036   7.9858123  )
        28           O1  tau(  28) = (   3.2902150   2.9813002   7.3038282  )
        29           O1  tau(  29) = (   4.5938453   4.4726049   9.2879030  )
        30           O1  tau(  30) = (   1.9864658   4.4711199   9.2879459  )
        31           Ti1 tau(  31) = (   3.2891106   5.8743827   9.1763621  )
        32           Ti1 tau(  32) = (   0.0006254   4.4649316   9.2693709  )
        33           O1  tau(  33) = (   3.3007599   2.9794320  11.2948048  )
        34           O1  tau(  34) = (   0.0092240   2.9805883  10.6323155  )
        35           O1  tau(  35) = (   1.3367187   4.4652043  12.6121808  )
        36           O1  tau(  36) = (   5.3110114   4.4536366  12.6300246  )
        37           Ti1 tau(  37) = (   6.5175235   5.9394146  12.7678677  )
        38           Ti1 tau(  38) = (   3.1810223   4.4618757  12.4682998  )
        39           O1  tau(  39) = (   0.0141956   2.9656780  14.6533049  )
        40           O1  tau(  40) = (   3.3125561   2.9946134  13.8784269  )
        41           O1  tau(  41) = (   4.5469694   4.5079638  16.0550352  )
        42           O1  tau(  42) = (   2.0896055   4.5089645  16.0567747  )
        43           Ti1 tau(  43) = (   3.3249511   0.0336637  15.6879192  )
        44           Ti1 tau(  44) = (   0.0309337   4.5948497  16.1324869  )
        45           O1  tau(  45) = (   3.2900926   2.9813045   4.7018136  )
        46           O1  tau(  46) = (   1.3039711   4.4726057   6.0039043  )
        47           O1  tau(  47) = (   5.2763189   4.4711207   6.0039473  )
        48           N1  tau(  48) = (   0.0410883   3.0100077  17.3315927  )
        49           C1  tau(  49) = (   0.2149723   3.0659314  18.7643681  )
        50           H1  tau(  50) = (   6.1109748   3.7957518  19.2115106  )
        51           H1  tau(  51) = (   0.0391147   2.0919789  19.2277120  )
        52           H1  tau(  52) = (   1.2341903   3.3897193  19.0223879  )
        53           N1  tau(  53) = (   4.7717085   1.8344328  21.5424420  )
        54           H1  tau(  54) = (   4.4711387   2.7986659  21.4441960  )
        55           H1  tau(  55) = (   4.1840297   1.2822813  20.9257432  )
        56           H1  tau(  56) = (   4.5427024   1.5537098  22.4892962  )

     number of k points=    10  Fermi-Dirac smearing, width (Ry)=  0.0073
                       cart. coord. in units 2pi/alat
        k(    1) = (   0.0000000   0.0000000   0.0000000), wk =   0.0625000
        k(    2) = (   0.0000000   0.0419351   0.0000000), wk =   0.1250000
        k(    3) = (   0.0000000  -0.0838702   0.0000000), wk =   0.0625000
        k(    4) = (   0.0379955   0.0000049   0.0000000), wk =   0.1250000
        k(    5) = (   0.0379955   0.0419400   0.0000000), wk =   0.1250000
[...]
     % You are using vdW-DF, which was implemented by the Thonhauser group. %
     % Please cite the following two papers that made this development      %
     % possible and the two reviews that describe the various versions:     %
     %                                                                      %
     %   T. Thonhauser et al., PRL 115, 136402 (2015).                      %
     %   T. Thonhauser et al., PRB 76, 125112 (2007).                       %
     %   K. Berland et al., Rep. Prog. Phys. 78, 066501 (2015).             %
     %   D.C. Langreth et al., J. Phys.: Condens. Matter 21, 084203 (2009). %
     %                                                                      %
     %                                                                      %
     % If you are calculating the stress with vdW-DF, please also cite:     %
     %                                                                      %
     %   R. Sabatini et al., J. Phys.: Condens. Matter 24, 424209 (2012).   %
     %                                                                      %
     %%%%%%%%%%%%%%%%%%%%%%%%%%%%%%%%%%%%%%%%%%%%%%%%%%%%%%%%%%%%%%%%%%%%%%%%

     Adding external electric field

     Computed dipole along edir(3) :
        Dipole              -11.2917 Ry au,        -28.7007 Debye
        Dipole field         -0.0213 Ry au,

        Potential amp.        1.9753 Ry
        Total length         46.3494 bohr

[...]

     Starting wfcs are  302 atomic wfcs
  @ DRIVER MODE: Message from server: STATUS
  @ DRIVER MODE: Message from server: POSDATA
  @ DRIVER MODE: Reading and sharing cell
  @ DRIVER MODE: Reading and sharing positions
  @ DRIVER MODE: Received positions

     Self-consistent Calculation

     iteration #  1     ecut=    29.40 Ry     beta= 0.05
     Davidson diagonalization with overlap
     c_bands:  1 eigenvalues not converged
     c_bands:  1 eigenvalues not converged
     c_bands:  2 eigenvalues not converged
     c_bands:  1 eigenvalues not converged
     c_bands:  1 eigenvalues not converged
     c_bands:  1 eigenvalues not converged
     c_bands:  2 eigenvalues not converged
     c_bands:  2 eigenvalues not converged
     c_bands:  1 eigenvalues not converged
     c_bands:  1 eigenvalues not converged
     c_bands:  2 eigenvalues not converged
     c_bands:  1 eigenvalues not converged
     c_bands:  1 eigenvalues not converged
     c_bands:  1 eigenvalues not converged
     c_bands:  2 eigenvalues not converged
     c_bands:  2 eigenvalues not converged
     ethr =  1.00E-05,  avg # of iterations = 19.6

[...]

     total energy              =   -2520.82044555 Ry
     estimated scf accuracy    <    4704.49490611 Ry

     total magnetization       =     0.00 Bohr mag/cell
     absolute magnetization    =     0.01 Bohr mag/cell

     iteration #  2     ecut=    29.40 Ry     beta= 0.05
     Davidson diagonalization with overlap
     ethr =  1.00E-02,  avg # of iterations = 21.9

[...]

     iteration # 44     ecut=    29.40 Ry     beta= 0.05
     Davidson diagonalization with overlap
     c_bands:  1 eigenvalues not converged
     ethr =  6.67E-07,  avg # of iterations = 10.0

[...]

     total energy              =   -2942.90773464 Ry
     estimated scf accuracy    <       0.00000008 Ry

[...]

     iteration # 70     ecut=    29.40 Ry     beta= 0.05
     Davidson diagonalization with overlap
     ethr =  1.95E-11,  avg # of iterations =  5.0

     negative rho (up, down):  5.680E-03 5.680E-03

[...]

     Adding external electric field

     Computed dipole along edir(3) :
        Dipole                0.4175 Ry au,          1.0613 Debye
        Dipole field          0.0008 Ry au,

        Potential amp.       -0.0730 Ry
        Total length         46.3494 bohr

     Magnetic moment per site  (integrated on atomic sphere of radius R)
     atom   1 (R=0.735)  charge=  8.0053  magn=  0.0002
     atom   2 (R=0.735)  charge=  8.0011  magn= -0.0001
     atom   3 (R=0.735)  charge=  4.9959  magn= -0.0000
     atom   4 (R=0.735)  charge=  5.0345  magn=  0.0000
     atom   5 (R=0.735)  charge=  4.9982  magn=  0.0000
     atom   6 (R=0.735)  charge=  4.9994  magn=  0.0000
     atom   7 (R=0.735)  charge=  7.9947  magn= -0.0000
     atom   8 (R=0.735)  charge=  7.9823  magn=  0.0000
     atom   9 (R=0.735)  charge=  5.0128  magn= -0.0000
     atom  10 (R=0.735)  charge=  4.9434  magn= -0.0000
     atom  11 (R=0.735)  charge=  4.9999  magn= -0.0000
     atom  12 (R=0.735)  charge=  5.0035  magn= -0.0000
     atom  13 (R=0.735)  charge=  7.9933  magn=  0.0000
     atom  14 (R=0.735)  charge=  8.0007  magn=  0.0000
     atom  15 (R=0.735)  charge=  4.9894  magn= -0.0000
     atom  16 (R=0.735)  charge=  5.0146  magn= -0.0000
     atom  17 (R=0.735)  charge=  4.9900  magn= -0.0000
     atom  18 (R=0.735)  charge=  4.9889  magn= -0.0000
     atom  19 (R=0.735)  charge=  8.0209  magn=  0.0000
     atom  20 (R=0.735)  charge=  8.0242  magn=  0.0000
     atom  21 (R=0.735)  charge=  4.8827  magn=  0.0002
     atom  22 (R=0.735)  charge=  4.9720  magn= -0.0000
     atom  23 (R=0.735)  charge=  4.9884  magn= -0.0001
     atom  24 (R=0.735)  charge=  4.9885  magn= -0.0001
     atom  25 (R=0.735)  charge=  8.0053  magn=  0.0001
     atom  26 (R=0.735)  charge=  8.0011  magn= -0.0001
     atom  27 (R=0.735)  charge=  4.9957  magn= -0.0000
     atom  28 (R=0.735)  charge=  5.0347  magn=  0.0000
     atom  29 (R=0.735)  charge=  4.9989  magn=  0.0000
     atom  30 (R=0.735)  charge=  5.0001  magn=  0.0000
     atom  31 (R=0.735)  charge=  7.9948  magn= -0.0000
     atom  32 (R=0.735)  charge=  7.9826  magn=  0.0000
     atom  33 (R=0.735)  charge=  5.0126  magn= -0.0000
     atom  34 (R=0.735)  charge=  4.9424  magn= -0.0000
     atom  35 (R=0.735)  charge=  5.0005  magn= -0.0000
     atom  36 (R=0.735)  charge=  5.0043  magn= -0.0000
     atom  37 (R=0.735)  charge=  7.9990  magn=  0.0000
     atom  38 (R=0.735)  charge=  8.0004  magn=  0.0000
     atom  39 (R=0.735)  charge=  4.9853  magn= -0.0000
     atom  40 (R=0.735)  charge=  5.0160  magn= -0.0000
     atom  41 (R=0.735)  charge=  4.9884  magn= -0.0000
     atom  42 (R=0.735)  charge=  4.9879  magn= -0.0000
     atom  43 (R=0.735)  charge=  8.0214  magn=  0.0000
     atom  44 (R=0.735)  charge=  8.0216  magn=  0.0000
     atom  45 (R=0.735)  charge=  4.8827  magn=  0.0002
     atom  46 (R=0.735)  charge=  4.9884  magn= -0.0001
     atom  47 (R=0.735)  charge=  4.9885  magn= -0.0001
     atom  48 (R=0.418)  charge=  1.3134  magn= -0.0001
     atom  49 (R=0.451)  charge=  0.8532  magn=  0.0000
     atom  50 (R=0.418)  charge=  0.4372  magn= -0.0000
     atom  51 (R=0.418)  charge=  0.4391  magn= -0.0000
     atom  52 (R=0.418)  charge=  0.4338  magn= -0.0000
     atom  53 (R=0.418)  charge=  1.3298  magn= -0.0000
     atom  54 (R=0.418)  charge=  0.4522  magn=  0.0000
     atom  55 (R=0.418)  charge=  0.4511  magn=  0.0000
     atom  56 (R=0.418)  charge=  0.4538  magn=  0.0000

     End of self-consistent calculation

 ------ SPIN UP ------------

          k = 0.0000 0.0000 0.0000 ( 18029 PWs)   bands (ev):

   -56.6329 -56.5992 -55.7566 -55.7447 -55.7217 -55.7119 -55.6106 -55.5753
   -55.3929 -55.3570 -55.2974 -55.2910 -55.2635 -55.1932 -54.7269 -54.6157
   -33.0606 -32.9074 -32.8793 -32.8086 -32.7176 -32.6866 -32.2274 -32.2211
   -32.1533 -32.0407 -31.9945 -31.9702 -31.9518 -31.9306 -31.8969 -31.8925
   -31.8906 -31.8856 -31.8600 -31.8566 -31.8460 -31.8181 -31.7933 -31.7781
   -31.7652 -31.7469 -31.7373 -31.7125 -31.6895 -31.6357 -31.6235 -31.6116
   -31.5338 -31.5310 -31.5082 -31.4668 -31.4588 -31.4247 -31.4212 -31.3969
   -31.3744 -31.3138 -31.2325 -30.9728 -30.9574 -30.8749 -30.8375 -30.7473
   -16.7971 -16.3646 -16.1338 -15.9951 -15.9292 -15.8733 -15.8305 -15.7035
   -15.6363 -15.6286 -15.5871 -15.5581 -15.4870 -15.3478 -15.2492 -15.1959
   -15.1513 -15.0306 -14.9705 -14.9368 -14.9268 -14.8834 -14.8741 -14.6804
   -14.6574 -14.5642 -14.5422 -14.4219 -14.1861 -13.7965 -13.7012 -13.6865
   -12.7893  -7.4990  -4.3625  -3.8606  -3.7679  -3.7433  -3.6216  -3.5356
    -3.4280  -3.4146  -3.3268  -3.2138  -3.1692  -3.1216  -3.0052  -3.0033
    -2.8556  -2.8094  -2.8083  -2.8048  -2.7549  -2.6967  -2.6758  -2.6413
    -2.6317  -2.5926  -2.4752  -2.3804  -2.3079  -2.2854  -2.2792  -2.2440
    -2.1683  -2.1389  -2.1310  -2.1274  -2.0188  -1.8750  -1.8678  -1.8441
    -1.8023  -1.7980  -1.7539  -1.7409  -1.6224  -1.5333  -1.4300  -1.4146
    -1.3706  -1.3147  -1.3070  -1.2162  -1.1385  -1.0476  -1.0464  -0.9373
    -0.8887  -0.8721  -0.7812  -0.7227  -0.6832  -0.6561  -0.6445  -0.5439
    -0.5225  -0.5124  -0.4274  -0.4148  -0.3670  -0.2782  -0.2550  -0.2459
    -0.1639  -0.1613  -0.0656  -0.0243   0.0163   0.0515   0.1677   0.1849
     0.2827   0.3115   0.3391   0.4523   0.4681   0.5334   0.6086   0.6705
     0.6979   0.7236   0.7538   0.7728   0.8485   0.9599   0.9679   1.0720
     1.1034   1.2764   1.3153   1.3926   1.6026   1.6360   2.3031   2.6418
     2.8012   3.0997   3.2879   3.4010   3.6164   3.6323   3.6375   3.8076
     3.8599

[...]

          k =-0.0760-0.0000 0.0000 ( 17886 PWs)   bands (ev):

[...]

 ------ SPIN DOWN ----------

[...]

          k = 0.0380-0.0419 0.0000 ( 17876 PWs)   bands (ev):

[...]

          k =-0.0760-0.0839 0.0000 ( 17948 PWs)   bands (ev):

   -56.6156 -56.6154 -55.7415 -55.7356 -55.7291 -55.7286 -55.5932 -55.5924
   -55.3790 -55.3706 -55.2878 -55.2808 -55.2807 -55.1962 -54.7239 -54.6183
   -32.8926 -32.8926 -32.8771 -32.8770 -32.7610 -32.7609 -32.0573 -32.0550
   -32.0456 -32.0390 -31.9858 -31.9848 -31.9418 -31.9415 -31.9399 -31.9388
   -31.9309 -31.9280 -31.9258 -31.9242 -31.8457 -31.8437 -31.7947 -31.7918
   -31.7297 -31.7194 -31.6606 -31.6526 -31.6249 -31.6248 -31.6170 -31.5773
   -31.5731 -31.5452 -31.5110 -31.5062 -31.5061 -31.4670 -31.4670 -31.4620
   -31.4385 -31.3990 -31.1124 -30.9926 -30.9568 -30.9262 -30.8401 -30.8027
   -16.1461 -16.1440 -16.1112 -16.1109 -15.8424 -15.8388 -15.7955 -15.7930
   -15.6191 -15.6129 -15.4068 -15.3981 -15.3913 -15.3899 -15.2619 -15.2560
   -15.1899 -15.1796 -15.0901 -15.0808 -15.0245 -15.0181 -14.9755 -14.9544
   -14.6443 -14.6353 -14.5146 -14.4971 -14.3298 -13.7892 -13.7892 -13.7004
   -12.8058  -7.4892  -3.7752  -3.7514  -3.2449  -3.2445  -3.1808  -3.1798
    -3.0578  -3.0538  -2.9755  -2.9748  -2.8763  -2.8751  -2.7582  -2.7324
    -2.7294  -2.7283  -2.7107  -2.6606  -2.5759  -2.5713  -2.5620  -2.5480
    -2.4900  -2.4881  -2.4626  -2.3985  -2.3850  -2.3537  -2.3159  -2.2019
    -2.1917  -2.1788  -2.1479  -2.0831  -2.0784  -2.0648  -2.0223  -1.9899
    -1.9116  -1.8373  -1.8015  -1.6889  -1.6845  -1.6721  -1.6601  -1.5070
    -1.4669  -1.4361  -1.4296  -1.4228  -1.3744  -1.2806  -1.2731  -1.1408
    -1.1392  -1.0644  -0.9833  -0.9627  -0.9331  -0.8050  -0.7609  -0.7266
    -0.7188  -0.6904  -0.6700  -0.6486  -0.6046  -0.4691  -0.4576  -0.4187
    -0.3840  -0.3621  -0.3266  -0.2699  -0.1845  -0.1064  -0.1057  -0.0505
     0.0182   0.0785   0.1654   0.1752   0.1810   0.4620   0.5405   0.6305
     0.7065   0.7729   0.8359   0.8671   0.9225   0.9674   1.1028   1.1061
     1.1251   1.1255   1.1852   1.1889   1.3755   1.6425   2.1923   3.2149
     3.2153   3.2821   3.2827   3.6062   3.6119   3.7202   3.7294   3.8370
     3.8420

     the Fermi energy is     2.4820 ev

!    total energy              =   -2942.90775997 Ry
     estimated scf accuracy    <       0.00000004 Ry
     smearing contrib. (-TS)   =      -0.00486319 Ry
     internal energy E=F+TS    =   -2942.90289678 Ry

     The total energy is F=E-TS. E is the sum of the following terms:
     one-electron contribution =  -23242.36901997 Ry
     hartree contribution      =   11711.38787409 Ry
     xc contribution           =    -487.47111785 Ry
     ewald contribution        =    9075.54903795 Ry
     electric field correction =       0.00032899 Ry

     total magnetization       =    -0.00 Bohr mag/cell
     absolute magnetization    =     0.00 Bohr mag/cell

     convergence has been achieved in  70 iterations

     Forces acting on atoms (cartesian axes, Ry/au):

     atom    1 type  1   force =     0.00003810   -0.00039871    0.12407371
     atom    2 type  1   force =    -0.00010322   -0.00057399   -0.16064793
     atom    3 type  2   force =     0.00023514   -0.00026889   -0.06802328
     atom    4 type  2   force =     0.00001368   -0.00029132    0.02755290
     atom    5 type  2   force =    -0.01615237    0.00175332   -0.00936789
     atom    6 type  2   force =     0.01818523    0.00219266   -0.00898982
     atom    7 type  1   force =     0.00115019   -0.00377623    0.02175334
     atom    8 type  1   force =    -0.00057375   -0.00290496    0.11113043
     atom    9 type  2   force =    -0.00018198    0.00030628   -0.00048413
     atom   10 type  2   force =    -0.00195966    0.00129394   -0.07325835
     atom   11 type  2   force =     0.00022061   -0.00011116    0.00017047
     atom   12 type  2   force =    -0.00025898    0.00022820    0.00019866
     atom   13 type  1   force =    -0.00009559    0.00008347   -0.00035603
     atom   14 type  1   force =    -0.00058206    0.00044409    0.00043970
     atom   15 type  2   force =     0.00014742   -0.00000991    0.00008467
     atom   16 type  2   force =    -0.00051663   -0.00036751    0.00054331
     atom   17 type  2   force =    -0.00101224   -0.00001953   -0.00026331
     atom   18 type  2   force =    -0.00043611    0.00051707    0.00040668
     atom   19 type  1   force =     0.00066901   -0.00053858    0.00003663
     atom   20 type  1   force =    -0.00068917    0.00000142    0.00018145
     atom   21 type  2   force =     0.00005147   -0.00000696    0.09972058
     atom   22 type  2   force =     0.00042687   -0.00003619   -0.00040235
     atom   23 type  2   force =    -0.07914747    0.00000270   -0.03244549
     atom   24 type  2   force =     0.07903518    0.00043919   -0.03246829
     atom   25 type  1   force =     0.00002041   -0.00040893    0.12360648
     atom   26 type  1   force =    -0.00009958   -0.00047546   -0.16078306
     atom   27 type  2   force =     0.00032994   -0.00048431   -0.06707208
     atom   28 type  2   force =     0.00002774   -0.00011993    0.02727891
     atom   29 type  2   force =    -0.01662785    0.00127741   -0.00947448
     atom   30 type  2   force =     0.01855926    0.00165413   -0.00910886
     atom   31 type  1   force =     0.00116656   -0.00137961    0.02117897
     atom   32 type  1   force =    -0.00053159    0.00034164    0.11177826
     atom   33 type  2   force =    -0.00016168   -0.00025040    0.00003935
     atom   34 type  2   force =    -0.00132231    0.00066876   -0.07271387
     atom   35 type  2   force =    -0.00078593   -0.00043043   -0.00002499
     atom   36 type  2   force =     0.00010636   -0.00001662    0.00010146
     atom   37 type  1   force =     0.00005853    0.00063842    0.00028764
     atom   38 type  1   force =    -0.00022411    0.00003211   -0.00013881
     atom   39 type  2   force =     0.00018516   -0.00017431    0.00080829
     atom   40 type  2   force =    -0.00019170   -0.00046533    0.00030774
     atom   41 type  2   force =    -0.00034127    0.00014281   -0.00025114
     atom   42 type  2   force =    -0.00003655   -0.00022134    0.00028379
     atom   43 type  1   force =     0.00008525   -0.00013212    0.00010962
     atom   44 type  1   force =    -0.00049917    0.00050503    0.00011877
     atom   45 type  2   force =     0.00002674   -0.00003252    0.09974504
     atom   46 type  2   force =    -0.07915427    0.00005531   -0.03244719
     atom   47 type  2   force =     0.07903471    0.00047655   -0.03246329
     atom   48 type  3   force =     0.00445610    0.00082354   -0.00032313
     atom   49 type  4   force =    -0.00188073   -0.00045922   -0.00049012
     atom   50 type  5   force =     0.00014583    0.00065648    0.00143204
     atom   51 type  5   force =     0.00035136    0.00056775   -0.00002253
     atom   52 type  5   force =    -0.00024746   -0.00025662   -0.00110627
     atom   53 type  3   force =     0.00002002   -0.00087302   -0.00009243
     atom   54 type  5   force =    -0.00001644    0.00021457   -0.00055136
     atom   55 type  5   force =     0.00015143    0.00031381   -0.00083457
     atom   56 type  5   force =    -0.00106842   -0.00014651    0.00123615

     Total force =     0.424449     Total SCF correction =     0.000464
  @ DRIVER MODE: Message from server: STATUS
  @ DRIVER MODE: Message from server: GETFORCE
  @ DRIVER MODE: Returning v,forces,stress,ensemble

     Writing output data file ./calc.save/
  @ DRIVER MODE: Message from server: EXIT
  @ DRIVE MODE: Exiting

     General routines

     Parallel routines

   This run was terminated on:  17:27: 3  15Jul2021

   JOB DONE.