     Program PWSCF v.6.7GPU starts on 10Sep2021 at 13: 8: 0

     R & G space division:  proc/nbgrp/npool/nimage =      10
     Reading input from /storage/home/hcoda1/3/ntian30/research/carbon/CxH_vib/CH_calc/ads_slab/CHNHNH_a/out_0008/pw.inp
Warning: card &CELL ignored
Warning: card   CELL_DYNAMICS='IPI', ignored
Warning: card / ignored

     Current dimensions of program PWSCF are:
     Max number of different atomic species (ntypx) = 10
     Max number of k-points (npk) =  40000
     Max angular momentum in pseudopotentials (lmaxx) =  3
     Presently no symmetry can be used with electric field

     Message from routine cell_base_init:
     DEPRECATED: use true lattice parameter, not A to a.u. conversion factor

     IMPORTANT: XC functional enforced from input :
     Exchange-correlation= BEEF-VDW
                           (   1   4  43  14   2   0   0)
     Any further DFT definition will be discarded
     Please, verify this is what you really want

  @ DRIVER MODE: Connecting to
 qe_1139763_2787518.sched-torque.pace.gatech.eduldevc8ev_scratch
  using UNIX socket
  @ DRIVER MODE: Message from server: STATUS
  @ DRIVER MODE: Message from server: INIT
  @ DRIVER MODE: Receiving replica           0          -1
  @ DRIVER MODE: Receiving encoded integer          25
  @ DRIVER MODE:  SCF:  T  FORCE:  T  STRESS:  F  VC:  F  ENSEMBLE:  F
  @ DRIVER MODE:  SCF:  T  FORCE:  T  STRESS:  F  VC:  F  ENSEMBLE:  F

     Using Slab Decomposition

     bravais-lattice index     =            0
     lattice parameter (alat)  =       1.8897  a.u.
     unit-cell volume          =    6658.9804 (a.u.)^3
     number of atoms/cell      =           53
     number of atomic types    =            5
     number of electrons       =       395.00
     number of Kohn-Sham states=          207
     kinetic-energy cutoff     =      29.3995  Ry
     charge density cutoff     =     293.9946  Ry
     scf convergence threshold =      7.3E-08
     mixing beta               =       0.0500
     number of iterations used =            8  plain     mixing
     Exchange-correlation= BEEF-VDW
                           (   1   4  43  14   2   0   0)

     celldm(1)=   1.889726  celldm(2)=   0.000000  celldm(3)=   0.000000
     celldm(4)=   0.000000  celldm(5)=   0.000000  celldm(6)=   0.000000

     crystal axes: (cart. coord. in units of alat)
               a(1) = (   6.579727   0.000000   0.000000 )
               a(2) = (  -0.000775   5.961596   0.000000 )
               a(3) = (   0.000000   0.000000  25.155947 )

     reciprocal axes: (cart. coord. in units 2 pi/alat)
               b(1) = (  0.151982  0.000020  0.000000 )
               b(2) = (  0.000000  0.167740  0.000000 )
               b(3) = (  0.000000  0.000000  0.039752 )

     PseudoPot. # 1 for Ti read from file:
     /storage/coda1/p-amedford6/0/shared/rich_project_chbe-medford/medford-share/data/pseudos_module/espresso/nninc/pbe/van/Ti.UPF
     MD5 check sum: 8e4df49b7f0d34bbd5052bf3f5ea0213
     Pseudo is Ultrasoft, Zval = 12.0
     Generated by new atomic code, or converted to UPF format
     Using radial grid of  851 points,  6 beta functions with:
                l(1) =   0
                l(2) =   0
                l(3) =   1
                l(4) =   1
                l(5) =   2
                l(6) =   2
     Q(r) pseudized with  8 coefficients,  rinner =    1.000   1.000   1.000
                                                       1.000   1.000

     PseudoPot. # 2 for O  read from file:
     /storage/coda1/p-amedford6/0/shared/rich_project_chbe-medford/medford-share/data/pseudos_module/espresso/nninc/pbe/van/O.UPF
     MD5 check sum: 78c19812648e8988a0fe644b0f25305e
     Pseudo is Ultrasoft, Zval =  6.0
     Generated by new atomic code, or converted to UPF format
     Using radial grid of  737 points,  4 beta functions with:
                l(1) =   0
                l(2) =   0
                l(3) =   1
                l(4) =   1
     Q(r) pseudized with  8 coefficients,  rinner =    0.800   0.800   0.800

     PseudoPot. # 3 for N  read from file:
     /storage/coda1/p-amedford6/0/shared/rich_project_chbe-medford/medford-share/data/pseudos_module/espresso/nninc/pbe/van/N.UPF
     MD5 check sum: 90d10febe142ad51ac9d5be1deb811c4
     Pseudo is Ultrasoft, Zval =  5.0
     Generated by new atomic code, or converted to UPF format
     Using radial grid of  729 points,  4 beta functions with:
                l(1) =   0
                l(2) =   0
                l(3) =   1
                l(4) =   1
     Q(r) pseudized with  8 coefficients,  rinner =    0.800   0.800   0.800

     PseudoPot. # 4 for C  read from file:
     /storage/coda1/p-amedford6/0/shared/rich_project_chbe-medford/medford-share/data/pseudos_module/espresso/nninc/pbe/van/C.UPF
     MD5 check sum: 1a69bf6b8db32088f5b2163dbdb77a27
     Pseudo is Ultrasoft, Zval =  4.0
     Generated by new atomic code, or converted to UPF format
     Using radial grid of  721 points,  4 beta functions with:
                l(1) =   0
                l(2) =   0
                l(3) =   1
                l(4) =   1
     Q(r) pseudized with  8 coefficients,  rinner =    0.800   0.800   0.800

     PseudoPot. # 5 for H  read from file:
     /storage/coda1/p-amedford6/0/shared/rich_project_chbe-medford/medford-share/data/pseudos_module/espresso/nninc/pbe/van/H.UPF
     MD5 check sum: b5ee9d7bfd3a09ee7748110bda690ff7
     Pseudo is Ultrasoft, Zval =  1.0
     Generated by new atomic code, or converted to UPF format
     Using radial grid of  615 points,  1 beta functions with:
                l(1) =   0
     Q(r) pseudized with  8 coefficients,  rinner =    0.800

     atomic species   valence    mass     pseudopotential
        Ti1           12.00    47.86700     Ti( 1.00)
        O1             6.00    15.99900     O ( 1.00)
        N1             5.00    14.00700     N ( 1.00)
        C1             4.00    12.01100     C ( 1.00)
        H1             1.00     1.00800     H ( 1.00)

     No symmetry found

   Cartesian axes

     site n.     atom                  positions (alat units)
         1           Ti1 tau(   1) = (   0.0004258   2.9801865   6.0000000  )
         2           Ti1 tau(   2) = (   3.2906075   1.4906267   6.0002472  )
         3           O1  tau(   3) = (   0.0006271   0.0005054   7.9858123  )
         4           O1  tau(   4) = (   3.2906025   0.0005020   7.3038282  )
         5           O1  tau(   5) = (   4.5942328   1.4918067   9.2879030  )
         6           O1  tau(   6) = (   1.9868534   1.4903216   9.2879459  )
         7           Ti1 tau(   7) = (   3.2907910   2.8959150   9.1758416  )
         8           Ti1 tau(   8) = (   0.0015273   1.4827037   9.2680791  )
         9           O1  tau(   9) = (   3.2974950   5.9468587  11.3331085  )
        10           O1  tau(  10) = (   0.0116148   5.9584955  10.6183126  )
        11           O1  tau(  11) = (   1.3019594   1.4757037  12.6170356  )
        12           O1  tau(  12) = (   5.2841045   1.4688878  12.6073194  )
        13           Ti1 tau(  13) = (   0.0658538   3.0089988  12.6217963  )
        14           Ti1 tau(  14) = (   3.3903573   1.4765488  12.4775701  )
        15           O1  tau(  15) = (   6.5762050   0.0002902  14.6414759  )
        16           O1  tau(  16) = (   3.3078303   5.9588356  13.9306596  )
        17           O1  tau(  17) = (   4.5399328   1.5113171  16.0740780  )
        18           O1  tau(  18) = (   2.0525891   1.5105181  16.0861438  )
        19           Ti1 tau(  19) = (   3.3041007   2.9930787  15.6963055  )
        20           Ti1 tau(  20) = (   0.0280933   1.5113244  15.8467906  )
        21           O1  tau(  21) = (   3.2904802   0.0005063   4.7018136  )
        22           O1  tau(  22) = (   0.0368235   0.0128086  17.1990618  )
        23           O1  tau(  23) = (   1.3043587   1.4918075   6.0039043  )
        24           O1  tau(  24) = (   5.2767064   1.4903225   6.0039473  )
        25           Ti1 tau(  25) = (   0.0000382   5.9609847   6.0000000  )
        26           Ti1 tau(  26) = (   3.2902200   4.4714249   6.0002472  )
        27           O1  tau(  27) = (   0.0002396   2.9813036   7.9858123  )
        28           O1  tau(  28) = (   3.2902150   2.9813002   7.3038282  )
        29           O1  tau(  29) = (   4.5938453   4.4726049   9.2879030  )
        30           O1  tau(  30) = (   1.9864658   4.4711199   9.2879459  )
        31           Ti1 tau(  31) = (   3.2891106   5.8743827   9.1763621  )
        32           Ti1 tau(  32) = (   0.0006254   4.4649316   9.2693709  )
        33           O1  tau(  33) = (   3.3000731   2.9737533  11.3293525  )
        34           O1  tau(  34) = (   0.0092240   2.9805883  10.6323155  )
        35           O1  tau(  35) = (   1.3001503   4.4664650  12.6348062  )
        36           O1  tau(  36) = (   5.2875254   4.4541756  12.6228532  )
        37           Ti1 tau(  37) = (   0.0765437   0.0243871  12.5594496  )
        38           Ti1 tau(  38) = (   3.3883988   4.4566399  12.4818539  )
        39           O1  tau(  39) = (   0.0169469   2.9261715  14.6451004  )
        40           O1  tau(  40) = (   3.3035743   2.9719493  13.9037931  )
        41           O1  tau(  41) = (   4.5445893   4.4635849  16.0933648  )
        42           O1  tau(  42) = (   2.0554864   4.4706235  16.0676963  )
        43           Ti1 tau(  43) = (   3.3300396   0.0018144  15.7250798  )
        44           Ti1 tau(  44) = (   0.0441581   4.6348571  16.0952712  )
        45           O1  tau(  45) = (   3.2900926   2.9813045   4.7018136  )
        46           O1  tau(  46) = (   1.3039711   4.4726057   6.0039043  )
        47           O1  tau(  47) = (   5.2763189   4.4711207   6.0039473  )
        48           N1  tau(  48) = (   1.0252718   2.8101955  18.5330041  )
        49           N1  tau(  49) = (   0.0004950   2.9467621  17.4444712  )
        50           C1  tau(  50) = (   1.2122298   3.5280882  19.5702009  )
        51           H1  tau(  51) = (   0.5037382   4.3646449  19.6222421  )
        52           H1  tau(  52) = (   1.5845460   1.9874866  18.3412699  )
        53           H1  tau(  53) = (   5.6894004   2.9582294  17.9538253  )

     number of k points=    10  Fermi-Dirac smearing, width (Ry)=  0.0073
                       cart. coord. in units 2pi/alat
        k(    1) = (   0.0000000   0.0000000   0.0000000), wk =   0.1250000
        k(    2) = (   0.0000000   0.0419351   0.0000000), wk =   0.2500000
        k(    3) = (   0.0000000  -0.0838702   0.0000000), wk =   0.1250000
        k(    4) = (   0.0379955   0.0000049   0.0000000), wk =   0.2500000
        k(    5) = (   0.0379955   0.0419400   0.0000000), wk =   0.2500000
        k(    6) = (   0.0379955  -0.0838652   0.0000000), wk =   0.2500000
        k(    7) = (   0.0379955  -0.0419301   0.0000000), wk =   0.2500000
        k(    8) = (  -0.0759910  -0.0000099   0.0000000), wk =   0.1250000
        k(    9) = (  -0.0759910   0.0419252   0.0000000), wk =   0.2500000
        k(   10) = (  -0.0759910  -0.0838800   0.0000000), wk =   0.1250000

     Initial potential from superposition of free atoms

     starting charge  378.99916, renormalised to  395.00000

     negative rho (up, down):  1.643E-02 0.000E+00

     %%%%%%%%%%%%%%%%%%%%%%%%%%%%%%%%%%%%%%%%%%%%%%%%%%%%%%%%%%%%%%%%%%%%%%%%
     %                                                                      %
     % You are using vdW-DF, which was implemented by the Thonhauser group. %
     % Please cite the following two papers that made this development      %
     % possible and the two reviews that describe the various versions:     %
     %                                                                      %
     %   T. Thonhauser et al., PRL 115, 136402 (2015).                      %
     %   T. Thonhauser et al., PRB 76, 125112 (2007).                       %
     %   K. Berland et al., Rep. Prog. Phys. 78, 066501 (2015).             %
     %   D.C. Langreth et al., J. Phys.: Condens. Matter 21, 084203 (2009). %
     %                                                                      %
     %                                                                      %
     % If you are calculating the stress with vdW-DF, please also cite:     %
     %                                                                      %
     %   R. Sabatini et al., J. Phys.: Condens. Matter 24, 424209 (2012).   %
     %                                                                      %
     %%%%%%%%%%%%%%%%%%%%%%%%%%%%%%%%%%%%%%%%%%%%%%%%%%%%%%%%%%%%%%%%%%%%%%%%

     Adding external electric field

     Computed dipole along edir(3) :
        Dipole               -8.5017 Ry au,        -21.6093 Debye
        Dipole field         -0.0160 Ry au,

        Potential amp.        1.4872 Ry
        Total length         46.3494 bohr

     Starting wfcs are  299 atomic wfcs
  @ DRIVER MODE: Message from server: STATUS
  @ DRIVER MODE: Message from server: POSDATA
  @ DRIVER MODE: Reading and sharing cell
  @ DRIVER MODE: Reading and sharing positions
  @ DRIVER MODE: Received positions

     Self-consistent Calculation

     iteration #  1     ecut=    29.40 Ry     beta= 0.05
     Davidson diagonalization with overlap
     c_bands:  1 eigenvalues not converged
     c_bands:  1 eigenvalues not converged
     c_bands:  2 eigenvalues not converged
     c_bands:  3 eigenvalues not converged
     c_bands:  3 eigenvalues not converged
     c_bands:  1 eigenvalues not converged
     c_bands:  1 eigenvalues not converged
     ethr =  1.00E-05,  avg # of iterations = 19.2

[...]

     total energy              =   -2621.17018568 Ry
     estimated scf accuracy    <    3530.64308275 Ry

[...]

     iteration #  3     ecut=    29.40 Ry     beta= 0.05
     Davidson diagonalization with overlap
     ethr =  1.00E-02,  avg # of iterations = 14.8

[...]

     iteration # 62     ecut=    29.40 Ry     beta= 0.05
     Davidson diagonalization with overlap
     c_bands:  1 eigenvalues not converged
     ethr =  4.18E-08,  avg # of iterations =  3.1

[...]

     total energy              =   -2939.04794944 Ry
     estimated scf accuracy    <       0.00000008 Ry

     iteration # 77     ecut=    29.40 Ry     beta= 0.05
     Davidson diagonalization with overlap
     ethr =  1.97E-11,  avg # of iterations =  5.0

     negative rho (up, down):  1.569E-02 0.000E+00

     Adding external electric field

     Computed dipole along edir(3) :
        Dipole                0.0381 Ry au,          0.0967 Debye
        Dipole field          0.0001 Ry au,

        Potential amp.       -0.0067 Ry
        Total length         46.3494 bohr

     End of self-consistent calculation

          k = 0.0000 0.0000 0.0000 ( 18029 PWs)   bands (ev):

   -56.2420 -56.2359 -56.2079 -56.1999 -56.1514 -56.0799 -56.0786 -56.0501
   -56.0430 -56.0161 -56.0142 -55.9806 -55.7919 -55.5262 -55.2186 -55.1846
   -32.7924 -32.7241 -32.5930 -32.5800 -32.5606 -32.5488 -32.5351 -32.5049
   -32.4844 -32.4834 -32.4570 -32.4457 -32.4171 -32.3941 -32.3885 -32.3784
   -32.3771 -32.3460 -32.3307 -32.2990 -32.2915 -32.2889 -32.2655 -32.2451
   -32.2424 -32.2375 -32.2374 -32.2247 -32.2171 -32.2020 -32.1960 -32.1938
   -32.1892 -32.1805 -32.1672 -32.1569 -32.1264 -32.0440 -31.9816 -31.8042
   -31.7879 -31.7281 -31.6257 -31.5374 -31.5150 -31.4424 -31.3559 -31.2448
   -17.3420 -16.9917 -16.7189 -16.5116 -16.3981 -16.3662 -16.2665 -16.0831
   -15.9592 -15.9291 -15.8295 -15.8024 -15.7782 -15.7682 -15.7449 -15.7371
   -15.6899 -15.6836 -15.6714 -15.6560 -15.6026 -15.5776 -15.5498 -15.4407
   -15.4342 -15.4006 -15.3742 -15.2980 -15.2920 -14.8330 -13.7215 -13.6051
   -12.7469  -8.6605  -5.3425  -4.3666  -4.2247  -4.1948  -4.1473  -4.0955
    -3.8800  -3.8144  -3.7629  -3.5985  -3.4708  -3.4295  -3.4168  -3.4009
    -3.3715  -3.1451  -3.1199  -3.0558  -3.0326  -3.0268  -3.0158  -3.0060
    -2.9857  -2.9677  -2.8967  -2.7909  -2.7202  -2.6693  -2.6214  -2.6149
    -2.5539  -2.5110  -2.5034  -2.4862  -2.4810  -2.4748  -2.4349  -2.4262
    -2.2900  -2.2299  -2.0974  -2.0596  -2.0400  -1.8917  -1.8489  -1.7551
    -1.6881  -1.6708  -1.6617  -1.6325  -1.5471  -1.5267  -1.4060  -1.3837
    -1.3431  -1.2685  -1.2575  -1.2366  -1.1340  -1.1188  -1.0132  -1.0061
    -0.9996  -0.9823  -0.9227  -0.7351  -0.7125  -0.6838  -0.6643  -0.6302
    -0.5542  -0.5240  -0.4338  -0.4212  -0.3622  -0.3405  -0.3174  -0.2675
    -0.2620  -0.2500  -0.2462  -0.2304  -0.0548   0.0065   0.0634   0.1146
     0.1304   0.2872   0.3361   0.4154   0.5002   0.7286   0.8030   0.8403
     0.8913   0.9952   1.3743   1.4199   2.4459   2.8987   2.9789   3.0289
     3.0390   3.1324   3.1396   3.3471   3.3686   3.3737   3.4384

[...]

          k = 0.0380-0.0419 0.0000 ( 17876 PWs)   bands (ev):

[...]

          k =-0.0760-0.0000 0.0000 ( 17886 PWs)   bands (ev):

[...]

          k =-0.0760-0.0839 0.0000 ( 17948 PWs)   bands (ev):

   -56.2253 -56.2245 -56.2186 -56.2169 -56.1469 -56.0842 -56.0653 -56.0563
   -56.0340 -56.0316 -55.9978 -55.9972 -55.7908 -55.5271 -55.2016 -55.2015
   -32.5974 -32.5946 -32.5397 -32.5391 -32.5291 -32.5208 -32.5200 -32.5018
   -32.4440 -32.4431 -32.4369 -32.4339 -32.4094 -32.3744 -32.3628 -32.3585
   -32.3511 -32.3482 -32.3451 -32.3447 -32.3438 -32.3369 -32.3347 -32.2875
   -32.2860 -32.2751 -32.2571 -32.2469 -32.2325 -32.2321 -32.2296 -32.2292
   -32.2127 -32.2119 -32.2043 -32.2021 -32.1354 -32.0465 -31.9768 -31.8612
   -31.7971 -31.7528 -31.5277 -31.5276 -31.4385 -31.4383 -31.3992 -31.3992
   -17.3256 -16.4422 -16.4106 -16.1840 -16.1740 -16.1594 -16.1556 -16.0191
   -15.9513 -15.9482 -15.9410 -15.9098 -15.8823 -15.8445 -15.7996 -15.7767
   -15.7761 -15.7645 -15.7577 -15.7042 -15.6990 -15.6773 -15.6703 -15.5690
   -15.5574 -15.5539 -15.5016 -15.4126 -15.2843 -15.0073 -13.7070 -13.7068
   -12.7576  -8.6659  -5.3395  -3.8889  -3.7331  -3.6960  -3.5321  -3.4126
    -3.4097  -3.3987  -3.3257  -3.1581  -3.1438  -3.1212  -3.0971  -3.0700
    -3.0699  -3.0556  -3.0496  -3.0305  -3.0074  -2.9718  -2.9335  -2.9293
    -2.9068  -2.8969  -2.8711  -2.8571  -2.8278  -2.8162  -2.7999  -2.7823
    -2.7635  -2.7478  -2.5980  -2.4746  -2.4411  -2.3784  -2.3701  -2.3513
    -2.3171  -2.3054  -2.2925  -2.2308  -2.1300  -1.9933  -1.9455  -1.9391
    -1.9066  -1.8275  -1.8154  -1.6696  -1.6558  -1.6279  -1.5896  -1.5352
    -1.5192  -1.4683  -1.4070  -1.3933  -1.3615  -1.3324  -1.2558  -1.2049
    -1.2020  -1.1839  -1.1256  -1.0389  -1.0276  -1.0121  -1.0037  -0.9542
    -0.8772  -0.8632  -0.8309  -0.7467  -0.7292  -0.6304  -0.5472  -0.3443
    -0.2633  -0.2166  -0.1698  -0.1373  -0.0337   0.0126   0.0281   0.0649
     0.0781   0.1244   0.1828   0.2906   0.2975   0.3584   0.4679   0.8052
     1.1667   1.1675   1.2395   1.2398   2.4042   3.1581   3.1664   3.2224
     3.2448   3.3956   3.4012   3.4258   3.4271   3.5461   3.5640

     the Fermi energy is     2.8934 ev

!    total energy              =   -2939.04795753 Ry
     estimated scf accuracy    <       0.00000006 Ry
     smearing contrib. (-TS)   =      -0.02305693 Ry
     internal energy E=F+TS    =   -2939.02490060 Ry

     The total energy is F=E-TS. E is the sum of the following terms:
     one-electron contribution =  -24314.87509793 Ry
     hartree contribution      =   12241.24639578 Ry
     xc contribution           =    -485.12543571 Ry
     ewald contribution        =    9619.72923453 Ry
     electric field correction =       0.00000273 Ry

     convergence has been achieved in  77 iterations

     Forces acting on atoms (cartesian axes, Ry/au):

     atom    1 type  1   force =     0.00026795   -0.00023831    0.09665365
     atom    2 type  1   force =    -0.00019223   -0.00052041   -0.17528793
     atom    3 type  2   force =    -0.00000346   -0.00007786   -0.02504052
     atom    4 type  2   force =     0.00005893   -0.00154509    0.05296729
     atom    5 type  2   force =    -0.01217298   -0.00104253    0.00344067
     atom    6 type  2   force =     0.01405386   -0.00028276    0.00273173
     atom    7 type  1   force =    -0.00095579    0.00049088   -0.01194306
     atom    8 type  1   force =     0.00044531    0.00875381    0.02923861
     atom    9 type  2   force =     0.00051677    0.00030631   -0.00016477
     atom   10 type  2   force =    -0.00089653   -0.00020211   -0.01708526
     atom   11 type  2   force =     0.00036605    0.00019210    0.00037496
     atom   12 type  2   force =    -0.00104933    0.00081857    0.00051475
     atom   13 type  1   force =     0.00146184    0.00081960   -0.00015898
     atom   14 type  1   force =    -0.00125584    0.00036074   -0.00031017
     atom   15 type  2   force =    -0.00040868    0.00072152    0.00057267
     atom   16 type  2   force =     0.00033590   -0.00036311   -0.00010970
     atom   17 type  2   force =     0.00106017    0.00041566    0.00007304
     atom   18 type  2   force =    -0.00042278   -0.00007012   -0.00040339
     atom   19 type  1   force =    -0.00029413   -0.00052461   -0.00008821
     atom   20 type  1   force =     0.00030219   -0.00042993   -0.00000424
     atom   21 type  2   force =     0.00008178   -0.00005896    0.10319452
     atom   22 type  2   force =    -0.00007057    0.00162730    0.00038394
     atom   23 type  2   force =    -0.07147625   -0.00015375   -0.02775162
     atom   24 type  2   force =     0.07142560    0.00026892   -0.02775232
     atom   25 type  1   force =     0.00007842   -0.00022543    0.09649134
     atom   26 type  1   force =    -0.00013782   -0.00034295   -0.17546666
     atom   27 type  2   force =     0.00006269   -0.00023871   -0.02407372
     atom   28 type  2   force =     0.00011683   -0.00128149    0.05274037
     atom   29 type  2   force =    -0.01228459    0.00002351    0.00300727
     atom   30 type  2   force =     0.01405476    0.00040403    0.00237556
     atom   31 type  1   force =    -0.00095646    0.00315614   -0.01289076
     atom   32 type  1   force =     0.00028899   -0.01002090    0.02993289
     atom   33 type  2   force =     0.00026155   -0.00013882    0.00048283
     atom   34 type  2   force =    -0.00003659    0.00000311   -0.02435328
     atom   35 type  2   force =    -0.00033352    0.00021056   -0.00026410
     atom   36 type  2   force =    -0.00113073    0.00054370   -0.00004485
     atom   37 type  1   force =     0.00122532   -0.00092658    0.00038590
     atom   38 type  1   force =    -0.00093560   -0.00057106   -0.00009194
     atom   39 type  2   force =    -0.00037342   -0.00061670    0.00081517
     atom   40 type  2   force =     0.00009777    0.00054604    0.00020075
     atom   41 type  2   force =    -0.00073947   -0.00028431   -0.00007603
     atom   42 type  2   force =     0.00183042   -0.00009135   -0.00032955
     atom   43 type  1   force =    -0.00074311    0.00029868   -0.00048854
     atom   44 type  1   force =     0.00010595    0.00043270   -0.00021432
     atom   45 type  2   force =     0.00005596   -0.00008630    0.10319748
     atom   46 type  2   force =    -0.07150234   -0.00016124   -0.02773685
     atom   47 type  2   force =     0.07147309    0.00033688   -0.02777782
     atom   48 type  3   force =     0.00210794   -0.00053196   -0.00032466
     atom   49 type  3   force =    -0.01640875    0.00042137    0.00554091
     atom   50 type  4   force =     0.00094396    0.00117215    0.00168702
     atom   51 type  5   force =    -0.00016806    0.00091999   -0.00072382
     atom   52 type  5   force =     0.00141332   -0.00157061    0.00013750
     atom   53 type  5   force =     0.01045569   -0.00064634   -0.00618380

     Total force =     0.368960     Total SCF correction =     0.000687
  @ DRIVER MODE: Message from server: STATUS
  @ DRIVER MODE: Message from server: GETFORCE
  @ DRIVER MODE: Returning v,forces,stress,ensemble

     Writing output data file ./calc.save/
  @ DRIVER MODE: Message from server: EXIT
  @ DRIVE MODE: Exiting

     General routines

     Parallel routines

   This run was terminated on:  13:27:52  10Sep2021

   JOB DONE.