     Program PWSCF v.6.7GPU starts on 15Sep2021 at 23:12:25

     R & G space division:  proc/nbgrp/npool/nimage =      10
     Reading input from /storage/home/hcoda1/3/ntian30/research/carbon/CxH_vib/H2O_calc/ads_slab/CH3NHNHH2O_a/out_0023/pw.inp
Warning: card &CELL ignored
Warning: card   CELL_DYNAMICS='IPI', ignored
Warning: card / ignored

     Current dimensions of program PWSCF are:
     Max number of different atomic species (ntypx) = 10
     Max number of k-points (npk) =  40000
     Max angular momentum in pseudopotentials (lmaxx) =  3
     Presently no symmetry can be used with electric field

     Message from routine cell_base_init:
     DEPRECATED: use true lattice parameter, not A to a.u. conversion factor

     IMPORTANT: XC functional enforced from input :
     Exchange-correlation= BEEF-VDW
                           (   1   4  43  14   2   0   0)
     Any further DFT definition will be discarded
     Please, verify this is what you really want

  @ DRIVER MODE: Connecting to
 qe_1139763_2852620.sched-torque.pace.gatech.edumr83joto_scratch
  using UNIX socket
  @ DRIVER MODE: Message from server: STATUS
  @ DRIVER MODE: Message from server: INIT
  @ DRIVER MODE: Receiving replica           0          -1
  @ DRIVER MODE: Receiving encoded integer          25
  @ DRIVER MODE:  SCF:  T  FORCE:  T  STRESS:  F  VC:  F  ENSEMBLE:  F
  @ DRIVER MODE:  SCF:  T  FORCE:  T  STRESS:  F  VC:  F  ENSEMBLE:  F

     Using Slab Decomposition

     bravais-lattice index     =            0
     lattice parameter (alat)  =       1.8897  a.u.
     unit-cell volume          =    6658.9804 (a.u.)^3
     number of atoms/cell      =           58
     number of atomic types    =            5
     number of electrons       =       405.00
     number of Kohn-Sham states=          212
     kinetic-energy cutoff     =      29.3995  Ry
     charge density cutoff     =     293.9946  Ry
     scf convergence threshold =      7.3E-08
     mixing beta               =       0.0500
     number of iterations used =            8  plain     mixing
     Exchange-correlation= BEEF-VDW
                           (   1   4  43  14   2   0   0)

     celldm(1)=   1.889726  celldm(2)=   0.000000  celldm(3)=   0.000000
     celldm(4)=   0.000000  celldm(5)=   0.000000  celldm(6)=   0.000000

     crystal axes: (cart. coord. in units of alat)
               a(1) = (   6.579727   0.000000   0.000000 )
               a(2) = (  -0.000775   5.961596   0.000000 )
               a(3) = (   0.000000   0.000000  25.155947 )

     reciprocal axes: (cart. coord. in units 2 pi/alat)
               b(1) = (  0.151982  0.000020  0.000000 )
               b(2) = (  0.000000  0.167740  0.000000 )
               b(3) = (  0.000000  0.000000  0.039752 )

     PseudoPot. # 1 for Ti read from file:
     /storage/coda1/p-amedford6/0/shared/rich_project_chbe-medford/medford-share/data/pseudos_module/espresso/nninc/pbe/van/Ti.UPF
     MD5 check sum: 8e4df49b7f0d34bbd5052bf3f5ea0213
     Pseudo is Ultrasoft, Zval = 12.0
     Generated by new atomic code, or converted to UPF format
     Using radial grid of  851 points,  6 beta functions with:
                l(1) =   0
                l(2) =   0
                l(3) =   1
                l(4) =   1
                l(5) =   2
                l(6) =   2
     Q(r) pseudized with  8 coefficients,  rinner =    1.000   1.000   1.000
                                                       1.000   1.000

     PseudoPot. # 2 for O  read from file:
     /storage/coda1/p-amedford6/0/shared/rich_project_chbe-medford/medford-share/data/pseudos_module/espresso/nninc/pbe/van/O.UPF
     MD5 check sum: 78c19812648e8988a0fe644b0f25305e
     Pseudo is Ultrasoft, Zval =  6.0
     Generated by new atomic code, or converted to UPF format
     Using radial grid of  737 points,  4 beta functions with:
                l(1) =   0
                l(2) =   0
                l(3) =   1
                l(4) =   1
     Q(r) pseudized with  8 coefficients,  rinner =    0.800   0.800   0.800

     PseudoPot. # 3 for N  read from file:
     /storage/coda1/p-amedford6/0/shared/rich_project_chbe-medford/medford-share/data/pseudos_module/espresso/nninc/pbe/van/N.UPF
     MD5 check sum: 90d10febe142ad51ac9d5be1deb811c4
     Pseudo is Ultrasoft, Zval =  5.0
     Generated by new atomic code, or converted to UPF format
     Using radial grid of  729 points,  4 beta functions with:
                l(1) =   0
                l(2) =   0
                l(3) =   1
                l(4) =   1
     Q(r) pseudized with  8 coefficients,  rinner =    0.800   0.800   0.800

     PseudoPot. # 4 for C  read from file:
     /storage/coda1/p-amedford6/0/shared/rich_project_chbe-medford/medford-share/data/pseudos_module/espresso/nninc/pbe/van/C.UPF
     MD5 check sum: 1a69bf6b8db32088f5b2163dbdb77a27
     Pseudo is Ultrasoft, Zval =  4.0
     Generated by new atomic code, or converted to UPF format
     Using radial grid of  721 points,  4 beta functions with:
                l(1) =   0
                l(2) =   0
                l(3) =   1
                l(4) =   1
     Q(r) pseudized with  8 coefficients,  rinner =    0.800   0.800   0.800

     PseudoPot. # 5 for H  read from file:
     /storage/coda1/p-amedford6/0/shared/rich_project_chbe-medford/medford-share/data/pseudos_module/espresso/nninc/pbe/van/H.UPF
     MD5 check sum: b5ee9d7bfd3a09ee7748110bda690ff7
     Pseudo is Ultrasoft, Zval =  1.0
     Generated by new atomic code, or converted to UPF format
     Using radial grid of  615 points,  1 beta functions with:
                l(1) =   0
     Q(r) pseudized with  8 coefficients,  rinner =    0.800

     atomic species   valence    mass     pseudopotential
        Ti1           12.00    47.86700     Ti( 1.00)
        O1             6.00    15.99900     O ( 1.00)
        N1             5.00    14.00700     N ( 1.00)
        C1             4.00    12.01100     C ( 1.00)
        H1             1.00     1.00800     H ( 1.00)

     No symmetry found

   Cartesian axes

     site n.     atom                  positions (alat units)
         1           Ti1 tau(   1) = (   0.0004258   2.9801865   6.0000000  )
         2           Ti1 tau(   2) = (   3.2906075   1.4906267   6.0002472  )
         3           O1  tau(   3) = (   0.0006271   0.0005054   7.9858123  )
         4           O1  tau(   4) = (   3.2906025   0.0005020   7.3038282  )
         5           O1  tau(   5) = (   4.5942328   1.4918067   9.2879030  )
         6           O1  tau(   6) = (   1.9868534   1.4903216   9.2879459  )
         7           Ti1 tau(   7) = (   3.2907910   2.8959150   9.1758416  )
         8           Ti1 tau(   8) = (   0.0015273   1.4827037   9.2680791  )
         9           O1  tau(   9) = (   3.2925356   5.9605122  11.3387169  )
        10           O1  tau(  10) = (   0.0116148   5.9584955  10.6183126  )
        11           O1  tau(  11) = (   1.2897729   1.4809555  12.6268520  )
        12           O1  tau(  12) = (   5.2791511   1.4810064  12.6173870  )
        13           Ti1 tau(  13) = (   0.0595640   3.0140846  12.5912772  )
        14           Ti1 tau(  14) = (   3.3761946   1.4800080  12.4968112  )
        15           O1  tau(  15) = (   6.5629824   0.0009262  14.6613707  )
        16           O1  tau(  16) = (   3.3123588   5.9604043  13.9421911  )
        17           O1  tau(  17) = (   4.5376415   1.5680301  16.0260299  )
        18           O1  tau(  18) = (   2.0142527   1.4857506  15.9764776  )
        19           Ti1 tau(  19) = (   3.2467940   3.0138708  15.6952036  )
        20           Ti1 tau(  20) = (   6.5376764   1.5432071  15.7832198  )
        21           O1  tau(  21) = (   3.2904802   0.0005063   4.7018136  )
        22           O1  tau(  22) = (   6.4898080   0.0110182  17.2547379  )
        23           O1  tau(  23) = (   1.3043587   1.4918075   6.0039043  )
        24           O1  tau(  24) = (   5.2767064   1.4903225   6.0039473  )
        25           Ti1 tau(  25) = (   0.0000382   5.9609847   6.0000000  )
        26           Ti1 tau(  26) = (   3.2902200   4.4714249   6.0002472  )
        27           O1  tau(  27) = (   0.0002396   2.9813036   7.9858123  )
        28           O1  tau(  28) = (   3.2902150   2.9813002   7.3038282  )
        29           O1  tau(  29) = (   4.5938453   4.4726049   9.2879030  )
        30           O1  tau(  30) = (   1.9864658   4.4711199   9.2879459  )
        31           Ti1 tau(  31) = (   3.2891106   5.8743827   9.1763621  )
        32           Ti1 tau(  32) = (   0.0006254   4.4649316   9.2693709  )
        33           O1  tau(  33) = (   3.2967638   2.9790471  11.3409087  )
        34           O1  tau(  34) = (   0.0092240   2.9805883  10.6323155  )
        35           O1  tau(  35) = (   1.2869154   4.4778632  12.6304858  )
        36           O1  tau(  36) = (   5.2845859   4.4648683  12.6187650  )
        37           Ti1 tau(  37) = (   0.0627082   0.0241251  12.5486904  )
        38           Ti1 tau(  38) = (   3.3788516   4.4738568  12.4976958  )
        39           O1  tau(  39) = (   6.5772583   2.9562949  14.6416036  )
        40           O1  tau(  40) = (   3.2725681   2.9944745  13.9013672  )
        41           O1  tau(  41) = (   4.5452577   4.4055011  16.0651929  )
        42           O1  tau(  42) = (   2.0228361   4.5129635  16.0417754  )
        43           Ti1 tau(  43) = (   3.2583029   0.0391736  15.7773877  )
        44           Ti1 tau(  44) = (   6.5476622   4.6515957  16.1089089  )
        45           O1  tau(  45) = (   3.2900926   2.9813045   4.7018136  )
        46           O1  tau(  46) = (   1.3039711   4.4726057   6.0039043  )
        47           O1  tau(  47) = (   5.2763189   4.4711207   6.0039473  )
        48           N1  tau(  48) = (   1.2275869   2.8250850  18.3327965  )
        49           N1  tau(  49) = (   0.1007212   2.9268546  17.4424539  )
        50           C1  tau(  50) = (   0.9834745   3.5098297  19.5973225  )
        51           H1  tau(  51) = (   0.0800711   3.1483545  20.1077682  )
        52           H1  tau(  52) = (   1.8428167   3.3484677  20.2521386  )
        53           H1  tau(  53) = (   0.8645268   4.5787652  19.4145101  )
        54           H1  tau(  54) = (   1.4038961   1.8348574  18.5000659  )
        55           H1  tau(  55) = (   5.8167727   2.7947134  17.9807349  )
        56           O1  tau(  56) = (   3.6251350   0.0523402  18.1652986  )
        57           H1  tau(  57) = (   4.6063402   0.0342754  18.1216558  )
        58           H1  tau(  58) = (   3.3562690   5.1322054  18.4688733  )

     number of k points=    10  Fermi-Dirac smearing, width (Ry)=  0.0073
                       cart. coord. in units 2pi/alat
        k(    1) = (   0.0000000   0.0000000   0.0000000), wk =   0.1250000
        k(    2) = (   0.0000000   0.0419351   0.0000000), wk =   0.2500000
        k(    3) = (   0.0000000  -0.0838702   0.0000000), wk =   0.1250000
        k(    4) = (   0.0379955   0.0000049   0.0000000), wk =   0.2500000
        k(    5) = (   0.0379955   0.0419400   0.0000000), wk =   0.2500000
        k(    6) = (   0.0379955  -0.0838652   0.0000000), wk =   0.2500000
        k(    7) = (   0.0379955  -0.0419301   0.0000000), wk =   0.2500000
        k(    8) = (  -0.0759910  -0.0000099   0.0000000), wk =   0.1250000
        k(    9) = (  -0.0759910   0.0419252   0.0000000), wk =   0.2500000
        k(   10) = (  -0.0759910  -0.0838800   0.0000000), wk =   0.1250000

     Initial potential from superposition of free atoms

     starting charge  388.99913, renormalised to  405.00000

     negative rho (up, down):  1.445E-02 0.000E+00

     %%%%%%%%%%%%%%%%%%%%%%%%%%%%%%%%%%%%%%%%%%%%%%%%%%%%%%%%%%%%%%%%%%%%%%%%
     %                                                                      %
     % You are using vdW-DF, which was implemented by the Thonhauser group. %
     % Please cite the following two papers that made this development      %
     % possible and the two reviews that describe the various versions:     %
     %                                                                      %
     %   T. Thonhauser et al., PRL 115, 136402 (2015).                      %
     %   T. Thonhauser et al., PRB 76, 125112 (2007).                       %
     %   K. Berland et al., Rep. Prog. Phys. 78, 066501 (2015).             %
     %   D.C. Langreth et al., J. Phys.: Condens. Matter 21, 084203 (2009). %
     %                                                                      %
     %                                                                      %
     % If you are calculating the stress with vdW-DF, please also cite:     %
     %                                                                      %
     %   R. Sabatini et al., J. Phys.: Condens. Matter 24, 424209 (2012).   %
     %                                                                      %
     %%%%%%%%%%%%%%%%%%%%%%%%%%%%%%%%%%%%%%%%%%%%%%%%%%%%%%%%%%%%%%%%%%%%%%%%

     Adding external electric field

     Computed dipole along edir(3) :
        Dipole              -14.1493 Ry au,        -35.9640 Debye
        Dipole field         -0.0267 Ry au,

        Potential amp.        2.4752 Ry
        Total length         46.3494 bohr

     Starting wfcs are  307 atomic wfcs
  @ DRIVER MODE: Message from server: STATUS
  @ DRIVER MODE: Message from server: POSDATA
  @ DRIVER MODE: Reading and sharing cell
  @ DRIVER MODE: Reading and sharing positions
  @ DRIVER MODE: Received positions

     Self-consistent Calculation

     iteration #  1     ecut=    29.40 Ry     beta= 0.05
     Davidson diagonalization with overlap
     c_bands:  4 eigenvalues not converged
     c_bands:  1 eigenvalues not converged
     c_bands:  1 eigenvalues not converged
     c_bands:  3 eigenvalues not converged
     c_bands:  2 eigenvalues not converged
     ethr =  1.00E-05,  avg # of iterations = 29.4

[...]

     total energy              =   -2232.56339270 Ry
     estimated scf accuracy    <    8442.81288680 Ry

     iteration #  2     ecut=    29.40 Ry     beta= 0.05
     Davidson diagonalization with overlap
     ethr =  1.00E-02,  avg # of iterations = 29.9

[...]

     iteration # 47     ecut=    29.40 Ry     beta= 0.05
     Davidson diagonalization with overlap
     c_bands:  1 eigenvalues not converged
     ethr =  4.02E-08,  avg # of iterations = 13.8

[...]

     total energy              =   -2976.50548319 Ry
     estimated scf accuracy    <       0.00000010 Ry

     iteration # 61     ecut=    29.40 Ry     beta= 0.05
     Davidson diagonalization with overlap
     ethr =  2.37E-11,  avg # of iterations =  7.6

     negative rho (up, down):  1.505E-02 0.000E+00

     Adding external electric field

     Computed dipole along edir(3) :
        Dipole                0.9869 Ry au,          2.5083 Debye
        Dipole field          0.0019 Ry au,

        Potential amp.       -0.1726 Ry
        Total length         46.3494 bohr

     End of self-consistent calculation

          k = 0.0000 0.0000 0.0000 ( 18029 PWs)   bands (ev):

   -55.5094 -55.4790 -55.4754 -55.4455 -55.4429 -55.3577 -55.3269 -55.3249
   -55.3226 -55.2930 -55.2917 -55.2580 -55.0495 -54.8850 -54.4923 -54.4582
   -32.0232 -31.9932 -31.8815 -31.8589 -31.8250 -31.8019 -31.7834 -31.7819
   -31.7539 -31.7105 -31.6990 -31.6792 -31.6761 -31.6615 -31.6560 -31.6342
   -31.6150 -31.6096 -31.6084 -31.5762 -31.5664 -31.5576 -31.5316 -31.5197
   -31.5171 -31.5150 -31.5121 -31.5064 -31.4912 -31.4832 -31.4799 -31.4704
   -31.4679 -31.4565 -31.4451 -31.4359 -31.4039 -31.3052 -31.2599 -31.1483
   -31.1399 -31.0757 -30.8994 -30.8107 -30.7883 -30.7162 -30.6297 -30.5186
   -18.7238 -16.5581 -16.2195 -15.9822 -15.7601 -15.6667 -15.6244 -15.4275
   -15.3332 -15.2485 -15.1282 -15.0770 -15.0513 -15.0437 -15.0302 -15.0047
   -14.9705 -14.9643 -14.9614 -14.9371 -14.9177 -14.8665 -14.8604 -14.8536
   -14.7602 -14.6961 -14.6614 -14.6481 -14.6385 -14.5729 -14.2010 -12.9942
   -12.8777 -11.6434  -8.8745  -6.4619  -5.1542  -4.2757  -3.7146  -3.5949
    -3.4660  -3.4181  -3.3723  -3.3448  -3.1501  -3.0937  -2.9418  -2.7702
    -2.6967  -2.6583  -2.6250  -2.5942  -2.5551  -2.4329  -2.4075  -2.3348
    -2.3183  -2.3073  -2.2749  -2.2651  -2.2501  -2.2318  -2.1558  -2.1471
    -2.0613  -1.9504  -1.8994  -1.8845  -1.8660  -1.8244  -1.7871  -1.7738
    -1.7606  -1.7424  -1.7291  -1.6913  -1.5757  -1.5254  -1.4473  -1.3661
    -1.2950  -1.2077  -1.1308  -1.1035  -1.0351  -1.0100  -0.9495  -0.9252
    -0.9126  -0.9047  -0.7874  -0.6794  -0.6613  -0.5915  -0.5305  -0.4540
    -0.4103  -0.3846  -0.3154  -0.2820  -0.2712  -0.2576  -0.2315  -0.2166
    -0.1604  -0.0132   0.0639   0.0824   0.1412   0.1819   0.2333   0.2586
     0.2863   0.3344   0.3657   0.4057   0.4555   0.4591   0.4711   0.4953
     0.5094   0.6686   0.7237   0.7568   0.7825   0.8312   0.9435   0.9865
     1.1403   1.2095   1.2746   1.4565   1.5304   1.6112   1.7220   2.0693
     2.1017   2.1476   3.6161   3.7085   3.7495   3.7710   3.8581   3.8604
     4.0711   4.1162   4.1243   4.1905

[...]

          k = 0.0380-0.0419 0.0000 ( 17876 PWs)   bands (ev):

[...]

          k =-0.0760-0.0000 0.0000 ( 17886 PWs)   bands (ev):

[...]

          k =-0.0760-0.0839 0.0000 ( 17948 PWs)   bands (ev):

   -55.4926 -55.4921 -55.4630 -55.4587 -55.4429 -55.3434 -55.3368 -55.3273
   -55.3100 -55.3095 -55.2760 -55.2738 -55.0480 -54.8864 -54.4752 -54.4751
   -31.8367 -31.8200 -31.8086 -31.8082 -31.7876 -31.7870 -31.7468 -31.7395
   -31.7315 -31.7035 -31.6925 -31.6734 -31.6577 -31.6560 -31.6307 -31.6284
   -31.6262 -31.6241 -31.6161 -31.6151 -31.6127 -31.6114 -31.6109 -31.5592
   -31.5509 -31.5446 -31.5366 -31.5258 -31.5117 -31.5106 -31.5062 -31.5017
   -31.4914 -31.4889 -31.4837 -31.4817 -31.4107 -31.3080 -31.2554 -31.2098
   -31.1508 -31.1033 -30.8011 -30.8010 -30.7122 -30.7121 -30.6730 -30.6730
   -18.7223 -16.5347 -15.6564 -15.5854 -15.4695 -15.4404 -15.3807 -15.3305
   -15.3130 -15.2439 -15.2077 -15.1952 -15.1432 -15.1408 -15.0928 -15.0691
   -15.0423 -15.0386 -15.0234 -14.9808 -14.9701 -14.9548 -14.9507 -14.9472
   -14.8699 -14.8342 -14.8301 -14.8252 -14.7561 -14.6223 -14.3501 -12.9795
   -12.9794 -11.6503  -8.8835  -6.4577  -5.1577  -4.2704  -3.6636  -3.0825
    -2.9416  -2.7842  -2.7186  -2.6380  -2.6370  -2.5944  -2.4680  -2.4462
    -2.4070  -2.3808  -2.3487  -2.3381  -2.3290  -2.3259  -2.3134  -2.2993
    -2.2862  -2.2468  -2.2008  -2.1854  -2.1769  -2.1723  -2.1574  -2.1455
    -2.1287  -2.1260  -2.0902  -2.0610  -2.0340  -1.9981  -1.9448  -1.7440
    -1.7166  -1.6952  -1.6698  -1.6557  -1.6439  -1.6108  -1.5724  -1.5620
    -1.4901  -1.4018  -1.3139  -1.2357  -1.2025  -1.1897  -1.1204  -1.0349
    -0.9936  -0.9545  -0.9172  -0.8574  -0.7985  -0.7603  -0.7231  -0.6415
    -0.6233  -0.6131  -0.5518  -0.5355  -0.4752  -0.4669  -0.3890  -0.3476
    -0.3109  -0.2638  -0.2362  -0.2305  -0.2117  -0.1773  -0.1692  -0.1155
     0.0010   0.0098   0.0292   0.1342   0.2226   0.4619   0.5187   0.5511
     0.6315   0.6940   0.7556   0.7766   0.7983   0.8022   0.8381   0.8988
     1.0128   1.0226   1.0612   1.1494   1.1769   1.8937   1.8945   1.9673
     1.9675   2.0727   3.9285   3.9547   3.9806   4.0164   4.1169   4.1342
     4.1565   4.1585   4.2723   4.2930

     the Fermi energy is     3.6215 ev

!    total energy              =   -2976.50554342 Ry
     estimated scf accuracy    <       0.00000004 Ry
     smearing contrib. (-TS)   =      -0.02132209 Ry
     internal energy E=F+TS    =   -2976.48422133 Ry

     The total energy is F=E-TS. E is the sum of the following terms:
     one-electron contribution =  -23892.69447889 Ry
     hartree contribution      =   12042.87791412 Ry
     xc contribution           =    -495.75745146 Ry
     ewald contribution        =    9369.08795708 Ry
     electric field correction =       0.00183783 Ry

     convergence has been achieved in  61 iterations

     Forces acting on atoms (cartesian axes, Ry/au):

     atom    1 type  1   force =     0.00014909   -0.00028110    0.09589766
     atom    2 type  1   force =    -0.00022540   -0.00063025   -0.17568314
     atom    3 type  2   force =     0.00006393   -0.00014836   -0.02381802
     atom    4 type  2   force =     0.00006475   -0.00154335    0.05350715
     atom    5 type  2   force =    -0.01128656   -0.00075715    0.00356204
     atom    6 type  2   force =     0.01298896    0.00006097    0.00268636
     atom    7 type  1   force =    -0.00096441    0.00065313   -0.00793314
     atom    8 type  1   force =     0.00042740    0.00624236    0.02297829
     atom    9 type  2   force =    -0.00005152   -0.00030773   -0.00094834
     atom   10 type  2   force =    -0.00136681    0.00128058   -0.01514161
     atom   11 type  2   force =    -0.00032322    0.00024504   -0.00023914
     atom   12 type  2   force =    -0.00021051    0.00022566   -0.00033904
     atom   13 type  1   force =     0.00074781   -0.00046384    0.00028062
     atom   14 type  1   force =    -0.00019280    0.00042544    0.00151654
     atom   15 type  2   force =     0.00000583   -0.00002399    0.00032909
     atom   16 type  2   force =     0.00026108    0.00005637    0.00010315
     atom   17 type  2   force =     0.00064856   -0.00024064    0.00034021
     atom   18 type  2   force =     0.00014871   -0.00047907    0.00039878
     atom   19 type  1   force =    -0.00127816    0.00020182    0.00066159
     atom   20 type  1   force =     0.00075468   -0.00004632   -0.00006921
     atom   21 type  2   force =     0.00008803   -0.00009272    0.10325122
     atom   22 type  2   force =    -0.00071608   -0.00046840   -0.00063988
     atom   23 type  2   force =    -0.07141091   -0.00018986   -0.02769312
     atom   24 type  2   force =     0.07138257    0.00027198   -0.02769569
     atom   25 type  1   force =     0.00002389   -0.00031009    0.09561814
     atom   26 type  1   force =    -0.00018957   -0.00031013   -0.17595443
     atom   27 type  2   force =     0.00009910   -0.00012215   -0.02292166
     atom   28 type  2   force =     0.00011546   -0.00127176    0.05315838
     atom   29 type  2   force =    -0.01153480    0.00015332    0.00361868
     atom   30 type  2   force =     0.01318782    0.00046791    0.00270950
     atom   31 type  1   force =    -0.00101166    0.00373538   -0.01104240
     atom   32 type  1   force =     0.00051287   -0.00741073    0.02337942
     atom   33 type  2   force =    -0.00023644    0.00030981   -0.00031705
     atom   34 type  2   force =    -0.00033347    0.00024600   -0.02186497
     atom   35 type  2   force =     0.00009113    0.00029956   -0.00037491
     atom   36 type  2   force =    -0.00036786    0.00030302   -0.00029865
     atom   37 type  1   force =     0.00040266    0.00056485   -0.00026070
     atom   38 type  1   force =    -0.00023144   -0.00042711    0.00135393
     atom   39 type  2   force =    -0.00007093   -0.00029855    0.00038202
     atom   40 type  2   force =     0.00032603    0.00008708   -0.00085619
     atom   41 type  2   force =     0.00117298    0.00050915    0.00013124
     atom   42 type  2   force =    -0.00067662    0.00032237   -0.00000600
     atom   43 type  1   force =    -0.00097396   -0.00106253   -0.00013994
     atom   44 type  1   force =     0.00077965    0.00051000   -0.00018276
     atom   45 type  2   force =     0.00008741   -0.00010150    0.10325059
     atom   46 type  2   force =    -0.07142070   -0.00013692   -0.02767662
     atom   47 type  2   force =     0.07142216    0.00030228   -0.02770888
     atom   48 type  3   force =     0.00060439   -0.00076949   -0.00145760
     atom   49 type  3   force =    -0.00044819    0.00041420   -0.00033406
     atom   50 type  4   force =     0.00271565    0.00162002   -0.00324054
     atom   51 type  5   force =    -0.00345008   -0.00061630    0.00398469
     atom   52 type  5   force =    -0.00103300   -0.00049831    0.00037848
     atom   53 type  5   force =     0.00058386   -0.00027526    0.00025600
     atom   54 type  5   force =     0.00008120    0.00015808    0.00006691
     atom   55 type  5   force =     0.00007765   -0.00011164    0.00051177
     atom   56 type  2   force =    -0.00076762   -0.00004810   -0.00001114
     atom   57 type  5   force =     0.00077606   -0.00005593   -0.00003935
     atom   58 type  5   force =    -0.00001868   -0.00016709    0.00057575

     Total force =     0.366794     Total SCF correction =     0.000477
  @ DRIVER MODE: Message from server: STATUS
  @ DRIVER MODE: Message from server: GETFORCE
  @ DRIVER MODE: Returning v,forces,stress,ensemble

     Writing output data file ./calc.save/
  @ DRIVER MODE: Message from server: EXIT
  @ DRIVE MODE: Exiting

     General routines

     Parallel routines

   This run was terminated on:  23:30:24  15Sep2021

   JOB DONE.