     Program PWSCF v.6.7GPU starts on 26Sep2021 at 20:31:39

     R & G space division:  proc/nbgrp/npool/nimage =       8
     Reading input from /storage/home/hcoda1/3/ntian30/research/carbon/CxH_vib/CH_calc/ads_slab/CHONHNH2_b/out_0021/pw.inp
Warning: card &CELL ignored
Warning: card   CELL_DYNAMICS='IPI', ignored
Warning: card / ignored

     Current dimensions of program PWSCF are:
     Max number of different atomic species (ntypx) = 10
     Max number of k-points (npk) =  40000
     Max angular momentum in pseudopotentials (lmaxx) =  3
     Presently no symmetry can be used with electric field

     Message from routine cell_base_init:
     DEPRECATED: use true lattice parameter, not A to a.u. conversion factor

     IMPORTANT: XC functional enforced from input :
     Exchange-correlation= BEEF-VDW
                           (   1   4  43  14   2   0   0)
     Any further DFT definition will be discarded
     Please, verify this is what you really want

  @ DRIVER MODE: Connecting to
 qe_1139763_2982672.sched-torque.pace.gatech.edum6p5c3g0_scratch
  using UNIX socket
  @ DRIVER MODE: Message from server: STATUS
  @ DRIVER MODE: Message from server: INIT
  @ DRIVER MODE: Receiving replica           0          -1
  @ DRIVER MODE: Receiving encoded integer          25
  @ DRIVER MODE:  SCF:  T  FORCE:  T  STRESS:  F  VC:  F  ENSEMBLE:  F
  @ DRIVER MODE:  SCF:  T  FORCE:  T  STRESS:  F  VC:  F  ENSEMBLE:  F

     Using Slab Decomposition

     bravais-lattice index     =            0
     lattice parameter (alat)  =       1.8897  a.u.
     unit-cell volume          =    6658.9804 (a.u.)^3
     number of atoms/cell      =           55
     number of atomic types    =            5
     number of electrons       =       402.00
     number of Kohn-Sham states=          211
     kinetic-energy cutoff     =      29.3995  Ry
     charge density cutoff     =     293.9946  Ry
     scf convergence threshold =      7.3E-08
     mixing beta               =       0.0500
     number of iterations used =            8  plain     mixing
     Exchange-correlation= BEEF-VDW
                           (   1   4  43  14   2   0   0)

     celldm(1)=   1.889726  celldm(2)=   0.000000  celldm(3)=   0.000000
     celldm(4)=   0.000000  celldm(5)=   0.000000  celldm(6)=   0.000000

     crystal axes: (cart. coord. in units of alat)
               a(1) = (   6.579727   0.000000   0.000000 )
               a(2) = (  -0.000775   5.961596   0.000000 )
               a(3) = (   0.000000   0.000000  25.155947 )

     reciprocal axes: (cart. coord. in units 2 pi/alat)
               b(1) = (  0.151982  0.000020  0.000000 )
               b(2) = (  0.000000  0.167740  0.000000 )
               b(3) = (  0.000000  0.000000  0.039752 )

     PseudoPot. # 1 for O  read from file:
     /storage/coda1/p-amedford6/0/shared/rich_project_chbe-medford/medford-share/data/pseudos_module/espresso/nninc/pbe/van/O.UPF
     MD5 check sum: 78c19812648e8988a0fe644b0f25305e
     Pseudo is Ultrasoft, Zval =  6.0
     Generated by new atomic code, or converted to UPF format
     Using radial grid of  737 points,  4 beta functions with:
                l(1) =   0
                l(2) =   0
                l(3) =   1
                l(4) =   1
     Q(r) pseudized with  8 coefficients,  rinner =    0.800   0.800   0.800

     PseudoPot. # 2 for Ti read from file:
     /storage/coda1/p-amedford6/0/shared/rich_project_chbe-medford/medford-share/data/pseudos_module/espresso/nninc/pbe/van/Ti.UPF
     MD5 check sum: 8e4df49b7f0d34bbd5052bf3f5ea0213
     Pseudo is Ultrasoft, Zval = 12.0
     Generated by new atomic code, or converted to UPF format
     Using radial grid of  851 points,  6 beta functions with:
                l(1) =   0
                l(2) =   0
                l(3) =   1
                l(4) =   1
                l(5) =   2
                l(6) =   2
     Q(r) pseudized with  8 coefficients,  rinner =    1.000   1.000   1.000
                                                       1.000   1.000

     PseudoPot. # 3 for N  read from file:
     /storage/coda1/p-amedford6/0/shared/rich_project_chbe-medford/medford-share/data/pseudos_module/espresso/nninc/pbe/van/N.UPF
     MD5 check sum: 90d10febe142ad51ac9d5be1deb811c4
     Pseudo is Ultrasoft, Zval =  5.0
     Generated by new atomic code, or converted to UPF format
     Using radial grid of  729 points,  4 beta functions with:
                l(1) =   0
                l(2) =   0
                l(3) =   1
                l(4) =   1
     Q(r) pseudized with  8 coefficients,  rinner =    0.800   0.800   0.800

     PseudoPot. # 4 for H  read from file:
     /storage/coda1/p-amedford6/0/shared/rich_project_chbe-medford/medford-share/data/pseudos_module/espresso/nninc/pbe/van/H.UPF
     MD5 check sum: b5ee9d7bfd3a09ee7748110bda690ff7
     Pseudo is Ultrasoft, Zval =  1.0
     Generated by new atomic code, or converted to UPF format
     Using radial grid of  615 points,  1 beta functions with:
                l(1) =   0
     Q(r) pseudized with  8 coefficients,  rinner =    0.800

     PseudoPot. # 5 for C  read from file:
     /storage/coda1/p-amedford6/0/shared/rich_project_chbe-medford/medford-share/data/pseudos_module/espresso/nninc/pbe/van/C.UPF
     MD5 check sum: 1a69bf6b8db32088f5b2163dbdb77a27
     Pseudo is Ultrasoft, Zval =  4.0
     Generated by new atomic code, or converted to UPF format
     Using radial grid of  721 points,  4 beta functions with:
                l(1) =   0
                l(2) =   0
                l(3) =   1
                l(4) =   1
     Q(r) pseudized with  8 coefficients,  rinner =    0.800   0.800   0.800

     atomic species   valence    mass     pseudopotential
        O1             6.00    15.99900     O ( 1.00)
        Ti1           12.00    47.86700     Ti( 1.00)
        N1             5.00    14.00700     N ( 1.00)
        H1             1.00     1.00800     H ( 1.00)
        C1             4.00    12.01100     C ( 1.00)

     No symmetry found

   Cartesian axes

     site n.     atom                  positions (alat units)
         1           O1  tau(   1) = (   3.2904802   0.0005063   4.7018136  )
         2           O1  tau(   2) = (   3.2900926   2.9813045   4.7018136  )
         3           Ti1 tau(   3) = (   0.0004258   2.9801865   6.0000000  )
         4           Ti1 tau(   4) = (   0.0000382   5.9609847   6.0000000  )
         5           Ti1 tau(   5) = (   3.2906075   1.4906267   6.0002472  )
         6           Ti1 tau(   6) = (   3.2902200   4.4714249   6.0002472  )
         7           O1  tau(   7) = (   1.3043587   1.4918075   6.0039043  )
         8           O1  tau(   8) = (   1.3039711   4.4726057   6.0039043  )
         9           O1  tau(   9) = (   5.2767064   1.4903225   6.0039473  )
        10           O1  tau(  10) = (   5.2763189   4.4711207   6.0039473  )
        11           O1  tau(  11) = (   3.2906025   0.0005020   7.3038282  )
        12           O1  tau(  12) = (   3.2902150   2.9813002   7.3038282  )
        13           O1  tau(  13) = (   0.0006271   0.0005054   7.9858123  )
        14           O1  tau(  14) = (   0.0002396   2.9813036   7.9858123  )
        15           Ti1 tau(  15) = (   3.2907910   2.8959150   9.1758416  )
        16           Ti1 tau(  16) = (   3.2891106   5.8743827   9.1763621  )
        17           Ti1 tau(  17) = (   0.0015273   1.4827037   9.2680791  )
        18           Ti1 tau(  18) = (   0.0006254   4.4649316   9.2693709  )
        19           O1  tau(  19) = (   4.5942328   1.4918067   9.2879030  )
        20           O1  tau(  20) = (   4.5938453   4.4726049   9.2879030  )
        21           O1  tau(  21) = (   1.9868534   1.4903216   9.2879459  )
        22           O1  tau(  22) = (   1.9864658   4.4711199   9.2879459  )
        23           O1  tau(  23) = (   0.0116148   5.9584955  10.6183126  )
        24           O1  tau(  24) = (   0.0092240   2.9805883  10.6323155  )
        25           O1  tau(  25) = (   3.2729272   2.9749101  11.3358637  )
        26           O1  tau(  26) = (   3.2774458   5.9577983  11.3358029  )
        27           Ti1 tau(  27) = (   6.5123228   0.0223980  12.5466522  )
        28           Ti1 tau(  28) = (   6.5139447   2.9993280  12.6164542  )
        29           Ti1 tau(  29) = (   3.1950650   4.4673527  12.4897579  )
        30           Ti1 tau(  30) = (   3.1950454   1.4921031  12.4944583  )
        31           O1  tau(  31) = (   5.2839716   4.4726476  12.6140382  )
        32           O1  tau(  32) = (   1.2968206   4.4781603  12.6268461  )
        33           O1  tau(  33) = (   5.2856119   1.4917077  12.6233973  )
        34           O1  tau(  34) = (   1.2888650   1.4770595  12.6372879  )
        35           O1  tau(  35) = (   3.2788258   2.9629383  13.9230881  )
        36           O1  tau(  36) = (   3.2980453   5.9500611  13.9147740  )
        37           O1  tau(  37) = (   6.5334376   5.9389224  14.6738689  )
        38           O1  tau(  38) = (   6.5776160   3.0156023  14.6540868  )
        39           Ti1 tau(  39) = (   3.2542760   2.9504115  15.7371360  )
        40           Ti1 tau(  40) = (   3.3062714   5.9309079  15.7116640  )
        41           Ti1 tau(  41) = (   6.5650095   1.2976281  16.1142359  )
        42           Ti1 tau(  42) = (   0.0079766   4.4268374  15.8391656  )
        43           O1  tau(  43) = (   2.0280489   1.4492115  16.0660627  )
        44           O1  tau(  44) = (   4.5116609   1.4624326  16.0993158  )
        45           O1  tau(  45) = (   2.0244938   4.4513709  16.0356871  )
        46           O1  tau(  46) = (   4.5113612   4.4342832  16.0730653  )
        47           O1  tau(  47) = (   6.5716746   5.9215154  17.2308814  )
        48           N1  tau(  48) = (   5.9800345   2.9984367  18.5879729  )
        49           H1  tau(  49) = (   4.9797160   2.8240766  18.4383897  )
        50           H1  tau(  50) = (   1.6245422   1.3425840  19.0439533  )
        51           H1  tau(  51) = (   6.0578502   3.9710051  18.8619266  )
        52           N1  tau(  52) = (   2.1403542   1.9713023  19.6616680  )
        53           C1  tau(  53) = (   2.8938676   2.8537551  19.2737185  )
        54           H1  tau(  54) = (   3.3792091   3.5764479  19.9483559  )
        55           O1  tau(  55) = (   6.5521836   2.9666373  17.2729174  )

     number of k points=    10  Fermi-Dirac smearing, width (Ry)=  0.0073
                       cart. coord. in units 2pi/alat
        k(    1) = (   0.0000000   0.0000000   0.0000000), wk =   0.1250000
        k(    2) = (   0.0000000   0.0419351   0.0000000), wk =   0.2500000
        k(    3) = (   0.0000000  -0.0838702   0.0000000), wk =   0.1250000
        k(    4) = (   0.0379955   0.0000049   0.0000000), wk =   0.2500000
        k(    5) = (   0.0379955   0.0419400   0.0000000), wk =   0.2500000
        k(    6) = (   0.0379955  -0.0838652   0.0000000), wk =   0.2500000
        k(    7) = (   0.0379955  -0.0419301   0.0000000), wk =   0.2500000
        k(    8) = (  -0.0759910  -0.0000099   0.0000000), wk =   0.1250000
        k(    9) = (  -0.0759910   0.0419252   0.0000000), wk =   0.2500000
        k(   10) = (  -0.0759910  -0.0838800   0.0000000), wk =   0.1250000

     Initial potential from superposition of free atoms

     starting charge  385.99915, renormalised to  402.00000

     negative rho (up, down):  1.542E-02 0.000E+00

     %%%%%%%%%%%%%%%%%%%%%%%%%%%%%%%%%%%%%%%%%%%%%%%%%%%%%%%%%%%%%%%%%%%%%%%%
     %                                                                      %
     % You are using vdW-DF, which was implemented by the Thonhauser group. %
     % Please cite the following two papers that made this development      %
     % possible and the two reviews that describe the various versions:     %
     %                                                                      %
     %   T. Thonhauser et al., PRL 115, 136402 (2015).                      %
     %   T. Thonhauser et al., PRB 76, 125112 (2007).                       %
     %   K. Berland et al., Rep. Prog. Phys. 78, 066501 (2015).             %
     %   D.C. Langreth et al., J. Phys.: Condens. Matter 21, 084203 (2009). %
     %                                                                      %
     %                                                                      %
     % If you are calculating the stress with vdW-DF, please also cite:     %
     %                                                                      %
     %   R. Sabatini et al., J. Phys.: Condens. Matter 24, 424209 (2012).   %
     %                                                                      %
     %%%%%%%%%%%%%%%%%%%%%%%%%%%%%%%%%%%%%%%%%%%%%%%%%%%%%%%%%%%%%%%%%%%%%%%%

     Adding external electric field

     Computed dipole along edir(3) :
        Dipole              -12.8629 Ry au,        -32.6941 Debye
        Dipole field         -0.0243 Ry au,

        Potential amp.        2.2502 Ry
        Total length         46.3494 bohr

     Starting wfcs are  304 atomic wfcs
  @ DRIVER MODE: Message from server: STATUS
  @ DRIVER MODE: Message from server: POSDATA
  @ DRIVER MODE: Reading and sharing cell
  @ DRIVER MODE: Reading and sharing positions
  @ DRIVER MODE: Received positions

     Self-consistent Calculation

     iteration #  1     ecut=    29.40 Ry     beta= 0.05
     Davidson diagonalization with overlap
     c_bands:  5 eigenvalues not converged
     c_bands:  2 eigenvalues not converged
     c_bands:  2 eigenvalues not converged
     c_bands:  5 eigenvalues not converged
     c_bands:  3 eigenvalues not converged
     c_bands:  3 eigenvalues not converged
     c_bands:  2 eigenvalues not converged
     c_bands:  3 eigenvalues not converged
     c_bands:  1 eigenvalues not converged
     ethr =  1.00E-05,  avg # of iterations = 21.5

[...]

     total energy              =   -2369.71652685 Ry
     estimated scf accuracy    <    6837.18127878 Ry

     iteration #  2     ecut=    29.40 Ry     beta= 0.05
     Davidson diagonalization with overlap
     ethr =  1.00E-02,  avg # of iterations = 23.2

[...]

     iteration # 55     ecut=    29.40 Ry     beta= 0.05
     Davidson diagonalization with overlap
     c_bands:  1 eigenvalues not converged
     ethr =  1.61E-08,  avg # of iterations = 14.3

[...]

     total energy              =   -2972.58408668 Ry
     estimated scf accuracy    <       0.00000027 Ry

     iteration # 68     ecut=    29.40 Ry     beta= 0.05
     Davidson diagonalization with overlap
     ethr =  6.70E-11,  avg # of iterations = 10.9

     negative rho (up, down):  1.520E-02 0.000E+00

     Adding external electric field

     Computed dipole along edir(3) :
        Dipole                0.4799 Ry au,          1.2197 Debye
        Dipole field          0.0009 Ry au,

        Potential amp.       -0.0839 Ry
        Total length         46.3494 bohr

     End of self-consistent calculation

          k = 0.0000 0.0000 0.0000 ( 18029 PWs)   bands (ev):

   -55.8913 -55.8715 -55.8572 -55.8335 -55.7520 -55.7318 -55.7168 -55.7027
   -55.6900 -55.6687 -55.6672 -55.6332 -55.5203 -55.3066 -54.8701 -54.8361
   -32.4168 -32.3740 -32.2503 -32.2017 -32.1916 -32.1840 -32.1679 -32.1574
   -32.1346 -32.1019 -32.0564 -32.0461 -32.0435 -32.0409 -32.0255 -32.0047
   -31.9962 -31.9958 -31.9847 -31.9718 -31.9612 -31.9499 -31.9484 -31.9061
   -31.8990 -31.8938 -31.8920 -31.8821 -31.8715 -31.8674 -31.8631 -31.8431
   -31.8336 -31.8203 -31.8095 -31.7992 -31.7793 -31.7573 -31.7260 -31.5765
   -31.5385 -31.5209 -31.2773 -31.1888 -31.1664 -31.0940 -31.0075 -30.8964
   -18.6632 -16.6124 -16.3619 -16.1195 -16.0387 -16.0039 -15.8841 -15.8520
   -15.7297 -15.6189 -15.5243 -15.4488 -15.4293 -15.4280 -15.3885 -15.3767
   -15.3506 -15.3360 -15.3267 -15.3097 -15.2852 -15.2493 -15.2338 -15.2268
   -15.1359 -15.0593 -15.0256 -14.9782 -14.9726 -14.9489 -14.5598 -13.3725
   -13.2561 -12.2641  -8.1489  -5.3356  -4.9730  -4.5168  -3.9865  -3.8478
    -3.7972  -3.7295  -3.6860  -3.5104  -3.4002  -3.1453  -3.0712  -3.0513
    -3.0283  -2.9813  -2.8781  -2.7998  -2.7028  -2.6970  -2.6949  -2.6614
    -2.6520  -2.6349  -2.5928  -2.5727  -2.5052  -2.4337  -2.3967  -2.2905
    -2.2821  -2.2479  -2.2039  -2.1947  -2.1507  -2.1294  -2.1145  -2.1086
    -2.0952  -2.0570  -2.0247  -1.9148  -1.8786  -1.7961  -1.6841  -1.6082
    -1.5001  -1.4843  -1.3654  -1.3570  -1.3323  -1.3182  -1.2838  -1.2344
    -1.1795  -1.0761  -1.0479  -1.0168  -1.0112  -0.9114  -0.8520  -0.8276
    -0.7628  -0.6896  -0.6631  -0.6506  -0.6402  -0.6072  -0.3910  -0.3488
    -0.3291  -0.2971  -0.2503  -0.1963  -0.1589  -0.1113  -0.0721  -0.0058
     0.0030   0.0549   0.0792   0.0924   0.1085   0.1193   0.1356   0.2331
     0.3231   0.3611   0.3823   0.4583   0.4635   0.6356   0.7027   0.7647
     0.8765   1.0782   1.1521   1.2367   1.3441   1.7231   1.7612   1.7690
     3.2376   3.2395   3.3306   3.3728   3.3815   3.4819   3.5342   3.6942
     3.7275   3.7599   3.7974

[...]

          k = 0.0380-0.0419 0.0000 ( 17876 PWs)   bands (ev):

[...]

          k =-0.0760-0.0000 0.0000 ( 17886 PWs)   bands (ev):

[...]

          k =-0.0760-0.0839 0.0000 ( 17948 PWs)   bands (ev):

   -55.8747 -55.8736 -55.8588 -55.8460 -55.7382 -55.7305 -55.7227 -55.6991
   -55.6867 -55.6842 -55.6528 -55.6478 -55.5190 -55.3078 -54.8531 -54.8529
   -32.2272 -32.2140 -32.1897 -32.1888 -32.1699 -32.1689 -32.1203 -32.1119
   -32.0944 -32.0852 -32.0469 -32.0380 -32.0181 -32.0103 -32.0066 -32.0051
   -31.9991 -31.9943 -31.9932 -31.9908 -31.9870 -31.9839 -31.9493 -31.9471
   -31.9412 -31.9246 -31.9177 -31.9085 -31.8869 -31.8857 -31.8833 -31.8826
   -31.8773 -31.8672 -31.8639 -31.8618 -31.8560 -31.7550 -31.7292 -31.6474
   -31.5678 -31.5281 -31.1792 -31.1790 -31.0901 -31.0899 -31.0508 -31.0507
   -18.6482 -16.0312 -16.0099 -15.8857 -15.8467 -15.8102 -15.7706 -15.7587
   -15.6826 -15.6021 -15.5816 -15.5768 -15.4949 -15.4764 -15.4632 -15.4281
   -15.4150 -15.4045 -15.3988 -15.3597 -15.3486 -15.3394 -15.3310 -15.3234
   -15.2463 -15.2105 -15.2057 -15.1905 -15.0802 -14.9544 -14.7359 -13.3580
   -13.3578 -12.2767  -8.1492  -5.3305  -4.9796  -4.4417  -3.3177  -3.2851
    -3.1042  -3.0208  -3.0053  -2.9875  -2.8769  -2.8008  -2.7947  -2.7586
    -2.7276  -2.7203  -2.7102  -2.7074  -2.6836  -2.6732  -2.6229  -2.6018
    -2.5882  -2.5629  -2.5502  -2.5478  -2.5171  -2.5037  -2.4657  -2.4451
    -2.4253  -2.4138  -2.3921  -2.3242  -2.2078  -2.1244  -2.0928  -2.0337
    -2.0233  -1.9922  -1.9586  -1.9445  -1.9212  -1.8890  -1.8597  -1.7460
    -1.6370  -1.5820  -1.5799  -1.5053  -1.4680  -1.4252  -1.3772  -1.3238
    -1.2904  -1.2790  -1.2300  -1.1690  -1.1496  -1.0757  -1.0327  -1.0022
    -0.9592  -0.9363  -0.8643  -0.8515  -0.8490  -0.8156  -0.7269  -0.7075
    -0.6533  -0.6467  -0.6198  -0.5639  -0.5452  -0.5140  -0.3906  -0.3675
    -0.2420  -0.1758  -0.0864   0.0627   0.0854   0.1792   0.2186   0.2451
     0.3031   0.4051   0.4227   0.4354   0.4544   0.4856   0.5157   0.6384
     0.6525   0.6872   0.8072   1.5158   1.5163   1.5883   1.5889   1.6084
     3.2237   3.5699   3.5765   3.5968   3.6240   3.7565   3.7586   3.7764
     3.7779   3.9128   3.9292

     the Fermi energy is     3.2411 ev

!    total energy              =   -2972.58411402 Ry
     estimated scf accuracy    <       0.00000005 Ry
     smearing contrib. (-TS)   =      -0.03079774 Ry
     internal energy E=F+TS    =   -2972.55331628 Ry

     The total energy is F=E-TS. E is the sum of the following terms:
     one-electron contribution =  -23745.07996091 Ry
     hartree contribution      =   11963.84402066 Ry
     xc contribution           =    -493.07944664 Ry
     ewald contribution        =    9301.76163602 Ry
     electric field correction =       0.00043459 Ry

     convergence has been achieved in  68 iterations

     Forces acting on atoms (cartesian axes, Ry/au):

     atom    1 type  1   force =     0.00004554   -0.00002842    0.10322966
     atom    2 type  1   force =     0.00005012   -0.00004420    0.10326900
     atom    3 type  2   force =     0.00008151   -0.00022666    0.09626130
     atom    4 type  2   force =    -0.00001691   -0.00030561    0.09606090
     atom    5 type  2   force =     0.00002911   -0.00063303   -0.17554582
     atom    6 type  2   force =    -0.00001513   -0.00024649   -0.17550957
     atom    7 type  1   force =    -0.07153119   -0.00014157   -0.02767018
     atom    8 type  1   force =    -0.07151480   -0.00012923   -0.02764805
     atom    9 type  1   force =     0.07138065    0.00028555   -0.02774092
     atom   10 type  1   force =     0.07136226    0.00031243   -0.02770588
     atom   11 type  1   force =    -0.00005663   -0.00145158    0.05285820
     atom   12 type  1   force =    -0.00002640   -0.00125889    0.05320445
     atom   13 type  1   force =     0.00000703   -0.00000474   -0.02441317
     atom   14 type  1   force =     0.00009984   -0.00023313   -0.02344708
     atom   15 type  2   force =     0.00002597    0.00048634   -0.01062695
     atom   16 type  2   force =     0.00014539    0.00349460   -0.00996222
     atom   17 type  2   force =     0.00069501    0.01061719    0.02595369
     atom   18 type  2   force =     0.00083749   -0.01140396    0.02626469
     atom   19 type  1   force =    -0.01195930   -0.00052307    0.00382312
     atom   20 type  1   force =    -0.01230440   -0.00009390    0.00373481
     atom   21 type  1   force =     0.01292236   -0.00009191    0.00216486
     atom   22 type  1   force =     0.01316797    0.00047478    0.00211842
     atom   23 type  1   force =    -0.00431542    0.00133065   -0.01322224
     atom   24 type  1   force =    -0.00236543    0.00054579   -0.02180984
     atom   25 type  1   force =     0.00024082   -0.00090615    0.00015121
     atom   26 type  1   force =     0.00001617    0.00043961    0.00079429
     atom   27 type  2   force =    -0.00043041    0.00040002   -0.00003167
     atom   28 type  2   force =    -0.00068562   -0.00052228   -0.00000480
     atom   29 type  2   force =     0.00098105    0.00002546   -0.00017424
     atom   30 type  2   force =     0.00036543   -0.00073853   -0.00016941
     atom   31 type  1   force =     0.00083941    0.00012719    0.00024380
     atom   32 type  1   force =    -0.00044508   -0.00001632    0.00013071
     atom   33 type  1   force =     0.00040661   -0.00037402   -0.00001346
     atom   34 type  1   force =     0.00127064   -0.00022020   -0.00000003
     atom   35 type  1   force =     0.00030607   -0.00029712    0.00013401
     atom   36 type  1   force =     0.00026693    0.00025496   -0.00042445
     atom   37 type  1   force =     0.00019697   -0.00010261   -0.00067830
     atom   38 type  1   force =     0.00019425    0.00014304   -0.00016852
     atom   39 type  2   force =    -0.00080180    0.00021416   -0.00039519
     atom   40 type  2   force =    -0.00072461    0.00006701    0.00049516
     atom   41 type  2   force =     0.00021884   -0.00032434   -0.00029317
     atom   42 type  2   force =     0.00077049   -0.00003400    0.00032372
     atom   43 type  1   force =     0.00036059    0.00026775   -0.00035341
     atom   44 type  1   force =     0.00020190   -0.00001472   -0.00013228
     atom   45 type  1   force =     0.00040266    0.00020488    0.00001284
     atom   46 type  1   force =     0.00006890    0.00046204    0.00016077
     atom   47 type  1   force =     0.00009503    0.00003475   -0.00026345
     atom   48 type  3   force =    -0.00280913   -0.01444833   -0.00517730
     atom   49 type  4   force =     0.00118701    0.00016512    0.00031063
     atom   50 type  4   force =     0.00004768   -0.00033877   -0.00053574
     atom   51 type  4   force =     0.00141763    0.01527005    0.00365775
     atom   52 type  3   force =    -0.00092845   -0.00111759   -0.00007910
     atom   53 type  5   force =     0.00091470    0.00167550    0.00041723
     atom   54 type  4   force =    -0.00067641   -0.00102062   -0.00111678
     atom   55 type  1   force =    -0.00001289   -0.00000688   -0.00046200

     Total force =     0.367957     Total SCF correction =     0.000463
  @ DRIVER MODE: Message from server: STATUS
  @ DRIVER MODE: Message from server: GETFORCE
  @ DRIVER MODE: Returning v,forces,stress,ensemble

     Writing output data file ./calc.save/
  @ DRIVER MODE: Message from server: EXIT
  @ DRIVE MODE: Exiting

     General routines

     Parallel routines

   This run was terminated on:  20:54:42  26Sep2021

   JOB DONE.