     Program PWSCF v.6.7GPU starts on 18Oct2021 at 15:51: 1

     R & G space division:  proc/nbgrp/npool/nimage =       8
     Reading input from /storage/home/hcoda1/3/ntian30/research/carbon/CxH_vib/Thiel_calc/ads_slab/H2O_perslab/out_0009/pw.inp
Warning: card &CELL ignored
Warning: card   CELL_DYNAMICS='IPI', ignored
Warning: card / ignored

     Current dimensions of program PWSCF are:
     Max number of different atomic species (ntypx) = 10
     Max number of k-points (npk) =  40000
     Max angular momentum in pseudopotentials (lmaxx) =  3
     Presently no symmetry can be used with electric field

     Message from routine cell_base_init:
     DEPRECATED: use true lattice parameter, not A to a.u. conversion factor

     IMPORTANT: XC functional enforced from input :
     Exchange-correlation= BEEF-VDW
                           (   1   4  43  14   2   0   0)
     Any further DFT definition will be discarded
     Please, verify this is what you really want

  @ DRIVER MODE: Connecting to
 qe_1139763_3255129.sched-torque.pace.gatech.edu1wpclsj6_scratch
  using UNIX socket
  @ DRIVER MODE: Message from server: STATUS
  @ DRIVER MODE: Message from server: INIT
  @ DRIVER MODE: Receiving replica           0          -1
  @ DRIVER MODE: Receiving encoded integer          25
  @ DRIVER MODE:  SCF:  T  FORCE:  T  STRESS:  F  VC:  F  ENSEMBLE:  F
  @ DRIVER MODE:  SCF:  T  FORCE:  T  STRESS:  F  VC:  F  ENSEMBLE:  F

     Using Slab Decomposition

     bravais-lattice index     =            0
     lattice parameter (alat)  =       1.8897  a.u.
     unit-cell volume          =    9988.4706 (a.u.)^3
     number of atoms/cell      =           56
     number of atomic types    =            3
     number of electrons       =       434.00
     number of Kohn-Sham states=          227
     kinetic-energy cutoff     =      29.3995  Ry
     charge density cutoff     =     293.9946  Ry
     scf convergence threshold =      7.3E-08
     mixing beta               =       0.0500
     number of iterations used =            8  plain     mixing
     Exchange-correlation= BEEF-VDW
                           (   1   4  43  14   2   0   0)

     celldm(1)=   1.889726  celldm(2)=   0.000000  celldm(3)=   0.000000
     celldm(4)=   0.000000  celldm(5)=   0.000000  celldm(6)=   0.000000

     crystal axes: (cart. coord. in units of alat)
               a(1) = (   6.579727   0.000000   0.000000 )
               a(2) = (  -0.001163   8.942395   0.000000 )
               a(3) = (   0.000000   0.000000  25.155947 )

     reciprocal axes: (cart. coord. in units 2 pi/alat)
               b(1) = (  0.151982  0.000020  0.000000 )
               b(2) = (  0.000000  0.111827  0.000000 )
               b(3) = (  0.000000  0.000000  0.039752 )

     PseudoPot. # 1 for O  read from file:
     /storage/coda1/p-amedford6/0/shared/rich_project_chbe-medford/medford-share/data/pseudos_module/espresso/nninc/pbe/van/O.UPF
     MD5 check sum: 78c19812648e8988a0fe644b0f25305e
     Pseudo is Ultrasoft, Zval =  6.0
     Generated by new atomic code, or converted to UPF format
     Using radial grid of  737 points,  4 beta functions with:
                l(1) =   0
                l(2) =   0
                l(3) =   1
                l(4) =   1
     Q(r) pseudized with  8 coefficients,  rinner =    0.800   0.800   0.800

     PseudoPot. # 2 for Ti read from file:
     /storage/coda1/p-amedford6/0/shared/rich_project_chbe-medford/medford-share/data/pseudos_module/espresso/nninc/pbe/van/Ti.UPF
     MD5 check sum: 8e4df49b7f0d34bbd5052bf3f5ea0213
     Pseudo is Ultrasoft, Zval = 12.0
     Generated by new atomic code, or converted to UPF format
     Using radial grid of  851 points,  6 beta functions with:
                l(1) =   0
                l(2) =   0
                l(3) =   1
                l(4) =   1
                l(5) =   2
                l(6) =   2
     Q(r) pseudized with  8 coefficients,  rinner =    1.000   1.000   1.000
                                                       1.000   1.000

     PseudoPot. # 3 for H  read from file:
     /storage/coda1/p-amedford6/0/shared/rich_project_chbe-medford/medford-share/data/pseudos_module/espresso/nninc/pbe/van/H.UPF
     MD5 check sum: b5ee9d7bfd3a09ee7748110bda690ff7
     Pseudo is Ultrasoft, Zval =  1.0
     Generated by new atomic code, or converted to UPF format
     Using radial grid of  615 points,  1 beta functions with:
                l(1) =   0
     Q(r) pseudized with  8 coefficients,  rinner =    0.800

     atomic species   valence    mass     pseudopotential
        O1             6.00    15.99900     O ( 1.00)
        Ti1           12.00    47.86700     Ti( 1.00)
        H1             1.00     1.00800     H ( 1.00)

     No symmetry found

   Cartesian axes

     site n.     atom                  positions (alat units)
         1           O1  tau(   1) = (   0.0007354   0.0005023  10.5931620  )
         2           O1  tau(   2) = (   3.2893612   8.9201916  13.9062151  )
         3           O1  tau(   3) = (   0.0002691   0.0790924  17.2227650  )
         4           O1  tau(   4) = (   0.0006271   0.0005054   7.9858123  )
         5           O1  tau(   5) = (   3.2896170   8.9270158  11.1935980  )
         6           O1  tau(   6) = (   0.0007608   0.0261718  14.5986889  )
         7           O1  tau(   7) = (   1.9868534   1.4903216   9.2879459  )
         8           O1  tau(   8) = (   5.2355617   1.6099344  12.5867606  )
         9           O1  tau(   9) = (   2.0124575   1.5675184  16.0571645  )
        10           Ti1 tau(  10) = (   0.0007404   1.4906270   9.2895810  )
        11           Ti1 tau(  11) = (   3.2907640   1.3491771  12.5100009  )
        12           Ti1 tau(  12) = (   0.0006031   1.2961793  15.7979744  )
        13           O1  tau(  13) = (   4.5942328   1.4918067   9.2879030  )
        14           O1  tau(  14) = (   1.3450460   1.6097215  12.5866593  )
        15           O1  tau(  15) = (   4.5676758   1.5673980  16.0573758  )
        16           Ti1 tau(  16) = (   3.2902859   2.9801868   9.2893338  )
        17           Ti1 tau(  17) = (   0.0004777   2.8281306  12.4679355  )
        18           Ti1 tau(  18) = (   3.2902893   2.9338596  15.7282337  )
        19           O1  tau(  19) = (   0.0003479   2.9813005  10.5931620  )
        20           O1  tau(  20) = (   3.2902216   2.9696935  13.9120052  )
        21           O1  tau(  21) = (   0.0002396   2.9813036   7.9858123  )
        22           O1  tau(  22) = (   3.2903426   2.9637443  11.1940942  )
        23           O1  tau(  23) = (   0.0000089   3.0257264  14.7503890  )
        24           O1  tau(  24) = (   1.9864658   4.4711199   9.2879459  )
        25           O1  tau(  25) = (   5.2380434   4.5829059  12.5871764  )
        26           O1  tau(  26) = (   2.0235919   4.4928291  16.0795284  )
        27           Ti1 tau(  27) = (   0.0003529   4.4714252   9.2895810  )
        28           Ti1 tau(  28) = (   3.2907575   4.3192581  12.5172651  )
        29           Ti1 tau(  29) = (   0.0001526   4.6228845  15.7176810  )
        30           O1  tau(  30) = (   4.5938453   4.4726049   9.2879030  )
        31           O1  tau(  31) = (   1.3423985   4.5827316  12.5869633  )
        32           O1  tau(  32) = (   4.5556179   4.4928061  16.0795667  )
        33           Ti1 tau(  33) = (   3.2898983   5.9609850   9.2893338  )
        34           Ti1 tau(  34) = (   0.0006865   5.8113799  12.4503846  )
        35           Ti1 tau(  35) = (   3.2896120   5.9162390  15.7228808  )
        36           O1  tau(  36) = (  -0.0000397   5.9620987  10.5931620  )
        37           O1  tau(  37) = (   3.2898440   5.9521707  13.9141460  )
        38           O1  tau(  38) = (  -0.0005676   5.9070897  17.2365434  )
        39           O1  tau(  39) = (  -0.0001480   5.9621018   7.9858123  )
        40           O1  tau(  40) = (   3.2901216   5.9393065  11.1928121  )
        41           O1  tau(  41) = (  -0.0000075   6.0145546  14.6353165  )
        42           O1  tau(  42) = (   1.9860782   7.4519181   9.2879459  )
        43           O1  tau(  43) = (   5.2378119   7.5541029  12.5659338  )
        44           O1  tau(  44) = (   2.0283766   7.4974489  16.0624789  )
        45           Ti1 tau(  45) = (  -0.0000347   7.4522234   9.2895810  )
        46           Ti1 tau(  46) = (   3.2905324   7.3023941  12.5037744  )
        47           Ti1 tau(  47) = (  -0.0004371   7.4148098  16.3042026  )
        48           O1  tau(  48) = (   4.5934577   7.4534031   9.2879030  )
        49           O1  tau(  49) = (   1.3417460   7.5537513  12.5656965  )
        50           O1  tau(  50) = (   4.5502908   7.4974792  16.0621795  )
        51           Ti1 tau(  51) = (   3.2895107   8.9417832   9.2893338  )
        52           Ti1 tau(  52) = (   0.0002358   8.7760030  12.4676047  )
        53           Ti1 tau(  53) = (   3.2893608   8.8775079  15.7094031  )
        54           O1  tau(  54) = (   0.0008562   2.9808021  17.9281668  )
        55           H1  tau(  55) = (   6.5781910   2.1937314  18.5062466  )
        56           H1  tau(  56) = (   6.5786456   3.7766572  18.4802172  )

     number of k points=    10  Fermi-Dirac smearing, width (Ry)=  0.0073
                       cart. coord. in units 2pi/alat
        k(    1) = (   0.0000000   0.0000000   0.0000000), wk =   0.1250000
        k(    2) = (   0.0000000   0.0279567   0.0000000), wk =   0.2500000
        k(    3) = (   0.0000000  -0.0559134   0.0000000), wk =   0.1250000
        k(    4) = (   0.0379955   0.0000049   0.0000000), wk =   0.2500000
        k(    5) = (   0.0379955   0.0279617   0.0000000), wk =   0.2500000
        k(    6) = (   0.0379955  -0.0559085   0.0000000), wk =   0.2500000
        k(    7) = (   0.0379955  -0.0279518   0.0000000), wk =   0.2500000
        k(    8) = (  -0.0759910  -0.0000099   0.0000000), wk =   0.1250000
        k(    9) = (  -0.0759910   0.0279468   0.0000000), wk =   0.2500000
        k(   10) = (  -0.0759910  -0.0559233   0.0000000), wk =   0.1250000

     Initial potential from superposition of free atoms

     starting charge  415.99913, renormalised to  434.00000

     negative rho (up, down):  3.976E-02 0.000E+00

     %%%%%%%%%%%%%%%%%%%%%%%%%%%%%%%%%%%%%%%%%%%%%%%%%%%%%%%%%%%%%%%%%%%%%%%%
     %                                                                      %
     % You are using vdW-DF, which was implemented by the Thonhauser group. %
     % Please cite the following two papers that made this development      %
     % possible and the two reviews that describe the various versions:     %
     %                                                                      %
     %   T. Thonhauser et al., PRL 115, 136402 (2015).                      %
     %   T. Thonhauser et al., PRB 76, 125112 (2007).                       %
     %   K. Berland et al., Rep. Prog. Phys. 78, 066501 (2015).             %
     %   D.C. Langreth et al., J. Phys.: Condens. Matter 21, 084203 (2009). %
     %                                                                      %
     %                                                                      %
     % If you are calculating the stress with vdW-DF, please also cite:     %
     %                                                                      %
     %   R. Sabatini et al., J. Phys.: Condens. Matter 24, 424209 (2012).   %
     %                                                                      %
     %%%%%%%%%%%%%%%%%%%%%%%%%%%%%%%%%%%%%%%%%%%%%%%%%%%%%%%%%%%%%%%%%%%%%%%%

     Adding external electric field

     Computed dipole along edir(3) :
        Dipole               -2.8181 Ry au,         -7.1630 Debye
        Dipole field         -0.0035 Ry au,

        Potential amp.        0.3287 Ry
        Total length         46.3494 bohr

     Starting wfcs are  326 atomic wfcs
  @ DRIVER MODE: Message from server: STATUS
  @ DRIVER MODE: Message from server: POSDATA
  @ DRIVER MODE: Reading and sharing cell
  @ DRIVER MODE: Reading and sharing positions
  @ DRIVER MODE: Received positions

     Self-consistent Calculation

     iteration #  1     ecut=    29.40 Ry     beta= 0.05
     Davidson diagonalization with overlap
     c_bands:  2 eigenvalues not converged
     c_bands:  2 eigenvalues not converged
     c_bands:  1 eigenvalues not converged
     c_bands:  2 eigenvalues not converged
     c_bands:  2 eigenvalues not converged
     c_bands:  5 eigenvalues not converged
     c_bands:  2 eigenvalues not converged
     c_bands:  1 eigenvalues not converged
     c_bands:  1 eigenvalues not converged
     c_bands:  2 eigenvalues not converged
     ethr =  1.00E-05,  avg # of iterations = 20.0

[...]

     total energy              =   -3284.58285448 Ry
     estimated scf accuracy    <      14.50139535 Ry

     iteration #  2     ecut=    29.40 Ry     beta= 0.05
     Davidson diagonalization with overlap
     ethr =  3.34E-03,  avg # of iterations =  1.0

[...]

     iteration # 34     ecut=    29.40 Ry     beta= 0.05
     Davidson diagonalization with overlap
     c_bands:  1 eigenvalues not converged
     c_bands:  1 eigenvalues not converged
     ethr =  1.44E-06,  avg # of iterations = 14.4

[...]

     total energy              =   -3283.10394957 Ry
     estimated scf accuracy    <       0.00000008 Ry

     iteration # 55     ecut=    29.40 Ry     beta= 0.05
     Davidson diagonalization with overlap
     ethr =  1.81E-11,  avg # of iterations = 11.9

     negative rho (up, down):  3.722E-02 0.000E+00

     Adding external electric field

     Computed dipole along edir(3) :
        Dipole                1.2764 Ry au,          3.2443 Debye
        Dipole field          0.0016 Ry au,

        Potential amp.       -0.1489 Ry
        Total length         46.3494 bohr

     End of self-consistent calculation

          k = 0.0000 0.0000 0.0000 ( 26871 PWs)   bands (ev):

   -58.0039 -57.9917 -57.9785 -57.9778 -57.9686 -57.8980 -57.8260 -57.8027
   -57.7979 -57.7899 -57.7673 -57.7433 -57.6152 -57.5766 -57.5073 -57.0246
   -57.0012 -56.9944 -34.3897 -34.3848 -34.3844 -34.3629 -34.3564 -34.3354
   -34.3174 -34.3151 -34.3141 -34.2820 -34.2547 -34.2401 -34.2134 -34.1995
   -34.1963 -34.1872 -34.1712 -34.1527 -34.1282 -34.1215 -34.1133 -34.1006
   -34.0999 -34.0964 -34.0952 -34.0712 -34.0534 -34.0363 -34.0302 -34.0184
   -34.0114 -33.9991 -33.9987 -33.9859 -33.9797 -33.9789 -33.9676 -33.9425
   -33.9389 -33.8745 -33.8164 -33.7869 -33.7759 -33.7704 -33.6480 -33.3403
   -33.3392 -33.3329 -33.3239 -33.3177 -33.2505 -33.1892 -33.1816 -33.0498
   -21.1965 -18.8509 -18.4163 -18.2711 -18.2462 -18.2181 -18.2057 -18.0926
   -18.0894 -17.8267 -17.8071 -17.7929 -17.7847 -17.7133 -17.6862 -17.6840
   -17.6724 -17.6454 -17.6383 -17.6105 -17.6016 -17.5195 -17.5125 -17.4694
   -17.4668 -17.4339 -17.4317 -17.3848 -17.2952 -17.2950 -17.1268 -16.9781
   -16.9095 -15.4904 -15.4338 -15.4296  -9.2354  -6.1824  -6.0067  -5.9194
    -5.8307  -5.6998  -5.4536  -5.4407  -5.3649  -5.3549  -5.3311  -5.2702
    -5.2551  -5.2501  -5.2158  -5.2024  -5.1209  -5.1158  -5.0360  -4.9444
    -4.9398  -4.9366  -4.9102  -4.8668  -4.8309  -4.8124  -4.7895  -4.7664
    -4.7370  -4.6981  -4.6643  -4.6308  -4.6225  -4.4936  -4.3473  -4.3211
    -4.2996  -4.2982  -4.2758  -4.2340  -4.2057  -4.1355  -4.0809  -4.0679
    -4.0449  -3.9973  -3.9424  -3.9201  -3.7821  -3.7509  -3.7214  -3.6977
    -3.5930  -3.5577  -3.5157  -3.3992  -3.3362  -3.3293  -3.2944  -3.2785
    -3.2040  -3.1856  -3.1366  -3.0858  -3.0778  -2.9769  -2.9755  -2.9244
    -2.8768  -2.7988  -2.7691  -2.7633  -2.7515  -2.6950  -2.6869  -2.6597
    -2.6309  -2.6018  -2.5431  -2.5339  -2.4625  -2.4250  -2.4172  -2.3724
    -2.3721  -2.3157  -2.2424  -2.2059  -2.1853  -2.1828  -2.0821  -2.0265
    -1.8601  -1.8559  -1.8431  -1.8313  -1.7501  -1.7042  -1.6372  -1.4644
    -1.2406  -1.0634  -0.7734  -0.7285  -0.7269  -0.4648  -0.4594  -0.3309
     0.9753   1.2242   1.2708   1.4409   1.4426   1.5392   1.5750   1.5903
     1.6734   1.7023   1.7402

[...]

          k = 0.0380-0.0280 0.0000 ( 26873 PWs)   bands (ev):

[...]

          k =-0.0760-0.0000 0.0000 ( 26902 PWs)   bands (ev):

[...]

          k =-0.0760-0.0559 0.0000 ( 26868 PWs)   bands (ev):

   -57.9955 -57.9949 -57.9904 -57.9702 -57.9697 -57.8976 -57.8190 -57.8153
   -57.7917 -57.7876 -57.7717 -57.7416 -57.6147 -57.5773 -57.5070 -57.0187
   -57.0126 -56.9889 -34.4782 -34.4420 -34.3784 -34.3673 -34.3442 -34.3328
   -34.3281 -34.3266 -34.2851 -34.2480 -34.1978 -34.1938 -34.1931 -34.1713
   -34.1654 -34.1512 -34.1448 -34.1444 -34.1377 -34.1320 -34.1316 -34.0851
   -34.0835 -34.0812 -34.0768 -34.0684 -34.0645 -34.0513 -34.0443 -34.0360
   -34.0280 -34.0181 -34.0135 -34.0128 -34.0024 -33.9948 -33.9676 -33.9650
   -33.9412 -33.8245 -33.8217 -33.7929 -33.7755 -33.7688 -33.6841 -33.4283
   -33.3401 -33.3346 -33.3120 -33.2325 -33.2253 -33.1638 -33.1501 -33.1432
   -21.1962 -18.5302 -18.5076 -18.2008 -18.1430 -18.0987 -18.0885 -18.0767
   -18.0255 -17.9228 -17.8672 -17.8649 -17.8143 -17.7851 -17.7806 -17.7281
   -17.7266 -17.7152 -17.7029 -17.6726 -17.6451 -17.6435 -17.5680 -17.4680
   -17.4301 -17.4031 -17.3849 -17.3723 -17.3326 -17.2393 -17.1605 -17.1135
   -16.7939 -15.4898 -15.4849 -15.3695  -9.2388  -5.8087  -5.7867  -5.7681
    -5.7678  -5.6952  -5.3940  -5.2856  -5.2852  -5.2735  -5.1762  -5.1655
    -5.1624  -5.1469  -5.1420  -5.1194  -5.1093  -5.0785  -5.0627  -5.0255
    -5.0110  -4.9459  -4.9261  -4.9179  -4.9043  -4.8803  -4.7468  -4.7437
    -4.6414  -4.6161  -4.5279  -4.5189  -4.5011  -4.4823  -4.4331  -4.3852
    -4.3556  -4.3417  -4.1667  -4.1533  -4.1417  -4.0772  -4.0347  -3.9786
    -3.9742  -3.8798  -3.6777  -3.6545  -3.6516  -3.6457  -3.6303  -3.6287
    -3.5926  -3.5498  -3.5011  -3.4818  -3.4465  -3.4403  -3.4387  -3.3900
    -3.3459  -3.2469  -3.1898  -3.1894  -3.1675  -3.1149  -3.1100  -3.0931
    -3.0746  -3.0543  -3.0266  -2.9434  -2.9110  -2.8877  -2.8479  -2.8338
    -2.7833  -2.7716  -2.7059  -2.5682  -2.5427  -2.5335  -2.5299  -2.4943
    -2.4023  -2.2566  -2.2415  -2.2387  -2.0902  -2.0853  -2.0154  -2.0078
    -1.9768  -1.9596  -1.7881  -1.7780  -1.6944  -1.6465  -1.5957  -1.5777
    -1.5683  -1.3496  -0.9397  -0.6611  -0.6430  -0.6191  -0.4639  -0.4611
     1.1442   1.2143   1.2235   1.3193   1.3249   1.3301   1.3844   1.4533
     1.4984   1.5420   1.7010

     the Fermi energy is     1.0789 ev

!    total energy              =   -3283.10402102 Ry
     estimated scf accuracy    <       0.00000005 Ry
     smearing contrib. (-TS)   =      -0.03226562 Ry
     internal energy E=F+TS    =   -3283.07175540 Ry

     The total energy is F=E-TS. E is the sum of the following terms:
     one-electron contribution =  -34306.51770418 Ry
     hartree contribution      =   17213.46697353 Ry
     xc contribution           =    -537.34445622 Ry
     ewald contribution        =   14347.32138184 Ry
     electric field correction =       0.00204963 Ry

     convergence has been achieved in  55 iterations

     Forces acting on atoms (cartesian axes, Ry/au):

     atom    1 type  1   force =     0.00002564    0.00630908    0.05655796
     atom    2 type  1   force =    -0.00000221    0.00182957   -0.00346748
     atom    3 type  1   force =     0.00000326   -0.00372179   -0.00138520
     atom    4 type  1   force =     0.00005548   -0.00038796    0.10675903
     atom    5 type  1   force =    -0.00001299   -0.00065798    0.00908347
     atom    6 type  1   force =    -0.00002004   -0.00080451    0.00317045
     atom    7 type  1   force =     0.06774329   -0.00026928   -0.02937582
     atom    8 type  1   force =     0.00478414   -0.02831133    0.00276501
     atom    9 type  1   force =     0.01033628   -0.02005550    0.00023762
     atom   10 type  2   force =    -0.00006741   -0.00358140   -0.18212015
     atom   11 type  2   force =    -0.00008481    0.02093780   -0.00709331
     atom   12 type  2   force =     0.00000422    0.02009008   -0.00392106
     atom   13 type  1   force =    -0.06783617   -0.00071752   -0.02936300
     atom   14 type  1   force =    -0.00477806   -0.02829329    0.00276596
     atom   15 type  1   force =    -0.01029309   -0.02006025    0.00025556
     atom   16 type  2   force =     0.00012611   -0.00160325    0.06617467
     atom   17 type  2   force =     0.00006778    0.03607095    0.00426560
     atom   18 type  2   force =    -0.00004775    0.01085337   -0.00269488
     atom   19 type  1   force =     0.00000404    0.00419566    0.06377426
     atom   20 type  1   force =     0.00000238    0.00140755   -0.00553810
     atom   21 type  1   force =     0.00005432    0.00123267    0.10736982
     atom   22 type  1   force =    -0.00000414   -0.00033897    0.00889056
     atom   23 type  1   force =    -0.00000945   -0.00547854    0.00285089
     atom   24 type  1   force =     0.06712785   -0.00042635   -0.02925820
     atom   25 type  1   force =     0.00491323   -0.02900149    0.00284440
     atom   26 type  1   force =     0.00930953    0.00320686   -0.00396001
     atom   27 type  2   force =    -0.00007843   -0.00328473   -0.18660449
     atom   28 type  2   force =    -0.00006036    0.02032526   -0.00730547
     atom   29 type  2   force =    -0.00000904   -0.00175089    0.01317922
     atom   30 type  1   force =    -0.06721674   -0.00088729   -0.02924774
     atom   31 type  1   force =    -0.00492233   -0.02897974    0.00284867
     atom   32 type  1   force =    -0.00925980    0.00320589   -0.00392979
     atom   33 type  2   force =     0.00012564   -0.00175998    0.06630776
     atom   34 type  2   force =     0.00008362    0.03629698    0.00441509
     atom   35 type  2   force =    -0.00002751   -0.00241949    0.00335150
     atom   36 type  1   force =     0.00002094    0.00318783    0.05469567
     atom   37 type  1   force =    -0.00000064    0.00044874   -0.00160766
     atom   38 type  1   force =     0.00000143   -0.00166039   -0.00085341
     atom   39 type  1   force =     0.00005309   -0.00027635    0.10747762
     atom   40 type  1   force =    -0.00000996   -0.00007258    0.00864107
     atom   41 type  1   force =    -0.00001751    0.00336068    0.00091704
     atom   42 type  1   force =     0.06735792   -0.00085166   -0.02898942
     atom   43 type  1   force =     0.00317337   -0.02860211    0.00232564
     atom   44 type  1   force =     0.01103648   -0.01049563    0.00424866
     atom   45 type  2   force =    -0.00009165    0.00336471   -0.18453204
     atom   46 type  2   force =    -0.00008098    0.02070481   -0.00745667
     atom   47 type  2   force =     0.00000459    0.00936535   -0.01317899
     atom   48 type  1   force =    -0.06745019   -0.00129915   -0.02898128
     atom   49 type  1   force =    -0.00317499   -0.02857340    0.00233229
     atom   50 type  1   force =    -0.01100418   -0.01051467    0.00426730
     atom   51 type  2   force =     0.00012611   -0.00089718    0.06685155
     atom   52 type  2   force =     0.00007345    0.03408354    0.00442276
     atom   53 type  2   force =    -0.00003052    0.02445021    0.00625908
     atom   54 type  1   force =    -0.00000200   -0.01206070    0.00695700
     atom   55 type  3   force =     0.00000743    0.01276102   -0.00768424
     atom   56 type  3   force =    -0.00002872    0.00040674    0.00128522

     Total force =     0.455048     Total SCF correction =     0.000497
  @ DRIVER MODE: Message from server: STATUS
  @ DRIVER MODE: Message from server: GETFORCE
  @ DRIVER MODE: Returning v,forces,stress,ensemble

     Writing output data file ./calc.save/
  @ DRIVER MODE: Message from server: EXIT
  @ DRIVE MODE: Exiting

     General routines

     Parallel routines

   This run was terminated on:  16:18:49  18Oct2021

   JOB DONE.