     Program PWSCF v.6.7GPU starts on 23Sep2021 at 11:48:37

     R & G space division:  proc/nbgrp/npool/nimage =       8
     Reading input from /storage/home/hcoda1/3/ntian30/research/carbon/CxH_vib/H2O_calc/ads_slab/CH3NHHO_a/out_0003/pw.inp
Warning: card &CELL ignored
Warning: card   CELL_DYNAMICS='IPI', ignored
Warning: card / ignored

     Current dimensions of program PWSCF are:
     Max number of different atomic species (ntypx) = 10
     Max number of k-points (npk) =  40000
     Max angular momentum in pseudopotentials (lmaxx) =  3
     Presently no symmetry can be used with electric field

     Message from routine cell_base_init:
     DEPRECATED: use true lattice parameter, not A to a.u. conversion factor

     IMPORTANT: XC functional enforced from input :
     Exchange-correlation= BEEF-VDW
                           (   1   4  43  14   2   0   0)
     Any further DFT definition will be discarded
     Please, verify this is what you really want

  @ DRIVER MODE: Connecting to
 qe_1139763_2947309.sched-torque.pace.gatech.edued0nedz8_scratch
  using UNIX socket
  @ DRIVER MODE: Message from server: STATUS
  @ DRIVER MODE: Message from server: INIT
  @ DRIVER MODE: Receiving replica           0          -1
  @ DRIVER MODE: Receiving encoded integer          25
  @ DRIVER MODE:  SCF:  T  FORCE:  T  STRESS:  F  VC:  F  ENSEMBLE:  F
  @ DRIVER MODE:  SCF:  T  FORCE:  T  STRESS:  F  VC:  F  ENSEMBLE:  F

     Using Slab Decomposition

     bravais-lattice index     =            0
     lattice parameter (alat)  =       1.8897  a.u.
     unit-cell volume          =    6658.9804 (a.u.)^3
     number of atoms/cell      =           55
     number of atomic types    =            5
     number of electrons       =       398.00
     number of Kohn-Sham states=          209
     kinetic-energy cutoff     =      29.3995  Ry
     charge density cutoff     =     293.9946  Ry
     scf convergence threshold =      7.3E-08
     mixing beta               =       0.0500
     number of iterations used =            8  plain     mixing
     Exchange-correlation= BEEF-VDW
                           (   1   4  43  14   2   0   0)

     celldm(1)=   1.889726  celldm(2)=   0.000000  celldm(3)=   0.000000
     celldm(4)=   0.000000  celldm(5)=   0.000000  celldm(6)=   0.000000

     crystal axes: (cart. coord. in units of alat)
               a(1) = (   6.579727   0.000000   0.000000 )
               a(2) = (  -0.000775   5.961596   0.000000 )
               a(3) = (   0.000000   0.000000  25.155947 )

     reciprocal axes: (cart. coord. in units 2 pi/alat)
               b(1) = (  0.151982  0.000020  0.000000 )
               b(2) = (  0.000000  0.167740  0.000000 )
               b(3) = (  0.000000  0.000000  0.039752 )

     PseudoPot. # 1 for Ti read from file:
     /storage/coda1/p-amedford6/0/shared/rich_project_chbe-medford/medford-share/data/pseudos_module/espresso/nninc/pbe/van/Ti.UPF
     MD5 check sum: 8e4df49b7f0d34bbd5052bf3f5ea0213
     Pseudo is Ultrasoft, Zval = 12.0
     Generated by new atomic code, or converted to UPF format
     Using radial grid of  851 points,  6 beta functions with:
                l(1) =   0
                l(2) =   0
                l(3) =   1
                l(4) =   1
                l(5) =   2
                l(6) =   2
     Q(r) pseudized with  8 coefficients,  rinner =    1.000   1.000   1.000
                                                       1.000   1.000

     PseudoPot. # 2 for O  read from file:
     /storage/coda1/p-amedford6/0/shared/rich_project_chbe-medford/medford-share/data/pseudos_module/espresso/nninc/pbe/van/O.UPF
     MD5 check sum: 78c19812648e8988a0fe644b0f25305e
     Pseudo is Ultrasoft, Zval =  6.0
     Generated by new atomic code, or converted to UPF format
     Using radial grid of  737 points,  4 beta functions with:
                l(1) =   0
                l(2) =   0
                l(3) =   1
                l(4) =   1
     Q(r) pseudized with  8 coefficients,  rinner =    0.800   0.800   0.800

     PseudoPot. # 3 for H  read from file:
     /storage/coda1/p-amedford6/0/shared/rich_project_chbe-medford/medford-share/data/pseudos_module/espresso/nninc/pbe/van/H.UPF
     MD5 check sum: b5ee9d7bfd3a09ee7748110bda690ff7
     Pseudo is Ultrasoft, Zval =  1.0
     Generated by new atomic code, or converted to UPF format
     Using radial grid of  615 points,  1 beta functions with:
                l(1) =   0
     Q(r) pseudized with  8 coefficients,  rinner =    0.800

     PseudoPot. # 4 for N  read from file:
     /storage/coda1/p-amedford6/0/shared/rich_project_chbe-medford/medford-share/data/pseudos_module/espresso/nninc/pbe/van/N.UPF
     MD5 check sum: 90d10febe142ad51ac9d5be1deb811c4
     Pseudo is Ultrasoft, Zval =  5.0
     Generated by new atomic code, or converted to UPF format
     Using radial grid of  729 points,  4 beta functions with:
                l(1) =   0
                l(2) =   0
                l(3) =   1
                l(4) =   1
     Q(r) pseudized with  8 coefficients,  rinner =    0.800   0.800   0.800

     PseudoPot. # 5 for C  read from file:
     /storage/coda1/p-amedford6/0/shared/rich_project_chbe-medford/medford-share/data/pseudos_module/espresso/nninc/pbe/van/C.UPF
     MD5 check sum: 1a69bf6b8db32088f5b2163dbdb77a27
     Pseudo is Ultrasoft, Zval =  4.0
     Generated by new atomic code, or converted to UPF format
     Using radial grid of  721 points,  4 beta functions with:
                l(1) =   0
                l(2) =   0
                l(3) =   1
                l(4) =   1
     Q(r) pseudized with  8 coefficients,  rinner =    0.800   0.800   0.800

     atomic species   valence    mass     pseudopotential
        Ti1           12.00    47.86700     Ti( 1.00)
        O1             6.00    15.99900     O ( 1.00)
        H1             1.00     1.00800     H ( 1.00)
        N1             5.00    14.00700     N ( 1.00)
        C1             4.00    12.01100     C ( 1.00)

     No symmetry found

   Cartesian axes

     site n.     atom                  positions (alat units)
         1           Ti1 tau(   1) = (   0.0004258   2.9801865   6.0000000  )
         2           Ti1 tau(   2) = (   3.2906075   1.4906267   6.0002472  )
         3           O1  tau(   3) = (   0.0006271   0.0005054   7.9858123  )
         4           O1  tau(   4) = (   3.2906025   0.0005020   7.3038282  )
         5           O1  tau(   5) = (   4.5942328   1.4918067   9.2879030  )
         6           O1  tau(   6) = (   1.9868534   1.4903216   9.2879459  )
         7           Ti1 tau(   7) = (   3.2907910   2.8959150   9.1758416  )
         8           Ti1 tau(   8) = (   0.0015273   1.4827037   9.2680791  )
         9           O1  tau(   9) = (   3.2831040   5.9360571  11.2641146  )
        10           O1  tau(  10) = (   0.0116148   5.9584955  10.6183126  )
        11           O1  tau(  11) = (   1.2851963   1.4867209  12.6255510  )
        12           O1  tau(  12) = (   5.2924406   1.4772461  12.6192171  )
        13           Ti1 tau(  13) = (   0.0036382   2.8404764  12.7021481  )
        14           Ti1 tau(  14) = (   3.2814461   1.2926050  12.6442039  )
        15           O1  tau(  15) = (   6.5789252   5.9354829  14.6389027  )
        16           O1  tau(  16) = (   3.2852549   0.0163589  13.8648689  )
        17           O1  tau(  17) = (   4.5445832   1.5164849  16.0197972  )
        18           O1  tau(  18) = (   2.0258823   1.4930055  16.0750729  )
        19           Ti1 tau(  19) = (   3.3156224   2.9699746  15.6194889  )
        20           Ti1 tau(  20) = (   0.0515760   1.3234122  16.0730098  )
        21           O1  tau(  21) = (   3.2904802   0.0005063   4.7018136  )
        22           O1  tau(  22) = (   6.5454194   5.9222349  17.1870725  )
        23           O1  tau(  23) = (   1.3043587   1.4918075   6.0039043  )
        24           O1  tau(  24) = (   5.2767064   1.4903225   6.0039473  )
        25           Ti1 tau(  25) = (   0.0000382   5.9609847   6.0000000  )
        26           Ti1 tau(  26) = (   3.2902200   4.4714249   6.0002472  )
        27           O1  tau(  27) = (   0.0002396   2.9813036   7.9858123  )
        28           O1  tau(  28) = (   3.2902150   2.9813002   7.3038282  )
        29           O1  tau(  29) = (   4.5938453   4.4726049   9.2879030  )
        30           O1  tau(  30) = (   1.9864658   4.4711199   9.2879459  )
        31           Ti1 tau(  31) = (   3.2891106   5.8743827   9.1763621  )
        32           Ti1 tau(  32) = (   0.0006254   4.4649316   9.2693709  )
        33           O1  tau(  33) = (   3.2861177   3.0127509  11.2320142  )
        34           O1  tau(  34) = (   0.0092240   2.9805883  10.6323155  )
        35           O1  tau(  35) = (   1.2872320   4.4646868  12.6147789  )
        36           O1  tau(  36) = (   5.2799320   4.4658550  12.6114028  )
        37           Ti1 tau(  37) = (   6.5510365   5.8261734  12.6423015  )
        38           Ti1 tau(  38) = (   3.2652589   4.3917841  12.4002916  )
        39           O1  tau(  39) = (   0.0003569   2.9920414  14.6539809  )
        40           O1  tau(  40) = (   3.2835110   2.9651371  13.8409569  )
        41           O1  tau(  41) = (   4.5245492   4.4030193  16.0142317  )
        42           O1  tau(  42) = (   2.0132503   4.4096711  16.0494848  )
        43           Ti1 tau(  43) = (   3.3389516   5.9588577  16.2858146  )
        44           Ti1 tau(  44) = (   0.0865397   4.4271626  15.8895714  )
        45           O1  tau(  45) = (   3.2900926   2.9813045   4.7018136  )
        46           O1  tau(  46) = (   1.3039711   4.4726057   6.0039043  )
        47           O1  tau(  47) = (   5.2763189   4.4711207   6.0039473  )
        48           H1  tau(  48) = (   5.5649379   2.9985428  17.7754687  )
        49           N1  tau(  49) = (   6.5266086   2.9804045  17.4451690  )
        50           C1  tau(  50) = (   0.8252436   3.0135910  18.6253707  )
        51           H1  tau(  51) = (   0.7415300   3.9712607  19.1474969  )
        52           H1  tau(  52) = (   0.5789590   2.2014881  19.3161603  )
        53           H1  tau(  53) = (   1.8636945   2.8847911  18.3311598  )
        54           O1  tau(  54) = (   3.4430348   5.9447220  18.1074838  )
        55           H1  tau(  55) = (   4.3135669   5.8364121  18.5244127  )

     number of k points=    10  Fermi-Dirac smearing, width (Ry)=  0.0073
                       cart. coord. in units 2pi/alat
        k(    1) = (   0.0000000   0.0000000   0.0000000), wk =   0.1250000
        k(    2) = (   0.0000000   0.0419351   0.0000000), wk =   0.2500000
        k(    3) = (   0.0000000  -0.0838702   0.0000000), wk =   0.1250000
        k(    4) = (   0.0379955   0.0000049   0.0000000), wk =   0.2500000
        k(    5) = (   0.0379955   0.0419400   0.0000000), wk =   0.2500000
        k(    6) = (   0.0379955  -0.0838652   0.0000000), wk =   0.2500000
        k(    7) = (   0.0379955  -0.0419301   0.0000000), wk =   0.2500000
        k(    8) = (  -0.0759910  -0.0000099   0.0000000), wk =   0.1250000
        k(    9) = (  -0.0759910   0.0419252   0.0000000), wk =   0.2500000
        k(   10) = (  -0.0759910  -0.0838800   0.0000000), wk =   0.1250000

     Initial potential from superposition of free atoms

     starting charge  381.99915, renormalised to  398.00000

     negative rho (up, down):  1.687E-02 0.000E+00

     %%%%%%%%%%%%%%%%%%%%%%%%%%%%%%%%%%%%%%%%%%%%%%%%%%%%%%%%%%%%%%%%%%%%%%%%
     %                                                                      %
     % You are using vdW-DF, which was implemented by the Thonhauser group. %
     % Please cite the following two papers that made this development      %
     % possible and the two reviews that describe the various versions:     %
     %                                                                      %
     %   T. Thonhauser et al., PRL 115, 136402 (2015).                      %
     %   T. Thonhauser et al., PRB 76, 125112 (2007).                       %
     %   K. Berland et al., Rep. Prog. Phys. 78, 066501 (2015).             %
     %   D.C. Langreth et al., J. Phys.: Condens. Matter 21, 084203 (2009). %
     %                                                                      %
     %                                                                      %
     % If you are calculating the stress with vdW-DF, please also cite:     %
     %                                                                      %
     %   R. Sabatini et al., J. Phys.: Condens. Matter 24, 424209 (2012).   %
     %                                                                      %
     %%%%%%%%%%%%%%%%%%%%%%%%%%%%%%%%%%%%%%%%%%%%%%%%%%%%%%%%%%%%%%%%%%%%%%%%

     Adding external electric field

     Computed dipole along edir(3) :
        Dipole               -8.7629 Ry au,        -22.2732 Debye
        Dipole field         -0.0165 Ry au,

        Potential amp.        1.5329 Ry
        Total length         46.3494 bohr

     Starting wfcs are  301 atomic wfcs
  @ DRIVER MODE: Message from server: STATUS
  @ DRIVER MODE: Message from server: POSDATA
  @ DRIVER MODE: Reading and sharing cell
  @ DRIVER MODE: Reading and sharing positions
  @ DRIVER MODE: Received positions

     Self-consistent Calculation

     iteration #  1     ecut=    29.40 Ry     beta= 0.05
     Davidson diagonalization with overlap
     c_bands:  1 eigenvalues not converged
     c_bands:  1 eigenvalues not converged
     c_bands:  1 eigenvalues not converged
     c_bands:  2 eigenvalues not converged
     ethr =  1.00E-05,  avg # of iterations = 18.0

[...]

     total energy              =   -2565.54897958 Ry
     estimated scf accuracy    <    4291.48022843 Ry

     iteration #  2     ecut=    29.40 Ry     beta= 0.05
     Davidson diagonalization with overlap
     ethr =  1.00E-02,  avg # of iterations = 22.7

[...]

     iteration # 47     ecut=    29.40 Ry     beta= 0.05
     Davidson diagonalization with overlap
     c_bands:  1 eigenvalues not converged
     ethr =  1.15E-06,  avg # of iterations =  7.5

[...]

     total energy              =   -2954.01289451 Ry
     estimated scf accuracy    <       0.00000013 Ry

     iteration # 71     ecut=    29.40 Ry     beta= 0.05
     Davidson diagonalization with overlap
     ethr =  2.64E-11,  avg # of iterations =  2.5

     negative rho (up, down):  1.731E-02 0.000E+00

     Adding external electric field

     Computed dipole along edir(3) :
        Dipole                0.2163 Ry au,          0.5498 Debye
        Dipole field          0.0004 Ry au,

        Potential amp.       -0.0378 Ry
        Total length         46.3494 bohr

     End of self-consistent calculation

          k = 0.0000 0.0000 0.0000 ( 18029 PWs)   bands (ev):

   -56.9291 -56.8955 -56.0282 -55.9933 -55.7930 -55.7250 -55.6377 -55.4805
   -55.4466 -55.4069 -55.3945 -55.3288 -55.3233 -55.2783 -55.1324 -55.0548
   -33.3483 -33.2010 -33.1729 -33.1077 -33.0174 -32.9753 -32.5110 -32.2687
   -32.2489 -32.2229 -32.1706 -32.1656 -32.1400 -32.0287 -32.0088 -31.9617
   -31.9446 -31.9296 -31.9126 -31.8902 -31.8881 -31.8663 -31.8596 -31.8282
   -31.8277 -31.8032 -31.7584 -31.7174 -31.6848 -31.6770 -31.6182 -31.6075
   -31.6043 -31.5879 -31.5760 -31.5468 -31.5263 -31.5207 -31.5073 -31.5005
   -31.4926 -31.4415 -31.3981 -31.3746 -31.3360 -31.3104 -31.3041 -31.2375
   -17.0355 -16.4900 -16.4454 -16.2470 -16.1441 -16.1245 -16.0871 -16.0374
   -15.8380 -15.7880 -15.7504 -15.6844 -15.5869 -15.4306 -15.3337 -15.1603
   -15.1108 -15.0793 -15.0615 -15.0557 -15.0496 -15.0369 -14.9820 -14.9260
   -14.8855 -14.8026 -14.7479 -14.6376 -14.4117 -14.3816 -13.9779 -13.8709
   -13.8094  -8.4918  -4.6092  -4.1054  -3.9700  -3.9393  -3.7798  -3.6266
    -3.5017  -3.4489  -3.4233  -3.3145  -3.2979  -3.2882  -3.1987  -3.0696
    -2.9990  -2.9876  -2.9206  -2.9028  -2.8739  -2.8591  -2.6961  -2.6637
    -2.5696  -2.5174  -2.4959  -2.4152  -2.4058  -2.3461  -2.2958  -2.2840
    -2.2617  -2.2028  -2.1992  -2.1280  -2.1012  -2.0247  -2.0002  -1.9683
    -1.9448  -1.8740  -1.7980  -1.7633  -1.6083  -1.5721  -1.5395  -1.5041
    -1.4875  -1.4068  -1.3364  -1.2542  -1.2201  -1.1530  -1.1044  -1.0642
    -1.0517  -0.9370  -0.9114  -0.8548  -0.7908  -0.7745  -0.7676  -0.7217
    -0.6077  -0.5282  -0.5182  -0.4965  -0.4348  -0.4148  -0.3773  -0.3533
    -0.2762  -0.2601  -0.1509  -0.0784  -0.0475  -0.0221   0.0779   0.1579
     0.1788   0.2211   0.2636   0.3068   0.3358   0.3794   0.4474   0.4951
     0.5182   0.5410   0.5702   0.6662   0.7169   0.7534   0.8095   0.8248
     0.8895   0.9602   0.9874   1.0760   1.1202   1.4863   1.6367   2.3642
     2.5348   2.8109   2.9842   3.3000   3.3499   3.3658   3.3673   3.6537
     3.7726

[...]

          k = 0.0380-0.0419 0.0000 ( 17876 PWs)   bands (ev):

[...]

          k =-0.0760-0.0000 0.0000 ( 17886 PWs)   bands (ev):

[...]

          k =-0.0760-0.0839 0.0000 ( 17948 PWs)   bands (ev):

   -56.9129 -56.9116 -56.0154 -56.0059 -55.7885 -55.7295 -55.6369 -55.4640
   -55.4629 -55.4028 -55.3951 -55.3325 -55.3221 -55.2770 -55.1337 -55.0559
   -33.1874 -33.1861 -33.1662 -33.1649 -33.0617 -33.0606 -32.3351 -32.3269
   -32.2104 -32.2007 -32.1997 -32.1939 -32.0920 -32.0462 -32.0219 -32.0076
   -31.9565 -31.9556 -31.9093 -31.8772 -31.8657 -31.8167 -31.8158 -31.7732
   -31.7348 -31.7024 -31.6840 -31.6824 -31.6784 -31.6744 -31.6452 -31.6443
   -31.6335 -31.6292 -31.6079 -31.5972 -31.5745 -31.5657 -31.5346 -31.5241
   -31.5156 -31.4834 -31.4371 -31.3995 -31.3735 -31.3405 -31.3124 -31.2652
   -16.4322 -16.3962 -16.3942 -16.3471 -16.3454 -16.0907 -16.0860 -15.8401
   -15.8082 -15.6867 -15.5338 -15.5045 -15.4672 -15.4176 -15.3713 -15.3014
   -15.2828 -15.2421 -15.2090 -15.1526 -15.1272 -15.0493 -15.0153 -14.9563
   -14.9202 -14.8313 -14.7845 -14.7785 -14.5578 -14.5418 -13.9755 -13.9748
   -13.8262  -8.4968  -4.0711  -3.9934  -3.4692  -3.4642  -3.4432  -3.4339
    -3.2195  -3.2139  -3.0461  -3.0031  -2.9838  -2.9426  -2.9264  -2.8388
    -2.8204  -2.7913  -2.7501  -2.7451  -2.7366  -2.7186  -2.6714  -2.6629
    -2.6223  -2.4854  -2.4709  -2.4511  -2.3922  -2.3284  -2.2974  -2.2463
    -2.2187  -2.2051  -2.1783  -2.1705  -2.1654  -2.1361  -2.1086  -1.9522
    -1.9108  -1.8089  -1.7763  -1.7512  -1.7299  -1.6754  -1.6719  -1.6418
    -1.6190  -1.5871  -1.5268  -1.4933  -1.4517  -1.3273  -1.3056  -1.2658
    -1.2484  -1.1896  -1.0923  -1.0038  -0.9907  -0.9479  -0.9286  -0.8826
    -0.8685  -0.8394  -0.7601  -0.7025  -0.5956  -0.5656  -0.5535  -0.5308
    -0.5006  -0.4582  -0.4112  -0.3425  -0.3272  -0.2080  -0.1393  -0.0942
    -0.0271   0.0388   0.0781   0.1202   0.1717   0.2664   0.2863   0.3611
     0.3749   0.4950   0.6036   0.6218   0.7747   0.8069   0.8757   0.9161
     0.9209   0.9314   0.9491   0.9604   1.0132   1.0895   1.5861   2.9557
     2.9587   3.0159   3.0218   3.3316   3.3326   3.4425   3.4444   3.7599
     3.7697

     the Fermi energy is     2.0643 ev

!    total energy              =   -2954.01291766 Ry
     estimated scf accuracy    <       0.00000005 Ry
     smearing contrib. (-TS)   =      -0.00173145 Ry
     internal energy E=F+TS    =   -2954.01118621 Ry

     The total energy is F=E-TS. E is the sum of the following terms:
     one-electron contribution =  -24214.02526776 Ry
     hartree contribution      =   12197.09878997 Ry
     xc contribution           =    -488.74946693 Ry
     ewald contribution        =    9551.66467022 Ry
     electric field correction =       0.00008830 Ry

     convergence has been achieved in  71 iterations

     Forces acting on atoms (cartesian axes, Ry/au):

     atom    1 type  1   force =     0.00017663   -0.00052481    0.12568029
     atom    2 type  1   force =     0.00000329    0.00026679   -0.15442430
     atom    3 type  2   force =     0.00002228   -0.00022487   -0.06672248
     atom    4 type  2   force =    -0.00002052    0.00008523    0.01672709
     atom    5 type  2   force =    -0.00391536   -0.00229237   -0.01290383
     atom    6 type  2   force =     0.00530990   -0.00149600   -0.01431216
     atom    7 type  1   force =    -0.00049392   -0.00698502    0.05721987
     atom    8 type  1   force =     0.00071794    0.00723081    0.09830084
     atom    9 type  2   force =     0.00002785    0.00009126   -0.00008031
     atom   10 type  2   force =    -0.00290100    0.00059243   -0.06192357
     atom   11 type  2   force =    -0.00001738   -0.00006213   -0.00000580
     atom   12 type  2   force =    -0.00007076    0.00015687    0.00016513
     atom   13 type  1   force =     0.00010319    0.00016429   -0.00008569
     atom   14 type  1   force =     0.00000989   -0.00006191    0.00010495
     atom   15 type  2   force =    -0.00002466   -0.00001929   -0.00002899
     atom   16 type  2   force =     0.00005691    0.00016468   -0.00017959
     atom   17 type  2   force =     0.00006100    0.00014813    0.00024511
     atom   18 type  2   force =     0.00002316    0.00025963   -0.00006148
     atom   19 type  1   force =    -0.00012592    0.00008809    0.00009194
     atom   20 type  1   force =     0.00045788    0.00006530   -0.00002353
     atom   21 type  2   force =     0.00006852    0.00021643    0.09780381
     atom   22 type  2   force =     0.00037715    0.00009393    0.00000043
     atom   23 type  2   force =    -0.08272703    0.00009108   -0.03301376
     atom   24 type  2   force =     0.08268517    0.00050868   -0.03306302
     atom   25 type  1   force =     0.00010293   -0.00060058    0.12552320
     atom   26 type  1   force =     0.00000509   -0.00169956   -0.15483694
     atom   27 type  2   force =     0.00008769   -0.00076859   -0.06515606
     atom   28 type  2   force =     0.00004845    0.00188534    0.01157703
     atom   29 type  2   force =    -0.00251705    0.00468225   -0.01584517
     atom   30 type  2   force =     0.00368546    0.00501897   -0.01727425
     atom   31 type  1   force =    -0.00029438    0.00180317    0.04010694
     atom   32 type  1   force =     0.00091296   -0.01042128    0.09796059
     atom   33 type  2   force =    -0.00004427   -0.00003428    0.00012097
     atom   34 type  2   force =    -0.00230158    0.00078135   -0.07401614
     atom   35 type  2   force =     0.00011613    0.00002514    0.00002768
     atom   36 type  2   force =    -0.00009562   -0.00007507   -0.00002257
     atom   37 type  1   force =     0.00035344    0.00005999    0.00011521
     atom   38 type  1   force =     0.00011631   -0.00006484   -0.00028942
     atom   39 type  2   force =     0.00015112   -0.00011114   -0.00010580
     atom   40 type  2   force =     0.00001636    0.00003664   -0.00014104
     atom   41 type  2   force =    -0.00006714    0.00017474    0.00004447
     atom   42 type  2   force =    -0.00005408    0.00002266    0.00013008
     atom   43 type  1   force =     0.00018552   -0.00026800   -0.00010404
     atom   44 type  1   force =     0.00009843    0.00004004    0.00044281
     atom   45 type  2   force =     0.00004544    0.00004527    0.09760330
     atom   46 type  2   force =    -0.08279099    0.00004827   -0.03302946
     atom   47 type  2   force =     0.08271689    0.00048151   -0.03304713
     atom   48 type  3   force =    -0.00049949    0.00069721    0.00023295
     atom   49 type  4   force =     0.00042384   -0.00042677   -0.00013674
     atom   50 type  5   force =    -0.00020723   -0.00062048    0.00025366
     atom   51 type  3   force =    -0.00010574    0.00009648    0.00023118
     atom   52 type  3   force =    -0.00016801    0.00052808    0.00001090
     atom   53 type  3   force =     0.00024001    0.00031923    0.00012047
     atom   54 type  2   force =     0.00039618   -0.00057866    0.00088251
     atom   55 type  3   force =    -0.00036093    0.00036567   -0.00089014

     Total force =     0.417201     Total SCF correction =     0.000582
  @ DRIVER MODE: Message from server: STATUS
  @ DRIVER MODE: Message from server: GETFORCE
  @ DRIVER MODE: Returning v,forces,stress,ensemble

     Writing output data file ./calc.save/
  @ DRIVER MODE: Message from server: EXIT
  @ DRIVE MODE: Exiting

     General routines

     Parallel routines

   This run was terminated on:  12:10:40  23Sep2021

   JOB DONE.