     Program PWSCF v.6.7GPU starts on 24Sep2021 at 14:42:36

     R & G space division:  proc/nbgrp/npool/nimage =       8
     Reading input from /storage/home/hcoda1/3/ntian30/research/carbon/CxH_vib/H2O_calc/ads_slab/CH3NHNH2HO_a/out_0054/pw.inp
Warning: card &CELL ignored
Warning: card   CELL_DYNAMICS='IPI', ignored
Warning: card / ignored

     Current dimensions of program PWSCF are:
     Max number of different atomic species (ntypx) = 10
     Max number of k-points (npk) =  40000
     Max angular momentum in pseudopotentials (lmaxx) =  3
     Presently no symmetry can be used with electric field

     Message from routine cell_base_init:
     DEPRECATED: use true lattice parameter, not A to a.u. conversion factor

     IMPORTANT: XC functional enforced from input :
     Exchange-correlation= BEEF-VDW
                           (   1   4  43  14   2   0   0)
     Any further DFT definition will be discarded
     Please, verify this is what you really want

  @ DRIVER MODE: Connecting to
 qe_1139763_2947307.sched-torque.pace.gatech.eduzcx9erpq_scratch
  using UNIX socket
  @ DRIVER MODE: Message from server: STATUS
  @ DRIVER MODE: Message from server: INIT
  @ DRIVER MODE: Receiving replica           0          -1
  @ DRIVER MODE: Receiving encoded integer          25
  @ DRIVER MODE:  SCF:  T  FORCE:  T  STRESS:  F  VC:  F  ENSEMBLE:  F
  @ DRIVER MODE:  SCF:  T  FORCE:  T  STRESS:  F  VC:  F  ENSEMBLE:  F

     Using Slab Decomposition

     bravais-lattice index     =            0
     lattice parameter (alat)  =       1.8897  a.u.
     unit-cell volume          =    6658.9804 (a.u.)^3
     number of atoms/cell      =           58
     number of atomic types    =            5
     number of electrons       =       405.00
     number of Kohn-Sham states=          212
     kinetic-energy cutoff     =      29.3995  Ry
     charge density cutoff     =     293.9946  Ry
     scf convergence threshold =      7.3E-08
     mixing beta               =       0.0500
     number of iterations used =            8  plain     mixing
     Exchange-correlation= BEEF-VDW
                           (   1   4  43  14   2   0   0)

     celldm(1)=   1.889726  celldm(2)=   0.000000  celldm(3)=   0.000000
     celldm(4)=   0.000000  celldm(5)=   0.000000  celldm(6)=   0.000000

     crystal axes: (cart. coord. in units of alat)
               a(1) = (   6.579727   0.000000   0.000000 )
               a(2) = (  -0.000775   5.961596   0.000000 )
               a(3) = (   0.000000   0.000000  25.155947 )

     reciprocal axes: (cart. coord. in units 2 pi/alat)
               b(1) = (  0.151982  0.000020  0.000000 )
               b(2) = (  0.000000  0.167740  0.000000 )
               b(3) = (  0.000000  0.000000  0.039752 )

     PseudoPot. # 1 for Ti read from file:
     /storage/coda1/p-amedford6/0/shared/rich_project_chbe-medford/medford-share/data/pseudos_module/espresso/nninc/pbe/van/Ti.UPF
     MD5 check sum: 8e4df49b7f0d34bbd5052bf3f5ea0213
     Pseudo is Ultrasoft, Zval = 12.0
     Generated by new atomic code, or converted to UPF format
     Using radial grid of  851 points,  6 beta functions with:
                l(1) =   0
                l(2) =   0
                l(3) =   1
                l(4) =   1
                l(5) =   2
                l(6) =   2
     Q(r) pseudized with  8 coefficients,  rinner =    1.000   1.000   1.000
                                                       1.000   1.000

     PseudoPot. # 2 for O  read from file:
     /storage/coda1/p-amedford6/0/shared/rich_project_chbe-medford/medford-share/data/pseudos_module/espresso/nninc/pbe/van/O.UPF
     MD5 check sum: 78c19812648e8988a0fe644b0f25305e
     Pseudo is Ultrasoft, Zval =  6.0
     Generated by new atomic code, or converted to UPF format
     Using radial grid of  737 points,  4 beta functions with:
                l(1) =   0
                l(2) =   0
                l(3) =   1
                l(4) =   1
     Q(r) pseudized with  8 coefficients,  rinner =    0.800   0.800   0.800

     PseudoPot. # 3 for N  read from file:
     /storage/coda1/p-amedford6/0/shared/rich_project_chbe-medford/medford-share/data/pseudos_module/espresso/nninc/pbe/van/N.UPF
     MD5 check sum: 90d10febe142ad51ac9d5be1deb811c4
     Pseudo is Ultrasoft, Zval =  5.0
     Generated by new atomic code, or converted to UPF format
     Using radial grid of  729 points,  4 beta functions with:
                l(1) =   0
                l(2) =   0
                l(3) =   1
                l(4) =   1
     Q(r) pseudized with  8 coefficients,  rinner =    0.800   0.800   0.800

     PseudoPot. # 4 for C  read from file:
     /storage/coda1/p-amedford6/0/shared/rich_project_chbe-medford/medford-share/data/pseudos_module/espresso/nninc/pbe/van/C.UPF
     MD5 check sum: 1a69bf6b8db32088f5b2163dbdb77a27
     Pseudo is Ultrasoft, Zval =  4.0
     Generated by new atomic code, or converted to UPF format
     Using radial grid of  721 points,  4 beta functions with:
                l(1) =   0
                l(2) =   0
                l(3) =   1
                l(4) =   1
     Q(r) pseudized with  8 coefficients,  rinner =    0.800   0.800   0.800

     PseudoPot. # 5 for H  read from file:
     /storage/coda1/p-amedford6/0/shared/rich_project_chbe-medford/medford-share/data/pseudos_module/espresso/nninc/pbe/van/H.UPF
     MD5 check sum: b5ee9d7bfd3a09ee7748110bda690ff7
     Pseudo is Ultrasoft, Zval =  1.0
     Generated by new atomic code, or converted to UPF format
     Using radial grid of  615 points,  1 beta functions with:
                l(1) =   0
     Q(r) pseudized with  8 coefficients,  rinner =    0.800

     atomic species   valence    mass     pseudopotential
        Ti1           12.00    47.86700     Ti( 1.00)
        O1             6.00    15.99900     O ( 1.00)
        N1             5.00    14.00700     N ( 1.00)
        C1             4.00    12.01100     C ( 1.00)
        H1             1.00     1.00800     H ( 1.00)

     No symmetry found

   Cartesian axes

     site n.     atom                  positions (alat units)
         1           Ti1 tau(   1) = (   0.0004258   2.9801865   6.0000000  )
         2           Ti1 tau(   2) = (   3.2906075   1.4906267   6.0002472  )
         3           O1  tau(   3) = (   0.0006271   0.0005054   7.9858123  )
         4           O1  tau(   4) = (   3.2906025   0.0005020   7.3038282  )
         5           O1  tau(   5) = (   4.5942328   1.4918067   9.2879030  )
         6           O1  tau(   6) = (   1.9868534   1.4903216   9.2879459  )
         7           Ti1 tau(   7) = (   3.2907910   2.8959150   9.1758416  )
         8           Ti1 tau(   8) = (   0.0015273   1.4827037   9.2680791  )
         9           O1  tau(   9) = (   3.3003128   0.0493987  11.3625472  )
        10           O1  tau(  10) = (   0.0116148   5.9584955  10.6183126  )
        11           O1  tau(  11) = (   1.2863924   1.5188706  12.6959087  )
        12           O1  tau(  12) = (   5.3173592   1.5183023  12.6957539  )
        13           Ti1 tau(  13) = (   0.0130489   2.9571150  12.5182267  )
        14           Ti1 tau(  14) = (   3.3124343   1.5987737  12.4587140  )
        15           O1  tau(  15) = (   0.0455642   5.8537743  14.6515032  )
        16           O1  tau(  16) = (   3.3135256   5.8999501  14.0036581  )
        17           O1  tau(  17) = (   4.5824137   1.5787328  16.0473457  )
        18           O1  tau(  18) = (   2.0456054   1.5356268  16.0652349  )
        19           Ti1 tau(  19) = (   3.2855744   2.9948502  15.7047272  )
        20           Ti1 tau(  20) = (   0.0729980   1.3194477  15.7501807  )
        21           O1  tau(  21) = (   3.2904802   0.0005063   4.7018136  )
        22           O1  tau(  22) = (   6.5643345   0.1786488  17.1561759  )
        23           O1  tau(  23) = (   1.3043587   1.4918075   6.0039043  )
        24           O1  tau(  24) = (   5.2767064   1.4903225   6.0039473  )
        25           Ti1 tau(  25) = (   0.0000382   5.9609847   6.0000000  )
        26           Ti1 tau(  26) = (   3.2902200   4.4714249   6.0002472  )
        27           O1  tau(  27) = (   0.0002396   2.9813036   7.9858123  )
        28           O1  tau(  28) = (   3.2902150   2.9813002   7.3038282  )
        29           O1  tau(  29) = (   4.5938453   4.4726049   9.2879030  )
        30           O1  tau(  30) = (   1.9864658   4.4711199   9.2879459  )
        31           Ti1 tau(  31) = (   3.2891106   5.8743827   9.1763621  )
        32           Ti1 tau(  32) = (   0.0006254   4.4649316   9.2693709  )
        33           O1  tau(  33) = (   3.3044115   2.9646987  11.3227374  )
        34           O1  tau(  34) = (   0.0092240   2.9805883  10.6323155  )
        35           O1  tau(  35) = (   1.2889249   4.4812606  12.6373974  )
        36           O1  tau(  36) = (   5.3198440   4.4849614  12.6453916  )
        37           Ti1 tau(  37) = (   0.0274371   5.9167426  12.5032498  )
        38           Ti1 tau(  38) = (   3.3124303   4.6827448  12.7121475  )
        39           O1  tau(  39) = (   0.0064664   3.0605765  14.9143048  )
        40           O1  tau(  40) = (   3.2921723   3.0190953  13.9337278  )
        41           O1  tau(  41) = (   4.5343043   4.4484976  16.2223827  )
        42           O1  tau(  42) = (   2.0055671   4.4324605  16.2273083  )
        43           Ti1 tau(  43) = (   3.3963104   0.0511244  16.3072024  )
        44           Ti1 tau(  44) = (   0.1011521   4.5293608  16.0606835  )
        45           O1  tau(  45) = (   3.2900926   2.9813045   4.7018136  )
        46           O1  tau(  46) = (   1.3039711   4.4726057   6.0039043  )
        47           O1  tau(  47) = (   5.2763189   4.4711207   6.0039473  )
        48           N1  tau(  48) = (   0.7799224   3.1460235  19.0808133  )
        49           N1  tau(  49) = (   6.3029119   3.3142126  18.0946246  )
        50           C1  tau(  50) = (   0.9829876   4.3811599  19.8296872  )
        51           H1  tau(  51) = (   0.0599524   4.7630682  20.2995108  )
        52           H1  tau(  52) = (   1.7087173   4.1728717  20.6153690  )
        53           H1  tau(  53) = (   1.3778604   5.1510331  19.1745456  )
        54           H1  tau(  54) = (   0.4845774   2.4057476  19.7140978  )
        55           H1  tau(  55) = (   5.5451363   3.8924421  18.4761980  )
        56           H1  tau(  56) = (   5.8791802   2.3931312  17.9734808  )
        57           O1  tau(  57) = (   3.3895457   0.1916509  18.1699706  )
        58           H1  tau(  58) = (   3.8128180   5.4341384  18.6581559  )

     number of k points=    10  Fermi-Dirac smearing, width (Ry)=  0.0073
                       cart. coord. in units 2pi/alat
        k(    1) = (   0.0000000   0.0000000   0.0000000), wk =   0.1250000
        k(    2) = (   0.0000000   0.0419351   0.0000000), wk =   0.2500000
        k(    3) = (   0.0000000  -0.0838702   0.0000000), wk =   0.1250000
        k(    4) = (   0.0379955   0.0000049   0.0000000), wk =   0.2500000
        k(    5) = (   0.0379955   0.0419400   0.0000000), wk =   0.2500000
        k(    6) = (   0.0379955  -0.0838652   0.0000000), wk =   0.2500000
        k(    7) = (   0.0379955  -0.0419301   0.0000000), wk =   0.2500000
        k(    8) = (  -0.0759910  -0.0000099   0.0000000), wk =   0.1250000
        k(    9) = (  -0.0759910   0.0419252   0.0000000), wk =   0.2500000
        k(   10) = (  -0.0759910  -0.0838800   0.0000000), wk =   0.1250000

     Initial potential from superposition of free atoms

     starting charge  388.99913, renormalised to  405.00000

     negative rho (up, down):  1.368E-02 0.000E+00

     %%%%%%%%%%%%%%%%%%%%%%%%%%%%%%%%%%%%%%%%%%%%%%%%%%%%%%%%%%%%%%%%%%%%%%%%
     %                                                                      %
     % You are using vdW-DF, which was implemented by the Thonhauser group. %
     % Please cite the following two papers that made this development      %
     % possible and the two reviews that describe the various versions:     %
     %                                                                      %
     %   T. Thonhauser et al., PRL 115, 136402 (2015).                      %
     %   T. Thonhauser et al., PRB 76, 125112 (2007).                       %
     %   K. Berland et al., Rep. Prog. Phys. 78, 066501 (2015).             %
     %   D.C. Langreth et al., J. Phys.: Condens. Matter 21, 084203 (2009). %
     %                                                                      %
     %                                                                      %
     % If you are calculating the stress with vdW-DF, please also cite:     %
     %                                                                      %
     %   R. Sabatini et al., J. Phys.: Condens. Matter 24, 424209 (2012).   %
     %                                                                      %
     %%%%%%%%%%%%%%%%%%%%%%%%%%%%%%%%%%%%%%%%%%%%%%%%%%%%%%%%%%%%%%%%%%%%%%%%

     Adding external electric field

     Computed dipole along edir(3) :
        Dipole              -14.8132 Ry au,        -37.6513 Debye
        Dipole field         -0.0280 Ry au,

        Potential amp.        2.5913 Ry
        Total length         46.3494 bohr

     Starting wfcs are  307 atomic wfcs
  @ DRIVER MODE: Message from server: STATUS
  @ DRIVER MODE: Message from server: POSDATA
  @ DRIVER MODE: Reading and sharing cell
  @ DRIVER MODE: Reading and sharing positions
  @ DRIVER MODE: Received positions

     Self-consistent Calculation

     iteration #  1     ecut=    29.40 Ry     beta= 0.05
     Davidson diagonalization with overlap
     c_bands:  4 eigenvalues not converged
     c_bands:  4 eigenvalues not converged
     c_bands:  5 eigenvalues not converged
     c_bands:  2 eigenvalues not converged
     c_bands:  3 eigenvalues not converged
     c_bands:  4 eigenvalues not converged
     c_bands:  2 eigenvalues not converged
     ethr =  1.00E-05,  avg # of iterations = 22.9

[...]

     total energy              =   -2202.97601226 Ry
     estimated scf accuracy    <    8803.99291969 Ry

     iteration #  2     ecut=    29.40 Ry     beta= 0.05
     Davidson diagonalization with overlap
     ethr =  1.00E-02,  avg # of iterations = 32.0

[...]

     iteration # 62     ecut=    29.40 Ry     beta= 0.05
     Davidson diagonalization with overlap
     c_bands:  1 eigenvalues not converged
     ethr =  4.74E-09,  avg # of iterations = 12.9

[...]

     total energy              =   -2976.46402993 Ry
     estimated scf accuracy    <       0.00000011 Ry

     iteration # 71     ecut=    29.40 Ry     beta= 0.05
     Davidson diagonalization with overlap
     ethr =  2.71E-11,  avg # of iterations = 10.7

     negative rho (up, down):  1.441E-02 0.000E+00

     Adding external electric field

     Computed dipole along edir(3) :
        Dipole                1.2280 Ry au,          3.1213 Debye
        Dipole field          0.0023 Ry au,

        Potential amp.       -0.2148 Ry
        Total length         46.3494 bohr

     End of self-consistent calculation

          k = 0.0000 0.0000 0.0000 ( 18029 PWs)   bands (ev):

   -55.4438 -55.3556 -55.3215 -55.2176 -55.2137 -55.1863 -55.1840 -55.1762
   -55.1523 -55.1292 -55.0861 -54.9840 -54.9359 -54.8922 -54.3305 -54.2965
   -31.8408 -31.7900 -31.7210 -31.7030 -31.6891 -31.6744 -31.6537 -31.6464
   -31.6153 -31.6017 -31.5956 -31.5081 -31.4930 -31.4860 -31.4661 -31.4627
   -31.4585 -31.4501 -31.4496 -31.4191 -31.4130 -31.3913 -31.3844 -31.3744
   -31.3696 -31.3536 -31.3524 -31.3207 -31.3201 -31.3137 -31.3129 -31.3072
   -31.2989 -31.2808 -31.2568 -31.2385 -31.1731 -31.1516 -31.1396 -31.1317
   -31.1106 -31.1014 -30.7365 -30.6501 -30.6277 -30.5540 -30.4676 -30.3559
   -17.7525 -16.3676 -16.0098 -15.8459 -15.6311 -15.5384 -15.5114 -15.3126
   -15.2175 -15.1594 -14.9578 -14.9305 -14.8935 -14.8801 -14.8717 -14.8506
   -14.8468 -14.7954 -14.7801 -14.7700 -14.7665 -14.7362 -14.7091 -14.6698
   -14.6100 -14.5965 -14.4941 -14.4385 -14.3986 -14.1573 -14.1371 -13.1808
   -12.8294 -12.7130  -9.4425  -6.4471  -5.7428  -4.2679  -3.9343  -3.3678
    -3.2665  -3.2548  -3.1983  -3.1309  -2.9794  -2.8829  -2.7822  -2.7420
    -2.6112  -2.5962  -2.4911  -2.4423  -2.3693  -2.3232  -2.2820  -2.2473
    -2.2196  -2.1640  -2.1414  -2.1156  -2.1041  -2.0313  -2.0128  -1.9234
    -1.8904  -1.8770  -1.7590  -1.7245  -1.6900  -1.6771  -1.6678  -1.6633
    -1.6192  -1.6073  -1.5967  -1.5560  -1.4547  -1.4465  -1.4285  -1.3379
    -1.2433  -0.9910  -0.9593  -0.9085  -0.8966  -0.8189  -0.7804  -0.7489
    -0.7162  -0.6465  -0.6356  -0.6090  -0.5483  -0.4721  -0.4181  -0.3703
    -0.3361  -0.2242  -0.1741  -0.1306  -0.0977  -0.0610   0.0021   0.0413
     0.0656   0.1089   0.1965   0.2595   0.2873   0.3036   0.3542   0.3963
     0.4340   0.4746   0.5464   0.5690   0.5790   0.6182   0.6268   0.6479
     0.7432   0.7618   0.8212   0.8485   0.9364   0.9674   1.0116   1.1810
     1.2506   1.3089   1.3866   1.4755   1.6412   1.6956   1.7208   1.8896
     2.2630   2.3084   3.7281   3.8756   3.8918   3.9696   3.9865   4.0509
     4.2170   4.2764   4.4142   4.4250

[...]

          k = 0.0380-0.0419 0.0000 ( 17876 PWs)   bands (ev):

[...]

          k =-0.0760-0.0000 0.0000 ( 17886 PWs)   bands (ev):

[...]

          k =-0.0760-0.0839 0.0000 ( 17948 PWs)   bands (ev):

   -55.4430 -55.3387 -55.3383 -55.2163 -55.2021 -55.1878 -55.1847 -55.1704
   -55.1677 -55.1211 -55.0942 -54.9810 -54.9369 -54.8952 -54.3134 -54.3134
   -31.7287 -31.6685 -31.6562 -31.6559 -31.6551 -31.6412 -31.6321 -31.6316
   -31.5745 -31.5295 -31.5082 -31.4975 -31.4920 -31.4869 -31.4642 -31.4585
   -31.4578 -31.4551 -31.4484 -31.4359 -31.4295 -31.4268 -31.4146 -31.3886
   -31.3841 -31.3821 -31.3747 -31.3669 -31.3485 -31.3431 -31.3397 -31.3394
   -31.3365 -31.3163 -31.3148 -31.2501 -31.2330 -31.2056 -31.1773 -31.1539
   -31.1475 -31.1062 -30.6404 -30.6404 -30.5495 -30.5492 -30.5110 -30.5108
   -17.7484 -16.3576 -15.5904 -15.4452 -15.3371 -15.3268 -15.2028 -15.1351
   -15.1259 -15.0915 -15.0695 -15.0476 -15.0289 -15.0140 -14.9591 -14.9194
   -14.8880 -14.8606 -14.8561 -14.8131 -14.8033 -14.7919 -14.7741 -14.7625
   -14.7072 -14.6712 -14.6615 -14.6026 -14.4638 -14.4435 -14.2875 -13.1821
   -12.8150 -12.8147  -9.4615  -6.4316  -5.7487  -4.2542  -3.9227  -2.9643
    -2.8003  -2.6568  -2.6072  -2.5615  -2.4480  -2.4243  -2.3658  -2.3153
    -2.2915  -2.2696  -2.2175  -2.2076  -2.1623  -2.1458  -2.1218  -2.1069
    -2.0902  -2.0836  -2.0561  -2.0401  -2.0296  -2.0191  -1.9896  -1.9785
    -1.9601  -1.9316  -1.9113  -1.9024  -1.8695  -1.8262  -1.7654  -1.6559
    -1.5814  -1.5712  -1.5261  -1.5011  -1.4848  -1.4439  -1.4313  -1.3903
    -1.3730  -1.3066  -1.1486  -1.1244  -1.1093  -0.9666  -0.9593  -0.9304
    -0.8564  -0.8146  -0.7928  -0.7346  -0.7053  -0.6661  -0.5878  -0.5447
    -0.4906  -0.4242  -0.3243  -0.3169  -0.3008  -0.2808  -0.2646  -0.2567
    -0.2236  -0.1862  -0.1132  -0.0667  -0.0581  -0.0520  -0.0010   0.0789
     0.1299   0.2443   0.3903   0.3949   0.4618   0.4627   0.6624   0.6707
     0.7482   0.7833   0.8177   0.8450   0.9387   0.9566   0.9944   1.0772
     1.1408   1.1704   1.1912   1.1961   1.2491   1.4571   2.0579   2.0658
     2.1287   2.1287   3.9692   4.2023   4.2429   4.2559   4.2739   4.3006
     4.3141   4.3283   4.3953   4.4184

     the Fermi energy is     3.7655 ev

!    total energy              =   -2976.46405369 Ry
     estimated scf accuracy    <       0.00000005 Ry
     smearing contrib. (-TS)   =      -0.01955633 Ry
     internal energy E=F+TS    =   -2976.44449737 Ry

     The total energy is F=E-TS. E is the sum of the following terms:
     one-electron contribution =  -23036.80164048 Ry
     hartree contribution      =   11616.12748627 Ry
     xc contribution           =    -495.72650123 Ry
     ewald contribution        =    8939.95331220 Ry
     electric field correction =       0.00284587 Ry

     convergence has been achieved in  71 iterations

     Forces acting on atoms (cartesian axes, Ry/au):

     atom    1 type  1   force =     0.00016280   -0.00022508    0.09417035
     atom    2 type  1   force =    -0.00010093    0.00019024   -0.17535360
     atom    3 type  2   force =     0.00005553   -0.00049736   -0.02103384
     atom    4 type  2   force =    -0.00002461   -0.00093757    0.05425131
     atom    5 type  2   force =    -0.00488011   -0.00215966    0.00107651
     atom    6 type  2   force =     0.00670450   -0.00138494    0.00109164
     atom    7 type  1   force =     0.00005984    0.00331252    0.00866388
     atom    8 type  1   force =    -0.00010098    0.00120505    0.00272611
     atom    9 type  2   force =    -0.00021923   -0.00030573   -0.00057910
     atom   10 type  2   force =    -0.00111944    0.00428827   -0.01024346
     atom   11 type  2   force =    -0.00008376   -0.00055111   -0.00010941
     atom   12 type  2   force =     0.00062773   -0.00031627   -0.00027278
     atom   13 type  1   force =    -0.00143281    0.00020149   -0.00056615
     atom   14 type  1   force =     0.00071040    0.00018527   -0.00046750
     atom   15 type  2   force =     0.00014354   -0.00009370    0.00005866
     atom   16 type  2   force =    -0.00009895   -0.00069823   -0.00030528
     atom   17 type  2   force =    -0.00056056    0.00061871    0.00000977
     atom   18 type  2   force =    -0.00076950    0.00030127   -0.00021607
     atom   19 type  1   force =     0.00050564   -0.00101323    0.00058487
     atom   20 type  1   force =    -0.00084801    0.00022517    0.00082303
     atom   21 type  2   force =     0.00003742   -0.00000953    0.10316382
     atom   22 type  2   force =    -0.00009969   -0.00015448    0.00050826
     atom   23 type  2   force =    -0.07199676   -0.00019312   -0.02724989
     atom   24 type  2   force =     0.07187269    0.00026303   -0.02731878
     atom   25 type  1   force =     0.00007463   -0.00016562    0.09389967
     atom   26 type  1   force =    -0.00012218   -0.00137367   -0.17549092
     atom   27 type  2   force =     0.00011171   -0.00004993   -0.01984968
     atom   28 type  2   force =     0.00006508   -0.00104892    0.04979835
     atom   29 type  2   force =    -0.00745831    0.00209170    0.00340044
     atom   30 type  2   force =     0.00906348    0.00223308    0.00331944
     atom   31 type  1   force =     0.00019629    0.00151621    0.00006194
     atom   32 type  1   force =    -0.00008690   -0.00227266    0.00303448
     atom   33 type  2   force =    -0.00017640   -0.00031025   -0.00001427
     atom   34 type  2   force =    -0.00117083   -0.00218178   -0.00963511
     atom   35 type  2   force =     0.00063550    0.00005528   -0.00022690
     atom   36 type  2   force =     0.00037983    0.00011572   -0.00035511
     atom   37 type  1   force =    -0.00096700    0.00024035    0.00034857
     atom   38 type  1   force =     0.00096601   -0.00025146    0.00019912
     atom   39 type  2   force =    -0.00015578   -0.00052078    0.00004240
     atom   40 type  2   force =    -0.00020166   -0.00018282   -0.00019460
     atom   41 type  2   force =     0.00024122   -0.00028149   -0.00009053
     atom   42 type  2   force =    -0.00069944    0.00006328   -0.00007480
     atom   43 type  1   force =     0.00030164    0.00101144    0.00033423
     atom   44 type  1   force =    -0.00047389    0.00079247   -0.00014728
     atom   45 type  2   force =     0.00002365    0.00003377    0.10299735
     atom   46 type  2   force =    -0.07194695   -0.00008665   -0.02720194
     atom   47 type  2   force =     0.07183906    0.00034556   -0.02728501
     atom   48 type  3   force =     0.00060219    0.00000955   -0.00026498
     atom   49 type  3   force =    -0.00008809   -0.00016109    0.00074872
     atom   50 type  4   force =     0.00023303   -0.00022410    0.00034146
     atom   51 type  5   force =    -0.00104990   -0.00020165    0.00047849
     atom   52 type  5   force =     0.00060140   -0.00002738    0.00040745
     atom   53 type  5   force =    -0.00021366    0.00063976   -0.00048717
     atom   54 type  5   force =     0.00066773   -0.00019328    0.00002168
     atom   55 type  5   force =     0.00069333    0.00006237    0.00018200
     atom   56 type  5   force =    -0.00035590   -0.00169188   -0.00216579
     atom   57 type  2   force =     0.00073426   -0.00117455    0.00023851
     atom   58 type  5   force =    -0.00080792    0.00093842    0.00021746

     Total force =     0.361968     Total SCF correction =     0.000668
  @ DRIVER MODE: Message from server: STATUS
  @ DRIVER MODE: Message from server: GETFORCE
  @ DRIVER MODE: Returning v,forces,stress,ensemble

     Writing output data file ./calc.save/
  @ DRIVER MODE: Message from server: EXIT
  @ DRIVE MODE: Exiting

     General routines

     Parallel routines

   This run was terminated on:  15:15:49  24Sep2021

   JOB DONE.