     Program PWSCF v.6.7GPU starts on 16Sep2021 at  6:25:14

     R & G space division:  proc/nbgrp/npool/nimage =      10
     Reading input from /storage/home/hcoda1/3/ntian30/research/carbon/CxH_vib/H2O_calc/ads_slab/CH2NNHHHH2O_a/out_0041/pw.inp
Warning: card &CELL ignored
Warning: card   CELL_DYNAMICS='IPI', ignored
Warning: card / ignored

     Current dimensions of program PWSCF are:
     Max number of different atomic species (ntypx) = 10
     Max number of k-points (npk) =  40000
     Max angular momentum in pseudopotentials (lmaxx) =  3
     Presently no symmetry can be used with electric field

     Message from routine cell_base_init:
     DEPRECATED: use true lattice parameter, not A to a.u. conversion factor

     IMPORTANT: XC functional enforced from input :
     Exchange-correlation= BEEF-VDW
                           (   1   4  43  14   2   0   0)
     Any further DFT definition will be discarded
     Please, verify this is what you really want

  @ DRIVER MODE: Connecting to
 qe_1139763_2852612.sched-torque.pace.gatech.edua47dtrcp_scratch
  using UNIX socket
  @ DRIVER MODE: Message from server: STATUS
  @ DRIVER MODE: Message from server: INIT
  @ DRIVER MODE: Receiving replica           0          -1
  @ DRIVER MODE: Receiving encoded integer          25
  @ DRIVER MODE:  SCF:  T  FORCE:  T  STRESS:  F  VC:  F  ENSEMBLE:  F
  @ DRIVER MODE:  SCF:  T  FORCE:  T  STRESS:  F  VC:  F  ENSEMBLE:  F

     Using Slab Decomposition

     bravais-lattice index     =            0
     lattice parameter (alat)  =       1.8897  a.u.
     unit-cell volume          =    6658.9804 (a.u.)^3
     number of atoms/cell      =           58
     number of atomic types    =            5
     number of electrons       =       405.00
     number of Kohn-Sham states=          212
     kinetic-energy cutoff     =      29.3995  Ry
     charge density cutoff     =     293.9946  Ry
     scf convergence threshold =      7.3E-08
     mixing beta               =       0.0500
     number of iterations used =            8  plain     mixing
     Exchange-correlation= BEEF-VDW
                           (   1   4  43  14   2   0   0)

     celldm(1)=   1.889726  celldm(2)=   0.000000  celldm(3)=   0.000000
     celldm(4)=   0.000000  celldm(5)=   0.000000  celldm(6)=   0.000000

     crystal axes: (cart. coord. in units of alat)
               a(1) = (   6.579727   0.000000   0.000000 )
               a(2) = (  -0.000775   5.961596   0.000000 )
               a(3) = (   0.000000   0.000000  25.155947 )

     reciprocal axes: (cart. coord. in units 2 pi/alat)
               b(1) = (  0.151982  0.000020  0.000000 )
               b(2) = (  0.000000  0.167740  0.000000 )
               b(3) = (  0.000000  0.000000  0.039752 )

     PseudoPot. # 1 for Ti read from file:
     /storage/coda1/p-amedford6/0/shared/rich_project_chbe-medford/medford-share/data/pseudos_module/espresso/nninc/pbe/van/Ti.UPF
     MD5 check sum: 8e4df49b7f0d34bbd5052bf3f5ea0213
     Pseudo is Ultrasoft, Zval = 12.0
     Generated by new atomic code, or converted to UPF format
     Using radial grid of  851 points,  6 beta functions with:
                l(1) =   0
                l(2) =   0
                l(3) =   1
                l(4) =   1
                l(5) =   2
                l(6) =   2
     Q(r) pseudized with  8 coefficients,  rinner =    1.000   1.000   1.000
                                                       1.000   1.000

     PseudoPot. # 2 for O  read from file:
     /storage/coda1/p-amedford6/0/shared/rich_project_chbe-medford/medford-share/data/pseudos_module/espresso/nninc/pbe/van/O.UPF
     MD5 check sum: 78c19812648e8988a0fe644b0f25305e
     Pseudo is Ultrasoft, Zval =  6.0
     Generated by new atomic code, or converted to UPF format
     Using radial grid of  737 points,  4 beta functions with:
                l(1) =   0
                l(2) =   0
                l(3) =   1
                l(4) =   1
     Q(r) pseudized with  8 coefficients,  rinner =    0.800   0.800   0.800

     PseudoPot. # 3 for N  read from file:
     /storage/coda1/p-amedford6/0/shared/rich_project_chbe-medford/medford-share/data/pseudos_module/espresso/nninc/pbe/van/N.UPF
     MD5 check sum: 90d10febe142ad51ac9d5be1deb811c4
     Pseudo is Ultrasoft, Zval =  5.0
     Generated by new atomic code, or converted to UPF format
     Using radial grid of  729 points,  4 beta functions with:
                l(1) =   0
                l(2) =   0
                l(3) =   1
                l(4) =   1
     Q(r) pseudized with  8 coefficients,  rinner =    0.800   0.800   0.800

     PseudoPot. # 4 for C  read from file:
     /storage/coda1/p-amedford6/0/shared/rich_project_chbe-medford/medford-share/data/pseudos_module/espresso/nninc/pbe/van/C.UPF
     MD5 check sum: 1a69bf6b8db32088f5b2163dbdb77a27
     Pseudo is Ultrasoft, Zval =  4.0
     Generated by new atomic code, or converted to UPF format
     Using radial grid of  721 points,  4 beta functions with:
                l(1) =   0
                l(2) =   0
                l(3) =   1
                l(4) =   1
     Q(r) pseudized with  8 coefficients,  rinner =    0.800   0.800   0.800

     PseudoPot. # 5 for H  read from file:
     /storage/coda1/p-amedford6/0/shared/rich_project_chbe-medford/medford-share/data/pseudos_module/espresso/nninc/pbe/van/H.UPF
     MD5 check sum: b5ee9d7bfd3a09ee7748110bda690ff7
     Pseudo is Ultrasoft, Zval =  1.0
     Generated by new atomic code, or converted to UPF format
     Using radial grid of  615 points,  1 beta functions with:
                l(1) =   0
     Q(r) pseudized with  8 coefficients,  rinner =    0.800

     atomic species   valence    mass     pseudopotential
        Ti1           12.00    47.86700     Ti( 1.00)
        O1             6.00    15.99900     O ( 1.00)
        N1             5.00    14.00700     N ( 1.00)
        C1             4.00    12.01100     C ( 1.00)
        H1             1.00     1.00800     H ( 1.00)

     No symmetry found

   Cartesian axes

     site n.     atom                  positions (alat units)
         1           Ti1 tau(   1) = (   0.0004258   2.9801865   6.0000000  )
         2           Ti1 tau(   2) = (   3.2906075   1.4906267   6.0002472  )
         3           O1  tau(   3) = (   0.0006271   0.0005054   7.9858123  )
         4           O1  tau(   4) = (   3.2906025   0.0005020   7.3038282  )
         5           O1  tau(   5) = (   4.5942328   1.4918067   9.2879030  )
         6           O1  tau(   6) = (   1.9868534   1.4903216   9.2879459  )
         7           Ti1 tau(   7) = (   3.2907910   2.8959150   9.1758416  )
         8           Ti1 tau(   8) = (   0.0015273   1.4827037   9.2680791  )
         9           O1  tau(   9) = (   3.2987819   5.9401718  11.3551833  )
        10           O1  tau(  10) = (   0.0116148   5.9584955  10.6183126  )
        11           O1  tau(  11) = (   1.3094369   1.4889762  12.6418845  )
        12           O1  tau(  12) = (   5.3041503   1.4933078  12.6143371  )
        13           Ti1 tau(  13) = (   0.0302489   2.9730182  12.5448133  )
        14           Ti1 tau(  14) = (   3.3273137   1.4751619  12.4920661  )
        15           O1  tau(  15) = (   6.5331299   0.0759724  14.6728253  )
        16           O1  tau(  16) = (   3.3443954   0.0128112  13.9985917  )
        17           O1  tau(  17) = (   4.5384157   1.5150964  16.2525342  )
        18           O1  tau(  18) = (   2.0107438   1.5096167  16.1239609  )
        19           Ti1 tau(  19) = (   3.2468703   2.9375149  15.6823127  )
        20           Ti1 tau(  20) = (   6.5402329   1.3810098  16.1103674  )
        21           O1  tau(  21) = (   3.2904802   0.0005063   4.7018136  )
        22           O1  tau(  22) = (   0.0855018   5.8309792  17.2460454  )
        23           O1  tau(  23) = (   1.3043587   1.4918075   6.0039043  )
        24           O1  tau(  24) = (   5.2767064   1.4903225   6.0039473  )
        25           Ti1 tau(  25) = (   0.0000382   5.9609847   6.0000000  )
        26           Ti1 tau(  26) = (   3.2902200   4.4714249   6.0002472  )
        27           O1  tau(  27) = (   0.0002396   2.9813036   7.9858123  )
        28           O1  tau(  28) = (   3.2902150   2.9813002   7.3038282  )
        29           O1  tau(  29) = (   4.5938453   4.4726049   9.2879030  )
        30           O1  tau(  30) = (   1.9864658   4.4711199   9.2879459  )
        31           Ti1 tau(  31) = (   3.2891106   5.8743827   9.1763621  )
        32           Ti1 tau(  32) = (   0.0006254   4.4649316   9.2693709  )
        33           O1  tau(  33) = (   3.2978634   2.9839445  11.3486163  )
        34           O1  tau(  34) = (   0.0092240   2.9805883  10.6323155  )
        35           O1  tau(  35) = (   1.3057425   4.4725738  12.6940039  )
        36           O1  tau(  36) = (   5.3035974   4.4670288  12.6562451  )
        37           Ti1 tau(  37) = (   0.0240142   0.0094741  12.5095027  )
        38           Ti1 tau(  38) = (   3.3290383   4.4615466  12.5202027  )
        39           O1  tau(  39) = (   6.5484913   2.9337383  14.8377676  )
        40           O1  tau(  40) = (   3.3243726   2.9440003  13.9069550  )
        41           O1  tau(  41) = (   4.5478640   4.3999133  16.1372545  )
        42           O1  tau(  42) = (   2.0209518   4.4226222  15.9786897  )
        43           Ti1 tau(  43) = (   3.3220059   5.9437776  15.8132296  )
        44           Ti1 tau(  44) = (   0.0730556   4.5544523  15.7304118  )
        45           O1  tau(  45) = (   3.2900926   2.9813045   4.7018136  )
        46           O1  tau(  46) = (   1.3039711   4.4726057   6.0039043  )
        47           O1  tau(  47) = (   5.2763189   4.4711207   6.0039473  )
        48           N1  tau(  48) = (   0.0453545   2.8788619  17.9090770  )
        49           C1  tau(  49) = (   1.0089482   2.8008358  18.8431878  )
        50           H1  tau(  50) = (   1.0080222   3.4413729  19.7168629  )
        51           H1  tau(  51) = (   1.8954070   2.2543435  18.5800802  )
        52           N1  tau(  52) = (   5.5320326   3.6725468  18.4365114  )
        53           H1  tau(  53) = (   5.8975581   4.6271042  18.6377988  )
        54           H1  tau(  54) = (   4.8553295   3.8628436  17.6343034  )
        55           H1  tau(  55) = (   5.1025442   3.2364756  19.2632064  )
        56           O1  tau(  56) = (   2.8928424   5.6518753  18.2681889  )
        57           H1  tau(  57) = (   3.0708471   0.5134993  18.7460362  )
        58           H1  tau(  58) = (   1.9180978   5.6479514  18.1114729  )

     number of k points=    10  Fermi-Dirac smearing, width (Ry)=  0.0073
                       cart. coord. in units 2pi/alat
        k(    1) = (   0.0000000   0.0000000   0.0000000), wk =   0.1250000
        k(    2) = (   0.0000000   0.0419351   0.0000000), wk =   0.2500000
        k(    3) = (   0.0000000  -0.0838702   0.0000000), wk =   0.1250000
        k(    4) = (   0.0379955   0.0000049   0.0000000), wk =   0.2500000
        k(    5) = (   0.0379955   0.0419400   0.0000000), wk =   0.2500000
        k(    6) = (   0.0379955  -0.0838652   0.0000000), wk =   0.2500000
        k(    7) = (   0.0379955  -0.0419301   0.0000000), wk =   0.2500000
        k(    8) = (  -0.0759910  -0.0000099   0.0000000), wk =   0.1250000
        k(    9) = (  -0.0759910   0.0419252   0.0000000), wk =   0.2500000
        k(   10) = (  -0.0759910  -0.0838800   0.0000000), wk =   0.1250000

     Initial potential from superposition of free atoms

     starting charge  388.99913, renormalised to  405.00000

     negative rho (up, down):  1.580E-02 0.000E+00

     %%%%%%%%%%%%%%%%%%%%%%%%%%%%%%%%%%%%%%%%%%%%%%%%%%%%%%%%%%%%%%%%%%%%%%%%
     %                                                                      %
     % You are using vdW-DF, which was implemented by the Thonhauser group. %
     % Please cite the following two papers that made this development      %
     % possible and the two reviews that describe the various versions:     %
     %                                                                      %
     %   T. Thonhauser et al., PRL 115, 136402 (2015).                      %
     %   T. Thonhauser et al., PRB 76, 125112 (2007).                       %
     %   K. Berland et al., Rep. Prog. Phys. 78, 066501 (2015).             %
     %   D.C. Langreth et al., J. Phys.: Condens. Matter 21, 084203 (2009). %
     %                                                                      %
     %                                                                      %
     % If you are calculating the stress with vdW-DF, please also cite:     %
     %                                                                      %
     %   R. Sabatini et al., J. Phys.: Condens. Matter 24, 424209 (2012).   %
     %                                                                      %
     %%%%%%%%%%%%%%%%%%%%%%%%%%%%%%%%%%%%%%%%%%%%%%%%%%%%%%%%%%%%%%%%%%%%%%%%

     Adding external electric field

     Computed dipole along edir(3) :
        Dipole              -14.4808 Ry au,        -36.8066 Debye
        Dipole field         -0.0273 Ry au,

        Potential amp.        2.5332 Ry
        Total length         46.3494 bohr

     Starting wfcs are  307 atomic wfcs
  @ DRIVER MODE: Message from server: STATUS
  @ DRIVER MODE: Message from server: POSDATA
  @ DRIVER MODE: Reading and sharing cell
  @ DRIVER MODE: Reading and sharing positions
  @ DRIVER MODE: Received positions

     Self-consistent Calculation

     iteration #  1     ecut=    29.40 Ry     beta= 0.05
     Davidson diagonalization with overlap
     c_bands:  2 eigenvalues not converged
     c_bands:  5 eigenvalues not converged
     c_bands:  1 eigenvalues not converged
     c_bands:  3 eigenvalues not converged
     c_bands:  3 eigenvalues not converged
     c_bands:  4 eigenvalues not converged
     ethr =  1.00E-05,  avg # of iterations = 27.0

[...]

     total energy              =   -2173.30548933 Ry
     estimated scf accuracy    <    9121.02404791 Ry

     iteration #  2     ecut=    29.40 Ry     beta= 0.05
     Davidson diagonalization with overlap
     ethr =  1.00E-02,  avg # of iterations = 26.7

[...]

     iteration # 73     ecut=    29.40 Ry     beta= 0.05
     Davidson diagonalization with overlap
     c_bands:  1 eigenvalues not converged
     ethr =  4.62E-11,  avg # of iterations = 11.6

[...]

     total energy              =   -2976.32715000 Ry
     estimated scf accuracy    <       0.00000021 Ry

     iteration # 74     ecut=    29.40 Ry     beta= 0.05
     Davidson diagonalization with overlap
     ethr =  4.62E-11,  avg # of iterations =  8.2

     negative rho (up, down):  1.318E-02 0.000E+00

     Adding external electric field

     Computed dipole along edir(3) :
        Dipole                1.3373 Ry au,          3.3991 Debye
        Dipole field          0.0025 Ry au,

        Potential amp.       -0.2339 Ry
        Total length         46.3494 bohr

     End of self-consistent calculation

          k = 0.0000 0.0000 0.0000 ( 18029 PWs)   bands (ev):

   -55.1718 -55.1426 -55.1308 -55.1085 -55.0924 -55.0491 -55.0080 -54.9815
   -54.9708 -54.9558 -54.9460 -54.9380 -54.8719 -54.7258 -54.1547 -54.1206
   -31.7385 -31.6325 -31.5365 -31.5030 -31.4817 -31.4739 -31.4706 -31.4323
   -31.4096 -31.3875 -31.3817 -31.3797 -31.3674 -31.3462 -31.3198 -31.3168
   -31.3068 -31.2953 -31.2896 -31.2848 -31.2540 -31.2368 -31.2303 -31.2107
   -31.1995 -31.1817 -31.1799 -31.1792 -31.1701 -31.1676 -31.1510 -31.1417
   -31.1316 -31.1305 -31.1090 -31.1010 -31.0968 -31.0792 -31.0535 -31.0176
   -31.0027 -30.8712 -30.5631 -30.4712 -30.4490 -30.3798 -30.2931 -30.1820
   -19.0661 -18.7986 -16.0096 -15.7533 -15.6257 -15.4467 -15.3666 -15.2132
   -15.1438 -15.0625 -15.0394 -14.9686 -14.9304 -14.8996 -14.7867 -14.7797
   -14.7063 -14.7059 -14.6978 -14.6650 -14.6613 -14.6572 -14.6011 -14.5984
   -14.5590 -14.5478 -14.5355 -14.3935 -14.3185 -14.2615 -14.0781 -13.9666
   -12.6570 -12.5399  -8.9956  -7.6670  -6.9059  -6.5482  -5.7551  -3.7966
    -3.3467  -3.2154  -3.1755  -3.1149  -3.0720  -2.9835  -2.8944  -2.7737
    -2.5548  -2.4780  -2.4374  -2.3886  -2.3806  -2.3335  -2.2454  -2.1609
    -2.1288  -2.0941  -2.0437  -2.0282  -1.9869  -1.9607  -1.9415  -1.9002
    -1.8923  -1.7444  -1.6849  -1.6292  -1.5815  -1.5599  -1.5585  -1.5020
    -1.4890  -1.4663  -1.4634  -1.4535  -1.4225  -1.3859  -1.3811  -1.3279
    -1.2899  -1.1643  -1.0903  -0.9765  -0.9155  -0.8845  -0.8006  -0.7320
    -0.7157  -0.6434  -0.5798  -0.5598  -0.5024  -0.4662  -0.3748  -0.3407
    -0.2915  -0.2651  -0.1566  -0.1436  -0.1280  -0.0567   0.0320   0.0405
     0.0655   0.1107   0.1926   0.2283   0.2835   0.3098   0.4099   0.4410
     0.4825   0.5012   0.5252   0.6076   0.6785   0.7156   0.7765   0.7859
     0.8205   0.8254   0.8488   0.9426   0.9736   0.9785   1.0263   1.1931
     1.2498   1.4498   1.4515   1.7821   1.8178   1.8682   2.0545   2.4422
     2.4894   3.9273   3.9933   4.0414   4.0589   4.0774   4.1359   4.1700
     4.3975   4.4207   4.4347   4.4485

[...]

          k = 0.0380-0.0419 0.0000 ( 17876 PWs)   bands (ev):

[...]

          k =-0.0760-0.0000 0.0000 ( 17886 PWs)   bands (ev):

[...]

          k =-0.0760-0.0839 0.0000 ( 17948 PWs)   bands (ev):

   -55.1611 -55.1413 -55.1257 -55.1252 -55.0902 -55.0399 -55.0172 -54.9660
   -54.9602 -54.9578 -54.9560 -54.9538 -54.8701 -54.7275 -54.1376 -54.1376
   -31.5496 -31.5347 -31.4478 -31.4475 -31.4474 -31.4380 -31.4180 -31.4175
   -31.3834 -31.3780 -31.3683 -31.3666 -31.3366 -31.3082 -31.3007 -31.2987
   -31.2960 -31.2925 -31.2900 -31.2853 -31.2761 -31.2627 -31.2484 -31.2450
   -31.2446 -31.2426 -31.2402 -31.2140 -31.1992 -31.1911 -31.1802 -31.1760
   -31.1752 -31.1747 -31.1558 -31.1553 -31.1359 -31.1331 -31.0717 -31.0098
   -31.0063 -30.9453 -30.4617 -30.4617 -30.3758 -30.3756 -30.3365 -30.3364
   -19.0582 -18.8020 -15.5120 -15.3767 -15.3364 -15.2529 -15.1648 -15.1477
   -15.1401 -15.1084 -15.0538 -14.9942 -14.9489 -14.9142 -14.8733 -14.8719
   -14.8591 -14.7587 -14.7475 -14.7401 -14.7233 -14.6749 -14.6652 -14.6484
   -14.6232 -14.6215 -14.5963 -14.5157 -14.5147 -14.4170 -14.3081 -14.0166
   -12.6416 -12.6413  -8.9832  -7.6828  -6.8614  -6.5380  -5.7695  -3.8786
    -3.0024  -2.7688  -2.5740  -2.5457  -2.4271  -2.3748  -2.3291  -2.3076
    -2.2215  -2.1811  -2.1646  -2.1590  -2.1393  -2.0824  -2.0604  -2.0217
    -2.0014  -1.9872  -1.9797  -1.9545  -1.9494  -1.9182  -1.9013  -1.8828
    -1.8770  -1.8405  -1.8017  -1.7907  -1.7530  -1.7327  -1.7241  -1.6675
    -1.5680  -1.5368  -1.4912  -1.4249  -1.3616  -1.3578  -1.2893  -1.2676
    -1.2497  -1.2318  -1.1962  -1.1840  -1.0698  -1.0160  -0.9097  -0.8971
    -0.8911  -0.7869  -0.7528  -0.7108  -0.6803  -0.6439  -0.5877  -0.5087
    -0.5017  -0.4270  -0.3893  -0.3783  -0.3595  -0.2190  -0.1874  -0.1550
    -0.1301  -0.1256  -0.0726  -0.0291   0.0017   0.0390   0.0661   0.0991
     0.1152   0.1906   0.3269   0.3598   0.4012   0.5347   0.5620   0.6749
     0.7020   0.8228   0.8968   0.9408   0.9615   1.0390   1.1161   1.1380
     1.1436   1.2546   1.3054   1.3075   1.3247   2.2270   2.2285   2.3095
     2.3097   3.7818   4.0725   4.1979   4.2141   4.2554   4.3791   4.4447
     4.4798   4.5025   4.5050   4.5891

     the Fermi energy is     3.9761 ev

!    total energy              =   -2976.32716627 Ry
     estimated scf accuracy    <       0.00000005 Ry
     smearing contrib. (-TS)   =      -0.04074427 Ry
     internal energy E=F+TS    =   -2976.28642200 Ry

     The total energy is F=E-TS. E is the sum of the following terms:
     one-electron contribution =  -23821.14804595 Ry
     hartree contribution      =   12009.41475528 Ry
     xc contribution           =    -495.75557395 Ry
     ewald contribution        =    9331.19906770 Ry
     electric field correction =       0.00337491 Ry

     convergence has been achieved in  74 iterations

     Forces acting on atoms (cartesian axes, Ry/au):

     atom    1 type  1   force =     0.00015333   -0.00019628    0.09426257
     atom    2 type  1   force =    -0.00011527   -0.00035816   -0.17721075
     atom    3 type  2   force =     0.00008551    0.00004253   -0.02133104
     atom    4 type  2   force =     0.00001817   -0.00174151    0.05669314
     atom    5 type  2   force =    -0.01044700   -0.00127419    0.00673293
     atom    6 type  2   force =     0.01220457   -0.00071842    0.00624660
     atom    7 type  1   force =    -0.00028515    0.00288056   -0.01265337
     atom    8 type  1   force =    -0.00014610    0.00439130    0.00453899
     atom    9 type  2   force =    -0.00036196    0.00008847    0.00076027
     atom   10 type  2   force =    -0.00008365   -0.00088552   -0.00640955
     atom   11 type  2   force =    -0.00041401   -0.00032624    0.00006032
     atom   12 type  2   force =    -0.00032308   -0.00042076    0.00014476
     atom   13 type  1   force =    -0.00034152   -0.00017120   -0.00036210
     atom   14 type  1   force =     0.00003730   -0.00043422   -0.00040234
     atom   15 type  2   force =    -0.00022886   -0.00016121    0.00000596
     atom   16 type  2   force =    -0.00062284    0.00018370   -0.00026555
     atom   17 type  2   force =    -0.00006690    0.00011366    0.00016483
     atom   18 type  2   force =     0.00041193   -0.00008359    0.00025113
     atom   19 type  1   force =    -0.00021211   -0.00150969   -0.00020154
     atom   20 type  1   force =     0.00023305   -0.00027152    0.00076903
     atom   21 type  2   force =     0.00004489    0.00002090    0.10365188
     atom   22 type  2   force =    -0.00030541    0.00015427    0.00040539
     atom   23 type  2   force =    -0.07084173   -0.00011374   -0.02713220
     atom   24 type  2   force =     0.07074157    0.00032476   -0.02716343
     atom   25 type  1   force =    -0.00006860   -0.00022987    0.09368853
     atom   26 type  1   force =    -0.00013667   -0.00042097   -0.17734288
     atom   27 type  2   force =     0.00014989   -0.00039607   -0.02028236
     atom   28 type  2   force =     0.00005343   -0.00138103    0.05585271
     atom   29 type  2   force =    -0.01031773   -0.00029341    0.00538606
     atom   30 type  2   force =     0.01198903    0.00010476    0.00502368
     atom   31 type  1   force =    -0.00017429    0.00358044   -0.01531440
     atom   32 type  1   force =    -0.00018980   -0.00485235    0.00438575
     atom   33 type  2   force =    -0.00006575   -0.00016854    0.00031346
     atom   34 type  2   force =     0.00120531    0.00258389   -0.00430104
     atom   35 type  2   force =    -0.00070640   -0.00016474    0.00017216
     atom   36 type  2   force =    -0.00002218   -0.00003102    0.00045913
     atom   37 type  1   force =     0.00038905    0.00042010   -0.00033136
     atom   38 type  1   force =    -0.00001742    0.00052857   -0.00163796
     atom   39 type  2   force =     0.00023186   -0.00040344   -0.00021489
     atom   40 type  2   force =     0.00006063    0.00007921    0.00066151
     atom   41 type  2   force =     0.00028379   -0.00079111    0.00063558
     atom   42 type  2   force =     0.00049859   -0.00037205    0.00003240
     atom   43 type  1   force =    -0.00109599    0.00126255    0.00058257
     atom   44 type  1   force =     0.00039765    0.00019229   -0.00018634
     atom   45 type  2   force =     0.00003723   -0.00002607    0.10367833
     atom   46 type  2   force =    -0.07087534   -0.00005737   -0.02713004
     atom   47 type  2   force =     0.07076864    0.00034550   -0.02716124
     atom   48 type  3   force =     0.00104197    0.00028002    0.00075425
     atom   49 type  4   force =     0.00068643   -0.00063646    0.00003708
     atom   50 type  5   force =     0.00113151   -0.00015681   -0.00026596
     atom   51 type  5   force =    -0.00073367    0.00073476   -0.00042169
     atom   52 type  3   force =    -0.00318685    0.00065789   -0.00570426
     atom   53 type  5   force =    -0.00168039   -0.00031770    0.00016374
     atom   54 type  5   force =     0.00374189   -0.00042408    0.00609988
     atom   55 type  5   force =    -0.00088663    0.00001044   -0.00024901
     atom   56 type  2   force =    -0.00031692    0.00122851   -0.00059299
     atom   57 type  5   force =    -0.00025750   -0.00078943    0.00036591
     atom   58 type  5   force =    -0.00106951    0.00036969    0.00128777

     Total force =     0.365458     Total SCF correction =     0.000672
  @ DRIVER MODE: Message from server: STATUS
  @ DRIVER MODE: Message from server: GETFORCE
  @ DRIVER MODE: Returning v,forces,stress,ensemble

     Writing output data file ./calc.save/
  @ DRIVER MODE: Message from server: EXIT
  @ DRIVE MODE: Exiting

     General routines

     Parallel routines

   This run was terminated on:   6:46:18  16Sep2021

   JOB DONE.