     Program PWSCF v.6.7GPU starts on  2Aug2021 at 15:45:17

     R & G space division:  proc/nbgrp/npool/nimage =      16
     Reading input from /storage/home/hcoda1/3/ntian30/research/carbon/02Aug_vib_paired/ads_slab/CH3NHHH_a/out_0010/pw.inp
Warning: card &CELL ignored
Warning: card   CELL_DYNAMICS='IPI', ignored
Warning: card / ignored

     Current dimensions of program PWSCF are:
     Max number of different atomic species (ntypx) = 10
     Max number of k-points (npk) =  40000
     Max angular momentum in pseudopotentials (lmaxx) =  3
     Presently no symmetry can be used with electric field

     Message from routine cell_base_init:
     DEPRECATED: use true lattice parameter, not A to a.u. conversion factor

     IMPORTANT: XC functional enforced from input :
     Exchange-correlation= BEEF-VDW
                           (   1   4  43  14   2   0   0)
     Any further DFT definition will be discarded
     Please, verify this is what you really want

  @ DRIVER MODE: Connecting to
 qe_1139763_2482537.sched-torque.pace.gatech.eduzx8y998d_scratch
  using UNIX socket
  @ DRIVER MODE: Message from server: STATUS
  @ DRIVER MODE: Message from server: INIT
  @ DRIVER MODE: Receiving replica           0          -1
  @ DRIVER MODE: Receiving encoded integer          25
  @ DRIVER MODE:  SCF:  T  FORCE:  T  STRESS:  F  VC:  F  ENSEMBLE:  F
  @ DRIVER MODE:  SCF:  T  FORCE:  T  STRESS:  F  VC:  F  ENSEMBLE:  F

     Using Slab Decomposition

     bravais-lattice index     =            0
     lattice parameter (alat)  =       1.8897  a.u.
     unit-cell volume          =    6658.9804 (a.u.)^3
     number of atoms/cell      =           55
     number of atomic types    =            5
     number of electrons       =       393.00
     number of Kohn-Sham states=          206
     kinetic-energy cutoff     =      29.3995  Ry
     charge density cutoff     =     293.9946  Ry
     scf convergence threshold =      7.3E-08
     mixing beta               =       0.0500
     number of iterations used =            8  plain     mixing
     Exchange-correlation= BEEF-VDW
                           (   1   4  43  14   2   0   0)

     celldm(1)=   1.889726  celldm(2)=   0.000000  celldm(3)=   0.000000
     celldm(4)=   0.000000  celldm(5)=   0.000000  celldm(6)=   0.000000

     crystal axes: (cart. coord. in units of alat)
               a(1) = (   6.579727   0.000000   0.000000 )
               a(2) = (  -0.000775   5.961596   0.000000 )
               a(3) = (   0.000000   0.000000  25.155947 )

     reciprocal axes: (cart. coord. in units 2 pi/alat)
               b(1) = (  0.151982  0.000020  0.000000 )
               b(2) = (  0.000000  0.167740  0.000000 )
               b(3) = (  0.000000  0.000000  0.039752 )

     PseudoPot. # 1 for Ti read from file:
     /storage/coda1/p-amedford6/0/shared/rich_project_chbe-medford/medford-share/data/pseudos_module/espresso/nninc/pbe/van/Ti.UPF
     MD5 check sum: 8e4df49b7f0d34bbd5052bf3f5ea0213
     Pseudo is Ultrasoft, Zval = 12.0
     Generated by new atomic code, or converted to UPF format
     Using radial grid of  851 points,  6 beta functions with:
                l(1) =   0
                l(2) =   0
                l(3) =   1
                l(4) =   1
                l(5) =   2
                l(6) =   2
     Q(r) pseudized with  8 coefficients,  rinner =    1.000   1.000   1.000
                                                       1.000   1.000

     PseudoPot. # 2 for O  read from file:
     /storage/coda1/p-amedford6/0/shared/rich_project_chbe-medford/medford-share/data/pseudos_module/espresso/nninc/pbe/van/O.UPF
     MD5 check sum: 78c19812648e8988a0fe644b0f25305e
     Pseudo is Ultrasoft, Zval =  6.0
     Generated by new atomic code, or converted to UPF format
     Using radial grid of  737 points,  4 beta functions with:
                l(1) =   0
                l(2) =   0
                l(3) =   1
                l(4) =   1
     Q(r) pseudized with  8 coefficients,  rinner =    0.800   0.800   0.800

     PseudoPot. # 3 for N  read from file:
     /storage/coda1/p-amedford6/0/shared/rich_project_chbe-medford/medford-share/data/pseudos_module/espresso/nninc/pbe/van/N.UPF
     MD5 check sum: 90d10febe142ad51ac9d5be1deb811c4
     Pseudo is Ultrasoft, Zval =  5.0
     Generated by new atomic code, or converted to UPF format
     Using radial grid of  729 points,  4 beta functions with:
                l(1) =   0
                l(2) =   0
                l(3) =   1
                l(4) =   1
     Q(r) pseudized with  8 coefficients,  rinner =    0.800   0.800   0.800

     PseudoPot. # 4 for C  read from file:
     /storage/coda1/p-amedford6/0/shared/rich_project_chbe-medford/medford-share/data/pseudos_module/espresso/nninc/pbe/van/C.UPF
     MD5 check sum: 1a69bf6b8db32088f5b2163dbdb77a27
     Pseudo is Ultrasoft, Zval =  4.0
     Generated by new atomic code, or converted to UPF format
     Using radial grid of  721 points,  4 beta functions with:
                l(1) =   0
                l(2) =   0
                l(3) =   1
                l(4) =   1
     Q(r) pseudized with  8 coefficients,  rinner =    0.800   0.800   0.800

     PseudoPot. # 5 for H  read from file:
     /storage/coda1/p-amedford6/0/shared/rich_project_chbe-medford/medford-share/data/pseudos_module/espresso/nninc/pbe/van/H.UPF
     MD5 check sum: b5ee9d7bfd3a09ee7748110bda690ff7
     Pseudo is Ultrasoft, Zval =  1.0
     Generated by new atomic code, or converted to UPF format
     Using radial grid of  615 points,  1 beta functions with:
                l(1) =   0
     Q(r) pseudized with  8 coefficients,  rinner =    0.800

     atomic species   valence    mass     pseudopotential
        Ti1           12.00    47.86700     Ti( 1.00)
        O1             6.00    15.99900     O ( 1.00)
        N1             5.00    14.00700     N ( 1.00)
        C1             4.00    12.01100     C ( 1.00)
        H1             1.00     1.00800     H ( 1.00)

     No symmetry found

   Cartesian axes

     site n.     atom                  positions (alat units)
         1           Ti1 tau(   1) = (   0.0004258   2.9801865   6.0000000  )
         2           Ti1 tau(   2) = (   3.2906075   1.4906267   6.0002472  )
         3           O1  tau(   3) = (   0.0006271   0.0005054   7.9858123  )
         4           O1  tau(   4) = (   3.2906025   0.0005020   7.3038282  )
         5           O1  tau(   5) = (   4.5942328   1.4918067   9.2879030  )
         6           O1  tau(   6) = (   1.9868534   1.4903216   9.2879459  )
         7           Ti1 tau(   7) = (   3.2907910   2.8959150   9.1758416  )
         8           Ti1 tau(   8) = (   0.0015273   1.4827037   9.2680791  )
         9           O1  tau(   9) = (   3.2636084   5.9406443  11.4082010  )
        10           O1  tau(  10) = (   0.0116148   5.9584955  10.6183126  )
        11           O1  tau(  11) = (   1.2642105   1.4849797  12.6947803  )
        12           O1  tau(  12) = (   5.2691575   1.4821021  12.6650678  )
        13           Ti1 tau(  13) = (   6.5574234   2.9640577  12.4921542  )
        14           Ti1 tau(  14) = (   3.2619390   1.4709553  12.5527290  )
        15           O1  tau(  15) = (   6.5247406   5.9594380  14.6832748  )
        16           O1  tau(  16) = (   3.2695906   5.9428997  14.0562986  )
        17           O1  tau(  17) = (   4.5175969   1.4707097  16.2986306  )
        18           O1  tau(  18) = (   1.9406912   1.4777946  16.2473769  )
        19           Ti1 tau(  19) = (   3.2491105   2.9422209  15.8109686  )
        20           Ti1 tau(  20) = (   6.5361480   1.3378720  15.9626387  )
        21           O1  tau(  21) = (   3.2904802   0.0005063   4.7018136  )
        22           O1  tau(  22) = (   6.5280740   5.8897732  17.4332532  )
        23           O1  tau(  23) = (   1.3043587   1.4918075   6.0039043  )
        24           O1  tau(  24) = (   5.2767064   1.4903225   6.0039473  )
        25           Ti1 tau(  25) = (   0.0000382   5.9609847   6.0000000  )
        26           Ti1 tau(  26) = (   3.2902200   4.4714249   6.0002472  )
        27           O1  tau(  27) = (   0.0002396   2.9813036   7.9858123  )
        28           O1  tau(  28) = (   3.2902150   2.9813002   7.3038282  )
        29           O1  tau(  29) = (   4.5938453   4.4726049   9.2879030  )
        30           O1  tau(  30) = (   1.9864658   4.4711199   9.2879459  )
        31           Ti1 tau(  31) = (   3.2891106   5.8743827   9.1763621  )
        32           Ti1 tau(  32) = (   0.0006254   4.4649316   9.2693709  )
        33           O1  tau(  33) = (   3.2649920   2.9642658  11.3997388  )
        34           O1  tau(  34) = (   0.0092240   2.9805883  10.6323155  )
        35           O1  tau(  35) = (   1.2634527   4.4478426  12.7061968  )
        36           O1  tau(  36) = (   5.2693862   4.4495813  12.6755241  )
        37           Ti1 tau(  37) = (   6.5522441   5.9483113  12.5008436  )
        38           Ti1 tau(  38) = (   3.2626494   4.4468850  12.5575576  )
        39           O1  tau(  39) = (   6.4970557   2.9363996  15.0046851  )
        40           O1  tau(  40) = (   3.2722650   2.9529576  14.0194401  )
        41           O1  tau(  41) = (   4.5170401   4.4205294  16.2730734  )
        42           O1  tau(  42) = (   1.9466746   4.4191161  16.2235312  )
        43           Ti1 tau(  43) = (   3.2419262   5.9323414  15.8513663  )
        44           Ti1 tau(  44) = (   6.5549466   4.5556212  15.8889459  )
        45           O1  tau(  45) = (   3.2900926   2.9813045   4.7018136  )
        46           O1  tau(  46) = (   1.3039711   4.4726057   6.0039043  )
        47           O1  tau(  47) = (   5.2763189   4.4711207   6.0039473  )
        48           N1  tau(  48) = (   4.8657738   4.5798987  19.4796958  )
        49           C1  tau(  49) = (   5.7271871   3.4429544  19.8049648  )
        50           H1  tau(  50) = (   6.3241292   3.1721029  18.9298488  )
        51           H1  tau(  51) = (   6.4229137   3.7195585  20.5942015  )
        52           H1  tau(  52) = (   5.1874390   2.5328885  20.1195193  )
        53           H1  tau(  53) = (   5.9066942   5.7389963  18.1772939  )
        54           H1  tau(  54) = (   4.2103208   4.3266459  18.7469397  )
        55           H1  tau(  55) = (   4.3187305   4.8545830  20.2870342  )

     number of k points=    10  Fermi-Dirac smearing, width (Ry)=  0.0073
                       cart. coord. in units 2pi/alat
        k(    1) = (   0.0000000   0.0000000   0.0000000), wk =   0.1250000
        k(    2) = (   0.0000000   0.0419351   0.0000000), wk =   0.2500000
        k(    3) = (   0.0000000  -0.0838702   0.0000000), wk =   0.1250000
        k(    4) = (   0.0379955   0.0000049   0.0000000), wk =   0.2500000
        k(    5) = (   0.0379955   0.0419400   0.0000000), wk =   0.2500000
        k(    6) = (   0.0379955  -0.0838652   0.0000000), wk =   0.2500000
        k(    7) = (   0.0379955  -0.0419301   0.0000000), wk =   0.2500000
        k(    8) = (  -0.0759910  -0.0000099   0.0000000), wk =   0.1250000
        k(    9) = (  -0.0759910   0.0419252   0.0000000), wk =   0.2500000
        k(   10) = (  -0.0759910  -0.0838800   0.0000000), wk =   0.1250000

     Initial potential from superposition of free atoms

     starting charge  376.99914, renormalised to  393.00000

     negative rho (up, down):  1.330E-02 0.000E+00

     %%%%%%%%%%%%%%%%%%%%%%%%%%%%%%%%%%%%%%%%%%%%%%%%%%%%%%%%%%%%%%%%%%%%%%%%
     %                                                                      %
     % You are using vdW-DF, which was implemented by the Thonhauser group. %
     % Please cite the following two papers that made this development      %
     % possible and the two reviews that describe the various versions:     %
     %                                                                      %
     %   T. Thonhauser et al., PRL 115, 136402 (2015).                      %
     %   T. Thonhauser et al., PRB 76, 125112 (2007).                       %
     %   K. Berland et al., Rep. Prog. Phys. 78, 066501 (2015).             %
     %   D.C. Langreth et al., J. Phys.: Condens. Matter 21, 084203 (2009). %
     %                                                                      %
     %                                                                      %
     % If you are calculating the stress with vdW-DF, please also cite:     %
     %                                                                      %
     %   R. Sabatini et al., J. Phys.: Condens. Matter 24, 424209 (2012).   %
     %                                                                      %
     %%%%%%%%%%%%%%%%%%%%%%%%%%%%%%%%%%%%%%%%%%%%%%%%%%%%%%%%%%%%%%%%%%%%%%%%

     Adding external electric field

     Computed dipole along edir(3) :
        Dipole               -9.4918 Ry au,        -24.1257 Debye
        Dipole field         -0.0179 Ry au,

        Potential amp.        1.6604 Ry
        Total length         46.3494 bohr

     Starting wfcs are  298 atomic wfcs
  @ DRIVER MODE: Message from server: STATUS
  @ DRIVER MODE: Message from server: POSDATA
  @ DRIVER MODE: Reading and sharing cell
  @ DRIVER MODE: Reading and sharing positions
  @ DRIVER MODE: Received positions

     Self-consistent Calculation

     iteration #  1     ecut=    29.40 Ry     beta= 0.05
     Davidson diagonalization with overlap
     c_bands:  2 eigenvalues not converged
     c_bands:  1 eigenvalues not converged
     c_bands:  2 eigenvalues not converged
     c_bands:  3 eigenvalues not converged
     c_bands:  3 eigenvalues not converged
     c_bands:  1 eigenvalues not converged
     ethr =  1.00E-05,  avg # of iterations = 18.9

[...]

     total energy              =   -2620.44990605 Ry
     estimated scf accuracy    <    3390.29922443 Ry

[...]

     iteration #  3     ecut=    29.40 Ry     beta= 0.05
     Davidson diagonalization with overlap
     ethr =  1.00E-02,  avg # of iterations = 14.7

[...]

     iteration # 81     ecut=    29.40 Ry     beta= 0.05
     Davidson diagonalization with overlap
     c_bands:  1 eigenvalues not converged
     ethr =  2.00E-11,  avg # of iterations =  6.2

[...]

     total energy              =   -2922.77368243 Ry
     estimated scf accuracy    <       0.00000008 Ry

     iteration # 82     ecut=    29.40 Ry     beta= 0.05
     Davidson diagonalization with overlap
     ethr =  1.92E-11,  avg # of iterations =  9.0

     negative rho (up, down):  1.445E-02 0.000E+00

     Adding external electric field

     Computed dipole along edir(3) :
        Dipole                1.4035 Ry au,          3.5674 Debye
        Dipole field          0.0026 Ry au,

        Potential amp.       -0.2455 Ry
        Total length         46.3494 bohr

     End of self-consistent calculation

          k = 0.0000 0.0000 0.0000 ( 18029 PWs)   bands (ev):

   -55.3092 -55.2733 -55.2576 -55.2235 -55.1733 -55.1491 -55.1480 -55.1389
   -55.1147 -55.0846 -55.0739 -55.0507 -55.0320 -54.9739 -54.3013 -54.2672
   -31.8762 -31.7520 -31.6897 -31.6617 -31.6370 -31.6162 -31.5917 -31.5511
   -31.5468 -31.5456 -31.5165 -31.5055 -31.5016 -31.4768 -31.4662 -31.4613
   -31.4479 -31.4379 -31.4106 -31.4021 -31.3977 -31.3814 -31.3732 -31.3559
   -31.3532 -31.3157 -31.3149 -31.3056 -31.3032 -31.2902 -31.2853 -31.2834
   -31.2768 -31.2759 -31.2608 -31.2578 -31.2256 -31.2120 -31.2011 -31.1954
   -31.1825 -31.1076 -30.7116 -30.6151 -30.5932 -30.5276 -30.4407 -30.3301
   -16.8266 -16.1483 -15.8920 -15.7712 -15.6633 -15.6338 -15.5214 -15.4423
   -15.3583 -15.2579 -15.1964 -15.0915 -15.0568 -15.0171 -15.0028 -14.9834
   -14.9566 -14.8765 -14.8655 -14.8550 -14.8292 -14.8110 -14.7829 -14.7739
   -14.7671 -14.7278 -14.6905 -14.5782 -14.4877 -14.4022 -12.8045 -12.6868
    -9.9964  -5.8790  -4.7445  -4.4465  -3.5154  -3.4739  -3.3441  -3.2388
    -3.2057  -3.1975  -3.0765  -2.8933  -2.7982  -2.7713  -2.6824  -2.6301
    -2.5343  -2.5305  -2.4904  -2.3901  -2.3523  -2.3255  -2.2424  -2.2155
    -2.1693  -2.1185  -2.1082  -2.1050  -2.0844  -2.0440  -2.0052  -1.8865
    -1.8016  -1.7797  -1.7062  -1.6898  -1.6838  -1.6556  -1.6126  -1.5934
    -1.5441  -1.5271  -1.4864  -1.4177  -1.3564  -1.2743  -1.2372  -1.2003
    -0.9944  -0.9654  -0.9149  -0.9124  -0.8842  -0.8156  -0.7860  -0.7564
    -0.6904  -0.6880  -0.6595  -0.5532  -0.5104  -0.3895  -0.3190  -0.2394
    -0.1176  -0.1045  -0.0806  -0.0310  -0.0073   0.0522   0.1122   0.1489
     0.1883   0.2010   0.2883   0.3181   0.3954   0.4105   0.4505   0.5109
     0.5282   0.5538   0.5750   0.5833   0.6172   0.6330   0.6670   0.7338
     0.7659   0.8672   0.9160   1.1997   1.2851   1.5941   1.6174   1.7209
     1.9022   2.2993   2.3485   3.7850   3.8463   3.8868   3.9294   3.9330
     4.0147   4.1457   4.2883   4.2977   4.3091   4.3158

[...]

          k = 0.0380-0.0419 0.0000 ( 17876 PWs)   bands (ev):

[...]

          k =-0.0760-0.0000 0.0000 ( 17886 PWs)   bands (ev):

[...]

          k =-0.0760-0.0839 0.0000 ( 17948 PWs)   bands (ev):

   -55.2926 -55.2897 -55.2409 -55.2401 -55.1566 -55.1556 -55.1440 -55.1339
   -55.1296 -55.0777 -55.0689 -55.0665 -55.0249 -54.9810 -54.2843 -54.2841
   -31.6839 -31.6788 -31.5887 -31.5833 -31.5673 -31.5667 -31.5576 -31.5313
   -31.5305 -31.5100 -31.5050 -31.5032 -31.4900 -31.4637 -31.4589 -31.4577
   -31.4319 -31.4313 -31.4248 -31.4037 -31.3813 -31.3793 -31.3691 -31.3652
   -31.3645 -31.3604 -31.3597 -31.3510 -31.3493 -31.3431 -31.3394 -31.3240
   -31.3213 -31.3085 -31.3055 -31.2943 -31.2658 -31.2486 -31.2467 -31.2442
   -31.2271 -31.1741 -30.6059 -30.6058 -30.5241 -30.5239 -30.4842 -30.4841
   -16.7653 -15.8211 -15.6356 -15.5412 -15.5001 -15.4054 -15.3316 -15.3006
   -15.2906 -15.2774 -15.1515 -15.1232 -15.1138 -15.0857 -15.0540 -15.0294
   -15.0255 -14.9907 -14.9335 -14.9273 -14.9195 -14.9112 -14.8475 -14.8393
   -14.8355 -14.8287 -14.7632 -14.7608 -14.6789 -14.6769 -12.7882 -12.7882
   -10.0060  -5.8794  -4.8714  -4.4270  -3.5278  -2.8244  -2.7970  -2.7445
    -2.7001  -2.6138  -2.5280  -2.5009  -2.4643  -2.4066  -2.3544  -2.3071
    -2.3050  -2.2693  -2.2497  -2.2309  -2.1872  -2.1656  -2.1431  -2.1249
    -2.1102  -2.0564  -2.0536  -2.0445  -2.0202  -1.9860  -1.9685  -1.9552
    -1.9390  -1.9208  -1.8953  -1.8760  -1.7330  -1.7121  -1.6716  -1.5540
    -1.5363  -1.5329  -1.4998  -1.4560  -1.4313  -1.4238  -1.3499  -1.3428
    -1.3101  -1.1532  -1.0808  -1.0790  -1.0557  -1.0317  -0.9367  -0.8852
    -0.8448  -0.7949  -0.7191  -0.6878  -0.6690  -0.5965  -0.5696  -0.4781
    -0.3887  -0.3619  -0.3537  -0.2763  -0.2748  -0.2414  -0.2282  -0.1593
    -0.0990  -0.0475  -0.0435  -0.0394   0.0893   0.1263   0.2064   0.3204
     0.4009   0.4091   0.4610   0.5208   0.6124   0.6510   0.6707   0.7875
     0.7895   0.9759   0.9792   1.0276   1.0426   1.1230   1.1281   2.0750
     2.0757   2.1681   2.1684   3.7605   3.9436   3.9978   4.0706   4.0961
     4.1941   4.2789   4.3127   4.3427   4.3652   4.3709

     the Fermi energy is     3.8536 ev

!    total energy              =   -2922.77368802 Ry
     estimated scf accuracy    <       0.00000003 Ry
     smearing contrib. (-TS)   =      -0.04551972 Ry
     internal energy E=F+TS    =   -2922.72816830 Ry

     The total energy is F=E-TS. E is the sum of the following terms:
     one-electron contribution =  -23201.74852318 Ry
     hartree contribution      =   11691.14717753 Ry
     xc contribution           =    -482.54911933 Ry
     ewald contribution        =    9070.41857927 Ry
     electric field correction =       0.00371740 Ry

     convergence has been achieved in  82 iterations

     Forces acting on atoms (cartesian axes, Ry/au):

     atom    1 type  1   force =     0.00016922   -0.00007649    0.09299682
     atom    2 type  1   force =    -0.00000121   -0.00014343   -0.17881490
     atom    3 type  2   force =     0.00002199   -0.00029719   -0.02022471
     atom    4 type  2   force =    -0.00000155   -0.00223785    0.06097318
     atom    5 type  2   force =    -0.01150369   -0.00128187    0.01054728
     atom    6 type  2   force =     0.01241695   -0.00058614    0.00811165
     atom    7 type  1   force =    -0.00124715    0.00346437   -0.01488541
     atom    8 type  1   force =     0.00122810   -0.00358844   -0.00845788
     atom    9 type  2   force =     0.00001404   -0.00004937   -0.00024935
     atom   10 type  2   force =    -0.00281352   -0.00047978    0.00154703
     atom   11 type  2   force =     0.00010725   -0.00023655   -0.00029293
     atom   12 type  2   force =     0.00001667    0.00008372   -0.00010224
     atom   13 type  1   force =    -0.00019577   -0.00031496   -0.00061187
     atom   14 type  1   force =    -0.00003473   -0.00004716    0.00020561
     atom   15 type  2   force =    -0.00011523   -0.00024742   -0.00011109
     atom   16 type  2   force =     0.00032462    0.00035088   -0.00010522
     atom   17 type  2   force =     0.00077670    0.00028462   -0.00027156
     atom   18 type  2   force =     0.00010013   -0.00027931   -0.00006592
     atom   19 type  1   force =     0.00024794    0.00040571   -0.00040563
     atom   20 type  1   force =     0.00009742    0.00011470    0.00050523
     atom   21 type  2   force =     0.00012542   -0.00003308    0.10424827
     atom   22 type  2   force =    -0.00052306    0.00013623    0.00020572
     atom   23 type  2   force =    -0.06991901   -0.00011134   -0.02677998
     atom   24 type  2   force =     0.06988802    0.00034583   -0.02678138
     atom   25 type  1   force =     0.00019274   -0.00020663    0.09228102
     atom   26 type  1   force =    -0.00007182   -0.00036498   -0.17901567
     atom   27 type  2   force =     0.00004075   -0.00025463   -0.01895315
     atom   28 type  2   force =     0.00006572   -0.00192821    0.06021991
     atom   29 type  2   force =    -0.01169198   -0.00162471    0.01034111
     atom   30 type  2   force =     0.01247797   -0.00120674    0.00787078
     atom   31 type  1   force =    -0.00101319    0.00608652   -0.01577107
     atom   32 type  1   force =     0.00116870    0.00333603   -0.00863991
     atom   33 type  2   force =     0.00002984    0.00020197   -0.00023926
     atom   34 type  2   force =    -0.00240580   -0.00053499    0.00060129
     atom   35 type  2   force =    -0.00001202    0.00000041    0.00005058
     atom   36 type  2   force =     0.00005089   -0.00007462    0.00036516
     atom   37 type  1   force =     0.00035253   -0.00004184   -0.00004265
     atom   38 type  1   force =    -0.00034567   -0.00030365    0.00045543
     atom   39 type  2   force =     0.00036504   -0.00015581    0.00062150
     atom   40 type  2   force =     0.00025215   -0.00017525    0.00005062
     atom   41 type  2   force =     0.00004860    0.00035958   -0.00036340
     atom   42 type  2   force =     0.00051843    0.00022829   -0.00019318
     atom   43 type  1   force =     0.00023969   -0.00015225   -0.00036298
     atom   44 type  1   force =     0.00016990   -0.00131411    0.00063695
     atom   45 type  2   force =     0.00011744   -0.00005455    0.10420568
     atom   46 type  2   force =    -0.06993330   -0.00005219   -0.02677116
     atom   47 type  2   force =     0.06992144    0.00035114   -0.02679128
     atom   48 type  3   force =    -0.00200502    0.00574907   -0.00178539
     atom   49 type  4   force =    -0.00077556   -0.01682113   -0.00167225
     atom   50 type  5   force =    -0.00099304    0.00221424    0.00166093
     atom   51 type  5   force =     0.00103823    0.00229590    0.00216399
     atom   52 type  5   force =     0.00352914    0.00682065   -0.00155426
     atom   53 type  5   force =     0.00013987    0.00087297   -0.00111116
     atom   54 type  5   force =     0.00004143    0.00013541   -0.00046645
     atom   55 type  5   force =    -0.00069266    0.00143844    0.00102754

     Total force =     0.368130     Total SCF correction =     0.000347
  @ DRIVER MODE: Message from server: STATUS
  @ DRIVER MODE: Message from server: GETFORCE
  @ DRIVER MODE: Returning v,forces,stress,ensemble

     Writing output data file ./calc.save/
  @ DRIVER MODE: Message from server: EXIT
  @ DRIVE MODE: Exiting

     General routines

     Parallel routines

   This run was terminated on:  16: 4:40   2Aug2021

   JOB DONE.