     Program PWSCF v.6.7GPU starts on  3Aug2021 at 20:52:33

     R & G space division:  proc/nbgrp/npool/nimage =      16
     Reading input from /storage/home/hcoda1/3/ntian30/research/carbon/02Aug_vib_paired/ads_slab/CH3NH3NH3_a/out_0018/pw.inp
Warning: card &CELL ignored
Warning: card   CELL_DYNAMICS='IPI', ignored
Warning: card / ignored

     Current dimensions of program PWSCF are:
     Max number of different atomic species (ntypx) = 10
     Max number of k-points (npk) =  40000
     Max angular momentum in pseudopotentials (lmaxx) =  3
     Presently no symmetry can be used with electric field

     Message from routine cell_base_init:
     DEPRECATED: use true lattice parameter, not A to a.u. conversion factor

     IMPORTANT: XC functional enforced from input :
     Exchange-correlation= BEEF-VDW
                           (   1   4  43  14   2   0   0)
     Any further DFT definition will be discarded
     Please, verify this is what you really want

  @ DRIVER MODE: Connecting to
 qe_1139763_2492108.sched-torque.pace.gatech.edua48_65mx_scratch
  using UNIX socket
  @ DRIVER MODE: Message from server: STATUS
  @ DRIVER MODE: Message from server: INIT
  @ DRIVER MODE: Receiving replica           0          -1
  @ DRIVER MODE: Receiving encoded integer          25
  @ DRIVER MODE:  SCF:  T  FORCE:  T  STRESS:  F  VC:  F  ENSEMBLE:  F
  @ DRIVER MODE:  SCF:  T  FORCE:  T  STRESS:  F  VC:  F  ENSEMBLE:  F

     Using Slab Decomposition

     bravais-lattice index     =            0
     lattice parameter (alat)  =       1.8897  a.u.
     unit-cell volume          =    6658.9804 (a.u.)^3
     number of atoms/cell      =           59
     number of atomic types    =            5
     number of electrons       =       401.00
     number of Kohn-Sham states=          210
     kinetic-energy cutoff     =      29.3995  Ry
     charge density cutoff     =     293.9946  Ry
     scf convergence threshold =      7.3E-08
     mixing beta               =       0.0500
     number of iterations used =            8  plain     mixing
     Exchange-correlation= BEEF-VDW
                           (   1   4  43  14   2   0   0)

     celldm(1)=   1.889726  celldm(2)=   0.000000  celldm(3)=   0.000000
     celldm(4)=   0.000000  celldm(5)=   0.000000  celldm(6)=   0.000000

     crystal axes: (cart. coord. in units of alat)
               a(1) = (   6.579727   0.000000   0.000000 )
               a(2) = (  -0.000775   5.961596   0.000000 )
               a(3) = (   0.000000   0.000000  25.155947 )

     reciprocal axes: (cart. coord. in units 2 pi/alat)
               b(1) = (  0.151982  0.000020  0.000000 )
               b(2) = (  0.000000  0.167740  0.000000 )
               b(3) = (  0.000000  0.000000  0.039752 )

     PseudoPot. # 1 for Ti read from file:
     /storage/coda1/p-amedford6/0/shared/rich_project_chbe-medford/medford-share/data/pseudos_module/espresso/nninc/pbe/van/Ti.UPF
     MD5 check sum: 8e4df49b7f0d34bbd5052bf3f5ea0213
     Pseudo is Ultrasoft, Zval = 12.0
     Generated by new atomic code, or converted to UPF format
     Using radial grid of  851 points,  6 beta functions with:
                l(1) =   0
                l(2) =   0
                l(3) =   1
                l(4) =   1
                l(5) =   2
                l(6) =   2
     Q(r) pseudized with  8 coefficients,  rinner =    1.000   1.000   1.000
                                                       1.000   1.000

     PseudoPot. # 2 for O  read from file:
     /storage/coda1/p-amedford6/0/shared/rich_project_chbe-medford/medford-share/data/pseudos_module/espresso/nninc/pbe/van/O.UPF
     MD5 check sum: 78c19812648e8988a0fe644b0f25305e
     Pseudo is Ultrasoft, Zval =  6.0
     Generated by new atomic code, or converted to UPF format
     Using radial grid of  737 points,  4 beta functions with:
                l(1) =   0
                l(2) =   0
                l(3) =   1
                l(4) =   1
     Q(r) pseudized with  8 coefficients,  rinner =    0.800   0.800   0.800

     PseudoPot. # 3 for C  read from file:
     /storage/coda1/p-amedford6/0/shared/rich_project_chbe-medford/medford-share/data/pseudos_module/espresso/nninc/pbe/van/C.UPF
     MD5 check sum: 1a69bf6b8db32088f5b2163dbdb77a27
     Pseudo is Ultrasoft, Zval =  4.0
     Generated by new atomic code, or converted to UPF format
     Using radial grid of  721 points,  4 beta functions with:
                l(1) =   0
                l(2) =   0
                l(3) =   1
                l(4) =   1
     Q(r) pseudized with  8 coefficients,  rinner =    0.800   0.800   0.800

     PseudoPot. # 4 for H  read from file:
     /storage/coda1/p-amedford6/0/shared/rich_project_chbe-medford/medford-share/data/pseudos_module/espresso/nninc/pbe/van/H.UPF
     MD5 check sum: b5ee9d7bfd3a09ee7748110bda690ff7
     Pseudo is Ultrasoft, Zval =  1.0
     Generated by new atomic code, or converted to UPF format
     Using radial grid of  615 points,  1 beta functions with:
                l(1) =   0
     Q(r) pseudized with  8 coefficients,  rinner =    0.800

     PseudoPot. # 5 for N  read from file:
     /storage/coda1/p-amedford6/0/shared/rich_project_chbe-medford/medford-share/data/pseudos_module/espresso/nninc/pbe/van/N.UPF
     MD5 check sum: 90d10febe142ad51ac9d5be1deb811c4
     Pseudo is Ultrasoft, Zval =  5.0
     Generated by new atomic code, or converted to UPF format
     Using radial grid of  729 points,  4 beta functions with:
                l(1) =   0
                l(2) =   0
                l(3) =   1
                l(4) =   1
     Q(r) pseudized with  8 coefficients,  rinner =    0.800   0.800   0.800

     atomic species   valence    mass     pseudopotential
        Ti1           12.00    47.86700     Ti( 1.00)
        O1             6.00    15.99900     O ( 1.00)
        C1             4.00    12.01100     C ( 1.00)
        H1             1.00     1.00800     H ( 1.00)
        N1             5.00    14.00700     N ( 1.00)

     No symmetry found

   Cartesian axes

     site n.     atom                  positions (alat units)
         1           Ti1 tau(   1) = (   0.0004258   2.9801865   6.0000000  )
         2           Ti1 tau(   2) = (   3.2906075   1.4906267   6.0002472  )
         3           O1  tau(   3) = (   0.0006271   0.0005054   7.9858123  )
         4           O1  tau(   4) = (   3.2906025   0.0005020   7.3038282  )
         5           O1  tau(   5) = (   4.5942328   1.4918067   9.2879030  )
         6           O1  tau(   6) = (   1.9868534   1.4903216   9.2879459  )
         7           Ti1 tau(   7) = (   3.2907910   2.8959150   9.1758416  )
         8           Ti1 tau(   8) = (   0.0015273   1.4827037   9.2680791  )
         9           O1  tau(   9) = (   3.3006472   5.9526327  11.3326431  )
        10           O1  tau(  10) = (   0.0116148   5.9584955  10.6183126  )
        11           O1  tau(  11) = (   1.2986171   1.4856602  12.6180737  )
        12           O1  tau(  12) = (   5.2832837   1.4869688  12.6136912  )
        13           Ti1 tau(  13) = (   0.0716907   2.9700601  12.6329626  )
        14           Ti1 tau(  14) = (   3.3921379   1.4824266  12.4783935  )
        15           O1  tau(  15) = (   0.0098915   0.0277142  14.6273811  )
        16           O1  tau(  16) = (   3.2980527   0.0034327  13.9214941  )
        17           O1  tau(  17) = (   4.5491770   1.5035522  16.0668258  )
        18           O1  tau(  18) = (   2.0540802   1.5011373  16.0688643  )
        19           Ti1 tau(  19) = (   3.2973159   2.9845483  15.7023000  )
        20           Ti1 tau(  20) = (   6.5754392   1.4353193  15.8239573  )
        21           O1  tau(  21) = (   3.2904802   0.0005063   4.7018136  )
        22           O1  tau(  22) = (   0.0048264   5.9571524  17.1588256  )
        23           O1  tau(  23) = (   1.3043587   1.4918075   6.0039043  )
        24           O1  tau(  24) = (   5.2767064   1.4903225   6.0039473  )
        25           Ti1 tau(  25) = (   0.0000382   5.9609847   6.0000000  )
        26           Ti1 tau(  26) = (   3.2902200   4.4714249   6.0002472  )
        27           O1  tau(  27) = (   0.0002396   2.9813036   7.9858123  )
        28           O1  tau(  28) = (   3.2902150   2.9813002   7.3038282  )
        29           O1  tau(  29) = (   4.5938453   4.4726049   9.2879030  )
        30           O1  tau(  30) = (   1.9864658   4.4711199   9.2879459  )
        31           Ti1 tau(  31) = (   3.2891106   5.8743827   9.1763621  )
        32           Ti1 tau(  32) = (   0.0006254   4.4649316   9.2693709  )
        33           O1  tau(  33) = (   3.3024910   2.9811918  11.3312481  )
        34           O1  tau(  34) = (   0.0092240   2.9805883  10.6323155  )
        35           O1  tau(  35) = (   1.2967186   4.4682081  12.6345707  )
        36           O1  tau(  36) = (   5.2888097   4.4704914  12.6297389  )
        37           Ti1 tau(  37) = (   0.0778612   5.9457776  12.5489457  )
        38           Ti1 tau(  38) = (   3.3928769   4.4622707  12.4864817  )
        39           O1  tau(  39) = (   0.0140712   2.9461142  14.6842920  )
        40           O1  tau(  40) = (   3.2991745   2.9776924  13.9065265  )
        41           O1  tau(  41) = (   4.5418516   4.4678888  16.0645815  )
        42           O1  tau(  42) = (   2.0574864   4.4691885  16.0636024  )
        43           Ti1 tau(  43) = (   3.2861726   0.0051191  15.7195692  )
        44           Ti1 tau(  44) = (   6.5761434   4.5285208  16.1368719  )
        45           O1  tau(  45) = (   3.2900926   2.9813045   4.7018136  )
        46           O1  tau(  46) = (   1.3039711   4.4726057   6.0039043  )
        47           O1  tau(  47) = (   5.2763189   4.4711207   6.0039473  )
        48           C1  tau(  48) = (   0.0175971   3.0427671  17.7901079  )
        49           H1  tau(  49) = (   5.6823727   3.3959267  18.2745233  )
        50           H1  tau(  50) = (   0.1100020   1.9921885  18.0671921  )
        51           H1  tau(  51) = (   0.8707680   3.5346006  18.2680029  )
        52           N1  tau(  52) = (   6.1495222   1.5591847  21.8098380  )
        53           H1  tau(  53) = (   6.1793786   2.4848735  21.3846126  )
        54           H1  tau(  54) = (   6.2462200   0.9013766  21.0428083  )
        55           H1  tau(  55) = (   5.2088654   1.4380024  22.1828036  )
        56           N1  tau(  56) = (   2.8510371   0.9663425  23.1735989  )
        57           H1  tau(  57) = (   2.8683653   5.9129692  23.1556095  )
        58           H1  tau(  58) = (   1.9074079   1.2374795  22.9038124  )
        59           H1  tau(  59) = (   2.9640119   1.2328864  24.1466208  )

     number of k points=    10  Fermi-Dirac smearing, width (Ry)=  0.0073
                       cart. coord. in units 2pi/alat
        k(    1) = (   0.0000000   0.0000000   0.0000000), wk =   0.1250000
        k(    2) = (   0.0000000   0.0419351   0.0000000), wk =   0.2500000
        k(    3) = (   0.0000000  -0.0838702   0.0000000), wk =   0.1250000
        k(    4) = (   0.0379955   0.0000049   0.0000000), wk =   0.2500000
        k(    5) = (   0.0379955   0.0419400   0.0000000), wk =   0.2500000
        k(    6) = (   0.0379955  -0.0838652   0.0000000), wk =   0.2500000
        k(    7) = (   0.0379955  -0.0419301   0.0000000), wk =   0.2500000
        k(    8) = (  -0.0759910  -0.0000099   0.0000000), wk =   0.1250000
        k(    9) = (  -0.0759910   0.0419252   0.0000000), wk =   0.2500000
        k(   10) = (  -0.0759910  -0.0838800   0.0000000), wk =   0.1250000

     Initial potential from superposition of free atoms

     starting charge  384.99911, renormalised to  401.00000

     negative rho (up, down):  4.922E-03 0.000E+00

     %%%%%%%%%%%%%%%%%%%%%%%%%%%%%%%%%%%%%%%%%%%%%%%%%%%%%%%%%%%%%%%%%%%%%%%%
     %                                                                      %
     % You are using vdW-DF, which was implemented by the Thonhauser group. %
     % Please cite the following two papers that made this development      %
     % possible and the two reviews that describe the various versions:     %
     %                                                                      %
     %   T. Thonhauser et al., PRL 115, 136402 (2015).                      %
     %   T. Thonhauser et al., PRB 76, 125112 (2007).                       %
     %   K. Berland et al., Rep. Prog. Phys. 78, 066501 (2015).             %
     %   D.C. Langreth et al., J. Phys.: Condens. Matter 21, 084203 (2009). %
     %                                                                      %
     %                                                                      %
     % If you are calculating the stress with vdW-DF, please also cite:     %
     %                                                                      %
     %   R. Sabatini et al., J. Phys.: Condens. Matter 24, 424209 (2012).   %
     %                                                                      %
     %%%%%%%%%%%%%%%%%%%%%%%%%%%%%%%%%%%%%%%%%%%%%%%%%%%%%%%%%%%%%%%%%%%%%%%%

     Adding external electric field

     Computed dipole along edir(3) :
        Dipole              -16.7045 Ry au,        -42.4586 Debye
        Dipole field         -0.0315 Ry au,

        Potential amp.        2.9222 Ry
        Total length         46.3494 bohr

     Starting wfcs are  305 atomic wfcs
  @ DRIVER MODE: Message from server: STATUS
  @ DRIVER MODE: Message from server: POSDATA
  @ DRIVER MODE: Reading and sharing cell
  @ DRIVER MODE: Reading and sharing positions
  @ DRIVER MODE: Received positions

     Self-consistent Calculation

     iteration #  1     ecut=    29.40 Ry     beta= 0.05
     Davidson diagonalization with overlap
     c_bands:  2 eigenvalues not converged
     c_bands:  3 eigenvalues not converged
     c_bands:  1 eigenvalues not converged
     c_bands:  4 eigenvalues not converged
     c_bands:  4 eigenvalues not converged
     c_bands:  2 eigenvalues not converged
     c_bands:  3 eigenvalues not converged
     c_bands:  3 eigenvalues not converged
     c_bands:  4 eigenvalues not converged
     ethr =  1.00E-05,  avg # of iterations = 19.8

[...]

     total energy              =   -2364.27762492 Ry
     estimated scf accuracy    <    6692.58095563 Ry

     iteration #  2     ecut=    29.40 Ry     beta= 0.05
     Davidson diagonalization with overlap
     ethr =  1.00E-02,  avg # of iterations = 22.0

[...]

     iteration # 68     ecut=    29.40 Ry     beta= 0.05
     Davidson diagonalization with overlap
     c_bands:  1 eigenvalues not converged
     ethr =  6.52E-08,  avg # of iterations = 13.5

[...]

     total energy              =   -2946.58249232 Ry
     estimated scf accuracy    <       0.00000012 Ry

     iteration # 83     ecut=    29.40 Ry     beta= 0.05
     Davidson diagonalization with overlap
     ethr =  2.92E-11,  avg # of iterations =  8.8

     negative rho (up, down):  6.997E-03 0.000E+00

     Adding external electric field

     Computed dipole along edir(3) :
        Dipole                0.3113 Ry au,          0.7912 Debye
        Dipole field          0.0006 Ry au,

        Potential amp.       -0.0545 Ry
        Total length         46.3494 bohr

     End of self-consistent calculation

          k = 0.0000 0.0000 0.0000 ( 18029 PWs)   bands (ev):

   -55.9994 -55.9894 -55.9653 -55.9522 -55.8801 -55.8556 -55.8347 -55.8165
   -55.8066 -55.7728 -55.7725 -55.7391 -55.6140 -55.3918 -54.9799 -54.9459
   -32.5432 -32.4820 -32.3545 -32.3345 -32.3058 -32.3034 -32.2920 -32.2633
   -32.2414 -32.2181 -32.2111 -32.1966 -32.1691 -32.1515 -32.1424 -32.1284
   -32.1124 -32.1039 -32.0886 -32.0603 -32.0567 -32.0564 -32.0287 -32.0094
   -32.0088 -32.0037 -31.9947 -31.9907 -31.9775 -31.9751 -31.9669 -31.9471
   -31.9452 -31.9386 -31.9256 -31.9122 -31.8848 -31.8673 -31.8298 -31.6685
   -31.6423 -31.5297 -31.3871 -31.2983 -31.2759 -31.2037 -31.1172 -31.0063
   -16.7444 -16.4751 -16.2488 -16.1527 -16.1255 -16.0062 -15.8410 -15.7191
   -15.6707 -15.5705 -15.5611 -15.5364 -15.5035 -15.4797 -15.4791 -15.4448
   -15.4417 -15.4226 -15.4110 -15.3607 -15.3377 -15.3261 -15.2109 -15.1772
   -15.1348 -15.1138 -15.0559 -15.0434 -14.6210 -13.4830 -13.3667 -13.0288
   -12.9210  -9.1039  -4.1176  -3.9609  -3.9065  -3.8615  -3.8309  -3.6138
    -3.5478  -3.2502  -3.1861  -3.1714  -3.1540  -3.1216  -3.1099  -3.0714
    -3.0194  -2.9878  -2.9032  -2.8388  -2.8293  -2.8108  -2.8079  -2.7784
    -2.7688  -2.7566  -2.7159  -2.6904  -2.6644  -2.6142  -2.5593  -2.4972
    -2.4137  -2.3958  -2.3140  -2.2917  -2.2856  -2.2426  -2.2283  -2.2204
    -2.2014  -2.1763  -2.1632  -1.9797  -1.9412  -1.8384  -1.7823  -1.7802
    -1.6087  -1.5089  -1.4673  -1.4562  -1.4268  -1.3931  -1.3865  -1.3002
    -1.1835  -1.1522  -1.1193  -1.0473  -1.0036  -0.9719  -0.8743  -0.8468
    -0.7639  -0.7616  -0.7394  -0.6515  -0.5978  -0.4842  -0.4363  -0.4262
    -0.3883  -0.3591  -0.2898  -0.2755  -0.2187  -0.1464  -0.1255  -0.0627
    -0.0322  -0.0182  -0.0070   0.0098   0.0362   0.0667   0.1706   0.2010
     0.2805   0.3483   0.4435   0.5411   0.6468   0.6559   0.7572   0.9665
     1.0403   1.1384   1.1968   1.2344   1.6134   1.6592   1.7458   2.1873
     3.1376   3.2217   3.2691   3.2800   3.3711   3.3874   3.5878   3.6123
     3.6332   3.6857

[...]

          k = 0.0380-0.0419 0.0000 ( 17876 PWs)   bands (ev):

[...]

          k =-0.0760-0.0000 0.0000 ( 17886 PWs)   bands (ev):

[...]

          k =-0.0760-0.0839 0.0000 ( 17948 PWs)   bands (ev):

   -55.9828 -55.9818 -55.9753 -55.9661 -55.8721 -55.8453 -55.8425 -55.8266
   -55.7907 -55.7880 -55.7573 -55.7548 -55.6129 -55.3928 -54.9629 -54.9628
   -32.3509 -32.3421 -32.2975 -32.2970 -32.2778 -32.2769 -32.2610 -32.2520
   -32.2057 -32.1938 -32.1876 -32.1850 -32.1472 -32.1314 -32.1296 -32.1203
   -32.1098 -32.1022 -32.1022 -32.1012 -32.0955 -32.0927 -32.0721 -32.0621
   -32.0430 -32.0402 -32.0306 -32.0137 -31.9905 -31.9896 -31.9880 -31.9863
   -31.9716 -31.9702 -31.9673 -31.9633 -31.9349 -31.8584 -31.8330 -31.6823
   -31.6704 -31.5740 -31.2887 -31.2886 -31.1999 -31.1998 -31.1605 -31.1604
   -16.1772 -16.1577 -15.9501 -15.9134 -15.9104 -15.9011 -15.7894 -15.7044
   -15.6945 -15.6938 -15.6114 -15.5993 -15.5830 -15.5387 -15.5345 -15.5252
   -15.5155 -15.5037 -15.4603 -15.4554 -15.4365 -15.4290 -15.3470 -15.3167
   -15.3129 -15.2746 -15.1426 -15.0112 -14.8628 -13.4686 -13.4684 -12.9859
   -12.9635  -9.1204  -3.4692  -3.4436  -3.1934  -3.1572  -3.1479  -3.0839
    -3.0760  -3.0570  -2.9959  -2.9381  -2.9234  -2.8972  -2.8824  -2.8777
    -2.8414  -2.8290  -2.8192  -2.8072  -2.7890  -2.7548  -2.7459  -2.7135
    -2.7026  -2.6825  -2.6691  -2.6536  -2.6290  -2.6163  -2.6100  -2.5789
    -2.5647  -2.5479  -2.5272  -2.5043  -2.4214  -2.2321  -2.2023  -2.1376
    -2.1284  -2.0981  -2.0865  -2.0630  -2.0487  -2.0303  -1.9834  -1.8304
    -1.7283  -1.7021  -1.6743  -1.5992  -1.5783  -1.5305  -1.4165  -1.3818
    -1.3545  -1.3286  -1.2785  -1.2274  -1.2101  -1.1872  -1.1182  -1.1046
    -1.0269  -0.9835  -0.9609  -0.9566  -0.8917  -0.8488  -0.7667  -0.7614
    -0.7174  -0.6818  -0.6344  -0.5942  -0.5895  -0.5023  -0.4767  -0.3602
    -0.3054  -0.0457   0.0039   0.0552   0.0815   0.1402   0.1906   0.2056
     0.3145   0.3188   0.3552   0.3990   0.4397   0.5273   0.5465   0.5814
     0.7274   1.3012   1.4049   1.4054   1.4786   1.4790   1.9472   1.9706
     3.4226   3.4379   3.4683   3.5008   3.6422   3.6460   3.6674   3.6690
     3.7963   3.8118

     the Fermi energy is     3.1353 ev

!    total energy              =   -2946.58250326 Ry
     estimated scf accuracy    <       0.00000005 Ry
     smearing contrib. (-TS)   =      -0.02178911 Ry
     internal energy E=F+TS    =   -2946.56071414 Ry

     The total energy is F=E-TS. E is the sum of the following terms:
     one-electron contribution =  -22199.78606515 Ry
     hartree contribution      =   11188.88187917 Ry
     xc contribution           =    -489.84337622 Ry
     ewald contribution        =    8554.18666521 Ry
     electric field correction =       0.00018285 Ry

     convergence has been achieved in  83 iterations

     Forces acting on atoms (cartesian axes, Ry/au):

     atom    1 type  1   force =     0.00012412   -0.00025403    0.09668370
     atom    2 type  1   force =    -0.00013589   -0.00055807   -0.17511655
     atom    3 type  2   force =    -0.00000240   -0.00002624   -0.02501757
     atom    4 type  2   force =     0.00007493   -0.00144149    0.05269514
     atom    5 type  2   force =    -0.01209645   -0.00083659    0.00339053
     atom    6 type  2   force =     0.01400779   -0.00015323    0.00289711
     atom    7 type  1   force =    -0.00082193    0.00068539   -0.01135100
     atom    8 type  1   force =     0.00026159    0.01148943    0.02860337
     atom    9 type  2   force =    -0.00010563    0.00008415   -0.00004687
     atom   10 type  2   force =    -0.00085197    0.00077101   -0.01663436
     atom   11 type  2   force =    -0.00031119    0.00010048    0.00002181
     atom   12 type  2   force =     0.00000217    0.00020810    0.00004408
     atom   13 type  1   force =    -0.00011792   -0.00020597    0.00009347
     atom   14 type  1   force =    -0.00022000    0.00000440   -0.00002729
     atom   15 type  2   force =    -0.00003156    0.00005409   -0.00010649
     atom   16 type  2   force =    -0.00012625   -0.00004213    0.00002146
     atom   17 type  2   force =    -0.00002532   -0.00015786   -0.00000723
     atom   18 type  2   force =    -0.00020486   -0.00017553   -0.00001465
     atom   19 type  1   force =     0.00001243   -0.00020572    0.00013646
     atom   20 type  1   force =     0.00010020   -0.00038293   -0.00005261
     atom   21 type  2   force =     0.00006285    0.00001070    0.10295909
     atom   22 type  2   force =    -0.00010621   -0.00008540   -0.00038072
     atom   23 type  2   force =    -0.07138793   -0.00010422   -0.02771762
     atom   24 type  2   force =     0.07134346    0.00030171   -0.02775256
     atom   25 type  1   force =     0.00000926   -0.00030392    0.09647342
     atom   26 type  1   force =    -0.00018291   -0.00027214   -0.17529310
     atom   27 type  2   force =     0.00009207   -0.00019978   -0.02391672
     atom   28 type  2   force =     0.00011317   -0.00120012    0.05273335
     atom   29 type  2   force =    -0.01212946    0.00045422    0.00287467
     atom   30 type  2   force =     0.01396120    0.00079978    0.00241940
     atom   31 type  1   force =    -0.00076537    0.00310568   -0.01226109
     atom   32 type  1   force =     0.00027677   -0.01311340    0.02918636
     atom   33 type  2   force =    -0.00009992   -0.00002743    0.00000586
     atom   34 type  2   force =    -0.00028907    0.00077285   -0.02208390
     atom   35 type  2   force =    -0.00016514    0.00008063   -0.00004625
     atom   36 type  2   force =    -0.00009709    0.00020314   -0.00003652
     atom   37 type  1   force =    -0.00001580   -0.00031466   -0.00017033
     atom   38 type  1   force =     0.00002940    0.00000951    0.00000867
     atom   39 type  2   force =    -0.00008091    0.00014430    0.00026973
     atom   40 type  2   force =    -0.00013585   -0.00001262   -0.00007334
     atom   41 type  2   force =     0.00000842   -0.00021296    0.00001913
     atom   42 type  2   force =    -0.00020555   -0.00021843    0.00018808
     atom   43 type  1   force =     0.00030739   -0.00016303   -0.00017975
     atom   44 type  1   force =     0.00017749   -0.00025582    0.00020418
     atom   45 type  2   force =     0.00006338   -0.00007146    0.10294510
     atom   46 type  2   force =    -0.07140080   -0.00008707   -0.02772641
     atom   47 type  2   force =     0.07135624    0.00037132   -0.02773795
     atom   48 type  3   force =    -0.00018403    0.00038041    0.00005463
     atom   49 type  4   force =    -0.00008915    0.00042865    0.00021355
     atom   50 type  4   force =    -0.00007984    0.00011805    0.00005273
     atom   51 type  4   force =     0.00009283    0.00030308    0.00038789
     atom   52 type  5   force =     0.00070480    0.00555871   -0.00239770
     atom   53 type  4   force =    -0.00085346   -0.00466533    0.00336294
     atom   54 type  4   force =    -0.00055187   -0.00162942   -0.00098642
     atom   55 type  4   force =     0.00044674    0.00079966   -0.00079168
     atom   56 type  5   force =     0.00072380    0.00036656   -0.00065604
     atom   57 type  4   force =     0.00005262   -0.00033609    0.00033390
     atom   58 type  4   force =    -0.00049886   -0.00000938   -0.00058601
     atom   59 type  4   force =    -0.00003453    0.00011647   -0.00011104

     Total force =     0.367819     Total SCF correction =     0.000619
  @ DRIVER MODE: Message from server: STATUS
  @ DRIVER MODE: Message from server: GETFORCE
  @ DRIVER MODE: Returning v,forces,stress,ensemble

     Writing output data file ./calc.save/
  @ DRIVER MODE: Message from server: EXIT
  @ DRIVE MODE: Exiting

     General routines

     Parallel routines

   This run was terminated on:  21:11:43   3Aug2021

   JOB DONE.