     Program PWSCF v.6.7GPU starts on  8Sep2021 at 23:31:25

     R & G space division:  proc/nbgrp/npool/nimage =      10
     Reading input from /storage/home/hcoda1/3/ntian30/research/carbon/CxH_vib/CH2_calc/ads_slab/CH2OH_a/out_0006/pw.inp
Warning: card &CELL ignored
Warning: card   CELL_DYNAMICS='IPI', ignored
Warning: card / ignored

     Current dimensions of program PWSCF are:
     Max number of different atomic species (ntypx) = 10
     Max number of k-points (npk) =  40000
     Max angular momentum in pseudopotentials (lmaxx) =  3
     Presently no symmetry can be used with electric field

     Message from routine cell_base_init:
     DEPRECATED: use true lattice parameter, not A to a.u. conversion factor

     IMPORTANT: XC functional enforced from input :
     Exchange-correlation= BEEF-VDW
                           (   1   4  43  14   2   0   0)
     Any further DFT definition will be discarded
     Please, verify this is what you really want

  @ DRIVER MODE: Connecting to
 qe_1139763_2767393.sched-torque.pace.gatech.eduos5gm6h3_scratch
  using UNIX socket
  @ DRIVER MODE: Message from server: STATUS
  @ DRIVER MODE: Message from server: INIT
  @ DRIVER MODE: Receiving replica           0          -1
  @ DRIVER MODE: Receiving encoded integer          25
  @ DRIVER MODE:  SCF:  T  FORCE:  T  STRESS:  F  VC:  F  ENSEMBLE:  F
  @ DRIVER MODE:  SCF:  T  FORCE:  T  STRESS:  F  VC:  F  ENSEMBLE:  F

     Using Slab Decomposition

     bravais-lattice index     =            0
     lattice parameter (alat)  =       1.8897  a.u.
     unit-cell volume          =    6658.9804 (a.u.)^3
     number of atoms/cell      =           52
     number of atomic types    =            4
     number of electrons       =       391.00
     number of Kohn-Sham states=          205
     kinetic-energy cutoff     =      29.3995  Ry
     charge density cutoff     =     293.9946  Ry
     scf convergence threshold =      7.3E-08
     mixing beta               =       0.0500
     number of iterations used =            8  plain     mixing
     Exchange-correlation= BEEF-VDW
                           (   1   4  43  14   2   0   0)

     celldm(1)=   1.889726  celldm(2)=   0.000000  celldm(3)=   0.000000
     celldm(4)=   0.000000  celldm(5)=   0.000000  celldm(6)=   0.000000

     crystal axes: (cart. coord. in units of alat)
               a(1) = (   6.579727   0.000000   0.000000 )
               a(2) = (  -0.000775   5.961596   0.000000 )
               a(3) = (   0.000000   0.000000  25.155947 )

     reciprocal axes: (cart. coord. in units 2 pi/alat)
               b(1) = (  0.151982  0.000020  0.000000 )
               b(2) = (  0.000000  0.167740  0.000000 )
               b(3) = (  0.000000  0.000000  0.039752 )

     PseudoPot. # 1 for Ti read from file:
     /storage/coda1/p-amedford6/0/shared/rich_project_chbe-medford/medford-share/data/pseudos_module/espresso/nninc/pbe/van/Ti.UPF
     MD5 check sum: 8e4df49b7f0d34bbd5052bf3f5ea0213
     Pseudo is Ultrasoft, Zval = 12.0
     Generated by new atomic code, or converted to UPF format
     Using radial grid of  851 points,  6 beta functions with:
                l(1) =   0
                l(2) =   0
                l(3) =   1
                l(4) =   1
                l(5) =   2
                l(6) =   2
     Q(r) pseudized with  8 coefficients,  rinner =    1.000   1.000   1.000
                                                       1.000   1.000

     PseudoPot. # 2 for O  read from file:
     /storage/coda1/p-amedford6/0/shared/rich_project_chbe-medford/medford-share/data/pseudos_module/espresso/nninc/pbe/van/O.UPF
     MD5 check sum: 78c19812648e8988a0fe644b0f25305e
     Pseudo is Ultrasoft, Zval =  6.0
     Generated by new atomic code, or converted to UPF format
     Using radial grid of  737 points,  4 beta functions with:
                l(1) =   0
                l(2) =   0
                l(3) =   1
                l(4) =   1
     Q(r) pseudized with  8 coefficients,  rinner =    0.800   0.800   0.800

     PseudoPot. # 3 for C  read from file:
     /storage/coda1/p-amedford6/0/shared/rich_project_chbe-medford/medford-share/data/pseudos_module/espresso/nninc/pbe/van/C.UPF
     MD5 check sum: 1a69bf6b8db32088f5b2163dbdb77a27
     Pseudo is Ultrasoft, Zval =  4.0
     Generated by new atomic code, or converted to UPF format
     Using radial grid of  721 points,  4 beta functions with:
                l(1) =   0
                l(2) =   0
                l(3) =   1
                l(4) =   1
     Q(r) pseudized with  8 coefficients,  rinner =    0.800   0.800   0.800

     PseudoPot. # 4 for H  read from file:
     /storage/coda1/p-amedford6/0/shared/rich_project_chbe-medford/medford-share/data/pseudos_module/espresso/nninc/pbe/van/H.UPF
     MD5 check sum: b5ee9d7bfd3a09ee7748110bda690ff7
     Pseudo is Ultrasoft, Zval =  1.0
     Generated by new atomic code, or converted to UPF format
     Using radial grid of  615 points,  1 beta functions with:
                l(1) =   0
     Q(r) pseudized with  8 coefficients,  rinner =    0.800

     atomic species   valence    mass     pseudopotential
        Ti1           12.00    47.86700     Ti( 1.00)
        O1             6.00    15.99900     O ( 1.00)
        C1             4.00    12.01100     C ( 1.00)
        H1             1.00     1.00800     H ( 1.00)

     No symmetry found

   Cartesian axes

     site n.     atom                  positions (alat units)
         1           Ti1 tau(   1) = (   0.0004258   2.9801865   6.0000000  )
         2           Ti1 tau(   2) = (   3.2906075   1.4906267   6.0002472  )
         3           O1  tau(   3) = (   0.0006271   0.0005054   7.9858123  )
         4           O1  tau(   4) = (   3.2906025   0.0005020   7.3038282  )
         5           O1  tau(   5) = (   4.5942328   1.4918067   9.2879030  )
         6           O1  tau(   6) = (   1.9868534   1.4903216   9.2879459  )
         7           Ti1 tau(   7) = (   3.2719207   3.0347534   9.1624208  )
         8           Ti1 tau(   8) = (   6.5479847   1.5485315   9.3114282  )
         9           O1  tau(   9) = (   3.3130468   5.9588651  11.3322545  )
        10           O1  tau(  10) = (   6.5779921   5.9597862  10.5854321  )
        11           O1  tau(  11) = (   1.2828316   1.4981946  12.5939292  )
        12           O1  tau(  12) = (   5.3076696   1.4616608  12.6584921  )
        13           Ti1 tau(  13) = (   0.0652608   2.9737989  12.6898254  )
        14           Ti1 tau(  14) = (   3.3390979   1.6191063  12.6104043  )
        15           O1  tau(  15) = (   0.1579450   5.9294946  14.6423442  )
        16           O1  tau(  16) = (   3.1680681   5.9402194  13.8972025  )
        17           O1  tau(  17) = (   4.6139792   1.3367142  15.8434034  )
        18           O1  tau(  18) = (   2.0781381   1.4994250  16.2203239  )
        19           Ti1 tau(  19) = (   3.3500823   2.9415657  15.9644494  )
        20           Ti1 tau(  20) = (   0.0003135   1.3236462  15.9137460  )
        21           O1  tau(  21) = (   3.2904802   0.0005063   4.7018136  )
        22           O1  tau(  22) = (   6.5745372   5.9170875  17.1494514  )
        23           O1  tau(  23) = (   1.3043587   1.4918075   6.0039043  )
        24           O1  tau(  24) = (   5.2767064   1.4903225   6.0039473  )
        25           Ti1 tau(  25) = (   0.0000382   5.9609847   6.0000000  )
        26           Ti1 tau(  26) = (   3.2902200   4.4714249   6.0002472  )
        27           O1  tau(  27) = (   0.0002396   2.9813036   7.9858123  )
        28           O1  tau(  28) = (   3.2902150   2.9813002   7.3038282  )
        29           O1  tau(  29) = (   4.5938453   4.4726049   9.2879030  )
        30           O1  tau(  30) = (   1.9864658   4.4711199   9.2879459  )
        31           Ti1 tau(  31) = (   3.2621523   0.0587977   9.1770015  )
        32           Ti1 tau(  32) = (   6.5480547   4.4734411   9.2675299  )
        33           O1  tau(  33) = (   3.3121001   2.9882390  11.3403144  )
        34           O1  tau(  34) = (   6.5676672   2.9758547  10.5865552  )
        35           O1  tau(  35) = (   1.2831373   4.4454538  12.5925867  )
        36           O1  tau(  36) = (   5.3039272   4.4828346  12.6569239  )
        37           Ti1 tau(  37) = (   0.0139245   5.9553196  12.4525254  )
        38           Ti1 tau(  38) = (   3.3396594   4.5312311  12.4471015  )
        39           O1  tau(  39) = (   0.0911754   2.9492527  14.7447760  )
        40           O1  tau(  40) = (   3.3148107   2.9226094  13.9462488  )
        41           O1  tau(  41) = (   4.6112453   4.5441982  15.8230962  )
        42           O1  tau(  42) = (   2.0803191   4.3866676  16.2083192  )
        43           Ti1 tau(  43) = (   3.2736722   5.9210238  15.6733724  )
        44           Ti1 tau(  44) = (   6.5729336   4.5444060  15.8763539  )
        45           O1  tau(  45) = (   3.2900926   2.9813045   4.7018136  )
        46           O1  tau(  46) = (   1.3039711   4.4726057   6.0039043  )
        47           O1  tau(  47) = (   5.2763189   4.4711207   6.0039473  )
        48           C1  tau(  48) = (   4.5191185   2.9521590  17.9145005  )
        49           O1  tau(  49) = (   5.9932199   2.9473452  17.4910416  )
        50           H1  tau(  50) = (   6.5492410   2.9805908  18.2871345  )
        51           H1  tau(  51) = (   4.3954453   2.0589761  18.5217578  )
        52           H1  tau(  52) = (   4.3955607   3.8562994  18.5052511  )

     number of k points=    10  Fermi-Dirac smearing, width (Ry)=  0.0073
                       cart. coord. in units 2pi/alat
        k(    1) = (   0.0000000   0.0000000   0.0000000), wk =   0.1250000
        k(    2) = (   0.0000000   0.0419351   0.0000000), wk =   0.2500000
        k(    3) = (   0.0000000  -0.0838702   0.0000000), wk =   0.1250000
        k(    4) = (   0.0379955   0.0000049   0.0000000), wk =   0.2500000
        k(    5) = (   0.0379955   0.0419400   0.0000000), wk =   0.2500000
        k(    6) = (   0.0379955  -0.0838652   0.0000000), wk =   0.2500000
        k(    7) = (   0.0379955  -0.0419301   0.0000000), wk =   0.2500000
        k(    8) = (  -0.0759910  -0.0000099   0.0000000), wk =   0.1250000
        k(    9) = (  -0.0759910   0.0419252   0.0000000), wk =   0.2500000
        k(   10) = (  -0.0759910  -0.0838800   0.0000000), wk =   0.1250000

     Initial potential from superposition of free atoms

     starting charge  374.99918, renormalised to  391.00000

     negative rho (up, down):  1.947E-02 0.000E+00

     %%%%%%%%%%%%%%%%%%%%%%%%%%%%%%%%%%%%%%%%%%%%%%%%%%%%%%%%%%%%%%%%%%%%%%%%
     %                                                                      %
     % You are using vdW-DF, which was implemented by the Thonhauser group. %
     % Please cite the following two papers that made this development      %
     % possible and the two reviews that describe the various versions:     %
     %                                                                      %
     %   T. Thonhauser et al., PRL 115, 136402 (2015).                      %
     %   T. Thonhauser et al., PRB 76, 125112 (2007).                       %
     %   K. Berland et al., Rep. Prog. Phys. 78, 066501 (2015).             %
     %   D.C. Langreth et al., J. Phys.: Condens. Matter 21, 084203 (2009). %
     %                                                                      %
     %                                                                      %
     % If you are calculating the stress with vdW-DF, please also cite:     %
     %                                                                      %
     %   R. Sabatini et al., J. Phys.: Condens. Matter 24, 424209 (2012).   %
     %                                                                      %
     %%%%%%%%%%%%%%%%%%%%%%%%%%%%%%%%%%%%%%%%%%%%%%%%%%%%%%%%%%%%%%%%%%%%%%%%

     Adding external electric field

     Computed dipole along edir(3) :
        Dipole               -5.2261 Ry au,        -13.2835 Debye
        Dipole field         -0.0099 Ry au,

        Potential amp.        0.9142 Ry
        Total length         46.3494 bohr

     Starting wfcs are  295 atomic wfcs
  @ DRIVER MODE: Message from server: STATUS
  @ DRIVER MODE: Message from server: POSDATA
  @ DRIVER MODE: Reading and sharing cell
  @ DRIVER MODE: Reading and sharing positions
  @ DRIVER MODE: Received positions

     Self-consistent Calculation

     iteration #  1     ecut=    29.40 Ry     beta= 0.05
     Davidson diagonalization with overlap
     c_bands:  1 eigenvalues not converged
     c_bands:  3 eigenvalues not converged
     c_bands:  2 eigenvalues not converged
     c_bands:  3 eigenvalues not converged
     c_bands:  4 eigenvalues not converged
     c_bands:  3 eigenvalues not converged
     c_bands:  1 eigenvalues not converged
     c_bands:  3 eigenvalues not converged
     ethr =  1.00E-05,  avg # of iterations = 19.6

[...]

     total energy              =   -2802.72484313 Ry
     estimated scf accuracy    <    1414.00257987 Ry

     iteration #  2     ecut=    29.40 Ry     beta= 0.05
     Davidson diagonalization with overlap
     ethr =  1.00E-02,  avg # of iterations = 16.6

[...]

     iteration # 46     ecut=    29.40 Ry     beta= 0.05
     Davidson diagonalization with overlap
     c_bands:  1 eigenvalues not converged
     ethr =  1.42E-07,  avg # of iterations =  6.3

[...]

     total energy              =   -2931.32991726 Ry
     estimated scf accuracy    <       0.00000019 Ry

     iteration # 69     ecut=    29.40 Ry     beta= 0.05
     Davidson diagonalization with overlap
     ethr =  4.87E-11,  avg # of iterations =  6.7

     negative rho (up, down):  1.893E-02 0.000E+00

     Adding external electric field

     Computed dipole along edir(3) :
        Dipole                0.9569 Ry au,          2.4322 Debye
        Dipole field          0.0018 Ry au,

        Potential amp.       -0.1674 Ry
        Total length         46.3494 bohr

     End of self-consistent calculation

          k = 0.0000 0.0000 0.0000 ( 18029 PWs)   bands (ev):

   -55.8491 -55.8100 -55.7668 -55.7523 -55.6977 -55.6882 -55.6790 -55.6688
   -55.6301 -55.6188 -55.5971 -55.5867 -55.5597 -55.5545 -54.8197 -54.7857
   -32.3702 -32.3210 -32.2361 -32.2141 -32.1582 -32.1309 -32.1193 -32.0857
   -32.0779 -32.0639 -32.0430 -32.0172 -32.0041 -31.9960 -31.9671 -31.9606
   -31.9430 -31.9413 -31.9228 -31.9101 -31.9085 -31.9022 -31.8776 -31.8579
   -31.8551 -31.8522 -31.8467 -31.8422 -31.8286 -31.8155 -31.8032 -31.8025
   -31.8009 -31.7945 -31.7848 -31.7843 -31.7612 -31.7438 -31.7433 -31.7288
   -31.6998 -31.6365 -31.2268 -31.1375 -31.1150 -31.0438 -30.9577 -30.8461
   -19.5520 -16.5541 -16.3322 -16.1540 -16.0569 -15.9944 -15.8309 -15.7491
   -15.5611 -15.4850 -15.4782 -15.4530 -15.3905 -15.3765 -15.3649 -15.3451
   -15.3440 -15.3132 -15.2498 -15.2373 -15.2304 -15.2012 -15.1310 -15.1210
   -14.9769 -14.9597 -14.9593 -14.9471 -14.8484 -14.7795 -13.3195 -13.2026
    -9.6200  -6.4566  -4.2340  -4.0161  -3.8658  -3.7629  -3.7557  -3.7203
    -3.5671  -3.4901  -3.2758  -3.1360  -3.0884  -3.0212  -2.9776  -2.9160
    -2.8348  -2.7687  -2.7213  -2.6751  -2.6621  -2.6365  -2.6250  -2.5763
    -2.5407  -2.5135  -2.4037  -2.3994  -2.3497  -2.2923  -2.2553  -2.2021
    -2.1643  -2.1451  -2.1226  -2.0931  -2.0628  -2.0439  -2.0244  -1.9695
    -1.9180  -1.8434  -1.8252  -1.5571  -1.4652  -1.3926  -1.3670  -1.2890
    -1.2642  -1.2416  -1.2258  -1.2111  -1.1839  -1.1048  -1.0980  -1.0067
    -0.9719  -0.8885  -0.8346  -0.7463  -0.7063  -0.6346  -0.6139  -0.5802
    -0.5609  -0.5456  -0.4021  -0.3809  -0.3540  -0.2371  -0.2181  -0.1606
    -0.1343  -0.0756  -0.0515   0.0145   0.0453   0.0926   0.1206   0.1406
     0.1615   0.1765   0.2219   0.3078   0.3842   0.3998   0.4254   0.4910
     0.6765   0.7061   0.8347   0.9006   1.1335   1.2054   1.2513   1.3159
     1.3913   1.7796   1.8350   3.3035   3.3583   3.4184   3.4234   3.4606
     3.5531   3.7342   3.7535   3.8080   3.8662

[...]

          k = 0.0380-0.0419 0.0000 ( 17876 PWs)   bands (ev):

[...]

          k =-0.0760-0.0000 0.0000 ( 17886 PWs)   bands (ev):

[...]

          k =-0.0760-0.0839 0.0000 ( 17948 PWs)   bands (ev):

   -55.8391 -55.8198 -55.7629 -55.7459 -55.7040 -55.6917 -55.6737 -55.6666
   -55.6241 -55.6213 -55.5951 -55.5867 -55.5702 -55.5568 -54.8027 -54.8026
   -32.2937 -32.1458 -32.1368 -32.1275 -32.1036 -32.0902 -32.0841 -32.0603
   -32.0223 -32.0103 -31.9971 -31.9920 -31.9783 -31.9718 -31.9682 -31.9649
   -31.9609 -31.9583 -31.9472 -31.9425 -31.9147 -31.9119 -31.9004 -31.8979
   -31.8921 -31.8864 -31.8838 -31.8741 -31.8666 -31.8642 -31.8555 -31.8367
   -31.8246 -31.8204 -31.8115 -31.8101 -31.7961 -31.7936 -31.7907 -31.7873
   -31.7795 -31.6380 -31.1279 -31.1275 -31.0405 -31.0393 -31.0009 -31.0003
   -19.5459 -16.1441 -15.9644 -15.8089 -15.7808 -15.7798 -15.6455 -15.6277
   -15.6061 -15.5725 -15.5340 -15.5057 -15.4805 -15.4743 -15.4306 -15.3753
   -15.3688 -15.3559 -15.3300 -15.2717 -15.2598 -15.2574 -15.2159 -15.1612
   -15.1387 -15.1289 -15.1210 -15.1074 -15.0773 -15.0553 -13.3067 -13.3021
    -9.6203  -6.4399  -4.2407  -3.8845  -3.2861  -3.2148  -3.0127  -3.0092
    -2.9263  -2.8872  -2.8760  -2.8343  -2.7678  -2.7616  -2.7433  -2.6755
    -2.6503  -2.6474  -2.6083  -2.5997  -2.5784  -2.5703  -2.5488  -2.5233
    -2.4888  -2.4492  -2.4324  -2.4228  -2.4043  -2.3952  -2.3890  -2.3473
    -2.3260  -2.2176  -2.1354  -2.0258  -2.0195  -1.9731  -1.9577  -1.9360
    -1.9002  -1.8857  -1.8799  -1.8440  -1.7645  -1.6196  -1.5206  -1.5013
    -1.4633  -1.4349  -1.4013  -1.3812  -1.2863  -1.2820  -1.2223  -1.1908
    -1.1858  -1.0700  -1.0616  -0.9586  -0.9286  -0.8181  -0.8093  -0.7830
    -0.7608  -0.7264  -0.7012  -0.6320  -0.6097  -0.5710  -0.5536  -0.4878
    -0.4496  -0.4328  -0.3570  -0.3171  -0.2550  -0.2059  -0.1730  -0.0222
     0.1587   0.1766   0.2079   0.3184   0.3567   0.4298   0.4858   0.5006
     0.5705   0.6041   0.6730   0.7040   0.7661   0.8059   1.2847   1.5663
     1.5768   1.6396   1.6532   3.5962   3.6441   3.7691   3.7853   3.8173
     3.8223   3.8330   3.8548   3.9165   3.9523

     the Fermi energy is     3.2937 ev

!    total energy              =   -2931.32993299 Ry
     estimated scf accuracy    <       0.00000006 Ry
     smearing contrib. (-TS)   =      -0.02177137 Ry
     internal energy E=F+TS    =   -2931.30816162 Ry

     The total energy is F=E-TS. E is the sum of the following terms:
     one-electron contribution =  -24938.29585496 Ry
     hartree contribution      =   12555.58345846 Ry
     xc contribution           =    -482.04855769 Ry
     ewald contribution        =    9933.45106464 Ry
     electric field correction =       0.00172792 Ry

     convergence has been achieved in  69 iterations

     Forces acting on atoms (cartesian axes, Ry/au):

     atom    1 type  1   force =     0.00041871   -0.00075017    0.09648741
     atom    2 type  1   force =     0.00023376   -0.00293010   -0.17613595
     atom    3 type  2   force =    -0.00037654   -0.00272706   -0.03080925
     atom    4 type  2   force =    -0.00049073    0.00065506    0.04967049
     atom    5 type  2   force =    -0.01528617   -0.00088844    0.00150441
     atom    6 type  2   force =     0.01482617    0.00155258    0.00315002
     atom    7 type  1   force =    -0.00060194   -0.00030553   -0.00011930
     atom    8 type  1   force =    -0.00056376    0.00059466    0.00063412
     atom    9 type  2   force =    -0.00018438    0.00026619    0.00044705
     atom   10 type  2   force =    -0.00000059    0.00008299   -0.00067518
     atom   11 type  2   force =     0.00023672    0.00030209    0.00017527
     atom   12 type  2   force =    -0.00017764    0.00013349   -0.00020339
     atom   13 type  1   force =     0.00016346   -0.00017830    0.00051643
     atom   14 type  1   force =     0.00032161   -0.00059416    0.00039249
     atom   15 type  2   force =     0.00003566    0.00060941   -0.00030164
     atom   16 type  2   force =    -0.00015333   -0.00012285    0.00023455
     atom   17 type  2   force =    -0.00008636    0.00038040    0.00049963
     atom   18 type  2   force =    -0.00001584    0.00017788    0.00008771
     atom   19 type  1   force =     0.00076015   -0.00037354    0.00248939
     atom   20 type  1   force =     0.00002924    0.00032763    0.00046416
     atom   21 type  2   force =     0.00016218    0.00023109    0.10303562
     atom   22 type  2   force =     0.00022513    0.00042713   -0.00013736
     atom   23 type  2   force =    -0.07097796    0.00144342   -0.02884910
     atom   24 type  2   force =     0.07110098    0.00185483   -0.02886379
     atom   25 type  1   force =     0.00033647    0.00078747    0.11231677
     atom   26 type  1   force =    -0.00012116    0.00362722   -0.17643164
     atom   27 type  2   force =    -0.00014779    0.00020234   -0.02747528
     atom   28 type  2   force =    -0.00030928    0.00087488    0.04913219
     atom   29 type  2   force =    -0.01334252   -0.00249887    0.00127833
     atom   30 type  2   force =     0.01437352   -0.00067873    0.00298291
     atom   31 type  1   force =     0.00019718   -0.00031447    0.00021205
     atom   32 type  1   force =    -0.00074060    0.00067978   -0.00046508
     atom   33 type  2   force =    -0.00025680   -0.00028260   -0.00027279
     atom   34 type  2   force =     0.00012126    0.00017072    0.00002027
     atom   35 type  2   force =    -0.00014562   -0.00006524    0.00030377
     atom   36 type  2   force =     0.00021614   -0.00009339    0.00031281
     atom   37 type  1   force =    -0.00025263   -0.00020991    0.00032942
     atom   38 type  1   force =     0.00028308    0.00033898    0.00029225
     atom   39 type  2   force =     0.00018623    0.00019618   -0.00024960
     atom   40 type  2   force =    -0.00013797   -0.00052248   -0.00076310
     atom   41 type  2   force =    -0.00037074   -0.00035412    0.00063131
     atom   42 type  2   force =     0.00010455   -0.00007770    0.00024922
     atom   43 type  1   force =     0.00028597    0.00033031    0.00011452
     atom   44 type  1   force =     0.00045052    0.00028006   -0.00004621
     atom   45 type  2   force =     0.00015740    0.00016537    0.10345155
     atom   46 type  2   force =    -0.07079162   -0.00174543   -0.02883758
     atom   47 type  2   force =     0.07090658   -0.00133551   -0.02886164
     atom   48 type  3   force =     0.00069727   -0.00006956   -0.01264130
     atom   49 type  2   force =    -0.00146073    0.00050986    0.00228405
     atom   50 type  4   force =     0.00112058   -0.00033558   -0.00043766
     atom   51 type  4   force =    -0.00066025   -0.00431459    0.00436360
     atom   52 type  4   force =    -0.00029751    0.00456630    0.00451306

     Total force =     0.369625     Total SCF correction =     0.000606
  @ DRIVER MODE: Message from server: STATUS
  @ DRIVER MODE: Message from server: GETFORCE
  @ DRIVER MODE: Returning v,forces,stress,ensemble

     Writing output data file ./calc.save/
  @ DRIVER MODE: Message from server: EXIT
  @ DRIVE MODE: Exiting

     General routines

     Parallel routines

   This run was terminated on:  23:49:17   8Sep2021

   JOB DONE.