     Program PWSCF v.6.7GPU starts on  8Sep2021 at 22:30: 6

     R & G space division:  proc/nbgrp/npool/nimage =      10
     Reading input from /storage/home/hcoda1/3/ntian30/research/carbon/CxH_vib/CH2_calc/ads_slab/CH2NNHH_a/out_0002/pw.inp
Warning: card &CELL ignored
Warning: card   CELL_DYNAMICS='IPI', ignored
Warning: card / ignored

     Current dimensions of program PWSCF are:
     Max number of different atomic species (ntypx) = 10
     Max number of k-points (npk) =  40000
     Max angular momentum in pseudopotentials (lmaxx) =  3
     Presently no symmetry can be used with electric field

     Message from routine cell_base_init:
     DEPRECATED: use true lattice parameter, not A to a.u. conversion factor

     IMPORTANT: XC functional enforced from input :
     Exchange-correlation= BEEF-VDW
                           (   1   4  43  14   2   0   0)
     Any further DFT definition will be discarded
     Please, verify this is what you really want

  @ DRIVER MODE: Connecting to
 qe_1139763_2767391.sched-torque.pace.gatech.edumior0suh_scratch
  using UNIX socket
  @ DRIVER MODE: Message from server: STATUS
  @ DRIVER MODE: Message from server: INIT
  @ DRIVER MODE: Receiving replica           0          -1
  @ DRIVER MODE: Receiving encoded integer          25
  @ DRIVER MODE:  SCF:  T  FORCE:  T  STRESS:  F  VC:  F  ENSEMBLE:  F
  @ DRIVER MODE:  SCF:  T  FORCE:  T  STRESS:  F  VC:  F  ENSEMBLE:  F

     Using Slab Decomposition

     bravais-lattice index     =            0
     lattice parameter (alat)  =       1.8897  a.u.
     unit-cell volume          =    6658.9804 (a.u.)^3
     number of atoms/cell      =           54
     number of atomic types    =            5
     number of electrons       =       396.00
     number of Kohn-Sham states=          208
     kinetic-energy cutoff     =      29.3995  Ry
     charge density cutoff     =     293.9946  Ry
     scf convergence threshold =      7.3E-08
     mixing beta               =       0.0500
     number of iterations used =            8  plain     mixing
     Exchange-correlation= BEEF-VDW
                           (   1   4  43  14   2   0   0)

     celldm(1)=   1.889726  celldm(2)=   0.000000  celldm(3)=   0.000000
     celldm(4)=   0.000000  celldm(5)=   0.000000  celldm(6)=   0.000000

     crystal axes: (cart. coord. in units of alat)
               a(1) = (   6.579727   0.000000   0.000000 )
               a(2) = (  -0.000775   5.961596   0.000000 )
               a(3) = (   0.000000   0.000000  25.155947 )

     reciprocal axes: (cart. coord. in units 2 pi/alat)
               b(1) = (  0.151982  0.000020  0.000000 )
               b(2) = (  0.000000  0.167740  0.000000 )
               b(3) = (  0.000000  0.000000  0.039752 )

     PseudoPot. # 1 for Ti read from file:
     /storage/coda1/p-amedford6/0/shared/rich_project_chbe-medford/medford-share/data/pseudos_module/espresso/nninc/pbe/van/Ti.UPF
     MD5 check sum: 8e4df49b7f0d34bbd5052bf3f5ea0213
     Pseudo is Ultrasoft, Zval = 12.0
     Generated by new atomic code, or converted to UPF format
     Using radial grid of  851 points,  6 beta functions with:
                l(1) =   0
                l(2) =   0
                l(3) =   1
                l(4) =   1
                l(5) =   2
                l(6) =   2
     Q(r) pseudized with  8 coefficients,  rinner =    1.000   1.000   1.000
                                                       1.000   1.000

     PseudoPot. # 2 for O  read from file:
     /storage/coda1/p-amedford6/0/shared/rich_project_chbe-medford/medford-share/data/pseudos_module/espresso/nninc/pbe/van/O.UPF
     MD5 check sum: 78c19812648e8988a0fe644b0f25305e
     Pseudo is Ultrasoft, Zval =  6.0
     Generated by new atomic code, or converted to UPF format
     Using radial grid of  737 points,  4 beta functions with:
                l(1) =   0
                l(2) =   0
                l(3) =   1
                l(4) =   1
     Q(r) pseudized with  8 coefficients,  rinner =    0.800   0.800   0.800

     PseudoPot. # 3 for N  read from file:
     /storage/coda1/p-amedford6/0/shared/rich_project_chbe-medford/medford-share/data/pseudos_module/espresso/nninc/pbe/van/N.UPF
     MD5 check sum: 90d10febe142ad51ac9d5be1deb811c4
     Pseudo is Ultrasoft, Zval =  5.0
     Generated by new atomic code, or converted to UPF format
     Using radial grid of  729 points,  4 beta functions with:
                l(1) =   0
                l(2) =   0
                l(3) =   1
                l(4) =   1
     Q(r) pseudized with  8 coefficients,  rinner =    0.800   0.800   0.800

     PseudoPot. # 4 for C  read from file:
     /storage/coda1/p-amedford6/0/shared/rich_project_chbe-medford/medford-share/data/pseudos_module/espresso/nninc/pbe/van/C.UPF
     MD5 check sum: 1a69bf6b8db32088f5b2163dbdb77a27
     Pseudo is Ultrasoft, Zval =  4.0
     Generated by new atomic code, or converted to UPF format
     Using radial grid of  721 points,  4 beta functions with:
                l(1) =   0
                l(2) =   0
                l(3) =   1
                l(4) =   1
     Q(r) pseudized with  8 coefficients,  rinner =    0.800   0.800   0.800

     PseudoPot. # 5 for H  read from file:
     /storage/coda1/p-amedford6/0/shared/rich_project_chbe-medford/medford-share/data/pseudos_module/espresso/nninc/pbe/van/H.UPF
     MD5 check sum: b5ee9d7bfd3a09ee7748110bda690ff7
     Pseudo is Ultrasoft, Zval =  1.0
     Generated by new atomic code, or converted to UPF format
     Using radial grid of  615 points,  1 beta functions with:
                l(1) =   0
     Q(r) pseudized with  8 coefficients,  rinner =    0.800

     atomic species   valence    mass     pseudopotential
        Ti1           12.00    47.86700     Ti( 1.00)
        O1             6.00    15.99900     O ( 1.00)
        N1             5.00    14.00700     N ( 1.00)
        C1             4.00    12.01100     C ( 1.00)
        H1             1.00     1.00800     H ( 1.00)

     No symmetry found

   Cartesian axes

     site n.     atom                  positions (alat units)
         1           Ti1 tau(   1) = (   0.0004258   2.9801865   6.0000000  )
         2           Ti1 tau(   2) = (   3.2906075   1.4906267   6.0002472  )
         3           O1  tau(   3) = (   0.0006271   0.0005054   7.9858123  )
         4           O1  tau(   4) = (   3.2906025   0.0005020   7.3038282  )
         5           O1  tau(   5) = (   4.5942328   1.4918067   9.2879030  )
         6           O1  tau(   6) = (   1.9868534   1.4903216   9.2879459  )
         7           Ti1 tau(   7) = (   3.2907910   2.8959150   9.1758416  )
         8           Ti1 tau(   8) = (   0.0015273   1.4827037   9.2680791  )
         9           O1  tau(   9) = (   3.2741875   5.9357071  11.3735532  )
        10           O1  tau(  10) = (   0.0116148   5.9584955  10.6183126  )
        11           O1  tau(  11) = (   1.2759687   1.4857368  12.6615302  )
        12           O1  tau(  12) = (   5.2764777   1.4850508  12.6403612  )
        13           Ti1 tau(  13) = (   6.5724762   2.9646551  12.5117882  )
        14           Ti1 tau(  14) = (   3.2886223   1.4652571  12.5194246  )
        15           O1  tau(  15) = (   6.5416971   0.0664024  14.6986244  )
        16           O1  tau(  16) = (   3.2828258   5.9593040  13.9967703  )
        17           O1  tau(  17) = (   4.5136565   1.4796660  16.2299008  )
        18           O1  tau(  18) = (   2.0038615   1.4742267  16.2123189  )
        19           Ti1 tau(  19) = (   3.2480181   2.9445974  15.7466143  )
        20           Ti1 tau(  20) = (   6.5118905   1.3801257  16.1190456  )
        21           O1  tau(  21) = (   3.2904802   0.0005063   4.7018136  )
        22           O1  tau(  22) = (   6.5538845   5.8109167  17.2256470  )
        23           O1  tau(  23) = (   1.3043587   1.4918075   6.0039043  )
        24           O1  tau(  24) = (   5.2767064   1.4903225   6.0039473  )
        25           Ti1 tau(  25) = (   0.0000382   5.9609847   6.0000000  )
        26           Ti1 tau(  26) = (   3.2902200   4.4714249   6.0002472  )
        27           O1  tau(  27) = (   0.0002396   2.9813036   7.9858123  )
        28           O1  tau(  28) = (   3.2902150   2.9813002   7.3038282  )
        29           O1  tau(  29) = (   4.5938453   4.4726049   9.2879030  )
        30           O1  tau(  30) = (   1.9864658   4.4711199   9.2879459  )
        31           Ti1 tau(  31) = (   3.2891106   5.8743827   9.1763621  )
        32           Ti1 tau(  32) = (   0.0006254   4.4649316   9.2693709  )
        33           O1  tau(  33) = (   3.2754078   2.9701464  11.3677572  )
        34           O1  tau(  34) = (   0.0092240   2.9805883  10.6323155  )
        35           O1  tau(  35) = (   1.2711598   4.4556272  12.7031535  )
        36           O1  tau(  36) = (   5.2783420   4.4558858  12.6781970  )
        37           Ti1 tau(  37) = (   0.0002938   5.9583472  12.5066983  )
        38           Ti1 tau(  38) = (   3.2916940   4.4447674  12.5292973  )
        39           O1  tau(  39) = (   6.5347695   2.9176514  14.9891124  )
        40           O1  tau(  40) = (   3.2818703   2.9467213  13.9608579  )
        41           O1  tau(  41) = (   4.5039121   4.4250859  16.1805084  )
        42           O1  tau(  42) = (   2.0002864   4.4376668  16.1101511  )
        43           Ti1 tau(  43) = (   3.2613398   5.9375382  15.7939200  )
        44           Ti1 tau(  44) = (   0.0097882   4.6113729  15.8292928  )
        45           O1  tau(  45) = (   3.2900926   2.9813045   4.7018136  )
        46           O1  tau(  46) = (   1.3039711   4.4726057   6.0039043  )
        47           O1  tau(  47) = (   5.2763189   4.4711207   6.0039473  )
        48           N1  tau(  48) = (   6.5627080   2.6566917  18.2311642  )
        49           C1  tau(  49) = (   0.9950107   2.5313988  18.9921798  )
        50           H1  tau(  50) = (   0.9966315   2.9146593  20.0110098  )
        51           H1  tau(  51) = (   1.8622571   2.0164067  18.6108951  )
        52           N1  tau(  52) = (   5.4094651   3.2293427  18.7544413  )
        53           H1  tau(  53) = (   5.6216840   3.8708726  19.5154782  )
        54           H1  tau(  54) = (   4.9168071   3.7283298  18.0160565  )

     number of k points=    10  Fermi-Dirac smearing, width (Ry)=  0.0073
                       cart. coord. in units 2pi/alat
        k(    1) = (   0.0000000   0.0000000   0.0000000), wk =   0.1250000
        k(    2) = (   0.0000000   0.0419351   0.0000000), wk =   0.2500000
        k(    3) = (   0.0000000  -0.0838702   0.0000000), wk =   0.1250000
        k(    4) = (   0.0379955   0.0000049   0.0000000), wk =   0.2500000
        k(    5) = (   0.0379955   0.0419400   0.0000000), wk =   0.2500000
        k(    6) = (   0.0379955  -0.0838652   0.0000000), wk =   0.2500000
        k(    7) = (   0.0379955  -0.0419301   0.0000000), wk =   0.2500000
        k(    8) = (  -0.0759910  -0.0000099   0.0000000), wk =   0.1250000
        k(    9) = (  -0.0759910   0.0419252   0.0000000), wk =   0.2500000
        k(   10) = (  -0.0759910  -0.0838800   0.0000000), wk =   0.1250000

     Initial potential from superposition of free atoms

     starting charge  379.99915, renormalised to  396.00000

     negative rho (up, down):  1.580E-02 0.000E+00

     %%%%%%%%%%%%%%%%%%%%%%%%%%%%%%%%%%%%%%%%%%%%%%%%%%%%%%%%%%%%%%%%%%%%%%%%
     %                                                                      %
     % You are using vdW-DF, which was implemented by the Thonhauser group. %
     % Please cite the following two papers that made this development      %
     % possible and the two reviews that describe the various versions:     %
     %                                                                      %
     %   T. Thonhauser et al., PRL 115, 136402 (2015).                      %
     %   T. Thonhauser et al., PRB 76, 125112 (2007).                       %
     %   K. Berland et al., Rep. Prog. Phys. 78, 066501 (2015).             %
     %   D.C. Langreth et al., J. Phys.: Condens. Matter 21, 084203 (2009). %
     %                                                                      %
     %                                                                      %
     % If you are calculating the stress with vdW-DF, please also cite:     %
     %                                                                      %
     %   R. Sabatini et al., J. Phys.: Condens. Matter 24, 424209 (2012).   %
     %                                                                      %
     %%%%%%%%%%%%%%%%%%%%%%%%%%%%%%%%%%%%%%%%%%%%%%%%%%%%%%%%%%%%%%%%%%%%%%%%

     Adding external electric field

     Computed dipole along edir(3) :
        Dipole               -9.9798 Ry au,        -25.3661 Debye
        Dipole field         -0.0188 Ry au,

        Potential amp.        1.7458 Ry
        Total length         46.3494 bohr

     Starting wfcs are  300 atomic wfcs
  @ DRIVER MODE: Message from server: STATUS
  @ DRIVER MODE: Message from server: POSDATA
  @ DRIVER MODE: Reading and sharing cell
  @ DRIVER MODE: Reading and sharing positions
  @ DRIVER MODE: Received positions

     Self-consistent Calculation

     iteration #  1     ecut=    29.40 Ry     beta= 0.05
     Davidson diagonalization with overlap
     c_bands:  1 eigenvalues not converged
     c_bands:  2 eigenvalues not converged
     c_bands:  2 eigenvalues not converged
     c_bands:  1 eigenvalues not converged
     c_bands:  3 eigenvalues not converged
     c_bands:  2 eigenvalues not converged
     c_bands:  3 eigenvalues not converged
     c_bands:  2 eigenvalues not converged
     c_bands:  1 eigenvalues not converged
     c_bands:  1 eigenvalues not converged
     ethr =  1.00E-05,  avg # of iterations = 20.0

[...]

     total energy              =   -2515.82648609 Ry
     estimated scf accuracy    <    4740.62052193 Ry

     iteration #  2     ecut=    29.40 Ry     beta= 0.05
     Davidson diagonalization with overlap
     ethr =  1.00E-02,  avg # of iterations = 23.3

[...]

     iteration # 62     ecut=    29.40 Ry     beta= 0.05
     Davidson diagonalization with overlap
     ethr =  3.43E-11,  avg # of iterations =  3.3

[...]

     total energy              =   -2940.36644264 Ry
     estimated scf accuracy    <       0.00000008 Ry

     iteration # 63     ecut=    29.40 Ry     beta= 0.05
     Davidson diagonalization with overlap
     c_bands:  1 eigenvalues not converged
     ethr =  2.10E-11,  avg # of iterations = 13.6

     negative rho (up, down):  1.644E-02 0.000E+00

     Adding external electric field

     Computed dipole along edir(3) :
        Dipole                1.2679 Ry au,          3.2227 Debye
        Dipole field          0.0024 Ry au,

        Potential amp.       -0.2218 Ry
        Total length         46.3494 bohr

     End of self-consistent calculation

          k = 0.0000 0.0000 0.0000 ( 18029 PWs)   bands (ev):

   -55.4164 -55.3797 -55.3684 -55.3343 -55.2957 -55.2922 -55.2869 -55.2611
   -55.2345 -55.2179 -55.2001 -55.1997 -55.1662 -55.0505 -54.3959 -54.3618
   -31.9855 -31.8608 -31.8191 -31.7839 -31.7299 -31.7241 -31.7191 -31.7053
   -31.6574 -31.6501 -31.6267 -31.6255 -31.6133 -31.5866 -31.5715 -31.5667
   -31.5543 -31.5532 -31.5320 -31.5274 -31.5208 -31.5109 -31.4822 -31.4730
   -31.4651 -31.4629 -31.4369 -31.4266 -31.4255 -31.4206 -31.4172 -31.3985
   -31.3976 -31.3921 -31.3849 -31.3825 -31.3485 -31.3350 -31.3281 -31.3111
   -31.2718 -31.2150 -30.8052 -30.7112 -30.6891 -30.6216 -30.5348 -30.4239
   -18.5485 -16.2485 -15.9798 -15.8375 -15.7131 -15.6138 -15.4893 -15.4675
   -15.3398 -15.2548 -15.1414 -15.0972 -15.0864 -15.0825 -15.0495 -15.0232
   -14.9581 -14.9536 -14.9360 -14.9095 -14.8988 -14.8557 -14.8526 -14.8112
   -14.7905 -14.7897 -14.6624 -14.5734 -14.5029 -14.1812 -13.7242 -12.8989
   -12.7815  -8.7222  -6.4675  -6.0609  -4.0072  -3.5893  -3.4333  -3.3788
    -3.3354  -3.3083  -3.2031  -3.1617  -3.0222  -2.8251  -2.7763  -2.6864
    -2.6243  -2.6157  -2.5967  -2.4159  -2.4084  -2.3519  -2.3017  -2.2598
    -2.2377  -2.2229  -2.2038  -2.1789  -2.1682  -2.1578  -1.9847  -1.9693
    -1.8979  -1.8244  -1.8144  -1.7640  -1.7430  -1.7124  -1.7043  -1.6962
    -1.6511  -1.6317  -1.6015  -1.5537  -1.4278  -1.3366  -1.3043  -1.2219
    -1.1009  -1.0519  -0.9998  -0.9969  -0.9039  -0.8995  -0.8801  -0.7939
    -0.7606  -0.7116  -0.6389  -0.5708  -0.5139  -0.4551  -0.4083  -0.3978
    -0.3434  -0.2262  -0.2001  -0.1811  -0.1591  -0.0390  -0.0203   0.0195
     0.0945   0.1249   0.1257   0.2422   0.2676   0.3263   0.3302   0.4072
     0.4679   0.5126   0.5214   0.5402   0.5698   0.5728   0.6470   0.6606
     0.6910   0.7601   0.8110   0.9188   1.1478   1.1847   1.1982   1.5311
     1.5332   1.6265   1.8103   2.2023   2.2504   3.6827   3.7526   3.8271
     3.8335   3.8516   3.9201   4.1567   4.1749   4.1829   4.1884   4.2313

[...]

          k = 0.0380-0.0419 0.0000 ( 17876 PWs)   bands (ev):

[...]

          k =-0.0760-0.0000 0.0000 ( 17886 PWs)   bands (ev):

[...]

          k =-0.0760-0.0839 0.0000 ( 17948 PWs)   bands (ev):

   -55.4017 -55.3942 -55.3514 -55.3512 -55.2871 -55.2865 -55.2801 -55.2766
   -55.2220 -55.2188 -55.2151 -55.1833 -55.1829 -55.0518 -54.3788 -54.3787
   -31.7918 -31.7863 -31.7463 -31.6927 -31.6788 -31.6760 -31.6758 -31.6427
   -31.6427 -31.6266 -31.6176 -31.6128 -31.6083 -31.5617 -31.5542 -31.5520
   -31.5498 -31.5479 -31.5423 -31.5370 -31.5221 -31.5100 -31.4924 -31.4921
   -31.4880 -31.4737 -31.4726 -31.4711 -31.4707 -31.4688 -31.4521 -31.4480
   -31.4429 -31.4320 -31.4286 -31.4136 -31.4126 -31.4089 -31.3640 -31.3636
   -31.2933 -31.2754 -30.7018 -30.7017 -30.6177 -30.6176 -30.5783 -30.5782
   -18.5459 -15.7111 -15.6777 -15.6203 -15.4398 -15.4122 -15.4056 -15.3865
   -15.2568 -15.2398 -15.2089 -15.1795 -15.1484 -15.1230 -15.1188 -15.1016
   -15.0311 -15.0203 -15.0121 -14.9946 -14.9291 -14.9251 -14.9163 -14.9115
   -14.8645 -14.8618 -14.7666 -14.7650 -14.6655 -14.5505 -13.7301 -12.8830
   -12.8830  -8.7037  -6.4414  -6.0749  -4.0177  -3.2649  -2.9438  -2.8770
    -2.8487  -2.6515  -2.6280  -2.5853  -2.5300  -2.4500  -2.4239  -2.4173
    -2.4084  -2.3376  -2.3259  -2.2761  -2.2670  -2.2479  -2.2326  -2.2220
    -2.1924  -2.1667  -2.1427  -2.1338  -2.1226  -2.0683  -2.0579  -2.0401
    -2.0102  -1.9905  -1.9812  -1.9644  -1.8653  -1.7809  -1.7517  -1.7251
    -1.6202  -1.6159  -1.5354  -1.5195  -1.4881  -1.4474  -1.4346  -1.4141
    -1.2325  -1.2050  -1.1713  -1.1583  -1.1500  -1.0108  -0.9968  -0.9406
    -0.9002  -0.8938  -0.7850  -0.7606  -0.7359  -0.6602  -0.6240  -0.5897
    -0.5400  -0.4336  -0.4158  -0.4050  -0.3716  -0.3675  -0.3116  -0.2996
    -0.2245  -0.1822  -0.1493  -0.1354  -0.0929   0.0942   0.1188   0.1336
     0.2768   0.3313   0.4253   0.5256   0.5361   0.5910   0.6289   0.6967
     0.7576   0.8049   0.8670   0.8922   0.8942   0.9726   0.9903   1.0439
     1.0457   1.9834   1.9840   2.0703   2.0707   3.8251   3.9338   3.9449
     3.9855   4.0693   4.1259   4.1989   4.2272   4.2663   4.2689   4.3344

     the Fermi energy is     3.7445 ev

!    total energy              =   -2940.36647811 Ry
     estimated scf accuracy    <       0.00000007 Ry
     smearing contrib. (-TS)   =      -0.03727881 Ry
     internal energy E=F+TS    =   -2940.32919930 Ry

     The total energy is F=E-TS. E is the sum of the following terms:
     one-electron contribution =  -23759.02378330 Ry
     hartree contribution      =   11970.86385746 Ry
     xc contribution           =    -486.11983088 Ry
     ewald contribution        =    9333.94752366 Ry
     electric field correction =       0.00303375 Ry

     convergence has been achieved in  63 iterations

     Forces acting on atoms (cartesian axes, Ry/au):

     atom    1 type  1   force =     0.00005446   -0.00012882    0.09328413
     atom    2 type  1   force =    -0.00004979   -0.00025848   -0.17805601
     atom    3 type  2   force =     0.00002206   -0.00016419   -0.02025060
     atom    4 type  2   force =     0.00001113   -0.00196033    0.05849410
     atom    5 type  2   force =    -0.01065972   -0.00127588    0.00870903
     atom    6 type  2   force =     0.01176037   -0.00062244    0.00683290
     atom    7 type  1   force =    -0.00091800    0.00299489   -0.01444021
     atom    8 type  1   force =     0.00063974   -0.00050110   -0.00373025
     atom    9 type  2   force =     0.00014456    0.00010300    0.00010210
     atom   10 type  2   force =    -0.00209591   -0.00122316    0.00064739
     atom   11 type  2   force =     0.00007739    0.00022089   -0.00011321
     atom   12 type  2   force =     0.00057657    0.00029217   -0.00006167
     atom   13 type  1   force =    -0.00013992    0.00029557    0.00007167
     atom   14 type  1   force =     0.00012571    0.00046233   -0.00040245
     atom   15 type  2   force =     0.00004741    0.00042703   -0.00001616
     atom   16 type  2   force =     0.00041468    0.00017130   -0.00032876
     atom   17 type  2   force =     0.00043106   -0.00031381   -0.00032196
     atom   18 type  2   force =     0.00021489   -0.00054180    0.00012657
     atom   19 type  1   force =    -0.00086970   -0.00007355    0.00017527
     atom   20 type  1   force =     0.00036332   -0.00010458   -0.00040885
     atom   21 type  2   force =     0.00009879    0.00000091    0.10390656
     atom   22 type  2   force =    -0.00013884    0.00024570    0.00022907
     atom   23 type  2   force =    -0.07039996   -0.00012575   -0.02689688
     atom   24 type  2   force =     0.07033732    0.00033292   -0.02693725
     atom   25 type  1   force =     0.00008253   -0.00023642    0.09283834
     atom   26 type  1   force =    -0.00005429   -0.00034426   -0.17803722
     atom   27 type  2   force =     0.00011001   -0.00036076   -0.01930580
     atom   28 type  2   force =     0.00004207   -0.00165115    0.05791719
     atom   29 type  2   force =    -0.01064378   -0.00128392    0.00803620
     atom   30 type  2   force =     0.01164749   -0.00089024    0.00609480
     atom   31 type  1   force =    -0.00090637    0.00490517   -0.01542599
     atom   32 type  1   force =     0.00083154    0.00019895   -0.00391813
     atom   33 type  2   force =     0.00010350    0.00046588    0.00023093
     atom   34 type  2   force =    -0.00177231    0.00109861    0.00070187
     atom   35 type  2   force =     0.00031231    0.00005882    0.00008361
     atom   36 type  2   force =     0.00026759   -0.00025232    0.00019483
     atom   37 type  1   force =    -0.00035478    0.00001852   -0.00013277
     atom   38 type  1   force =    -0.00023949    0.00050355   -0.00017279
     atom   39 type  2   force =     0.00048835   -0.00071917    0.00000373
     atom   40 type  2   force =    -0.00016066    0.00007178   -0.00000897
     atom   41 type  2   force =     0.00003723   -0.00005771   -0.00030151
     atom   42 type  2   force =     0.00013315    0.00008230    0.00004970
     atom   43 type  1   force =    -0.00014414   -0.00014521    0.00009260
     atom   44 type  1   force =     0.00003658    0.00010741   -0.00022061
     atom   45 type  2   force =     0.00010644   -0.00003208    0.10387317
     atom   46 type  2   force =    -0.07040779   -0.00005593   -0.02689466
     atom   47 type  2   force =     0.07035821    0.00037038   -0.02690105
     atom   48 type  3   force =    -0.02358382    0.00562881   -0.00836869
     atom   49 type  4   force =     0.01482685   -0.00199089    0.00907043
     atom   50 type  5   force =     0.00060497   -0.00036104    0.00080919
     atom   51 type  5   force =     0.00073473   -0.00009860    0.00028388
     atom   52 type  3   force =     0.00636369   -0.00310249   -0.00103987
     atom   53 type  5   force =    -0.00000328   -0.00010728    0.00056733
     atom   54 type  5   force =     0.00113586   -0.00007354   -0.00073424

     Total force =     0.367231     Total SCF correction =     0.000459
  @ DRIVER MODE: Message from server: STATUS
  @ DRIVER MODE: Message from server: GETFORCE
  @ DRIVER MODE: Returning v,forces,stress,ensemble

     Writing output data file ./calc.save/
  @ DRIVER MODE: Message from server: EXIT
  @ DRIVE MODE: Exiting

     General routines

     Parallel routines

   This run was terminated on:  22:47:12   8Sep2021

   JOB DONE.