     Program PWSCF v.6.7GPU starts on 22Sep2021 at 21:38:42

     R & G space division:  proc/nbgrp/npool/nimage =      10
     Reading input from /storage/home/hcoda1/3/ntian30/research/carbon/CxH_vib/H2O_calc/ads_slab/CHNHNHH2O_b/out_0017/pw.inp
Warning: card &CELL ignored
Warning: card   CELL_DYNAMICS='IPI', ignored
Warning: card / ignored

     Current dimensions of program PWSCF are:
     Max number of different atomic species (ntypx) = 10
     Max number of k-points (npk) =  40000
     Max angular momentum in pseudopotentials (lmaxx) =  3
     Presently no symmetry can be used with electric field

     Message from routine cell_base_init:
     DEPRECATED: use true lattice parameter, not A to a.u. conversion factor

     IMPORTANT: XC functional enforced from input :
     Exchange-correlation= BEEF-VDW
                           (   1   4  43  14   2   0   0)
     Any further DFT definition will be discarded
     Please, verify this is what you really want

  @ DRIVER MODE: Connecting to
 qe_1139763_2937311.sched-torque.pace.gatech.eduljw_7vo2_scratch
  using UNIX socket
  @ DRIVER MODE: Message from server: STATUS
  @ DRIVER MODE: Message from server: INIT
  @ DRIVER MODE: Receiving replica           0          -1
  @ DRIVER MODE: Receiving encoded integer          25
  @ DRIVER MODE:  SCF:  T  FORCE:  T  STRESS:  F  VC:  F  ENSEMBLE:  F
  @ DRIVER MODE:  SCF:  T  FORCE:  T  STRESS:  F  VC:  F  ENSEMBLE:  F

     Using Slab Decomposition

     bravais-lattice index     =            0
     lattice parameter (alat)  =       1.8897  a.u.
     unit-cell volume          =    6658.9804 (a.u.)^3
     number of atoms/cell      =           56
     number of atomic types    =            5
     number of electrons       =       403.00
     number of Kohn-Sham states=          211
     kinetic-energy cutoff     =      29.3995  Ry
     charge density cutoff     =     293.9946  Ry
     scf convergence threshold =      7.3E-08
     mixing beta               =       0.0500
     number of iterations used =            8  plain     mixing
     Exchange-correlation= BEEF-VDW
                           (   1   4  43  14   2   0   0)

     celldm(1)=   1.889726  celldm(2)=   0.000000  celldm(3)=   0.000000
     celldm(4)=   0.000000  celldm(5)=   0.000000  celldm(6)=   0.000000

     crystal axes: (cart. coord. in units of alat)
               a(1) = (   6.579727   0.000000   0.000000 )
               a(2) = (  -0.000775   5.961596   0.000000 )
               a(3) = (   0.000000   0.000000  25.155947 )

     reciprocal axes: (cart. coord. in units 2 pi/alat)
               b(1) = (  0.151982  0.000020  0.000000 )
               b(2) = (  0.000000  0.167740  0.000000 )
               b(3) = (  0.000000  0.000000  0.039752 )

     PseudoPot. # 1 for Ti read from file:
     /storage/coda1/p-amedford6/0/shared/rich_project_chbe-medford/medford-share/data/pseudos_module/espresso/nninc/pbe/van/Ti.UPF
     MD5 check sum: 8e4df49b7f0d34bbd5052bf3f5ea0213
     Pseudo is Ultrasoft, Zval = 12.0
     Generated by new atomic code, or converted to UPF format
     Using radial grid of  851 points,  6 beta functions with:
                l(1) =   0
                l(2) =   0
                l(3) =   1
                l(4) =   1
                l(5) =   2
                l(6) =   2
     Q(r) pseudized with  8 coefficients,  rinner =    1.000   1.000   1.000
                                                       1.000   1.000

     PseudoPot. # 2 for O  read from file:
     /storage/coda1/p-amedford6/0/shared/rich_project_chbe-medford/medford-share/data/pseudos_module/espresso/nninc/pbe/van/O.UPF
     MD5 check sum: 78c19812648e8988a0fe644b0f25305e
     Pseudo is Ultrasoft, Zval =  6.0
     Generated by new atomic code, or converted to UPF format
     Using radial grid of  737 points,  4 beta functions with:
                l(1) =   0
                l(2) =   0
                l(3) =   1
                l(4) =   1
     Q(r) pseudized with  8 coefficients,  rinner =    0.800   0.800   0.800

     PseudoPot. # 3 for N  read from file:
     /storage/coda1/p-amedford6/0/shared/rich_project_chbe-medford/medford-share/data/pseudos_module/espresso/nninc/pbe/van/N.UPF
     MD5 check sum: 90d10febe142ad51ac9d5be1deb811c4
     Pseudo is Ultrasoft, Zval =  5.0
     Generated by new atomic code, or converted to UPF format
     Using radial grid of  729 points,  4 beta functions with:
                l(1) =   0
                l(2) =   0
                l(3) =   1
                l(4) =   1
     Q(r) pseudized with  8 coefficients,  rinner =    0.800   0.800   0.800

     PseudoPot. # 4 for C  read from file:
     /storage/coda1/p-amedford6/0/shared/rich_project_chbe-medford/medford-share/data/pseudos_module/espresso/nninc/pbe/van/C.UPF
     MD5 check sum: 1a69bf6b8db32088f5b2163dbdb77a27
     Pseudo is Ultrasoft, Zval =  4.0
     Generated by new atomic code, or converted to UPF format
     Using radial grid of  721 points,  4 beta functions with:
                l(1) =   0
                l(2) =   0
                l(3) =   1
                l(4) =   1
     Q(r) pseudized with  8 coefficients,  rinner =    0.800   0.800   0.800

     PseudoPot. # 5 for H  read from file:
     /storage/coda1/p-amedford6/0/shared/rich_project_chbe-medford/medford-share/data/pseudos_module/espresso/nninc/pbe/van/H.UPF
     MD5 check sum: b5ee9d7bfd3a09ee7748110bda690ff7
     Pseudo is Ultrasoft, Zval =  1.0
     Generated by new atomic code, or converted to UPF format
     Using radial grid of  615 points,  1 beta functions with:
                l(1) =   0
     Q(r) pseudized with  8 coefficients,  rinner =    0.800

     atomic species   valence    mass     pseudopotential
        Ti1           12.00    47.86700     Ti( 1.00)
        O1             6.00    15.99900     O ( 1.00)
        N1             5.00    14.00700     N ( 1.00)
        C1             4.00    12.01100     C ( 1.00)
        H1             1.00     1.00800     H ( 1.00)

     No symmetry found

   Cartesian axes

     site n.     atom                  positions (alat units)
         1           Ti1 tau(   1) = (   0.0004258   2.9801865   6.0000000  )
         2           Ti1 tau(   2) = (   3.2906075   1.4906267   6.0002472  )
         3           O1  tau(   3) = (   0.0006271   0.0005054   7.9858123  )
         4           O1  tau(   4) = (   3.2906025   0.0005020   7.3038282  )
         5           O1  tau(   5) = (   4.5942328   1.4918067   9.2879030  )
         6           O1  tau(   6) = (   1.9868534   1.4903216   9.2879459  )
         7           Ti1 tau(   7) = (   3.2907910   2.8959150   9.1758416  )
         8           Ti1 tau(   8) = (   0.0015273   1.4827037   9.2680791  )
         9           O1  tau(   9) = (   3.2780774   5.9605562  11.3537357  )
        10           O1  tau(  10) = (   0.0116148   5.9584955  10.6183126  )
        11           O1  tau(  11) = (   1.2922713   1.4781662  12.6511241  )
        12           O1  tau(  12) = (   5.2965393   1.5043564  12.6031353  )
        13           Ti1 tau(  13) = (   6.5273184   3.0207086  12.5807821  )
        14           Ti1 tau(  14) = (   3.2344070   1.4559942  12.5004267  )
        15           O1  tau(  15) = (   6.4759410   0.0295824  14.6525783  )
        16           O1  tau(  16) = (   3.3604338   0.0238249  13.9383540  )
        17           O1  tau(  17) = (   4.5324113   1.5808541  16.1066768  )
        18           O1  tau(  18) = (   1.9684897   1.4712893  15.8817925  )
        19           Ti1 tau(  19) = (   3.2566353   3.0739815  15.8599551  )
        20           Ti1 tau(  20) = (   6.5466614   1.5318677  15.7800735  )
        21           O1  tau(  21) = (   3.2904802   0.0005063   4.7018136  )
        22           O1  tau(  22) = (   6.5744325   0.0155309  17.2227980  )
        23           O1  tau(  23) = (   1.3043587   1.4918075   6.0039043  )
        24           O1  tau(  24) = (   5.2767064   1.4903225   6.0039473  )
        25           Ti1 tau(  25) = (   0.0000382   5.9609847   6.0000000  )
        26           Ti1 tau(  26) = (   3.2902200   4.4714249   6.0002472  )
        27           O1  tau(  27) = (   0.0002396   2.9813036   7.9858123  )
        28           O1  tau(  28) = (   3.2902150   2.9813002   7.3038282  )
        29           O1  tau(  29) = (   4.5938453   4.4726049   9.2879030  )
        30           O1  tau(  30) = (   1.9864658   4.4711199   9.2879459  )
        31           Ti1 tau(  31) = (   3.2891106   5.8743827   9.1763621  )
        32           Ti1 tau(  32) = (   0.0006254   4.4649316   9.2693709  )
        33           O1  tau(  33) = (   3.2727763   2.9788165  11.3438337  )
        34           O1  tau(  34) = (   0.0092240   2.9805883  10.6323155  )
        35           O1  tau(  35) = (   1.2865780   4.4896361  12.6556599  )
        36           O1  tau(  36) = (   5.2967437   4.4749066  12.6066920  )
        37           Ti1 tau(  37) = (   6.5467059   0.0356701  12.5108493  )
        38           Ti1 tau(  38) = (   3.2305653   4.4019604  12.5605372  )
        39           O1  tau(  39) = (   6.5199767   2.9846217  14.6905747  )
        40           O1  tau(  40) = (   3.2851694   3.0254550  13.9321539  )
        41           O1  tau(  41) = (   4.5310495   4.4602642  16.1636806  )
        42           O1  tau(  42) = (   1.9842988   4.5744318  15.9411167  )
        43           Ti1 tau(  43) = (   3.2691225   0.1036042  15.7405456  )
        44           Ti1 tau(  44) = (   6.5697781   4.6877429  16.0360384  )
        45           O1  tau(  45) = (   3.2900926   2.9813045   4.7018136  )
        46           O1  tau(  46) = (   1.3039711   4.4726057   6.0039043  )
        47           O1  tau(  47) = (   5.2763189   4.4711207   6.0039473  )
        48           N1  tau(  48) = (   1.2792381   2.8578196  18.3696018  )
        49           N1  tau(  49) = (   0.1888888   2.9646215  17.5057353  )
        50           C1  tau(  50) = (   2.5352320   2.9081513  18.0282144  )
        51           H1  tau(  51) = (   3.1442446   2.7411670  18.9317345  )
        52           H1  tau(  52) = (   1.0014291   2.6635404  19.3302151  )
        53           H1  tau(  53) = (   5.9397212   2.8571719  18.0851170  )
        54           O1  tau(  54) = (   3.2630597   0.0341043  18.2348460  )
        55           H1  tau(  55) = (   4.0455299   5.4198958  18.2485053  )
        56           H1  tau(  56) = (   2.4923979   5.4091459  18.3156537  )

     number of k points=    10  Fermi-Dirac smearing, width (Ry)=  0.0073
                       cart. coord. in units 2pi/alat
        k(    1) = (   0.0000000   0.0000000   0.0000000), wk =   0.1250000
        k(    2) = (   0.0000000   0.0419351   0.0000000), wk =   0.2500000
        k(    3) = (   0.0000000  -0.0838702   0.0000000), wk =   0.1250000
        k(    4) = (   0.0379955   0.0000049   0.0000000), wk =   0.2500000
        k(    5) = (   0.0379955   0.0419400   0.0000000), wk =   0.2500000
        k(    6) = (   0.0379955  -0.0838652   0.0000000), wk =   0.2500000
        k(    7) = (   0.0379955  -0.0419301   0.0000000), wk =   0.2500000
        k(    8) = (  -0.0759910  -0.0000099   0.0000000), wk =   0.1250000
        k(    9) = (  -0.0759910   0.0419252   0.0000000), wk =   0.2500000
        k(   10) = (  -0.0759910  -0.0838800   0.0000000), wk =   0.1250000

     Initial potential from superposition of free atoms

     starting charge  386.99914, renormalised to  403.00000

     negative rho (up, down):  1.738E-02 0.000E+00

     %%%%%%%%%%%%%%%%%%%%%%%%%%%%%%%%%%%%%%%%%%%%%%%%%%%%%%%%%%%%%%%%%%%%%%%%
     %                                                                      %
     % You are using vdW-DF, which was implemented by the Thonhauser group. %
     % Please cite the following two papers that made this development      %
     % possible and the two reviews that describe the various versions:     %
     %                                                                      %
     %   T. Thonhauser et al., PRL 115, 136402 (2015).                      %
     %   T. Thonhauser et al., PRB 76, 125112 (2007).                       %
     %   K. Berland et al., Rep. Prog. Phys. 78, 066501 (2015).             %
     %   D.C. Langreth et al., J. Phys.: Condens. Matter 21, 084203 (2009). %
     %                                                                      %
     %                                                                      %
     % If you are calculating the stress with vdW-DF, please also cite:     %
     %                                                                      %
     %   R. Sabatini et al., J. Phys.: Condens. Matter 24, 424209 (2012).   %
     %                                                                      %
     %%%%%%%%%%%%%%%%%%%%%%%%%%%%%%%%%%%%%%%%%%%%%%%%%%%%%%%%%%%%%%%%%%%%%%%%

     Adding external electric field

     Computed dipole along edir(3) :
        Dipole              -12.3431 Ry au,        -31.3731 Debye
        Dipole field         -0.0233 Ry au,

        Potential amp.        2.1592 Ry
        Total length         46.3494 bohr

     Starting wfcs are  305 atomic wfcs
  @ DRIVER MODE: Message from server: STATUS
  @ DRIVER MODE: Message from server: POSDATA
  @ DRIVER MODE: Reading and sharing cell
  @ DRIVER MODE: Reading and sharing positions
  @ DRIVER MODE: Received positions

     Self-consistent Calculation

     iteration #  1     ecut=    29.40 Ry     beta= 0.05
     Davidson diagonalization with overlap
     c_bands:  5 eigenvalues not converged
     c_bands:  3 eigenvalues not converged
     c_bands:  3 eigenvalues not converged
     c_bands:  1 eigenvalues not converged
     c_bands:  2 eigenvalues not converged
     c_bands:  2 eigenvalues not converged
     c_bands:  5 eigenvalues not converged
     c_bands:  2 eigenvalues not converged
     c_bands:  4 eigenvalues not converged
     ethr =  1.00E-05,  avg # of iterations = 29.3

[...]

     total energy              =   -2358.74977879 Ry
     estimated scf accuracy    <    6971.10142727 Ry

     iteration #  2     ecut=    29.40 Ry     beta= 0.05
     Davidson diagonalization with overlap
     ethr =  1.00E-02,  avg # of iterations = 26.4

[...]

     iteration # 44     ecut=    29.40 Ry     beta= 0.05
     Davidson diagonalization with overlap
     c_bands:  1 eigenvalues not converged
     ethr =  1.33E-08,  avg # of iterations = 12.9

[...]

     total energy              =   -2973.93992066 Ry
     estimated scf accuracy    <       0.00000008 Ry

     iteration # 57     ecut=    29.40 Ry     beta= 0.05
     Davidson diagonalization with overlap
     ethr =  1.91E-11,  avg # of iterations =  9.1

     negative rho (up, down):  1.725E-02 0.000E+00

     Adding external electric field

     Computed dipole along edir(3) :
        Dipole                1.3986 Ry au,          3.5548 Debye
        Dipole field          0.0026 Ry au,

        Potential amp.       -0.2447 Ry
        Total length         46.3494 bohr

     End of self-consistent calculation

          k = 0.0000 0.0000 0.0000 ( 18029 PWs)   bands (ev):

   -55.3199 -55.2858 -55.2102 -55.1862 -55.1674 -55.1559 -55.1409 -55.1186
   -55.1071 -55.1012 -55.0981 -55.0635 -54.9915 -54.8335 -54.3001 -54.2661
   -31.8041 -31.7312 -31.6560 -31.6502 -31.6406 -31.6118 -31.5877 -31.5650
   -31.5202 -31.5007 -31.4722 -31.4641 -31.4556 -31.4404 -31.4260 -31.4220
   -31.3985 -31.3803 -31.3771 -31.3651 -31.3338 -31.3336 -31.3292 -31.3260
   -31.3230 -31.3195 -31.3154 -31.2972 -31.2896 -31.2797 -31.2728 -31.2704
   -31.2613 -31.2588 -31.2526 -31.2487 -31.2395 -31.2142 -31.2106 -31.0897
   -31.0748 -31.0490 -30.7070 -30.6189 -30.5965 -30.5240 -30.4375 -30.3262
   -18.8771 -18.6440 -15.9781 -15.7945 -15.6135 -15.4744 -15.3922 -15.1607
   -15.1022 -15.0636 -14.9823 -14.9607 -14.8594 -14.8406 -14.8392 -14.8206
   -14.8177 -14.7628 -14.7474 -14.7431 -14.6945 -14.6877 -14.6624 -14.6470
   -14.5949 -14.5157 -14.5063 -14.4608 -14.4154 -14.3690 -14.0223 -13.3913
   -12.8013 -12.6848  -8.8164  -7.2492  -6.6166  -4.2666  -3.7842  -3.3598
    -3.2832  -3.2495  -3.2247  -3.0888  -2.9716  -2.8649  -2.7551  -2.6714
    -2.5848  -2.4806  -2.4241  -2.3785  -2.3181  -2.2577  -2.2317  -2.1462
    -2.1263  -2.1066  -2.0849  -2.0584  -2.0288  -1.9921  -1.8692  -1.8586
    -1.7761  -1.7202  -1.6820  -1.6634  -1.6397  -1.6342  -1.6029  -1.5813
    -1.5736  -1.5613  -1.5601  -1.5243  -1.3869  -1.3632  -1.3329  -1.3100
    -1.1633  -1.0259  -0.9372  -0.9348  -0.8254  -0.7603  -0.7576  -0.7191
    -0.7033  -0.6013  -0.5158  -0.4808  -0.4544  -0.3772  -0.3191  -0.2629
    -0.2111  -0.1757  -0.1106  -0.0860  -0.0688  -0.0518   0.0181   0.0798
     0.1408   0.2253   0.2688   0.2943   0.3848   0.3983   0.4205   0.4872
     0.5198   0.5641   0.5992   0.6283   0.6519   0.6822   0.7072   0.7508
     0.7871   0.9146   0.9326   0.9609   0.9831   1.1567   1.2067   1.2989
     1.3390   1.4454   1.4831   1.6622   1.7235   1.8031   1.9154   2.2936
     2.3394   3.7892   3.9007   3.9346   3.9599   3.9992   4.0502   4.2570
     4.3303   4.3714   4.4287

[...]

          k = 0.0380-0.0419 0.0000 ( 17876 PWs)   bands (ev):

[...]

          k =-0.0760-0.0000 0.0000 ( 17886 PWs)   bands (ev):

[...]

          k =-0.0760-0.0839 0.0000 ( 17948 PWs)   bands (ev):

   -55.3030 -55.3025 -55.2007 -55.1830 -55.1761 -55.1444 -55.1305 -55.1240
   -55.1233 -55.1047 -55.0848 -55.0769 -54.9898 -54.8351 -54.2831 -54.2830
   -31.6196 -31.6192 -31.5974 -31.5970 -31.5654 -31.5337 -31.5028 -31.4900
   -31.4830 -31.4677 -31.4494 -31.4416 -31.4402 -31.4303 -31.4258 -31.4234
   -31.4224 -31.4221 -31.4170 -31.4009 -31.3903 -31.3760 -31.3646 -31.3612
   -31.3580 -31.3536 -31.3445 -31.3319 -31.3263 -31.3249 -31.3096 -31.3005
   -31.2972 -31.2965 -31.2948 -31.2919 -31.2587 -31.2328 -31.2190 -31.1459
   -31.0920 -31.0778 -30.6092 -30.6092 -30.5198 -30.5197 -30.4808 -30.4807
   -18.8667 -18.6500 -15.3555 -15.3206 -15.2822 -15.2552 -15.2392 -15.1184
   -15.1048 -15.0690 -15.0278 -15.0142 -14.9839 -14.9553 -14.9066 -14.8978
   -14.8635 -14.8441 -14.8049 -14.7784 -14.7592 -14.7548 -14.7380 -14.7165
   -14.6722 -14.6506 -14.6386 -14.6342 -14.5823 -14.4878 -14.2076 -13.4139
   -12.7866 -12.7866  -8.8124  -7.1743  -6.6176  -4.4778  -3.5655  -2.8600
    -2.6682  -2.6309  -2.5781  -2.4883  -2.4414  -2.3194  -2.3128  -2.2901
    -2.2448  -2.2320  -2.1913  -2.1508  -2.1449  -2.1171  -2.1046  -2.0601
    -2.0488  -2.0456  -2.0314  -1.9976  -1.9922  -1.9718  -1.9474  -1.9444
    -1.9341  -1.9179  -1.8850  -1.8779  -1.8506  -1.8319  -1.6804  -1.6077
    -1.5631  -1.4859  -1.4629  -1.4461  -1.4269  -1.3923  -1.3721  -1.3471
    -1.3195  -1.1718  -1.0308  -0.9969  -0.9735  -0.8753  -0.8582  -0.8390
    -0.7965  -0.7513  -0.7150  -0.6565  -0.6521  -0.6018  -0.5805  -0.4602
    -0.4231  -0.3237  -0.2882  -0.2869  -0.2691  -0.2545  -0.2371  -0.2116
    -0.1630  -0.0904  -0.0749  -0.0262  -0.0024   0.0003   0.0133   0.1594
     0.2300   0.2514   0.3536   0.3824   0.5575   0.7219   0.7333   0.8011
     0.8643   0.9198   0.9529   0.9931   1.0024   1.0679   1.0929   1.1952
     1.2082   1.2565   1.2583   1.3441   1.3543   2.0872   2.0889   2.1593
     2.1595   4.1538   4.1653   4.1971   4.2604   4.3032   4.3150   4.3527
     4.3564   4.4592   4.4762

     the Fermi energy is     3.8073 ev

!    total energy              =   -2973.93998133 Ry
     estimated scf accuracy    <       0.00000006 Ry
     smearing contrib. (-TS)   =      -0.02072918 Ry
     internal energy E=F+TS    =   -2973.91925215 Ry

     The total energy is F=E-TS. E is the sum of the following terms:
     one-electron contribution =  -24341.01486638 Ry
     hartree contribution      =   12268.21668416 Ry
     xc contribution           =    -494.11234263 Ry
     ewald contribution        =    9592.98758148 Ry
     electric field correction =       0.00369123 Ry

     convergence has been achieved in  57 iterations

     Forces acting on atoms (cartesian axes, Ry/au):

     atom    1 type  1   force =     0.00003374   -0.00009820    0.09507194
     atom    2 type  1   force =     0.00017887   -0.00069335   -0.17560640
     atom    3 type  2   force =     0.00008859   -0.00004652   -0.02296115
     atom    4 type  2   force =     0.00002093   -0.00143262    0.05288423
     atom    5 type  2   force =    -0.01001417   -0.00031424    0.00379445
     atom    6 type  2   force =     0.01113684    0.00020407    0.00204988
     atom    7 type  1   force =    -0.00021820    0.00179724   -0.00588974
     atom    8 type  1   force =     0.00081113    0.01008753    0.01603690
     atom    9 type  2   force =    -0.00015365    0.00086897    0.00030109
     atom   10 type  2   force =    -0.00227408    0.00217774   -0.01803130
     atom   11 type  2   force =     0.00021897   -0.00003647    0.00007691
     atom   12 type  2   force =    -0.00033477   -0.00018856    0.00056059
     atom   13 type  1   force =    -0.00002050    0.00125375    0.00021382
     atom   14 type  1   force =    -0.00012477    0.00015901    0.00001835
     atom   15 type  2   force =     0.00015354    0.00019952   -0.00003334
     atom   16 type  2   force =    -0.00037315    0.00044000   -0.00021261
     atom   17 type  2   force =    -0.00017190   -0.00025543   -0.00000878
     atom   18 type  2   force =    -0.00019501   -0.00020822    0.00023724
     atom   19 type  1   force =    -0.00003124    0.00042734   -0.00158789
     atom   20 type  1   force =    -0.00038728   -0.00011095    0.00018207
     atom   21 type  2   force =     0.00009318   -0.00008601    0.10318564
     atom   22 type  2   force =     0.00039210   -0.00000044    0.00052937
     atom   23 type  2   force =    -0.07159406   -0.00016775   -0.02756394
     atom   24 type  2   force =     0.07155196    0.00024683   -0.02761150
     atom   25 type  1   force =     0.00023543   -0.00039465    0.09519572
     atom   26 type  1   force =    -0.00003506   -0.00019619   -0.17577609
     atom   27 type  2   force =     0.00012148   -0.00012127   -0.02198494
     atom   28 type  2   force =     0.00001277   -0.00139828    0.05321397
     atom   29 type  2   force =    -0.01036038   -0.00022781    0.00363699
     atom   30 type  2   force =     0.01139637    0.00042418    0.00190331
     atom   31 type  1   force =    -0.00030426    0.00266844   -0.00009135
     atom   32 type  1   force =     0.00066957   -0.01114594    0.01691203
     atom   33 type  2   force =     0.00037360   -0.00028022   -0.00003019
     atom   34 type  2   force =    -0.00033996    0.00144102   -0.01895835
     atom   35 type  2   force =    -0.00003385   -0.00034653   -0.00016577
     atom   36 type  2   force =     0.00001888   -0.00024228    0.00043610
     atom   37 type  1   force =    -0.00004159   -0.00124072    0.00036651
     atom   38 type  1   force =    -0.00039744    0.00079788    0.00011362
     atom   39 type  2   force =     0.00009947    0.00009578    0.00007550
     atom   40 type  2   force =    -0.00056145   -0.00060182   -0.00036999
     atom   41 type  2   force =     0.00020341   -0.00011314    0.00035056
     atom   42 type  2   force =    -0.00032255   -0.00011959   -0.00032487
     atom   43 type  1   force =    -0.00017322   -0.00023421    0.00041819
     atom   44 type  1   force =    -0.00004533   -0.00030460    0.00024067
     atom   45 type  2   force =     0.00009703   -0.00010164    0.10320299
     atom   46 type  2   force =    -0.07158001   -0.00016750   -0.02755347
     atom   47 type  2   force =     0.07157897    0.00024431   -0.02756794
     atom   48 type  3   force =     0.00256330    0.00028768   -0.00513922
     atom   49 type  3   force =    -0.00078174   -0.00012966    0.00055663
     atom   50 type  4   force =     0.00084218   -0.00237873    0.01572216
     atom   51 type  5   force =    -0.00343749    0.00088477   -0.00854999
     atom   52 type  5   force =     0.00141739   -0.00087286   -0.00107065
     atom   53 type  5   force =    -0.00005688   -0.00039414   -0.00072437
     atom   54 type  2   force =    -0.00007417    0.00097334   -0.00013427
     atom   55 type  5   force =     0.00015994   -0.00023519    0.00001890
     atom   56 type  5   force =    -0.00003150   -0.00079369    0.00044181

     Total force =     0.365668     Total SCF correction =     0.000686
  @ DRIVER MODE: Message from server: STATUS
  @ DRIVER MODE: Message from server: GETFORCE
  @ DRIVER MODE: Returning v,forces,stress,ensemble

     Writing output data file ./calc.save/
  @ DRIVER MODE: Message from server: EXIT
  @ DRIVE MODE: Exiting

     General routines

     Parallel routines

   This run was terminated on:  21:56:32  22Sep2021

   JOB DONE.