     Program PWSCF v.6.7GPU starts on 24Aug2021 at 20: 3:53

     R & G space division:  proc/nbgrp/npool/nimage =      72
     Reading input from /storage/home/hcoda1/3/ntian30/research/carbon/CH2_vib/ads_slab/CH2NHH_a/out_0029/pw.inp
Warning: card &CELL ignored
Warning: card   CELL_DYNAMICS='IPI', ignored
Warning: card / ignored

     Current dimensions of program PWSCF are:
     Max number of different atomic species (ntypx) = 10
     Max number of k-points (npk) =  40000
     Max angular momentum in pseudopotentials (lmaxx) =  3
     Presently no symmetry can be used with electric field

     Message from routine cell_base_init:
     DEPRECATED: use true lattice parameter, not A to a.u. conversion factor

     IMPORTANT: XC functional enforced from input :
     Exchange-correlation= BEEF-VDW
                           (   1   4  43  14   2   0   0)
     Any further DFT definition will be discarded
     Please, verify this is what you really want

  @ DRIVER MODE: Connecting to
 qe_1139763_2641439.sched-torque.pace.gatech.edu7tq9mj0r_scratch
  using UNIX socket
  @ DRIVER MODE: Message from server: STATUS
  @ DRIVER MODE: Message from server: INIT
  @ DRIVER MODE: Receiving replica           0          -1
  @ DRIVER MODE: Receiving encoded integer          25
  @ DRIVER MODE:  SCF:  T  FORCE:  T  STRESS:  F  VC:  F  ENSEMBLE:  F
  @ DRIVER MODE:  SCF:  T  FORCE:  T  STRESS:  F  VC:  F  ENSEMBLE:  F

     Using Slab Decomposition

     bravais-lattice index     =            0
     lattice parameter (alat)  =       1.8897  a.u.
     unit-cell volume          =    6658.9804 (a.u.)^3
     number of atoms/cell      =           53
     number of atomic types    =            5
     number of electrons       =       391.00
     number of Kohn-Sham states=          205
     kinetic-energy cutoff     =      29.3995  Ry
     charge density cutoff     =     293.9946  Ry
     scf convergence threshold =      7.3E-08
     mixing beta               =       0.0500
     number of iterations used =            8  plain     mixing
     Exchange-correlation= BEEF-VDW
                           (   1   4  43  14   2   0   0)

     celldm(1)=   1.889726  celldm(2)=   0.000000  celldm(3)=   0.000000
     celldm(4)=   0.000000  celldm(5)=   0.000000  celldm(6)=   0.000000

     crystal axes: (cart. coord. in units of alat)
               a(1) = (   6.579727   0.000000   0.000000 )
               a(2) = (  -0.000775   5.961596   0.000000 )
               a(3) = (   0.000000   0.000000  25.155947 )

     reciprocal axes: (cart. coord. in units 2 pi/alat)
               b(1) = (  0.151982  0.000020  0.000000 )
               b(2) = (  0.000000  0.167740  0.000000 )
               b(3) = (  0.000000  0.000000  0.039752 )

     PseudoPot. # 1 for Ti read from file:
     /storage/coda1/p-amedford6/0/shared/rich_project_chbe-medford/medford-share/data/pseudos_module/espresso/nninc/pbe/van/Ti.UPF
     MD5 check sum: 8e4df49b7f0d34bbd5052bf3f5ea0213
     Pseudo is Ultrasoft, Zval = 12.0
     Generated by new atomic code, or converted to UPF format
     Using radial grid of  851 points,  6 beta functions with:
                l(1) =   0
                l(2) =   0
                l(3) =   1
                l(4) =   1
                l(5) =   2
                l(6) =   2
     Q(r) pseudized with  8 coefficients,  rinner =    1.000   1.000   1.000
                                                       1.000   1.000

     PseudoPot. # 2 for O  read from file:
     /storage/coda1/p-amedford6/0/shared/rich_project_chbe-medford/medford-share/data/pseudos_module/espresso/nninc/pbe/van/O.UPF
     MD5 check sum: 78c19812648e8988a0fe644b0f25305e
     Pseudo is Ultrasoft, Zval =  6.0
     Generated by new atomic code, or converted to UPF format
     Using radial grid of  737 points,  4 beta functions with:
                l(1) =   0
                l(2) =   0
                l(3) =   1
                l(4) =   1
     Q(r) pseudized with  8 coefficients,  rinner =    0.800   0.800   0.800

     PseudoPot. # 3 for N  read from file:
     /storage/coda1/p-amedford6/0/shared/rich_project_chbe-medford/medford-share/data/pseudos_module/espresso/nninc/pbe/van/N.UPF
     MD5 check sum: 90d10febe142ad51ac9d5be1deb811c4
     Pseudo is Ultrasoft, Zval =  5.0
     Generated by new atomic code, or converted to UPF format
     Using radial grid of  729 points,  4 beta functions with:
                l(1) =   0
                l(2) =   0
                l(3) =   1
                l(4) =   1
     Q(r) pseudized with  8 coefficients,  rinner =    0.800   0.800   0.800

     PseudoPot. # 4 for C  read from file:
     /storage/coda1/p-amedford6/0/shared/rich_project_chbe-medford/medford-share/data/pseudos_module/espresso/nninc/pbe/van/C.UPF
     MD5 check sum: 1a69bf6b8db32088f5b2163dbdb77a27
     Pseudo is Ultrasoft, Zval =  4.0
     Generated by new atomic code, or converted to UPF format
     Using radial grid of  721 points,  4 beta functions with:
                l(1) =   0
                l(2) =   0
                l(3) =   1
                l(4) =   1
     Q(r) pseudized with  8 coefficients,  rinner =    0.800   0.800   0.800

     PseudoPot. # 5 for H  read from file:
     /storage/coda1/p-amedford6/0/shared/rich_project_chbe-medford/medford-share/data/pseudos_module/espresso/nninc/pbe/van/H.UPF
     MD5 check sum: b5ee9d7bfd3a09ee7748110bda690ff7
     Pseudo is Ultrasoft, Zval =  1.0
     Generated by new atomic code, or converted to UPF format
     Using radial grid of  615 points,  1 beta functions with:
                l(1) =   0
     Q(r) pseudized with  8 coefficients,  rinner =    0.800

     atomic species   valence    mass     pseudopotential
        Ti1           12.00    47.86700     Ti( 1.00)
        O1             6.00    15.99900     O ( 1.00)
        N1             5.00    14.00700     N ( 1.00)
        C1             4.00    12.01100     C ( 1.00)
        H1             1.00     1.00800     H ( 1.00)

     No symmetry found

   Cartesian axes

     site n.     atom                  positions (alat units)
         1           Ti1 tau(   1) = (   0.0004258   2.9801865   6.0000000  )
         2           Ti1 tau(   2) = (   3.2906075   1.4906267   6.0002472  )
         3           O1  tau(   3) = (   0.0006271   0.0005054   7.9858123  )
         4           O1  tau(   4) = (   3.2906025   0.0005020   7.3038282  )
         5           O1  tau(   5) = (   4.5942328   1.4918067   9.2879030  )
         6           O1  tau(   6) = (   1.9868534   1.4903216   9.2879459  )
         7           Ti1 tau(   7) = (   3.2907910   2.8959150   9.1758416  )
         8           Ti1 tau(   8) = (   0.0015273   1.4827037   9.2680791  )
         9           O1  tau(   9) = (   3.2941312   5.9515177  11.3840049  )
        10           O1  tau(  10) = (   0.0116148   5.9584955  10.6183126  )
        11           O1  tau(  11) = (   1.2915503   1.4777401  12.6967708  )
        12           O1  tau(  12) = (   5.3002239   1.4803738  12.6794006  )
        13           Ti1 tau(  13) = (   0.0161863   2.9610389  12.5056540  )
        14           Ti1 tau(  14) = (   3.3199580   1.4690355  12.5397617  )
        15           O1  tau(  15) = (   6.5577523   5.8663973  14.6994336  )
        16           O1  tau(  16) = (   3.3105950   5.9380289  14.0083265  )
        17           O1  tau(  17) = (   4.5355139   1.5078041  16.1868020  )
        18           O1  tau(  18) = (   2.0231344   1.4922588  16.1350940  )
        19           Ti1 tau(  19) = (   3.2781988   2.9761027  15.7713632  )
        20           Ti1 tau(  20) = (   0.0162001   1.2772015  15.8797579  )
        21           O1  tau(  21) = (   3.2904802   0.0005063   4.7018136  )
        22           O1  tau(  22) = (   6.5682446   0.1140876  17.2519115  )
        23           O1  tau(  23) = (   1.3043587   1.4918075   6.0039043  )
        24           O1  tau(  24) = (   5.2767064   1.4903225   6.0039473  )
        25           Ti1 tau(  25) = (   0.0000382   5.9609847   6.0000000  )
        26           Ti1 tau(  26) = (   3.2902200   4.4714249   6.0002472  )
        27           O1  tau(  27) = (   0.0002396   2.9813036   7.9858123  )
        28           O1  tau(  28) = (   3.2902150   2.9813002   7.3038282  )
        29           O1  tau(  29) = (   4.5938453   4.4726049   9.2879030  )
        30           O1  tau(  30) = (   1.9864658   4.4711199   9.2879459  )
        31           Ti1 tau(  31) = (   3.2891106   5.8743827   9.1763621  )
        32           Ti1 tau(  32) = (   0.0006254   4.4649316   9.2693709  )
        33           O1  tau(  33) = (   3.2958891   2.9587481  11.3780895  )
        34           O1  tau(  34) = (   0.0092240   2.9805883  10.6323155  )
        35           O1  tau(  35) = (   1.2947421   4.4484190  12.6652604  )
        36           O1  tau(  36) = (   5.2996063   4.4466420  12.6515021  )
        37           Ti1 tau(  37) = (   0.0283143   5.9336383  12.5061025  )
        38           Ti1 tau(  38) = (   3.3214233   4.4478814  12.5310514  )
        39           O1  tau(  39) = (   6.5589476   3.0029366  14.9874712  )
        40           O1  tau(  40) = (   3.3011147   2.9794859  13.9794371  )
        41           O1  tau(  41) = (   4.5155863   4.4560770  16.2359875  )
        42           O1  tau(  42) = (   2.0187475   4.4548860  16.2131175  )
        43           Ti1 tau(  43) = (   3.3138217   5.9556645  15.8088081  )
        44           Ti1 tau(  44) = (   0.0451788   4.5003401  16.0524233  )
        45           O1  tau(  45) = (   3.2900926   2.9813045   4.7018136  )
        46           O1  tau(  46) = (   1.3039711   4.4726057   6.0039043  )
        47           O1  tau(  47) = (   5.2763189   4.4711207   6.0039473  )
        48           N1  tau(  48) = (   6.2013940   3.4221407  18.2524812  )
        49           C1  tau(  49) = (   0.6861764   3.1362451  19.0985974  )
        50           H1  tau(  50) = (   1.2250757   3.9700495  19.5149693  )
        51           H1  tau(  51) = (   1.1126790   2.1486344  19.0481404  )
        52           H1  tau(  52) = (   5.7034377   4.2789310  18.4661913  )
        53           H1  tau(  53) = (   5.5430662   2.6552022  18.1284619  )

     number of k points=    10  Fermi-Dirac smearing, width (Ry)=  0.0073
                       cart. coord. in units 2pi/alat
        k(    1) = (   0.0000000   0.0000000   0.0000000), wk =   0.1250000
        k(    2) = (   0.0000000   0.0419351   0.0000000), wk =   0.2500000
        k(    3) = (   0.0000000  -0.0838702   0.0000000), wk =   0.1250000
        k(    4) = (   0.0379955   0.0000049   0.0000000), wk =   0.2500000
        k(    5) = (   0.0379955   0.0419400   0.0000000), wk =   0.2500000
        k(    6) = (   0.0379955  -0.0838652   0.0000000), wk =   0.2500000
        k(    7) = (   0.0379955  -0.0419301   0.0000000), wk =   0.2500000
        k(    8) = (  -0.0759910  -0.0000099   0.0000000), wk =   0.1250000
        k(    9) = (  -0.0759910   0.0419252   0.0000000), wk =   0.2500000
        k(   10) = (  -0.0759910  -0.0838800   0.0000000), wk =   0.1250000

     Initial potential from superposition of free atoms

     starting charge  374.99916, renormalised to  391.00000

     negative rho (up, down):  1.685E-02 0.000E+00

     %%%%%%%%%%%%%%%%%%%%%%%%%%%%%%%%%%%%%%%%%%%%%%%%%%%%%%%%%%%%%%%%%%%%%%%%
     %                                                                      %
     % You are using vdW-DF, which was implemented by the Thonhauser group. %
     % Please cite the following two papers that made this development      %
     % possible and the two reviews that describe the various versions:     %
     %                                                                      %
     %   T. Thonhauser et al., PRL 115, 136402 (2015).                      %
     %   T. Thonhauser et al., PRB 76, 125112 (2007).                       %
     %   K. Berland et al., Rep. Prog. Phys. 78, 066501 (2015).             %
     %   D.C. Langreth et al., J. Phys.: Condens. Matter 21, 084203 (2009). %
     %                                                                      %
     %                                                                      %
     % If you are calculating the stress with vdW-DF, please also cite:     %
     %                                                                      %
     %   R. Sabatini et al., J. Phys.: Condens. Matter 24, 424209 (2012).   %
     %                                                                      %
     %%%%%%%%%%%%%%%%%%%%%%%%%%%%%%%%%%%%%%%%%%%%%%%%%%%%%%%%%%%%%%%%%%%%%%%%

     Adding external electric field

     Computed dipole along edir(3) :
        Dipole               -6.9313 Ry au,        -17.6176 Debye
        Dipole field         -0.0131 Ry au,

        Potential amp.        1.2125 Ry
        Total length         46.3494 bohr

     Starting wfcs are  296 atomic wfcs
  @ DRIVER MODE: Message from server: STATUS
  @ DRIVER MODE: Message from server: POSDATA
  @ DRIVER MODE: Reading and sharing cell
  @ DRIVER MODE: Reading and sharing positions
  @ DRIVER MODE: Received positions

     Self-consistent Calculation

     iteration #  1     ecut=    29.40 Ry     beta= 0.05
     Davidson diagonalization with overlap
     c_bands:  1 eigenvalues not converged
     ethr =  1.00E-05,  avg # of iterations = 15.4

[...]

     total energy              =   -2713.44762810 Ry
     estimated scf accuracy    <    2282.59633377 Ry

     iteration #  2     ecut=    29.40 Ry     beta= 0.05
     Davidson diagonalization with overlap
     ethr =  1.00E-02,  avg # of iterations = 18.7

[...]

     iteration # 73     ecut=    29.40 Ry     beta= 0.05
     Davidson diagonalization with overlap
     ethr =  1.94E-10,  avg # of iterations =  5.2

[...]

     total energy              =   -2920.25695250 Ry
     estimated scf accuracy    <       0.00000022 Ry

     iteration # 77     ecut=    29.40 Ry     beta= 0.05
     Davidson diagonalization with overlap
     c_bands:  1 eigenvalues not converged
     ethr =  2.10E-11,  avg # of iterations = 11.4

     negative rho (up, down):  1.611E-02 0.000E+00

     Adding external electric field

     Computed dipole along edir(3) :
        Dipole                0.8928 Ry au,          2.2693 Debye
        Dipole field          0.0017 Ry au,

        Potential amp.       -0.1562 Ry
        Total length         46.3494 bohr

     End of self-consistent calculation

          k = 0.0000 0.0000 0.0000 ( 18029 PWs)   bands (ev):

   -55.7230 -55.6870 -55.6750 -55.6408 -55.6124 -55.6032 -55.5688 -55.5474
   -55.5394 -55.5129 -55.5064 -55.4727 -55.4660 -55.3059 -54.7068 -54.6728
   -32.2883 -32.1680 -32.0911 -32.0585 -32.0438 -32.0364 -32.0330 -32.0125
   -31.9638 -31.9580 -31.9349 -31.9291 -31.9198 -31.8920 -31.8766 -31.8747
   -31.8618 -31.8506 -31.8428 -31.8275 -31.8218 -31.7894 -31.7818 -31.7780
   -31.7497 -31.7461 -31.7353 -31.7321 -31.7261 -31.7218 -31.7058 -31.7040
   -31.6958 -31.6929 -31.6726 -31.6607 -31.6583 -31.6438 -31.6344 -31.6180
   -31.5265 -31.4738 -31.1164 -31.0218 -30.9997 -30.9327 -30.8459 -30.7351
   -16.6779 -16.5303 -16.2744 -16.1146 -16.0196 -15.9229 -15.7914 -15.7637
   -15.6476 -15.5709 -15.4294 -15.3991 -15.3833 -15.3616 -15.3445 -15.3325
   -15.2706 -15.2646 -15.2448 -15.2193 -15.2159 -15.1690 -15.1642 -15.1237
   -15.0999 -15.0479 -14.9693 -14.8848 -14.8120 -14.4916 -13.2097 -13.0922
    -9.5346  -6.8648  -4.9546  -3.8875  -3.7440  -3.6758  -3.6259  -3.6168
    -3.4754  -3.3016  -3.1594  -3.1402  -3.0980  -2.9961  -2.9282  -2.9143
    -2.8899  -2.7481  -2.7335  -2.6797  -2.6532  -2.5757  -2.5713  -2.5281
    -2.5090  -2.4746  -2.4705  -2.4403  -2.3000  -2.2935  -2.2503  -2.1912
    -2.1325  -2.1295  -2.0744  -2.0551  -2.0138  -2.0046  -1.9956  -1.9530
    -1.9481  -1.9141  -1.8194  -1.7488  -1.6218  -1.5853  -1.4430  -1.3643
    -1.3167  -1.2965  -1.2157  -1.2087  -1.1498  -1.1044  -1.1024  -1.0621
    -0.9508  -0.8696  -0.8169  -0.7592  -0.7257  -0.7088  -0.6240  -0.5267
    -0.5028  -0.4903  -0.4548  -0.3547  -0.3296  -0.2690  -0.2046  -0.1922
    -0.1793  -0.0945  -0.0568   0.0158   0.0654   0.0853   0.1628   0.1849
     0.2087   0.2146   0.2451   0.2610   0.3323   0.3519   0.3769   0.4642
     0.5848   0.8266   0.8861   0.8942   1.2151   1.2200   1.3157   1.4988
     1.8922   1.9406   3.3698   3.3875   3.4516   3.5198   3.5236   3.5854
     3.6105   3.8571   3.8764   3.8844   3.9021

[...]

          k = 0.0380-0.0419 0.0000 ( 17876 PWs)   bands (ev):

[...]

          k =-0.0760-0.0000 0.0000 ( 17886 PWs)   bands (ev):

[...]

          k =-0.0760-0.0839 0.0000 ( 17948 PWs)   bands (ev):

   -55.7064 -55.7035 -55.6579 -55.6577 -55.6081 -55.5868 -55.5851 -55.5435
   -55.5319 -55.5280 -55.4900 -55.4893 -55.4638 -55.3079 -54.6899 -54.6896
   -32.0940 -32.0914 -32.0009 -31.9831 -31.9831 -31.9798 -31.9703 -31.9491
   -31.9491 -31.9327 -31.9262 -31.9193 -31.9148 -31.8754 -31.8670 -31.8641
   -31.8598 -31.8549 -31.8506 -31.8457 -31.8320 -31.8130 -31.8012 -31.8002
   -31.7818 -31.7780 -31.7776 -31.7773 -31.7648 -31.7609 -31.7445 -31.7426
   -31.7405 -31.7311 -31.7229 -31.7202 -31.6867 -31.6702 -31.6697 -31.6516
   -31.5661 -31.5286 -31.0125 -31.0123 -30.9290 -30.9288 -30.8894 -30.8893
   -16.6451 -16.0396 -15.9467 -15.9087 -15.7607 -15.7230 -15.6880 -15.6757
   -15.5532 -15.5272 -15.5014 -15.4803 -15.4451 -15.4288 -15.4218 -15.3753
   -15.3426 -15.3230 -15.3173 -15.3052 -15.2422 -15.2343 -15.2304 -15.2234
   -15.1740 -15.1704 -15.0794 -15.0764 -15.0645 -14.7773 -13.1937 -13.1936
    -9.5361  -6.8470  -4.9356  -3.2167  -3.1964  -3.1619  -3.1377  -2.9792
    -2.9110  -2.8957  -2.8753  -2.7970  -2.7568  -2.7356  -2.6952  -2.6836
    -2.6317  -2.6053  -2.5770  -2.5616  -2.5570  -2.5406  -2.5197  -2.4855
    -2.4567  -2.4538  -2.4433  -2.4033  -2.3761  -2.3622  -2.3282  -2.3185
    -2.3111  -2.2816  -2.2219  -2.1152  -2.0918  -2.0592  -1.9658  -1.9322
    -1.9274  -1.8472  -1.8170  -1.7588  -1.7558  -1.7448  -1.5978  -1.5162
    -1.4728  -1.4702  -1.4483  -1.3213  -1.3118  -1.2271  -1.2048  -1.1952
    -1.1083  -1.0820  -1.0441  -1.0189  -0.9360  -0.9110  -0.8452  -0.7568
    -0.7206  -0.7126  -0.6808  -0.6780  -0.6288  -0.6174  -0.5363  -0.4939
    -0.4577  -0.4476  -0.4067  -0.2222  -0.2050  -0.1621  -0.0334   0.0119
     0.1439   0.1619   0.2265   0.3032   0.3349   0.3896   0.4256   0.5717
     0.5816   0.6131   0.6584   0.6677   0.7275   0.7367   1.6718   1.6725
     1.7604   1.7607   3.3920   3.6183   3.6251   3.6641   3.6871   3.8395
     3.8904   3.9284   3.9538   3.9591   3.9747

     the Fermi energy is     3.4377 ev

!    total energy              =   -2920.25696146 Ry
     estimated scf accuracy    <       0.00000007 Ry
     smearing contrib. (-TS)   =      -0.04301838 Ry
     internal energy E=F+TS    =   -2920.21394308 Ry

     The total energy is F=E-TS. E is the sum of the following terms:
     one-electron contribution =  -24044.50765823 Ry
     hartree contribution      =   12108.37889092 Ry
     xc contribution           =    -480.85905048 Ry
     ewald contribution        =    9496.77237048 Ry
     electric field correction =       0.00150422 Ry

     convergence has been achieved in  77 iterations

     Forces acting on atoms (cartesian axes, Ry/au):

     atom    1 type  1   force =     0.00008545   -0.00016225    0.09317886
     atom    2 type  1   force =    -0.00020057   -0.00024823   -0.17846756
     atom    3 type  2   force =     0.00003731   -0.00036616   -0.02007262
     atom    4 type  2   force =    -0.00001936   -0.00199424    0.05917059
     atom    5 type  2   force =    -0.01040525   -0.00113830    0.00789366
     atom    6 type  2   force =     0.01196471   -0.00052137    0.00731905
     atom    7 type  1   force =    -0.00041733    0.00230018   -0.01386877
     atom    8 type  1   force =     0.00003982   -0.00144457   -0.00477488
     atom    9 type  2   force =     0.00000401   -0.00028788   -0.00034186
     atom   10 type  2   force =    -0.00082729    0.00066129    0.00151268
     atom   11 type  2   force =     0.00010401   -0.00003923    0.00025179
     atom   12 type  2   force =    -0.00007755    0.00008757    0.00033526
     atom   13 type  1   force =    -0.00057441    0.00062217   -0.00009799
     atom   14 type  1   force =     0.00025909    0.00021740    0.00008784
     atom   15 type  2   force =    -0.00018699    0.00053248    0.00041020
     atom   16 type  2   force =    -0.00016090   -0.00007184   -0.00007771
     atom   17 type  2   force =    -0.00012927   -0.00006415   -0.00003281
     atom   18 type  2   force =    -0.00019542   -0.00014482   -0.00044450
     atom   19 type  1   force =    -0.00011549    0.00000455   -0.00017719
     atom   20 type  1   force =    -0.00008208    0.00004159   -0.00013923
     atom   21 type  2   force =     0.00001302   -0.00001213    0.10397638
     atom   22 type  2   force =    -0.00005879    0.00022785    0.00073669
     atom   23 type  2   force =    -0.07036732   -0.00010302   -0.02688103
     atom   24 type  2   force =     0.07018321    0.00032664   -0.02694046
     atom   25 type  1   force =    -0.00001122   -0.00012493    0.09257167
     atom   26 type  1   force =    -0.00017659   -0.00039033   -0.17850906
     atom   27 type  2   force =     0.00009543   -0.00026893   -0.01915956
     atom   28 type  2   force =     0.00002833   -0.00176435    0.05848950
     atom   29 type  2   force =    -0.01089483   -0.00132761    0.00842882
     atom   30 type  2   force =     0.01235014   -0.00098922    0.00777850
     atom   31 type  1   force =    -0.00022801    0.00598604   -0.01474434
     atom   32 type  1   force =     0.00005774    0.00098866   -0.00535951
     atom   33 type  2   force =    -0.00030680    0.00024189    0.00015324
     atom   34 type  2   force =    -0.00022365   -0.00291344    0.00010127
     atom   35 type  2   force =     0.00060458    0.00021908   -0.00003840
     atom   36 type  2   force =    -0.00065311    0.00017867   -0.00026543
     atom   37 type  1   force =    -0.00055381   -0.00047254   -0.00008395
     atom   38 type  1   force =     0.00016357   -0.00050207    0.00010681
     atom   39 type  2   force =     0.00003303   -0.00023254    0.00034275
     atom   40 type  2   force =    -0.00000757    0.00045845   -0.00054284
     atom   41 type  2   force =     0.00007058    0.00047035   -0.00004774
     atom   42 type  2   force =     0.00008328    0.00054856   -0.00011605
     atom   43 type  1   force =    -0.00016020    0.00038305   -0.00073421
     atom   44 type  1   force =    -0.00025540   -0.00025680   -0.00038992
     atom   45 type  2   force =     0.00000379   -0.00002649    0.10394660
     atom   46 type  2   force =    -0.07034446   -0.00005252   -0.02684859
     atom   47 type  2   force =     0.07017967    0.00037546   -0.02689708
     atom   48 type  3   force =     0.00059388   -0.00393804   -0.00137249
     atom   49 type  4   force =     0.00067622    0.00072960   -0.00101929
     atom   50 type  5   force =     0.00029764   -0.00012994   -0.00049639
     atom   51 type  5   force =    -0.00048074    0.00058388    0.00008500
     atom   52 type  5   force =    -0.00044833    0.00267829    0.00231340
     atom   53 type  5   force =     0.00063421    0.00112427   -0.00024912

     Total force =     0.366417     Total SCF correction =     0.000837
  @ DRIVER MODE: Message from server: STATUS
  @ DRIVER MODE: Message from server: GETFORCE
  @ DRIVER MODE: Returning v,forces,stress,ensemble

     Writing output data file ./calc.save/
  @ DRIVER MODE: Message from server: EXIT
  @ DRIVE MODE: Exiting

     General routines

     Parallel routines

   This run was terminated on:  20:29:25  24Aug2021

   JOB DONE.