     Program PWSCF v.6.7GPU starts on 28Sep2021 at  4:49:38

     R & G space division:  proc/nbgrp/npool/nimage =       8
     Reading input from /storage/home/hcoda1/3/ntian30/research/carbon/CxH_vib/CH_calc/ads_slab/CHONH_a/out_0017/pw.inp
Warning: card &CELL ignored
Warning: card   CELL_DYNAMICS='IPI', ignored
Warning: card / ignored

     Current dimensions of program PWSCF are:
     Max number of different atomic species (ntypx) = 10
     Max number of k-points (npk) =  40000
     Max angular momentum in pseudopotentials (lmaxx) =  3
     Presently no symmetry can be used with electric field

     Message from routine cell_base_init:
     DEPRECATED: use true lattice parameter, not A to a.u. conversion factor

     IMPORTANT: XC functional enforced from input :
     Exchange-correlation= BEEF-VDW
                           (   1   4  43  14   2   0   0)
     Any further DFT definition will be discarded
     Please, verify this is what you really want

  @ DRIVER MODE: Connecting to
 qe_1139763_3003539.sched-torque.pace.gatech.edu35t9y7y1_scratch
  using UNIX socket
  @ DRIVER MODE: Message from server: STATUS
  @ DRIVER MODE: Message from server: INIT
  @ DRIVER MODE: Receiving replica           0          -1
  @ DRIVER MODE: Receiving encoded integer          25
  @ DRIVER MODE:  SCF:  T  FORCE:  T  STRESS:  F  VC:  F  ENSEMBLE:  F
  @ DRIVER MODE:  SCF:  T  FORCE:  T  STRESS:  F  VC:  F  ENSEMBLE:  F

     Using Slab Decomposition

     bravais-lattice index     =            0
     lattice parameter (alat)  =       1.8897  a.u.
     unit-cell volume          =    6658.9804 (a.u.)^3
     number of atoms/cell      =           52
     number of atomic types    =            5
     number of electrons       =       395.00
     number of Kohn-Sham states=          207
     kinetic-energy cutoff     =      29.3995  Ry
     charge density cutoff     =     293.9946  Ry
     scf convergence threshold =      7.3E-08
     mixing beta               =       0.0500
     number of iterations used =            8  plain     mixing
     Exchange-correlation= BEEF-VDW
                           (   1   4  43  14   2   0   0)

     celldm(1)=   1.889726  celldm(2)=   0.000000  celldm(3)=   0.000000
     celldm(4)=   0.000000  celldm(5)=   0.000000  celldm(6)=   0.000000

     crystal axes: (cart. coord. in units of alat)
               a(1) = (   6.579727   0.000000   0.000000 )
               a(2) = (  -0.000775   5.961596   0.000000 )
               a(3) = (   0.000000   0.000000  25.155947 )

     reciprocal axes: (cart. coord. in units 2 pi/alat)
               b(1) = (  0.151982  0.000020  0.000000 )
               b(2) = (  0.000000  0.167740  0.000000 )
               b(3) = (  0.000000  0.000000  0.039752 )

     PseudoPot. # 1 for O  read from file:
     /storage/coda1/p-amedford6/0/shared/rich_project_chbe-medford/medford-share/data/pseudos_module/espresso/nninc/pbe/van/O.UPF
     MD5 check sum: 78c19812648e8988a0fe644b0f25305e
     Pseudo is Ultrasoft, Zval =  6.0
     Generated by new atomic code, or converted to UPF format
     Using radial grid of  737 points,  4 beta functions with:
                l(1) =   0
                l(2) =   0
                l(3) =   1
                l(4) =   1
     Q(r) pseudized with  8 coefficients,  rinner =    0.800   0.800   0.800

     PseudoPot. # 2 for Ti read from file:
     /storage/coda1/p-amedford6/0/shared/rich_project_chbe-medford/medford-share/data/pseudos_module/espresso/nninc/pbe/van/Ti.UPF
     MD5 check sum: 8e4df49b7f0d34bbd5052bf3f5ea0213
     Pseudo is Ultrasoft, Zval = 12.0
     Generated by new atomic code, or converted to UPF format
     Using radial grid of  851 points,  6 beta functions with:
                l(1) =   0
                l(2) =   0
                l(3) =   1
                l(4) =   1
                l(5) =   2
                l(6) =   2
     Q(r) pseudized with  8 coefficients,  rinner =    1.000   1.000   1.000
                                                       1.000   1.000

     PseudoPot. # 3 for N  read from file:
     /storage/coda1/p-amedford6/0/shared/rich_project_chbe-medford/medford-share/data/pseudos_module/espresso/nninc/pbe/van/N.UPF
     MD5 check sum: 90d10febe142ad51ac9d5be1deb811c4
     Pseudo is Ultrasoft, Zval =  5.0
     Generated by new atomic code, or converted to UPF format
     Using radial grid of  729 points,  4 beta functions with:
                l(1) =   0
                l(2) =   0
                l(3) =   1
                l(4) =   1
     Q(r) pseudized with  8 coefficients,  rinner =    0.800   0.800   0.800

     PseudoPot. # 4 for H  read from file:
     /storage/coda1/p-amedford6/0/shared/rich_project_chbe-medford/medford-share/data/pseudos_module/espresso/nninc/pbe/van/H.UPF
     MD5 check sum: b5ee9d7bfd3a09ee7748110bda690ff7
     Pseudo is Ultrasoft, Zval =  1.0
     Generated by new atomic code, or converted to UPF format
     Using radial grid of  615 points,  1 beta functions with:
                l(1) =   0
     Q(r) pseudized with  8 coefficients,  rinner =    0.800

     PseudoPot. # 5 for C  read from file:
     /storage/coda1/p-amedford6/0/shared/rich_project_chbe-medford/medford-share/data/pseudos_module/espresso/nninc/pbe/van/C.UPF
     MD5 check sum: 1a69bf6b8db32088f5b2163dbdb77a27
     Pseudo is Ultrasoft, Zval =  4.0
     Generated by new atomic code, or converted to UPF format
     Using radial grid of  721 points,  4 beta functions with:
                l(1) =   0
                l(2) =   0
                l(3) =   1
                l(4) =   1
     Q(r) pseudized with  8 coefficients,  rinner =    0.800   0.800   0.800

     atomic species   valence    mass     pseudopotential
        O1             6.00    15.99900     O ( 1.00)
        Ti1           12.00    47.86700     Ti( 1.00)
        N1             5.00    14.00700     N ( 1.00)
        H1             1.00     1.00800     H ( 1.00)
        C1             4.00    12.01100     C ( 1.00)

     No symmetry found

   Cartesian axes

     site n.     atom                  positions (alat units)
         1           O1  tau(   1) = (   3.2904802   0.0005063   4.7018136  )
         2           O1  tau(   2) = (   3.2900926   2.9813045   4.7018136  )
         3           Ti1 tau(   3) = (   0.0004258   2.9801865   6.0000000  )
         4           Ti1 tau(   4) = (   0.0000382   5.9609847   6.0000000  )
         5           Ti1 tau(   5) = (   3.2906075   1.4906267   6.0002472  )
         6           Ti1 tau(   6) = (   3.2902200   4.4714249   6.0002472  )
         7           O1  tau(   7) = (   1.3043587   1.4918075   6.0039043  )
         8           O1  tau(   8) = (   1.3039711   4.4726057   6.0039043  )
         9           O1  tau(   9) = (   5.2767064   1.4903225   6.0039473  )
        10           O1  tau(  10) = (   5.2763189   4.4711207   6.0039473  )
        11           O1  tau(  11) = (   3.2906025   0.0005020   7.3038282  )
        12           O1  tau(  12) = (   3.2902150   2.9813002   7.3038282  )
        13           O1  tau(  13) = (   0.0006271   0.0005054   7.9858123  )
        14           O1  tau(  14) = (   0.0002396   2.9813036   7.9858123  )
        15           Ti1 tau(  15) = (   3.2907910   2.8959150   9.1758416  )
        16           Ti1 tau(  16) = (   3.2891106   5.8743827   9.1763621  )
        17           Ti1 tau(  17) = (   0.0015273   1.4827037   9.2680791  )
        18           Ti1 tau(  18) = (   0.0006254   4.4649316   9.2693709  )
        19           O1  tau(  19) = (   4.5942328   1.4918067   9.2879030  )
        20           O1  tau(  20) = (   4.5938453   4.4726049   9.2879030  )
        21           O1  tau(  21) = (   1.9868534   1.4903216   9.2879459  )
        22           O1  tau(  22) = (   1.9864658   4.4711199   9.2879459  )
        23           O1  tau(  23) = (   0.0116148   5.9584955  10.6183126  )
        24           O1  tau(  24) = (   0.0092240   2.9805883  10.6323155  )
        25           O1  tau(  25) = (   3.2907787   2.9729778  11.3304428  )
        26           O1  tau(  26) = (   3.2919079   5.9474133  11.3321580  )
        27           Ti1 tau(  27) = (   3.2097987   4.4572658  12.4865812  )
        28           Ti1 tau(  28) = (   3.2119315   1.4761680  12.4799496  )
        29           Ti1 tau(  29) = (   6.5264509   5.9216213  12.6328416  )
        30           O1  tau(  30) = (   5.2968352   1.4901136  12.6152109  )
        31           O1  tau(  31) = (   1.3135328   1.4919602  12.6192607  )
        32           O1  tau(  32) = (   5.3002941   4.4568025  12.6330795  )
        33           O1  tau(  33) = (   1.3069994   4.4674097  12.6333468  )
        34           Ti1 tau(  34) = (   6.5276633   2.9456522  12.5459445  )
        35           O1  tau(  35) = (   3.2998384   2.9660209  13.9106595  )
        36           O1  tau(  36) = (   3.3025942   5.9420417  13.9122833  )
        37           O1  tau(  37) = (   6.5640883   0.0415230  14.6395465  )
        38           O1  tau(  38) = (   0.0106891   2.9491072  14.6900936  )
        39           Ti1 tau(  39) = (   3.2736000   2.9502234  15.7069571  )
        40           Ti1 tau(  40) = (   3.3003751   5.9266233  15.7109206  )
        41           Ti1 tau(  41) = (   6.5634422   4.2760099  16.1499291  )
        42           O1  tau(  42) = (   2.0584629   4.4329444  16.0623798  )
        43           O1  tau(  43) = (   4.5473560   4.4405029  16.0785460  )
        44           O1  tau(  44) = (   2.0586626   1.4574935  16.0341320  )
        45           O1  tau(  45) = (   4.5465401   1.4531303  16.0599029  )
        46           Ti1 tau(  46) = (   6.5663670   1.4428561  15.8472210  )
        47           O1  tau(  47) = (   0.0528285   5.9376273  17.3175539  )
        48           N1  tau(  48) = (   2.9241058   0.2315137  18.9516947  )
        49           H1  tau(  49) = (   0.7823102   0.0278888  17.9584184  )
        50           H1  tau(  50) = (   4.9006910   1.2352932  19.0931722  )
        51           C1  tau(  51) = (   3.9482889   0.7533229  19.0539995  )
        52           O1  tau(  52) = (   0.0046524   2.9249380  17.2371169  )

     number of k points=    10  Fermi-Dirac smearing, width (Ry)=  0.0073
                       cart. coord. in units 2pi/alat
        k(    1) = (   0.0000000   0.0000000   0.0000000), wk =   0.1250000
        k(    2) = (   0.0000000   0.0419351   0.0000000), wk =   0.2500000
        k(    3) = (   0.0000000  -0.0838702   0.0000000), wk =   0.1250000
        k(    4) = (   0.0379955   0.0000049   0.0000000), wk =   0.2500000
        k(    5) = (   0.0379955   0.0419400   0.0000000), wk =   0.2500000
        k(    6) = (   0.0379955  -0.0838652   0.0000000), wk =   0.2500000
        k(    7) = (   0.0379955  -0.0419301   0.0000000), wk =   0.2500000
        k(    8) = (  -0.0759910  -0.0000099   0.0000000), wk =   0.1250000
        k(    9) = (  -0.0759910   0.0419252   0.0000000), wk =   0.2500000
        k(   10) = (  -0.0759910  -0.0838800   0.0000000), wk =   0.1250000

     Initial potential from superposition of free atoms

     starting charge  378.99918, renormalised to  395.00000

     negative rho (up, down):  1.731E-02 0.000E+00

     %%%%%%%%%%%%%%%%%%%%%%%%%%%%%%%%%%%%%%%%%%%%%%%%%%%%%%%%%%%%%%%%%%%%%%%%
     %                                                                      %
     % You are using vdW-DF, which was implemented by the Thonhauser group. %
     % Please cite the following two papers that made this development      %
     % possible and the two reviews that describe the various versions:     %
     %                                                                      %
     %   T. Thonhauser et al., PRL 115, 136402 (2015).                      %
     %   T. Thonhauser et al., PRB 76, 125112 (2007).                       %
     %   K. Berland et al., Rep. Prog. Phys. 78, 066501 (2015).             %
     %   D.C. Langreth et al., J. Phys.: Condens. Matter 21, 084203 (2009). %
     %                                                                      %
     %                                                                      %
     % If you are calculating the stress with vdW-DF, please also cite:     %
     %                                                                      %
     %   R. Sabatini et al., J. Phys.: Condens. Matter 24, 424209 (2012).   %
     %                                                                      %
     %%%%%%%%%%%%%%%%%%%%%%%%%%%%%%%%%%%%%%%%%%%%%%%%%%%%%%%%%%%%%%%%%%%%%%%%

     Adding external electric field

     Computed dipole along edir(3) :
        Dipole               -8.2743 Ry au,        -21.0312 Debye
        Dipole field         -0.0156 Ry au,

        Potential amp.        1.4475 Ry
        Total length         46.3494 bohr

     Starting wfcs are  298 atomic wfcs
  @ DRIVER MODE: Message from server: STATUS
  @ DRIVER MODE: Message from server: POSDATA
  @ DRIVER MODE: Reading and sharing cell
  @ DRIVER MODE: Reading and sharing positions
  @ DRIVER MODE: Received positions

     Self-consistent Calculation

     iteration #  1     ecut=    29.40 Ry     beta= 0.05
     Davidson diagonalization with overlap
     c_bands:  1 eigenvalues not converged
     c_bands:  1 eigenvalues not converged
     c_bands:  1 eigenvalues not converged
     c_bands:  3 eigenvalues not converged
     c_bands:  3 eigenvalues not converged
     c_bands:  2 eigenvalues not converged
     c_bands:  1 eigenvalues not converged
     ethr =  1.00E-05,  avg # of iterations = 19.3

[...]

     total energy              =   -2630.92960410 Ry
     estimated scf accuracy    <    3535.05999787 Ry

[...]

     iteration #  3     ecut=    29.40 Ry     beta= 0.05
     Davidson diagonalization with overlap
     ethr =  1.00E-02,  avg # of iterations = 15.2

[...]

     iteration # 68     ecut=    29.40 Ry     beta= 0.05
     Davidson diagonalization with overlap
     c_bands:  1 eigenvalues not converged
     ethr =  2.16E-11,  avg # of iterations = 13.1

[...]

     total energy              =   -2950.31368415 Ry
     estimated scf accuracy    <       0.00000007 Ry

     iteration # 71     ecut=    29.40 Ry     beta= 0.05
     Davidson diagonalization with overlap
     ethr =  1.88E-11,  avg # of iterations =  9.7

     negative rho (up, down):  1.724E-02 0.000E+00

     Adding external electric field

     Computed dipole along edir(3) :
        Dipole                0.6398 Ry au,          1.6263 Debye
        Dipole field          0.0012 Ry au,

        Potential amp.       -0.1119 Ry
        Total length         46.3494 bohr

     End of self-consistent calculation

          k = 0.0000 0.0000 0.0000 ( 18029 PWs)   bands (ev):

   -55.9745 -55.9674 -55.9404 -55.9313 -55.8493 -55.8258 -55.8109 -55.7912
   -55.7830 -55.7490 -55.7479 -55.7140 -55.6725 -55.4370 -54.9517 -54.9177
   -32.5213 -32.4570 -32.3250 -32.3078 -32.2824 -32.2791 -32.2673 -32.2385
   -32.2171 -32.1913 -32.1823 -32.1716 -32.1471 -32.1265 -32.1183 -32.1180
   -32.1068 -32.0877 -32.0789 -32.0646 -32.0377 -32.0315 -32.0314 -31.9858
   -31.9820 -31.9794 -31.9723 -31.9713 -31.9632 -31.9498 -31.9393 -31.9231
   -31.9173 -31.9165 -31.9008 -31.8921 -31.8875 -31.8838 -31.8600 -31.7017
   -31.6694 -31.6534 -31.3588 -31.2705 -31.2481 -31.1755 -31.0890 -30.9780
   -17.0753 -16.7094 -16.4460 -16.2066 -16.1502 -16.1125 -16.0910 -15.9812
   -15.8150 -15.6951 -15.6424 -15.5416 -15.5331 -15.5106 -15.4763 -15.4602
   -15.4248 -15.4176 -15.4084 -15.3967 -15.3832 -15.3339 -15.3148 -15.3015
   -15.1995 -15.1489 -15.1092 -15.0887 -15.0310 -15.0196 -14.6554 -13.4541
   -13.3376  -7.8337  -4.8112  -4.0901  -3.9315  -3.8804  -3.8306  -3.8134
    -3.5831  -3.5247  -3.2137  -3.1592  -3.1444  -3.1251  -3.0951  -2.8835
    -2.8531  -2.8032  -2.7850  -2.7643  -2.7523  -2.7337  -2.7205  -2.7005
    -2.6709  -2.6150  -2.5300  -2.4844  -2.3964  -2.3652  -2.3475  -2.3061
    -2.2865  -2.2460  -2.2240  -2.2150  -2.2085  -2.1712  -2.1654  -2.0996
    -2.0462  -1.9976  -1.9677  -1.9032  -1.8375  -1.7714  -1.7062  -1.5815
    -1.4612  -1.4449  -1.4022  -1.3752  -1.3657  -1.2762  -1.2227  -1.1556
    -1.1288  -1.1237  -1.0399  -0.9948  -0.9530  -0.9404  -0.8515  -0.8186
    -0.7405  -0.7349  -0.7222  -0.6813  -0.4618  -0.4265  -0.3946  -0.3739
    -0.3186  -0.2602  -0.2270  -0.1950  -0.1550  -0.0940  -0.0784  -0.0310
    -0.0083  -0.0003   0.0196   0.0395   0.0665   0.1818   0.2142   0.2748
     0.3063   0.3789   0.4318   0.5689   0.6078   0.6834   0.7908   0.9968
     1.0704   1.1581   1.2626   1.6417   1.6872   3.1612   3.2475   3.2934
     3.3011   3.4026   3.4074   3.6128   3.6345   3.6475   3.7044

[...]

          k = 0.0380-0.0419 0.0000 ( 17876 PWs)   bands (ev):

[...]

          k =-0.0760-0.0000 0.0000 ( 17886 PWs)   bands (ev):

[...]

          k =-0.0760-0.0839 0.0000 ( 17948 PWs)   bands (ev):

   -55.9581 -55.9566 -55.9509 -55.9476 -55.8384 -55.8216 -55.8109 -55.8061
   -55.7665 -55.7651 -55.7332 -55.7289 -55.6714 -55.4381 -54.9346 -54.9346
   -32.3264 -32.3224 -32.2726 -32.2719 -32.2531 -32.2523 -32.2342 -32.2277
   -32.1760 -32.1699 -32.1636 -32.1584 -32.1184 -32.1074 -32.1018 -32.0958
   -32.0845 -32.0822 -32.0777 -32.0758 -32.0721 -32.0670 -32.0441 -32.0333
   -32.0305 -32.0195 -32.0187 -32.0060 -31.9834 -31.9674 -31.9647 -31.9639
   -31.9608 -31.9481 -31.9442 -31.9418 -31.9386 -31.8918 -31.8884 -31.7641
   -31.6862 -31.6701 -31.2608 -31.2608 -31.1716 -31.1715 -31.1323 -31.1323
   -17.0124 -16.1640 -16.1447 -16.1310 -15.9199 -15.8951 -15.8829 -15.8769
   -15.7577 -15.6792 -15.6690 -15.6668 -15.5943 -15.5697 -15.5651 -15.5136
   -15.5057 -15.4985 -15.4872 -15.4598 -15.4354 -15.4295 -15.4109 -15.4057
   -15.3247 -15.2908 -15.2874 -15.2599 -15.1388 -15.0175 -14.8263 -13.4396
   -13.4393  -7.8318  -4.7672  -3.4355  -3.4274  -3.1735  -3.1305  -3.1229
    -3.0664  -2.9166  -2.8795  -2.8736  -2.8387  -2.8193  -2.8016  -2.7945
    -2.7826  -2.7612  -2.7358  -2.7150  -2.7062  -2.6711  -2.6436  -2.6326
    -2.6202  -2.6033  -2.5873  -2.5709  -2.5525  -2.5282  -2.5116  -2.4966
    -2.4581  -2.3142  -2.2235  -2.1749  -2.1175  -2.1043  -2.0980  -2.0895
    -2.0627  -2.0378  -2.0283  -1.9738  -1.9369  -1.8301  -1.7742  -1.7084
    -1.6714  -1.6583  -1.5843  -1.5335  -1.4709  -1.4068  -1.3789  -1.3623
    -1.3116  -1.2557  -1.1909  -1.1739  -1.1433  -1.0976  -1.0509  -0.9722
    -0.9636  -0.9336  -0.9301  -0.8899  -0.8263  -0.7655  -0.7383  -0.7372
    -0.7098  -0.6500  -0.5887  -0.5703  -0.4638  -0.4575  -0.3407  -0.2982
    -0.0510   0.0058   0.0487   0.0977   0.1118   0.1763   0.2114   0.3310
     0.3404   0.3517   0.3907   0.4074   0.4246   0.5589   0.5725   0.6016
     0.7399   1.4345   1.4347   1.5067   1.5074   3.4619   3.4698   3.4969
     3.5147   3.6692   3.6726   3.6933   3.6944   3.8157   3.8459

     the Fermi energy is     3.1598 ev

!    total energy              =   -2950.31369828 Ry
     estimated scf accuracy    <       0.00000004 Ry
     smearing contrib. (-TS)   =      -0.02173137 Ry
     internal energy E=F+TS    =   -2950.29196691 Ry

     The total energy is F=E-TS. E is the sum of the following terms:
     one-electron contribution =  -24387.62773608 Ry
     hartree contribution      =   12280.83918940 Ry
     xc contribution           =    -486.33997927 Ry
     ewald contribution        =    9642.83578646 Ry
     electric field correction =       0.00077259 Ry

     convergence has been achieved in  71 iterations

     Forces acting on atoms (cartesian axes, Ry/au):

     atom    1 type  1   force =     0.00006645    0.00002306    0.10324797
     atom    2 type  1   force =     0.00007313    0.00004565    0.10321899
     atom    3 type  2   force =     0.00013515   -0.00031239    0.09681386
     atom    4 type  2   force =    -0.00007534   -0.00021900    0.09609945
     atom    5 type  2   force =     0.00012704   -0.00039572   -0.17540361
     atom    6 type  2   force =    -0.00000889   -0.00040794   -0.17550774
     atom    7 type  1   force =    -0.07152070   -0.00009338   -0.02770344
     atom    8 type  1   force =    -0.07156074   -0.00003815   -0.02772170
     atom    9 type  1   force =     0.07143284    0.00035397   -0.02777521
     atom   10 type  1   force =     0.07145597    0.00042756   -0.02776722
     atom   11 type  1   force =    -0.00001190   -0.00140976    0.05312919
     atom   12 type  1   force =     0.00001243   -0.00120448    0.05250990
     atom   13 type  1   force =     0.00009066   -0.00013746   -0.02457661
     atom   14 type  1   force =     0.00019578   -0.00012312   -0.02391880
     atom   15 type  2   force =     0.00043017    0.00061739   -0.01181240
     atom   16 type  2   force =     0.00057498    0.00307514   -0.01204104
     atom   17 type  2   force =     0.00034921   -0.01478202    0.02784874
     atom   18 type  2   force =     0.00037387    0.01324380    0.02791563
     atom   19 type  1   force =    -0.01207530    0.00073463    0.00326155
     atom   20 type  1   force =    -0.01219586   -0.00138156    0.00304741
     atom   21 type  1   force =     0.01357559    0.00131486    0.00277486
     atom   22 type  1   force =     0.01356911   -0.00098202    0.00248403
     atom   23 type  1   force =    -0.00335894    0.00071198   -0.01813659
     atom   24 type  1   force =    -0.00198143    0.00036447   -0.02015467
     atom   25 type  1   force =    -0.00013962    0.00000084    0.00005113
     atom   26 type  1   force =    -0.00001962    0.00010110    0.00005148
     atom   27 type  2   force =     0.00004621   -0.00003510   -0.00007774
     atom   28 type  2   force =     0.00010018    0.00004093   -0.00001291
     atom   29 type  2   force =    -0.00012174    0.00000261   -0.00006693
     atom   30 type  1   force =     0.00006287   -0.00003474    0.00000879
     atom   31 type  1   force =     0.00006852   -0.00000365    0.00003881
     atom   32 type  1   force =     0.00001429   -0.00009668   -0.00005444
     atom   33 type  1   force =     0.00004877    0.00004671    0.00006110
     atom   34 type  2   force =    -0.00007410   -0.00010390    0.00006903
     atom   35 type  1   force =     0.00004402    0.00006464   -0.00004211
     atom   36 type  1   force =    -0.00003073    0.00002498   -0.00016214
     atom   37 type  1   force =    -0.00001002   -0.00007099   -0.00002499
     atom   38 type  1   force =     0.00009667    0.00000080   -0.00010803
     atom   39 type  2   force =    -0.00004969    0.00007955   -0.00015896
     atom   40 type  2   force =     0.00008303    0.00002393    0.00002641
     atom   41 type  2   force =     0.00013163    0.00011660   -0.00003882
     atom   42 type  1   force =     0.00002880    0.00006171   -0.00001905
     atom   43 type  1   force =     0.00006015    0.00002884    0.00003817
     atom   44 type  1   force =     0.00010163    0.00002043    0.00012138
     atom   45 type  1   force =     0.00007339    0.00004991    0.00000078
     atom   46 type  2   force =     0.00011256    0.00004534   -0.00010189
     atom   47 type  1   force =     0.00013029   -0.00006778    0.00010636
     atom   48 type  3   force =    -0.00041099    0.00140786    0.00142014
     atom   49 type  4   force =    -0.00016429    0.00003283    0.00005891
     atom   50 type  4   force =     0.00073840   -0.00033963    0.00044317
     atom   51 type  5   force =    -0.00069998   -0.00082601   -0.00142028
     atom   52 type  1   force =     0.00010608    0.00000334   -0.00003993

     Total force =     0.368077     Total SCF correction =     0.000388
  @ DRIVER MODE: Message from server: STATUS
  @ DRIVER MODE: Message from server: GETFORCE
  @ DRIVER MODE: Returning v,forces,stress,ensemble

     Writing output data file ./calc.save/
  @ DRIVER MODE: Message from server: EXIT
  @ DRIVE MODE: Exiting

     General routines

     Parallel routines

   This run was terminated on:   5:15: 4  28Sep2021

   JOB DONE.