     Program PWSCF v.6.7GPU starts on 20Sep2021 at 17:38:54

     R & G space division:  proc/nbgrp/npool/nimage =      10
     Reading input from /storage/home/hcoda1/3/ntian30/research/carbon/CxH_vib/CH3_calc/ads_slab/CH3O_a/out_0029/pw.inp
Warning: card &CELL ignored
Warning: card   CELL_DYNAMICS='IPI', ignored
Warning: card / ignored

     Current dimensions of program PWSCF are:
     Max number of different atomic species (ntypx) = 10
     Max number of k-points (npk) =  40000
     Max angular momentum in pseudopotentials (lmaxx) =  3
     Presently no symmetry can be used with electric field

     Message from routine cell_base_init:
     DEPRECATED: use true lattice parameter, not A to a.u. conversion factor

     IMPORTANT: XC functional enforced from input :
     Exchange-correlation= BEEF-VDW
                           (   1   4  43  14   2   0   0)
     Any further DFT definition will be discarded
     Please, verify this is what you really want

  @ DRIVER MODE: Connecting to
 qe_1139763_2907627.sched-torque.pace.gatech.eduqqkzggrr_scratch
  using UNIX socket
  @ DRIVER MODE: Message from server: STATUS
  @ DRIVER MODE: Message from server: INIT
  @ DRIVER MODE: Receiving replica           0          -1
  @ DRIVER MODE: Receiving encoded integer          25
  @ DRIVER MODE:  SCF:  T  FORCE:  T  STRESS:  F  VC:  F  ENSEMBLE:  F
  @ DRIVER MODE:  SCF:  T  FORCE:  T  STRESS:  F  VC:  F  ENSEMBLE:  F

     Using Slab Decomposition

     bravais-lattice index     =            0
     lattice parameter (alat)  =       1.8897  a.u.
     unit-cell volume          =    6658.9804 (a.u.)^3
     number of atoms/cell      =           52
     number of atomic types    =            4
     number of electrons       =       391.00
     number of Kohn-Sham states=          205
     kinetic-energy cutoff     =      29.3995  Ry
     charge density cutoff     =     293.9946  Ry
     scf convergence threshold =      7.3E-08
     mixing beta               =       0.0500
     number of iterations used =            8  plain     mixing
     Exchange-correlation= BEEF-VDW
                           (   1   4  43  14   2   0   0)

     celldm(1)=   1.889726  celldm(2)=   0.000000  celldm(3)=   0.000000
     celldm(4)=   0.000000  celldm(5)=   0.000000  celldm(6)=   0.000000

     crystal axes: (cart. coord. in units of alat)
               a(1) = (   6.579727   0.000000   0.000000 )
               a(2) = (  -0.000775   5.961596   0.000000 )
               a(3) = (   0.000000   0.000000  25.155947 )

     reciprocal axes: (cart. coord. in units 2 pi/alat)
               b(1) = (  0.151982  0.000020  0.000000 )
               b(2) = (  0.000000  0.167740  0.000000 )
               b(3) = (  0.000000  0.000000  0.039752 )

     PseudoPot. # 1 for Ti read from file:
     /storage/coda1/p-amedford6/0/shared/rich_project_chbe-medford/medford-share/data/pseudos_module/espresso/nninc/pbe/van/Ti.UPF
     MD5 check sum: 8e4df49b7f0d34bbd5052bf3f5ea0213
     Pseudo is Ultrasoft, Zval = 12.0
     Generated by new atomic code, or converted to UPF format
     Using radial grid of  851 points,  6 beta functions with:
                l(1) =   0
                l(2) =   0
                l(3) =   1
                l(4) =   1
                l(5) =   2
                l(6) =   2
     Q(r) pseudized with  8 coefficients,  rinner =    1.000   1.000   1.000
                                                       1.000   1.000

     PseudoPot. # 2 for O  read from file:
     /storage/coda1/p-amedford6/0/shared/rich_project_chbe-medford/medford-share/data/pseudos_module/espresso/nninc/pbe/van/O.UPF
     MD5 check sum: 78c19812648e8988a0fe644b0f25305e
     Pseudo is Ultrasoft, Zval =  6.0
     Generated by new atomic code, or converted to UPF format
     Using radial grid of  737 points,  4 beta functions with:
                l(1) =   0
                l(2) =   0
                l(3) =   1
                l(4) =   1
     Q(r) pseudized with  8 coefficients,  rinner =    0.800   0.800   0.800

     PseudoPot. # 3 for C  read from file:
     /storage/coda1/p-amedford6/0/shared/rich_project_chbe-medford/medford-share/data/pseudos_module/espresso/nninc/pbe/van/C.UPF
     MD5 check sum: 1a69bf6b8db32088f5b2163dbdb77a27
     Pseudo is Ultrasoft, Zval =  4.0
     Generated by new atomic code, or converted to UPF format
     Using radial grid of  721 points,  4 beta functions with:
                l(1) =   0
                l(2) =   0
                l(3) =   1
                l(4) =   1
     Q(r) pseudized with  8 coefficients,  rinner =    0.800   0.800   0.800

     PseudoPot. # 4 for H  read from file:
     /storage/coda1/p-amedford6/0/shared/rich_project_chbe-medford/medford-share/data/pseudos_module/espresso/nninc/pbe/van/H.UPF
     MD5 check sum: b5ee9d7bfd3a09ee7748110bda690ff7
     Pseudo is Ultrasoft, Zval =  1.0
     Generated by new atomic code, or converted to UPF format
     Using radial grid of  615 points,  1 beta functions with:
                l(1) =   0
     Q(r) pseudized with  8 coefficients,  rinner =    0.800

     atomic species   valence    mass     pseudopotential
        Ti1           12.00    47.86700     Ti( 1.00)
        O1             6.00    15.99900     O ( 1.00)
        C1             4.00    12.01100     C ( 1.00)
        H1             1.00     1.00800     H ( 1.00)

     No symmetry found

   Cartesian axes

     site n.     atom                  positions (alat units)
         1           Ti1 tau(   1) = (   0.0004258   2.9801865   6.0000000  )
         2           Ti1 tau(   2) = (   3.2906075   1.4906267   6.0002472  )
         3           O1  tau(   3) = (   0.0006271   0.0005054   7.9858123  )
         4           O1  tau(   4) = (   3.2906025   0.0005020   7.3038282  )
         5           O1  tau(   5) = (   4.5942328   1.4918067   9.2879030  )
         6           O1  tau(   6) = (   1.9868534   1.4903216   9.2879459  )
         7           Ti1 tau(   7) = (   3.3187032   3.0312427   9.1575206  )
         8           Ti1 tau(   8) = (   0.0282419   1.6147502   9.3704053  )
         9           O1  tau(   9) = (   3.3236385   0.0141534  11.3532293  )
        10           O1  tau(  10) = (   0.0104197   0.0125229  10.6127740  )
        11           O1  tau(  11) = (   1.3245732   1.5021988  12.6430083  )
        12           O1  tau(  12) = (   5.3244981   1.5061434  12.6562219  )
        13           Ti1 tau(  13) = (   0.0403031   3.0097444  12.8244759  )
        14           Ti1 tau(  14) = (   3.3296682   1.5108177  12.4986020  )
        15           O1  tau(  15) = (   0.0398480   0.0117783  14.7343716  )
        16           O1  tau(  16) = (   3.3300567   0.0146708  13.9469669  )
        17           O1  tau(  17) = (   4.5805658   1.5026465  16.1145873  )
        18           O1  tau(  18) = (   2.0880061   1.5021997  16.1152651  )
        19           Ti1 tau(  19) = (   3.3307167   2.9906167  15.7324548  )
        20           Ti1 tau(  20) = (   0.0579274   1.3843852  16.1188819  )
        21           O1  tau(  21) = (   3.2904802   0.0005063   4.7018136  )
        22           O1  tau(  22) = (   0.0436517   5.9586681  17.2572535  )
        23           O1  tau(  23) = (   1.3043587   1.4918075   6.0039043  )
        24           O1  tau(  24) = (   5.2767064   1.4903225   6.0039473  )
        25           Ti1 tau(  25) = (   0.0000382   5.9609847   6.0000000  )
        26           Ti1 tau(  26) = (   3.2902200   4.4714249   6.0002472  )
        27           O1  tau(  27) = (   0.0002396   2.9813036   7.9858123  )
        28           O1  tau(  28) = (   3.2902150   2.9813002   7.3038282  )
        29           O1  tau(  29) = (   4.5938453   4.4726049   9.2879030  )
        30           O1  tau(  30) = (   1.9864658   4.4711199   9.2879459  )
        31           Ti1 tau(  31) = (   3.3083866   0.0539517   9.1541167  )
        32           Ti1 tau(  32) = (   0.0315341   4.5377404   9.2709708  )
        33           O1  tau(  33) = (   3.3215087   2.9954721  11.3555336  )
        34           O1  tau(  34) = (   0.0112336   2.9957203  10.5730616  )
        35           O1  tau(  35) = (   1.3257220   4.4896437  12.6447561  )
        36           O1  tau(  36) = (   5.3225596   4.4851362  12.6583724  )
        37           Ti1 tau(  37) = (   0.0354833   0.0274604  12.5282598  )
        38           Ti1 tau(  38) = (   3.3297026   4.4921445  12.4963722  )
        39           O1  tau(  39) = (   0.0599690   3.0154325  14.7102929  )
        40           O1  tau(  40) = (   3.3251099   2.9889739  13.9402376  )
        41           O1  tau(  41) = (   4.5781535   4.4756942  16.0984728  )
        42           O1  tau(  42) = (   2.0867977   4.4764083  16.0997756  )
        43           Ti1 tau(  43) = (   3.3478802   0.0108728  15.7387323  )
        44           Ti1 tau(  44) = (   0.0598937   4.5429110  15.9843511  )
        45           O1  tau(  45) = (   3.2900926   2.9813045   4.7018136  )
        46           O1  tau(  46) = (   1.3039711   4.4726057   6.0039043  )
        47           O1  tau(  47) = (   5.2763189   4.4711207   6.0039473  )
        48           C1  tau(  48) = (   6.0696523   3.0631652  18.6664891  )
        49           O1  tau(  49) = (   0.0149881   2.9985468  17.3426271  )
        50           H1  tau(  50) = (   4.9903245   2.8753800  18.6581135  )
        51           H1  tau(  51) = (   6.5502243   2.3063723  19.2898855  )
        52           H1  tau(  52) = (   6.2508803   4.0560215  19.0698806  )

     number of k points=    10  Fermi-Dirac smearing, width (Ry)=  0.0073
                       cart. coord. in units 2pi/alat
        k(    1) = (   0.0000000   0.0000000   0.0000000), wk =   0.1250000
        k(    2) = (   0.0000000   0.0419351   0.0000000), wk =   0.2500000
        k(    3) = (   0.0000000  -0.0838702   0.0000000), wk =   0.1250000
        k(    4) = (   0.0379955   0.0000049   0.0000000), wk =   0.2500000
        k(    5) = (   0.0379955   0.0419400   0.0000000), wk =   0.2500000
        k(    6) = (   0.0379955  -0.0838652   0.0000000), wk =   0.2500000
        k(    7) = (   0.0379955  -0.0419301   0.0000000), wk =   0.2500000
        k(    8) = (  -0.0759910  -0.0000099   0.0000000), wk =   0.1250000
        k(    9) = (  -0.0759910   0.0419252   0.0000000), wk =   0.2500000
        k(   10) = (  -0.0759910  -0.0838800   0.0000000), wk =   0.1250000

     Initial potential from superposition of free atoms

     starting charge  374.99918, renormalised to  391.00000

     negative rho (up, down):  1.819E-02 0.000E+00

     %%%%%%%%%%%%%%%%%%%%%%%%%%%%%%%%%%%%%%%%%%%%%%%%%%%%%%%%%%%%%%%%%%%%%%%%
     %                                                                      %
     % You are using vdW-DF, which was implemented by the Thonhauser group. %
     % Please cite the following two papers that made this development      %
     % possible and the two reviews that describe the various versions:     %
     %                                                                      %
     %   T. Thonhauser et al., PRL 115, 136402 (2015).                      %
     %   T. Thonhauser et al., PRB 76, 125112 (2007).                       %
     %   K. Berland et al., Rep. Prog. Phys. 78, 066501 (2015).             %
     %   D.C. Langreth et al., J. Phys.: Condens. Matter 21, 084203 (2009). %
     %                                                                      %
     %                                                                      %
     % If you are calculating the stress with vdW-DF, please also cite:     %
     %                                                                      %
     %   R. Sabatini et al., J. Phys.: Condens. Matter 24, 424209 (2012).   %
     %                                                                      %
     %%%%%%%%%%%%%%%%%%%%%%%%%%%%%%%%%%%%%%%%%%%%%%%%%%%%%%%%%%%%%%%%%%%%%%%%

     Adding external electric field

     Computed dipole along edir(3) :
        Dipole               -5.5393 Ry au,        -14.0795 Debye
        Dipole field         -0.0105 Ry au,

        Potential amp.        0.9690 Ry
        Total length         46.3494 bohr

     Starting wfcs are  295 atomic wfcs
  @ DRIVER MODE: Message from server: STATUS
  @ DRIVER MODE: Message from server: POSDATA
  @ DRIVER MODE: Reading and sharing cell
  @ DRIVER MODE: Reading and sharing positions
  @ DRIVER MODE: Received positions

     Self-consistent Calculation

     iteration #  1     ecut=    29.40 Ry     beta= 0.05
     Davidson diagonalization with overlap
     c_bands:  3 eigenvalues not converged
     c_bands:  2 eigenvalues not converged
     c_bands:  3 eigenvalues not converged
     c_bands:  2 eigenvalues not converged
     c_bands:  3 eigenvalues not converged
     c_bands:  2 eigenvalues not converged
     c_bands:  1 eigenvalues not converged
     c_bands:  1 eigenvalues not converged
     c_bands:  2 eigenvalues not converged
     ethr =  1.00E-05,  avg # of iterations = 19.7

[...]

     total energy              =   -2791.63588880 Ry
     estimated scf accuracy    <    1532.11097610 Ry

     iteration #  2     ecut=    29.40 Ry     beta= 0.05
     Davidson diagonalization with overlap
     ethr =  1.00E-02,  avg # of iterations = 17.7

[...]

     iteration # 46     ecut=    29.40 Ry     beta= 0.05
     Davidson diagonalization with overlap
     c_bands:  1 eigenvalues not converged
     ethr =  6.59E-10,  avg # of iterations = 14.9

[...]

     total energy              =   -2931.50273263 Ry
     estimated scf accuracy    <       0.00000008 Ry

     iteration # 51     ecut=    29.40 Ry     beta= 0.05
     Davidson diagonalization with overlap
     ethr =  2.14E-11,  avg # of iterations = 10.9

     negative rho (up, down):  1.844E-02 0.000E+00

     Adding external electric field

     Computed dipole along edir(3) :
        Dipole                0.7532 Ry au,          1.9144 Debye
        Dipole field          0.0014 Ry au,

        Potential amp.       -0.1318 Ry
        Total length         46.3494 bohr

     End of self-consistent calculation

          k = 0.0000 0.0000 0.0000 ( 18029 PWs)   bands (ev):

   -55.9539 -55.9393 -55.9172 -55.9031 -55.8386 -55.8345 -55.8130 -55.7830
   -55.7789 -55.7280 -55.7182 -55.7125 -55.6785 -55.5956 -54.9670 -54.9329
   -32.5049 -32.4211 -32.3495 -32.2969 -32.2717 -32.2521 -32.2447 -32.2221
   -32.1910 -32.1783 -32.1584 -32.1531 -32.1495 -32.1199 -32.1146 -32.0927
   -32.0870 -32.0851 -32.0694 -32.0440 -32.0430 -32.0194 -32.0132 -31.9954
   -31.9950 -31.9942 -31.9655 -31.9652 -31.9533 -31.9433 -31.9365 -31.9338
   -31.9262 -31.9141 -31.8888 -31.8861 -31.8770 -31.8560 -31.8202 -31.8147
   -31.7922 -31.7842 -31.3769 -31.2797 -31.2573 -31.1936 -31.1075 -30.9963
   -17.6718 -16.6818 -16.3959 -16.2324 -16.0999 -16.0639 -15.9607 -15.7762
   -15.6376 -15.6201 -15.5561 -15.5171 -15.5016 -15.4755 -15.4718 -15.4586
   -15.4559 -15.4066 -15.3711 -15.3700 -15.3547 -15.3325 -15.2714 -15.2302
   -15.1484 -15.0949 -15.0702 -15.0155 -14.9532 -14.9343 -13.4676 -13.3493
    -9.5050  -4.3937  -4.1652  -4.0405  -3.8722  -3.8596  -3.8377  -3.8138
    -3.7529  -3.5024  -3.4872  -3.1681  -3.1088  -3.0846  -3.0706  -3.0644
    -2.8263  -2.8069  -2.7782  -2.7678  -2.7598  -2.7307  -2.7029  -2.6934
    -2.6697  -2.6536  -2.5553  -2.4780  -2.4696  -2.3612  -2.3155  -2.3042
    -2.2537  -2.2155  -2.2080  -2.1884  -2.1635  -2.1464  -2.1185  -2.1155
    -2.0191  -1.8895  -1.7847  -1.7548  -1.7134  -1.6535  -1.4475  -1.4018
    -1.3668  -1.3534  -1.2961  -1.2637  -1.2550  -1.1812  -1.1434  -1.1269
    -1.0198  -0.9590  -0.9341  -0.9072  -0.8442  -0.8088  -0.7608  -0.6895
    -0.6707  -0.6557  -0.4430  -0.4179  -0.4120  -0.4009  -0.2888  -0.2372
    -0.1812  -0.1701  -0.1579  -0.1268  -0.0553   0.0095   0.0208   0.0428
     0.0758   0.1023   0.1793   0.2061   0.2319   0.2559   0.2897   0.3763
     0.4228   0.5643   0.6936   0.7158   0.8162   0.9595   1.0576   1.1299
     1.2277   1.6469   1.7071   3.2316   3.2509   3.2957   3.3251   3.3837
     3.5051   3.6243   3.6595   3.6945   3.7164

[...]

          k = 0.0380-0.0419 0.0000 ( 17876 PWs)   bands (ev):

[...]

          k =-0.0760-0.0000 0.0000 ( 17886 PWs)   bands (ev):

[...]

          k =-0.0760-0.0839 0.0000 ( 17948 PWs)   bands (ev):

   -55.9424 -55.9286 -55.9214 -55.9208 -55.8333 -55.8316 -55.7965 -55.7956
   -55.7882 -55.7252 -55.7208 -55.6987 -55.6925 -55.5978 -54.9505 -54.9493
   -32.3090 -32.3046 -32.2493 -32.2448 -32.2339 -32.2300 -32.2124 -32.2071
   -32.2035 -32.1606 -32.1398 -32.1328 -32.1288 -32.0918 -32.0828 -32.0770
   -32.0691 -32.0655 -32.0623 -32.0601 -32.0499 -32.0377 -32.0338 -32.0277
   -32.0198 -32.0154 -32.0120 -31.9997 -31.9946 -31.9933 -31.9679 -31.9507
   -31.9485 -31.9452 -31.9387 -31.9221 -31.9192 -31.9081 -31.9023 -31.8904
   -31.8279 -31.7923 -31.2707 -31.2692 -31.1903 -31.1893 -31.1511 -31.1501
   -17.6344 -16.1225 -16.1064 -15.8725 -15.8669 -15.8625 -15.7928 -15.7078
   -15.6880 -15.6726 -15.6669 -15.6120 -15.5976 -15.5861 -15.5250 -15.4873
   -15.4612 -15.4531 -15.4497 -15.4010 -15.3970 -15.3438 -15.3256 -15.3112
   -15.3002 -15.2844 -15.2769 -15.1811 -15.1796 -15.1095 -13.4517 -13.4494
    -9.5057  -4.2615  -4.1354  -3.8688  -3.4126  -3.3947  -3.1136  -3.0812
    -3.0776  -2.9886  -2.9028  -2.8605  -2.8244  -2.7922  -2.7878  -2.7857
    -2.7658  -2.7364  -2.7327  -2.7122  -2.6921  -2.6810  -2.6269  -2.5912
    -2.5829  -2.5807  -2.5693  -2.5398  -2.5241  -2.5025  -2.4938  -2.4842
    -2.4637  -2.3659  -2.2364  -2.2037  -2.0917  -2.0835  -2.0467  -2.0334
    -2.0058  -1.9966  -1.9775  -1.8688  -1.8040  -1.6766  -1.6730  -1.6539
    -1.5966  -1.5274  -1.4563  -1.3876  -1.3655  -1.3503  -1.2528  -1.2407
    -1.1718  -1.1520  -1.0949  -1.0637  -1.0522  -0.9525  -0.9187  -0.9042
    -0.8908  -0.8162  -0.7994  -0.7785  -0.7487  -0.6879  -0.6770  -0.6077
    -0.5729  -0.5288  -0.4652  -0.4410  -0.3927  -0.3037  -0.1273  -0.0469
     0.0560   0.0988   0.1580   0.1710   0.2623   0.3065   0.3216   0.3286
     0.4176   0.4814   0.5095   0.5727   0.5860   0.6119   0.6737   1.4171
     1.4189   1.5095   1.5197   3.4394   3.4701   3.4840   3.5324   3.6918
     3.6968   3.7168   3.7218   3.7956   3.8579

     the Fermi energy is     3.2012 ev

!    total energy              =   -2931.50283112 Ry
     estimated scf accuracy    <       0.00000005 Ry
     smearing contrib. (-TS)   =      -0.02313285 Ry
     internal energy E=F+TS    =   -2931.47969827 Ry

     The total energy is F=E-TS. E is the sum of the following terms:
     one-electron contribution =  -24510.77863296 Ry
     hartree contribution      =   12340.40506864 Ry
     xc contribution           =    -482.05559951 Ry
     ewald contribution        =    9720.94839503 Ry
     electric field correction =       0.00107053 Ry

     convergence has been achieved in  51 iterations

     Forces acting on atoms (cartesian axes, Ry/au):

     atom    1 type  1   force =    -0.00014108   -0.00171349    0.10702496
     atom    2 type  1   force =    -0.00040666    0.00039310   -0.17995934
     atom    3 type  2   force =     0.00029700   -0.00715477   -0.03304962
     atom    4 type  2   force =     0.00067518    0.00052203    0.04595665
     atom    5 type  2   force =    -0.01814950    0.00043888    0.00391577
     atom    6 type  2   force =     0.02136816   -0.00104372    0.00543978
     atom    7 type  1   force =    -0.00016351   -0.00031230   -0.00015333
     atom    8 type  1   force =    -0.00008740   -0.00029538   -0.00175037
     atom    9 type  2   force =    -0.00030797   -0.00018426    0.00032826
     atom   10 type  2   force =    -0.00014704   -0.00052872    0.00015008
     atom   11 type  2   force =    -0.00035173    0.00013510    0.00060307
     atom   12 type  2   force =    -0.00018089    0.00021138    0.00020938
     atom   13 type  1   force =    -0.00018312   -0.00038752   -0.00100615
     atom   14 type  1   force =     0.00029669    0.00021991   -0.00049351
     atom   15 type  2   force =    -0.00015916    0.00014559   -0.00121265
     atom   16 type  2   force =    -0.00039776   -0.00027714   -0.00088670
     atom   17 type  2   force =    -0.00129481    0.00043200   -0.00071167
     atom   18 type  2   force =     0.00012233    0.00022353   -0.00075643
     atom   19 type  1   force =    -0.00006880   -0.00004097    0.00015512
     atom   20 type  1   force =    -0.00081016   -0.00068579    0.00114190
     atom   21 type  2   force =    -0.00005834    0.00009261    0.10426062
     atom   22 type  2   force =     0.00010752    0.00020786   -0.00074307
     atom   23 type  2   force =    -0.06897832    0.00067189   -0.02972081
     atom   24 type  2   force =     0.06868596    0.00114399   -0.02977582
     atom   25 type  1   force =    -0.00011573    0.00161041    0.11783949
     atom   26 type  1   force =    -0.00015018    0.00003247   -0.18000405
     atom   27 type  2   force =     0.00043838    0.00401706   -0.02694143
     atom   28 type  2   force =     0.00078194    0.00082753    0.04758042
     atom   29 type  2   force =    -0.01696987    0.00166773    0.00318815
     atom   30 type  2   force =     0.01945139    0.00119027    0.00453817
     atom   31 type  1   force =    -0.00025746    0.00052543   -0.00020794
     atom   32 type  1   force =    -0.00001339    0.00020181   -0.00096746
     atom   33 type  2   force =    -0.00030606   -0.00006610   -0.00004983
     atom   34 type  2   force =    -0.00012545    0.00069776    0.00046932
     atom   35 type  2   force =    -0.00031099   -0.00002190    0.00013624
     atom   36 type  2   force =    -0.00020451   -0.00003239   -0.00021705
     atom   37 type  1   force =    -0.00012655    0.00061452    0.00082040
     atom   38 type  1   force =     0.00020640   -0.00030134   -0.00050427
     atom   39 type  2   force =    -0.00026269   -0.00021772    0.00030284
     atom   40 type  2   force =    -0.00034587    0.00023731   -0.00036507
     atom   41 type  2   force =    -0.00078038   -0.00008766   -0.00038122
     atom   42 type  2   force =     0.00030925    0.00011897   -0.00057494
     atom   43 type  1   force =    -0.00012061    0.00021433    0.00055812
     atom   44 type  1   force =    -0.00068340    0.00057425    0.00125881
     atom   45 type  2   force =    -0.00006242    0.00006609    0.10429798
     atom   46 type  2   force =    -0.06852713   -0.00129607   -0.02974877
     atom   47 type  2   force =     0.06834233   -0.00085586   -0.02982667
     atom   48 type  3   force =    -0.00069118   -0.00405681   -0.00326262
     atom   49 type  2   force =    -0.00094946   -0.00083275   -0.00037536
     atom   50 type  4   force =     0.00039458   -0.00027756   -0.00003783
     atom   51 type  4   force =     0.00036694   -0.00002945   -0.00028122
     atom   52 type  4   force =     0.00104557    0.00326586    0.00378966

     Total force =     0.377026     Total SCF correction =     0.000734
  @ DRIVER MODE: Message from server: STATUS
  @ DRIVER MODE: Message from server: GETFORCE
  @ DRIVER MODE: Returning v,forces,stress,ensemble

     Writing output data file ./calc.save/
  @ DRIVER MODE: Message from server: EXIT
  @ DRIVE MODE: Exiting

     General routines

     Parallel routines

   This run was terminated on:  17:54: 9  20Sep2021

   JOB DONE.