     Program PWSCF v.6.7GPU starts on 16Jul2021 at  7:26:40

     R & G space division:  proc/nbgrp/npool/nimage =      16
     Reading input from /storage/home/hcoda1/3/ntian30/research/carbon/15Jul_vib/ads_slab/CH3N2H_a/out_0021/pw.inp
Warning: card &CELL ignored
Warning: card   CELL_DYNAMICS='IPI', ignored
Warning: card / ignored

     Current dimensions of program PWSCF are:
     Max number of different atomic species (ntypx) = 10
     Max number of k-points (npk) =  40000
     Max angular momentum in pseudopotentials (lmaxx) =  3
     Presently no symmetry can be used with electric field

     Message from routine cell_base_init:
     DEPRECATED: use true lattice parameter, not A to a.u. conversion factor

     IMPORTANT: XC functional enforced from input :
     Exchange-correlation= BEEF-VDW
                           (   1   4  43  14   2   0   0)
     Any further DFT definition will be discarded
     Please, verify this is what you really want

  @ DRIVER MODE: Connecting to
 qe_1139763_2351646.sched-torque.pace.gatech.eduf2grarpq_scratch
  using UNIX socket
  @ DRIVER MODE: Message from server: STATUS
  @ DRIVER MODE: Message from server: INIT
  @ DRIVER MODE: Receiving replica           0          -1
  @ DRIVER MODE: Receiving encoded integer          25
  @ DRIVER MODE:  SCF:  T  FORCE:  T  STRESS:  F  VC:  F  ENSEMBLE:  F
  @ DRIVER MODE:  SCF:  T  FORCE:  T  STRESS:  F  VC:  F  ENSEMBLE:  F

     Using Slab Decomposition

     bravais-lattice index     =            0
     lattice parameter (alat)  =       1.8897  a.u.
     unit-cell volume          =    6658.9804 (a.u.)^3
     number of atoms/cell      =           54
     number of atomic types    =            5
     number of electrons       =       396.00
     number of Kohn-Sham states=          208
     kinetic-energy cutoff     =      29.3995  Ry
     charge density cutoff     =     293.9946  Ry
     scf convergence threshold =      7.3E-08
     mixing beta               =       0.0500
     number of iterations used =            8  plain     mixing
     Exchange-correlation= BEEF-VDW
                           (   1   4  43  14   2   0   0)

     celldm(1)=   1.889726  celldm(2)=   0.000000  celldm(3)=   0.000000
     celldm(4)=   0.000000  celldm(5)=   0.000000  celldm(6)=   0.000000

     crystal axes: (cart. coord. in units of alat)
               a(1) = (   6.579727   0.000000   0.000000 )
               a(2) = (  -0.000775   5.961596   0.000000 )
               a(3) = (   0.000000   0.000000  25.155947 )

     reciprocal axes: (cart. coord. in units 2 pi/alat)
               b(1) = (  0.151982  0.000020  0.000000 )
               b(2) = (  0.000000  0.167740  0.000000 )
               b(3) = (  0.000000  0.000000  0.039752 )

     PseudoPot. # 1 for Ti read from file:
     /storage/coda1/p-amedford6/0/shared/rich_project_chbe-medford/medford-share/data/pseudos_module/espresso/nninc/pbe/van/Ti.UPF
     MD5 check sum: 8e4df49b7f0d34bbd5052bf3f5ea0213
     Pseudo is Ultrasoft, Zval = 12.0
     Generated by new atomic code, or converted to UPF format
     Using radial grid of  851 points,  6 beta functions with:
                l(1) =   0
                l(2) =   0
                l(3) =   1
                l(4) =   1
                l(5) =   2
                l(6) =   2
     Q(r) pseudized with  8 coefficients,  rinner =    1.000   1.000   1.000
                                                       1.000   1.000

     PseudoPot. # 2 for O  read from file:
     /storage/coda1/p-amedford6/0/shared/rich_project_chbe-medford/medford-share/data/pseudos_module/espresso/nninc/pbe/van/O.UPF
     MD5 check sum: 78c19812648e8988a0fe644b0f25305e
     Pseudo is Ultrasoft, Zval =  6.0
     Generated by new atomic code, or converted to UPF format
     Using radial grid of  737 points,  4 beta functions with:
                l(1) =   0
                l(2) =   0
                l(3) =   1
                l(4) =   1
     Q(r) pseudized with  8 coefficients,  rinner =    0.800   0.800   0.800

     PseudoPot. # 3 for N  read from file:
     /storage/coda1/p-amedford6/0/shared/rich_project_chbe-medford/medford-share/data/pseudos_module/espresso/nninc/pbe/van/N.UPF
     MD5 check sum: 90d10febe142ad51ac9d5be1deb811c4
     Pseudo is Ultrasoft, Zval =  5.0
     Generated by new atomic code, or converted to UPF format
     Using radial grid of  729 points,  4 beta functions with:
                l(1) =   0
                l(2) =   0
                l(3) =   1
                l(4) =   1
     Q(r) pseudized with  8 coefficients,  rinner =    0.800   0.800   0.800

     PseudoPot. # 4 for C  read from file:
     /storage/coda1/p-amedford6/0/shared/rich_project_chbe-medford/medford-share/data/pseudos_module/espresso/nninc/pbe/van/C.UPF
     MD5 check sum: 1a69bf6b8db32088f5b2163dbdb77a27
     Pseudo is Ultrasoft, Zval =  4.0
     Generated by new atomic code, or converted to UPF format
     Using radial grid of  721 points,  4 beta functions with:
                l(1) =   0
                l(2) =   0
                l(3) =   1
                l(4) =   1
     Q(r) pseudized with  8 coefficients,  rinner =    0.800   0.800   0.800

     PseudoPot. # 5 for H  read from file:
     /storage/coda1/p-amedford6/0/shared/rich_project_chbe-medford/medford-share/data/pseudos_module/espresso/nninc/pbe/van/H.UPF
     MD5 check sum: b5ee9d7bfd3a09ee7748110bda690ff7
     Pseudo is Ultrasoft, Zval =  1.0
     Generated by new atomic code, or converted to UPF format
     Using radial grid of  615 points,  1 beta functions with:
                l(1) =   0
     Q(r) pseudized with  8 coefficients,  rinner =    0.800

     atomic species   valence    mass     pseudopotential
        Ti1           12.00    47.86700     Ti( 1.00)
        O1             6.00    15.99900     O ( 1.00)
        N1             5.00    14.00700     N ( 1.00)
        C1             4.00    12.01100     C ( 1.00)
        H1             1.00     1.00800     H ( 1.00)

     Starting magnetic structure
     atomic species   magnetization
        Ti1          0.000
        O1           0.000
        N1           0.000
        C1           0.025
        H1           0.000

     No symmetry found

   Cartesian axes

     site n.     atom                  positions (alat units)
         1           Ti1 tau(   1) = (   0.0004258   2.9801865   6.0000000  )
         2           Ti1 tau(   2) = (   3.2906075   1.4906267   6.0002472  )
         3           O1  tau(   3) = (   0.0006271   0.0005054   7.9858123  )
         4           O1  tau(   4) = (   3.2906025   0.0005020   7.3038282  )
         5           O1  tau(   5) = (   4.5942328   1.4918067   9.2879030  )
         6           O1  tau(   6) = (   1.9868534   1.4903216   9.2879459  )
         7           Ti1 tau(   7) = (   3.2907910   2.8959150   9.1758416  )
         8           Ti1 tau(   8) = (   0.0015273   1.4827037   9.2680791  )
         9           O1  tau(   9) = (   3.3106937   0.0084137  11.2927479  )
        10           O1  tau(  10) = (   0.0116148   5.9584955  10.6183126  )
        11           O1  tau(  11) = (   1.3255326   1.5151957  12.5859258  )
        12           O1  tau(  12) = (   5.3246634   1.4871208  12.6441624  )
        13           Ti1 tau(  13) = (   6.5358624   2.9940264  12.7507449  )
        14           Ti1 tau(  14) = (   3.1828407   1.5032771  12.4528579  )
        15           O1  tau(  15) = (   0.1336207   0.0073438  14.6266748  )
        16           O1  tau(  16) = (   3.2550344   0.0288700  13.8306396  )
        17           O1  tau(  17) = (   4.6334483   1.5013943  15.9792279  )
        18           O1  tau(  18) = (   2.1409664   1.5470880  15.9954950  )
        19           Ti1 tau(  19) = (   3.4798582   3.0305884  15.6593850  )
        20           Ti1 tau(  20) = (   0.1386493   1.3724552  15.8613965  )
        21           O1  tau(  21) = (   3.2904802   0.0005063   4.7018136  )
        22           O1  tau(  22) = (   0.1429122   0.0333940  17.1908172  )
        23           O1  tau(  23) = (   1.3043587   1.4918075   6.0039043  )
        24           O1  tau(  24) = (   5.2767064   1.4903225   6.0039473  )
        25           Ti1 tau(  25) = (   0.0000382   5.9609847   6.0000000  )
        26           Ti1 tau(  26) = (   3.2902200   4.4714249   6.0002472  )
        27           O1  tau(  27) = (   0.0002396   2.9813036   7.9858123  )
        28           O1  tau(  28) = (   3.2902150   2.9813002   7.3038282  )
        29           O1  tau(  29) = (   4.5938453   4.4726049   9.2879030  )
        30           O1  tau(  30) = (   1.9864658   4.4711199   9.2879459  )
        31           Ti1 tau(  31) = (   3.2891106   5.8743827   9.1763621  )
        32           Ti1 tau(  32) = (   0.0006254   4.4649316   9.2693709  )
        33           O1  tau(  33) = (   3.3137399   2.9960163  11.2943833  )
        34           O1  tau(  34) = (   0.0092240   2.9805883  10.6323155  )
        35           O1  tau(  35) = (   1.3234708   4.4688006  12.5930975  )
        36           O1  tau(  36) = (   5.3222282   4.4932535  12.6449723  )
        37           Ti1 tau(  37) = (   6.5041614   0.0053836  12.5833808  )
        38           Ti1 tau(  38) = (   3.1843229   4.4812189  12.4522442  )
        39           O1  tau(  39) = (   0.0584892   2.9792810  14.6723703  )
        40           O1  tau(  40) = (   3.3232524   2.9928384  13.8523860  )
        41           O1  tau(  41) = (   4.6237859   4.5837569  15.7472905  )
        42           O1  tau(  42) = (   2.1882403   4.4693611  16.1038286  )
        43           Ti1 tau(  43) = (   3.3015484   0.0242660  15.6383815  )
        44           Ti1 tau(  44) = (   0.0181797   4.4930750  16.1931172  )
        45           O1  tau(  45) = (   3.2900926   2.9813045   4.7018136  )
        46           O1  tau(  46) = (   1.3039711   4.4726057   6.0039043  )
        47           O1  tau(  47) = (   5.2763189   4.4711207   6.0039473  )
        48           N1  tau(  48) = (   0.2677213   2.8760844  17.5655548  )
        49           C1  tau(  49) = (   1.2271684   2.7639891  18.6598760  )
        50           H1  tau(  50) = (   1.2930054   3.7106696  19.2072709  )
        51           H1  tau(  51) = (   0.8976878   1.9630418  19.3402421  )
        52           H1  tau(  52) = (   2.2102292   2.4972526  18.2850250  )
        53           N1  tau(  53) = (   5.6732178   3.4927010  17.8452151  )
        54           H1  tau(  54) = (   5.7345573   4.0058295  18.7343860  )

     number of k points=    10  Fermi-Dirac smearing, width (Ry)=  0.0073
                       cart. coord. in units 2pi/alat
        k(    1) = (   0.0000000   0.0000000   0.0000000), wk =   0.0625000
        k(    2) = (   0.0000000   0.0419351   0.0000000), wk =   0.1250000
        k(    3) = (   0.0000000  -0.0838702   0.0000000), wk =   0.0625000
        k(    4) = (   0.0379955   0.0000049   0.0000000), wk =   0.1250000
        k(    5) = (   0.0379955   0.0419400   0.0000000), wk =   0.1250000
        k(    6) = (   0.0379955  -0.0838652   0.0000000), wk =   0.1250000
        k(    7) = (   0.0379955  -0.0419301   0.0000000), wk =   0.1250000
[...]
     %                                                                      %
     % You are using vdW-DF, which was implemented by the Thonhauser group. %
     % Please cite the following two papers that made this development      %
     % possible and the two reviews that describe the various versions:     %
     %                                                                      %
     %   T. Thonhauser et al., PRL 115, 136402 (2015).                      %
     %   T. Thonhauser et al., PRB 76, 125112 (2007).                       %
     %   K. Berland et al., Rep. Prog. Phys. 78, 066501 (2015).             %
     %   D.C. Langreth et al., J. Phys.: Condens. Matter 21, 084203 (2009). %
     %                                                                      %
     %                                                                      %
     % If you are calculating the stress with vdW-DF, please also cite:     %
     %                                                                      %
     %   R. Sabatini et al., J. Phys.: Condens. Matter 24, 424209 (2012).   %
     %                                                                      %
     %%%%%%%%%%%%%%%%%%%%%%%%%%%%%%%%%%%%%%%%%%%%%%%%%%%%%%%%%%%%%%%%%%%%%%%%

     Adding external electric field

     Computed dipole along edir(3) :
        Dipole               -8.2222 Ry au,        -20.8988 Debye
        Dipole field         -0.0155 Ry au,

        Potential amp.        1.4384 Ry
        Total length         46.3494 bohr

[...]

     Starting wfcs are  300 atomic wfcs
  @ DRIVER MODE: Message from server: STATUS
  @ DRIVER MODE: Message from server: POSDATA
  @ DRIVER MODE: Reading and sharing cell
  @ DRIVER MODE: Reading and sharing positions
  @ DRIVER MODE: Received positions

     Self-consistent Calculation

     iteration #  1     ecut=    29.40 Ry     beta= 0.05
     Davidson diagonalization with overlap
     c_bands:  1 eigenvalues not converged
     c_bands:  1 eigenvalues not converged
     c_bands:  1 eigenvalues not converged
     c_bands:  1 eigenvalues not converged
     c_bands:  4 eigenvalues not converged
     c_bands:  1 eigenvalues not converged
     c_bands:  4 eigenvalues not converged
     c_bands:  2 eigenvalues not converged
     c_bands:  1 eigenvalues not converged
     c_bands:  1 eigenvalues not converged
     c_bands:  1 eigenvalues not converged
     c_bands:  1 eigenvalues not converged
     c_bands:  1 eigenvalues not converged
     c_bands:  1 eigenvalues not converged
     c_bands:  2 eigenvalues not converged
     c_bands:  1 eigenvalues not converged
     c_bands:  4 eigenvalues not converged
     c_bands:  2 eigenvalues not converged
     c_bands:  1 eigenvalues not converged
     c_bands:  1 eigenvalues not converged
     ethr =  1.00E-05,  avg # of iterations = 20.0

[...]

     total energy              =   -2607.57172177 Ry
     estimated scf accuracy    <    3675.59451593 Ry

     total magnetization       =     0.00 Bohr mag/cell
     absolute magnetization    =     0.03 Bohr mag/cell

[...]

     iteration #  3     ecut=    29.40 Ry     beta= 0.05
     Davidson diagonalization with overlap
     ethr =  1.00E-02,  avg # of iterations = 13.9

[...]

     iteration #188     ecut=    29.40 Ry     beta= 0.05
     Davidson diagonalization with overlap
     ethr =  1.87E-11,  avg # of iterations =  5.6

[...]

     total energy              =   -2940.35270348 Ry
     estimated scf accuracy    <       0.00000011 Ry

[...]

     iteration #189     ecut=    29.40 Ry     beta= 0.05
     Davidson diagonalization with overlap
     c_bands:  2 eigenvalues not converged
     c_bands:  2 eigenvalues not converged
     ethr =  1.87E-11,  avg # of iterations = 13.8

     negative rho (up, down):  8.753E-03 8.754E-03

[...]

     Adding external electric field

     Computed dipole along edir(3) :
        Dipole                0.7354 Ry au,          1.8691 Debye
        Dipole field          0.0014 Ry au,

        Potential amp.       -0.1286 Ry
        Total length         46.3494 bohr

     Magnetic moment per site  (integrated on atomic sphere of radius R)
     atom   1 (R=0.746)  charge=  8.1023  magn=  0.0093
     atom   2 (R=0.746)  charge=  8.0882  magn=  0.0003
     atom   3 (R=0.746)  charge=  5.0689  magn= -0.0006
     atom   4 (R=0.746)  charge=  5.1050  magn= -0.0001
     atom   5 (R=0.746)  charge=  5.0706  magn= -0.0001
     atom   6 (R=0.746)  charge=  5.0718  magn= -0.0001
     atom   7 (R=0.746)  charge=  8.0835  magn=  0.0002
     atom   8 (R=0.746)  charge=  8.0700  magn=  0.0015
     atom   9 (R=0.746)  charge=  5.0893  magn= -0.0000
     atom  10 (R=0.746)  charge=  5.0576  magn= -0.0001
     atom  11 (R=0.746)  charge=  5.0764  magn= -0.0000
     atom  12 (R=0.746)  charge=  5.0718  magn= -0.0000
     atom  13 (R=0.746)  charge=  8.0706  magn=  0.0001
     atom  14 (R=0.746)  charge=  8.0890  magn=  0.0000
     atom  15 (R=0.746)  charge=  5.0553  magn= -0.0000
     atom  16 (R=0.746)  charge=  5.0986  magn=  0.0000
     atom  17 (R=0.746)  charge=  5.0495  magn= -0.0000
     atom  18 (R=0.746)  charge=  5.0673  magn= -0.0000
     atom  19 (R=0.746)  charge=  8.1078  magn=  0.0000
     atom  20 (R=0.746)  charge=  8.0960  magn=  0.0000
     atom  21 (R=0.746)  charge=  4.9490  magn= -0.0003
     atom  22 (R=0.746)  charge=  5.0410  magn= -0.0000
     atom  23 (R=0.746)  charge=  5.0611  magn= -0.0012
     atom  24 (R=0.746)  charge=  5.0612  magn= -0.0012
     atom  25 (R=0.746)  charge=  8.1022  magn=  0.0092
     atom  26 (R=0.746)  charge=  8.0882  magn=  0.0003
     atom  27 (R=0.746)  charge=  5.0670  magn= -0.0007
     atom  28 (R=0.746)  charge=  5.1051  magn= -0.0001
     atom  29 (R=0.746)  charge=  5.0714  magn= -0.0001
     atom  30 (R=0.746)  charge=  5.0726  magn= -0.0001
     atom  31 (R=0.746)  charge=  8.0844  magn=  0.0002
     atom  32 (R=0.746)  charge=  8.0704  magn=  0.0014
     atom  33 (R=0.746)  charge=  5.0889  magn= -0.0000
     atom  34 (R=0.746)  charge=  5.0199  magn= -0.0001
     atom  35 (R=0.746)  charge=  5.0760  magn= -0.0000
     atom  36 (R=0.746)  charge=  5.0724  magn= -0.0000
     atom  37 (R=0.746)  charge=  8.0776  magn=  0.0002
     atom  38 (R=0.746)  charge=  8.0890  magn=  0.0000
     atom  39 (R=0.746)  charge=  5.0527  magn= -0.0000
     atom  40 (R=0.746)  charge=  5.0891  magn=  0.0000
     atom  41 (R=0.746)  charge=  5.0851  magn= -0.0000
     atom  42 (R=0.746)  charge=  5.0438  magn= -0.0000
     atom  43 (R=0.746)  charge=  8.1144  magn=  0.0000
     atom  44 (R=0.746)  charge=  8.1352  magn=  0.0001
     atom  45 (R=0.746)  charge=  4.9490  magn= -0.0002
     atom  46 (R=0.746)  charge=  5.0611  magn= -0.0012
     atom  47 (R=0.746)  charge=  5.0612  magn= -0.0012
     atom  48 (R=0.424)  charge=  1.3499  magn= -0.0000
     atom  49 (R=0.448)  charge=  0.8409  magn=  0.0000
     atom  50 (R=0.424)  charge=  0.4505  magn= -0.0000
     atom  51 (R=0.424)  charge=  0.4446  magn= -0.0000
     atom  52 (R=0.424)  charge=  0.4559  magn= -0.0000
     atom  53 (R=0.424)  charge=  1.3504  magn= -0.0000
     atom  54 (R=0.424)  charge=  0.4592  magn=  0.0000

     End of self-consistent calculation

 ------ SPIN UP ------------

          k = 0.0000 0.0000 0.0000 ( 18029 PWs)   bands (ev):

   -56.0319 -55.9980 -55.8048 -55.7659 -55.7267 -55.6922 -55.6641 -55.6399
   -55.6299 -55.6052 -55.5764 -55.4967 -55.2416 -54.9199 -54.8859 -54.7897
   -32.4934 -32.3468 -32.3268 -32.3028 -32.1943 -32.1884 -32.1666 -32.1292
   -32.1163 -32.0995 -32.0946 -32.0456 -32.0221 -31.9823 -31.9768 -31.9736
   -31.9430 -31.9314 -31.9205 -31.8977 -31.8875 -31.8699 -31.8653 -31.8597
   -31.8401 -31.8380 -31.8301 -31.8255 -31.8210 -31.8023 -31.7947 -31.7939
   -31.7766 -31.7524 -31.6929 -31.6655 -31.6172 -31.4681 -31.4650 -31.3230
   -31.2440 -31.2210 -31.2068 -31.1404 -31.0544 -30.9940 -30.9430 -30.9140
   -17.3092 -16.5594 -16.3681 -16.0782 -15.9277 -15.9082 -15.7889 -15.6915
   -15.6136 -15.5132 -15.4614 -15.4065 -15.3935 -15.3692 -15.3106 -15.2884
   -15.2473 -15.2296 -15.1871 -15.1764 -15.1306 -15.1072 -15.0858 -15.0520
   -14.9869 -14.9164 -14.9037 -14.7476 -14.6079 -14.4556 -13.4203 -13.3055
   -11.5453  -8.3288  -5.0083  -4.0016  -3.9461  -3.8765  -3.8427  -3.7744
    -3.6932  -3.4417  -3.4175  -3.3578  -3.0710  -3.0236  -2.9997  -2.9951
    -2.8972  -2.7581  -2.7270  -2.6672  -2.6612  -2.6405  -2.6208  -2.6038
    -2.5468  -2.4901  -2.4736  -2.4322  -2.2988  -2.2722  -2.2680  -2.2459
    -2.1753  -2.1666  -2.1020  -2.0846  -2.0617  -2.0432  -2.0061  -1.8735
    -1.8399  -1.7743  -1.6935  -1.6046  -1.5248  -1.4892  -1.4017  -1.3868
    -1.3355  -1.2610  -1.2518  -1.1790  -1.1461  -1.0709  -1.0449  -1.0075
    -0.8986  -0.8713  -0.8125  -0.7554  -0.7103  -0.6978  -0.6561  -0.6315
    -0.6262  -0.6116  -0.5986  -0.4039  -0.3737  -0.2316  -0.1857  -0.1614
    -0.1205  -0.0976  -0.0394  -0.0159  -0.0103   0.0299   0.0475   0.0899
     0.1458   0.1607   0.1865   0.2802   0.3124   0.3673   0.4938   0.5073
     0.5951   0.6623   0.7683   0.7810   0.8326   0.9637   1.0596   1.0816
     1.1029   1.3083   1.4131   1.6673   1.7094   3.0246   3.1649   3.2540
     3.3725   3.4939   3.5698   3.6025   3.7830   3.8204   3.8610   3.9293

[...]

          k =-0.0760-0.0000 0.0000 ( 17886 PWs)   bands (ev):

[...]

 ------ SPIN DOWN ----------

[...]

          k = 0.0380-0.0419 0.0000 ( 17876 PWs)   bands (ev):

[...]

          k =-0.0760-0.0839 0.0000 ( 17948 PWs)   bands (ev):

   -55.9983 -55.9961 -55.7926 -55.7778 -55.7102 -55.7028 -55.6484 -55.6450
   -55.6261 -55.6182 -55.5724 -55.5005 -55.2409 -54.9024 -54.9022 -54.7899
   -32.3021 -32.3008 -32.2933 -32.2912 -32.1542 -32.1420 -32.1192 -32.1168
   -32.0506 -32.0378 -32.0276 -32.0223 -32.0159 -32.0135 -31.9705 -31.9649
   -31.9560 -31.9439 -31.9134 -31.9016 -31.8895 -31.8852 -31.8813 -31.8797
   -31.8760 -31.8718 -31.8557 -31.8502 -31.8445 -31.8407 -31.8356 -31.8169
   -31.7979 -31.7945 -31.7653 -31.7068 -31.6072 -31.4704 -31.4643 -31.2568
   -31.2331 -31.2330 -31.1362 -31.1360 -31.0970 -31.0969 -31.0057 -30.9176
   -17.2902 -15.9766 -15.9482 -15.8413 -15.8220 -15.7331 -15.7198 -15.6054
   -15.5975 -15.5844 -15.5181 -15.4729 -15.4622 -15.3794 -15.3526 -15.3412
   -15.3167 -15.3069 -15.3004 -15.2895 -15.2770 -15.1973 -15.1921 -15.1898
   -15.1145 -15.0918 -14.9058 -14.8625 -14.6649 -14.6189 -13.4082 -13.4077
   -11.5489  -8.3087  -5.0145  -3.8975  -3.8388  -3.2787  -3.2426  -3.0267
    -3.0009  -2.9805  -2.9511  -2.7664  -2.7525  -2.7462  -2.7289  -2.7160
    -2.6788  -2.6598  -2.6469  -2.5810  -2.5716  -2.5509  -2.5460  -2.5361
    -2.5173  -2.5020  -2.4942  -2.4747  -2.4601  -2.4152  -2.3608  -2.3384
    -2.2879  -2.1940  -2.0874  -2.0437  -2.0298  -2.0218  -1.9988  -1.9896
    -1.9491  -1.9364  -1.8506  -1.6664  -1.6188  -1.5575  -1.5516  -1.5418
    -1.4833  -1.4280  -1.3848  -1.3096  -1.2452  -1.1922  -1.1631  -1.1389
    -1.1043  -1.0377  -0.9715  -0.9520  -0.9392  -0.9103  -0.9072  -0.8884
    -0.8106  -0.7268  -0.6860  -0.6555  -0.6331  -0.6193  -0.6038  -0.5808
    -0.4735  -0.4056  -0.3578  -0.3122  -0.2699  -0.2280  -0.1095  -0.0945
     0.0997   0.1659   0.1912   0.2698   0.3666   0.3917   0.4018   0.4670
     0.5423   0.6050   0.6396   0.6942   0.7094   0.7307   0.7977   1.0131
     1.0683   1.4770   1.4786   1.5276   1.5287   2.9884   3.6731   3.6829
     3.6860   3.6973   3.7152   3.7372   3.7913   3.8248   3.9266   3.9470

     the Fermi energy is     3.1347 ev

!    total energy              =   -2940.35270372 Ry
     estimated scf accuracy    <       0.00000007 Ry
     smearing contrib. (-TS)   =      -0.01867657 Ry
     internal energy E=F+TS    =   -2940.33402715 Ry

     The total energy is F=E-TS. E is the sum of the following terms:
     one-electron contribution =  -24661.61970997 Ry
     hartree contribution      =   12419.94048457 Ry
     xc contribution           =    -486.04621863 Ry
     ewald contribution        =    9787.39039636 Ry
     electric field correction =       0.00102051 Ry

     total magnetization       =     0.03 Bohr mag/cell
     absolute magnetization    =     0.04 Bohr mag/cell

     convergence has been achieved in 189 iterations

     Forces acting on atoms (cartesian axes, Ry/au):

     atom    1 type  1   force =     0.00023690   -0.00036303    0.10151874
     atom    2 type  1   force =     0.00001146   -0.00086290   -0.17141224
     atom    3 type  2   force =     0.00029212    0.00021834   -0.03324541
     atom    4 type  2   force =     0.00003242   -0.00078815    0.04482130
     atom    5 type  2   force =    -0.01194613   -0.00020990   -0.00232559
     atom    6 type  2   force =     0.01438035    0.00038402   -0.00112494
     atom    7 type  1   force =     0.00140248   -0.00131537   -0.00429675
     atom    8 type  1   force =    -0.00077086    0.02219926    0.05620108
     atom    9 type  2   force =     0.00002782   -0.00032648    0.00045929
     atom   10 type  2   force =    -0.00266478    0.00207174   -0.02594263
     atom   11 type  2   force =     0.00002667    0.00024948   -0.00006837
     atom   12 type  2   force =     0.00009542    0.00073755    0.00001094
     atom   13 type  1   force =    -0.00003383    0.00014477    0.00024492
     atom   14 type  1   force =     0.00028405    0.00030496   -0.00000028
     atom   15 type  2   force =     0.00019396   -0.00023759   -0.00002225
     atom   16 type  2   force =    -0.00002343   -0.00013450    0.00075999
     atom   17 type  2   force =    -0.00010655   -0.00077843    0.00002296
     atom   18 type  2   force =     0.00050005   -0.00072268    0.00028428
     atom   19 type  1   force =    -0.00011198   -0.00049879    0.00022807
     atom   20 type  1   force =    -0.00000109    0.00012233   -0.00018252
     atom   21 type  2   force =     0.00006398   -0.00000977    0.10213051
     atom   22 type  2   force =    -0.00000808   -0.00029969    0.00036054
     atom   23 type  2   force =    -0.07329272   -0.00015992   -0.02887995
     atom   24 type  2   force =     0.07324391    0.00033448   -0.02892774
     atom   25 type  1   force =    -0.00026839   -0.00029757    0.10194887
     atom   26 type  1   force =     0.00003267   -0.00020260   -0.17140803
     atom   27 type  2   force =     0.00036577   -0.00023005   -0.03195896
     atom   28 type  2   force =     0.00009307   -0.00057435    0.04544143
     atom   29 type  2   force =    -0.01209404    0.00212980   -0.00288177
     atom   30 type  2   force =     0.01440696    0.00229132   -0.00162317
     atom   31 type  1   force =     0.00158568    0.00092430   -0.00560374
     atom   32 type  1   force =    -0.00059684   -0.02476145    0.05723205
     atom   33 type  2   force =     0.00015006    0.00035983    0.00062021
     atom   34 type  2   force =    -0.00420673    0.00211993   -0.04832883
     atom   35 type  2   force =     0.00061736   -0.00058661    0.00000148
     atom   36 type  2   force =    -0.00039882   -0.00074953    0.00013072
     atom   37 type  1   force =     0.00006323    0.00062043   -0.00003231
     atom   38 type  1   force =     0.00003985   -0.00011923   -0.00013190
     atom   39 type  2   force =     0.00018714   -0.00002375   -0.00067669
     atom   40 type  2   force =    -0.00008576   -0.00003220   -0.00034796
     atom   41 type  2   force =     0.00006437    0.00048185   -0.00006170
     atom   42 type  2   force =     0.00000771    0.00037413    0.00070287
     atom   43 type  1   force =    -0.00023851   -0.00010031    0.00016439
     atom   44 type  1   force =    -0.00000396    0.00014176    0.00021193
     atom   45 type  2   force =     0.00004721   -0.00004941    0.10218971
     atom   46 type  2   force =    -0.07329804   -0.00009246   -0.02885059
     atom   47 type  2   force =     0.07325138    0.00028165   -0.02888838
     atom   48 type  3   force =    -0.00022488    0.00056814    0.00081002
     atom   49 type  4   force =    -0.00249930   -0.00700844    0.00381114
     atom   50 type  5   force =    -0.00040620   -0.00090684    0.00051609
     atom   51 type  5   force =     0.00177389    0.00649743   -0.00392389
     atom   52 type  5   force =    -0.00010260   -0.00022690   -0.00003631
     atom   53 type  3   force =    -0.00006561   -0.00047470    0.00073687
     atom   54 type  5   force =    -0.00002881   -0.00041388   -0.00037752

     Total force =     0.377975     Total SCF correction =     0.000590
  @ DRIVER MODE: Message from server: STATUS
  @ DRIVER MODE: Message from server: GETFORCE
  @ DRIVER MODE: Returning v,forces,stress,ensemble

     Writing output data file ./calc.save/
  @ DRIVER MODE: Message from server: EXIT
  @ DRIVE MODE: Exiting

     General routines

     Parallel routines

   This run was terminated on:   8:33:47  16Jul2021

   JOB DONE.