     Program PWSCF v.6.7GPU starts on 16Sep2021 at  5:44:23

     R & G space division:  proc/nbgrp/npool/nimage =      10
     Reading input from /storage/home/hcoda1/3/ntian30/research/carbon/CxH_vib/H2O_calc/ads_slab/CHN2HH2O_a/out_0046/pw.inp
Warning: card &CELL ignored
Warning: card   CELL_DYNAMICS='IPI', ignored
Warning: card / ignored

     Current dimensions of program PWSCF are:
     Max number of different atomic species (ntypx) = 10
     Max number of k-points (npk) =  40000
     Max angular momentum in pseudopotentials (lmaxx) =  3
     Presently no symmetry can be used with electric field

     Message from routine cell_base_init:
     DEPRECATED: use true lattice parameter, not A to a.u. conversion factor

     IMPORTANT: XC functional enforced from input :
     Exchange-correlation= BEEF-VDW
                           (   1   4  43  14   2   0   0)
     Any further DFT definition will be discarded
     Please, verify this is what you really want

  @ DRIVER MODE: Connecting to
 qe_1139763_2852626.sched-torque.pace.gatech.eduolqk5tic_scratch
  using UNIX socket
  @ DRIVER MODE: Message from server: STATUS
  @ DRIVER MODE: Message from server: INIT
  @ DRIVER MODE: Receiving replica           0          -1
  @ DRIVER MODE: Receiving encoded integer          25
  @ DRIVER MODE:  SCF:  T  FORCE:  T  STRESS:  F  VC:  F  ENSEMBLE:  F
  @ DRIVER MODE:  SCF:  T  FORCE:  T  STRESS:  F  VC:  F  ENSEMBLE:  F

     Using Slab Decomposition

     bravais-lattice index     =            0
     lattice parameter (alat)  =       1.8897  a.u.
     unit-cell volume          =    6658.9804 (a.u.)^3
     number of atoms/cell      =           55
     number of atomic types    =            5
     number of electrons       =       402.00
     number of Kohn-Sham states=          211
     kinetic-energy cutoff     =      29.3995  Ry
     charge density cutoff     =     293.9946  Ry
     scf convergence threshold =      7.3E-08
     mixing beta               =       0.0500
     number of iterations used =            8  plain     mixing
     Exchange-correlation= BEEF-VDW
                           (   1   4  43  14   2   0   0)

     celldm(1)=   1.889726  celldm(2)=   0.000000  celldm(3)=   0.000000
     celldm(4)=   0.000000  celldm(5)=   0.000000  celldm(6)=   0.000000

     crystal axes: (cart. coord. in units of alat)
               a(1) = (   6.579727   0.000000   0.000000 )
               a(2) = (  -0.000775   5.961596   0.000000 )
               a(3) = (   0.000000   0.000000  25.155947 )

     reciprocal axes: (cart. coord. in units 2 pi/alat)
               b(1) = (  0.151982  0.000020  0.000000 )
               b(2) = (  0.000000  0.167740  0.000000 )
               b(3) = (  0.000000  0.000000  0.039752 )

     PseudoPot. # 1 for Ti read from file:
     /storage/coda1/p-amedford6/0/shared/rich_project_chbe-medford/medford-share/data/pseudos_module/espresso/nninc/pbe/van/Ti.UPF
     MD5 check sum: 8e4df49b7f0d34bbd5052bf3f5ea0213
     Pseudo is Ultrasoft, Zval = 12.0
     Generated by new atomic code, or converted to UPF format
     Using radial grid of  851 points,  6 beta functions with:
                l(1) =   0
                l(2) =   0
                l(3) =   1
                l(4) =   1
                l(5) =   2
                l(6) =   2
     Q(r) pseudized with  8 coefficients,  rinner =    1.000   1.000   1.000
                                                       1.000   1.000

     PseudoPot. # 2 for O  read from file:
     /storage/coda1/p-amedford6/0/shared/rich_project_chbe-medford/medford-share/data/pseudos_module/espresso/nninc/pbe/van/O.UPF
     MD5 check sum: 78c19812648e8988a0fe644b0f25305e
     Pseudo is Ultrasoft, Zval =  6.0
     Generated by new atomic code, or converted to UPF format
     Using radial grid of  737 points,  4 beta functions with:
                l(1) =   0
                l(2) =   0
                l(3) =   1
                l(4) =   1
     Q(r) pseudized with  8 coefficients,  rinner =    0.800   0.800   0.800

     PseudoPot. # 3 for N  read from file:
     /storage/coda1/p-amedford6/0/shared/rich_project_chbe-medford/medford-share/data/pseudos_module/espresso/nninc/pbe/van/N.UPF
     MD5 check sum: 90d10febe142ad51ac9d5be1deb811c4
     Pseudo is Ultrasoft, Zval =  5.0
     Generated by new atomic code, or converted to UPF format
     Using radial grid of  729 points,  4 beta functions with:
                l(1) =   0
                l(2) =   0
                l(3) =   1
                l(4) =   1
     Q(r) pseudized with  8 coefficients,  rinner =    0.800   0.800   0.800

     PseudoPot. # 4 for C  read from file:
     /storage/coda1/p-amedford6/0/shared/rich_project_chbe-medford/medford-share/data/pseudos_module/espresso/nninc/pbe/van/C.UPF
     MD5 check sum: 1a69bf6b8db32088f5b2163dbdb77a27
     Pseudo is Ultrasoft, Zval =  4.0
     Generated by new atomic code, or converted to UPF format
     Using radial grid of  721 points,  4 beta functions with:
                l(1) =   0
                l(2) =   0
                l(3) =   1
                l(4) =   1
     Q(r) pseudized with  8 coefficients,  rinner =    0.800   0.800   0.800

     PseudoPot. # 5 for H  read from file:
     /storage/coda1/p-amedford6/0/shared/rich_project_chbe-medford/medford-share/data/pseudos_module/espresso/nninc/pbe/van/H.UPF
     MD5 check sum: b5ee9d7bfd3a09ee7748110bda690ff7
     Pseudo is Ultrasoft, Zval =  1.0
     Generated by new atomic code, or converted to UPF format
     Using radial grid of  615 points,  1 beta functions with:
                l(1) =   0
     Q(r) pseudized with  8 coefficients,  rinner =    0.800

     atomic species   valence    mass     pseudopotential
        Ti1           12.00    47.86700     Ti( 1.00)
        O1             6.00    15.99900     O ( 1.00)
        N1             5.00    14.00700     N ( 1.00)
        C1             4.00    12.01100     C ( 1.00)
        H1             1.00     1.00800     H ( 1.00)

     No symmetry found

   Cartesian axes

     site n.     atom                  positions (alat units)
         1           Ti1 tau(   1) = (   0.0004258   2.9801865   6.0000000  )
         2           Ti1 tau(   2) = (   3.2906075   1.4906267   6.0002472  )
         3           O1  tau(   3) = (   0.0006271   0.0005054   7.9858123  )
         4           O1  tau(   4) = (   3.2906025   0.0005020   7.3038282  )
         5           O1  tau(   5) = (   4.5942328   1.4918067   9.2879030  )
         6           O1  tau(   6) = (   1.9868534   1.4903216   9.2879459  )
         7           Ti1 tau(   7) = (   3.2907910   2.8959150   9.1758416  )
         8           Ti1 tau(   8) = (   0.0015273   1.4827037   9.2680791  )
         9           O1  tau(   9) = (   3.2768631   0.0039008  11.3091060  )
        10           O1  tau(  10) = (   0.0116148   5.9584955  10.6183126  )
        11           O1  tau(  11) = (   1.2710838   1.4709840  12.6395574  )
        12           O1  tau(  12) = (   5.2772223   1.5075092  12.6020671  )
        13           Ti1 tau(  13) = (   0.0276258   2.9086511  12.7028215  )
        14           Ti1 tau(  14) = (   3.3492493   1.4375301  12.4845766  )
        15           O1  tau(  15) = (   6.5006329   5.9509897  14.6081112  )
        16           O1  tau(  16) = (   3.3450391   0.0041935  13.9069437  )
        17           O1  tau(  17) = (   4.5555219   1.5659029  16.0522165  )
        18           O1  tau(  18) = (   1.9836904   1.4119734  15.8927236  )
        19           Ti1 tau(  19) = (   3.2827818   2.9316656  15.8555152  )
        20           Ti1 tau(  20) = (   6.5629331   1.3437128  15.9803530  )
        21           O1  tau(  21) = (   3.2904802   0.0005063   4.7018136  )
        22           O1  tau(  22) = (   6.5074089   5.9525318  17.1494500  )
        23           O1  tau(  23) = (   1.3043587   1.4918075   6.0039043  )
        24           O1  tau(  24) = (   5.2767064   1.4903225   6.0039473  )
        25           Ti1 tau(  25) = (   0.0000382   5.9609847   6.0000000  )
        26           Ti1 tau(  26) = (   3.2902200   4.4714249   6.0002472  )
        27           O1  tau(  27) = (   0.0002396   2.9813036   7.9858123  )
        28           O1  tau(  28) = (   3.2902150   2.9813002   7.3038282  )
        29           O1  tau(  29) = (   4.5938453   4.4726049   9.2879030  )
        30           O1  tau(  30) = (   1.9864658   4.4711199   9.2879459  )
        31           Ti1 tau(  31) = (   3.2891106   5.8743827   9.1763621  )
        32           Ti1 tau(  32) = (   0.0006254   4.4649316   9.2693709  )
        33           O1  tau(  33) = (   3.2854303   2.9668816  11.2996989  )
        34           O1  tau(  34) = (   0.0092240   2.9805883  10.6323155  )
        35           O1  tau(  35) = (   1.2743094   4.4851408  12.6236879  )
        36           O1  tau(  36) = (   5.2782958   4.4707264  12.5946799  )
        37           Ti1 tau(  37) = (   0.0481499   5.8920156  12.5607908  )
        38           Ti1 tau(  38) = (   3.3544845   4.3749597  12.5572158  )
        39           O1  tau(  39) = (   6.5410016   3.0017514  14.6365314  )
        40           O1  tau(  40) = (   3.2441134   3.0029108  13.8718978  )
        41           O1  tau(  41) = (   4.5385932   4.4028810  16.0550583  )
        42           O1  tau(  42) = (   1.9619458   4.5383001  15.8611175  )
        43           Ti1 tau(  43) = (   3.2178196   5.9097812  15.7399460  )
        44           Ti1 tau(  44) = (   6.5330930   4.4908980  15.8705378  )
        45           O1  tau(  45) = (   3.2900926   2.9813045   4.7018136  )
        46           O1  tau(  46) = (   1.3039711   4.4726057   6.0039043  )
        47           O1  tau(  47) = (   5.2763189   4.4711207   6.0039473  )
        48           N1  tau(  48) = (   1.2867840   3.0293760  18.3347772  )
        49           C1  tau(  49) = (   2.5003166   3.0326976  17.9707196  )
        50           H1  tau(  50) = (   3.2053588   3.1791635  18.8000936  )
        51           N1  tau(  51) = (   0.2138509   2.9871109  17.4421441  )
        52           H1  tau(  52) = (   5.9621615   2.9869774  18.0311354  )
        53           O1  tau(  53) = (   3.4290693   5.9360351  18.0748810  )
        54           H1  tau(  54) = (   4.3780305   0.1327944  18.2306609  )
        55           H1  tau(  55) = (   2.9458904   0.7345148  18.4607207  )

     number of k points=    10  Fermi-Dirac smearing, width (Ry)=  0.0073
                       cart. coord. in units 2pi/alat
        k(    1) = (   0.0000000   0.0000000   0.0000000), wk =   0.1250000
        k(    2) = (   0.0000000   0.0419351   0.0000000), wk =   0.2500000
        k(    3) = (   0.0000000  -0.0838702   0.0000000), wk =   0.1250000
        k(    4) = (   0.0379955   0.0000049   0.0000000), wk =   0.2500000
        k(    5) = (   0.0379955   0.0419400   0.0000000), wk =   0.2500000
        k(    6) = (   0.0379955  -0.0838652   0.0000000), wk =   0.2500000
        k(    7) = (   0.0379955  -0.0419301   0.0000000), wk =   0.2500000
        k(    8) = (  -0.0759910  -0.0000099   0.0000000), wk =   0.1250000
        k(    9) = (  -0.0759910   0.0419252   0.0000000), wk =   0.2500000
        k(   10) = (  -0.0759910  -0.0838800   0.0000000), wk =   0.1250000

     Initial potential from superposition of free atoms

     starting charge  385.99915, renormalised to  402.00000

     negative rho (up, down):  1.831E-02 0.000E+00

     %%%%%%%%%%%%%%%%%%%%%%%%%%%%%%%%%%%%%%%%%%%%%%%%%%%%%%%%%%%%%%%%%%%%%%%%
     %                                                                      %
     % You are using vdW-DF, which was implemented by the Thonhauser group. %
     % Please cite the following two papers that made this development      %
     % possible and the two reviews that describe the various versions:     %
     %                                                                      %
     %   T. Thonhauser et al., PRL 115, 136402 (2015).                      %
     %   T. Thonhauser et al., PRB 76, 125112 (2007).                       %
     %   K. Berland et al., Rep. Prog. Phys. 78, 066501 (2015).             %
     %   D.C. Langreth et al., J. Phys.: Condens. Matter 21, 084203 (2009). %
     %                                                                      %
     %                                                                      %
     % If you are calculating the stress with vdW-DF, please also cite:     %
     %                                                                      %
     %   R. Sabatini et al., J. Phys.: Condens. Matter 24, 424209 (2012).   %
     %                                                                      %
     %%%%%%%%%%%%%%%%%%%%%%%%%%%%%%%%%%%%%%%%%%%%%%%%%%%%%%%%%%%%%%%%%%%%%%%%

     Adding external electric field

     Computed dipole along edir(3) :
        Dipole              -11.0899 Ry au,        -28.1877 Debye
        Dipole field         -0.0209 Ry au,

        Potential amp.        1.9400 Ry
        Total length         46.3494 bohr

     Starting wfcs are  304 atomic wfcs
  @ DRIVER MODE: Message from server: STATUS
  @ DRIVER MODE: Message from server: POSDATA
  @ DRIVER MODE: Reading and sharing cell
  @ DRIVER MODE: Reading and sharing positions
  @ DRIVER MODE: Received positions

     Self-consistent Calculation

     iteration #  1     ecut=    29.40 Ry     beta= 0.05
     Davidson diagonalization with overlap
     c_bands:  5 eigenvalues not converged
     c_bands:  1 eigenvalues not converged
     c_bands:  3 eigenvalues not converged
     c_bands:  4 eigenvalues not converged
     c_bands:  1 eigenvalues not converged
     c_bands:  1 eigenvalues not converged
     c_bands:  1 eigenvalues not converged
     c_bands:  1 eigenvalues not converged
     ethr =  1.00E-05,  avg # of iterations = 28.9

[...]

     total energy              =   -2403.83507989 Ry
     estimated scf accuracy    <    6374.30619957 Ry

     iteration #  2     ecut=    29.40 Ry     beta= 0.05
     Davidson diagonalization with overlap
     ethr =  1.00E-02,  avg # of iterations = 25.2

[...]

     iteration # 47     ecut=    29.40 Ry     beta= 0.05
     Davidson diagonalization with overlap
     c_bands:  1 eigenvalues not converged
     ethr =  2.12E-06,  avg # of iterations =  7.6

[...]

     total energy              =   -2972.69106825 Ry
     estimated scf accuracy    <       0.00000010 Ry

     iteration # 82     ecut=    29.40 Ry     beta= 0.05
     Davidson diagonalization with overlap
     ethr =  2.53E-11,  avg # of iterations =  5.1

     negative rho (up, down):  1.793E-02 0.000E+00

     Adding external electric field

     Computed dipole along edir(3) :
        Dipole                0.3608 Ry au,          0.9171 Debye
        Dipole field          0.0007 Ry au,

        Potential amp.       -0.0631 Ry
        Total length         46.3494 bohr

     End of self-consistent calculation

          k = 0.0000 0.0000 0.0000 ( 18029 PWs)   bands (ev):

   -56.3442 -56.3104 -55.9421 -55.9084 -55.7538 -55.7173 -55.5618 -55.5563
   -55.5488 -55.5254 -55.5154 -55.4529 -55.2542 -55.2408 -55.1476 -55.1136
   -32.7976 -32.6368 -32.6099 -32.5024 -32.4215 -32.4172 -32.4095 -32.2427
   -32.1596 -32.1553 -32.0969 -32.0841 -32.0697 -32.0451 -32.0395 -31.9789
   -31.9765 -31.9682 -31.9349 -31.9111 -31.9104 -31.8677 -31.8527 -31.8436
   -31.8189 -31.7811 -31.7607 -31.7334 -31.7302 -31.7113 -31.7093 -31.7064
   -31.6909 -31.6711 -31.6543 -31.6404 -31.5522 -31.5463 -31.5133 -31.4994
   -31.4782 -31.4709 -31.4547 -31.4420 -31.3644 -31.3344 -31.2794 -31.1678
   -18.7022 -16.9419 -16.6610 -16.3489 -16.1468 -15.9639 -15.9000 -15.8419
   -15.7893 -15.6684 -15.6062 -15.5781 -15.5060 -15.4012 -15.3817 -15.3541
   -15.3034 -15.2857 -15.2690 -15.2398 -15.1862 -15.1517 -15.1344 -15.0584
   -15.0372 -15.0257 -14.9003 -14.8332 -14.8095 -14.7741 -14.5213 -13.6464
   -13.5334 -12.2841  -6.7296  -6.4771  -4.1627  -4.0820  -3.9076  -3.7730
    -3.6683  -3.6200  -3.4657  -3.4123  -3.3666  -3.2651  -3.1212  -3.0896
    -3.0169  -2.9665  -2.9227  -2.8654  -2.8057  -2.7611  -2.7193  -2.6358
    -2.6308  -2.6178  -2.6004  -2.5822  -2.5645  -2.4488  -2.3571  -2.3378
    -2.3159  -2.2733  -2.2541  -2.2416  -2.1916  -2.1619  -2.0784  -2.0692
    -2.0218  -1.9642  -1.9169  -1.8094  -1.7973  -1.7221  -1.7042  -1.6625
    -1.5301  -1.4070  -1.3765  -1.3238  -1.3091  -1.2262  -1.2060  -1.1774
    -1.0804  -1.0682  -1.0241  -1.0024  -0.8781  -0.8521  -0.8045  -0.7966
    -0.7661  -0.6682  -0.6328  -0.5206  -0.4768  -0.4316  -0.4224  -0.3477
    -0.3190  -0.2747  -0.2243  -0.1711  -0.1692  -0.1413  -0.0583  -0.0170
     0.0289   0.0780   0.1131   0.2010   0.2549   0.2916   0.3064   0.3944
     0.4370   0.4523   0.5176   0.5862   0.6375   0.7041   0.7474   0.8615
     0.8760   0.8932   0.9758   1.0981   1.4078   1.4291   1.4694   1.6572
     2.6466   2.8790   3.0000   3.1642   3.3093   3.3589   3.6293   3.6839
     3.7264   3.7594   3.8368

[...]

          k = 0.0380-0.0419 0.0000 ( 17876 PWs)   bands (ev):

[...]

          k =-0.0760-0.0000 0.0000 ( 17886 PWs)   bands (ev):

[...]

          k =-0.0760-0.0839 0.0000 ( 17948 PWs)   bands (ev):

   -56.3278 -56.3267 -55.9269 -55.9233 -55.7424 -55.7287 -55.5559 -55.5461
   -55.5395 -55.5346 -55.5304 -55.4514 -55.2554 -55.2418 -55.1306 -55.1305
   -32.6229 -32.6217 -32.6138 -32.6132 -32.4547 -32.4534 -32.2426 -32.2385
   -32.1322 -32.1289 -32.1194 -32.1121 -32.0427 -32.0326 -31.9705 -31.9605
   -31.9511 -31.9483 -31.8994 -31.8886 -31.8683 -31.8662 -31.8594 -31.8291
   -31.8132 -31.7822 -31.7758 -31.7596 -31.7567 -31.7484 -31.7476 -31.7321
   -31.7272 -31.7176 -31.7064 -31.6371 -31.6096 -31.5565 -31.5269 -31.5116
   -31.4755 -31.4676 -31.4676 -31.3606 -31.3604 -31.3358 -31.3221 -31.3219
   -18.6998 -16.9205 -16.0655 -16.0532 -15.9352 -15.9302 -15.7517 -15.7333
   -15.6993 -15.6739 -15.6371 -15.5507 -15.4862 -15.4788 -15.4719 -15.4080
   -15.3628 -15.3538 -15.3347 -15.3067 -15.2801 -15.2541 -15.1627 -15.1366
   -15.1325 -15.1030 -15.0215 -15.0090 -14.9489 -14.8123 -14.7393 -13.6365
   -13.6360 -12.3054  -6.7003  -6.4099  -3.9956  -3.8337  -3.2360  -3.1810
    -3.1761  -3.0668  -3.0401  -2.9658  -2.8690  -2.8510  -2.8374  -2.8035
    -2.7787  -2.7703  -2.7537  -2.7093  -2.6620  -2.6403  -2.6243  -2.6158
    -2.6107  -2.5969  -2.5669  -2.5381  -2.4800  -2.4707  -2.4378  -2.4189
    -2.3905  -2.3135  -2.3055  -2.2906  -2.2890  -2.2322  -2.1339  -2.1185
    -2.1097  -2.0666  -2.0018  -1.9318  -1.8435  -1.8019  -1.7359  -1.6798
    -1.6236  -1.5951  -1.5825  -1.4836  -1.4243  -1.4138  -1.3666  -1.3139
    -1.2345  -1.1986  -1.1610  -1.1497  -1.1372  -1.0964  -1.0432  -0.9861
    -0.8708  -0.8463  -0.8366  -0.7739  -0.7695  -0.7594  -0.6494  -0.6184
    -0.5683  -0.5428  -0.5232  -0.4843  -0.4561  -0.3810  -0.2900  -0.2427
    -0.1152  -0.0993  -0.0454   0.0020   0.0140   0.1055   0.1935   0.2175
     0.3564   0.3706   0.4031   0.5360   0.6055   0.6569   0.6740   0.7967
     0.8161   0.8517   1.0183   1.2624   1.2668   1.2857   1.2868   1.6072
     2.6233   3.4183   3.4206   3.4505   3.4526   3.6625   3.6760   3.7541
     3.7922   3.8837   3.9050

     the Fermi energy is     2.8204 ev

!    total energy              =   -2972.69107666 Ry
     estimated scf accuracy    <       0.00000004 Ry
     smearing contrib. (-TS)   =      -0.01344966 Ry
     internal energy E=F+TS    =   -2972.67762700 Ry

     The total energy is F=E-TS. E is the sum of the following terms:
     one-electron contribution =  -24586.65963924 Ry
     hartree contribution      =   12385.34412135 Ry
     xc contribution           =    -493.16762599 Ry
     ewald contribution        =    9721.80527120 Ry
     electric field correction =       0.00024567 Ry

     convergence has been achieved in  82 iterations

     Forces acting on atoms (cartesian axes, Ry/au):

     atom    1 type  1   force =    -0.00000915   -0.00028268    0.10606507
     atom    2 type  1   force =    -0.00022262   -0.00076696   -0.16691662
     atom    3 type  2   force =    -0.00002373   -0.00013705   -0.03890860
     atom    4 type  2   force =    -0.00009864   -0.00037711    0.03646665
     atom    5 type  2   force =    -0.00755253   -0.00013065   -0.00578199
     atom    6 type  2   force =     0.00856708    0.00077876   -0.00747076
     atom    7 type  1   force =    -0.00079301   -0.00146135    0.01974371
     atom    8 type  1   force =     0.00110286    0.01828138    0.06310901
     atom    9 type  2   force =    -0.00008715   -0.00020101    0.00031082
     atom   10 type  2   force =    -0.00265034    0.00203405   -0.04763066
     atom   11 type  2   force =    -0.00023320   -0.00001745    0.00011234
     atom   12 type  2   force =     0.00037953   -0.00013344    0.00007606
     atom   13 type  1   force =     0.00006188   -0.00010773   -0.00041124
     atom   14 type  1   force =    -0.00048971   -0.00000701    0.00005332
     atom   15 type  2   force =     0.00026169    0.00008612   -0.00030691
     atom   16 type  2   force =    -0.00011369   -0.00028229    0.00052232
     atom   17 type  2   force =     0.00006830   -0.00018180    0.00037786
     atom   18 type  2   force =     0.00011881    0.00011741   -0.00026594
     atom   19 type  1   force =     0.00003773    0.00006774    0.00117044
     atom   20 type  1   force =     0.00022225    0.00016710   -0.00000390
     atom   21 type  2   force =     0.00004968   -0.00001833    0.10088480
     atom   22 type  2   force =     0.00032235    0.00027565    0.00046529
     atom   23 type  2   force =    -0.07579626   -0.00011722   -0.02986261
     atom   24 type  2   force =     0.07568771    0.00033827   -0.02987300
     atom   25 type  1   force =     0.00020360   -0.00055740    0.10642413
     atom   26 type  1   force =    -0.00006767   -0.00026607   -0.16735206
     atom   27 type  2   force =    -0.00006361   -0.00031976   -0.03755985
     atom   28 type  2   force =     0.00007172   -0.00045678    0.03692646
     atom   29 type  2   force =    -0.00852375    0.00126116   -0.00517635
     atom   30 type  2   force =     0.00947829    0.00122242   -0.00689390
     atom   31 type  1   force =    -0.00129538   -0.00008215    0.02606490
     atom   32 type  1   force =     0.00115937   -0.02138228    0.06368339
     atom   33 type  2   force =    -0.00002591    0.00024761   -0.00007128
     atom   34 type  2   force =    -0.00008220    0.00090811   -0.05941812
     atom   35 type  2   force =    -0.00008772    0.00009200   -0.00013974
     atom   36 type  2   force =    -0.00010245    0.00036650   -0.00016032
     atom   37 type  1   force =     0.00002359   -0.00031687    0.00003223
     atom   38 type  1   force =    -0.00043046   -0.00008972   -0.00011389
     atom   39 type  2   force =    -0.00020879    0.00037983    0.00051004
     atom   40 type  2   force =     0.00045809    0.00013064   -0.00039834
     atom   41 type  2   force =    -0.00006657    0.00033379   -0.00006325
     atom   42 type  2   force =     0.00046683    0.00016015    0.00009558
     atom   43 type  1   force =    -0.00041978    0.00000820    0.00010141
     atom   44 type  1   force =     0.00043295    0.00014070   -0.00034268
     atom   45 type  2   force =     0.00002701   -0.00000072    0.10091673
     atom   46 type  2   force =    -0.07580560   -0.00010627   -0.02981890
     atom   47 type  2   force =     0.07567699    0.00032241   -0.02985582
     atom   48 type  3   force =    -0.00032373    0.00024106    0.00000500
     atom   49 type  4   force =     0.00109208    0.00082885    0.00093090
     atom   50 type  5   force =    -0.00032512   -0.00127036   -0.00023394
     atom   51 type  3   force =     0.00031713    0.00005297   -0.00015407
     atom   52 type  5   force =     0.00000927    0.00028933    0.00027853
     atom   53 type  2   force =    -0.00761379    0.01098141    0.00473285
     atom   54 type  5   force =     0.00011337   -0.00000636    0.00036042
     atom   55 type  5   force =     0.00710242   -0.01103680   -0.00523551

     Total force =     0.384092     Total SCF correction =     0.000443
  @ DRIVER MODE: Message from server: STATUS
  @ DRIVER MODE: Message from server: GETFORCE
  @ DRIVER MODE: Returning v,forces,stress,ensemble

     Writing output data file ./calc.save/
  @ DRIVER MODE: Message from server: EXIT
  @ DRIVE MODE: Exiting

     General routines

     Parallel routines

   This run was terminated on:   6: 5: 0  16Sep2021

   JOB DONE.