     Program PWSCF v.6.7GPU starts on 16Sep2021 at  5:26:59

     R & G space division:  proc/nbgrp/npool/nimage =      10
     Reading input from /storage/home/hcoda1/3/ntian30/research/carbon/CxH_vib/H2O_calc/ads_slab/CHN2HH2O_a/out_0045/pw.inp
Warning: card &CELL ignored
Warning: card   CELL_DYNAMICS='IPI', ignored
Warning: card / ignored

     Current dimensions of program PWSCF are:
     Max number of different atomic species (ntypx) = 10
     Max number of k-points (npk) =  40000
     Max angular momentum in pseudopotentials (lmaxx) =  3
     Presently no symmetry can be used with electric field

     Message from routine cell_base_init:
     DEPRECATED: use true lattice parameter, not A to a.u. conversion factor

     IMPORTANT: XC functional enforced from input :
     Exchange-correlation= BEEF-VDW
                           (   1   4  43  14   2   0   0)
     Any further DFT definition will be discarded
     Please, verify this is what you really want

  @ DRIVER MODE: Connecting to
 qe_1139763_2852626.sched-torque.pace.gatech.edujl0mwjl1_scratch
  using UNIX socket
  @ DRIVER MODE: Message from server: STATUS
  @ DRIVER MODE: Message from server: INIT
  @ DRIVER MODE: Receiving replica           0          -1
  @ DRIVER MODE: Receiving encoded integer          25
  @ DRIVER MODE:  SCF:  T  FORCE:  T  STRESS:  F  VC:  F  ENSEMBLE:  F
  @ DRIVER MODE:  SCF:  T  FORCE:  T  STRESS:  F  VC:  F  ENSEMBLE:  F

     Using Slab Decomposition

     bravais-lattice index     =            0
     lattice parameter (alat)  =       1.8897  a.u.
     unit-cell volume          =    6658.9804 (a.u.)^3
     number of atoms/cell      =           55
     number of atomic types    =            5
     number of electrons       =       402.00
     number of Kohn-Sham states=          211
     kinetic-energy cutoff     =      29.3995  Ry
     charge density cutoff     =     293.9946  Ry
     scf convergence threshold =      7.3E-08
     mixing beta               =       0.0500
     number of iterations used =            8  plain     mixing
     Exchange-correlation= BEEF-VDW
                           (   1   4  43  14   2   0   0)

     celldm(1)=   1.889726  celldm(2)=   0.000000  celldm(3)=   0.000000
     celldm(4)=   0.000000  celldm(5)=   0.000000  celldm(6)=   0.000000

     crystal axes: (cart. coord. in units of alat)
               a(1) = (   6.579727   0.000000   0.000000 )
               a(2) = (  -0.000775   5.961596   0.000000 )
               a(3) = (   0.000000   0.000000  25.155947 )

     reciprocal axes: (cart. coord. in units 2 pi/alat)
               b(1) = (  0.151982  0.000020  0.000000 )
               b(2) = (  0.000000  0.167740  0.000000 )
               b(3) = (  0.000000  0.000000  0.039752 )

     PseudoPot. # 1 for Ti read from file:
     /storage/coda1/p-amedford6/0/shared/rich_project_chbe-medford/medford-share/data/pseudos_module/espresso/nninc/pbe/van/Ti.UPF
     MD5 check sum: 8e4df49b7f0d34bbd5052bf3f5ea0213
     Pseudo is Ultrasoft, Zval = 12.0
     Generated by new atomic code, or converted to UPF format
     Using radial grid of  851 points,  6 beta functions with:
                l(1) =   0
                l(2) =   0
                l(3) =   1
                l(4) =   1
                l(5) =   2
                l(6) =   2
     Q(r) pseudized with  8 coefficients,  rinner =    1.000   1.000   1.000
                                                       1.000   1.000

     PseudoPot. # 2 for O  read from file:
     /storage/coda1/p-amedford6/0/shared/rich_project_chbe-medford/medford-share/data/pseudos_module/espresso/nninc/pbe/van/O.UPF
     MD5 check sum: 78c19812648e8988a0fe644b0f25305e
     Pseudo is Ultrasoft, Zval =  6.0
     Generated by new atomic code, or converted to UPF format
     Using radial grid of  737 points,  4 beta functions with:
                l(1) =   0
                l(2) =   0
                l(3) =   1
                l(4) =   1
     Q(r) pseudized with  8 coefficients,  rinner =    0.800   0.800   0.800

     PseudoPot. # 3 for N  read from file:
     /storage/coda1/p-amedford6/0/shared/rich_project_chbe-medford/medford-share/data/pseudos_module/espresso/nninc/pbe/van/N.UPF
     MD5 check sum: 90d10febe142ad51ac9d5be1deb811c4
     Pseudo is Ultrasoft, Zval =  5.0
     Generated by new atomic code, or converted to UPF format
     Using radial grid of  729 points,  4 beta functions with:
                l(1) =   0
                l(2) =   0
                l(3) =   1
                l(4) =   1
     Q(r) pseudized with  8 coefficients,  rinner =    0.800   0.800   0.800

     PseudoPot. # 4 for C  read from file:
     /storage/coda1/p-amedford6/0/shared/rich_project_chbe-medford/medford-share/data/pseudos_module/espresso/nninc/pbe/van/C.UPF
     MD5 check sum: 1a69bf6b8db32088f5b2163dbdb77a27
     Pseudo is Ultrasoft, Zval =  4.0
     Generated by new atomic code, or converted to UPF format
     Using radial grid of  721 points,  4 beta functions with:
                l(1) =   0
                l(2) =   0
                l(3) =   1
                l(4) =   1
     Q(r) pseudized with  8 coefficients,  rinner =    0.800   0.800   0.800

     PseudoPot. # 5 for H  read from file:
     /storage/coda1/p-amedford6/0/shared/rich_project_chbe-medford/medford-share/data/pseudos_module/espresso/nninc/pbe/van/H.UPF
     MD5 check sum: b5ee9d7bfd3a09ee7748110bda690ff7
     Pseudo is Ultrasoft, Zval =  1.0
     Generated by new atomic code, or converted to UPF format
     Using radial grid of  615 points,  1 beta functions with:
                l(1) =   0
     Q(r) pseudized with  8 coefficients,  rinner =    0.800

     atomic species   valence    mass     pseudopotential
        Ti1           12.00    47.86700     Ti( 1.00)
        O1             6.00    15.99900     O ( 1.00)
        N1             5.00    14.00700     N ( 1.00)
        C1             4.00    12.01100     C ( 1.00)
        H1             1.00     1.00800     H ( 1.00)

     No symmetry found

   Cartesian axes

     site n.     atom                  positions (alat units)
         1           Ti1 tau(   1) = (   0.0004258   2.9801865   6.0000000  )
         2           Ti1 tau(   2) = (   3.2906075   1.4906267   6.0002472  )
         3           O1  tau(   3) = (   0.0006271   0.0005054   7.9858123  )
         4           O1  tau(   4) = (   3.2906025   0.0005020   7.3038282  )
         5           O1  tau(   5) = (   4.5942328   1.4918067   9.2879030  )
         6           O1  tau(   6) = (   1.9868534   1.4903216   9.2879459  )
         7           Ti1 tau(   7) = (   3.2907910   2.8959150   9.1758416  )
         8           Ti1 tau(   8) = (   0.0015273   1.4827037   9.2680791  )
         9           O1  tau(   9) = (   3.2768631   0.0039008  11.3091060  )
        10           O1  tau(  10) = (   0.0116148   5.9584955  10.6183126  )
        11           O1  tau(  11) = (   1.2710838   1.4709840  12.6395574  )
        12           O1  tau(  12) = (   5.2772223   1.5075092  12.6020671  )
        13           Ti1 tau(  13) = (   0.0276258   2.9086511  12.7028215  )
        14           Ti1 tau(  14) = (   3.3492493   1.4375301  12.4845766  )
        15           O1  tau(  15) = (   6.5006329   5.9509897  14.6081112  )
        16           O1  tau(  16) = (   3.3450391   0.0041935  13.9069437  )
        17           O1  tau(  17) = (   4.5555219   1.5659029  16.0522165  )
        18           O1  tau(  18) = (   1.9836904   1.4119734  15.8927236  )
        19           Ti1 tau(  19) = (   3.2827818   2.9316656  15.8555152  )
        20           Ti1 tau(  20) = (   6.5629331   1.3437128  15.9803530  )
        21           O1  tau(  21) = (   3.2904802   0.0005063   4.7018136  )
        22           O1  tau(  22) = (   6.5074089   5.9525318  17.1494500  )
        23           O1  tau(  23) = (   1.3043587   1.4918075   6.0039043  )
        24           O1  tau(  24) = (   5.2767064   1.4903225   6.0039473  )
        25           Ti1 tau(  25) = (   0.0000382   5.9609847   6.0000000  )
        26           Ti1 tau(  26) = (   3.2902200   4.4714249   6.0002472  )
        27           O1  tau(  27) = (   0.0002396   2.9813036   7.9858123  )
        28           O1  tau(  28) = (   3.2902150   2.9813002   7.3038282  )
        29           O1  tau(  29) = (   4.5938453   4.4726049   9.2879030  )
        30           O1  tau(  30) = (   1.9864658   4.4711199   9.2879459  )
        31           Ti1 tau(  31) = (   3.2891106   5.8743827   9.1763621  )
        32           Ti1 tau(  32) = (   0.0006254   4.4649316   9.2693709  )
        33           O1  tau(  33) = (   3.2854303   2.9668816  11.2996989  )
        34           O1  tau(  34) = (   0.0092240   2.9805883  10.6323155  )
        35           O1  tau(  35) = (   1.2743094   4.4851408  12.6236879  )
        36           O1  tau(  36) = (   5.2782958   4.4707264  12.5946799  )
        37           Ti1 tau(  37) = (   0.0481499   5.8920156  12.5607908  )
        38           Ti1 tau(  38) = (   3.3544845   4.3749597  12.5572158  )
        39           O1  tau(  39) = (   6.5410016   3.0017514  14.6365314  )
        40           O1  tau(  40) = (   3.2441134   3.0029108  13.8718978  )
        41           O1  tau(  41) = (   4.5385932   4.4028810  16.0550583  )
        42           O1  tau(  42) = (   1.9619458   4.5383001  15.8611175  )
        43           Ti1 tau(  43) = (   3.2178196   5.9097812  15.7399460  )
        44           Ti1 tau(  44) = (   6.5330930   4.4908980  15.8705378  )
        45           O1  tau(  45) = (   3.2900926   2.9813045   4.7018136  )
        46           O1  tau(  46) = (   1.3039711   4.4726057   6.0039043  )
        47           O1  tau(  47) = (   5.2763189   4.4711207   6.0039473  )
        48           N1  tau(  48) = (   1.2867840   3.0293760  18.3347772  )
        49           C1  tau(  49) = (   2.5003166   3.0326976  17.9707196  )
        50           H1  tau(  50) = (   3.2053588   3.1791635  18.8000936  )
        51           N1  tau(  51) = (   0.2138509   2.9871109  17.4421441  )
        52           H1  tau(  52) = (   5.9621615   2.9869774  18.0311354  )
        53           O1  tau(  53) = (   3.4290693   5.9360351  18.0748810  )
        54           H1  tau(  54) = (   4.3780305   0.1327944  18.2306609  )
        55           H1  tau(  55) = (   2.9458904   0.7145148  18.4607207  )

     number of k points=    10  Fermi-Dirac smearing, width (Ry)=  0.0073
                       cart. coord. in units 2pi/alat
        k(    1) = (   0.0000000   0.0000000   0.0000000), wk =   0.1250000
        k(    2) = (   0.0000000   0.0419351   0.0000000), wk =   0.2500000
        k(    3) = (   0.0000000  -0.0838702   0.0000000), wk =   0.1250000
        k(    4) = (   0.0379955   0.0000049   0.0000000), wk =   0.2500000
        k(    5) = (   0.0379955   0.0419400   0.0000000), wk =   0.2500000
        k(    6) = (   0.0379955  -0.0838652   0.0000000), wk =   0.2500000
        k(    7) = (   0.0379955  -0.0419301   0.0000000), wk =   0.2500000
        k(    8) = (  -0.0759910  -0.0000099   0.0000000), wk =   0.1250000
        k(    9) = (  -0.0759910   0.0419252   0.0000000), wk =   0.2500000
        k(   10) = (  -0.0759910  -0.0838800   0.0000000), wk =   0.1250000

     Initial potential from superposition of free atoms

     starting charge  385.99915, renormalised to  402.00000

     negative rho (up, down):  1.831E-02 0.000E+00

     %%%%%%%%%%%%%%%%%%%%%%%%%%%%%%%%%%%%%%%%%%%%%%%%%%%%%%%%%%%%%%%%%%%%%%%%
     %                                                                      %
     % You are using vdW-DF, which was implemented by the Thonhauser group. %
     % Please cite the following two papers that made this development      %
     % possible and the two reviews that describe the various versions:     %
     %                                                                      %
     %   T. Thonhauser et al., PRL 115, 136402 (2015).                      %
     %   T. Thonhauser et al., PRB 76, 125112 (2007).                       %
     %   K. Berland et al., Rep. Prog. Phys. 78, 066501 (2015).             %
     %   D.C. Langreth et al., J. Phys.: Condens. Matter 21, 084203 (2009). %
     %                                                                      %
     %                                                                      %
     % If you are calculating the stress with vdW-DF, please also cite:     %
     %                                                                      %
     %   R. Sabatini et al., J. Phys.: Condens. Matter 24, 424209 (2012).   %
     %                                                                      %
     %%%%%%%%%%%%%%%%%%%%%%%%%%%%%%%%%%%%%%%%%%%%%%%%%%%%%%%%%%%%%%%%%%%%%%%%

     Adding external electric field

     Computed dipole along edir(3) :
        Dipole              -11.0899 Ry au,        -28.1877 Debye
        Dipole field         -0.0209 Ry au,

        Potential amp.        1.9400 Ry
        Total length         46.3494 bohr

     Starting wfcs are  304 atomic wfcs
  @ DRIVER MODE: Message from server: STATUS
  @ DRIVER MODE: Message from server: POSDATA
  @ DRIVER MODE: Reading and sharing cell
  @ DRIVER MODE: Reading and sharing positions
  @ DRIVER MODE: Received positions

     Self-consistent Calculation

     iteration #  1     ecut=    29.40 Ry     beta= 0.05
     Davidson diagonalization with overlap
     c_bands:  5 eigenvalues not converged
     c_bands:  1 eigenvalues not converged
     c_bands:  3 eigenvalues not converged
     c_bands:  4 eigenvalues not converged
     c_bands:  1 eigenvalues not converged
     c_bands:  1 eigenvalues not converged
     c_bands:  1 eigenvalues not converged
     c_bands:  1 eigenvalues not converged
     ethr =  1.00E-05,  avg # of iterations = 28.9

[...]

     total energy              =   -2403.80195664 Ry
     estimated scf accuracy    <    6374.27353233 Ry

     iteration #  2     ecut=    29.40 Ry     beta= 0.05
     Davidson diagonalization with overlap
     ethr =  1.00E-02,  avg # of iterations = 25.1

[...]

     iteration # 36     ecut=    29.40 Ry     beta= 0.05
     Davidson diagonalization with overlap
     c_bands:  1 eigenvalues not converged
     ethr =  5.33E-07,  avg # of iterations = 11.0

[...]

     total energy              =   -2972.69104387 Ry
     estimated scf accuracy    <       0.00000010 Ry

     iteration # 65     ecut=    29.40 Ry     beta= 0.05
     Davidson diagonalization with overlap
     ethr =  1.86E-11,  avg # of iterations =  5.5

     negative rho (up, down):  1.793E-02 0.000E+00

     Adding external electric field

     Computed dipole along edir(3) :
        Dipole                0.3636 Ry au,          0.9241 Debye
        Dipole field          0.0007 Ry au,

        Potential amp.       -0.0636 Ry
        Total length         46.3494 bohr

     End of self-consistent calculation

          k = 0.0000 0.0000 0.0000 ( 18029 PWs)   bands (ev):

   -56.3415 -56.3076 -55.9399 -55.9062 -55.7514 -55.7150 -55.5602 -55.5562
   -55.5468 -55.5235 -55.5134 -55.4512 -55.2531 -55.2393 -55.1452 -55.1112
   -32.7949 -32.6340 -32.6072 -32.4996 -32.4187 -32.4149 -32.4067 -32.2403
   -32.1573 -32.1531 -32.0947 -32.0819 -32.0677 -32.0429 -32.0374 -31.9786
   -31.9742 -31.9658 -31.9325 -31.9089 -31.9087 -31.8653 -31.8507 -31.8428
   -31.8184 -31.7805 -31.7586 -31.7314 -31.7283 -31.7092 -31.7073 -31.7044
   -31.6894 -31.6691 -31.6523 -31.6386 -31.5509 -31.5438 -31.5121 -31.4982
   -31.4758 -31.4697 -31.4523 -31.4406 -31.3620 -31.3327 -31.2770 -31.1654
   -18.7903 -16.9380 -16.6585 -16.3467 -16.1451 -15.9615 -15.8987 -15.8392
   -15.7867 -15.6659 -15.6044 -15.5756 -15.5037 -15.3986 -15.3791 -15.3524
   -15.3009 -15.2846 -15.2673 -15.2383 -15.1844 -15.1508 -15.1324 -15.0569
   -15.0354 -15.0232 -14.8995 -14.8315 -14.8074 -14.7723 -14.5208 -13.6438
   -13.5308 -12.2797  -6.7355  -6.5753  -4.1602  -4.0796  -3.9052  -3.7726
    -3.6661  -3.6178  -3.4631  -3.4111  -3.3640  -3.2659  -3.1190  -3.0871
    -3.0143  -2.9640  -2.9221  -2.8631  -2.8038  -2.7586  -2.7175  -2.6346
    -2.6291  -2.6174  -2.5987  -2.5796  -2.5626  -2.4476  -2.3554  -2.3388
    -2.3141  -2.2709  -2.2519  -2.2397  -2.1893  -2.1602  -2.0767  -2.0672
    -2.0205  -1.9622  -1.9157  -1.8076  -1.7959  -1.7202  -1.7017  -1.6600
    -1.5295  -1.4046  -1.3739  -1.3216  -1.3107  -1.2252  -1.2036  -1.1763
    -1.0784  -1.0659  -1.0220  -1.0002  -0.8758  -0.8501  -0.8020  -0.7947
    -0.7661  -0.6710  -0.6314  -0.5202  -0.4754  -0.4304  -0.4204  -0.3458
    -0.3171  -0.2726  -0.2223  -0.1696  -0.1675  -0.1394  -0.0570  -0.0152
     0.0306   0.0787   0.1150   0.2032   0.2566   0.2930   0.3076   0.3959
     0.4390   0.4541   0.5193   0.5881   0.6391   0.7056   0.7493   0.8633
     0.8787   0.8957   0.9772   1.1007   1.4097   1.4317   1.4721   1.6617
     2.6494   2.8817   3.0026   3.1665   3.3119   3.3613   3.6302   3.6859
     3.7286   3.7619   3.8357

[...]

          k = 0.0380-0.0419 0.0000 ( 17876 PWs)   bands (ev):

[...]

          k =-0.0760-0.0000 0.0000 ( 17886 PWs)   bands (ev):

[...]

          k =-0.0760-0.0839 0.0000 ( 17948 PWs)   bands (ev):

   -56.3250 -56.3239 -55.9247 -55.9211 -55.7400 -55.7263 -55.5560 -55.5442
   -55.5375 -55.5325 -55.5285 -55.4497 -55.2543 -55.2403 -55.1282 -55.1281
   -32.6201 -32.6189 -32.6110 -32.6104 -32.4519 -32.4506 -32.2403 -32.2362
   -32.1300 -32.1266 -32.1171 -32.1099 -32.0403 -32.0302 -31.9681 -31.9581
   -31.9487 -31.9460 -31.8977 -31.8881 -31.8662 -31.8643 -31.8580 -31.8277
   -31.8123 -31.7820 -31.7739 -31.7575 -31.7547 -31.7470 -31.7455 -31.7302
   -31.7252 -31.7157 -31.7047 -31.6353 -31.6082 -31.5551 -31.5256 -31.5105
   -31.4743 -31.4652 -31.4652 -31.3581 -31.3580 -31.3341 -31.3197 -31.3195
   -18.7880 -16.9164 -16.0629 -16.0505 -15.9327 -15.9277 -15.7492 -15.7307
   -15.6970 -15.6718 -15.6353 -15.5492 -15.4844 -15.4766 -15.4698 -15.4062
   -15.3610 -15.3517 -15.3327 -15.3048 -15.2789 -15.2529 -15.1607 -15.1347
   -15.1310 -15.1013 -15.0196 -15.0074 -14.9471 -14.8101 -14.7396 -13.6338
   -13.6333 -12.3010  -6.7326  -6.4815  -3.9928  -3.8295  -3.2334  -3.1912
    -3.1737  -3.0644  -3.0386  -2.9634  -2.8669  -2.8501  -2.8349  -2.8012
    -2.7762  -2.7678  -2.7518  -2.7073  -2.6596  -2.6378  -2.6221  -2.6136
    -2.6083  -2.5954  -2.5652  -2.5372  -2.4781  -2.4689  -2.4354  -2.4173
    -2.3892  -2.3126  -2.3039  -2.2881  -2.2867  -2.2316  -2.1318  -2.1161
    -2.1073  -2.0644  -2.0001  -1.9306  -1.8416  -1.8000  -1.7339  -1.6781
    -1.6214  -1.5930  -1.5805  -1.4814  -1.4220  -1.4117  -1.3645  -1.3118
    -1.2345  -1.1964  -1.1589  -1.1473  -1.1347  -1.0953  -1.0462  -0.9843
    -0.8694  -0.8456  -0.8347  -0.7715  -0.7672  -0.7572  -0.6481  -0.6177
    -0.5663  -0.5415  -0.5219  -0.4847  -0.4540  -0.3816  -0.2883  -0.2430
    -0.1141  -0.0979  -0.0435   0.0044   0.0163   0.1073   0.1960   0.2200
     0.3585   0.3726   0.4048   0.5372   0.6076   0.6579   0.6758   0.7985
     0.8179   0.8535   1.0204   1.2650   1.2694   1.2884   1.2895   1.6122
     2.6262   3.4209   3.4231   3.4531   3.4552   3.6649   3.6784   3.7564
     3.7940   3.8860   3.9240

     the Fermi energy is     2.8232 ev

!    total energy              =   -2972.69107772 Ry
     estimated scf accuracy    <       0.00000005 Ry
     smearing contrib. (-TS)   =      -0.01345933 Ry
     internal energy E=F+TS    =   -2972.67761839 Ry

     The total energy is F=E-TS. E is the sum of the following terms:
     one-electron contribution =  -24586.83008400 Ry
     hartree contribution      =   12385.44053730 Ry
     xc contribution           =    -493.18193487 Ry
     ewald contribution        =    9721.89361371 Ry
     electric field correction =       0.00024947 Ry

     convergence has been achieved in  65 iterations

     Forces acting on atoms (cartesian axes, Ry/au):

     atom    1 type  1   force =    -0.00001167   -0.00028594    0.10606952
     atom    2 type  1   force =    -0.00022157   -0.00076587   -0.16694151
     atom    3 type  2   force =    -0.00002417   -0.00013645   -0.03889249
     atom    4 type  2   force =    -0.00009969   -0.00037821    0.03649372
     atom    5 type  2   force =    -0.00756908   -0.00012771   -0.00577326
     atom    6 type  2   force =     0.00858198    0.00078030   -0.00745916
     atom    7 type  1   force =    -0.00079560   -0.00145597    0.01971984
     atom    8 type  1   force =     0.00110377    0.01827998    0.06308642
     atom    9 type  2   force =    -0.00008307   -0.00019519    0.00036499
     atom   10 type  2   force =    -0.00265095    0.00203151   -0.04758629
     atom   11 type  2   force =    -0.00023814   -0.00001294    0.00012010
     atom   12 type  2   force =     0.00037687   -0.00013313    0.00008550
     atom   13 type  1   force =     0.00006592   -0.00011032   -0.00045061
     atom   14 type  1   force =    -0.00049214    0.00002249    0.00000645
     atom   15 type  2   force =     0.00027199    0.00009968   -0.00029650
     atom   16 type  2   force =    -0.00013771   -0.00029882    0.00065113
     atom   17 type  2   force =     0.00006615   -0.00029058    0.00040503
     atom   18 type  2   force =     0.00014734    0.00004063   -0.00023748
     atom   19 type  1   force =     0.00004214    0.00007577    0.00124418
     atom   20 type  1   force =     0.00021765    0.00034524   -0.00006448
     atom   21 type  2   force =     0.00004557   -0.00001980    0.10090247
     atom   22 type  2   force =     0.00028645    0.00024254    0.00066927
     atom   23 type  2   force =    -0.07581720   -0.00011811   -0.02987014
     atom   24 type  2   force =     0.07570835    0.00033650   -0.02988011
     atom   25 type  1   force =     0.00020189   -0.00055818    0.10643285
     atom   26 type  1   force =    -0.00006879   -0.00026696   -0.16738159
     atom   27 type  2   force =    -0.00006191   -0.00031986   -0.03754695
     atom   28 type  2   force =     0.00007144   -0.00045880    0.03695121
     atom   29 type  2   force =    -0.00854053    0.00126258   -0.00516618
     atom   30 type  2   force =     0.00949562    0.00122559   -0.00688276
     atom   31 type  1   force =    -0.00129473   -0.00008070    0.02604389
     atom   32 type  1   force =     0.00115712   -0.02137906    0.06366583
     atom   33 type  2   force =    -0.00002276    0.00024551   -0.00001906
     atom   34 type  2   force =    -0.00008299    0.00090773   -0.05937796
     atom   35 type  2   force =    -0.00008860    0.00008822   -0.00012976
     atom   36 type  2   force =    -0.00010918    0.00036561   -0.00014884
     atom   37 type  1   force =     0.00002470   -0.00032185   -0.00000475
     atom   38 type  1   force =    -0.00043021   -0.00010625   -0.00017296
     atom   39 type  2   force =    -0.00020595    0.00038211    0.00052907
     atom   40 type  2   force =     0.00045289    0.00013103   -0.00039788
     atom   41 type  2   force =    -0.00006855    0.00039159   -0.00009128
     atom   42 type  2   force =     0.00049232    0.00022848    0.00008197
     atom   43 type  1   force =    -0.00042243   -0.00001586   -0.00032159
     atom   44 type  1   force =     0.00039954   -0.00005924   -0.00040179
     atom   45 type  2   force =     0.00002451   -0.00000336    0.10093670
     atom   46 type  2   force =    -0.07582838   -0.00010599   -0.02982383
     atom   47 type  2   force =     0.07569743    0.00032242   -0.02986177
     atom   48 type  3   force =     0.00022167    0.00025642    0.00004317
     atom   49 type  4   force =     0.00068102    0.00102953    0.00102780
     atom   50 type  5   force =    -0.00028647   -0.00143753   -0.00030392
     atom   51 type  3   force =     0.00006720    0.00006177   -0.00039338
     atom   52 type  5   force =    -0.00000518    0.00028180    0.00024366
     atom   53 type  2   force =     0.00700447   -0.01144438   -0.00684556
     atom   54 type  5   force =    -0.00063610    0.00024695    0.00052240
     atom   55 type  5   force =    -0.00661222    0.01120510    0.00642666

     Total force =     0.384179     Total SCF correction =     0.000766
  @ DRIVER MODE: Message from server: STATUS
  @ DRIVER MODE: Message from server: GETFORCE
  @ DRIVER MODE: Returning v,forces,stress,ensemble

     Writing output data file ./calc.save/
  @ DRIVER MODE: Message from server: EXIT
  @ DRIVE MODE: Exiting

     General routines

     Parallel routines

   This run was terminated on:   5:44:23  16Sep2021

   JOB DONE.