     Program PWSCF v.6.7GPU starts on 16Sep2021 at  5: 5:33

     R & G space division:  proc/nbgrp/npool/nimage =      10
     Reading input from /storage/home/hcoda1/3/ntian30/research/carbon/CxH_vib/H2O_calc/ads_slab/CH2NHH2O_a/out_0040/pw.inp
Warning: card &CELL ignored
Warning: card   CELL_DYNAMICS='IPI', ignored
Warning: card / ignored

     Current dimensions of program PWSCF are:
     Max number of different atomic species (ntypx) = 10
     Max number of k-points (npk) =  40000
     Max angular momentum in pseudopotentials (lmaxx) =  3
     Presently no symmetry can be used with electric field

     Message from routine cell_base_init:
     DEPRECATED: use true lattice parameter, not A to a.u. conversion factor

     IMPORTANT: XC functional enforced from input :
     Exchange-correlation= BEEF-VDW
                           (   1   4  43  14   2   0   0)
     Any further DFT definition will be discarded
     Please, verify this is what you really want

  @ DRIVER MODE: Connecting to
 qe_1139763_2852608.sched-torque.pace.gatech.edu2wj1bxwm_scratch
  using UNIX socket
  @ DRIVER MODE: Message from server: STATUS
  @ DRIVER MODE: Message from server: INIT
  @ DRIVER MODE: Receiving replica           0          -1
  @ DRIVER MODE: Receiving encoded integer          25
  @ DRIVER MODE:  SCF:  T  FORCE:  T  STRESS:  F  VC:  F  ENSEMBLE:  F
  @ DRIVER MODE:  SCF:  T  FORCE:  T  STRESS:  F  VC:  F  ENSEMBLE:  F

     Using Slab Decomposition

     bravais-lattice index     =            0
     lattice parameter (alat)  =       1.8897  a.u.
     unit-cell volume          =    6658.9804 (a.u.)^3
     number of atoms/cell      =           55
     number of atomic types    =            5
     number of electrons       =       398.00
     number of Kohn-Sham states=          209
     kinetic-energy cutoff     =      29.3995  Ry
     charge density cutoff     =     293.9946  Ry
     scf convergence threshold =      7.3E-08
     mixing beta               =       0.0500
     number of iterations used =            8  plain     mixing
     Exchange-correlation= BEEF-VDW
                           (   1   4  43  14   2   0   0)

     celldm(1)=   1.889726  celldm(2)=   0.000000  celldm(3)=   0.000000
     celldm(4)=   0.000000  celldm(5)=   0.000000  celldm(6)=   0.000000

     crystal axes: (cart. coord. in units of alat)
               a(1) = (   6.579727   0.000000   0.000000 )
               a(2) = (  -0.000775   5.961596   0.000000 )
               a(3) = (   0.000000   0.000000  25.155947 )

     reciprocal axes: (cart. coord. in units 2 pi/alat)
               b(1) = (  0.151982  0.000020  0.000000 )
               b(2) = (  0.000000  0.167740  0.000000 )
               b(3) = (  0.000000  0.000000  0.039752 )

     PseudoPot. # 1 for Ti read from file:
     /storage/coda1/p-amedford6/0/shared/rich_project_chbe-medford/medford-share/data/pseudos_module/espresso/nninc/pbe/van/Ti.UPF
     MD5 check sum: 8e4df49b7f0d34bbd5052bf3f5ea0213
     Pseudo is Ultrasoft, Zval = 12.0
     Generated by new atomic code, or converted to UPF format
     Using radial grid of  851 points,  6 beta functions with:
                l(1) =   0
                l(2) =   0
                l(3) =   1
                l(4) =   1
                l(5) =   2
                l(6) =   2
     Q(r) pseudized with  8 coefficients,  rinner =    1.000   1.000   1.000
                                                       1.000   1.000

     PseudoPot. # 2 for O  read from file:
     /storage/coda1/p-amedford6/0/shared/rich_project_chbe-medford/medford-share/data/pseudos_module/espresso/nninc/pbe/van/O.UPF
     MD5 check sum: 78c19812648e8988a0fe644b0f25305e
     Pseudo is Ultrasoft, Zval =  6.0
     Generated by new atomic code, or converted to UPF format
     Using radial grid of  737 points,  4 beta functions with:
                l(1) =   0
                l(2) =   0
                l(3) =   1
                l(4) =   1
     Q(r) pseudized with  8 coefficients,  rinner =    0.800   0.800   0.800

     PseudoPot. # 3 for N  read from file:
     /storage/coda1/p-amedford6/0/shared/rich_project_chbe-medford/medford-share/data/pseudos_module/espresso/nninc/pbe/van/N.UPF
     MD5 check sum: 90d10febe142ad51ac9d5be1deb811c4
     Pseudo is Ultrasoft, Zval =  5.0
     Generated by new atomic code, or converted to UPF format
     Using radial grid of  729 points,  4 beta functions with:
                l(1) =   0
                l(2) =   0
                l(3) =   1
                l(4) =   1
     Q(r) pseudized with  8 coefficients,  rinner =    0.800   0.800   0.800

     PseudoPot. # 4 for C  read from file:
     /storage/coda1/p-amedford6/0/shared/rich_project_chbe-medford/medford-share/data/pseudos_module/espresso/nninc/pbe/van/C.UPF
     MD5 check sum: 1a69bf6b8db32088f5b2163dbdb77a27
     Pseudo is Ultrasoft, Zval =  4.0
     Generated by new atomic code, or converted to UPF format
     Using radial grid of  721 points,  4 beta functions with:
                l(1) =   0
                l(2) =   0
                l(3) =   1
                l(4) =   1
     Q(r) pseudized with  8 coefficients,  rinner =    0.800   0.800   0.800

     PseudoPot. # 5 for H  read from file:
     /storage/coda1/p-amedford6/0/shared/rich_project_chbe-medford/medford-share/data/pseudos_module/espresso/nninc/pbe/van/H.UPF
     MD5 check sum: b5ee9d7bfd3a09ee7748110bda690ff7
     Pseudo is Ultrasoft, Zval =  1.0
     Generated by new atomic code, or converted to UPF format
     Using radial grid of  615 points,  1 beta functions with:
                l(1) =   0
     Q(r) pseudized with  8 coefficients,  rinner =    0.800

     atomic species   valence    mass     pseudopotential
        Ti1           12.00    47.86700     Ti( 1.00)
        O1             6.00    15.99900     O ( 1.00)
        N1             5.00    14.00700     N ( 1.00)
        C1             4.00    12.01100     C ( 1.00)
        H1             1.00     1.00800     H ( 1.00)

     No symmetry found

   Cartesian axes

     site n.     atom                  positions (alat units)
         1           Ti1 tau(   1) = (   0.0004258   2.9801865   6.0000000  )
         2           Ti1 tau(   2) = (   3.2906075   1.4906267   6.0002472  )
         3           O1  tau(   3) = (   0.0006271   0.0005054   7.9858123  )
         4           O1  tau(   4) = (   3.2906025   0.0005020   7.3038282  )
         5           O1  tau(   5) = (   4.5942328   1.4918067   9.2879030  )
         6           O1  tau(   6) = (   1.9868534   1.4903216   9.2879459  )
         7           Ti1 tau(   7) = (   3.2907910   2.8959150   9.1758416  )
         8           Ti1 tau(   8) = (   0.0015273   1.4827037   9.2680791  )
         9           O1  tau(   9) = (   3.2898722   0.0008919  11.3582996  )
        10           O1  tau(  10) = (   0.0116148   5.9584955  10.6183126  )
        11           O1  tau(  11) = (   1.2941175   1.4997011  12.6415926  )
        12           O1  tau(  12) = (   5.2900041   1.4988670  12.6311679  )
        13           Ti1 tau(  13) = (   0.0286627   2.9677426  12.5549903  )
        14           Ti1 tau(  14) = (   3.3305619   1.4761135  12.5169476  )
        15           O1  tau(  15) = (   0.0011522   0.0488603  14.6479508  )
        16           O1  tau(  16) = (   3.3026717   0.0283160  13.9913086  )
        17           O1  tau(  17) = (   4.5493611   1.5432082  16.1208237  )
        18           O1  tau(  18) = (   2.0202358   1.5417912  16.1150647  )
        19           Ti1 tau(  19) = (   3.2887705   3.0075965  15.7001020  )
        20           Ti1 tau(  20) = (   0.0091052   1.4341126  16.0176487  )
        21           O1  tau(  21) = (   3.2904802   0.0005063   4.7018136  )
        22           O1  tau(  22) = (   6.5755782   5.8726442  17.1894482  )
        23           O1  tau(  23) = (   1.3043587   1.4918075   6.0039043  )
        24           O1  tau(  24) = (   5.2767064   1.4903225   6.0039473  )
        25           Ti1 tau(  25) = (   0.0000382   5.9609847   6.0000000  )
        26           Ti1 tau(  26) = (   3.2902200   4.4714249   6.0002472  )
        27           O1  tau(  27) = (   0.0002396   2.9813036   7.9858123  )
        28           O1  tau(  28) = (   3.2902150   2.9813002   7.3038282  )
        29           O1  tau(  29) = (   4.5938453   4.4726049   9.2879030  )
        30           O1  tau(  30) = (   1.9864658   4.4711199   9.2879459  )
        31           Ti1 tau(  31) = (   3.2891106   5.8743827   9.1763621  )
        32           Ti1 tau(  32) = (   0.0006254   4.4649316   9.2693709  )
        33           O1  tau(  33) = (   3.2934734   2.9861727  11.3537610  )
        34           O1  tau(  34) = (   0.0092240   2.9805883  10.6323155  )
        35           O1  tau(  35) = (   1.2909626   4.4766429  12.6619247  )
        36           O1  tau(  36) = (   5.2900193   4.4803912  12.6490267  )
        37           Ti1 tau(  37) = (   0.0281377   5.9553508  12.5047683  )
        38           Ti1 tau(  38) = (   3.3302429   4.4653876  12.5079491  )
        39           O1  tau(  39) = (   6.5693844   2.9599090  14.8264494  )
        40           O1  tau(  40) = (   3.2969629   2.9925989  13.9157470  )
        41           O1  tau(  41) = (   4.5484520   4.4472025  16.1223275  )
        42           O1  tau(  42) = (   2.0280084   4.4594140  16.0867804  )
        43           Ti1 tau(  43) = (   3.2969344   0.0408593  15.8189202  )
        44           Ti1 tau(  44) = (   0.0203989   4.6198729  15.8219907  )
        45           O1  tau(  45) = (   3.2900926   2.9813045   4.7018136  )
        46           O1  tau(  46) = (   1.3039711   4.4726057   6.0039043  )
        47           O1  tau(  47) = (   5.2763189   4.4711207   6.0039473  )
        48           N1  tau(  48) = (   6.4956655   2.7544209  17.8339637  )
        49           C1  tau(  49) = (   0.7364952   2.7663736  18.8366375  )
        50           H1  tau(  50) = (   0.4484493   3.1383336  19.8159577  )
        51           H1  tau(  51) = (   1.7396475   2.3816028  18.7013769  )
        52           H1  tau(  52) = (   5.5670006   3.0916272  18.0761613  )
        53           O1  tau(  53) = (   3.3072362   0.1002980  18.2711691  )
        54           H1  tau(  54) = (   4.1501014   5.6186691  18.4387546  )
        55           H1  tau(  55) = (   2.5909652   5.4478326  18.5068232  )

     number of k points=    10  Fermi-Dirac smearing, width (Ry)=  0.0073
                       cart. coord. in units 2pi/alat
        k(    1) = (   0.0000000   0.0000000   0.0000000), wk =   0.1250000
        k(    2) = (   0.0000000   0.0419351   0.0000000), wk =   0.2500000
        k(    3) = (   0.0000000  -0.0838702   0.0000000), wk =   0.1250000
        k(    4) = (   0.0379955   0.0000049   0.0000000), wk =   0.2500000
        k(    5) = (   0.0379955   0.0419400   0.0000000), wk =   0.2500000
        k(    6) = (   0.0379955  -0.0838652   0.0000000), wk =   0.2500000
        k(    7) = (   0.0379955  -0.0419301   0.0000000), wk =   0.2500000
        k(    8) = (  -0.0759910  -0.0000099   0.0000000), wk =   0.1250000
        k(    9) = (  -0.0759910   0.0419252   0.0000000), wk =   0.2500000
        k(   10) = (  -0.0759910  -0.0838800   0.0000000), wk =   0.1250000

     Initial potential from superposition of free atoms

     starting charge  381.99915, renormalised to  398.00000

     negative rho (up, down):  1.643E-02 0.000E+00

     %%%%%%%%%%%%%%%%%%%%%%%%%%%%%%%%%%%%%%%%%%%%%%%%%%%%%%%%%%%%%%%%%%%%%%%%
     %                                                                      %
     % You are using vdW-DF, which was implemented by the Thonhauser group. %
     % Please cite the following two papers that made this development      %
     % possible and the two reviews that describe the various versions:     %
     %                                                                      %
     %   T. Thonhauser et al., PRL 115, 136402 (2015).                      %
     %   T. Thonhauser et al., PRB 76, 125112 (2007).                       %
     %   K. Berland et al., Rep. Prog. Phys. 78, 066501 (2015).             %
     %   D.C. Langreth et al., J. Phys.: Condens. Matter 21, 084203 (2009). %
     %                                                                      %
     %                                                                      %
     % If you are calculating the stress with vdW-DF, please also cite:     %
     %                                                                      %
     %   R. Sabatini et al., J. Phys.: Condens. Matter 24, 424209 (2012).   %
     %                                                                      %
     %%%%%%%%%%%%%%%%%%%%%%%%%%%%%%%%%%%%%%%%%%%%%%%%%%%%%%%%%%%%%%%%%%%%%%%%

     Adding external electric field

     Computed dipole along edir(3) :
        Dipole              -10.4007 Ry au,        -26.4360 Debye
        Dipole field         -0.0196 Ry au,

        Potential amp.        1.8194 Ry
        Total length         46.3494 bohr

     Starting wfcs are  301 atomic wfcs
  @ DRIVER MODE: Message from server: STATUS
  @ DRIVER MODE: Message from server: POSDATA
  @ DRIVER MODE: Reading and sharing cell
  @ DRIVER MODE: Reading and sharing positions
  @ DRIVER MODE: Received positions

     Self-consistent Calculation

     iteration #  1     ecut=    29.40 Ry     beta= 0.05
     Davidson diagonalization with overlap
     c_bands:  3 eigenvalues not converged
     c_bands:  3 eigenvalues not converged
     c_bands:  1 eigenvalues not converged
     c_bands:  4 eigenvalues not converged
     c_bands:  4 eigenvalues not converged
     c_bands:  4 eigenvalues not converged
     c_bands:  2 eigenvalues not converged
     c_bands:  3 eigenvalues not converged
     c_bands:  2 eigenvalues not converged
     ethr =  1.00E-05,  avg # of iterations = 19.9

[...]

     total energy              =   -2485.31174111 Ry
     estimated scf accuracy    <    5245.67539353 Ry

     iteration #  2     ecut=    29.40 Ry     beta= 0.05
     Davidson diagonalization with overlap
     ethr =  1.00E-02,  avg # of iterations = 23.7

[...]

     iteration # 78     ecut=    29.40 Ry     beta= 0.05
     Davidson diagonalization with overlap
     ethr =  5.29E-11,  avg # of iterations = 13.1

[...]

     total energy              =   -2953.94958973 Ry
     estimated scf accuracy    <       0.00000016 Ry

     iteration # 79     ecut=    29.40 Ry     beta= 0.05
     Davidson diagonalization with overlap
     c_bands:  2 eigenvalues not converged
     ethr =  3.98E-11,  avg # of iterations = 12.7

     negative rho (up, down):  1.568E-02 0.000E+00

     Adding external electric field

     Computed dipole along edir(3) :
        Dipole                1.2827 Ry au,          3.2602 Debye
        Dipole field          0.0024 Ry au,

        Potential amp.       -0.2244 Ry
        Total length         46.3494 bohr

     End of self-consistent calculation

          k = 0.0000 0.0000 0.0000 ( 18029 PWs)   bands (ev):

   -55.3917 -55.3719 -55.3556 -55.3390 -55.3378 -55.2719 -55.2273 -55.2071
   -55.1972 -55.1883 -55.1715 -55.1647 -55.1218 -54.9936 -54.3821 -54.3481
   -31.9519 -31.8612 -31.7598 -31.7454 -31.7000 -31.6971 -31.6956 -31.6620
   -31.6554 -31.6223 -31.6165 -31.6055 -31.5857 -31.5687 -31.5682 -31.5337
   -31.5311 -31.5246 -31.5103 -31.5074 -31.4827 -31.4553 -31.4523 -31.4351
   -31.4289 -31.4061 -31.4049 -31.4018 -31.4000 -31.3935 -31.3740 -31.3674
   -31.3613 -31.3569 -31.3474 -31.3304 -31.3283 -31.3218 -31.3045 -31.2935
   -31.2203 -31.1074 -30.7905 -30.6987 -30.6765 -30.6071 -30.5204 -30.4094
   -19.1839 -16.2515 -16.1573 -15.9140 -15.7330 -15.6443 -15.5825 -15.3931
   -15.3518 -15.2609 -15.1781 -15.0864 -15.0319 -14.9882 -14.9784 -14.9576
   -14.9318 -14.9218 -14.8840 -14.8692 -14.8675 -14.8208 -14.8186 -14.7799
   -14.7710 -14.7268 -14.7049 -14.5960 -14.5403 -14.4860 -14.0587 -12.8842
   -12.7672  -9.0945  -7.0272  -5.9819  -4.4629  -3.5491  -3.3946  -3.3885
    -3.3019  -3.2954  -3.2229  -3.1171  -2.9269  -2.7737  -2.6876  -2.6442
    -2.5928  -2.5685  -2.5097  -2.4557  -2.3609  -2.2895  -2.2595  -2.2266
    -2.2091  -2.1900  -2.1663  -2.1421  -2.1029  -2.0781  -2.0414  -1.9394
    -1.8530  -1.7997  -1.7849  -1.7145  -1.6916  -1.6858  -1.6775  -1.6678
    -1.6634  -1.6552  -1.6023  -1.5789  -1.5372  -1.4096  -1.3388  -1.2340
    -1.1216  -1.0711  -1.0306  -1.0121  -0.9246  -0.9189  -0.8640  -0.7876
    -0.7546  -0.7139  -0.7010  -0.5739  -0.4918  -0.4814  -0.4298  -0.3561
    -0.2980  -0.2573  -0.2011  -0.1766  -0.1541  -0.1373   0.0030   0.0355
     0.0790   0.1071   0.1358   0.2106   0.2474   0.3096   0.3573   0.3647
     0.4124   0.4989   0.5126   0.5623   0.5665   0.6113   0.6302   0.7260
     0.7608   0.7695   0.8353   0.8693   1.0119   1.2279   1.2353   1.2828
     1.5557   1.6175   1.6408   1.8277   2.2148   2.2621   3.7019   3.7929
     3.8318   3.8503   3.8633   3.9376   4.0767   4.1924   4.1968   4.2267
     4.2402

[...]

          k = 0.0380-0.0419 0.0000 ( 17876 PWs)   bands (ev):

[...]

          k =-0.0760-0.0000 0.0000 ( 17886 PWs)   bands (ev):

[...]

          k =-0.0760-0.0839 0.0000 ( 17948 PWs)   bands (ev):

   -55.3755 -55.3716 -55.3549 -55.3547 -55.3370 -55.2638 -55.2354 -55.1911
   -55.1901 -55.1860 -55.1818 -55.1813 -55.1194 -54.9959 -54.3651 -54.3650
   -31.7618 -31.7507 -31.6764 -31.6762 -31.6593 -31.6485 -31.6474 -31.6473
   -31.6200 -31.6083 -31.5899 -31.5858 -31.5783 -31.5595 -31.5401 -31.5256
   -31.5241 -31.5212 -31.5167 -31.5119 -31.5062 -31.4936 -31.4743 -31.4740
   -31.4679 -31.4664 -31.4646 -31.4344 -31.4234 -31.4158 -31.4055 -31.4015
   -31.4007 -31.4004 -31.3888 -31.3833 -31.3612 -31.3596 -31.3388 -31.2896
   -31.2237 -31.1931 -30.6892 -30.6891 -30.6032 -30.6030 -30.5638 -30.5638
   -19.1831 -16.1939 -15.6506 -15.5915 -15.5210 -15.3664 -15.3603 -15.3351
   -15.2733 -15.1748 -15.1614 -15.1293 -15.1217 -15.0871 -15.0756 -15.0553
   -15.0336 -14.9614 -14.9532 -14.9485 -14.9258 -14.8946 -14.8797 -14.8709
   -14.8490 -14.8444 -14.7887 -14.7419 -14.7389 -14.5475 -14.3541 -12.8689
   -12.8687  -9.0997  -7.0255  -5.9805  -4.4447  -3.3186  -2.9260  -2.7957
    -2.7432  -2.5940  -2.5670  -2.5195  -2.4622  -2.4020  -2.3748  -2.3560
    -2.3078  -2.3017  -2.2544  -2.2410  -2.2202  -2.2188  -2.2100  -2.1635
    -2.1467  -2.1392  -2.1202  -2.1052  -2.0942  -2.0750  -2.0469  -2.0375
    -2.0033  -1.9729  -1.9594  -1.9372  -1.8825  -1.7665  -1.7365  -1.6938
    -1.5827  -1.5749  -1.5688  -1.5273  -1.4809  -1.4755  -1.4471  -1.4176
    -1.3486  -1.3209  -1.1298  -1.1175  -1.1039  -1.0385  -1.0121  -0.9143
    -0.8956  -0.8286  -0.8111  -0.7961  -0.7097  -0.6783  -0.5733  -0.5648
    -0.5484  -0.5138  -0.4070  -0.3594  -0.3514  -0.3466  -0.3253  -0.2418
    -0.2271  -0.2093  -0.1751  -0.1471  -0.1138  -0.1004  -0.0166   0.1533
     0.1632   0.2508   0.3505   0.4448   0.5658   0.6366   0.6453   0.7003
     0.7433   0.8247   0.8683   0.9060   0.9254   1.0366   1.0686   1.0848
     1.0912   1.1468   2.0000   2.0013   2.0820   2.0822   3.7826   3.9322
     4.0012   4.0186   4.0585   4.1843   4.2234   4.2752   4.2769   4.2820
     4.3697

     the Fermi energy is     3.7477 ev

!    total energy              =   -2953.94960206 Ry
     estimated scf accuracy    <       0.00000007 Ry
     smearing contrib. (-TS)   =      -0.03631579 Ry
     internal energy E=F+TS    =   -2953.91328627 Ry

     The total energy is F=E-TS. E is the sum of the following terms:
     one-electron contribution =  -24165.77948581 Ry
     hartree contribution      =   12176.27654304 Ry
     xc contribution           =    -488.89787871 Ry
     ewald contribution        =    9524.48443047 Ry
     electric field correction =       0.00310474 Ry

     convergence has been achieved in  79 iterations

     Forces acting on atoms (cartesian axes, Ry/au):

     atom    1 type  1   force =     0.00005686   -0.00021413    0.09432307
     atom    2 type  1   force =    -0.00028872   -0.00032902   -0.17717590
     atom    3 type  2   force =     0.00001376   -0.00012782   -0.02177166
     atom    4 type  2   force =    -0.00002042   -0.00174833    0.05663692
     atom    5 type  2   force =    -0.01065622   -0.00110645    0.00626783
     atom    6 type  2   force =     0.01215538   -0.00036118    0.00531408
     atom    7 type  1   force =    -0.00069330    0.00164381   -0.01074736
     atom    8 type  1   force =     0.00018782    0.00660596    0.00671826
     atom    9 type  2   force =     0.00024991   -0.00040027   -0.00053470
     atom   10 type  2   force =    -0.00109429    0.00065366   -0.01010954
     atom   11 type  2   force =    -0.00026672   -0.00016160   -0.00021775
     atom   12 type  2   force =     0.00038108   -0.00023537    0.00001770
     atom   13 type  1   force =     0.00019443   -0.00050505    0.00119346
     atom   14 type  1   force =    -0.00008192    0.00039838    0.00041327
     atom   15 type  2   force =     0.00008529    0.00018359    0.00120946
     atom   16 type  2   force =    -0.00018002   -0.00065988    0.00024690
     atom   17 type  2   force =    -0.00005449   -0.00012003   -0.00018407
     atom   18 type  2   force =    -0.00104726    0.00000374    0.00044726
     atom   19 type  1   force =     0.00111457   -0.00031255   -0.00049465
     atom   20 type  1   force =    -0.00132490    0.00073738   -0.00060379
     atom   21 type  2   force =     0.00000345   -0.00004486    0.10368522
     atom   22 type  2   force =    -0.00005154    0.00055562    0.00070085
     atom   23 type  2   force =    -0.07087853   -0.00014753   -0.02714417
     atom   24 type  2   force =     0.07072418    0.00029203   -0.02721381
     atom   25 type  1   force =     0.00000423   -0.00013342    0.09408882
     atom   26 type  1   force =    -0.00022688   -0.00035870   -0.17732706
     atom   27 type  2   force =     0.00005387   -0.00032983   -0.02068460
     atom   28 type  2   force =     0.00005163   -0.00136709    0.05588790
     atom   29 type  2   force =    -0.01088933    0.00028799    0.00605206
     atom   30 type  2   force =     0.01229094    0.00054587    0.00509070
     atom   31 type  1   force =    -0.00057106    0.00495204   -0.01401487
     atom   32 type  1   force =     0.00030891   -0.00743368    0.00638908
     atom   33 type  2   force =     0.00025122    0.00013757   -0.00019847
     atom   34 type  2   force =    -0.00066753    0.00181850   -0.00594880
     atom   35 type  2   force =    -0.00001542   -0.00024513    0.00003400
     atom   36 type  2   force =     0.00024359   -0.00031871    0.00019369
     atom   37 type  1   force =     0.00022325    0.00090454    0.00049560
     atom   38 type  1   force =    -0.00009223    0.00005199    0.00066450
     atom   39 type  2   force =     0.00033927    0.00027881    0.00007119
     atom   40 type  2   force =    -0.00012060   -0.00036841    0.00056506
     atom   41 type  2   force =    -0.00059200   -0.00025845   -0.00047387
     atom   42 type  2   force =    -0.00027146    0.00012645    0.00036498
     atom   43 type  1   force =     0.00075251   -0.00149646   -0.00064806
     atom   44 type  1   force =    -0.00111077    0.00032271   -0.00156021
     atom   45 type  2   force =     0.00000495   -0.00009794    0.10365925
     atom   46 type  2   force =    -0.07090306   -0.00009395   -0.02715204
     atom   47 type  2   force =     0.07074824    0.00033507   -0.02720469
     atom   48 type  3   force =     0.00122463   -0.00040172    0.00016799
     atom   49 type  4   force =     0.00013731   -0.00036866    0.00003537
     atom   50 type  5   force =    -0.00007177   -0.00023285   -0.00020006
     atom   51 type  5   force =     0.00036544   -0.00032074   -0.00012947
     atom   52 type  5   force =    -0.00127352    0.00106699    0.00048326
     atom   53 type  2   force =    -0.00714997    0.00398219   -0.00131800
     atom   54 type  5   force =     0.00661814   -0.00446910    0.00186460
     atom   55 type  5   force =     0.00180902   -0.00111599   -0.00022478

     Total force =     0.365830     Total SCF correction =     0.000807
  @ DRIVER MODE: Message from server: STATUS
  @ DRIVER MODE: Message from server: GETFORCE
  @ DRIVER MODE: Returning v,forces,stress,ensemble

     Writing output data file ./calc.save/
  @ DRIVER MODE: Message from server: EXIT
  @ DRIVE MODE: Exiting

     General routines

     Parallel routines

   This run was terminated on:   5:26:22  16Sep2021

   JOB DONE.