     Program PWSCF v.6.7GPU starts on 20Sep2021 at  9:31:31

     R & G space division:  proc/nbgrp/npool/nimage =      10
     Reading input from /storage/home/hcoda1/3/ntian30/research/carbon/CxH_vib/CH3_calc/ads_slab/CH3O_a/out_0002/pw.inp
Warning: card &CELL ignored
Warning: card   CELL_DYNAMICS='IPI', ignored
Warning: card / ignored

     Current dimensions of program PWSCF are:
     Max number of different atomic species (ntypx) = 10
     Max number of k-points (npk) =  40000
     Max angular momentum in pseudopotentials (lmaxx) =  3
     Presently no symmetry can be used with electric field

     Message from routine cell_base_init:
     DEPRECATED: use true lattice parameter, not A to a.u. conversion factor

     IMPORTANT: XC functional enforced from input :
     Exchange-correlation= BEEF-VDW
                           (   1   4  43  14   2   0   0)
     Any further DFT definition will be discarded
     Please, verify this is what you really want

  @ DRIVER MODE: Connecting to
 qe_1139763_2907627.sched-torque.pace.gatech.edus14g_dno_scratch
  using UNIX socket
  @ DRIVER MODE: Message from server: STATUS
  @ DRIVER MODE: Message from server: INIT
  @ DRIVER MODE: Receiving replica           0          -1
  @ DRIVER MODE: Receiving encoded integer          25
  @ DRIVER MODE:  SCF:  T  FORCE:  T  STRESS:  F  VC:  F  ENSEMBLE:  F
  @ DRIVER MODE:  SCF:  T  FORCE:  T  STRESS:  F  VC:  F  ENSEMBLE:  F

     Using Slab Decomposition

     bravais-lattice index     =            0
     lattice parameter (alat)  =       1.8897  a.u.
     unit-cell volume          =    6658.9804 (a.u.)^3
     number of atoms/cell      =           52
     number of atomic types    =            4
     number of electrons       =       391.00
     number of Kohn-Sham states=          205
     kinetic-energy cutoff     =      29.3995  Ry
     charge density cutoff     =     293.9946  Ry
     scf convergence threshold =      7.3E-08
     mixing beta               =       0.0500
     number of iterations used =            8  plain     mixing
     Exchange-correlation= BEEF-VDW
                           (   1   4  43  14   2   0   0)

     celldm(1)=   1.889726  celldm(2)=   0.000000  celldm(3)=   0.000000
     celldm(4)=   0.000000  celldm(5)=   0.000000  celldm(6)=   0.000000

     crystal axes: (cart. coord. in units of alat)
               a(1) = (   6.579727   0.000000   0.000000 )
               a(2) = (  -0.000775   5.961596   0.000000 )
               a(3) = (   0.000000   0.000000  25.155947 )

     reciprocal axes: (cart. coord. in units 2 pi/alat)
               b(1) = (  0.151982  0.000020  0.000000 )
               b(2) = (  0.000000  0.167740  0.000000 )
               b(3) = (  0.000000  0.000000  0.039752 )

     PseudoPot. # 1 for Ti read from file:
     /storage/coda1/p-amedford6/0/shared/rich_project_chbe-medford/medford-share/data/pseudos_module/espresso/nninc/pbe/van/Ti.UPF
     MD5 check sum: 8e4df49b7f0d34bbd5052bf3f5ea0213
     Pseudo is Ultrasoft, Zval = 12.0
     Generated by new atomic code, or converted to UPF format
     Using radial grid of  851 points,  6 beta functions with:
                l(1) =   0
                l(2) =   0
                l(3) =   1
                l(4) =   1
                l(5) =   2
                l(6) =   2
     Q(r) pseudized with  8 coefficients,  rinner =    1.000   1.000   1.000
                                                       1.000   1.000

     PseudoPot. # 2 for O  read from file:
     /storage/coda1/p-amedford6/0/shared/rich_project_chbe-medford/medford-share/data/pseudos_module/espresso/nninc/pbe/van/O.UPF
     MD5 check sum: 78c19812648e8988a0fe644b0f25305e
     Pseudo is Ultrasoft, Zval =  6.0
     Generated by new atomic code, or converted to UPF format
     Using radial grid of  737 points,  4 beta functions with:
                l(1) =   0
                l(2) =   0
                l(3) =   1
                l(4) =   1
     Q(r) pseudized with  8 coefficients,  rinner =    0.800   0.800   0.800

     PseudoPot. # 3 for C  read from file:
     /storage/coda1/p-amedford6/0/shared/rich_project_chbe-medford/medford-share/data/pseudos_module/espresso/nninc/pbe/van/C.UPF
     MD5 check sum: 1a69bf6b8db32088f5b2163dbdb77a27
     Pseudo is Ultrasoft, Zval =  4.0
     Generated by new atomic code, or converted to UPF format
     Using radial grid of  721 points,  4 beta functions with:
                l(1) =   0
                l(2) =   0
                l(3) =   1
                l(4) =   1
     Q(r) pseudized with  8 coefficients,  rinner =    0.800   0.800   0.800

     PseudoPot. # 4 for H  read from file:
     /storage/coda1/p-amedford6/0/shared/rich_project_chbe-medford/medford-share/data/pseudos_module/espresso/nninc/pbe/van/H.UPF
     MD5 check sum: b5ee9d7bfd3a09ee7748110bda690ff7
     Pseudo is Ultrasoft, Zval =  1.0
     Generated by new atomic code, or converted to UPF format
     Using radial grid of  615 points,  1 beta functions with:
                l(1) =   0
     Q(r) pseudized with  8 coefficients,  rinner =    0.800

     atomic species   valence    mass     pseudopotential
        Ti1           12.00    47.86700     Ti( 1.00)
        O1             6.00    15.99900     O ( 1.00)
        C1             4.00    12.01100     C ( 1.00)
        H1             1.00     1.00800     H ( 1.00)

     No symmetry found

   Cartesian axes

     site n.     atom                  positions (alat units)
         1           Ti1 tau(   1) = (   0.0004258   2.9801865   6.0000000  )
         2           Ti1 tau(   2) = (   3.2906075   1.4906267   6.0002472  )
         3           O1  tau(   3) = (   0.0006271   0.0005054   7.9858123  )
         4           O1  tau(   4) = (   3.2906025   0.0005020   7.3038282  )
         5           O1  tau(   5) = (   4.5942328   1.4918067   9.2879030  )
         6           O1  tau(   6) = (   1.9868534   1.4903216   9.2879459  )
         7           Ti1 tau(   7) = (   3.3187032   3.0312427   9.1575206  )
         8           Ti1 tau(   8) = (   0.0282419   1.6147502   9.3704053  )
         9           O1  tau(   9) = (   3.3236385   0.0141534  11.3532293  )
        10           O1  tau(  10) = (   0.0104197   0.0125229  10.6127740  )
        11           O1  tau(  11) = (   1.3245732   1.5021988  12.6430083  )
        12           O1  tau(  12) = (   5.3244981   1.5061434  12.6562219  )
        13           Ti1 tau(  13) = (   0.0403031   3.0097444  12.8244759  )
        14           Ti1 tau(  14) = (   3.3296682   1.5108177  12.4986020  )
        15           O1  tau(  15) = (   0.0398480   0.0117783  14.7343716  )
        16           O1  tau(  16) = (   3.3300567   0.0146708  13.9469669  )
        17           O1  tau(  17) = (   4.5805658   1.5026465  16.1145873  )
        18           O1  tau(  18) = (   2.0880061   1.5021997  16.1152651  )
        19           Ti1 tau(  19) = (   3.3307167   2.9906167  15.7324548  )
        20           Ti1 tau(  20) = (   0.0579274   1.3843852  16.1188819  )
        21           O1  tau(  21) = (   3.2904802   0.0005063   4.7018136  )
        22           O1  tau(  22) = (   0.0436517   5.9586681  17.2572535  )
        23           O1  tau(  23) = (   1.3043587   1.4918075   6.0039043  )
        24           O1  tau(  24) = (   5.2767064   1.4903225   6.0039473  )
        25           Ti1 tau(  25) = (   0.0000382   5.9609847   6.0000000  )
        26           Ti1 tau(  26) = (   3.2902200   4.4714249   6.0002472  )
        27           O1  tau(  27) = (   0.0002396   2.9813036   7.9858123  )
        28           O1  tau(  28) = (   3.2902150   2.9813002   7.3038282  )
        29           O1  tau(  29) = (   4.5938453   4.4726049   9.2879030  )
        30           O1  tau(  30) = (   1.9864658   4.4711199   9.2879459  )
        31           Ti1 tau(  31) = (   3.3083866   0.0539517   9.1541167  )
        32           Ti1 tau(  32) = (   0.0315341   4.5377404   9.2709708  )
        33           O1  tau(  33) = (   3.3215087   2.9954721  11.3555336  )
        34           O1  tau(  34) = (   0.0112336   2.9957203  10.5730616  )
        35           O1  tau(  35) = (   1.3257220   4.4896437  12.6447561  )
        36           O1  tau(  36) = (   5.3225596   4.4851362  12.6583724  )
        37           Ti1 tau(  37) = (   0.0354833   0.0274604  12.5282598  )
        38           Ti1 tau(  38) = (   3.3297026   4.4921445  12.4963722  )
        39           O1  tau(  39) = (   0.0599690   3.0154325  14.7102929  )
        40           O1  tau(  40) = (   3.3251099   2.9889739  13.9402376  )
        41           O1  tau(  41) = (   4.5781535   4.4756942  16.0984728  )
        42           O1  tau(  42) = (   2.0867977   4.4764083  16.0997756  )
        43           Ti1 tau(  43) = (   3.3478802   0.0108728  15.7387323  )
        44           Ti1 tau(  44) = (   0.0598937   4.5429110  15.9843511  )
        45           O1  tau(  45) = (   3.2900926   2.9813045   4.7018136  )
        46           O1  tau(  46) = (   1.3039711   4.4726057   6.0039043  )
        47           O1  tau(  47) = (   5.2763189   4.4711207   6.0039473  )
        48           C1  tau(  48) = (   6.0796523   3.0631652  18.6664891  )
        49           O1  tau(  49) = (   0.0149881   2.9985468  17.3426271  )
        50           H1  tau(  50) = (   4.9903245   2.8753800  18.6581135  )
        51           H1  tau(  51) = (   6.5502243   2.3063723  19.2898855  )
        52           H1  tau(  52) = (   6.2508803   4.0560215  19.0798806  )

     number of k points=    10  Fermi-Dirac smearing, width (Ry)=  0.0073
                       cart. coord. in units 2pi/alat
        k(    1) = (   0.0000000   0.0000000   0.0000000), wk =   0.1250000
        k(    2) = (   0.0000000   0.0419351   0.0000000), wk =   0.2500000
        k(    3) = (   0.0000000  -0.0838702   0.0000000), wk =   0.1250000
        k(    4) = (   0.0379955   0.0000049   0.0000000), wk =   0.2500000
        k(    5) = (   0.0379955   0.0419400   0.0000000), wk =   0.2500000
        k(    6) = (   0.0379955  -0.0838652   0.0000000), wk =   0.2500000
        k(    7) = (   0.0379955  -0.0419301   0.0000000), wk =   0.2500000
        k(    8) = (  -0.0759910  -0.0000099   0.0000000), wk =   0.1250000
        k(    9) = (  -0.0759910   0.0419252   0.0000000), wk =   0.2500000
        k(   10) = (  -0.0759910  -0.0838800   0.0000000), wk =   0.1250000

     Initial potential from superposition of free atoms

     starting charge  374.99918, renormalised to  391.00000

     negative rho (up, down):  1.819E-02 0.000E+00

     %%%%%%%%%%%%%%%%%%%%%%%%%%%%%%%%%%%%%%%%%%%%%%%%%%%%%%%%%%%%%%%%%%%%%%%%
     %                                                                      %
     % You are using vdW-DF, which was implemented by the Thonhauser group. %
     % Please cite the following two papers that made this development      %
     % possible and the two reviews that describe the various versions:     %
     %                                                                      %
     %   T. Thonhauser et al., PRL 115, 136402 (2015).                      %
     %   T. Thonhauser et al., PRB 76, 125112 (2007).                       %
     %   K. Berland et al., Rep. Prog. Phys. 78, 066501 (2015).             %
     %   D.C. Langreth et al., J. Phys.: Condens. Matter 21, 084203 (2009). %
     %                                                                      %
     %                                                                      %
     % If you are calculating the stress with vdW-DF, please also cite:     %
     %                                                                      %
     %   R. Sabatini et al., J. Phys.: Condens. Matter 24, 424209 (2012).   %
     %                                                                      %
     %%%%%%%%%%%%%%%%%%%%%%%%%%%%%%%%%%%%%%%%%%%%%%%%%%%%%%%%%%%%%%%%%%%%%%%%

     Adding external electric field

     Computed dipole along edir(3) :
        Dipole               -5.5401 Ry au,        -14.0815 Debye
        Dipole field         -0.0105 Ry au,

        Potential amp.        0.9692 Ry
        Total length         46.3494 bohr

     Starting wfcs are  295 atomic wfcs
  @ DRIVER MODE: Message from server: STATUS
  @ DRIVER MODE: Message from server: POSDATA
  @ DRIVER MODE: Reading and sharing cell
  @ DRIVER MODE: Reading and sharing positions
  @ DRIVER MODE: Received positions

     Self-consistent Calculation

     iteration #  1     ecut=    29.40 Ry     beta= 0.05
     Davidson diagonalization with overlap
     c_bands:  3 eigenvalues not converged
     c_bands:  2 eigenvalues not converged
     c_bands:  3 eigenvalues not converged
     c_bands:  2 eigenvalues not converged
     c_bands:  3 eigenvalues not converged
     c_bands:  2 eigenvalues not converged
     c_bands:  1 eigenvalues not converged
     c_bands:  1 eigenvalues not converged
     c_bands:  2 eigenvalues not converged
     ethr =  1.00E-05,  avg # of iterations = 19.7

[...]

     total energy              =   -2791.64369536 Ry
     estimated scf accuracy    <    1532.09109622 Ry

     iteration #  2     ecut=    29.40 Ry     beta= 0.05
     Davidson diagonalization with overlap
     ethr =  1.00E-02,  avg # of iterations = 17.9

[...]

     iteration # 64     ecut=    29.40 Ry     beta= 0.05
     Davidson diagonalization with overlap
     c_bands:  1 eigenvalues not converged
     ethr =  3.00E-11,  avg # of iterations = 14.2

[...]

     total energy              =   -2931.50266744 Ry
     estimated scf accuracy    <       0.00000027 Ry

     iteration # 65     ecut=    29.40 Ry     beta= 0.05
     Davidson diagonalization with overlap
     ethr =  3.00E-11,  avg # of iterations = 10.6

     negative rho (up, down):  1.842E-02 0.000E+00

     Adding external electric field

     Computed dipole along edir(3) :
        Dipole                0.7512 Ry au,          1.9095 Debye
        Dipole field          0.0014 Ry au,

        Potential amp.       -0.1314 Ry
        Total length         46.3494 bohr

     End of self-consistent calculation

          k = 0.0000 0.0000 0.0000 ( 18029 PWs)   bands (ev):

   -55.9557 -55.9409 -55.9191 -55.9048 -55.8404 -55.8366 -55.8144 -55.7850
   -55.7803 -55.7298 -55.7208 -55.7144 -55.6804 -55.5974 -54.9690 -54.9349
   -32.5066 -32.4231 -32.3522 -32.2988 -32.2730 -32.2537 -32.2466 -32.2240
   -32.1929 -32.1802 -32.1598 -32.1544 -32.1513 -32.1215 -32.1164 -32.0943
   -32.0892 -32.0868 -32.0711 -32.0460 -32.0450 -32.0212 -32.0150 -31.9972
   -31.9969 -31.9961 -31.9675 -31.9671 -31.9547 -31.9451 -31.9385 -31.9361
   -31.9282 -31.9163 -31.8908 -31.8879 -31.8792 -31.8579 -31.8220 -31.8166
   -31.7940 -31.7860 -31.3790 -31.2816 -31.2592 -31.1956 -31.1096 -30.9984
   -17.7025 -16.6838 -16.3979 -16.2343 -16.1019 -16.0659 -15.9623 -15.7782
   -15.6396 -15.6222 -15.5581 -15.5188 -15.5032 -15.4775 -15.4737 -15.4607
   -15.4570 -15.4088 -15.3732 -15.3720 -15.3569 -15.3345 -15.2735 -15.2323
   -15.1497 -15.0968 -15.0724 -15.0175 -14.9553 -14.9364 -13.4700 -13.3517
    -9.4869  -4.4061  -4.1733  -4.0420  -3.8710  -3.8568  -3.8391  -3.8048
    -3.7548  -3.5040  -3.4895  -3.1701  -3.1106  -3.0864  -3.0725  -3.0661
    -2.8283  -2.8089  -2.7803  -2.7699  -2.7617  -2.7324  -2.7038  -2.6951
    -2.6720  -2.6553  -2.5532  -2.4820  -2.4720  -2.3630  -2.3175  -2.3063
    -2.2559  -2.2177  -2.2098  -2.1897  -2.1655  -2.1485  -2.1206  -2.1173
    -2.0207  -1.8915  -1.7865  -1.7567  -1.7153  -1.6556  -1.4489  -1.4039
    -1.3687  -1.3556  -1.2982  -1.2655  -1.2549  -1.1814  -1.1453  -1.1277
    -1.0209  -0.9608  -0.9366  -0.9082  -0.8459  -0.8104  -0.7624  -0.6915
    -0.6727  -0.6577  -0.4449  -0.4197  -0.4139  -0.4027  -0.2909  -0.2391
    -0.1835  -0.1721  -0.1598  -0.1284  -0.0571   0.0075   0.0192   0.0406
     0.0739   0.1004   0.1812   0.2011   0.2295   0.2538   0.2882   0.3741
     0.4223   0.5623   0.6914   0.7182   0.8157   0.9571   1.0550   1.1278
     1.2254   1.6447   1.7048   3.2298   3.2491   3.2939   3.3236   3.3819
     3.5031   3.6226   3.6579   3.6926   3.7148

[...]

          k = 0.0380-0.0419 0.0000 ( 17876 PWs)   bands (ev):

[...]

          k =-0.0760-0.0000 0.0000 ( 17886 PWs)   bands (ev):

[...]

          k =-0.0760-0.0839 0.0000 ( 17948 PWs)   bands (ev):

   -55.9442 -55.9305 -55.9230 -55.9224 -55.8352 -55.8337 -55.7978 -55.7970
   -55.7901 -55.7270 -55.7234 -55.7006 -55.6945 -55.5995 -54.9525 -54.9513
   -32.3107 -32.3062 -32.2519 -32.2467 -32.2358 -32.2320 -32.2143 -32.2086
   -32.2050 -32.1625 -32.1413 -32.1344 -32.1307 -32.0933 -32.0842 -32.0790
   -32.0709 -32.0672 -32.0643 -32.0619 -32.0519 -32.0397 -32.0356 -32.0299
   -32.0217 -32.0171 -32.0139 -32.0011 -31.9965 -31.9949 -31.9703 -31.9527
   -31.9505 -31.9471 -31.9413 -31.9239 -31.9214 -31.9100 -31.9043 -31.8924
   -31.8297 -31.7941 -31.2726 -31.2712 -31.1924 -31.1915 -31.1532 -31.1521
   -17.6660 -16.1242 -16.1081 -15.8745 -15.8686 -15.8642 -15.7949 -15.7098
   -15.6901 -15.6745 -15.6688 -15.6133 -15.5990 -15.5880 -15.5268 -15.4892
   -15.4631 -15.4552 -15.4516 -15.4030 -15.3990 -15.3458 -15.3277 -15.3134
   -15.3022 -15.2864 -15.2789 -15.1829 -15.1815 -15.1116 -13.4541 -13.4519
    -9.4876  -4.2760  -4.1424  -3.8520  -3.4142  -3.3964  -3.1157  -3.0830
    -3.0795  -2.9906  -2.9048  -2.8624  -2.8263  -2.7941  -2.7899  -2.7879
    -2.7674  -2.7384  -2.7346  -2.7135  -2.6942  -2.6828  -2.6286  -2.5926
    -2.5847  -2.5822  -2.5713  -2.5405  -2.5262  -2.5046  -2.4959  -2.4861
    -2.4652  -2.3663  -2.2384  -2.2058  -2.0932  -2.0855  -2.0488  -2.0356
    -2.0079  -1.9987  -1.9797  -1.8696  -1.8062  -1.6786  -1.6749  -1.6560
    -1.5983  -1.5294  -1.4580  -1.3881  -1.3674  -1.3521  -1.2529  -1.2423
    -1.1734  -1.1538  -1.0957  -1.0656  -1.0546  -0.9543  -0.9209  -0.9064
    -0.8932  -0.8158  -0.8019  -0.7801  -0.7506  -0.6901  -0.6792  -0.6098
    -0.5749  -0.5308  -0.4672  -0.4431  -0.3945  -0.3056  -0.1304  -0.0489
     0.0538   0.0969   0.1558   0.1686   0.2610   0.3048   0.3205   0.3273
     0.4181   0.4840   0.5079   0.5706   0.5839   0.6098   0.6717   1.4147
     1.4165   1.5073   1.5175   3.4379   3.4685   3.4826   3.5308   3.6899
     3.6950   3.7149   3.7199   3.7936   3.8558

     the Fermi energy is     3.1994 ev

!    total energy              =   -2931.50269133 Ry
     estimated scf accuracy    <       0.00000003 Ry
     smearing contrib. (-TS)   =      -0.02313085 Ry
     internal energy E=F+TS    =   -2931.47956048 Ry

     The total energy is F=E-TS. E is the sum of the following terms:
     one-electron contribution =  -24510.28472017 Ry
     hartree contribution      =   12340.12402050 Ry
     xc contribution           =    -482.05283161 Ry
     ewald contribution        =    9720.73290578 Ry
     electric field correction =       0.00106503 Ry

     convergence has been achieved in  65 iterations

     Forces acting on atoms (cartesian axes, Ry/au):

     atom    1 type  1   force =    -0.00013526   -0.00171912    0.10700630
     atom    2 type  1   force =    -0.00041283    0.00039033   -0.17995990
     atom    3 type  2   force =     0.00029817   -0.00715077   -0.03303963
     atom    4 type  2   force =     0.00067544    0.00052201    0.04595466
     atom    5 type  2   force =    -0.01814898    0.00043895    0.00392135
     atom    6 type  2   force =     0.02137169   -0.00104336    0.00544180
     atom    7 type  1   force =    -0.00015306   -0.00030325   -0.00014954
     atom    8 type  1   force =    -0.00008776   -0.00030661   -0.00176470
     atom    9 type  2   force =    -0.00030502   -0.00017894    0.00032426
     atom   10 type  2   force =    -0.00014335   -0.00052617    0.00015764
     atom   11 type  2   force =    -0.00034861    0.00014213    0.00060387
     atom   12 type  2   force =    -0.00018049    0.00021622    0.00021460
     atom   13 type  1   force =    -0.00018004   -0.00038906   -0.00105792
     atom   14 type  1   force =     0.00029051    0.00022257   -0.00047171
     atom   15 type  2   force =    -0.00010981    0.00016810   -0.00108888
     atom   16 type  2   force =    -0.00039921   -0.00027361   -0.00089536
     atom   17 type  2   force =    -0.00121960    0.00044404   -0.00081125
     atom   18 type  2   force =     0.00011473    0.00020929   -0.00080818
     atom   19 type  1   force =    -0.00000963   -0.00003597    0.00031291
     atom   20 type  1   force =    -0.00084553   -0.00106753    0.00095104
     atom   21 type  2   force =    -0.00005789    0.00009499    0.10423623
     atom   22 type  2   force =     0.00013096    0.00027396   -0.00086531
     atom   23 type  2   force =    -0.06895708    0.00066616   -0.02968875
     atom   24 type  2   force =     0.06866529    0.00113867   -0.02974514
     atom   25 type  1   force =    -0.00011655    0.00160002    0.11781174
     atom   26 type  1   force =    -0.00016068    0.00003022   -0.18000453
     atom   27 type  2   force =     0.00043671    0.00401532   -0.02692986
     atom   28 type  2   force =     0.00078198    0.00082775    0.04757830
     atom   29 type  2   force =    -0.01696903    0.00166836    0.00319188
     atom   30 type  2   force =     0.01945565    0.00119088    0.00454222
     atom   31 type  1   force =    -0.00025202    0.00053589   -0.00020048
     atom   32 type  1   force =    -0.00001628    0.00019180   -0.00096564
     atom   33 type  2   force =    -0.00030492   -0.00006770   -0.00005935
     atom   34 type  2   force =    -0.00012589    0.00070349    0.00049620
     atom   35 type  2   force =    -0.00031154   -0.00002536    0.00014096
     atom   36 type  2   force =    -0.00020192   -0.00003353   -0.00021123
     atom   37 type  1   force =    -0.00011864    0.00061903    0.00079877
     atom   38 type  1   force =     0.00020108   -0.00030566   -0.00047244
     atom   39 type  2   force =    -0.00030596   -0.00021626    0.00049058
     atom   40 type  2   force =    -0.00034640    0.00023826   -0.00037948
     atom   41 type  2   force =    -0.00073117   -0.00009058   -0.00047708
     atom   42 type  2   force =     0.00031101    0.00013894   -0.00062956
     atom   43 type  1   force =    -0.00010073    0.00021178    0.00062872
     atom   44 type  1   force =    -0.00075220    0.00085869    0.00114022
     atom   45 type  2   force =    -0.00006294    0.00006285    0.10426832
     atom   46 type  2   force =    -0.06850531   -0.00129391   -0.02971862
     atom   47 type  2   force =     0.06831966   -0.00085560   -0.02979634
     atom   48 type  3   force =    -0.01890671   -0.00112813   -0.00247580
     atom   49 type  2   force =     0.00161926    0.00021937   -0.00089207
     atom   50 type  4   force =     0.01051486    0.00131328    0.00063941
     atom   51 type  4   force =     0.00407892   -0.00372916    0.00178083
     atom   52 type  4   force =     0.00271713    0.00138695    0.00092597

     Total force =     0.377593     Total SCF correction =     0.000520
  @ DRIVER MODE: Message from server: STATUS
  @ DRIVER MODE: Message from server: GETFORCE
  @ DRIVER MODE: Returning v,forces,stress,ensemble

     Writing output data file ./calc.save/
  @ DRIVER MODE: Message from server: EXIT
  @ DRIVE MODE: Exiting

     General routines

     Parallel routines

   This run was terminated on:   9:48:51  20Sep2021

   JOB DONE.