     Program PWSCF v.6.7GPU starts on  8Sep2021 at 23:26:22

     R & G space division:  proc/nbgrp/npool/nimage =      10
     Reading input from /storage/home/hcoda1/3/ntian30/research/carbon/CxH_vib/CH2_calc/ads_slab/CH2NNHH_a/out_0005/pw.inp
Warning: card &CELL ignored
Warning: card   CELL_DYNAMICS='IPI', ignored
Warning: card / ignored

     Current dimensions of program PWSCF are:
     Max number of different atomic species (ntypx) = 10
     Max number of k-points (npk) =  40000
     Max angular momentum in pseudopotentials (lmaxx) =  3
     Presently no symmetry can be used with electric field

     Message from routine cell_base_init:
     DEPRECATED: use true lattice parameter, not A to a.u. conversion factor

     IMPORTANT: XC functional enforced from input :
     Exchange-correlation= BEEF-VDW
                           (   1   4  43  14   2   0   0)
     Any further DFT definition will be discarded
     Please, verify this is what you really want

  @ DRIVER MODE: Connecting to
 qe_1139763_2767391.sched-torque.pace.gatech.edu6usbdv2z_scratch
  using UNIX socket
  @ DRIVER MODE: Message from server: STATUS
  @ DRIVER MODE: Message from server: INIT
  @ DRIVER MODE: Receiving replica           0          -1
  @ DRIVER MODE: Receiving encoded integer          25
  @ DRIVER MODE:  SCF:  T  FORCE:  T  STRESS:  F  VC:  F  ENSEMBLE:  F
  @ DRIVER MODE:  SCF:  T  FORCE:  T  STRESS:  F  VC:  F  ENSEMBLE:  F

     Using Slab Decomposition

     bravais-lattice index     =            0
     lattice parameter (alat)  =       1.8897  a.u.
     unit-cell volume          =    6658.9804 (a.u.)^3
     number of atoms/cell      =           54
     number of atomic types    =            5
     number of electrons       =       396.00
     number of Kohn-Sham states=          208
     kinetic-energy cutoff     =      29.3995  Ry
     charge density cutoff     =     293.9946  Ry
     scf convergence threshold =      7.3E-08
     mixing beta               =       0.0500
     number of iterations used =            8  plain     mixing
     Exchange-correlation= BEEF-VDW
                           (   1   4  43  14   2   0   0)

     celldm(1)=   1.889726  celldm(2)=   0.000000  celldm(3)=   0.000000
     celldm(4)=   0.000000  celldm(5)=   0.000000  celldm(6)=   0.000000

     crystal axes: (cart. coord. in units of alat)
               a(1) = (   6.579727   0.000000   0.000000 )
               a(2) = (  -0.000775   5.961596   0.000000 )
               a(3) = (   0.000000   0.000000  25.155947 )

     reciprocal axes: (cart. coord. in units 2 pi/alat)
               b(1) = (  0.151982  0.000020  0.000000 )
               b(2) = (  0.000000  0.167740  0.000000 )
               b(3) = (  0.000000  0.000000  0.039752 )

     PseudoPot. # 1 for Ti read from file:
     /storage/coda1/p-amedford6/0/shared/rich_project_chbe-medford/medford-share/data/pseudos_module/espresso/nninc/pbe/van/Ti.UPF
     MD5 check sum: 8e4df49b7f0d34bbd5052bf3f5ea0213
     Pseudo is Ultrasoft, Zval = 12.0
     Generated by new atomic code, or converted to UPF format
     Using radial grid of  851 points,  6 beta functions with:
                l(1) =   0
                l(2) =   0
                l(3) =   1
                l(4) =   1
                l(5) =   2
                l(6) =   2
     Q(r) pseudized with  8 coefficients,  rinner =    1.000   1.000   1.000
                                                       1.000   1.000

     PseudoPot. # 2 for O  read from file:
     /storage/coda1/p-amedford6/0/shared/rich_project_chbe-medford/medford-share/data/pseudos_module/espresso/nninc/pbe/van/O.UPF
     MD5 check sum: 78c19812648e8988a0fe644b0f25305e
     Pseudo is Ultrasoft, Zval =  6.0
     Generated by new atomic code, or converted to UPF format
     Using radial grid of  737 points,  4 beta functions with:
                l(1) =   0
                l(2) =   0
                l(3) =   1
                l(4) =   1
     Q(r) pseudized with  8 coefficients,  rinner =    0.800   0.800   0.800

     PseudoPot. # 3 for N  read from file:
     /storage/coda1/p-amedford6/0/shared/rich_project_chbe-medford/medford-share/data/pseudos_module/espresso/nninc/pbe/van/N.UPF
     MD5 check sum: 90d10febe142ad51ac9d5be1deb811c4
     Pseudo is Ultrasoft, Zval =  5.0
     Generated by new atomic code, or converted to UPF format
     Using radial grid of  729 points,  4 beta functions with:
                l(1) =   0
                l(2) =   0
                l(3) =   1
                l(4) =   1
     Q(r) pseudized with  8 coefficients,  rinner =    0.800   0.800   0.800

     PseudoPot. # 4 for C  read from file:
     /storage/coda1/p-amedford6/0/shared/rich_project_chbe-medford/medford-share/data/pseudos_module/espresso/nninc/pbe/van/C.UPF
     MD5 check sum: 1a69bf6b8db32088f5b2163dbdb77a27
     Pseudo is Ultrasoft, Zval =  4.0
     Generated by new atomic code, or converted to UPF format
     Using radial grid of  721 points,  4 beta functions with:
                l(1) =   0
                l(2) =   0
                l(3) =   1
                l(4) =   1
     Q(r) pseudized with  8 coefficients,  rinner =    0.800   0.800   0.800

     PseudoPot. # 5 for H  read from file:
     /storage/coda1/p-amedford6/0/shared/rich_project_chbe-medford/medford-share/data/pseudos_module/espresso/nninc/pbe/van/H.UPF
     MD5 check sum: b5ee9d7bfd3a09ee7748110bda690ff7
     Pseudo is Ultrasoft, Zval =  1.0
     Generated by new atomic code, or converted to UPF format
     Using radial grid of  615 points,  1 beta functions with:
                l(1) =   0
     Q(r) pseudized with  8 coefficients,  rinner =    0.800

     atomic species   valence    mass     pseudopotential
        Ti1           12.00    47.86700     Ti( 1.00)
        O1             6.00    15.99900     O ( 1.00)
        N1             5.00    14.00700     N ( 1.00)
        C1             4.00    12.01100     C ( 1.00)
        H1             1.00     1.00800     H ( 1.00)

     No symmetry found

   Cartesian axes

     site n.     atom                  positions (alat units)
         1           Ti1 tau(   1) = (   0.0004258   2.9801865   6.0000000  )
         2           Ti1 tau(   2) = (   3.2906075   1.4906267   6.0002472  )
         3           O1  tau(   3) = (   0.0006271   0.0005054   7.9858123  )
         4           O1  tau(   4) = (   3.2906025   0.0005020   7.3038282  )
         5           O1  tau(   5) = (   4.5942328   1.4918067   9.2879030  )
         6           O1  tau(   6) = (   1.9868534   1.4903216   9.2879459  )
         7           Ti1 tau(   7) = (   3.2907910   2.8959150   9.1758416  )
         8           Ti1 tau(   8) = (   0.0015273   1.4827037   9.2680791  )
         9           O1  tau(   9) = (   3.2741875   5.9357071  11.3735532  )
        10           O1  tau(  10) = (   0.0116148   5.9584955  10.6183126  )
        11           O1  tau(  11) = (   1.2759687   1.4857368  12.6615302  )
        12           O1  tau(  12) = (   5.2764777   1.4850508  12.6403612  )
        13           Ti1 tau(  13) = (   6.5724762   2.9646551  12.5117882  )
        14           Ti1 tau(  14) = (   3.2886223   1.4652571  12.5194246  )
        15           O1  tau(  15) = (   6.5416971   0.0664024  14.6986244  )
        16           O1  tau(  16) = (   3.2828258   5.9593040  13.9967703  )
        17           O1  tau(  17) = (   4.5136565   1.4796660  16.2299008  )
        18           O1  tau(  18) = (   2.0038615   1.4742267  16.2123189  )
        19           Ti1 tau(  19) = (   3.2480181   2.9445974  15.7466143  )
        20           Ti1 tau(  20) = (   6.5118905   1.3801257  16.1190456  )
        21           O1  tau(  21) = (   3.2904802   0.0005063   4.7018136  )
        22           O1  tau(  22) = (   6.5538845   5.8109167  17.2256470  )
        23           O1  tau(  23) = (   1.3043587   1.4918075   6.0039043  )
        24           O1  tau(  24) = (   5.2767064   1.4903225   6.0039473  )
        25           Ti1 tau(  25) = (   0.0000382   5.9609847   6.0000000  )
        26           Ti1 tau(  26) = (   3.2902200   4.4714249   6.0002472  )
        27           O1  tau(  27) = (   0.0002396   2.9813036   7.9858123  )
        28           O1  tau(  28) = (   3.2902150   2.9813002   7.3038282  )
        29           O1  tau(  29) = (   4.5938453   4.4726049   9.2879030  )
        30           O1  tau(  30) = (   1.9864658   4.4711199   9.2879459  )
        31           Ti1 tau(  31) = (   3.2891106   5.8743827   9.1763621  )
        32           Ti1 tau(  32) = (   0.0006254   4.4649316   9.2693709  )
        33           O1  tau(  33) = (   3.2754078   2.9701464  11.3677572  )
        34           O1  tau(  34) = (   0.0092240   2.9805883  10.6323155  )
        35           O1  tau(  35) = (   1.2711598   4.4556272  12.7031535  )
        36           O1  tau(  36) = (   5.2783420   4.4558858  12.6781970  )
        37           Ti1 tau(  37) = (   0.0002938   5.9583472  12.5066983  )
        38           Ti1 tau(  38) = (   3.2916940   4.4447674  12.5292973  )
        39           O1  tau(  39) = (   6.5347695   2.9176514  14.9891124  )
        40           O1  tau(  40) = (   3.2818703   2.9467213  13.9608579  )
        41           O1  tau(  41) = (   4.5039121   4.4250859  16.1805084  )
        42           O1  tau(  42) = (   2.0002864   4.4376668  16.1101511  )
        43           Ti1 tau(  43) = (   3.2613398   5.9375382  15.7939200  )
        44           Ti1 tau(  44) = (   0.0097882   4.6113729  15.8292928  )
        45           O1  tau(  45) = (   3.2900926   2.9813045   4.7018136  )
        46           O1  tau(  46) = (   1.3039711   4.4726057   6.0039043  )
        47           O1  tau(  47) = (   5.2763189   4.4711207   6.0039473  )
        48           N1  tau(  48) = (   6.5527080   2.6566917  18.2211642  )
        49           C1  tau(  49) = (   0.9950107   2.5313988  18.9921798  )
        50           H1  tau(  50) = (   0.9966315   2.9146593  20.0110098  )
        51           H1  tau(  51) = (   1.8622571   2.0164067  18.6108951  )
        52           N1  tau(  52) = (   5.4094651   3.2293427  18.7544413  )
        53           H1  tau(  53) = (   5.6216840   3.8708726  19.5154782  )
        54           H1  tau(  54) = (   4.9168071   3.7283298  18.0160565  )

     number of k points=    10  Fermi-Dirac smearing, width (Ry)=  0.0073
                       cart. coord. in units 2pi/alat
        k(    1) = (   0.0000000   0.0000000   0.0000000), wk =   0.1250000
        k(    2) = (   0.0000000   0.0419351   0.0000000), wk =   0.2500000
        k(    3) = (   0.0000000  -0.0838702   0.0000000), wk =   0.1250000
        k(    4) = (   0.0379955   0.0000049   0.0000000), wk =   0.2500000
        k(    5) = (   0.0379955   0.0419400   0.0000000), wk =   0.2500000
        k(    6) = (   0.0379955  -0.0838652   0.0000000), wk =   0.2500000
        k(    7) = (   0.0379955  -0.0419301   0.0000000), wk =   0.2500000
        k(    8) = (  -0.0759910  -0.0000099   0.0000000), wk =   0.1250000
        k(    9) = (  -0.0759910   0.0419252   0.0000000), wk =   0.2500000
        k(   10) = (  -0.0759910  -0.0838800   0.0000000), wk =   0.1250000

     Initial potential from superposition of free atoms

     starting charge  379.99915, renormalised to  396.00000

     negative rho (up, down):  1.579E-02 0.000E+00

     %%%%%%%%%%%%%%%%%%%%%%%%%%%%%%%%%%%%%%%%%%%%%%%%%%%%%%%%%%%%%%%%%%%%%%%%
     %                                                                      %
     % You are using vdW-DF, which was implemented by the Thonhauser group. %
     % Please cite the following two papers that made this development      %
     % possible and the two reviews that describe the various versions:     %
     %                                                                      %
     %   T. Thonhauser et al., PRL 115, 136402 (2015).                      %
     %   T. Thonhauser et al., PRB 76, 125112 (2007).                       %
     %   K. Berland et al., Rep. Prog. Phys. 78, 066501 (2015).             %
     %   D.C. Langreth et al., J. Phys.: Condens. Matter 21, 084203 (2009). %
     %                                                                      %
     %                                                                      %
     % If you are calculating the stress with vdW-DF, please also cite:     %
     %                                                                      %
     %   R. Sabatini et al., J. Phys.: Condens. Matter 24, 424209 (2012).   %
     %                                                                      %
     %%%%%%%%%%%%%%%%%%%%%%%%%%%%%%%%%%%%%%%%%%%%%%%%%%%%%%%%%%%%%%%%%%%%%%%%

     Adding external electric field

     Computed dipole along edir(3) :
        Dipole               -9.9758 Ry au,        -25.3560 Debye
        Dipole field         -0.0188 Ry au,

        Potential amp.        1.7451 Ry
        Total length         46.3494 bohr

     Starting wfcs are  300 atomic wfcs
  @ DRIVER MODE: Message from server: STATUS
  @ DRIVER MODE: Message from server: POSDATA
  @ DRIVER MODE: Reading and sharing cell
  @ DRIVER MODE: Reading and sharing positions
  @ DRIVER MODE: Received positions

     Self-consistent Calculation

     iteration #  1     ecut=    29.40 Ry     beta= 0.05
     Davidson diagonalization with overlap
     c_bands:  1 eigenvalues not converged
     c_bands:  2 eigenvalues not converged
     c_bands:  2 eigenvalues not converged
     c_bands:  1 eigenvalues not converged
     c_bands:  3 eigenvalues not converged
     c_bands:  2 eigenvalues not converged
     c_bands:  3 eigenvalues not converged
     c_bands:  2 eigenvalues not converged
     c_bands:  1 eigenvalues not converged
     c_bands:  1 eigenvalues not converged
     ethr =  1.00E-05,  avg # of iterations = 20.0

[...]

     total energy              =   -2515.80480078 Ry
     estimated scf accuracy    <    4741.08290406 Ry

     iteration #  2     ecut=    29.40 Ry     beta= 0.05
     Davidson diagonalization with overlap
     ethr =  1.00E-02,  avg # of iterations = 23.4

[...]

     iteration # 97     ecut=    29.40 Ry     beta= 0.05
     Davidson diagonalization with overlap
     c_bands:  1 eigenvalues not converged
     c_bands:  1 eigenvalues not converged
     ethr =  7.20E-11,  avg # of iterations = 16.4

[...]

     total energy              =   -2940.36656459 Ry
     estimated scf accuracy    <       0.00000018 Ry

     iteration # 98     ecut=    29.40 Ry     beta= 0.05
     Davidson diagonalization with overlap
     ethr =  4.54E-11,  avg # of iterations =  7.6

     negative rho (up, down):  1.643E-02 0.000E+00

     Adding external electric field

     Computed dipole along edir(3) :
        Dipole                1.2672 Ry au,          3.2209 Debye
        Dipole field          0.0024 Ry au,

        Potential amp.       -0.2217 Ry
        Total length         46.3494 bohr

     End of self-consistent calculation

          k = 0.0000 0.0000 0.0000 ( 18029 PWs)   bands (ev):

   -55.4181 -55.3814 -55.3700 -55.3359 -55.2971 -55.2930 -55.2838 -55.2625
   -55.2359 -55.2198 -55.2016 -55.2012 -55.1677 -55.0470 -54.3976 -54.3635
   -31.9871 -31.8624 -31.8149 -31.7852 -31.7313 -31.7256 -31.7207 -31.7068
   -31.6591 -31.6514 -31.6282 -31.6270 -31.6150 -31.5883 -31.5731 -31.5672
   -31.5549 -31.5541 -31.5335 -31.5242 -31.5224 -31.5117 -31.4838 -31.4745
   -31.4666 -31.4620 -31.4384 -31.4280 -31.4271 -31.4187 -31.4171 -31.3998
   -31.3989 -31.3939 -31.3865 -31.3839 -31.3499 -31.3367 -31.3295 -31.3126
   -31.2692 -31.2108 -30.8069 -30.7129 -30.6908 -30.6233 -30.5365 -30.4256
   -18.5411 -16.2490 -15.9802 -15.8369 -15.7126 -15.6151 -15.4902 -15.4667
   -15.3406 -15.2558 -15.1424 -15.0959 -15.0853 -15.0828 -15.0500 -15.0205
   -14.9595 -14.9549 -14.9369 -14.9110 -14.9000 -14.8571 -14.8539 -14.8125
   -14.7921 -14.7875 -14.6632 -14.5747 -14.5044 -14.1765 -13.6296 -12.9004
   -12.7830  -8.7532  -6.4585  -6.0352  -3.9664  -3.5903  -3.4344  -3.3736
    -3.3358  -3.3099  -3.1790  -3.1567  -3.0221  -2.8253  -2.7756  -2.6867
    -2.6249  -2.6166  -2.5974  -2.4170  -2.4080  -2.3512  -2.3015  -2.2599
    -2.2378  -2.2244  -2.2052  -2.1790  -2.1686  -2.1590  -1.9850  -1.9671
    -1.8990  -1.8246  -1.8154  -1.7650  -1.7444  -1.7154  -1.7058  -1.6979
    -1.6523  -1.6312  -1.6025  -1.5584  -1.4293  -1.3377  -1.3157  -1.2339
    -1.1152  -1.0534  -1.0010  -0.9978  -0.9048  -0.9001  -0.8796  -0.7956
    -0.7621  -0.7122  -0.6397  -0.5700  -0.5138  -0.4560  -0.4079  -0.3980
    -0.3423  -0.2258  -0.2012  -0.1824  -0.1600  -0.0386  -0.0205   0.0203
     0.0939   0.1239   0.1247   0.2420   0.2682   0.3254   0.3314   0.4070
     0.4674   0.5120   0.5210   0.5400   0.5688   0.5723   0.6487   0.6597
     0.6897   0.7605   0.8394   0.9189   1.1510   1.1847   1.1967   1.5300
     1.5316   1.6249   1.8087   2.2009   2.2490   3.6812   3.7513   3.8257
     3.8321   3.8512   3.9187   4.1554   4.1740   4.1815   4.1870   4.2306

[...]

          k = 0.0380-0.0419 0.0000 ( 17876 PWs)   bands (ev):

[...]

          k =-0.0760-0.0000 0.0000 ( 17886 PWs)   bands (ev):

[...]

          k =-0.0760-0.0839 0.0000 ( 17948 PWs)   bands (ev):

   -55.4034 -55.3959 -55.3530 -55.3528 -55.2881 -55.2830 -55.2814 -55.2781
   -55.2239 -55.2203 -55.2166 -55.1851 -55.1841 -55.0483 -54.3805 -54.3804
   -31.7934 -31.7879 -31.7421 -31.6939 -31.6803 -31.6775 -31.6775 -31.6445
   -31.6444 -31.6280 -31.6190 -31.6143 -31.6098 -31.5627 -31.5554 -31.5535
   -31.5508 -31.5493 -31.5439 -31.5385 -31.5224 -31.5073 -31.4938 -31.4930
   -31.4893 -31.4751 -31.4726 -31.4724 -31.4717 -31.4703 -31.4535 -31.4495
   -31.4397 -31.4334 -31.4300 -31.4153 -31.4139 -31.4104 -31.3653 -31.3651
   -31.2892 -31.2727 -30.7035 -30.7034 -30.6194 -30.6194 -30.5800 -30.5799
   -18.5386 -15.7085 -15.6784 -15.6211 -15.4410 -15.4131 -15.4062 -15.3872
   -15.2559 -15.2395 -15.2089 -15.1797 -15.1480 -15.1240 -15.1199 -15.1007
   -15.0320 -15.0212 -15.0130 -14.9955 -14.9304 -14.9265 -14.9176 -14.9128
   -14.8660 -14.8633 -14.7680 -14.7664 -14.6622 -14.5453 -13.6354 -12.8845
   -12.8844  -8.7351  -6.4313  -6.0496  -3.9745  -3.2303  -2.9445  -2.8781
    -2.8481  -2.6528  -2.6289  -2.5865  -2.5304  -2.4501  -2.4248  -2.4174
    -2.4089  -2.3366  -2.3267  -2.2763  -2.2677  -2.2492  -2.2338  -2.2229
    -2.1933  -2.1670  -2.1440  -2.1351  -2.1234  -2.0696  -2.0592  -2.0418
    -2.0105  -1.9911  -1.9819  -1.9660  -1.8653  -1.7820  -1.7507  -1.7260
    -1.6216  -1.6172  -1.5426  -1.5245  -1.4943  -1.4491  -1.4359  -1.4175
    -1.2318  -1.2105  -1.1710  -1.1597  -1.1510  -1.0105  -0.9980  -0.9416
    -0.9013  -0.8947  -0.7856  -0.7648  -0.7368  -0.6625  -0.6247  -0.5911
    -0.5438  -0.4354  -0.4163  -0.4053  -0.3731  -0.3690  -0.3124  -0.3006
    -0.2254  -0.1836  -0.1507  -0.1369  -0.0933   0.0953   0.1183   0.1336
     0.2762   0.3335   0.4260   0.5269   0.5366   0.5920   0.6308   0.6961
     0.7578   0.8277   0.8752   0.8928   0.8932   0.9716   0.9894   1.0425
     1.0444   1.9818   1.9824   2.0688   2.0692   3.8243   3.9318   3.9439
     3.9843   4.0584   4.1251   4.1975   4.2264   4.2647   4.2670   4.3326

     the Fermi energy is     3.7431 ev

!    total energy              =   -2940.36656938 Ry
     estimated scf accuracy    <       0.00000006 Ry
     smearing contrib. (-TS)   =      -0.03730721 Ry
     internal energy E=F+TS    =   -2940.32926217 Ry

     The total energy is F=E-TS. E is the sum of the following terms:
     one-electron contribution =  -23761.32794138 Ry
     hartree contribution      =   11972.01120054 Ry
     xc contribution           =    -486.10647275 Ry
     ewald contribution        =    9335.09092101 Ry
     electric field correction =       0.00303040 Ry

     convergence has been achieved in  98 iterations

     Forces acting on atoms (cartesian axes, Ry/au):

     atom    1 type  1   force =     0.00006505   -0.00013426    0.09326363
     atom    2 type  1   force =    -0.00005376   -0.00026541   -0.17808958
     atom    3 type  2   force =     0.00002065   -0.00016186   -0.02026608
     atom    4 type  2   force =     0.00000819   -0.00195955    0.05850488
     atom    5 type  2   force =    -0.01066042   -0.00127296    0.00870507
     atom    6 type  2   force =     0.01175492   -0.00061801    0.00682648
     atom    7 type  1   force =    -0.00092269    0.00297520   -0.01444522
     atom    8 type  1   force =     0.00064330   -0.00048744   -0.00369764
     atom    9 type  2   force =     0.00014271    0.00010444    0.00009125
     atom   10 type  2   force =    -0.00209431   -0.00122229    0.00062486
     atom   11 type  2   force =     0.00009516    0.00021668   -0.00013770
     atom   12 type  2   force =     0.00055543    0.00028650   -0.00008612
     atom   13 type  1   force =    -0.00014401    0.00029059    0.00021629
     atom   14 type  1   force =     0.00013306    0.00048132   -0.00034327
     atom   15 type  2   force =     0.00004008    0.00034099   -0.00029214
     atom   16 type  2   force =     0.00041786    0.00017455   -0.00035832
     atom   17 type  2   force =     0.00009988   -0.00040641   -0.00049018
     atom   18 type  2   force =     0.00033791   -0.00057571    0.00001805
     atom   19 type  1   force =    -0.00089443   -0.00002686    0.00037141
     atom   20 type  1   force =     0.00017014    0.00007283   -0.00032076
     atom   21 type  2   force =     0.00009643    0.00000031    0.10392520
     atom   22 type  2   force =    -0.00017834    0.00003304    0.00023612
     atom   23 type  2   force =    -0.07040413   -0.00012373   -0.02689300
     atom   24 type  2   force =     0.07033661    0.00033296   -0.02693103
     atom   25 type  1   force =     0.00008969   -0.00021689    0.09281824
     atom   26 type  1   force =    -0.00005158   -0.00033647   -0.17806604
     atom   27 type  2   force =     0.00011127   -0.00036200   -0.01933068
     atom   28 type  2   force =     0.00004168   -0.00165209    0.05792873
     atom   29 type  2   force =    -0.01064093   -0.00128135    0.00802949
     atom   30 type  2   force =     0.01164474   -0.00088815    0.00608911
     atom   31 type  1   force =    -0.00089954    0.00489053   -0.01542470
     atom   32 type  1   force =     0.00082913    0.00020117   -0.00390957
     atom   33 type  2   force =     0.00010200    0.00046360    0.00021817
     atom   34 type  2   force =    -0.00177215    0.00109761    0.00068502
     atom   35 type  2   force =     0.00033056    0.00006436    0.00006448
     atom   36 type  2   force =     0.00024288   -0.00024924    0.00017105
     atom   37 type  1   force =    -0.00036279    0.00002356    0.00003375
     atom   38 type  1   force =    -0.00023721    0.00049901   -0.00010481
     atom   39 type  2   force =     0.00047882   -0.00065731   -0.00035564
     atom   40 type  2   force =    -0.00015910    0.00006487   -0.00006062
     atom   41 type  2   force =    -0.00004967   -0.00005857   -0.00033309
     atom   42 type  2   force =     0.00034564    0.00014925   -0.00011519
     atom   43 type  1   force =    -0.00022013   -0.00017784    0.00020331
     atom   44 type  1   force =     0.00007986   -0.00004893   -0.00006009
     atom   45 type  2   force =     0.00011094   -0.00003092    0.10388314
     atom   46 type  2   force =    -0.07041736   -0.00005083   -0.02689149
     atom   47 type  2   force =     0.07036774    0.00037331   -0.02689987
     atom   48 type  3   force =     0.00635467    0.00200974    0.01519525
     atom   49 type  4   force =    -0.00561388   -0.00063773   -0.00997800
     atom   50 type  5   force =    -0.00069675   -0.00027448   -0.00041467
     atom   51 type  5   force =    -0.00009315    0.00003857   -0.00001194
     atom   52 type  3   force =     0.00053787   -0.00078060   -0.00458483
     atom   53 type  5   force =     0.00097352   -0.00072041    0.00034579
     atom   54 type  5   force =    -0.00099206    0.00049334    0.00044350

     Total force =     0.366467     Total SCF correction =     0.000515
  @ DRIVER MODE: Message from server: STATUS
  @ DRIVER MODE: Message from server: GETFORCE
  @ DRIVER MODE: Returning v,forces,stress,ensemble

     Writing output data file ./calc.save/
  @ DRIVER MODE: Message from server: EXIT
  @ DRIVE MODE: Exiting

     General routines

     Parallel routines

   This run was terminated on:  23:51:56   8Sep2021

   JOB DONE.