     Program PWSCF v.6.7GPU starts on 16Sep2021 at  0:40:37

     R & G space division:  proc/nbgrp/npool/nimage =      10
     Reading input from /storage/home/hcoda1/3/ntian30/research/carbon/CxH_vib/H2O_calc/ads_slab/CHNHH2O_a/out_0027/pw.inp
Warning: card &CELL ignored
Warning: card   CELL_DYNAMICS='IPI', ignored
Warning: card / ignored

     Current dimensions of program PWSCF are:
     Max number of different atomic species (ntypx) = 10
     Max number of k-points (npk) =  40000
     Max angular momentum in pseudopotentials (lmaxx) =  3
     Presently no symmetry can be used with electric field

     Message from routine cell_base_init:
     DEPRECATED: use true lattice parameter, not A to a.u. conversion factor

     IMPORTANT: XC functional enforced from input :
     Exchange-correlation= BEEF-VDW
                           (   1   4  43  14   2   0   0)
     Any further DFT definition will be discarded
     Please, verify this is what you really want

  @ DRIVER MODE: Connecting to
 qe_1139763_2852628.sched-torque.pace.gatech.educosuy8f9_scratch
  using UNIX socket
  @ DRIVER MODE: Message from server: STATUS
  @ DRIVER MODE: Message from server: INIT
  @ DRIVER MODE: Receiving replica           0          -1
  @ DRIVER MODE: Receiving encoded integer          25
  @ DRIVER MODE:  SCF:  T  FORCE:  T  STRESS:  F  VC:  F  ENSEMBLE:  F
  @ DRIVER MODE:  SCF:  T  FORCE:  T  STRESS:  F  VC:  F  ENSEMBLE:  F

     Using Slab Decomposition

     bravais-lattice index     =            0
     lattice parameter (alat)  =       1.8897  a.u.
     unit-cell volume          =    6658.9804 (a.u.)^3
     number of atoms/cell      =           54
     number of atomic types    =            5
     number of electrons       =       397.00
     number of Kohn-Sham states=          208
     kinetic-energy cutoff     =      29.3995  Ry
     charge density cutoff     =     293.9946  Ry
     scf convergence threshold =      7.3E-08
     mixing beta               =       0.0500
     number of iterations used =            8  plain     mixing
     Exchange-correlation= BEEF-VDW
                           (   1   4  43  14   2   0   0)

     celldm(1)=   1.889726  celldm(2)=   0.000000  celldm(3)=   0.000000
     celldm(4)=   0.000000  celldm(5)=   0.000000  celldm(6)=   0.000000

     crystal axes: (cart. coord. in units of alat)
               a(1) = (   6.579727   0.000000   0.000000 )
               a(2) = (  -0.000775   5.961596   0.000000 )
               a(3) = (   0.000000   0.000000  25.155947 )

     reciprocal axes: (cart. coord. in units 2 pi/alat)
               b(1) = (  0.151982  0.000020  0.000000 )
               b(2) = (  0.000000  0.167740  0.000000 )
               b(3) = (  0.000000  0.000000  0.039752 )

     PseudoPot. # 1 for Ti read from file:
     /storage/coda1/p-amedford6/0/shared/rich_project_chbe-medford/medford-share/data/pseudos_module/espresso/nninc/pbe/van/Ti.UPF
     MD5 check sum: 8e4df49b7f0d34bbd5052bf3f5ea0213
     Pseudo is Ultrasoft, Zval = 12.0
     Generated by new atomic code, or converted to UPF format
     Using radial grid of  851 points,  6 beta functions with:
                l(1) =   0
                l(2) =   0
                l(3) =   1
                l(4) =   1
                l(5) =   2
                l(6) =   2
     Q(r) pseudized with  8 coefficients,  rinner =    1.000   1.000   1.000
                                                       1.000   1.000

     PseudoPot. # 2 for O  read from file:
     /storage/coda1/p-amedford6/0/shared/rich_project_chbe-medford/medford-share/data/pseudos_module/espresso/nninc/pbe/van/O.UPF
     MD5 check sum: 78c19812648e8988a0fe644b0f25305e
     Pseudo is Ultrasoft, Zval =  6.0
     Generated by new atomic code, or converted to UPF format
     Using radial grid of  737 points,  4 beta functions with:
                l(1) =   0
                l(2) =   0
                l(3) =   1
                l(4) =   1
     Q(r) pseudized with  8 coefficients,  rinner =    0.800   0.800   0.800

     PseudoPot. # 3 for N  read from file:
     /storage/coda1/p-amedford6/0/shared/rich_project_chbe-medford/medford-share/data/pseudos_module/espresso/nninc/pbe/van/N.UPF
     MD5 check sum: 90d10febe142ad51ac9d5be1deb811c4
     Pseudo is Ultrasoft, Zval =  5.0
     Generated by new atomic code, or converted to UPF format
     Using radial grid of  729 points,  4 beta functions with:
                l(1) =   0
                l(2) =   0
                l(3) =   1
                l(4) =   1
     Q(r) pseudized with  8 coefficients,  rinner =    0.800   0.800   0.800

     PseudoPot. # 4 for C  read from file:
     /storage/coda1/p-amedford6/0/shared/rich_project_chbe-medford/medford-share/data/pseudos_module/espresso/nninc/pbe/van/C.UPF
     MD5 check sum: 1a69bf6b8db32088f5b2163dbdb77a27
     Pseudo is Ultrasoft, Zval =  4.0
     Generated by new atomic code, or converted to UPF format
     Using radial grid of  721 points,  4 beta functions with:
                l(1) =   0
                l(2) =   0
                l(3) =   1
                l(4) =   1
     Q(r) pseudized with  8 coefficients,  rinner =    0.800   0.800   0.800

     PseudoPot. # 5 for H  read from file:
     /storage/coda1/p-amedford6/0/shared/rich_project_chbe-medford/medford-share/data/pseudos_module/espresso/nninc/pbe/van/H.UPF
     MD5 check sum: b5ee9d7bfd3a09ee7748110bda690ff7
     Pseudo is Ultrasoft, Zval =  1.0
     Generated by new atomic code, or converted to UPF format
     Using radial grid of  615 points,  1 beta functions with:
                l(1) =   0
     Q(r) pseudized with  8 coefficients,  rinner =    0.800

     atomic species   valence    mass     pseudopotential
        Ti1           12.00    47.86700     Ti( 1.00)
        O1             6.00    15.99900     O ( 1.00)
        N1             5.00    14.00700     N ( 1.00)
        C1             4.00    12.01100     C ( 1.00)
        H1             1.00     1.00800     H ( 1.00)

     No symmetry found

   Cartesian axes

     site n.     atom                  positions (alat units)
         1           Ti1 tau(   1) = (   0.0004258   2.9801865   6.0000000  )
         2           Ti1 tau(   2) = (   3.2906075   1.4906267   6.0002472  )
         3           O1  tau(   3) = (   0.0006271   0.0005054   7.9858123  )
         4           O1  tau(   4) = (   3.2906025   0.0005020   7.3038282  )
         5           O1  tau(   5) = (   4.5942328   1.4918067   9.2879030  )
         6           O1  tau(   6) = (   1.9868534   1.4903216   9.2879459  )
         7           Ti1 tau(   7) = (   3.2907910   2.8959150   9.1758416  )
         8           Ti1 tau(   8) = (   0.0015273   1.4827037   9.2680791  )
         9           O1  tau(   9) = (   3.2914171   5.9475995  11.3455371  )
        10           O1  tau(  10) = (   0.0116148   5.9584955  10.6183126  )
        11           O1  tau(  11) = (   1.3057669   1.4807986  12.6390077  )
        12           O1  tau(  12) = (   5.3035249   1.4749620  12.6227664  )
        13           Ti1 tau(  13) = (   6.5294082   2.9362577  12.6231083  )
        14           Ti1 tau(  14) = (   3.2175537   1.4615748  12.5070279  )
        15           O1  tau(  15) = (   6.5585639   5.9474800  14.6380151  )
        16           O1  tau(  16) = (   3.3125803   5.9531145  13.9695519  )
        17           O1  tau(  17) = (   4.5393379   1.5011389  16.1071157  )
        18           O1  tau(  18) = (   2.0094023   1.5044898  16.0307267  )
        19           Ti1 tau(  19) = (   3.2760958   2.9523363  15.6877793  )
        20           Ti1 tau(  20) = (   0.0277933   1.3451898  16.0452527  )
        21           O1  tau(  21) = (   3.2904802   0.0005063   4.7018136  )
        22           O1  tau(  22) = (   0.0198929   5.9263875  17.1601691  )
        23           O1  tau(  23) = (   1.3043587   1.4918075   6.0039043  )
        24           O1  tau(  24) = (   5.2767064   1.4903225   6.0039473  )
        25           Ti1 tau(  25) = (   0.0000382   5.9609847   6.0000000  )
        26           Ti1 tau(  26) = (   3.2902200   4.4714249   6.0002472  )
        27           O1  tau(  27) = (   0.0002396   2.9813036   7.9858123  )
        28           O1  tau(  28) = (   3.2902150   2.9813002   7.3038282  )
        29           O1  tau(  29) = (   4.5938453   4.4726049   9.2879030  )
        30           O1  tau(  30) = (   1.9864658   4.4711199   9.2879459  )
        31           Ti1 tau(  31) = (   3.2891106   5.8743827   9.1763621  )
        32           Ti1 tau(  32) = (   0.0006254   4.4649316   9.2693709  )
        33           O1  tau(  33) = (   3.2862706   2.9662616  11.3468726  )
        34           O1  tau(  34) = (   0.0092240   2.9805883  10.6323155  )
        35           O1  tau(  35) = (   1.3102706   4.4726941  12.6361575  )
        36           O1  tau(  36) = (   5.3014905   4.4644878  12.6181669  )
        37           Ti1 tau(  37) = (   6.5311680   5.9227251  12.5202533  )
        38           Ti1 tau(  38) = (   3.2191334   4.4553394  12.5017427  )
        39           O1  tau(  39) = (   6.5614274   2.9920157  14.6796082  )
        40           O1  tau(  40) = (   3.3146075   2.9603188  13.8993185  )
        41           O1  tau(  41) = (   4.5484517   4.4144432  16.0509510  )
        42           O1  tau(  42) = (   2.0146171   4.4214036  15.9967612  )
        43           Ti1 tau(  43) = (   3.3303817   5.9274347  15.8100502  )
        44           Ti1 tau(  44) = (   0.0273359   4.4939047  15.8144843  )
        45           O1  tau(  45) = (   3.2900926   2.9813045   4.7018136  )
        46           O1  tau(  46) = (   1.3039711   4.4726057   6.0039043  )
        47           O1  tau(  47) = (   5.2763189   4.4711207   6.0039473  )
        48           N1  tau(  48) = (   6.5134970   2.9613368  17.6459670  )
        49           C1  tau(  49) = (   0.7931072   3.0267964  18.6255283  )
        50           H1  tau(  50) = (   1.8307262   2.9311331  18.2395185  )
        51           H1  tau(  51) = (   5.5494773   3.0666896  17.9713127  )
        52           O1  tau(  52) = (   3.1855344   5.7958271  18.1612476  )
        53           H1  tau(  53) = (   3.8461454   0.3022996  18.7034462  )
        54           H1  tau(  54) = (   2.3120581   0.0053998  18.5533318  )

     number of k points=    10  Fermi-Dirac smearing, width (Ry)=  0.0073
                       cart. coord. in units 2pi/alat
        k(    1) = (   0.0000000   0.0000000   0.0000000), wk =   0.1250000
        k(    2) = (   0.0000000   0.0419351   0.0000000), wk =   0.2500000
        k(    3) = (   0.0000000  -0.0838702   0.0000000), wk =   0.1250000
        k(    4) = (   0.0379955   0.0000049   0.0000000), wk =   0.2500000
        k(    5) = (   0.0379955   0.0419400   0.0000000), wk =   0.2500000
        k(    6) = (   0.0379955  -0.0838652   0.0000000), wk =   0.2500000
        k(    7) = (   0.0379955  -0.0419301   0.0000000), wk =   0.2500000
        k(    8) = (  -0.0759910  -0.0000099   0.0000000), wk =   0.1250000
        k(    9) = (  -0.0759910   0.0419252   0.0000000), wk =   0.2500000
        k(   10) = (  -0.0759910  -0.0838800   0.0000000), wk =   0.1250000

     Initial potential from superposition of free atoms

     starting charge  380.99916, renormalised to  397.00000

     negative rho (up, down):  1.755E-02 0.000E+00

     %%%%%%%%%%%%%%%%%%%%%%%%%%%%%%%%%%%%%%%%%%%%%%%%%%%%%%%%%%%%%%%%%%%%%%%%
     %                                                                      %
     % You are using vdW-DF, which was implemented by the Thonhauser group. %
     % Please cite the following two papers that made this development      %
     % possible and the two reviews that describe the various versions:     %
     %                                                                      %
     %   T. Thonhauser et al., PRL 115, 136402 (2015).                      %
     %   T. Thonhauser et al., PRB 76, 125112 (2007).                       %
     %   K. Berland et al., Rep. Prog. Phys. 78, 066501 (2015).             %
     %   D.C. Langreth et al., J. Phys.: Condens. Matter 21, 084203 (2009). %
     %                                                                      %
     %                                                                      %
     % If you are calculating the stress with vdW-DF, please also cite:     %
     %                                                                      %
     %   R. Sabatini et al., J. Phys.: Condens. Matter 24, 424209 (2012).   %
     %                                                                      %
     %%%%%%%%%%%%%%%%%%%%%%%%%%%%%%%%%%%%%%%%%%%%%%%%%%%%%%%%%%%%%%%%%%%%%%%%

     Adding external electric field

     Computed dipole along edir(3) :
        Dipole               -9.1667 Ry au,        -23.2993 Debye
        Dipole field         -0.0173 Ry au,

        Potential amp.        1.6036 Ry
        Total length         46.3494 bohr

     Starting wfcs are  300 atomic wfcs
  @ DRIVER MODE: Message from server: STATUS
  @ DRIVER MODE: Message from server: POSDATA
  @ DRIVER MODE: Reading and sharing cell
  @ DRIVER MODE: Reading and sharing positions
  @ DRIVER MODE: Received positions

     Self-consistent Calculation

     iteration #  1     ecut=    29.40 Ry     beta= 0.05
     Davidson diagonalization with overlap
     c_bands:  1 eigenvalues not converged
     c_bands:  1 eigenvalues not converged
     c_bands:  1 eigenvalues not converged
     c_bands:  1 eigenvalues not converged
     c_bands:  1 eigenvalues not converged
     c_bands:  1 eigenvalues not converged
     c_bands:  1 eigenvalues not converged
     c_bands:  1 eigenvalues not converged
     c_bands:  1 eigenvalues not converged
     ethr =  1.00E-05,  avg # of iterations = 19.8

[...]

     total energy              =   -2547.28612828 Ry
     estimated scf accuracy    <    4504.89560520 Ry

     iteration #  2     ecut=    29.40 Ry     beta= 0.05
     Davidson diagonalization with overlap
     ethr =  1.00E-02,  avg # of iterations = 25.0

[...]

     iteration # 55     ecut=    29.40 Ry     beta= 0.05
     Davidson diagonalization with overlap
     c_bands:  2 eigenvalues not converged
     ethr =  2.38E-09,  avg # of iterations = 14.0

[...]

     total energy              =   -2952.61566866 Ry
     estimated scf accuracy    <       0.00000013 Ry

     iteration # 67     ecut=    29.40 Ry     beta= 0.05
     Davidson diagonalization with overlap
     ethr =  3.36E-11,  avg # of iterations =  8.0

     negative rho (up, down):  1.616E-02 0.000E+00

     Adding external electric field

     Computed dipole along edir(3) :
        Dipole                0.4058 Ry au,          1.0315 Debye
        Dipole field          0.0008 Ry au,

        Potential amp.       -0.0710 Ry
        Total length         46.3494 bohr

     End of self-consistent calculation

          k = 0.0000 0.0000 0.0000 ( 18029 PWs)   bands (ev):

   -56.0239 -55.9991 -55.9920 -55.9898 -55.9629 -55.8694 -55.8369 -55.8281
   -55.8246 -55.8112 -55.8027 -55.7777 -55.7479 -55.5789 -55.0094 -54.9753
   -32.5449 -32.5078 -32.4005 -32.3689 -32.3359 -32.3161 -32.3066 -32.3012
   -32.2673 -32.2362 -32.2245 -32.2179 -32.2085 -32.1960 -32.1781 -32.1762
   -32.1514 -32.1296 -32.1279 -32.1248 -32.0921 -32.0811 -32.0721 -32.0398
   -32.0289 -32.0274 -32.0236 -32.0194 -32.0165 -32.0111 -31.9963 -31.9855
   -31.9833 -31.9820 -31.9699 -31.9639 -31.9600 -31.9416 -31.9223 -31.8397
   -31.8226 -31.7356 -31.4167 -31.3276 -31.3052 -31.2334 -31.1469 -31.0359
   -19.2064 -16.7563 -16.5162 -16.3414 -16.2011 -16.1703 -15.9536 -15.8520
   -15.7811 -15.7268 -15.6576 -15.6061 -15.5720 -15.5628 -15.5460 -15.5228
   -15.5025 -15.4798 -15.4568 -15.4448 -15.4385 -15.3961 -15.3890 -15.3729
   -15.3543 -15.2483 -15.1843 -15.1600 -15.1146 -15.0915 -14.7381 -13.5116
   -13.3950  -7.8682  -7.0289  -4.1553  -4.0602  -3.9850  -3.9458  -3.9297
    -3.7770  -3.6946  -3.5454  -3.5172  -3.3077  -3.2751  -3.2202  -3.1948
    -3.1335  -3.0720  -2.9765  -2.9327  -2.8561  -2.8400  -2.8275  -2.8041
    -2.7846  -2.7679  -2.7268  -2.6637  -2.5936  -2.5598  -2.4466  -2.4208
    -2.4140  -2.3464  -2.3394  -2.3281  -2.3145  -2.2829  -2.2609  -2.2579
    -2.1870  -2.1544  -2.0839  -2.0321  -1.9710  -1.8529  -1.7040  -1.6397
    -1.5888  -1.5279  -1.5035  -1.4677  -1.4457  -1.4215  -1.3633  -1.3042
    -1.2399  -1.2278  -1.1573  -1.0649  -0.9933  -0.9541  -0.8844  -0.8234
    -0.8018  -0.7739  -0.7663  -0.7569  -0.7073  -0.5354  -0.4793  -0.4657
    -0.4271  -0.3432  -0.3133  -0.3029  -0.2537  -0.2458  -0.2057  -0.1170
    -0.0978  -0.0628  -0.0451  -0.0314   0.0015   0.0210   0.1762   0.1968
     0.2392   0.2607   0.3629   0.4693   0.5363   0.6237   0.7181   0.9370
     1.0130   1.0901   1.2040   1.5851   1.6312   2.7806   3.1044   3.1930
     3.2312   3.2372   3.2714   3.3420   3.5583   3.5895   3.6069   3.6629

[...]

          k = 0.0380-0.0419 0.0000 ( 17876 PWs)   bands (ev):

[...]

          k =-0.0760-0.0000 0.0000 ( 17886 PWs)   bands (ev):

[...]

          k =-0.0760-0.0839 0.0000 ( 17948 PWs)   bands (ev):

   -56.0076 -56.0060 -55.9906 -55.9830 -55.9784 -55.8602 -55.8374 -55.8262
   -55.8204 -55.8184 -55.7952 -55.7941 -55.7463 -55.5804 -54.9924 -54.9922
   -32.3588 -32.3429 -32.3236 -32.3225 -32.3021 -32.3008 -32.2793 -32.2715
   -32.2521 -32.2193 -32.2044 -32.1998 -32.1954 -32.1741 -32.1463 -32.1413
   -32.1367 -32.1344 -32.1328 -32.1312 -32.1305 -32.1275 -32.1270 -32.1253
   -32.0782 -32.0592 -32.0504 -32.0387 -32.0268 -32.0244 -32.0231 -32.0214
   -32.0209 -32.0101 -32.0083 -31.9980 -31.9917 -31.9773 -31.9716 -31.8436
   -31.8276 -31.8225 -31.3180 -31.3178 -31.2296 -31.2293 -31.1903 -31.1901
   -19.2055 -16.2152 -16.0956 -16.0410 -15.9481 -15.9225 -15.9080 -15.8341
   -15.7817 -15.7283 -15.7191 -15.6948 -15.6807 -15.6731 -15.6145 -15.5860
   -15.5616 -15.5506 -15.5072 -15.4943 -15.4864 -15.4727 -15.4706 -15.4645
   -15.4208 -15.3894 -15.3525 -15.3485 -15.2091 -15.1003 -15.0102 -13.4969
   -13.4965  -7.8777  -7.0303  -3.9199  -3.6475  -3.4932  -3.3163  -3.2671
    -3.1669  -3.1542  -3.1236  -3.1031  -2.9942  -2.9345  -2.9218  -2.9001
    -2.8593  -2.8495  -2.8428  -2.8381  -2.8035  -2.8019  -2.7651  -2.7466
    -2.7142  -2.7012  -2.6954  -2.6886  -2.6648  -2.6453  -2.6056  -2.5907
    -2.5746  -2.5448  -2.5059  -2.3738  -2.3045  -2.2269  -2.2198  -2.1794
    -2.1667  -2.1475  -2.1040  -2.0862  -2.0588  -1.9777  -1.9023  -1.7481
    -1.7300  -1.7061  -1.6770  -1.6145  -1.5222  -1.4981  -1.4694  -1.4232
    -1.4055  -1.3481  -1.3280  -1.2964  -1.2417  -1.1784  -1.1404  -1.1130
    -1.0687  -1.0033  -0.9831  -0.9610  -0.9484  -0.8873  -0.7790  -0.7727
    -0.7666  -0.7171  -0.7017  -0.6722  -0.6531  -0.5593  -0.4803  -0.4199
    -0.3231  -0.1589  -0.0788   0.0186   0.0559   0.1008   0.1453   0.1869
     0.2840   0.2859   0.3585   0.3884   0.4065   0.4885   0.4995   0.5226
     0.6831   1.3756   1.3768   1.4506   1.4512   2.8154   3.3616   3.4082
     3.4423   3.4891   3.5918   3.6118   3.6407   3.6422   3.7208   3.7681

     the Fermi energy is     3.1076 ev

!    total energy              =   -2952.61569985 Ry
     estimated scf accuracy    <       0.00000006 Ry
     smearing contrib. (-TS)   =      -0.02584771 Ry
     internal energy E=F+TS    =   -2952.58985214 Ry

     The total energy is F=E-TS. E is the sum of the following terms:
     one-electron contribution =  -24509.43166653 Ry
     hartree contribution      =   12341.90586169 Ry
     xc contribution           =    -487.95708120 Ry
     ewald contribution        =    9702.89272309 Ry
     electric field correction =       0.00031081 Ry

     convergence has been achieved in  67 iterations

     Forces acting on atoms (cartesian axes, Ry/au):

     atom    1 type  1   force =    -0.00003889   -0.00031649    0.09592948
     atom    2 type  1   force =     0.00005640   -0.00048676   -0.17610924
     atom    3 type  2   force =     0.00010287   -0.00009808   -0.02432080
     atom    4 type  2   force =     0.00000930   -0.00163182    0.05389591
     atom    5 type  2   force =    -0.01178385   -0.00140926    0.00392979
     atom    6 type  2   force =     0.01320987   -0.00101931    0.00317292
     atom    7 type  1   force =     0.00034835    0.00069341   -0.00764104
     atom    8 type  1   force =     0.00026897    0.01496162    0.02334828
     atom    9 type  2   force =    -0.00005178    0.00019013    0.00011668
     atom   10 type  2   force =    -0.00219359    0.00049907   -0.01743974
     atom   11 type  2   force =     0.00047436   -0.00026813   -0.00021747
     atom   12 type  2   force =    -0.00083289   -0.00017384   -0.00000042
     atom   13 type  1   force =     0.00045617    0.00044979    0.00005607
     atom   14 type  1   force =    -0.00019476    0.00004657    0.00089042
     atom   15 type  2   force =    -0.00013293   -0.00001221   -0.00073809
     atom   16 type  2   force =     0.00000584    0.00051086   -0.00027796
     atom   17 type  2   force =    -0.00057894    0.00020193    0.00025233
     atom   18 type  2   force =     0.00037087    0.00006181   -0.00000865
     atom   19 type  1   force =     0.00072011    0.00080495   -0.00041985
     atom   20 type  1   force =    -0.00057430    0.00032482   -0.00002877
     atom   21 type  2   force =     0.00006533   -0.00000360    0.10335797
     atom   22 type  2   force =    -0.00027975   -0.00016440    0.00060533
     atom   23 type  2   force =    -0.07138135   -0.00010697   -0.02764230
     atom   24 type  2   force =     0.07130139    0.00034358   -0.02771383
     atom   25 type  1   force =     0.00023790   -0.00028432    0.09575283
     atom   26 type  1   force =     0.00011751   -0.00029651   -0.17603557
     atom   27 type  2   force =     0.00013983   -0.00029291   -0.02321711
     atom   28 type  2   force =     0.00000235   -0.00132648    0.05365783
     atom   29 type  2   force =    -0.01212914    0.00040125    0.00377630
     atom   30 type  2   force =     0.01351618    0.00101459    0.00302059
     atom   31 type  1   force =     0.00024795    0.00376022   -0.01143074
     atom   32 type  1   force =     0.00044196   -0.01662522    0.02316834
     atom   33 type  2   force =     0.00017932    0.00009300   -0.00032615
     atom   34 type  2   force =    -0.00191428   -0.00010678   -0.02071623
     atom   35 type  2   force =     0.00046018    0.00005639    0.00006949
     atom   36 type  2   force =    -0.00087667   -0.00000909    0.00032641
     atom   37 type  1   force =     0.00081036    0.00005341   -0.00028652
     atom   38 type  1   force =    -0.00000302    0.00013509    0.00040683
     atom   39 type  2   force =    -0.00025315    0.00041987   -0.00054516
     atom   40 type  2   force =    -0.00039624   -0.00008674   -0.00018097
     atom   41 type  2   force =    -0.00052781    0.00026460    0.00009851
     atom   42 type  2   force =    -0.00002503    0.00011594   -0.00005545
     atom   43 type  1   force =     0.00033876   -0.00033796    0.00024803
     atom   44 type  1   force =    -0.00004128   -0.00030462    0.00046205
     atom   45 type  2   force =     0.00006830   -0.00000432    0.10330438
     atom   46 type  2   force =    -0.07136643   -0.00005006   -0.02762230
     atom   47 type  2   force =     0.07128720    0.00037850   -0.02769582
     atom   48 type  3   force =     0.00127211    0.00101829    0.00042085
     atom   49 type  4   force =    -0.00028570   -0.00025406   -0.00058122
     atom   50 type  5   force =     0.00000241   -0.00059162    0.00021267
     atom   51 type  5   force =     0.00018114   -0.00056578    0.00010798
     atom   52 type  2   force =     0.00305874    0.00571612    0.00854779
     atom   53 type  5   force =    -0.00594112   -0.00473754   -0.00556140
     atom   54 type  5   force =     0.00205085   -0.00095091   -0.00232330

     Total force =     0.368128     Total SCF correction =     0.000419
  @ DRIVER MODE: Message from server: STATUS
  @ DRIVER MODE: Message from server: GETFORCE
  @ DRIVER MODE: Returning v,forces,stress,ensemble

     Writing output data file ./calc.save/
  @ DRIVER MODE: Message from server: EXIT
  @ DRIVE MODE: Exiting

     General routines

     Parallel routines

   This run was terminated on:   0:57:39  16Sep2021

   JOB DONE.