     Program PWSCF v.6.7GPU starts on 23Sep2021 at 17:54:53

     R & G space division:  proc/nbgrp/npool/nimage =       8
     Reading input from /storage/home/hcoda1/3/ntian30/research/carbon/CxH_vib/H2O_calc/ads_slab/CH3NNHHHHO_a/out_0018/pw.inp
Warning: card &CELL ignored
Warning: card   CELL_DYNAMICS='IPI', ignored
Warning: card / ignored

     Current dimensions of program PWSCF are:
     Max number of different atomic species (ntypx) = 10
     Max number of k-points (npk) =  40000
     Max angular momentum in pseudopotentials (lmaxx) =  3
     Presently no symmetry can be used with electric field

     Message from routine cell_base_init:
     DEPRECATED: use true lattice parameter, not A to a.u. conversion factor

     IMPORTANT: XC functional enforced from input :
     Exchange-correlation= BEEF-VDW
                           (   1   4  43  14   2   0   0)
     Any further DFT definition will be discarded
     Please, verify this is what you really want

  @ DRIVER MODE: Connecting to
 qe_1139763_2947308.sched-torque.pace.gatech.edup7kgfy50_scratch
  using UNIX socket
  @ DRIVER MODE: Message from server: STATUS
  @ DRIVER MODE: Message from server: INIT
  @ DRIVER MODE: Receiving replica           0          -1
  @ DRIVER MODE: Receiving encoded integer          25
  @ DRIVER MODE:  SCF:  T  FORCE:  T  STRESS:  F  VC:  F  ENSEMBLE:  F
  @ DRIVER MODE:  SCF:  T  FORCE:  T  STRESS:  F  VC:  F  ENSEMBLE:  F

     Using Slab Decomposition

     bravais-lattice index     =            0
     lattice parameter (alat)  =       1.8897  a.u.
     unit-cell volume          =    6658.9804 (a.u.)^3
     number of atoms/cell      =           58
     number of atomic types    =            5
     number of electrons       =       405.00
     number of Kohn-Sham states=          212
     kinetic-energy cutoff     =      29.3995  Ry
     charge density cutoff     =     293.9946  Ry
     scf convergence threshold =      7.3E-08
     mixing beta               =       0.0500
     number of iterations used =            8  plain     mixing
     Exchange-correlation= BEEF-VDW
                           (   1   4  43  14   2   0   0)

     celldm(1)=   1.889726  celldm(2)=   0.000000  celldm(3)=   0.000000
     celldm(4)=   0.000000  celldm(5)=   0.000000  celldm(6)=   0.000000

     crystal axes: (cart. coord. in units of alat)
               a(1) = (   6.579727   0.000000   0.000000 )
               a(2) = (  -0.000775   5.961596   0.000000 )
               a(3) = (   0.000000   0.000000  25.155947 )

     reciprocal axes: (cart. coord. in units 2 pi/alat)
               b(1) = (  0.151982  0.000020  0.000000 )
               b(2) = (  0.000000  0.167740  0.000000 )
               b(3) = (  0.000000  0.000000  0.039752 )

     PseudoPot. # 1 for Ti read from file:
     /storage/coda1/p-amedford6/0/shared/rich_project_chbe-medford/medford-share/data/pseudos_module/espresso/nninc/pbe/van/Ti.UPF
     MD5 check sum: 8e4df49b7f0d34bbd5052bf3f5ea0213
     Pseudo is Ultrasoft, Zval = 12.0
     Generated by new atomic code, or converted to UPF format
     Using radial grid of  851 points,  6 beta functions with:
                l(1) =   0
                l(2) =   0
                l(3) =   1
                l(4) =   1
                l(5) =   2
                l(6) =   2
     Q(r) pseudized with  8 coefficients,  rinner =    1.000   1.000   1.000
                                                       1.000   1.000

     PseudoPot. # 2 for O  read from file:
     /storage/coda1/p-amedford6/0/shared/rich_project_chbe-medford/medford-share/data/pseudos_module/espresso/nninc/pbe/van/O.UPF
     MD5 check sum: 78c19812648e8988a0fe644b0f25305e
     Pseudo is Ultrasoft, Zval =  6.0
     Generated by new atomic code, or converted to UPF format
     Using radial grid of  737 points,  4 beta functions with:
                l(1) =   0
                l(2) =   0
                l(3) =   1
                l(4) =   1
     Q(r) pseudized with  8 coefficients,  rinner =    0.800   0.800   0.800

     PseudoPot. # 3 for N  read from file:
     /storage/coda1/p-amedford6/0/shared/rich_project_chbe-medford/medford-share/data/pseudos_module/espresso/nninc/pbe/van/N.UPF
     MD5 check sum: 90d10febe142ad51ac9d5be1deb811c4
     Pseudo is Ultrasoft, Zval =  5.0
     Generated by new atomic code, or converted to UPF format
     Using radial grid of  729 points,  4 beta functions with:
                l(1) =   0
                l(2) =   0
                l(3) =   1
                l(4) =   1
     Q(r) pseudized with  8 coefficients,  rinner =    0.800   0.800   0.800

     PseudoPot. # 4 for C  read from file:
     /storage/coda1/p-amedford6/0/shared/rich_project_chbe-medford/medford-share/data/pseudos_module/espresso/nninc/pbe/van/C.UPF
     MD5 check sum: 1a69bf6b8db32088f5b2163dbdb77a27
     Pseudo is Ultrasoft, Zval =  4.0
     Generated by new atomic code, or converted to UPF format
     Using radial grid of  721 points,  4 beta functions with:
                l(1) =   0
                l(2) =   0
                l(3) =   1
                l(4) =   1
     Q(r) pseudized with  8 coefficients,  rinner =    0.800   0.800   0.800

     PseudoPot. # 5 for H  read from file:
     /storage/coda1/p-amedford6/0/shared/rich_project_chbe-medford/medford-share/data/pseudos_module/espresso/nninc/pbe/van/H.UPF
     MD5 check sum: b5ee9d7bfd3a09ee7748110bda690ff7
     Pseudo is Ultrasoft, Zval =  1.0
     Generated by new atomic code, or converted to UPF format
     Using radial grid of  615 points,  1 beta functions with:
                l(1) =   0
     Q(r) pseudized with  8 coefficients,  rinner =    0.800

     atomic species   valence    mass     pseudopotential
        Ti1           12.00    47.86700     Ti( 1.00)
        O1             6.00    15.99900     O ( 1.00)
        N1             5.00    14.00700     N ( 1.00)
        C1             4.00    12.01100     C ( 1.00)
        H1             1.00     1.00800     H ( 1.00)

     No symmetry found

   Cartesian axes

     site n.     atom                  positions (alat units)
         1           Ti1 tau(   1) = (   0.0004258   2.9801865   6.0000000  )
         2           Ti1 tau(   2) = (   3.2906075   1.4906267   6.0002472  )
         3           O1  tau(   3) = (   0.0006271   0.0005054   7.9858123  )
         4           O1  tau(   4) = (   3.2906025   0.0005020   7.3038282  )
         5           O1  tau(   5) = (   4.5942328   1.4918067   9.2879030  )
         6           O1  tau(   6) = (   1.9868534   1.4903216   9.2879459  )
         7           Ti1 tau(   7) = (   3.2907910   2.8959150   9.1758416  )
         8           Ti1 tau(   8) = (   0.0015273   1.4827037   9.2680791  )
         9           O1  tau(   9) = (   3.3066316   0.0080679  11.3583267  )
        10           O1  tau(  10) = (   0.0116148   5.9584955  10.6183126  )
        11           O1  tau(  11) = (   1.3000076   1.5005770  12.6434233  )
        12           O1  tau(  12) = (   5.3281586   1.4930334  12.6431679  )
        13           Ti1 tau(  13) = (   0.0126194   3.0144704  12.5166071  )
        14           Ti1 tau(  14) = (   3.3185830   1.5708444  12.4374219  )
        15           O1  tau(  15) = (   0.0449490   0.0685618  14.6579901  )
        16           O1  tau(  16) = (   3.3164028   5.8986079  13.9921319  )
        17           O1  tau(  17) = (   4.5763498   1.4919541  16.1892649  )
        18           O1  tau(  18) = (   2.0390356   1.5007807  16.1677599  )
        19           Ti1 tau(  19) = (   3.3152479   2.9236451  15.6986563  )
        20           Ti1 tau(  20) = (   0.0808212   1.4292116  16.0039943  )
        21           O1  tau(  21) = (   3.2904802   0.0005063   4.7018136  )
        22           O1  tau(  22) = (   0.0303022   5.8046116  17.1736243  )
        23           O1  tau(  23) = (   1.3043587   1.4918075   6.0039043  )
        24           O1  tau(  24) = (   5.2767064   1.4903225   6.0039473  )
        25           Ti1 tau(  25) = (   0.0000382   5.9609847   6.0000000  )
        26           Ti1 tau(  26) = (   3.2902200   4.4714249   6.0002472  )
        27           O1  tau(  27) = (   0.0002396   2.9813036   7.9858123  )
        28           O1  tau(  28) = (   3.2902150   2.9813002   7.3038282  )
        29           O1  tau(  29) = (   4.5938453   4.4726049   9.2879030  )
        30           O1  tau(  30) = (   1.9864658   4.4711199   9.2879459  )
        31           Ti1 tau(  31) = (   3.2891106   5.8743827   9.1763621  )
        32           Ti1 tau(  32) = (   0.0006254   4.4649316   9.2693709  )
        33           O1  tau(  33) = (   3.3101163   2.9547251  11.3177968  )
        34           O1  tau(  34) = (   0.0092240   2.9805883  10.6323155  )
        35           O1  tau(  35) = (   1.2917786   4.4638488  12.6831265  )
        36           O1  tau(  36) = (   5.3332004   4.4701953  12.6833355  )
        37           Ti1 tau(  37) = (   0.0360484   0.0435164  12.5022323  )
        38           Ti1 tau(  38) = (   3.3166134   4.6596848  12.7231989  )
        39           O1  tau(  39) = (   6.5734590   2.9070644  14.8960501  )
        40           O1  tau(  40) = (   3.3256711   2.9499323  13.9293234  )
        41           O1  tau(  41) = (   4.5718193   4.3849529  16.1598725  )
        42           O1  tau(  42) = (   2.0293811   4.3548050  16.0908550  )
        43           Ti1 tau(  43) = (   3.3839698   5.9011270  16.3477160  )
        44           Ti1 tau(  44) = (   0.0762916   4.6312412  15.8077656  )
        45           O1  tau(  45) = (   3.2900926   2.9813045   4.7018136  )
        46           O1  tau(  46) = (   1.3039711   4.4726057   6.0039043  )
        47           O1  tau(  47) = (   5.2763189   4.4711207   6.0039473  )
        48           N1  tau(  48) = (   1.0338470   3.0145746  18.8549854  )
        49           N1  tau(  49) = (   6.4614719   2.5758313  18.0922931  )
        50           C1  tau(  50) = (   0.6385090   3.7489381  20.0702371  )
        51           H1  tau(  51) = (   6.5128770   4.5633600  19.8465500  )
        52           H1  tau(  52) = (   0.1876125   3.0656416  20.7809517  )
        53           H1  tau(  53) = (   1.5398112   4.1767214  20.4987412  )
        54           H1  tau(  54) = (   5.7034478   3.2665398  18.1448723  )
        55           H1  tau(  55) = (   6.1095767   1.7263867  18.5341855  )
        56           H1  tau(  56) = (   1.5400177   3.6533120  18.2466354  )
        57           O1  tau(  57) = (   3.2295176   5.8880611  18.1942677  )
        58           H1  tau(  58) = (   2.6769533   0.6239085  18.5854980  )

     number of k points=    10  Fermi-Dirac smearing, width (Ry)=  0.0073
                       cart. coord. in units 2pi/alat
        k(    1) = (   0.0000000   0.0000000   0.0000000), wk =   0.1250000
        k(    2) = (   0.0000000   0.0419351   0.0000000), wk =   0.2500000
        k(    3) = (   0.0000000  -0.0838702   0.0000000), wk =   0.1250000
        k(    4) = (   0.0379955   0.0000049   0.0000000), wk =   0.2500000
        k(    5) = (   0.0379955   0.0419400   0.0000000), wk =   0.2500000
        k(    6) = (   0.0379955  -0.0838652   0.0000000), wk =   0.2500000
        k(    7) = (   0.0379955  -0.0419301   0.0000000), wk =   0.2500000
        k(    8) = (  -0.0759910  -0.0000099   0.0000000), wk =   0.1250000
        k(    9) = (  -0.0759910   0.0419252   0.0000000), wk =   0.2500000
        k(   10) = (  -0.0759910  -0.0838800   0.0000000), wk =   0.1250000

     Initial potential from superposition of free atoms

     starting charge  388.99913, renormalised to  405.00000

     negative rho (up, down):  1.324E-02 0.000E+00

     %%%%%%%%%%%%%%%%%%%%%%%%%%%%%%%%%%%%%%%%%%%%%%%%%%%%%%%%%%%%%%%%%%%%%%%%
     %                                                                      %
     % You are using vdW-DF, which was implemented by the Thonhauser group. %
     % Please cite the following two papers that made this development      %
     % possible and the two reviews that describe the various versions:     %
     %                                                                      %
     %   T. Thonhauser et al., PRL 115, 136402 (2015).                      %
     %   T. Thonhauser et al., PRB 76, 125112 (2007).                       %
     %   K. Berland et al., Rep. Prog. Phys. 78, 066501 (2015).             %
     %   D.C. Langreth et al., J. Phys.: Condens. Matter 21, 084203 (2009). %
     %                                                                      %
     %                                                                      %
     % If you are calculating the stress with vdW-DF, please also cite:     %
     %                                                                      %
     %   R. Sabatini et al., J. Phys.: Condens. Matter 24, 424209 (2012).   %
     %                                                                      %
     %%%%%%%%%%%%%%%%%%%%%%%%%%%%%%%%%%%%%%%%%%%%%%%%%%%%%%%%%%%%%%%%%%%%%%%%

     Adding external electric field

     Computed dipole along edir(3) :
        Dipole              -14.7683 Ry au,        -37.5372 Debye
        Dipole field         -0.0279 Ry au,

        Potential amp.        2.5835 Ry
        Total length         46.3494 bohr

     Starting wfcs are  307 atomic wfcs
  @ DRIVER MODE: Message from server: STATUS
  @ DRIVER MODE: Message from server: POSDATA
  @ DRIVER MODE: Reading and sharing cell
  @ DRIVER MODE: Reading and sharing positions
  @ DRIVER MODE: Received positions

     Self-consistent Calculation

     iteration #  1     ecut=    29.40 Ry     beta= 0.05
     Davidson diagonalization with overlap
     c_bands:  3 eigenvalues not converged
     c_bands:  4 eigenvalues not converged
     c_bands:  2 eigenvalues not converged
     c_bands:  3 eigenvalues not converged
     c_bands:  3 eigenvalues not converged
     c_bands:  3 eigenvalues not converged
     ethr =  1.00E-05,  avg # of iterations = 23.2

[...]

     total energy              =   -2204.24084246 Ry
     estimated scf accuracy    <    8785.93421017 Ry

     iteration #  2     ecut=    29.40 Ry     beta= 0.05
     Davidson diagonalization with overlap
     ethr =  1.00E-02,  avg # of iterations = 29.9

[...]

     iteration # 52     ecut=    29.40 Ry     beta= 0.05
     Davidson diagonalization with overlap
     c_bands:  2 eigenvalues not converged
     ethr =  4.10E-08,  avg # of iterations = 13.8

[...]

     total energy              =   -2976.49809055 Ry
     estimated scf accuracy    <       0.00000011 Ry

     iteration # 68     ecut=    29.40 Ry     beta= 0.05
     Davidson diagonalization with overlap
     ethr =  2.66E-11,  avg # of iterations =  6.7

     negative rho (up, down):  1.443E-02 0.000E+00

     Adding external electric field

     Computed dipole along edir(3) :
        Dipole                0.9977 Ry au,          2.5359 Debye
        Dipole field          0.0019 Ry au,

        Potential amp.       -0.1745 Ry
        Total length         46.3494 bohr

     End of self-consistent calculation

          k = 0.0000 0.0000 0.0000 ( 18029 PWs)   bands (ev):

   -55.5793 -55.4958 -55.4617 -55.3608 -55.3395 -55.3238 -55.3097 -55.3030
   -55.2900 -55.2603 -55.2166 -55.0943 -55.0834 -55.0068 -54.4648 -54.4308
   -31.9803 -31.9157 -31.8746 -31.8273 -31.8256 -31.8067 -31.7962 -31.7867
   -31.7468 -31.7418 -31.7235 -31.6483 -31.6245 -31.6042 -31.6022 -31.6004
   -31.5945 -31.5825 -31.5801 -31.5533 -31.5470 -31.5218 -31.5212 -31.5096
   -31.4942 -31.4831 -31.4753 -31.4582 -31.4540 -31.4511 -31.4414 -31.4354
   -31.4315 -31.4123 -31.3704 -31.3685 -31.2979 -31.2909 -31.2767 -31.2564
   -31.2194 -31.2122 -30.8704 -30.7849 -30.7625 -30.6881 -30.6018 -30.4898
   -17.5551 -16.3982 -16.1367 -15.9741 -15.7583 -15.6729 -15.6444 -15.4519
   -15.3466 -15.2937 -15.1072 -15.0611 -15.0307 -15.0192 -15.0042 -14.9815
   -14.9616 -14.9235 -14.9151 -14.9048 -14.8992 -14.8606 -14.8382 -14.7876
   -14.7647 -14.7024 -14.6302 -14.5625 -14.5150 -14.2539 -14.2363 -12.9633
   -12.9367 -12.8470  -9.4820  -6.1450  -5.1903  -4.5974  -3.9597  -3.5013
    -3.4005  -3.3847  -3.3302  -3.2661  -3.1721  -2.9930  -2.8844  -2.8315
    -2.7298  -2.6228  -2.5700  -2.5342  -2.4987  -2.4288  -2.3945  -2.3860
    -2.3769  -2.2800  -2.2730  -2.2444  -2.2095  -2.1527  -2.1372  -2.0591
    -2.0229  -2.0143  -1.8898  -1.8773  -1.8116  -1.8072  -1.8010  -1.7673
    -1.7463  -1.7314  -1.7025  -1.6186  -1.5656  -1.4951  -1.4721  -1.4428
    -1.1833  -1.0913  -1.0538  -1.0259  -0.9282  -0.9105  -0.8979  -0.8948
    -0.8809  -0.8313  -0.7850  -0.7006  -0.5911  -0.5702  -0.5622  -0.5173
    -0.4519  -0.3701  -0.2969  -0.2674  -0.2301  -0.2168  -0.1509  -0.0733
    -0.0573  -0.0448   0.0637   0.0783   0.1605   0.2192   0.2331   0.2781
     0.3190   0.3517   0.4082   0.4446   0.4750   0.4809   0.5143   0.5588
     0.6145   0.6450   0.6728   0.7551   0.8107   0.8560   0.8837   1.0560
     1.0868   1.1481   1.1814   1.2688   1.5114   1.5617   1.6008   1.7561
     2.1279   2.1730   3.5889   3.7399   3.7551   3.8247   3.8497   3.9408
     4.0782   4.1458   4.2778   4.2861

[...]

          k = 0.0380-0.0419 0.0000 ( 17876 PWs)   bands (ev):

[...]

          k =-0.0760-0.0000 0.0000 ( 17886 PWs)   bands (ev):

[...]

          k =-0.0760-0.0839 0.0000 ( 17948 PWs)   bands (ev):

   -55.5786 -55.4788 -55.4785 -55.3595 -55.3264 -55.3161 -55.3103 -55.3069
   -55.3065 -55.2524 -55.2246 -55.0911 -55.0845 -55.0098 -54.4477 -54.4477
   -31.8630 -31.8052 -31.8001 -31.7957 -31.7955 -31.7810 -31.7723 -31.7720
   -31.7030 -31.6469 -31.6391 -31.6317 -31.6267 -31.6135 -31.5988 -31.5987
   -31.5965 -31.5960 -31.5820 -31.5714 -31.5638 -31.5552 -31.5343 -31.5160
   -31.5133 -31.5095 -31.5023 -31.4992 -31.4868 -31.4796 -31.4770 -31.4713
   -31.4660 -31.4475 -31.4417 -31.3645 -31.3525 -31.3386 -31.2999 -31.2949
   -31.2616 -31.2156 -30.7752 -30.7751 -30.6835 -30.6832 -30.6450 -30.6450
   -17.5489 -16.3841 -15.7448 -15.5667 -15.4707 -15.4642 -15.3334 -15.2675
   -15.2588 -15.2241 -15.2056 -15.1904 -15.1576 -15.1401 -15.1005 -15.0479
   -15.0145 -14.9919 -14.9803 -14.9433 -14.9307 -14.9088 -14.9015 -14.8929
   -14.8345 -14.8024 -14.7933 -14.7624 -14.5673 -14.5449 -14.3688 -12.9489
   -12.9488 -12.9382  -9.4795  -6.1302  -5.1919  -4.6077  -3.9559  -3.1756
    -2.9191  -2.7757  -2.6997  -2.5668  -2.5593  -2.5400  -2.4978  -2.4467
    -2.4372  -2.3954  -2.3415  -2.3265  -2.2827  -2.2786  -2.2470  -2.2341
    -2.2236  -2.2144  -2.1894  -2.1697  -2.1609  -2.1200  -2.1155  -2.0996
    -2.0806  -2.0636  -2.0360  -2.0252  -1.9848  -1.9452  -1.8800  -1.8062
    -1.7206  -1.6379  -1.6273  -1.6166  -1.5701  -1.5636  -1.5169  -1.5050
    -1.4579  -1.4059  -1.2925  -1.1693  -1.1293  -1.1034  -1.0714  -1.0389
    -0.9846  -0.9618  -0.9268  -0.8784  -0.8467  -0.7229  -0.7119  -0.6466
    -0.5610  -0.5286  -0.4528  -0.4396  -0.4249  -0.4088  -0.3869  -0.3704
    -0.3407  -0.3246  -0.2203  -0.1965  -0.1933  -0.1706  -0.1195  -0.0168
     0.0570   0.1402   0.2426   0.2925   0.3202   0.3539   0.4538   0.5722
     0.5971   0.6603   0.6923   0.7350   0.8022   0.8229   0.8708   0.9559
     1.0095   1.0416   1.0681   1.0731   1.1279   1.1660   1.9247   1.9332
     1.9933   1.9936   3.8026   4.0788   4.1045   4.1203   4.1576   4.1618
     4.1839   4.1983   4.2636   4.2801

     the Fermi energy is     3.6258 ev

!    total energy              =   -2976.49811700 Ry
     estimated scf accuracy    <       0.00000007 Ry
     smearing contrib. (-TS)   =      -0.01952572 Ry
     internal energy E=F+TS    =   -2976.47859128 Ry

     The total energy is F=E-TS. E is the sum of the following terms:
     one-electron contribution =  -23032.88481241 Ry
     hartree contribution      =   11612.82885242 Ry
     xc contribution           =    -495.70831815 Ry
     ewald contribution        =    8939.28380835 Ry
     electric field correction =       0.00187851 Ry

     convergence has been achieved in  68 iterations

     Forces acting on atoms (cartesian axes, Ry/au):

     atom    1 type  1   force =     0.00001282   -0.00021916    0.09405112
     atom    2 type  1   force =    -0.00016367    0.00025806   -0.17516378
     atom    3 type  2   force =     0.00007428   -0.00016169   -0.02113726
     atom    4 type  2   force =     0.00000389   -0.00104984    0.05357273
     atom    5 type  2   force =    -0.00455066   -0.00322930    0.00114922
     atom    6 type  2   force =     0.00660845   -0.00242862    0.00161307
     atom    7 type  1   force =     0.00037356    0.00457704    0.01037021
     atom    8 type  1   force =    -0.00056092    0.00198707    0.00313469
     atom    9 type  2   force =     0.00010298   -0.00049759   -0.00049303
     atom   10 type  2   force =    -0.00031049   -0.00004044   -0.01130888
     atom   11 type  2   force =    -0.00024379    0.00045752    0.00004242
     atom   12 type  2   force =    -0.00025969    0.00067363    0.00007989
     atom   13 type  1   force =     0.00061833   -0.00065735    0.00023867
     atom   14 type  1   force =    -0.00035629    0.00016694    0.00019680
     atom   15 type  2   force =    -0.00017157    0.00010809    0.00052150
     atom   16 type  2   force =     0.00005026   -0.00002285    0.00042167
     atom   17 type  2   force =    -0.00038933    0.00021757    0.00008548
     atom   18 type  2   force =     0.00005532    0.00006695    0.00021363
     atom   19 type  1   force =    -0.00011513    0.00053663   -0.00024438
     atom   20 type  1   force =     0.00002027   -0.00012510   -0.00011526
     atom   21 type  2   force =     0.00002877   -0.00001729    0.10311352
     atom   22 type  2   force =    -0.00009391   -0.00015469   -0.00030441
     atom   23 type  2   force =    -0.07212610   -0.00021246   -0.02726104
     atom   24 type  2   force =     0.07203266    0.00023113   -0.02733929
     atom   25 type  1   force =     0.00006469   -0.00035341    0.09402318
     atom   26 type  1   force =    -0.00000609   -0.00129010   -0.17519118
     atom   27 type  2   force =     0.00015369   -0.00021403   -0.01991607
     atom   28 type  2   force =     0.00008712   -0.00110525    0.04909214
     atom   29 type  2   force =    -0.00668832    0.00152703    0.00212208
     atom   30 type  2   force =     0.00855698    0.00170531    0.00249232
     atom   31 type  1   force =     0.00049924   -0.00019912    0.00053426
     atom   32 type  1   force =    -0.00020338   -0.00145261    0.00351914
     atom   33 type  2   force =    -0.00007825    0.00001897   -0.00005631
     atom   34 type  2   force =    -0.00088872    0.00246136   -0.01151349
     atom   35 type  2   force =     0.00002222   -0.00043350    0.00048384
     atom   36 type  2   force =    -0.00051899   -0.00041055    0.00034018
     atom   37 type  1   force =     0.00037310    0.00028886    0.00003236
     atom   38 type  1   force =    -0.00038435    0.00021319    0.00029458
     atom   39 type  2   force =    -0.00051242    0.00043539    0.00047280
     atom   40 type  2   force =    -0.00001961   -0.00008526   -0.00006053
     atom   41 type  2   force =    -0.00040445   -0.00025535    0.00026002
     atom   42 type  2   force =    -0.00020047   -0.00024116   -0.00025465
     atom   43 type  1   force =    -0.00005019   -0.00036930    0.00069070
     atom   44 type  1   force =    -0.00015782    0.00015866    0.00014266
     atom   45 type  2   force =     0.00002281   -0.00001278    0.10296851
     atom   46 type  2   force =    -0.07213103   -0.00008627   -0.02725940
     atom   47 type  2   force =     0.07198527    0.00035257   -0.02730166
     atom   48 type  3   force =    -0.00047853    0.00024732    0.00526581
     atom   49 type  3   force =    -0.00046822    0.00079050    0.00106962
     atom   50 type  4   force =    -0.00045795    0.00188856   -0.01822723
     atom   51 type  5   force =     0.00105919   -0.00136349    0.00239729
     atom   52 type  5   force =    -0.00259645   -0.00498158    0.00563135
     atom   53 type  5   force =     0.00346368    0.00094410    0.00318735
     atom   54 type  5   force =     0.00007797    0.00019506   -0.00064229
     atom   55 type  5   force =    -0.00017333    0.00032463    0.00032665
     atom   56 type  5   force =    -0.00010934    0.00088922    0.00048011
     atom   57 type  2   force =    -0.00020699    0.00051056   -0.00062241
     atom   58 type  5   force =    -0.00027110   -0.00056177   -0.00021902

     Total force =     0.362343     Total SCF correction =     0.000811
  @ DRIVER MODE: Message from server: STATUS
  @ DRIVER MODE: Message from server: GETFORCE
  @ DRIVER MODE: Returning v,forces,stress,ensemble

     Writing output data file ./calc.save/
  @ DRIVER MODE: Message from server: EXIT
  @ DRIVE MODE: Exiting

     General routines

     Parallel routines

   This run was terminated on:  18:19:46  23Sep2021

   JOB DONE.