     Program PWSCF v.6.7GPU starts on 14Sep2021 at 16:23:25

     R & G space division:  proc/nbgrp/npool/nimage =      10
     Reading input from /storage/home/hcoda1/3/ntian30/research/carbon/CxH_vib/CH2_calc/ads_slab/CH2ON2_b/out_0008/pw.inp
Warning: card &CELL ignored
Warning: card   CELL_DYNAMICS='IPI', ignored
Warning: card / ignored

     Current dimensions of program PWSCF are:
     Max number of different atomic species (ntypx) = 10
     Max number of k-points (npk) =  40000
     Max angular momentum in pseudopotentials (lmaxx) =  3
     Presently no symmetry can be used with electric field

     Message from routine cell_base_init:
     DEPRECATED: use true lattice parameter, not A to a.u. conversion factor

     IMPORTANT: XC functional enforced from input :
     Exchange-correlation= BEEF-VDW
                           (   1   4  43  14   2   0   0)
     Any further DFT definition will be discarded
     Please, verify this is what you really want

  @ DRIVER MODE: Connecting to
 qe_1139763_2840441.sched-torque.pace.gatech.eduknc9n1oe_scratch
  using UNIX socket
  @ DRIVER MODE: Message from server: STATUS
  @ DRIVER MODE: Message from server: INIT
  @ DRIVER MODE: Receiving replica           0          -1
  @ DRIVER MODE: Receiving encoded integer          25
  @ DRIVER MODE:  SCF:  T  FORCE:  T  STRESS:  F  VC:  F  ENSEMBLE:  F
  @ DRIVER MODE:  SCF:  T  FORCE:  T  STRESS:  F  VC:  F  ENSEMBLE:  F

     Using Slab Decomposition

     bravais-lattice index     =            0
     lattice parameter (alat)  =       1.8897  a.u.
     unit-cell volume          =    6658.9804 (a.u.)^3
     number of atoms/cell      =           53
     number of atomic types    =            5
     number of electrons       =       400.00
     number of Kohn-Sham states=          210
     kinetic-energy cutoff     =      29.3995  Ry
     charge density cutoff     =     293.9946  Ry
     scf convergence threshold =      7.3E-08
     mixing beta               =       0.0500
     number of iterations used =            8  plain     mixing
     Exchange-correlation= BEEF-VDW
                           (   1   4  43  14   2   0   0)

     celldm(1)=   1.889726  celldm(2)=   0.000000  celldm(3)=   0.000000
     celldm(4)=   0.000000  celldm(5)=   0.000000  celldm(6)=   0.000000

     crystal axes: (cart. coord. in units of alat)
               a(1) = (   6.579727   0.000000   0.000000 )
               a(2) = (  -0.000775   5.961596   0.000000 )
               a(3) = (   0.000000   0.000000  25.155947 )

     reciprocal axes: (cart. coord. in units 2 pi/alat)
               b(1) = (  0.151982  0.000020  0.000000 )
               b(2) = (  0.000000  0.167740  0.000000 )
               b(3) = (  0.000000  0.000000  0.039752 )

     PseudoPot. # 1 for C  read from file:
     /storage/coda1/p-amedford6/0/shared/rich_project_chbe-medford/medford-share/data/pseudos_module/espresso/nninc/pbe/van/C.UPF
     MD5 check sum: 1a69bf6b8db32088f5b2163dbdb77a27
     Pseudo is Ultrasoft, Zval =  4.0
     Generated by new atomic code, or converted to UPF format
     Using radial grid of  721 points,  4 beta functions with:
                l(1) =   0
                l(2) =   0
                l(3) =   1
                l(4) =   1
     Q(r) pseudized with  8 coefficients,  rinner =    0.800   0.800   0.800

     PseudoPot. # 2 for H  read from file:
     /storage/coda1/p-amedford6/0/shared/rich_project_chbe-medford/medford-share/data/pseudos_module/espresso/nninc/pbe/van/H.UPF
     MD5 check sum: b5ee9d7bfd3a09ee7748110bda690ff7
     Pseudo is Ultrasoft, Zval =  1.0
     Generated by new atomic code, or converted to UPF format
     Using radial grid of  615 points,  1 beta functions with:
                l(1) =   0
     Q(r) pseudized with  8 coefficients,  rinner =    0.800

     PseudoPot. # 3 for O  read from file:
     /storage/coda1/p-amedford6/0/shared/rich_project_chbe-medford/medford-share/data/pseudos_module/espresso/nninc/pbe/van/O.UPF
     MD5 check sum: 78c19812648e8988a0fe644b0f25305e
     Pseudo is Ultrasoft, Zval =  6.0
     Generated by new atomic code, or converted to UPF format
     Using radial grid of  737 points,  4 beta functions with:
                l(1) =   0
                l(2) =   0
                l(3) =   1
                l(4) =   1
     Q(r) pseudized with  8 coefficients,  rinner =    0.800   0.800   0.800

     PseudoPot. # 4 for Ti read from file:
     /storage/coda1/p-amedford6/0/shared/rich_project_chbe-medford/medford-share/data/pseudos_module/espresso/nninc/pbe/van/Ti.UPF
     MD5 check sum: 8e4df49b7f0d34bbd5052bf3f5ea0213
     Pseudo is Ultrasoft, Zval = 12.0
     Generated by new atomic code, or converted to UPF format
     Using radial grid of  851 points,  6 beta functions with:
                l(1) =   0
                l(2) =   0
                l(3) =   1
                l(4) =   1
                l(5) =   2
                l(6) =   2
     Q(r) pseudized with  8 coefficients,  rinner =    1.000   1.000   1.000
                                                       1.000   1.000

     PseudoPot. # 5 for N  read from file:
     /storage/coda1/p-amedford6/0/shared/rich_project_chbe-medford/medford-share/data/pseudos_module/espresso/nninc/pbe/van/N.UPF
     MD5 check sum: 90d10febe142ad51ac9d5be1deb811c4
     Pseudo is Ultrasoft, Zval =  5.0
     Generated by new atomic code, or converted to UPF format
     Using radial grid of  729 points,  4 beta functions with:
                l(1) =   0
                l(2) =   0
                l(3) =   1
                l(4) =   1
     Q(r) pseudized with  8 coefficients,  rinner =    0.800   0.800   0.800

     atomic species   valence    mass     pseudopotential
        C1             4.00    12.01100     C ( 1.00)
        H1             1.00     1.00800     H ( 1.00)
        O1             6.00    15.99900     O ( 1.00)
        Ti1           12.00    47.86700     Ti( 1.00)
        N1             5.00    14.00700     N ( 1.00)

     No symmetry found

   Cartesian axes

     site n.     atom                  positions (alat units)
         1           C1  tau(   1) = (   6.4247902   2.9910588  18.6917704  )
         2           H1  tau(   2) = (   6.3980358   3.9338040  19.2291268  )
         3           H1  tau(   3) = (   6.3671137   2.0386567  19.2103458  )
         4           O1  tau(   4) = (   3.2904802   0.0005063   4.7018136  )
         5           O1  tau(   5) = (   3.2900926   2.9813045   4.7018136  )
         6           O1  tau(   6) = (   1.3043587   1.4918075   6.0039043  )
         7           O1  tau(   7) = (   1.3039711   4.4726057   6.0039043  )
         8           O1  tau(   8) = (   5.2767064   1.4903225   6.0039473  )
         9           O1  tau(   9) = (   5.2763189   4.4711207   6.0039473  )
        10           O1  tau(  10) = (   3.2906025   0.0005020   7.3038282  )
        11           O1  tau(  11) = (   3.2902150   2.9813002   7.3038282  )
        12           O1  tau(  12) = (   0.0006271   0.0005054   7.9858123  )
        13           O1  tau(  13) = (   0.0002396   2.9813036   7.9858123  )
        14           O1  tau(  14) = (   4.5942328   1.4918067   9.2879030  )
        15           O1  tau(  15) = (   4.5938453   4.4726049   9.2879030  )
        16           O1  tau(  16) = (   1.9868534   1.4903216   9.2879459  )
        17           O1  tau(  17) = (   1.9864658   4.4711199   9.2879459  )
        18           O1  tau(  18) = (   0.0058113   2.9878523  10.5832334  )
        19           O1  tau(  19) = (   0.0062988   0.0093020  10.6005518  )
        20           O1  tau(  20) = (   3.2955317   2.9954032  11.3404818  )
        21           O1  tau(  21) = (   3.2944299   0.0136787  11.3445968  )
        22           O1  tau(  22) = (   5.2904553   1.5027675  12.6317203  )
        23           O1  tau(  23) = (   5.2914467   4.4836083  12.6349631  )
        24           O1  tau(  24) = (   1.2933861   1.5040032  12.6362007  )
        25           O1  tau(  25) = (   1.2922507   4.4849626  12.6395598  )
        26           O1  tau(  26) = (   3.2955364   2.9961609  13.9180299  )
        27           O1  tau(  27) = (   3.2969677   0.0155663  13.9438287  )
        28           O1  tau(  28) = (   0.0016464   0.0229801  14.6780835  )
        29           O1  tau(  29) = (   0.0078505   2.9966620  14.7218711  )
        30           O1  tau(  30) = (   4.5417949   4.4807699  16.1031406  )
        31           O1  tau(  31) = (   4.5422182   1.5234006  16.1020929  )
        32           O1  tau(  32) = (   2.0382733   4.4802786  16.1011463  )
        33           O1  tau(  33) = (   2.0385641   1.5240134  16.0993588  )
        34           O1  tau(  34) = (   6.5794991   0.0244991  17.1995468  )
        35           O1  tau(  35) = (   6.5588415   3.0026814  17.4289308  )
        36           Ti1 tau(  36) = (   0.0004258   2.9801865   6.0000000  )
        37           Ti1 tau(  37) = (   0.0000382   5.9609847   6.0000000  )
        38           Ti1 tau(  38) = (   3.2906075   1.4906267   6.0002472  )
        39           Ti1 tau(  39) = (   3.2902200   4.4714249   6.0002472  )
        40           Ti1 tau(  40) = (   3.2947477   0.0499856   9.1537742  )
        41           Ti1 tau(  41) = (   3.3215383   3.0289251   9.1580241  )
        42           Ti1 tau(  42) = (   0.0276872   4.5181110   9.2597866  )
        43           Ti1 tau(  43) = (   0.0223396   1.5961087   9.3523429  )
        44           Ti1 tau(  44) = (   3.3278215   4.4891914  12.4850086  )
        45           Ti1 tau(  45) = (   3.3277968   1.5111787  12.4828596  )
        46           Ti1 tau(  46) = (   0.0250534   0.0277200  12.4935153  )
        47           Ti1 tau(  47) = (   0.0290128   3.0118426  12.7617797  )
        48           Ti1 tau(  48) = (   3.2948489   3.0033751  15.7103116  )
        49           Ti1 tau(  49) = (   3.3095243   0.0226186  15.7353524  )
        50           Ti1 tau(  50) = (   0.0095488   1.4190105  15.9501391  )
        51           Ti1 tau(  51) = (   0.0117608   4.6113996  15.9785021  )
        52           N1  tau(  52) = (   3.7826193   3.0501191  20.3090129  )
        53           N1  tau(  53) = (   2.7364546   2.9530354  19.9655958  )

     number of k points=    10  Fermi-Dirac smearing, width (Ry)=  0.0073
                       cart. coord. in units 2pi/alat
        k(    1) = (   0.0000000   0.0000000   0.0000000), wk =   0.1250000
        k(    2) = (   0.0000000   0.0419351   0.0000000), wk =   0.2500000
        k(    3) = (   0.0000000  -0.0838702   0.0000000), wk =   0.1250000
        k(    4) = (   0.0379955   0.0000049   0.0000000), wk =   0.2500000
        k(    5) = (   0.0379955   0.0419400   0.0000000), wk =   0.2500000
        k(    6) = (   0.0379955  -0.0838652   0.0000000), wk =   0.2500000
        k(    7) = (   0.0379955  -0.0419301   0.0000000), wk =   0.2500000
        k(    8) = (  -0.0759910  -0.0000099   0.0000000), wk =   0.1250000
        k(    9) = (  -0.0759910   0.0419252   0.0000000), wk =   0.2500000
        k(   10) = (  -0.0759910  -0.0838800   0.0000000), wk =   0.1250000

     Initial potential from superposition of free atoms

     starting charge  383.99917, renormalised to  400.00000

     negative rho (up, down):  1.498E-02 0.000E+00

     %%%%%%%%%%%%%%%%%%%%%%%%%%%%%%%%%%%%%%%%%%%%%%%%%%%%%%%%%%%%%%%%%%%%%%%%
     %                                                                      %
     % You are using vdW-DF, which was implemented by the Thonhauser group. %
     % Please cite the following two papers that made this development      %
     % possible and the two reviews that describe the various versions:     %
     %                                                                      %
     %   T. Thonhauser et al., PRL 115, 136402 (2015).                      %
     %   T. Thonhauser et al., PRB 76, 125112 (2007).                       %
     %   K. Berland et al., Rep. Prog. Phys. 78, 066501 (2015).             %
     %   D.C. Langreth et al., J. Phys.: Condens. Matter 21, 084203 (2009). %
     %                                                                      %
     %                                                                      %
     % If you are calculating the stress with vdW-DF, please also cite:     %
     %                                                                      %
     %   R. Sabatini et al., J. Phys.: Condens. Matter 24, 424209 (2012).   %
     %                                                                      %
     %%%%%%%%%%%%%%%%%%%%%%%%%%%%%%%%%%%%%%%%%%%%%%%%%%%%%%%%%%%%%%%%%%%%%%%%

     Adding external electric field

     Computed dipole along edir(3) :
        Dipole              -12.3567 Ry au,        -31.4077 Debye
        Dipole field         -0.0233 Ry au,

        Potential amp.        2.1616 Ry
        Total length         46.3494 bohr

     Starting wfcs are  302 atomic wfcs
  @ DRIVER MODE: Message from server: STATUS
  @ DRIVER MODE: Message from server: POSDATA
  @ DRIVER MODE: Reading and sharing cell
  @ DRIVER MODE: Reading and sharing positions
  @ DRIVER MODE: Received positions

     Self-consistent Calculation

     iteration #  1     ecut=    29.40 Ry     beta= 0.05
     Davidson diagonalization with overlap
     c_bands:  2 eigenvalues not converged
     c_bands:  2 eigenvalues not converged
     c_bands:  2 eigenvalues not converged
     c_bands:  2 eigenvalues not converged
     c_bands:  4 eigenvalues not converged
     c_bands:  2 eigenvalues not converged
     c_bands:  5 eigenvalues not converged
     c_bands:  1 eigenvalues not converged
     c_bands:  3 eigenvalues not converged
     ethr =  1.00E-05,  avg # of iterations = 23.3

[...]

     total energy              =   -2430.18849442 Ry
     estimated scf accuracy    <    6093.29736791 Ry

     iteration #  2     ecut=    29.40 Ry     beta= 0.05
     Davidson diagonalization with overlap
     ethr =  1.00E-02,  avg # of iterations = 22.0

[...]

     iteration # 70     ecut=    29.40 Ry     beta= 0.05
     Davidson diagonalization with overlap
     c_bands:  1 eigenvalues not converged
     ethr =  6.80E-11,  avg # of iterations = 10.7

[...]

     total energy              =   -2970.35120850 Ry
     estimated scf accuracy    <       0.00000008 Ry

     iteration # 72     ecut=    29.40 Ry     beta= 0.05
     Davidson diagonalization with overlap
     ethr =  2.00E-11,  avg # of iterations =  5.1

     negative rho (up, down):  1.509E-02 0.000E+00

     Adding external electric field

     Computed dipole along edir(3) :
        Dipole                0.9967 Ry au,          2.5333 Debye
        Dipole field          0.0019 Ry au,

        Potential amp.       -0.1744 Ry
        Total length         46.3494 bohr

     End of self-consistent calculation

          k = 0.0000 0.0000 0.0000 ( 18029 PWs)   bands (ev):

   -55.5219 -55.5126 -55.4848 -55.4763 -55.4180 -55.4008 -55.3758 -55.3127
   -55.3060 -55.2961 -55.2932 -55.2599 -55.2411 -55.2167 -54.5470 -54.5130
   -32.0836 -31.9948 -31.8959 -31.8857 -31.8316 -31.8282 -31.8201 -31.8003
   -31.7725 -31.7563 -31.7543 -31.7291 -31.7059 -31.6947 -31.6798 -31.6617
   -31.6469 -31.6463 -31.6373 -31.6166 -31.5971 -31.5929 -31.5843 -31.5790
   -31.5745 -31.5476 -31.5470 -31.5256 -31.5199 -31.5185 -31.4978 -31.4749
   -31.4697 -31.4471 -31.4386 -31.4375 -31.4301 -31.4251 -31.4036 -31.3992
   -31.3936 -31.3863 -30.9570 -30.8595 -30.8372 -30.7737 -30.6876 -30.5763
   -21.4043 -19.7411 -16.3058 -16.0053 -15.8640 -15.7331 -15.6765 -15.5652
   -15.4083 -15.3488 -15.2517 -15.2023 -15.1518 -15.1240 -15.1106 -15.0983
   -15.0652 -15.0548 -15.0521 -14.9844 -14.9734 -14.9370 -14.9240 -14.9236
   -14.8262 -14.7778 -14.7115 -14.6520 -14.5984 -14.5449 -14.5203 -13.0474
   -12.9290  -9.1234  -6.6666  -5.3888  -5.3868  -4.5584  -4.5479  -3.6547
    -3.4763  -3.4362  -3.4269  -3.3702  -3.3616  -3.2640  -3.1450  -3.1092
    -2.8240  -2.7348  -2.7017  -2.6881  -2.6799  -2.5508  -2.4899  -2.3729
    -2.3656  -2.3519  -2.3509  -2.3421  -2.2977  -2.2947  -2.2517  -2.2194
    -2.1340  -2.0736  -1.9640  -1.9529  -1.9277  -1.8655  -1.8318  -1.8095
    -1.8072  -1.7616  -1.7591  -1.7573  -1.7114  -1.6237  -1.5195  -1.4782
    -1.3827  -1.3489  -1.2368  -1.1057  -1.0272  -0.9870  -0.9343  -0.8839
    -0.8779  -0.8546  -0.8434  -0.8214  -0.8057  -0.6903  -0.5758  -0.5734
    -0.4729  -0.4197  -0.3921  -0.3838  -0.2826  -0.2638  -0.2575  -0.1787
    -0.0239  -0.0184  -0.0053   0.1132   0.1414   0.1579   0.2082   0.2298
     0.2706   0.2946   0.3486   0.4050   0.4144   0.4637   0.4721   0.4936
     0.5990   0.6573   0.6633   0.7218   0.7659   0.9511   0.9658   1.1066
     1.1649   1.3812   1.4780   1.5284   1.6470   2.0650   2.1241   3.6382
     3.6739   3.6930   3.7417   3.7746   3.8123   3.8731   4.0806   4.0981
     4.1000   4.1273

[...]

          k = 0.0380-0.0419 0.0000 ( 17876 PWs)   bands (ev):

[...]

          k =-0.0760-0.0000 0.0000 ( 17886 PWs)   bands (ev):

[...]

          k =-0.0760-0.0839 0.0000 ( 17948 PWs)   bands (ev):

   -55.5107 -55.4958 -55.4956 -55.4931 -55.4102 -55.3972 -55.3835 -55.3159
   -55.3020 -55.2900 -55.2769 -55.2766 -55.2472 -55.2200 -54.5305 -54.5294
   -31.8863 -31.8835 -31.8188 -31.8050 -31.8028 -31.8007 -31.7909 -31.7802
   -31.7688 -31.7437 -31.7274 -31.7145 -31.7024 -31.6631 -31.6510 -31.6446
   -31.6394 -31.6344 -31.6290 -31.6248 -31.6135 -31.6078 -31.6046 -31.6011
   -31.5981 -31.5956 -31.5780 -31.5715 -31.5436 -31.5339 -31.5295 -31.5164
   -31.5042 -31.4950 -31.4898 -31.4825 -31.4804 -31.4758 -31.4588 -31.4383
   -31.4273 -31.4141 -30.8505 -30.8492 -30.7703 -30.7694 -30.7312 -30.7302
   -21.4041 -19.7338 -15.7369 -15.7066 -15.6074 -15.4735 -15.4629 -15.4219
   -15.3809 -15.3227 -15.2644 -15.2620 -15.2207 -15.2093 -15.1855 -15.1511
   -15.1192 -15.0751 -15.0624 -15.0567 -15.0451 -14.9902 -14.9836 -14.9439
   -14.9257 -14.9186 -14.8744 -14.8668 -14.7922 -14.7526 -14.7297 -13.0315
   -13.0289  -9.1360  -6.6503  -5.3652  -5.3185  -4.5631  -4.5575  -3.5713
    -3.1699  -3.0265  -2.9901  -2.8313  -2.6953  -2.6846  -2.6299  -2.5399
    -2.5063  -2.4627  -2.4123  -2.3964  -2.3734  -2.3690  -2.3588  -2.3551
    -2.3474  -2.2972  -2.2776  -2.2424  -2.1848  -2.1791  -2.1664  -2.1594
    -2.1162  -2.1007  -2.0929  -2.0870  -2.0809  -2.0166  -1.9423  -1.8721
    -1.7820  -1.7417  -1.7195  -1.6830  -1.6475  -1.6123  -1.5906  -1.5729
    -1.4614  -1.4336  -1.2908  -1.2665  -1.2499  -1.2385  -1.1978  -1.1937
    -1.0613  -0.9839  -0.9730  -0.9503  -0.8952  -0.8617  -0.8176  -0.7915
    -0.7032  -0.6686  -0.6269  -0.5771  -0.4967  -0.4866  -0.4356  -0.4200
    -0.3378  -0.3241  -0.2926  -0.2898  -0.2237  -0.1783  -0.1047  -0.0982
    -0.0700   0.0354   0.0908   0.1048   0.2873   0.4610   0.4734   0.4856
     0.5967   0.6073   0.6520   0.7285   0.7383   0.8225   0.8781   0.9754
     0.9946   1.0042   1.0833   1.8370   1.8380   1.9275   1.9390   3.6353
     3.8536   3.8870   3.9065   3.9584   4.1153   4.1200   4.1333   4.1460
     4.2588   4.2769

     the Fermi energy is     3.6268 ev

!    total energy              =   -2970.35122892 Ry
     estimated scf accuracy    <       0.00000007 Ry
     smearing contrib. (-TS)   =      -0.03416159 Ry
     internal energy E=F+TS    =   -2970.31706732 Ry

     The total energy is F=E-TS. E is the sum of the following terms:
     one-electron contribution =  -23485.57810496 Ry
     hartree contribution      =   11835.42706887 Ry
     xc contribution           =    -491.50819869 Ry
     ewald contribution        =    9171.34029279 Ry
     electric field correction =       0.00187466 Ry

     convergence has been achieved in  72 iterations

     Forces acting on atoms (cartesian axes, Ry/au):

     atom    1 type  1   force =    -0.00029001    0.00008690   -0.00010671
     atom    2 type  2   force =    -0.00045363    0.00078742    0.00026584
     atom    3 type  2   force =     0.00016815   -0.00057517   -0.00029450
     atom    4 type  3   force =    -0.00007617    0.00002084    0.10420818
     atom    5 type  3   force =    -0.00006239   -0.00001459    0.10426640
     atom    6 type  3   force =    -0.06901502    0.00075935   -0.02906978
     atom    7 type  3   force =    -0.06856315   -0.00136070   -0.02907654
     atom    8 type  3   force =     0.06867717    0.00128609   -0.02914521
     atom    9 type  3   force =     0.06832603   -0.00098306   -0.02914984
     atom   10 type  3   force =     0.00016680    0.00039346    0.04596519
     atom   11 type  3   force =     0.00058529    0.00071063    0.04714383
     atom   12 type  3   force =     0.00030723   -0.00528626   -0.03191359
     atom   13 type  3   force =     0.00035495    0.00311478   -0.02589887
     atom   14 type  3   force =    -0.01816025   -0.00007421    0.00388646
     atom   15 type  3   force =    -0.01657384    0.00120391    0.00343012
     atom   16 type  3   force =     0.01841827   -0.00126082    0.00385450
     atom   17 type  3   force =     0.01757190    0.00141838    0.00329371
     atom   18 type  3   force =     0.00001781    0.00031065    0.00041234
     atom   19 type  3   force =     0.00003510   -0.00012352    0.00013149
     atom   20 type  3   force =    -0.00005032    0.00027885    0.00036747
     atom   21 type  3   force =    -0.00007900   -0.00029942   -0.00035990
     atom   22 type  3   force =     0.00034559    0.00029266    0.00031994
     atom   23 type  3   force =     0.00028049   -0.00025974    0.00030779
     atom   24 type  3   force =    -0.00036639    0.00037336    0.00014364
     atom   25 type  3   force =    -0.00027009   -0.00031440    0.00012660
     atom   26 type  3   force =    -0.00002909    0.00013274    0.00034648
     atom   27 type  3   force =     0.00043259   -0.00008715    0.00019812
     atom   28 type  3   force =    -0.00032800   -0.00002502   -0.00015542
     atom   29 type  3   force =    -0.00033025    0.00020975   -0.00051120
     atom   30 type  3   force =     0.00065193   -0.00057232    0.00033453
     atom   31 type  3   force =     0.00042648    0.00067410    0.00038161
     atom   32 type  3   force =     0.00128528   -0.00049448    0.00002515
     atom   33 type  3   force =     0.00151127    0.00054564    0.00002673
     atom   34 type  3   force =    -0.00057772    0.00000891    0.00082184
     atom   35 type  3   force =    -0.00052931   -0.00056825   -0.00024010
     atom   36 type  4   force =    -0.00024187   -0.00176549    0.10175784
     atom   37 type  4   force =    -0.00010066    0.00135665    0.11451506
     atom   38 type  4   force =    -0.00032501    0.00053137   -0.18031062
     atom   39 type  4   force =    -0.00021306   -0.00041412   -0.18062473
     atom   40 type  4   force =     0.00029125    0.00081776   -0.00110065
     atom   41 type  4   force =     0.00017498   -0.00078447   -0.00088495
     atom   42 type  4   force =    -0.00023091    0.00088879   -0.00020181
     atom   43 type  4   force =    -0.00017528   -0.00020335    0.00002019
     atom   44 type  4   force =    -0.00008058   -0.00007861    0.00028159
     atom   45 type  4   force =    -0.00004147    0.00007679    0.00036046
     atom   46 type  4   force =    -0.00006138    0.00048528   -0.00012475
     atom   47 type  4   force =    -0.00028015   -0.00043602    0.00043224
     atom   48 type  4   force =    -0.00380024   -0.00005983    0.00083373
     atom   49 type  4   force =    -0.00456748    0.00007806    0.00015487
     atom   50 type  4   force =     0.00254224    0.00032049   -0.00023183
     atom   51 type  4   force =     0.00251389   -0.00056920   -0.00044514
     atom   52 type  5   force =     0.00108767    0.00042618    0.00132564
     atom   53 type  5   force =    -0.00029964   -0.00097961   -0.00009345

     Total force =     0.374206     Total SCF correction =     0.000886
  @ DRIVER MODE: Message from server: STATUS
  @ DRIVER MODE: Message from server: GETFORCE
  @ DRIVER MODE: Returning v,forces,stress,ensemble

     Writing output data file ./calc.save/
  @ DRIVER MODE: Message from server: EXIT
  @ DRIVE MODE: Exiting

     General routines

     Parallel routines

   This run was terminated on:  16:41:42  14Sep2021

   JOB DONE.