     Program PWSCF v.6.7GPU starts on 25Aug2021 at  0:18:10

     R & G space division:  proc/nbgrp/npool/nimage =      72
     Reading input from /storage/home/hcoda1/3/ntian30/research/carbon/CH2_vib/ads_slab/CH2NHHH_a/out_0037/pw.inp
Warning: card &CELL ignored
Warning: card   CELL_DYNAMICS='IPI', ignored
Warning: card / ignored

     Current dimensions of program PWSCF are:
     Max number of different atomic species (ntypx) = 10
     Max number of k-points (npk) =  40000
     Max angular momentum in pseudopotentials (lmaxx) =  3
     Presently no symmetry can be used with electric field

     Message from routine cell_base_init:
     DEPRECATED: use true lattice parameter, not A to a.u. conversion factor

     IMPORTANT: XC functional enforced from input :
     Exchange-correlation= BEEF-VDW
                           (   1   4  43  14   2   0   0)
     Any further DFT definition will be discarded
     Please, verify this is what you really want

  @ DRIVER MODE: Connecting to
 qe_1139763_2641440.sched-torque.pace.gatech.edu_g3un0dk_scratch
  using UNIX socket
  @ DRIVER MODE: Message from server: STATUS
  @ DRIVER MODE: Message from server: INIT
  @ DRIVER MODE: Receiving replica           0          -1
  @ DRIVER MODE: Receiving encoded integer          25
  @ DRIVER MODE:  SCF:  T  FORCE:  T  STRESS:  F  VC:  F  ENSEMBLE:  F
  @ DRIVER MODE:  SCF:  T  FORCE:  T  STRESS:  F  VC:  F  ENSEMBLE:  F

     Using Slab Decomposition

     bravais-lattice index     =            0
     lattice parameter (alat)  =       1.8897  a.u.
     unit-cell volume          =    6658.9804 (a.u.)^3
     number of atoms/cell      =           54
     number of atomic types    =            5
     number of electrons       =       392.00
     number of Kohn-Sham states=          206
     kinetic-energy cutoff     =      29.3995  Ry
     charge density cutoff     =     293.9946  Ry
     scf convergence threshold =      7.3E-08
     mixing beta               =       0.0500
     number of iterations used =            8  plain     mixing
     Exchange-correlation= BEEF-VDW
                           (   1   4  43  14   2   0   0)

     celldm(1)=   1.889726  celldm(2)=   0.000000  celldm(3)=   0.000000
     celldm(4)=   0.000000  celldm(5)=   0.000000  celldm(6)=   0.000000

     crystal axes: (cart. coord. in units of alat)
               a(1) = (   6.579727   0.000000   0.000000 )
               a(2) = (  -0.000775   5.961596   0.000000 )
               a(3) = (   0.000000   0.000000  25.155947 )

     reciprocal axes: (cart. coord. in units 2 pi/alat)
               b(1) = (  0.151982  0.000020  0.000000 )
               b(2) = (  0.000000  0.167740  0.000000 )
               b(3) = (  0.000000  0.000000  0.039752 )

     PseudoPot. # 1 for Ti read from file:
     /storage/coda1/p-amedford6/0/shared/rich_project_chbe-medford/medford-share/data/pseudos_module/espresso/nninc/pbe/van/Ti.UPF
     MD5 check sum: 8e4df49b7f0d34bbd5052bf3f5ea0213
     Pseudo is Ultrasoft, Zval = 12.0
     Generated by new atomic code, or converted to UPF format
     Using radial grid of  851 points,  6 beta functions with:
                l(1) =   0
                l(2) =   0
                l(3) =   1
                l(4) =   1
                l(5) =   2
                l(6) =   2
     Q(r) pseudized with  8 coefficients,  rinner =    1.000   1.000   1.000
                                                       1.000   1.000

     PseudoPot. # 2 for O  read from file:
     /storage/coda1/p-amedford6/0/shared/rich_project_chbe-medford/medford-share/data/pseudos_module/espresso/nninc/pbe/van/O.UPF
     MD5 check sum: 78c19812648e8988a0fe644b0f25305e
     Pseudo is Ultrasoft, Zval =  6.0
     Generated by new atomic code, or converted to UPF format
     Using radial grid of  737 points,  4 beta functions with:
                l(1) =   0
                l(2) =   0
                l(3) =   1
                l(4) =   1
     Q(r) pseudized with  8 coefficients,  rinner =    0.800   0.800   0.800

     PseudoPot. # 3 for N  read from file:
     /storage/coda1/p-amedford6/0/shared/rich_project_chbe-medford/medford-share/data/pseudos_module/espresso/nninc/pbe/van/N.UPF
     MD5 check sum: 90d10febe142ad51ac9d5be1deb811c4
     Pseudo is Ultrasoft, Zval =  5.0
     Generated by new atomic code, or converted to UPF format
     Using radial grid of  729 points,  4 beta functions with:
                l(1) =   0
                l(2) =   0
                l(3) =   1
                l(4) =   1
     Q(r) pseudized with  8 coefficients,  rinner =    0.800   0.800   0.800

     PseudoPot. # 4 for C  read from file:
     /storage/coda1/p-amedford6/0/shared/rich_project_chbe-medford/medford-share/data/pseudos_module/espresso/nninc/pbe/van/C.UPF
     MD5 check sum: 1a69bf6b8db32088f5b2163dbdb77a27
     Pseudo is Ultrasoft, Zval =  4.0
     Generated by new atomic code, or converted to UPF format
     Using radial grid of  721 points,  4 beta functions with:
                l(1) =   0
                l(2) =   0
                l(3) =   1
                l(4) =   1
     Q(r) pseudized with  8 coefficients,  rinner =    0.800   0.800   0.800

     PseudoPot. # 5 for H  read from file:
     /storage/coda1/p-amedford6/0/shared/rich_project_chbe-medford/medford-share/data/pseudos_module/espresso/nninc/pbe/van/H.UPF
     MD5 check sum: b5ee9d7bfd3a09ee7748110bda690ff7
     Pseudo is Ultrasoft, Zval =  1.0
     Generated by new atomic code, or converted to UPF format
     Using radial grid of  615 points,  1 beta functions with:
                l(1) =   0
     Q(r) pseudized with  8 coefficients,  rinner =    0.800

     atomic species   valence    mass     pseudopotential
        Ti1           12.00    47.86700     Ti( 1.00)
        O1             6.00    15.99900     O ( 1.00)
        N1             5.00    14.00700     N ( 1.00)
        C1             4.00    12.01100     C ( 1.00)
        H1             1.00     1.00800     H ( 1.00)

     No symmetry found

   Cartesian axes

     site n.     atom                  positions (alat units)
         1           Ti1 tau(   1) = (   0.0004258   2.9801865   6.0000000  )
         2           Ti1 tau(   2) = (   3.2906075   1.4906267   6.0002472  )
         3           O1  tau(   3) = (   0.0006271   0.0005054   7.9858123  )
         4           O1  tau(   4) = (   3.2906025   0.0005020   7.3038282  )
         5           O1  tau(   5) = (   4.5942328   1.4918067   9.2879030  )
         6           O1  tau(   6) = (   1.9868534   1.4903216   9.2879459  )
         7           Ti1 tau(   7) = (   3.2907910   2.8959150   9.1758416  )
         8           Ti1 tau(   8) = (   0.0015273   1.4827037   9.2680791  )
         9           O1  tau(   9) = (   3.2947057   0.0061428  11.3716447  )
        10           O1  tau(  10) = (   0.0116148   5.9584955  10.6183126  )
        11           O1  tau(  11) = (   1.2915649   1.4936813  12.6925814  )
        12           O1  tau(  12) = (   5.2970661   1.4944705  12.6810846  )
        13           Ti1 tau(  13) = (   0.0178387   2.9746902  12.5081746  )
        14           Ti1 tau(  14) = (   3.3154821   1.4870708  12.5273966  )
        15           O1  tau(  15) = (   6.5751158   5.8850184  14.6937530  )
        16           O1  tau(  16) = (   3.3021755   5.9482827  13.9948957  )
        17           O1  tau(  17) = (   4.5403780   1.5298489  16.1548813  )
        18           O1  tau(  18) = (   2.0255877   1.5226301  16.1187562  )
        19           Ti1 tau(  19) = (   3.2919084   3.0021400  15.7465462  )
        20           Ti1 tau(  20) = (   0.0121818   1.3098915  15.8601907  )
        21           O1  tau(  21) = (   3.2904802   0.0005063   4.7018136  )
        22           O1  tau(  22) = (   6.5726150   0.1553292  17.2405045  )
        23           O1  tau(  23) = (   1.3043587   1.4918075   6.0039043  )
        24           O1  tau(  24) = (   5.2767064   1.4903225   6.0039473  )
        25           Ti1 tau(  25) = (   0.0000382   5.9609847   6.0000000  )
        26           Ti1 tau(  26) = (   3.2902200   4.4714249   6.0002472  )
        27           O1  tau(  27) = (   0.0002396   2.9813036   7.9858123  )
        28           O1  tau(  28) = (   3.2902150   2.9813002   7.3038282  )
        29           O1  tau(  29) = (   4.5938453   4.4726049   9.2879030  )
        30           O1  tau(  30) = (   1.9864658   4.4711199   9.2879459  )
        31           Ti1 tau(  31) = (   3.2891106   5.8743827   9.1763621  )
        32           Ti1 tau(  32) = (   0.0006254   4.4649316   9.2693709  )
        33           O1  tau(  33) = (   3.2927311   2.9710310  11.3658552  )
        34           O1  tau(  34) = (   0.0092240   2.9805883  10.6323155  )
        35           O1  tau(  35) = (   1.2954064   4.4636889  12.6531092  )
        36           O1  tau(  36) = (   5.2951753   4.4642890  12.6444158  )
        37           Ti1 tau(  37) = (   0.0208150   5.9452171  12.5004641  )
        38           Ti1 tau(  38) = (   3.3163264   4.4646888  12.5160798  )
        39           O1  tau(  39) = (   6.5606049   3.0383603  14.9590055  )
        40           O1  tau(  40) = (   3.3003749   3.0012653  13.9593002  )
        41           O1  tau(  41) = (   4.5325621   4.4784225  16.2386555  )
        42           O1  tau(  42) = (   2.0180351   4.4745910  16.2101397  )
        43           Ti1 tau(  43) = (   3.2993765   0.0184524  15.7908042  )
        44           Ti1 tau(  44) = (   0.0223033   4.5207704  16.0490861  )
        45           O1  tau(  45) = (   3.2900926   2.9813045   4.7018136  )
        46           O1  tau(  46) = (   1.3039711   4.4726057   6.0039043  )
        47           O1  tau(  47) = (   5.2763189   4.4711207   6.0039473  )
        48           N1  tau(  48) = (   6.4337409   3.4053151  18.1409392  )
        49           C1  tau(  49) = (   1.0285230   3.1422446  19.0018829  )
        50           H1  tau(  50) = (   0.7475518   3.0234394  20.0507379  )
        51           H1  tau(  51) = (   1.7227964   3.9744885  18.9089305  )
        52           H1  tau(  52) = (   5.9280473   4.2150708  18.4935385  )
        53           H1  tau(  53) = (   5.7900178   2.6175148  18.1880975  )
        54           H1  tau(  54) = (   1.5059085   2.2300880  18.6641165  )

     number of k points=    10  Fermi-Dirac smearing, width (Ry)=  0.0073
                       cart. coord. in units 2pi/alat
        k(    1) = (   0.0000000   0.0000000   0.0000000), wk =   0.1250000
        k(    2) = (   0.0000000   0.0419351   0.0000000), wk =   0.2500000
        k(    3) = (   0.0000000  -0.0838702   0.0000000), wk =   0.1250000
        k(    4) = (   0.0379955   0.0000049   0.0000000), wk =   0.2500000
        k(    5) = (   0.0379955   0.0419400   0.0000000), wk =   0.2500000
        k(    6) = (   0.0379955  -0.0838652   0.0000000), wk =   0.2500000
        k(    7) = (   0.0379955  -0.0419301   0.0000000), wk =   0.2500000
        k(    8) = (  -0.0759910  -0.0000099   0.0000000), wk =   0.1250000
        k(    9) = (  -0.0759910   0.0419252   0.0000000), wk =   0.2500000
        k(   10) = (  -0.0759910  -0.0838800   0.0000000), wk =   0.1250000

     Initial potential from superposition of free atoms

     starting charge  375.99915, renormalised to  392.00000

     negative rho (up, down):  1.645E-02 0.000E+00

     %%%%%%%%%%%%%%%%%%%%%%%%%%%%%%%%%%%%%%%%%%%%%%%%%%%%%%%%%%%%%%%%%%%%%%%%
     %                                                                      %
     % You are using vdW-DF, which was implemented by the Thonhauser group. %
     % Please cite the following two papers that made this development      %
     % possible and the two reviews that describe the various versions:     %
     %                                                                      %
     %   T. Thonhauser et al., PRL 115, 136402 (2015).                      %
     %   T. Thonhauser et al., PRB 76, 125112 (2007).                       %
     %   K. Berland et al., Rep. Prog. Phys. 78, 066501 (2015).             %
     %   D.C. Langreth et al., J. Phys.: Condens. Matter 21, 084203 (2009). %
     %                                                                      %
     %                                                                      %
     % If you are calculating the stress with vdW-DF, please also cite:     %
     %                                                                      %
     %   R. Sabatini et al., J. Phys.: Condens. Matter 24, 424209 (2012).   %
     %                                                                      %
     %%%%%%%%%%%%%%%%%%%%%%%%%%%%%%%%%%%%%%%%%%%%%%%%%%%%%%%%%%%%%%%%%%%%%%%%

     Adding external electric field

     Computed dipole along edir(3) :
        Dipole               -7.5123 Ry au,        -19.0944 Debye
        Dipole field         -0.0142 Ry au,

        Potential amp.        1.3142 Ry
        Total length         46.3494 bohr

     Starting wfcs are  297 atomic wfcs
  @ DRIVER MODE: Message from server: STATUS
  @ DRIVER MODE: Message from server: POSDATA
  @ DRIVER MODE: Reading and sharing cell
  @ DRIVER MODE: Reading and sharing positions
  @ DRIVER MODE: Received positions

     Self-consistent Calculation

     iteration #  1     ecut=    29.40 Ry     beta= 0.05
     Davidson diagonalization with overlap
     c_bands:  1 eigenvalues not converged
     c_bands:  1 eigenvalues not converged
     c_bands:  2 eigenvalues not converged
     c_bands:  1 eigenvalues not converged
     c_bands:  1 eigenvalues not converged
     c_bands:  1 eigenvalues not converged
     ethr =  1.00E-05,  avg # of iterations = 19.3

[...]

     total energy              =   -2681.19346791 Ry
     estimated scf accuracy    <    2661.09573752 Ry

[...]

     iteration #  3     ecut=    29.40 Ry     beta= 0.05
     Davidson diagonalization with overlap
     ethr =  1.00E-02,  avg # of iterations = 15.3

[...]

     iteration # 63     ecut=    29.40 Ry     beta= 0.05
     Davidson diagonalization with overlap
     c_bands:  1 eigenvalues not converged
     c_bands:  3 eigenvalues not converged
     ethr =  9.59E-10,  avg # of iterations = 17.2

[...]

     total energy              =   -2921.63250629 Ry
     estimated scf accuracy    <       0.00000009 Ry

     iteration # 71     ecut=    29.40 Ry     beta= 0.05
     Davidson diagonalization with overlap
     ethr =  2.28E-11,  avg # of iterations =  6.6

     negative rho (up, down):  1.723E-02 0.000E+00

     Adding external electric field

     Computed dipole along edir(3) :
        Dipole                1.3053 Ry au,          3.3178 Debye
        Dipole field          0.0025 Ry au,

        Potential amp.       -0.2283 Ry
        Total length         46.3494 bohr

     End of self-consistent calculation

          k = 0.0000 0.0000 0.0000 ( 18029 PWs)   bands (ev):

   -55.4311 -55.3941 -55.3814 -55.3565 -55.3472 -55.3138 -55.3087 -55.2742
   -55.2482 -55.2313 -55.2137 -55.2125 -55.1789 -55.0994 -54.4095 -54.3754
   -32.0006 -31.8861 -31.8739 -31.7975 -31.7483 -31.7381 -31.7356 -31.7186
   -31.6735 -31.6703 -31.6415 -31.6393 -31.6262 -31.6190 -31.6012 -31.5943
   -31.5866 -31.5744 -31.5692 -31.5460 -31.5339 -31.5302 -31.5023 -31.4952
   -31.4865 -31.4789 -31.4743 -31.4507 -31.4393 -31.4386 -31.4312 -31.4121
   -31.4115 -31.4053 -31.3993 -31.3960 -31.3623 -31.3529 -31.3409 -31.3239
   -31.3052 -31.2952 -30.8188 -30.7248 -30.7027 -30.6352 -30.5484 -30.4375
   -16.2941 -16.1625 -15.9759 -15.8313 -15.7487 -15.6292 -15.5179 -15.5041
   -15.3635 -15.2818 -15.1661 -15.1412 -15.1121 -15.0897 -15.0814 -15.0644
   -14.9732 -14.9685 -14.9564 -14.9237 -14.9225 -14.8782 -14.8677 -14.8257
   -14.8044 -14.8021 -14.6826 -14.5887 -14.5166 -14.2878 -12.9120 -12.7945
   -10.2238  -6.3154  -4.8134  -3.9447  -3.6099  -3.4517  -3.3686  -3.3336
    -3.3218  -3.1904  -3.0544  -2.9177  -2.8546  -2.8302  -2.7233  -2.6466
    -2.6396  -2.6198  -2.4657  -2.4307  -2.3864  -2.3374  -2.2993  -2.2411
    -2.2206  -2.2120  -2.1996  -2.1823  -2.1737  -2.0562  -2.0000  -1.9163
    -1.8571  -1.8344  -1.7840  -1.7638  -1.7438  -1.7200  -1.7107  -1.6698
    -1.6448  -1.6247  -1.5713  -1.4599  -1.3563  -1.3058  -1.1872  -1.0657
    -1.0287  -1.0168  -0.9653  -0.9376  -0.9161  -0.8588  -0.8072  -0.7778
    -0.7224  -0.6629  -0.6015  -0.5518  -0.4786  -0.4754  -0.4163  -0.3674
    -0.2464  -0.2139  -0.1969  -0.1692  -0.0785  -0.0403   0.0034   0.0834
     0.0947   0.1140   0.2077   0.2183   0.2922   0.3408   0.3575   0.4509
     0.4856   0.4980   0.5027   0.5249   0.5549   0.6047   0.6466   0.6731
     0.7399   0.8664   1.0790   1.1596   1.1838   1.5097   1.5196   1.6134
     1.7971   2.1892   2.2373   3.6667   3.7373   3.8130   3.8193   3.8322
     3.9049   4.1395   4.1632   4.1708   4.1775   4.1985

[...]

          k = 0.0380-0.0419 0.0000 ( 17876 PWs)   bands (ev):

[...]

          k =-0.0760-0.0000 0.0000 ( 17886 PWs)   bands (ev):

[...]

          k =-0.0760-0.0839 0.0000 ( 17948 PWs)   bands (ev):

   -55.4170 -55.4080 -55.3646 -55.3638 -55.3550 -55.3102 -55.2928 -55.2901
   -55.2349 -55.2326 -55.2287 -55.1962 -55.1954 -55.1006 -54.3926 -54.3922
   -31.8077 -31.8036 -31.8005 -31.7180 -31.6921 -31.6893 -31.6886 -31.6558
   -31.6553 -31.6400 -31.6334 -31.6307 -31.6241 -31.6021 -31.5868 -31.5700
   -31.5660 -31.5635 -31.5617 -31.5568 -31.5566 -31.5537 -31.5108 -31.5087
   -31.5058 -31.5019 -31.4993 -31.4860 -31.4843 -31.4837 -31.4818 -31.4657
   -31.4620 -31.4462 -31.4423 -31.4286 -31.4255 -31.4231 -31.3772 -31.3770
   -31.3710 -31.3099 -30.7155 -30.7152 -30.6314 -30.6311 -30.5919 -30.5918
   -16.1331 -15.7819 -15.6957 -15.6398 -15.4642 -15.4363 -15.4222 -15.4027
   -15.2736 -15.2479 -15.2222 -15.1997 -15.1787 -15.1411 -15.1335 -15.1287
   -15.0510 -15.0380 -15.0323 -15.0177 -14.9482 -14.9392 -14.9353 -14.9292
   -14.8788 -14.8751 -14.8322 -14.7814 -14.7781 -14.5639 -12.8960 -12.8960
   -10.2270  -6.2861  -4.8101  -3.9081  -2.9684  -2.9560  -2.8977  -2.8958
    -2.6804  -2.6431  -2.6073  -2.5834  -2.4917  -2.4494  -2.4306  -2.4299
    -2.3556  -2.3357  -2.3239  -2.2722  -2.2671  -2.2555  -2.2318  -2.2003
    -2.1740  -2.1595  -2.1497  -2.1313  -2.0877  -2.0738  -2.0541  -2.0338
    -2.0277  -2.0149  -1.9860  -1.9464  -1.8156  -1.8044  -1.7438  -1.6363
    -1.6313  -1.5563  -1.5458  -1.5009  -1.4874  -1.4627  -1.4282  -1.2489
    -1.2066  -1.1757  -1.1662  -1.1117  -1.0357  -1.0191  -0.9564  -0.9351
    -0.9168  -0.8122  -0.7691  -0.7541  -0.6640  -0.6556  -0.5728  -0.5222
    -0.4623  -0.4365  -0.4016  -0.3859  -0.3838  -0.3360  -0.3303  -0.2465
    -0.2007  -0.1646  -0.1510  -0.1188   0.0800   0.0870   0.1094   0.2552
     0.2744   0.4102   0.4373   0.4886   0.5684   0.6015   0.6822   0.7151
     0.8443   0.8752   0.8778   0.9474   0.9617   1.0238   1.0342   1.9701
     1.9708   2.0572   2.0575   3.8176   3.9092   3.9292   3.9718   4.0849
     4.1592   4.1840   4.2057   4.2526   4.2565   4.3193

     the Fermi energy is     3.7306 ev

!    total energy              =   -2921.63252914 Ry
     estimated scf accuracy    <       0.00000006 Ry
     smearing contrib. (-TS)   =      -0.03702844 Ry
     internal energy E=F+TS    =   -2921.59550070 Ry

     The total energy is F=E-TS. E is the sum of the following terms:
     one-electron contribution =  -24082.24215052 Ry
     hartree contribution      =   12130.26629083 Ry
     xc contribution           =    -481.76431111 Ry
     ewald contribution        =    9512.14145472 Ry
     electric field correction =       0.00321538 Ry

     convergence has been achieved in  71 iterations

     Forces acting on atoms (cartesian axes, Ry/au):

     atom    1 type  1   force =     0.00005448   -0.00024557    0.09322941
     atom    2 type  1   force =    -0.00012569   -0.00044729   -0.17821648
     atom    3 type  2   force =     0.00002053   -0.00041008   -0.02022326
     atom    4 type  2   force =    -0.00001461   -0.00187663    0.05852779
     atom    5 type  2   force =    -0.00994901   -0.00083072    0.00749801
     atom    6 type  2   force =     0.01146562   -0.00027863    0.00679635
     atom    7 type  1   force =    -0.00038674    0.00194999   -0.01464620
     atom    8 type  1   force =     0.00011246   -0.00013265   -0.00502291
     atom    9 type  2   force =    -0.00011746   -0.00005412    0.00001151
     atom   10 type  2   force =    -0.00117939    0.00218506   -0.00032581
     atom   11 type  2   force =    -0.00001435   -0.00019043    0.00006178
     atom   12 type  2   force =     0.00059123   -0.00050892    0.00012115
     atom   13 type  1   force =    -0.00071891    0.00034401   -0.00034378
     atom   14 type  1   force =    -0.00000952   -0.00059598    0.00003546
     atom   15 type  2   force =     0.00003741   -0.00055034   -0.00039359
     atom   16 type  2   force =     0.00023472    0.00060035    0.00049109
     atom   17 type  2   force =     0.00004730   -0.00055332    0.00033334
     atom   18 type  2   force =     0.00015748   -0.00009658    0.00035846
     atom   19 type  1   force =     0.00007739   -0.00033643    0.00183867
     atom   20 type  1   force =    -0.00022630    0.00048149    0.00018913
     atom   21 type  2   force =     0.00000927   -0.00009563    0.10390899
     atom   22 type  2   force =     0.00020890   -0.00012036    0.00058508
     atom   23 type  2   force =    -0.07047890   -0.00018226   -0.02694864
     atom   24 type  2   force =     0.07030519    0.00026006   -0.02698800
     atom   25 type  1   force =    -0.00001051   -0.00015873    0.09273044
     atom   26 type  1   force =    -0.00019902   -0.00048794   -0.17823673
     atom   27 type  2   force =     0.00007417   -0.00023665   -0.01927587
     atom   28 type  2   force =     0.00001614   -0.00165756    0.05788226
     atom   29 type  2   force =    -0.01051368   -0.00097411    0.00819849
     atom   30 type  2   force =     0.01191695   -0.00053089    0.00742622
     atom   31 type  1   force =    -0.00034308    0.00605304   -0.01544140
     atom   32 type  1   force =     0.00011527   -0.00037983   -0.00545102
     atom   33 type  2   force =     0.00030831   -0.00010193   -0.00031758
     atom   34 type  2   force =    -0.00063670   -0.00204111   -0.00051234
     atom   35 type  2   force =    -0.00039925   -0.00002438    0.00023483
     atom   36 type  2   force =     0.00066935   -0.00007358   -0.00004384
     atom   37 type  1   force =    -0.00036053   -0.00023946    0.00026390
     atom   38 type  1   force =     0.00001744    0.00041399   -0.00004426
     atom   39 type  2   force =     0.00022818   -0.00011192    0.00019680
     atom   40 type  2   force =     0.00017117    0.00025880    0.00009372
     atom   41 type  2   force =    -0.00046635    0.00027738   -0.00010448
     atom   42 type  2   force =     0.00048165    0.00085813   -0.00012334
     atom   43 type  1   force =     0.00047026    0.00060573    0.00029165
     atom   44 type  1   force =     0.00050830    0.00047472    0.00027862
     atom   45 type  2   force =     0.00002090   -0.00009622    0.10388001
     atom   46 type  2   force =    -0.07045127   -0.00012891   -0.02688572
     atom   47 type  2   force =     0.07027771    0.00029828   -0.02693484
     atom   48 type  3   force =    -0.00070839   -0.00041460    0.00067666
     atom   49 type  4   force =    -0.00290391    0.00261018    0.00117064
     atom   50 type  5   force =    -0.00064733    0.00047973    0.00060254
     atom   51 type  5   force =     0.00019796   -0.00045282   -0.00024819
     atom   52 type  5   force =    -0.00105881   -0.00041101    0.00003025
     atom   53 type  5   force =    -0.00082498    0.00053087   -0.00011577
     atom   54 type  5   force =     0.00394896   -0.00265419   -0.00109922

     Total force =     0.366079     Total SCF correction =     0.000742
  @ DRIVER MODE: Message from server: STATUS
  @ DRIVER MODE: Message from server: GETFORCE
  @ DRIVER MODE: Returning v,forces,stress,ensemble

     Writing output data file ./calc.save/
  @ DRIVER MODE: Message from server: EXIT
  @ DRIVE MODE: Exiting

     General routines

     Parallel routines

   This run was terminated on:   0:37:15  25Aug2021

   JOB DONE.