     Program PWSCF v.6.7GPU starts on  8Sep2021 at 22:22:10

     R & G space division:  proc/nbgrp/npool/nimage =      10
     Reading input from /storage/home/hcoda1/3/ntian30/research/carbon/CxH_vib/CH2_calc/ads_slab/CH2N_a/out_0002/pw.inp
Warning: card &CELL ignored
Warning: card   CELL_DYNAMICS='IPI', ignored
Warning: card / ignored

     Current dimensions of program PWSCF are:
     Max number of different atomic species (ntypx) = 10
     Max number of k-points (npk) =  40000
     Max angular momentum in pseudopotentials (lmaxx) =  3
     Presently no symmetry can be used with electric field

     Message from routine cell_base_init:
     DEPRECATED: use true lattice parameter, not A to a.u. conversion factor

     IMPORTANT: XC functional enforced from input :
     Exchange-correlation= BEEF-VDW
                           (   1   4  43  14   2   0   0)
     Any further DFT definition will be discarded
     Please, verify this is what you really want

  @ DRIVER MODE: Connecting to
 qe_1139763_2767392.sched-torque.pace.gatech.edu_e9jgqsx_scratch
  using UNIX socket
  @ DRIVER MODE: Message from server: STATUS
  @ DRIVER MODE: Message from server: INIT
  @ DRIVER MODE: Receiving replica           0          -1
  @ DRIVER MODE: Receiving encoded integer          25
  @ DRIVER MODE:  SCF:  T  FORCE:  T  STRESS:  F  VC:  F  ENSEMBLE:  F
  @ DRIVER MODE:  SCF:  T  FORCE:  T  STRESS:  F  VC:  F  ENSEMBLE:  F

     Using Slab Decomposition

     bravais-lattice index     =            0
     lattice parameter (alat)  =       1.8897  a.u.
     unit-cell volume          =    6658.9804 (a.u.)^3
     number of atoms/cell      =           51
     number of atomic types    =            5
     number of electrons       =       389.00
     number of Kohn-Sham states=          204
     kinetic-energy cutoff     =      29.3995  Ry
     charge density cutoff     =     293.9946  Ry
     scf convergence threshold =      7.3E-08
     mixing beta               =       0.0500
     number of iterations used =            8  plain     mixing
     Exchange-correlation= BEEF-VDW
                           (   1   4  43  14   2   0   0)

     celldm(1)=   1.889726  celldm(2)=   0.000000  celldm(3)=   0.000000
     celldm(4)=   0.000000  celldm(5)=   0.000000  celldm(6)=   0.000000

     crystal axes: (cart. coord. in units of alat)
               a(1) = (   6.579727   0.000000   0.000000 )
               a(2) = (  -0.000775   5.961596   0.000000 )
               a(3) = (   0.000000   0.000000  25.155947 )

     reciprocal axes: (cart. coord. in units 2 pi/alat)
               b(1) = (  0.151982  0.000020  0.000000 )
               b(2) = (  0.000000  0.167740  0.000000 )
               b(3) = (  0.000000  0.000000  0.039752 )

     PseudoPot. # 1 for Ti read from file:
     /storage/coda1/p-amedford6/0/shared/rich_project_chbe-medford/medford-share/data/pseudos_module/espresso/nninc/pbe/van/Ti.UPF
     MD5 check sum: 8e4df49b7f0d34bbd5052bf3f5ea0213
     Pseudo is Ultrasoft, Zval = 12.0
     Generated by new atomic code, or converted to UPF format
     Using radial grid of  851 points,  6 beta functions with:
                l(1) =   0
                l(2) =   0
                l(3) =   1
                l(4) =   1
                l(5) =   2
                l(6) =   2
     Q(r) pseudized with  8 coefficients,  rinner =    1.000   1.000   1.000
                                                       1.000   1.000

     PseudoPot. # 2 for O  read from file:
     /storage/coda1/p-amedford6/0/shared/rich_project_chbe-medford/medford-share/data/pseudos_module/espresso/nninc/pbe/van/O.UPF
     MD5 check sum: 78c19812648e8988a0fe644b0f25305e
     Pseudo is Ultrasoft, Zval =  6.0
     Generated by new atomic code, or converted to UPF format
     Using radial grid of  737 points,  4 beta functions with:
                l(1) =   0
                l(2) =   0
                l(3) =   1
                l(4) =   1
     Q(r) pseudized with  8 coefficients,  rinner =    0.800   0.800   0.800

     PseudoPot. # 3 for N  read from file:
     /storage/coda1/p-amedford6/0/shared/rich_project_chbe-medford/medford-share/data/pseudos_module/espresso/nninc/pbe/van/N.UPF
     MD5 check sum: 90d10febe142ad51ac9d5be1deb811c4
     Pseudo is Ultrasoft, Zval =  5.0
     Generated by new atomic code, or converted to UPF format
     Using radial grid of  729 points,  4 beta functions with:
                l(1) =   0
                l(2) =   0
                l(3) =   1
                l(4) =   1
     Q(r) pseudized with  8 coefficients,  rinner =    0.800   0.800   0.800

     PseudoPot. # 4 for C  read from file:
     /storage/coda1/p-amedford6/0/shared/rich_project_chbe-medford/medford-share/data/pseudos_module/espresso/nninc/pbe/van/C.UPF
     MD5 check sum: 1a69bf6b8db32088f5b2163dbdb77a27
     Pseudo is Ultrasoft, Zval =  4.0
     Generated by new atomic code, or converted to UPF format
     Using radial grid of  721 points,  4 beta functions with:
                l(1) =   0
                l(2) =   0
                l(3) =   1
                l(4) =   1
     Q(r) pseudized with  8 coefficients,  rinner =    0.800   0.800   0.800

     PseudoPot. # 5 for H  read from file:
     /storage/coda1/p-amedford6/0/shared/rich_project_chbe-medford/medford-share/data/pseudos_module/espresso/nninc/pbe/van/H.UPF
     MD5 check sum: b5ee9d7bfd3a09ee7748110bda690ff7
     Pseudo is Ultrasoft, Zval =  1.0
     Generated by new atomic code, or converted to UPF format
     Using radial grid of  615 points,  1 beta functions with:
                l(1) =   0
     Q(r) pseudized with  8 coefficients,  rinner =    0.800

     atomic species   valence    mass     pseudopotential
        Ti1           12.00    47.86700     Ti( 1.00)
        O1             6.00    15.99900     O ( 1.00)
        N1             5.00    14.00700     N ( 1.00)
        C1             4.00    12.01100     C ( 1.00)
        H1             1.00     1.00800     H ( 1.00)

     No symmetry found

   Cartesian axes

     site n.     atom                  positions (alat units)
         1           Ti1 tau(   1) = (   0.0004258   2.9801865   6.0000000  )
         2           Ti1 tau(   2) = (   3.2906075   1.4906267   6.0002472  )
         3           O1  tau(   3) = (   0.0006271   0.0005054   7.9858123  )
         4           O1  tau(   4) = (   3.2906025   0.0005020   7.3038282  )
         5           O1  tau(   5) = (   4.5942328   1.4918067   9.2879030  )
         6           O1  tau(   6) = (   1.9868534   1.4903216   9.2879459  )
         7           Ti1 tau(   7) = (   3.2907910   2.8959150   9.1758416  )
         8           Ti1 tau(   8) = (   0.0015273   1.4827037   9.2680791  )
         9           O1  tau(   9) = (   3.3121109   0.0111249  11.3310253  )
        10           O1  tau(  10) = (   0.0116148   5.9584955  10.6183126  )
        11           O1  tau(  11) = (   1.3329579   1.5011098  12.6063046  )
        12           O1  tau(  12) = (   5.3158149   1.4916659  12.6245769  )
        13           Ti1 tau(  13) = (   6.5431557   2.9598450  12.6156978  )
        14           Ti1 tau(  14) = (   3.2273839   1.5049138  12.4779161  )
        15           O1  tau(  15) = (   0.0471551   0.0364395  14.6528705  )
        16           O1  tau(  16) = (   3.3160098   0.0207640  13.9215624  )
        17           O1  tau(  17) = (   4.5810600   1.5471256  16.0564497  )
        18           O1  tau(  18) = (   2.0947546   1.5446786  16.0656860  )
        19           Ti1 tau(  19) = (   3.3354243   3.0239694  15.7034691  )
        20           Ti1 tau(  20) = (   0.0419518   1.5622418  15.8401859  )
        21           O1  tau(  21) = (   3.2904802   0.0005063   4.7018136  )
        22           O1  tau(  22) = (   0.0415632   0.0558952  17.2248266  )
        23           O1  tau(  23) = (   1.3043587   1.4918075   6.0039043  )
        24           O1  tau(  24) = (   5.2767064   1.4903225   6.0039473  )
        25           Ti1 tau(  25) = (   0.0000382   5.9609847   6.0000000  )
        26           Ti1 tau(  26) = (   3.2902200   4.4714249   6.0002472  )
        27           O1  tau(  27) = (   0.0002396   2.9813036   7.9858123  )
        28           O1  tau(  28) = (   3.2902150   2.9813002   7.3038282  )
        29           O1  tau(  29) = (   4.5938453   4.4726049   9.2879030  )
        30           O1  tau(  30) = (   1.9864658   4.4711199   9.2879459  )
        31           Ti1 tau(  31) = (   3.2891106   5.8743827   9.1763621  )
        32           Ti1 tau(  32) = (   0.0006254   4.4649316   9.2693709  )
        33           O1  tau(  33) = (   3.3101407   2.9955762  11.3294870  )
        34           O1  tau(  34) = (   0.0092240   2.9805883  10.6323155  )
        35           O1  tau(  35) = (   1.3272401   4.4878838  12.6173354  )
        36           O1  tau(  36) = (   5.3164082   4.4812184  12.6342743  )
        37           Ti1 tau(  37) = (   6.5430856   5.9365306  12.5602028  )
        38           Ti1 tau(  38) = (   3.2246414   4.4845729  12.4831641  )
        39           O1  tau(  39) = (   0.0420920   2.9623338  14.6463429  )
        40           O1  tau(  40) = (   3.3182946   3.0055568  13.9055467  )
        41           O1  tau(  41) = (   4.5797692   4.5125808  16.0776662  )
        42           O1  tau(  42) = (   2.0972274   4.5146901  16.0918111  )
        43           Ti1 tau(  43) = (   3.3319946   0.0399457  15.7186693  )
        44           Ti1 tau(  44) = (   0.0407629   4.6953510  16.1098173  )
        45           O1  tau(  45) = (   3.2900926   2.9813045   4.7018136  )
        46           O1  tau(  46) = (   1.3039711   4.4726057   6.0039043  )
        47           O1  tau(  47) = (   5.2763189   4.4711207   6.0039473  )
        48           N1  tau(  48) = (   0.0654023   2.9932257  17.3910969  )
        49           C1  tau(  49) = (   0.1090839   2.9222626  18.6472186  )
        50           H1  tau(  50) = (   0.1225839   3.8204711  19.2773028  )
        51           H1  tau(  51) = (   0.1417253   1.9549180  19.1625725  )

     number of k points=    10  Fermi-Dirac smearing, width (Ry)=  0.0073
                       cart. coord. in units 2pi/alat
        k(    1) = (   0.0000000   0.0000000   0.0000000), wk =   0.1250000
        k(    2) = (   0.0000000   0.0419351   0.0000000), wk =   0.2500000
        k(    3) = (   0.0000000  -0.0838702   0.0000000), wk =   0.1250000
        k(    4) = (   0.0379955   0.0000049   0.0000000), wk =   0.2500000
        k(    5) = (   0.0379955   0.0419400   0.0000000), wk =   0.2500000
        k(    6) = (   0.0379955  -0.0838652   0.0000000), wk =   0.2500000
        k(    7) = (   0.0379955  -0.0419301   0.0000000), wk =   0.2500000
        k(    8) = (  -0.0759910  -0.0000099   0.0000000), wk =   0.1250000
        k(    9) = (  -0.0759910   0.0419252   0.0000000), wk =   0.2500000
        k(   10) = (  -0.0759910  -0.0838800   0.0000000), wk =   0.1250000

     Initial potential from superposition of free atoms

     starting charge  372.99918, renormalised to  389.00000

     negative rho (up, down):  1.813E-02 0.000E+00

     %%%%%%%%%%%%%%%%%%%%%%%%%%%%%%%%%%%%%%%%%%%%%%%%%%%%%%%%%%%%%%%%%%%%%%%%
     %                                                                      %
     % You are using vdW-DF, which was implemented by the Thonhauser group. %
     % Please cite the following two papers that made this development      %
     % possible and the two reviews that describe the various versions:     %
     %                                                                      %
     %   T. Thonhauser et al., PRL 115, 136402 (2015).                      %
     %   T. Thonhauser et al., PRB 76, 125112 (2007).                       %
     %   K. Berland et al., Rep. Prog. Phys. 78, 066501 (2015).             %
     %   D.C. Langreth et al., J. Phys.: Condens. Matter 21, 084203 (2009). %
     %                                                                      %
     %                                                                      %
     % If you are calculating the stress with vdW-DF, please also cite:     %
     %                                                                      %
     %   R. Sabatini et al., J. Phys.: Condens. Matter 24, 424209 (2012).   %
     %                                                                      %
     %%%%%%%%%%%%%%%%%%%%%%%%%%%%%%%%%%%%%%%%%%%%%%%%%%%%%%%%%%%%%%%%%%%%%%%%

     Adding external electric field

     Computed dipole along edir(3) :
        Dipole               -4.6856 Ry au,        -11.9097 Debye
        Dipole field         -0.0088 Ry au,

        Potential amp.        0.8197 Ry
        Total length         46.3494 bohr

     Starting wfcs are  294 atomic wfcs
  @ DRIVER MODE: Message from server: STATUS
  @ DRIVER MODE: Message from server: POSDATA
  @ DRIVER MODE: Reading and sharing cell
  @ DRIVER MODE: Reading and sharing positions
  @ DRIVER MODE: Received positions

     Self-consistent Calculation

     iteration #  1     ecut=    29.40 Ry     beta= 0.05
     Davidson diagonalization with overlap
     c_bands:  3 eigenvalues not converged
     c_bands:  1 eigenvalues not converged
     c_bands:  1 eigenvalues not converged
     c_bands:  3 eigenvalues not converged
     c_bands:  3 eigenvalues not converged
     c_bands:  2 eigenvalues not converged
     c_bands:  2 eigenvalues not converged
     ethr =  1.00E-05,  avg # of iterations = 19.8

[...]

     total energy              =   -2865.84285337 Ry
     estimated scf accuracy    <     593.69493746 Ry

     iteration #  2     ecut=    29.40 Ry     beta= 0.05
     Davidson diagonalization with overlap
     ethr =  1.00E-02,  avg # of iterations = 14.5

[...]

     iteration # 66     ecut=    29.40 Ry     beta= 0.05
     Davidson diagonalization with overlap
     c_bands:  1 eigenvalues not converged
     ethr =  1.97E-10,  avg # of iterations = 12.3

[...]

     total energy              =   -2917.92298134 Ry
     estimated scf accuracy    <       0.00000010 Ry

     iteration # 70     ecut=    29.40 Ry     beta= 0.05
     Davidson diagonalization with overlap
     ethr =  2.63E-11,  avg # of iterations =  2.6

     negative rho (up, down):  1.843E-02 0.000E+00

     Adding external electric field

     Computed dipole along edir(3) :
        Dipole                0.7694 Ry au,          1.9556 Debye
        Dipole field          0.0015 Ry au,

        Potential amp.       -0.1346 Ry
        Total length         46.3494 bohr

     End of self-consistent calculation

          k = 0.0000 0.0000 0.0000 ( 18029 PWs)   bands (ev):

   -55.9941 -55.9849 -55.9600 -55.9486 -55.8714 -55.8418 -55.8216 -55.8075
   -55.8029 -55.7690 -55.7668 -55.7331 -55.5208 -55.2470 -54.9714 -54.9373
   -32.5393 -32.4764 -32.3431 -32.3236 -32.3018 -32.2967 -32.2870 -32.2574
   -32.2367 -32.2116 -32.2047 -32.1826 -32.1651 -32.1463 -32.1380 -32.1248
   -32.1040 -32.0983 -32.0839 -32.0512 -32.0506 -32.0476 -32.0013 -32.0002
   -31.9989 -31.9974 -31.9909 -31.9832 -31.9691 -31.9568 -31.9490 -31.9423
   -31.9333 -31.9331 -31.9199 -31.9104 -31.8790 -31.7705 -31.7028 -31.5361
   -31.5017 -31.4593 -31.3786 -31.2902 -31.2678 -31.1952 -31.1087 -30.9978
   -16.7365 -16.4681 -16.2430 -16.1461 -16.1151 -15.9987 -15.8328 -15.7143
   -15.6634 -15.5653 -15.5517 -15.5300 -15.4964 -15.4659 -15.4638 -15.4373
   -15.4338 -15.4144 -15.4011 -15.3535 -15.3311 -15.2966 -15.1990 -15.1680
   -15.1282 -15.1001 -15.0590 -15.0497 -14.9277 -14.5613 -13.4739 -13.3575
    -7.5571  -4.3339  -4.1141  -4.0030  -3.9489  -3.8995  -3.8408  -3.6340
    -3.5431  -3.5198  -3.2244  -3.1779  -3.1604  -3.1479  -3.1096  -2.8940
    -2.8404  -2.8088  -2.7877  -2.7736  -2.7624  -2.7546  -2.7345  -2.7076
    -2.5943  -2.5384  -2.5350  -2.4123  -2.3844  -2.3277  -2.3061  -2.2591
    -2.2436  -2.2349  -2.2079  -2.1972  -2.1839  -2.1526  -2.0753  -1.9617
    -1.8110  -1.7921  -1.7565  -1.6312  -1.6012  -1.5398  -1.4500  -1.4341
    -1.4196  -1.3854  -1.3680  -1.2968  -1.1712  -1.1467  -1.1372  -1.0363
    -0.9897  -0.9713  -0.8746  -0.8392  -0.7692  -0.7581  -0.7467  -0.7094
    -0.5484  -0.4918  -0.4624  -0.3957  -0.3660  -0.3073  -0.2944  -0.2654
    -0.1830  -0.1309  -0.1106  -0.1039  -0.0556  -0.0192  -0.0025   0.0071
     0.0181   0.0322   0.2048   0.2778   0.2847   0.3639   0.3736   0.5346
     0.5955   0.6630   0.7711   0.9761   1.0506   1.1399   1.2430   1.4386
     1.6219   1.6675   3.1424   3.2260   3.2742   3.2836   3.3849   3.4217
     3.5957   3.6019   3.6161   3.6901

[...]

          k = 0.0380-0.0419 0.0000 ( 17876 PWs)   bands (ev):

[...]

          k =-0.0760-0.0000 0.0000 ( 17886 PWs)   bands (ev):

[...]

          k =-0.0760-0.0839 0.0000 ( 17948 PWs)   bands (ev):

   -55.9774 -55.9765 -55.9694 -55.9639 -55.8644 -55.8284 -55.8250 -55.8243
   -55.7864 -55.7850 -55.7508 -55.7492 -55.5198 -55.2479 -54.9544 -54.9542
   -32.3451 -32.3400 -32.2920 -32.2914 -32.2728 -32.2719 -32.2547 -32.2426
   -32.1947 -32.1885 -32.1822 -32.1754 -32.1385 -32.1204 -32.1153 -32.1140
   -32.1047 -32.0987 -32.0969 -32.0961 -32.0898 -32.0872 -32.0679 -32.0440
   -32.0404 -32.0297 -32.0203 -32.0066 -31.9855 -31.9851 -31.9825 -31.9810
   -31.9655 -31.9646 -31.9607 -31.9577 -31.8830 -31.7731 -31.6990 -31.6015
   -31.5033 -31.4800 -31.2805 -31.2805 -31.1914 -31.1913 -31.1520 -31.1520
   -16.1687 -16.1495 -15.9377 -15.9104 -15.9055 -15.8941 -15.7658 -15.7052
   -15.6888 -15.6868 -15.6081 -15.5863 -15.5648 -15.5373 -15.5258 -15.5135
   -15.5071 -15.4987 -15.4557 -15.4496 -15.4300 -15.4228 -15.3200 -15.3105
   -15.3064 -15.2507 -15.1769 -15.0383 -14.9450 -14.7292 -13.4594 -13.4592
    -7.5530  -4.3161  -3.6888  -3.4592  -3.4365  -3.1680  -3.1509  -3.1420
    -3.0818  -2.9091  -2.8931  -2.8702  -2.8493  -2.8207  -2.8189  -2.7976
    -2.7956  -2.7847  -2.7405  -2.7332  -2.7077  -2.6710  -2.6608  -2.6493
    -2.6406  -2.6168  -2.6065  -2.5645  -2.5352  -2.5279  -2.5130  -2.4894
    -2.3040  -2.2211  -2.1948  -2.1316  -2.1242  -2.0893  -2.0579  -2.0458
    -2.0299  -1.9793  -1.9015  -1.7270  -1.6942  -1.6762  -1.6186  -1.5896
    -1.5487  -1.4626  -1.3946  -1.3699  -1.3639  -1.3153  -1.2066  -1.1852
    -1.1709  -1.0974  -1.0621  -1.0438  -1.0025  -0.9874  -0.9543  -0.9489
    -0.8555  -0.8061  -0.7594  -0.7571  -0.7115  -0.6452  -0.6323  -0.6047
    -0.4958  -0.4769  -0.4069  -0.3775  -0.2758  -0.2076  -0.0104   0.0522
     0.0775   0.1361   0.2162   0.2972   0.3115   0.3255   0.3259   0.3732
     0.4423   0.5384   0.5478   0.6014   0.7061   1.3326   1.4144   1.4150
     1.4873   1.4874   3.4281   3.4380   3.4772   3.4991   3.6352   3.6508
     3.6737   3.6749   3.7302   3.8113

     the Fermi energy is     3.1400 ev

!    total energy              =   -2917.92299597 Ry
     estimated scf accuracy    <       0.00000006 Ry
     smearing contrib. (-TS)   =      -0.02181465 Ry
     internal energy E=F+TS    =   -2917.90118132 Ry

     The total energy is F=E-TS. E is the sum of the following terms:
     one-electron contribution =  -24778.21715558 Ry
     hartree contribution      =   12472.77037778 Ry
     xc contribution           =    -479.18563937 Ry
     ewald contribution        =    9866.73011876 Ry
     electric field correction =       0.00111709 Ry

     convergence has been achieved in  70 iterations

     Forces acting on atoms (cartesian axes, Ry/au):

     atom    1 type  1   force =     0.00017653   -0.00024280    0.09668432
     atom    2 type  1   force =     0.00007416   -0.00053647   -0.17540806
     atom    3 type  2   force =     0.00018375    0.00000768   -0.02478217
     atom    4 type  2   force =     0.00005983   -0.00133336    0.05293187
     atom    5 type  2   force =    -0.01177363    0.00012677    0.00258620
     atom    6 type  2   force =     0.01394958    0.00051351    0.00338780
     atom    7 type  1   force =     0.00129140    0.00070556   -0.01176808
     atom    8 type  1   force =    -0.00005248    0.00767075    0.02821256
     atom    9 type  2   force =    -0.00023673   -0.00023726   -0.00011603
     atom   10 type  2   force =    -0.00220033    0.00207290   -0.01527056
     atom   11 type  2   force =     0.00000767   -0.00008613    0.00023603
     atom   12 type  2   force =    -0.00004486    0.00013755   -0.00005313
     atom   13 type  1   force =    -0.00103466   -0.00026166   -0.00001026
     atom   14 type  1   force =    -0.00022539   -0.00026413    0.00057487
     atom   15 type  2   force =    -0.00007274   -0.00001740   -0.00020419
     atom   16 type  2   force =     0.00027256    0.00007785   -0.00054055
     atom   17 type  2   force =     0.00043630    0.00027368    0.00001067
     atom   18 type  2   force =     0.00024368    0.00010335   -0.00078432
     atom   19 type  1   force =    -0.00090084    0.00009967   -0.00035206
     atom   20 type  1   force =     0.00037157   -0.00100371    0.00024249
     atom   21 type  2   force =     0.00008895   -0.00004814    0.10325692
     atom   22 type  2   force =     0.00033711   -0.00026020   -0.00003820
     atom   23 type  2   force =    -0.07147975   -0.00015990   -0.02768279
     atom   24 type  2   force =     0.07147744    0.00033289   -0.02776703
     atom   25 type  1   force =     0.00019061   -0.00023004    0.09618944
     atom   26 type  1   force =     0.00011943   -0.00029423   -0.17554634
     atom   27 type  2   force =     0.00022418   -0.00011645   -0.02386560
     atom   28 type  2   force =     0.00009229   -0.00110214    0.05287301
     atom   29 type  2   force =    -0.01198005    0.00068033    0.00233738
     atom   30 type  2   force =     0.01401805    0.00103130    0.00318874
     atom   31 type  1   force =     0.00114484    0.00333931   -0.01209959
     atom   32 type  1   force =    -0.00023825   -0.00973897    0.02865985
     atom   33 type  2   force =    -0.00016917    0.00031750   -0.00009243
     atom   34 type  2   force =    -0.00173264    0.00175574   -0.02356566
     atom   35 type  2   force =     0.00000831    0.00008909    0.00022880
     atom   36 type  2   force =     0.00055205    0.00012997    0.00022659
     atom   37 type  1   force =    -0.00100355   -0.00039029    0.00026593
     atom   38 type  1   force =     0.00023037   -0.00011235    0.00051216
     atom   39 type  2   force =    -0.00017143   -0.00053079   -0.00073880
     atom   40 type  2   force =    -0.00003400    0.00025887    0.00046197
     atom   41 type  2   force =    -0.00031106   -0.00067385    0.00004966
     atom   42 type  2   force =     0.00022981   -0.00053235   -0.00096795
     atom   43 type  1   force =    -0.00072010    0.00002768   -0.00011561
     atom   44 type  1   force =     0.00034416    0.00029996    0.00042595
     atom   45 type  2   force =     0.00006666   -0.00006722    0.10325844
     atom   46 type  2   force =    -0.07148376   -0.00008101   -0.02769929
     atom   47 type  2   force =     0.07150253    0.00033777   -0.02777771
     atom   48 type  3   force =    -0.00140173   -0.00054089   -0.00079158
     atom   49 type  4   force =     0.00034749   -0.00066455    0.00044013
     atom   50 type  5   force =    -0.00011079   -0.00017323    0.00019371
     atom   51 type  5   force =    -0.00066337   -0.00069019    0.00060254

     Total force =     0.367982     Total SCF correction =     0.000635
  @ DRIVER MODE: Message from server: STATUS
  @ DRIVER MODE: Message from server: GETFORCE
  @ DRIVER MODE: Returning v,forces,stress,ensemble

     Writing output data file ./calc.save/
  @ DRIVER MODE: Message from server: EXIT
  @ DRIVE MODE: Exiting

     General routines

     Parallel routines

   This run was terminated on:  22:38:36   8Sep2021

   JOB DONE.