     Program PWSCF v.6.7GPU starts on 10Sep2021 at 23:15:26

     R & G space division:  proc/nbgrp/npool/nimage =      10
     Reading input from /storage/home/hcoda1/3/ntian30/research/carbon/CxH_vib/CH2_calc/ads_slab/CH2O_c/out_0016/pw.inp
Warning: card &CELL ignored
Warning: card   CELL_DYNAMICS='IPI', ignored
Warning: card / ignored

     Current dimensions of program PWSCF are:
     Max number of different atomic species (ntypx) = 10
     Max number of k-points (npk) =  40000
     Max angular momentum in pseudopotentials (lmaxx) =  3
     Presently no symmetry can be used with electric field

     Message from routine cell_base_init:
     DEPRECATED: use true lattice parameter, not A to a.u. conversion factor

     IMPORTANT: XC functional enforced from input :
     Exchange-correlation= BEEF-VDW
                           (   1   4  43  14   2   0   0)
     Any further DFT definition will be discarded
     Please, verify this is what you really want

  @ DRIVER MODE: Connecting to
 qe_1139763_2792043.sched-torque.pace.gatech.edu1tz_4wl0_scratch
  using UNIX socket
  @ DRIVER MODE: Message from server: STATUS
  @ DRIVER MODE: Message from server: INIT
  @ DRIVER MODE: Receiving replica           0          -1
  @ DRIVER MODE: Receiving encoded integer          25
  @ DRIVER MODE:  SCF:  T  FORCE:  T  STRESS:  F  VC:  F  ENSEMBLE:  F
  @ DRIVER MODE:  SCF:  T  FORCE:  T  STRESS:  F  VC:  F  ENSEMBLE:  F

     Using Slab Decomposition

     bravais-lattice index     =            0
     lattice parameter (alat)  =       1.8897  a.u.
     unit-cell volume          =    6658.9804 (a.u.)^3
     number of atoms/cell      =           51
     number of atomic types    =            4
     number of electrons       =       390.00
     number of Kohn-Sham states=          205
     kinetic-energy cutoff     =      29.3995  Ry
     charge density cutoff     =     293.9946  Ry
     scf convergence threshold =      7.3E-08
     mixing beta               =       0.0500
     number of iterations used =            8  plain     mixing
     Exchange-correlation= BEEF-VDW
                           (   1   4  43  14   2   0   0)

     celldm(1)=   1.889726  celldm(2)=   0.000000  celldm(3)=   0.000000
     celldm(4)=   0.000000  celldm(5)=   0.000000  celldm(6)=   0.000000

     crystal axes: (cart. coord. in units of alat)
               a(1) = (   6.579727   0.000000   0.000000 )
               a(2) = (  -0.000775   5.961596   0.000000 )
               a(3) = (   0.000000   0.000000  25.155947 )

     reciprocal axes: (cart. coord. in units 2 pi/alat)
               b(1) = (  0.151982  0.000020  0.000000 )
               b(2) = (  0.000000  0.167740  0.000000 )
               b(3) = (  0.000000  0.000000  0.039752 )

     PseudoPot. # 1 for O  read from file:
     /storage/coda1/p-amedford6/0/shared/rich_project_chbe-medford/medford-share/data/pseudos_module/espresso/nninc/pbe/van/O.UPF
     MD5 check sum: 78c19812648e8988a0fe644b0f25305e
     Pseudo is Ultrasoft, Zval =  6.0
     Generated by new atomic code, or converted to UPF format
     Using radial grid of  737 points,  4 beta functions with:
                l(1) =   0
                l(2) =   0
                l(3) =   1
                l(4) =   1
     Q(r) pseudized with  8 coefficients,  rinner =    0.800   0.800   0.800

     PseudoPot. # 2 for Ti read from file:
     /storage/coda1/p-amedford6/0/shared/rich_project_chbe-medford/medford-share/data/pseudos_module/espresso/nninc/pbe/van/Ti.UPF
     MD5 check sum: 8e4df49b7f0d34bbd5052bf3f5ea0213
     Pseudo is Ultrasoft, Zval = 12.0
     Generated by new atomic code, or converted to UPF format
     Using radial grid of  851 points,  6 beta functions with:
                l(1) =   0
                l(2) =   0
                l(3) =   1
                l(4) =   1
                l(5) =   2
                l(6) =   2
     Q(r) pseudized with  8 coefficients,  rinner =    1.000   1.000   1.000
                                                       1.000   1.000

     PseudoPot. # 3 for C  read from file:
     /storage/coda1/p-amedford6/0/shared/rich_project_chbe-medford/medford-share/data/pseudos_module/espresso/nninc/pbe/van/C.UPF
     MD5 check sum: 1a69bf6b8db32088f5b2163dbdb77a27
     Pseudo is Ultrasoft, Zval =  4.0
     Generated by new atomic code, or converted to UPF format
     Using radial grid of  721 points,  4 beta functions with:
                l(1) =   0
                l(2) =   0
                l(3) =   1
                l(4) =   1
     Q(r) pseudized with  8 coefficients,  rinner =    0.800   0.800   0.800

     PseudoPot. # 4 for H  read from file:
     /storage/coda1/p-amedford6/0/shared/rich_project_chbe-medford/medford-share/data/pseudos_module/espresso/nninc/pbe/van/H.UPF
     MD5 check sum: b5ee9d7bfd3a09ee7748110bda690ff7
     Pseudo is Ultrasoft, Zval =  1.0
     Generated by new atomic code, or converted to UPF format
     Using radial grid of  615 points,  1 beta functions with:
                l(1) =   0
     Q(r) pseudized with  8 coefficients,  rinner =    0.800

     atomic species   valence    mass     pseudopotential
        O1             6.00    15.99900     O ( 1.00)
        Ti1           12.00    47.86700     Ti( 1.00)
        C1             4.00    12.01100     C ( 1.00)
        H1             1.00     1.00800     H ( 1.00)

     No symmetry found

   Cartesian axes

     site n.     atom                  positions (alat units)
         1           O1  tau(   1) = (   3.2904802   0.0005063   4.7018136  )
         2           O1  tau(   2) = (   3.2900926   2.9813045   4.7018136  )
         3           Ti1 tau(   3) = (   0.0004258   2.9801865   6.0000000  )
         4           Ti1 tau(   4) = (   0.0000382   5.9609847   6.0000000  )
         5           Ti1 tau(   5) = (   3.2906075   1.4906267   6.0002472  )
         6           Ti1 tau(   6) = (   3.2902200   4.4714249   6.0002472  )
         7           O1  tau(   7) = (   1.3043587   1.4918075   6.0039043  )
         8           O1  tau(   8) = (   1.3039711   4.4726057   6.0039043  )
         9           O1  tau(   9) = (   5.2767064   1.4903225   6.0039473  )
        10           O1  tau(  10) = (   5.2763189   4.4711207   6.0039473  )
        11           O1  tau(  11) = (   3.2906025   0.0005020   7.3038282  )
        12           O1  tau(  12) = (   3.2902150   2.9813002   7.3038282  )
        13           O1  tau(  13) = (   0.0006271   0.0005054   7.9858123  )
        14           O1  tau(  14) = (   0.0002396   2.9813036   7.9858123  )
        15           Ti1 tau(  15) = (   3.3026304   0.0558743   9.1529855  )
        16           Ti1 tau(  16) = (   3.3164045   3.0327615   9.1572159  )
        17           Ti1 tau(  17) = (   0.0278175   4.5359734   9.2551557  )
        18           Ti1 tau(  18) = (   0.0245227   1.6138560   9.3625275  )
        19           O1  tau(  19) = (   4.5942328   1.4918067   9.2879030  )
        20           O1  tau(  20) = (   4.5938453   4.4726049   9.2879030  )
        21           O1  tau(  21) = (   1.9868534   1.4903216   9.2879459  )
        22           O1  tau(  22) = (   1.9864658   4.4711199   9.2879459  )
        23           O1  tau(  23) = (   0.0082563   0.0105963  10.6032901  )
        24           O1  tau(  24) = (   0.0079484   2.9900140  10.5841352  )
        25           O1  tau(  25) = (   3.3038251   2.9929121  11.3473413  )
        26           O1  tau(  26) = (   3.3033308   0.0102956  11.3494618  )
        27           Ti1 tau(  27) = (   0.0317432   0.0173395  12.5007832  )
        28           Ti1 tau(  28) = (   3.3306627   4.4867663  12.4909107  )
        29           Ti1 tau(  29) = (   3.3307827   1.5098530  12.4883691  )
        30           Ti1 tau(  30) = (   0.0330478   2.9976760  12.7859357  )
        31           O1  tau(  31) = (   1.3012438   4.4818129  12.6408784  )
        32           O1  tau(  32) = (   1.3024292   1.5014896  12.6394904  )
        33           O1  tau(  33) = (   5.3013637   4.4812751  12.6442516  )
        34           O1  tau(  34) = (   5.3009141   1.5012301  12.6421300  )
        35           O1  tau(  35) = (   3.3022887   2.9886358  13.9251823  )
        36           O1  tau(  36) = (   3.3062039   0.0095056  13.9482717  )
        37           O1  tau(  37) = (   0.0260699   0.0177473  14.6866479  )
        38           O1  tau(  38) = (   0.0273203   2.9953000  14.7270975  )
        39           Ti1 tau(  39) = (   3.3120190   2.9903054  15.7171600  )
        40           Ti1 tau(  40) = (   3.3230935   0.0106652  15.7391692  )
        41           Ti1 tau(  41) = (   0.0328368   4.5824378  15.9539421  )
        42           Ti1 tau(  42) = (   0.0326753   1.3890416  16.0019494  )
        43           O1  tau(  43) = (   4.5622593   4.4711273  16.0916796  )
        44           O1  tau(  44) = (   4.5612194   1.5125715  16.1009491  )
        45           O1  tau(  45) = (   2.0595944   1.5153445  16.1103626  )
        46           O1  tau(  46) = (   2.0577381   4.4687033  16.1006481  )
        47           O1  tau(  47) = (   0.0167757   0.0040543  17.2075325  )
        48           O1  tau(  48) = (   6.5679879   3.0050237  17.4360139  )
        49           C1  tau(  49) = (   6.3840651   3.0748419  18.6981053  )
        50           H1  tau(  50) = (   6.3009919   4.0639401  19.1613311  )
        51           H1  tau(  51) = (   6.3054763   2.1576074  19.2739789  )

     number of k points=    10  Fermi-Dirac smearing, width (Ry)=  0.0073
                       cart. coord. in units 2pi/alat
        k(    1) = (   0.0000000   0.0000000   0.0000000), wk =   0.1250000
        k(    2) = (   0.0000000   0.0419351   0.0000000), wk =   0.2500000
        k(    3) = (   0.0000000  -0.0838702   0.0000000), wk =   0.1250000
        k(    4) = (   0.0379955   0.0000049   0.0000000), wk =   0.2500000
        k(    5) = (   0.0379955   0.0419400   0.0000000), wk =   0.2500000
        k(    6) = (   0.0379955  -0.0838652   0.0000000), wk =   0.2500000
        k(    7) = (   0.0379955  -0.0419301   0.0000000), wk =   0.2500000
        k(    8) = (  -0.0759910  -0.0000099   0.0000000), wk =   0.1250000
        k(    9) = (  -0.0759910   0.0419252   0.0000000), wk =   0.2500000
        k(   10) = (  -0.0759910  -0.0838800   0.0000000), wk =   0.1250000

     Initial potential from superposition of free atoms

     starting charge  373.99919, renormalised to  390.00000

     negative rho (up, down):  1.844E-02 0.000E+00

     %%%%%%%%%%%%%%%%%%%%%%%%%%%%%%%%%%%%%%%%%%%%%%%%%%%%%%%%%%%%%%%%%%%%%%%%
     %                                                                      %
     % You are using vdW-DF, which was implemented by the Thonhauser group. %
     % Please cite the following two papers that made this development      %
     % possible and the two reviews that describe the various versions:     %
     %                                                                      %
     %   T. Thonhauser et al., PRL 115, 136402 (2015).                      %
     %   T. Thonhauser et al., PRB 76, 125112 (2007).                       %
     %   K. Berland et al., Rep. Prog. Phys. 78, 066501 (2015).             %
     %   D.C. Langreth et al., J. Phys.: Condens. Matter 21, 084203 (2009). %
     %                                                                      %
     %                                                                      %
     % If you are calculating the stress with vdW-DF, please also cite:     %
     %                                                                      %
     %   R. Sabatini et al., J. Phys.: Condens. Matter 24, 424209 (2012).   %
     %                                                                      %
     %%%%%%%%%%%%%%%%%%%%%%%%%%%%%%%%%%%%%%%%%%%%%%%%%%%%%%%%%%%%%%%%%%%%%%%%

     Adding external electric field

     Computed dipole along edir(3) :
        Dipole               -5.1802 Ry au,        -13.1669 Debye
        Dipole field         -0.0098 Ry au,

        Potential amp.        0.9062 Ry
        Total length         46.3494 bohr

     Starting wfcs are  294 atomic wfcs
  @ DRIVER MODE: Message from server: STATUS
  @ DRIVER MODE: Message from server: POSDATA
  @ DRIVER MODE: Reading and sharing cell
  @ DRIVER MODE: Reading and sharing positions
  @ DRIVER MODE: Received positions

     Self-consistent Calculation

     iteration #  1     ecut=    29.40 Ry     beta= 0.05
     Davidson diagonalization with overlap
     c_bands:  5 eigenvalues not converged
     c_bands:  3 eigenvalues not converged
     c_bands:  2 eigenvalues not converged
     c_bands:  1 eigenvalues not converged
     c_bands:  2 eigenvalues not converged
     c_bands:  2 eigenvalues not converged
     c_bands:  3 eigenvalues not converged
     c_bands:  1 eigenvalues not converged
     ethr =  1.00E-05,  avg # of iterations = 21.8

[...]

     total energy              =   -2822.98463731 Ry
     estimated scf accuracy    <    1182.34514676 Ry

     iteration #  2     ecut=    29.40 Ry     beta= 0.05
     Davidson diagonalization with overlap
     ethr =  1.00E-02,  avg # of iterations = 16.6

[...]

     iteration # 75     ecut=    29.40 Ry     beta= 0.05
     Davidson diagonalization with overlap
     c_bands:  1 eigenvalues not converged
     c_bands:  1 eigenvalues not converged
     c_bands:  1 eigenvalues not converged
     c_bands:  1 eigenvalues not converged
     ethr =  1.39E-10,  avg # of iterations = 16.1

[...]

     total energy              =   -2930.16717957 Ry
     estimated scf accuracy    <       0.00000010 Ry

     iteration # 80     ecut=    29.40 Ry     beta= 0.05
     Davidson diagonalization with overlap
     ethr =  2.64E-11,  avg # of iterations =  5.4

     negative rho (up, down):  1.726E-02 0.000E+00

     Adding external electric field

     Computed dipole along edir(3) :
        Dipole                0.9336 Ry au,          2.3730 Debye
        Dipole field          0.0018 Ry au,

        Potential amp.       -0.1633 Ry
        Total length         46.3494 bohr

     End of self-consistent calculation

          k = 0.0000 0.0000 0.0000 ( 18029 PWs)   bands (ev):

   -55.8206 -55.8092 -55.7842 -55.7729 -55.7114 -55.6970 -55.6745 -55.6020
   -55.6007 -55.5896 -55.5794 -55.5560 -55.5248 -55.4867 -54.8468 -54.8127
   -32.3789 -32.2930 -32.1878 -32.1712 -32.1267 -32.1223 -32.1152 -32.0964
   -32.0691 -32.0519 -32.0499 -32.0237 -31.9938 -31.9908 -31.9792 -31.9575
   -31.9413 -31.9410 -31.9314 -31.9148 -31.8929 -31.8863 -31.8837 -31.8719
   -31.8632 -31.8458 -31.8440 -31.8208 -31.8154 -31.8149 -31.7897 -31.7620
   -31.7564 -31.7339 -31.7333 -31.7304 -31.7088 -31.7086 -31.6946 -31.6779
   -31.6756 -31.6749 -31.2570 -31.1591 -31.1369 -31.0736 -30.9875 -30.8763
   -19.8435 -16.5907 -16.2966 -16.1505 -16.0165 -15.9673 -15.8521 -15.6945
   -15.6157 -15.5494 -15.4938 -15.4413 -15.4039 -15.4027 -15.3732 -15.3599
   -15.3540 -15.3466 -15.2724 -15.2704 -15.2358 -15.2181 -15.2074 -15.1182
   -15.0577 -14.9975 -14.9509 -14.8929 -14.8393 -14.8261 -13.3476 -13.2292
    -9.2758  -5.5439  -5.4933  -3.9397  -3.7631  -3.7237  -3.7082  -3.6512
    -3.5313  -3.4233  -3.3961  -3.1058  -3.0182  -2.9883  -2.9776  -2.9649
    -2.8230  -2.7792  -2.6651  -2.6622  -2.6505  -2.6459  -2.6258  -2.5904
    -2.5833  -2.5391  -2.5165  -2.4077  -2.3675  -2.2581  -2.2443  -2.2152
    -2.1563  -2.1310  -2.1003  -2.0872  -2.0578  -2.0538  -2.0513  -2.0065
    -1.9059  -1.8180  -1.7498  -1.6685  -1.6302  -1.5378  -1.3792  -1.3098
    -1.2689  -1.2337  -1.1843  -1.1653  -1.1351  -1.1132  -1.0902  -1.0790
    -0.9840  -0.8719  -0.8617  -0.7632  -0.7028  -0.6846  -0.6695  -0.5783
    -0.5596  -0.5490  -0.4559  -0.3140  -0.3042  -0.3001  -0.1813  -0.1504
    -0.1273  -0.0826  -0.0576  -0.0231   0.0076   0.0624   0.1072   0.1176
     0.1644   0.1821   0.2076   0.3089   0.3612   0.3730   0.4270   0.4640
     0.6453   0.6659   0.8074   0.8728   1.0794   1.1777   1.2328   1.3465
     1.7653   1.8231   3.3447   3.3762   3.4012   3.4510   3.4971   3.5392
     3.5920   3.7872   3.8045   3.8133   3.8381

[...]

          k = 0.0380-0.0419 0.0000 ( 17876 PWs)   bands (ev):

[...]

          k =-0.0760-0.0000 0.0000 ( 17886 PWs)   bands (ev):

[...]

          k =-0.0760-0.0839 0.0000 ( 17948 PWs)   bands (ev):

   -55.8088 -55.7958 -55.7913 -55.7906 -55.7017 -55.6937 -55.6842 -55.6050
   -55.5974 -55.5756 -55.5733 -55.5705 -55.5309 -55.4892 -54.8303 -54.8291
   -32.1803 -32.1801 -32.1165 -32.1029 -32.1015 -32.0964 -32.0816 -32.0768
   -32.0623 -32.0332 -32.0253 -32.0106 -31.9941 -31.9574 -31.9464 -31.9376
   -31.9361 -31.9331 -31.9249 -31.9216 -31.9044 -31.9017 -31.8979 -31.8969
   -31.8941 -31.8909 -31.8792 -31.8564 -31.8287 -31.8278 -31.8274 -31.8054
   -31.8007 -31.7831 -31.7799 -31.7738 -31.7707 -31.7697 -31.7431 -31.7165
   -31.7091 -31.6844 -31.1503 -31.1488 -31.0704 -31.0694 -31.0311 -31.0301
   -19.8357 -16.0227 -15.9921 -15.8755 -15.7623 -15.7494 -15.7068 -15.6639
   -15.6159 -15.5575 -15.5546 -15.5065 -15.4875 -15.4834 -15.4388 -15.4061
   -15.3580 -15.3519 -15.3407 -15.3397 -15.2858 -15.2822 -15.2357 -15.2284
   -15.2075 -15.1685 -15.1651 -15.0949 -15.0609 -15.0046 -13.3315 -13.3293
    -9.2768  -5.5214  -5.4754  -3.5576  -3.3114  -3.2780  -3.1083  -2.9801
    -2.9703  -2.9119  -2.8280  -2.7908  -2.7459  -2.6961  -2.6929  -2.6709
    -2.6587  -2.6448  -2.6410  -2.6328  -2.5872  -2.5675  -2.5260  -2.4822
    -2.4742  -2.4608  -2.4550  -2.4150  -2.3991  -2.3874  -2.3802  -2.3743
    -2.3033  -2.2271  -2.1557  -2.0806  -2.0276  -2.0076  -1.9763  -1.9417
    -1.9068  -1.8895  -1.8726  -1.7486  -1.7256  -1.5774  -1.5614  -1.5385
    -1.5297  -1.4752  -1.4693  -1.3481  -1.2710  -1.2650  -1.1929  -1.1755
    -1.1469  -1.0983  -1.0759  -0.9961  -0.9538  -0.9109  -0.8569  -0.7962
    -0.7844  -0.7185  -0.7082  -0.6275  -0.6070  -0.5855  -0.5808  -0.5103
    -0.4763  -0.3970  -0.3860  -0.3632  -0.2626  -0.1979  -0.1923   0.0029
     0.1747   0.1794   0.1992   0.2990   0.3295   0.3724   0.4282   0.4440
     0.5307   0.5853   0.6763   0.6964   0.7052   0.7859   1.5364   1.5374
     1.6285   1.6390   3.2992   3.5637   3.6008   3.6047   3.6652   3.8185
     3.8216   3.8387   3.8480   3.9725   3.9804

     the Fermi energy is     3.3300 ev

!    total energy              =   -2930.16718634 Ry
     estimated scf accuracy    <       0.00000005 Ry
     smearing contrib. (-TS)   =      -0.03343790 Ry
     internal energy E=F+TS    =   -2930.13374845 Ry

     The total energy is F=E-TS. E is the sum of the following terms:
     one-electron contribution =  -24668.07375932 Ry
     hartree contribution      =   12419.49336425 Ry
     xc contribution           =    -481.26276563 Ry
     ewald contribution        =    9799.70776730 Ry
     electric field correction =       0.00164494 Ry

     convergence has been achieved in  80 iterations

     Forces acting on atoms (cartesian axes, Ry/au):

     atom    1 type  1   force =    -0.00010039    0.00004865    0.10423985
     atom    2 type  1   force =    -0.00009466    0.00005049    0.10430088
     atom    3 type  2   force =    -0.00025602   -0.00196161    0.10280240
     atom    4 type  2   force =    -0.00014780    0.00159654    0.11370942
     atom    5 type  2   force =    -0.00033022    0.00058410   -0.18044067
     atom    6 type  2   force =    -0.00019849   -0.00014175   -0.18078247
     atom    7 type  1   force =    -0.06895241    0.00062849   -0.02908671
     atom    8 type  1   force =    -0.06847521   -0.00120437   -0.02912783
     atom    9 type  1   force =     0.06858814    0.00111635   -0.02916417
     atom   10 type  1   force =     0.06820537   -0.00080807   -0.02921798
     atom   11 type  1   force =     0.00037376    0.00051079    0.04558745
     atom   12 type  1   force =     0.00056851    0.00076103    0.04712231
     atom   13 type  1   force =     0.00028146   -0.00576880   -0.03305156
     atom   14 type  1   force =     0.00033248    0.00397785   -0.02583286
     atom   15 type  2   force =     0.00003372   -0.00027647    0.00027440
     atom   16 type  2   force =     0.00013493    0.00013278   -0.00007724
     atom   17 type  2   force =    -0.00022120   -0.00067774    0.00127075
     atom   18 type  2   force =    -0.00028488   -0.00036009    0.00064644
     atom   19 type  1   force =    -0.01792696    0.00015210    0.00393733
     atom   20 type  1   force =    -0.01644176    0.00130520    0.00320893
     atom   21 type  1   force =     0.01956306   -0.00097590    0.00433153
     atom   22 type  1   force =     0.01782045    0.00103210    0.00343934
     atom   23 type  1   force =    -0.00014288   -0.00026449    0.00013882
     atom   24 type  1   force =    -0.00022489    0.00004098    0.00002288
     atom   25 type  1   force =    -0.00002494   -0.00010327   -0.00088403
     atom   26 type  1   force =    -0.00011604    0.00022740   -0.00016605
     atom   27 type  2   force =    -0.00004703   -0.00076136   -0.00093052
     atom   28 type  2   force =     0.00013927    0.00067185    0.00011438
     atom   29 type  2   force =     0.00009133   -0.00088127    0.00048947
     atom   30 type  2   force =    -0.00025171    0.00137103   -0.00048092
     atom   31 type  1   force =    -0.00021164   -0.00033935    0.00041402
     atom   32 type  1   force =    -0.00025754    0.00036079    0.00001610
     atom   33 type  1   force =     0.00001512   -0.00038872    0.00052153
     atom   34 type  1   force =     0.00022004    0.00043520    0.00023254
     atom   35 type  1   force =     0.00014807   -0.00005774   -0.00137064
     atom   36 type  1   force =    -0.00006907    0.00033126   -0.00012191
     atom   37 type  1   force =    -0.00074552    0.00009819    0.00045939
     atom   38 type  1   force =     0.00006260   -0.00023408   -0.00056671
     atom   39 type  2   force =    -0.00077621    0.00066540    0.00129460
     atom   40 type  2   force =    -0.00103618   -0.00007918    0.00040470
     atom   41 type  2   force =     0.00062495   -0.00089588   -0.00077782
     atom   42 type  2   force =     0.00068738    0.00102041   -0.00076288
     atom   43 type  1   force =    -0.00032648    0.00021421    0.00056593
     atom   44 type  1   force =     0.00054647    0.00015198    0.00054430
     atom   45 type  1   force =    -0.00063205   -0.00004055    0.00040690
     atom   46 type  1   force =     0.00017043    0.00015273    0.00056719
     atom   47 type  1   force =    -0.00043785    0.00080989    0.00150616
     atom   48 type  1   force =    -0.00054834   -0.00038656    0.00150842
     atom   49 type  3   force =    -0.00085001    0.01011871    0.00274622
     atom   50 type  4   force =     0.00119885   -0.01147702   -0.00371946
     atom   51 type  4   force =     0.00032202   -0.00048221   -0.00026212

     Total force =     0.374755     Total SCF correction =     0.000707
  @ DRIVER MODE: Message from server: STATUS
  @ DRIVER MODE: Message from server: GETFORCE
  @ DRIVER MODE: Returning v,forces,stress,ensemble

     Writing output data file ./calc.save/
  @ DRIVER MODE: Message from server: EXIT
  @ DRIVE MODE: Exiting

     General routines

     Parallel routines

   This run was terminated on:  23:55:11  10Sep2021

   JOB DONE.