     Program PWSCF v.6.7GPU starts on 16Sep2021 at  2:27:31

     R & G space division:  proc/nbgrp/npool/nimage =      10
     Reading input from /storage/home/hcoda1/3/ntian30/research/carbon/CxH_vib/H2O_calc/ads_slab/CH3N2H2O_c/out_0034/pw.inp
Warning: card &CELL ignored
Warning: card   CELL_DYNAMICS='IPI', ignored
Warning: card / ignored

     Current dimensions of program PWSCF are:
     Max number of different atomic species (ntypx) = 10
     Max number of k-points (npk) =  40000
     Max angular momentum in pseudopotentials (lmaxx) =  3
     Presently no symmetry can be used with electric field

     Message from routine cell_base_init:
     DEPRECATED: use true lattice parameter, not A to a.u. conversion factor

     IMPORTANT: XC functional enforced from input :
     Exchange-correlation= BEEF-VDW
                           (   1   4  43  14   2   0   0)
     Any further DFT definition will be discarded
     Please, verify this is what you really want

  @ DRIVER MODE: Connecting to
 qe_1139763_2852616.sched-torque.pace.gatech.edukou8e27d_scratch
  using UNIX socket
  @ DRIVER MODE: Message from server: STATUS
  @ DRIVER MODE: Message from server: INIT
  @ DRIVER MODE: Receiving replica           0          -1
  @ DRIVER MODE: Receiving encoded integer          25
  @ DRIVER MODE:  SCF:  T  FORCE:  T  STRESS:  F  VC:  F  ENSEMBLE:  F
  @ DRIVER MODE:  SCF:  T  FORCE:  T  STRESS:  F  VC:  F  ENSEMBLE:  F

     Using Slab Decomposition

     bravais-lattice index     =            0
     lattice parameter (alat)  =       1.8897  a.u.
     unit-cell volume          =    6658.9804 (a.u.)^3
     number of atoms/cell      =           56
     number of atomic types    =            5
     number of electrons       =       403.00
     number of Kohn-Sham states=          211
     kinetic-energy cutoff     =      29.3995  Ry
     charge density cutoff     =     293.9946  Ry
     scf convergence threshold =      7.3E-08
     mixing beta               =       0.0500
     number of iterations used =            8  plain     mixing
     Exchange-correlation= BEEF-VDW
                           (   1   4  43  14   2   0   0)

     celldm(1)=   1.889726  celldm(2)=   0.000000  celldm(3)=   0.000000
     celldm(4)=   0.000000  celldm(5)=   0.000000  celldm(6)=   0.000000

     crystal axes: (cart. coord. in units of alat)
               a(1) = (   6.579727   0.000000   0.000000 )
               a(2) = (  -0.000775   5.961596   0.000000 )
               a(3) = (   0.000000   0.000000  25.155947 )

     reciprocal axes: (cart. coord. in units 2 pi/alat)
               b(1) = (  0.151982  0.000020  0.000000 )
               b(2) = (  0.000000  0.167740  0.000000 )
               b(3) = (  0.000000  0.000000  0.039752 )

     PseudoPot. # 1 for Ti read from file:
     /storage/coda1/p-amedford6/0/shared/rich_project_chbe-medford/medford-share/data/pseudos_module/espresso/nninc/pbe/van/Ti.UPF
     MD5 check sum: 8e4df49b7f0d34bbd5052bf3f5ea0213
     Pseudo is Ultrasoft, Zval = 12.0
     Generated by new atomic code, or converted to UPF format
     Using radial grid of  851 points,  6 beta functions with:
                l(1) =   0
                l(2) =   0
                l(3) =   1
                l(4) =   1
                l(5) =   2
                l(6) =   2
     Q(r) pseudized with  8 coefficients,  rinner =    1.000   1.000   1.000
                                                       1.000   1.000

     PseudoPot. # 2 for O  read from file:
     /storage/coda1/p-amedford6/0/shared/rich_project_chbe-medford/medford-share/data/pseudos_module/espresso/nninc/pbe/van/O.UPF
     MD5 check sum: 78c19812648e8988a0fe644b0f25305e
     Pseudo is Ultrasoft, Zval =  6.0
     Generated by new atomic code, or converted to UPF format
     Using radial grid of  737 points,  4 beta functions with:
                l(1) =   0
                l(2) =   0
                l(3) =   1
                l(4) =   1
     Q(r) pseudized with  8 coefficients,  rinner =    0.800   0.800   0.800

     PseudoPot. # 3 for N  read from file:
     /storage/coda1/p-amedford6/0/shared/rich_project_chbe-medford/medford-share/data/pseudos_module/espresso/nninc/pbe/van/N.UPF
     MD5 check sum: 90d10febe142ad51ac9d5be1deb811c4
     Pseudo is Ultrasoft, Zval =  5.0
     Generated by new atomic code, or converted to UPF format
     Using radial grid of  729 points,  4 beta functions with:
                l(1) =   0
                l(2) =   0
                l(3) =   1
                l(4) =   1
     Q(r) pseudized with  8 coefficients,  rinner =    0.800   0.800   0.800

     PseudoPot. # 4 for C  read from file:
     /storage/coda1/p-amedford6/0/shared/rich_project_chbe-medford/medford-share/data/pseudos_module/espresso/nninc/pbe/van/C.UPF
     MD5 check sum: 1a69bf6b8db32088f5b2163dbdb77a27
     Pseudo is Ultrasoft, Zval =  4.0
     Generated by new atomic code, or converted to UPF format
     Using radial grid of  721 points,  4 beta functions with:
                l(1) =   0
                l(2) =   0
                l(3) =   1
                l(4) =   1
     Q(r) pseudized with  8 coefficients,  rinner =    0.800   0.800   0.800

     PseudoPot. # 5 for H  read from file:
     /storage/coda1/p-amedford6/0/shared/rich_project_chbe-medford/medford-share/data/pseudos_module/espresso/nninc/pbe/van/H.UPF
     MD5 check sum: b5ee9d7bfd3a09ee7748110bda690ff7
     Pseudo is Ultrasoft, Zval =  1.0
     Generated by new atomic code, or converted to UPF format
     Using radial grid of  615 points,  1 beta functions with:
                l(1) =   0
     Q(r) pseudized with  8 coefficients,  rinner =    0.800

     atomic species   valence    mass     pseudopotential
        Ti1           12.00    47.86700     Ti( 1.00)
        O1             6.00    15.99900     O ( 1.00)
        N1             5.00    14.00700     N ( 1.00)
        C1             4.00    12.01100     C ( 1.00)
        H1             1.00     1.00800     H ( 1.00)

     No symmetry found

   Cartesian axes

     site n.     atom                  positions (alat units)
         1           Ti1 tau(   1) = (   0.0004258   2.9801865   6.0000000  )
         2           Ti1 tau(   2) = (   3.2906075   1.4906267   6.0002472  )
         3           O1  tau(   3) = (   0.0006271   0.0005054   7.9858123  )
         4           O1  tau(   4) = (   3.2906025   0.0005020   7.3038282  )
         5           O1  tau(   5) = (   4.5942328   1.4918067   9.2879030  )
         6           O1  tau(   6) = (   1.9868534   1.4903216   9.2879459  )
         7           Ti1 tau(   7) = (   3.2907910   2.8959150   9.1758416  )
         8           Ti1 tau(   8) = (   0.0015273   1.4827037   9.2680791  )
         9           O1  tau(   9) = (   3.2828550   5.9398922  11.3444325  )
        10           O1  tau(  10) = (   0.0116148   5.9584955  10.6183126  )
        11           O1  tau(  11) = (   1.2785533   1.4626539  12.6279770  )
        12           O1  tau(  12) = (   5.2704455   1.4657548  12.6160130  )
        13           Ti1 tau(  13) = (   0.0600808   2.9393476  12.6134163  )
        14           Ti1 tau(  14) = (   3.3737088   1.4602624  12.5010433  )
        15           O1  tau(  15) = (   6.5684750   5.9323085  14.6353932  )
        16           O1  tau(  16) = (   3.2849856   5.9366180  13.9618146  )
        17           O1  tau(  17) = (   4.5362432   1.5114280  16.0576559  )
        18           O1  tau(  18) = (   2.0240554   1.5008084  16.0383298  )
        19           Ti1 tau(  19) = (   3.2703657   2.9522362  15.6888820  )
        20           Ti1 tau(  20) = (   6.5391562   1.4934284  15.8005638  )
        21           O1  tau(  21) = (   3.2904802   0.0005063   4.7018136  )
        22           O1  tau(  22) = (   6.5583345   5.9570231  17.1947061  )
        23           O1  tau(  23) = (   1.3043587   1.4918075   6.0039043  )
        24           O1  tau(  24) = (   5.2767064   1.4903225   6.0039473  )
        25           Ti1 tau(  25) = (   0.0000382   5.9609847   6.0000000  )
        26           Ti1 tau(  26) = (   3.2902200   4.4714249   6.0002472  )
        27           O1  tau(  27) = (   0.0002396   2.9813036   7.9858123  )
        28           O1  tau(  28) = (   3.2902150   2.9813002   7.3038282  )
        29           O1  tau(  29) = (   4.5938453   4.4726049   9.2879030  )
        30           O1  tau(  30) = (   1.9864658   4.4711199   9.2879459  )
        31           Ti1 tau(  31) = (   3.2891106   5.8743827   9.1763621  )
        32           Ti1 tau(  32) = (   0.0006254   4.4649316   9.2693709  )
        33           O1  tau(  33) = (   3.2888364   2.9620848  11.3424199  )
        34           O1  tau(  34) = (   0.0092240   2.9805883  10.6323155  )
        35           O1  tau(  35) = (   1.2785924   4.4508711  12.6313046  )
        36           O1  tau(  36) = (   5.2742027   4.4576360  12.6186982  )
        37           Ti1 tau(  37) = (   0.0560446   5.9134488  12.5469576  )
        38           Ti1 tau(  38) = (   3.3742563   4.4530221  12.5021653  )
        39           O1  tau(  39) = (   6.5655761   2.9369947  14.6516633  )
        40           O1  tau(  40) = (   3.2805149   2.9594171  13.8967751  )
        41           O1  tau(  41) = (   4.5308665   4.4203993  16.0704334  )
        42           O1  tau(  42) = (   2.0169005   4.4237906  16.0574931  )
        43           Ti1 tau(  43) = (   3.2493829   5.9208236  15.8028744  )
        44           Ti1 tau(  44) = (   6.5423592   4.6318136  16.0678394  )
        45           O1  tau(  45) = (   3.2900926   2.9813045   4.7018136  )
        46           O1  tau(  46) = (   1.3039711   4.4726057   6.0039043  )
        47           O1  tau(  47) = (   5.2763189   4.4711207   6.0039473  )
        48           N1  tau(  48) = (   0.1516996   2.6368831  18.6397825  )
        49           N1  tau(  49) = (   0.0343947   2.8734663  17.4441277  )
        50           C1  tau(  50) = (   0.1908864   3.7705318  19.5986308  )
        51           H1  tau(  51) = (   6.5333492   4.7333814  19.1494580  )
        52           H1  tau(  52) = (   6.0816938   3.5230213  20.4074400  )
        53           H1  tau(  53) = (   1.1988782   3.7980179  20.0220438  )
        54           O1  tau(  54) = (   3.2442500   5.9498283  18.2024067  )
        55           H1  tau(  55) = (   4.0366425   0.4867780  18.4672138  )
        56           H1  tau(  56) = (   2.4709518   0.5160301  18.4623371  )

     number of k points=    10  Fermi-Dirac smearing, width (Ry)=  0.0073
                       cart. coord. in units 2pi/alat
        k(    1) = (   0.0000000   0.0000000   0.0000000), wk =   0.1250000
        k(    2) = (   0.0000000   0.0419351   0.0000000), wk =   0.2500000
        k(    3) = (   0.0000000  -0.0838702   0.0000000), wk =   0.1250000
        k(    4) = (   0.0379955   0.0000049   0.0000000), wk =   0.2500000
        k(    5) = (   0.0379955   0.0419400   0.0000000), wk =   0.2500000
        k(    6) = (   0.0379955  -0.0838652   0.0000000), wk =   0.2500000
        k(    7) = (   0.0379955  -0.0419301   0.0000000), wk =   0.2500000
        k(    8) = (  -0.0759910  -0.0000099   0.0000000), wk =   0.1250000
        k(    9) = (  -0.0759910   0.0419252   0.0000000), wk =   0.2500000
        k(   10) = (  -0.0759910  -0.0838800   0.0000000), wk =   0.1250000

     Initial potential from superposition of free atoms

     starting charge  386.99914, renormalised to  403.00000

     negative rho (up, down):  1.444E-02 0.000E+00

     %%%%%%%%%%%%%%%%%%%%%%%%%%%%%%%%%%%%%%%%%%%%%%%%%%%%%%%%%%%%%%%%%%%%%%%%
     %                                                                      %
     % You are using vdW-DF, which was implemented by the Thonhauser group. %
     % Please cite the following two papers that made this development      %
     % possible and the two reviews that describe the various versions:     %
     %                                                                      %
     %   T. Thonhauser et al., PRL 115, 136402 (2015).                      %
     %   T. Thonhauser et al., PRB 76, 125112 (2007).                       %
     %   K. Berland et al., Rep. Prog. Phys. 78, 066501 (2015).             %
     %   D.C. Langreth et al., J. Phys.: Condens. Matter 21, 084203 (2009). %
     %                                                                      %
     %                                                                      %
     % If you are calculating the stress with vdW-DF, please also cite:     %
     %                                                                      %
     %   R. Sabatini et al., J. Phys.: Condens. Matter 24, 424209 (2012).   %
     %                                                                      %
     %%%%%%%%%%%%%%%%%%%%%%%%%%%%%%%%%%%%%%%%%%%%%%%%%%%%%%%%%%%%%%%%%%%%%%%%

     Adding external electric field

     Computed dipole along edir(3) :
        Dipole              -13.2286 Ry au,        -33.6236 Debye
        Dipole field         -0.0250 Ry au,

        Potential amp.        2.3141 Ry
        Total length         46.3494 bohr

     Starting wfcs are  305 atomic wfcs
  @ DRIVER MODE: Message from server: STATUS
  @ DRIVER MODE: Message from server: POSDATA
  @ DRIVER MODE: Reading and sharing cell
  @ DRIVER MODE: Reading and sharing positions
  @ DRIVER MODE: Received positions

     Self-consistent Calculation

     iteration #  1     ecut=    29.40 Ry     beta= 0.05
     Davidson diagonalization with overlap
     c_bands:  4 eigenvalues not converged
     c_bands:  2 eigenvalues not converged
     c_bands:  4 eigenvalues not converged
     c_bands:  1 eigenvalues not converged
     c_bands:  1 eigenvalues not converged
     c_bands:  1 eigenvalues not converged
     c_bands:  4 eigenvalues not converged
     c_bands:  1 eigenvalues not converged
     c_bands:  1 eigenvalues not converged
     ethr =  1.00E-05,  avg # of iterations = 29.9

[...]

     total energy              =   -2367.54226602 Ry
     estimated scf accuracy    <    6916.36620520 Ry

     iteration #  2     ecut=    29.40 Ry     beta= 0.05
     Davidson diagonalization with overlap
     ethr =  1.00E-02,  avg # of iterations = 22.7

[...]

     iteration # 61     ecut=    29.40 Ry     beta= 0.05
     Davidson diagonalization with overlap
     c_bands:  1 eigenvalues not converged
     ethr =  6.64E-11,  avg # of iterations = 11.1

[...]

     total energy              =   -2974.00308238 Ry
     estimated scf accuracy    <       0.00000009 Ry

     iteration # 64     ecut=    29.40 Ry     beta= 0.05
     Davidson diagonalization with overlap
     ethr =  2.24E-11,  avg # of iterations =  5.9

     negative rho (up, down):  1.457E-02 0.000E+00

     Adding external electric field

     Computed dipole along edir(3) :
        Dipole                0.9226 Ry au,          2.3449 Debye
        Dipole field          0.0017 Ry au,

        Potential amp.       -0.1614 Ry
        Total length         46.3494 bohr

     End of self-consistent calculation

          k = 0.0000 0.0000 0.0000 ( 18029 PWs)   bands (ev):

   -55.6028 -55.5687 -55.5618 -55.5544 -55.5258 -55.4359 -55.4129 -55.3957
   -55.3789 -55.3782 -55.3499 -55.3444 -55.0016 -54.8727 -54.5818 -54.5478
   -32.1040 -32.0853 -31.9535 -31.9360 -31.9116 -31.8956 -31.8680 -31.8650
   -31.8457 -31.7983 -31.7913 -31.7768 -31.7550 -31.7404 -31.7245 -31.7187
   -31.7072 -31.6946 -31.6889 -31.6600 -31.6530 -31.6403 -31.6056 -31.6013
   -31.5906 -31.5883 -31.5848 -31.5772 -31.5531 -31.5494 -31.5476 -31.5427
   -31.5310 -31.5292 -31.5197 -31.5109 -31.4901 -31.2711 -31.2005 -31.1302
   -31.1096 -31.0793 -30.9889 -30.9005 -30.8780 -30.8056 -30.7191 -30.6081
   -18.9010 -18.3024 -16.3017 -16.0688 -15.8432 -15.7517 -15.7104 -15.5040
   -15.4034 -15.3277 -15.2097 -15.1457 -15.1375 -15.1184 -15.1070 -15.1023
   -15.0435 -15.0395 -15.0375 -15.0238 -14.9983 -14.9508 -14.9360 -14.9318
   -14.8368 -14.7641 -14.7400 -14.7227 -14.6802 -14.6552 -14.2030 -13.0837
   -12.9672 -11.3121  -6.8697  -6.6916  -4.2082  -3.8538  -3.8201  -3.6761
    -3.5472  -3.5073  -3.4361  -3.3638  -3.2329  -3.2086  -3.0358  -2.8364
    -2.7763  -2.7476  -2.7017  -2.6304  -2.5156  -2.4595  -2.4090  -2.4063
    -2.3864  -2.3809  -2.3566  -2.3384  -2.2403  -2.2206  -2.1508  -2.1354
    -2.0853  -1.9859  -1.9562  -1.9151  -1.9055  -1.8778  -1.8643  -1.8507
    -1.8278  -1.8035  -1.7629  -1.6952  -1.6166  -1.5812  -1.5043  -1.4483
    -1.4084  -1.3485  -1.2130  -1.1374  -1.0893  -1.0570  -1.0476  -1.0293
    -0.9952  -0.9779  -0.8669  -0.7547  -0.7387  -0.6739  -0.6114  -0.5283
    -0.4948  -0.4338  -0.3695  -0.3519  -0.3468  -0.3103  -0.2688  -0.2220
    -0.0846  -0.0294   0.0041   0.0121   0.0737   0.1149   0.1463   0.2289
     0.2437   0.2833   0.3264   0.3578   0.3689   0.3788   0.3998   0.4305
     0.4353   0.6251   0.6680   0.7128   0.7472   0.7855   0.9313   0.9503
     1.0568   1.1625   1.3675   1.4408   1.5402   1.6329   2.0122   2.0580
     2.7600   3.5315   3.6191   3.6638   3.7016   3.7774   3.7886   3.9866
     4.0018   4.0410   4.1168

[...]

          k = 0.0380-0.0419 0.0000 ( 17876 PWs)   bands (ev):

[...]

          k =-0.0760-0.0000 0.0000 ( 17886 PWs)   bands (ev):

[...]

          k =-0.0760-0.0839 0.0000 ( 17948 PWs)   bands (ev):

   -55.5862 -55.5852 -55.5533 -55.5448 -55.5421 -55.4261 -55.4056 -55.3964
   -55.3947 -55.3634 -55.3596 -55.3513 -54.9995 -54.8747 -54.5648 -54.5646
   -31.9177 -31.9013 -31.9009 -31.9002 -31.8814 -31.8805 -31.8404 -31.8318
   -31.8049 -31.7839 -31.7723 -31.7639 -31.7591 -31.7155 -31.7119 -31.7093
   -31.7069 -31.7057 -31.7047 -31.7005 -31.6979 -31.6972 -31.6569 -31.6448
   -31.6240 -31.6178 -31.6107 -31.5963 -31.5956 -31.5930 -31.5868 -31.5781
   -31.5742 -31.5644 -31.5640 -31.5549 -31.4217 -31.2731 -31.2191 -31.1634
   -31.1320 -31.1063 -30.8908 -30.8907 -30.8018 -30.8016 -30.7624 -30.7624
   -18.9000 -18.2987 -15.7558 -15.6515 -15.5549 -15.5194 -15.4628 -15.4032
   -15.3884 -15.3071 -15.2835 -15.2799 -15.2189 -15.1970 -15.1621 -15.1496
   -15.1283 -15.1149 -15.1113 -15.0552 -15.0487 -15.0395 -15.0328 -15.0294
   -14.9624 -14.9202 -14.9166 -14.9120 -14.7874 -14.6619 -14.3825 -13.0691
   -13.0689 -11.3096  -6.8957  -6.6725  -4.1343  -3.8778  -3.7894  -3.2606
    -3.0386  -2.8363  -2.8080  -2.7133  -2.6984  -2.6683  -2.5358  -2.4961
    -2.4562  -2.4419  -2.4188  -2.4179  -2.4048  -2.3984  -2.3811  -2.3573
    -2.3295  -2.3040  -2.2742  -2.2663  -2.2542  -2.2357  -2.2225  -2.2054
    -2.2023  -2.1584  -2.1370  -2.1276  -2.0448  -1.9899  -1.8276  -1.7853
    -1.7410  -1.7314  -1.7063  -1.7009  -1.6688  -1.6548  -1.6035  -1.5909
    -1.4744  -1.3616  -1.3227  -1.2988  -1.2897  -1.2710  -1.1997  -1.0986
    -1.0741  -0.9996  -0.9950  -0.8915  -0.8774  -0.7970  -0.7868  -0.7622
    -0.7065  -0.6703  -0.6504  -0.5670  -0.5614  -0.5386  -0.4964  -0.4661
    -0.4087  -0.3530  -0.3236  -0.3143  -0.2768  -0.2522  -0.2114  -0.1606
    -0.0984  -0.0603   0.0350   0.1379   0.2219   0.3579   0.4680   0.4957
     0.5705   0.6070   0.6813   0.7109   0.7178   0.7792   0.7922   0.8816
     0.9383   0.9512   0.9872   1.1060   1.8042   1.8056   1.8775   1.8778
     2.7850   3.7563   3.8661   3.9090   3.9298   4.0047   4.0460   4.0658
     4.0684   4.1043   4.2079

     the Fermi energy is     3.5309 ev

!    total energy              =   -2974.00311536 Ry
     estimated scf accuracy    <       0.00000006 Ry
     smearing contrib. (-TS)   =      -0.02181171 Ry
     internal energy E=F+TS    =   -2973.98130365 Ry

     The total energy is F=E-TS. E is the sum of the following terms:
     one-electron contribution =  -23851.69996710 Ry
     hartree contribution      =   12020.43159512 Ry
     xc contribution           =    -494.03769494 Ry
     ewald contribution        =    9351.32315708 Ry
     electric field correction =       0.00160620 Ry

     convergence has been achieved in  64 iterations

     Forces acting on atoms (cartesian axes, Ry/au):

     atom    1 type  1   force =     0.00016627   -0.00021532    0.09634350
     atom    2 type  1   force =    -0.00018631   -0.00045129   -0.17541309
     atom    3 type  2   force =     0.00001851   -0.00014821   -0.02469764
     atom    4 type  2   force =     0.00005415   -0.00162010    0.05342791
     atom    5 type  2   force =    -0.01198072   -0.00148203    0.00369918
     atom    6 type  2   force =     0.01343464   -0.00064211    0.00223512
     atom    7 type  1   force =    -0.00108725    0.00055904   -0.00697975
     atom    8 type  1   force =     0.00064613    0.00918133    0.02676119
     atom    9 type  2   force =     0.00017743    0.00020352   -0.00044889
     atom   10 type  2   force =    -0.00157685   -0.00030801   -0.01790769
     atom   11 type  2   force =     0.00089972    0.00089827   -0.00000225
     atom   12 type  2   force =    -0.00060806    0.00060141   -0.00003431
     atom   13 type  1   force =    -0.00026834    0.00024181   -0.00033402
     atom   14 type  1   force =     0.00027257    0.00026821    0.00006221
     atom   15 type  2   force =     0.00008504    0.00021351   -0.00030046
     atom   16 type  2   force =     0.00001106    0.00021029    0.00080693
     atom   17 type  2   force =     0.00102121    0.00003735    0.00012130
     atom   18 type  2   force =    -0.00137875   -0.00004098   -0.00004504
     atom   19 type  1   force =    -0.00005700    0.00131074   -0.00006782
     atom   20 type  1   force =    -0.00028007   -0.00015608   -0.00013647
     atom   21 type  2   force =     0.00009930    0.00001328    0.10322323
     atom   22 type  2   force =    -0.00011569    0.00033278    0.00049220
     atom   23 type  2   force =    -0.07145820   -0.00009492   -0.02779046
     atom   24 type  2   force =     0.07144638    0.00035126   -0.02778479
     atom   25 type  1   force =     0.00001728   -0.00032118    0.09609478
     atom   26 type  1   force =    -0.00030436   -0.00044419   -0.17577645
     atom   27 type  2   force =     0.00008874   -0.00025050   -0.02368556
     atom   28 type  2   force =     0.00012013   -0.00129950    0.05283254
     atom   29 type  2   force =    -0.01225035    0.00021468    0.00357817
     atom   30 type  2   force =     0.01358857    0.00042770    0.00207787
     atom   31 type  1   force =    -0.00117912    0.00350023   -0.01017134
     atom   32 type  1   force =     0.00082972   -0.01100127    0.02705150
     atom   33 type  2   force =     0.00010289   -0.00000016    0.00059735
     atom   34 type  2   force =    -0.00116182   -0.00122795   -0.02346869
     atom   35 type  2   force =     0.00081642   -0.00051919   -0.00011410
     atom   36 type  2   force =    -0.00058569   -0.00018282   -0.00014165
     atom   37 type  1   force =    -0.00056146    0.00019998   -0.00040781
     atom   38 type  1   force =     0.00028649   -0.00025258    0.00011889
     atom   39 type  2   force =     0.00011459    0.00045327    0.00008902
     atom   40 type  2   force =     0.00019876    0.00015079   -0.00055612
     atom   41 type  2   force =     0.00080937    0.00069367    0.00034281
     atom   42 type  2   force =    -0.00086859    0.00068350    0.00019246
     atom   43 type  1   force =    -0.00000011   -0.00094131   -0.00081241
     atom   44 type  1   force =    -0.00026351    0.00110835    0.00037768
     atom   45 type  2   force =     0.00008492   -0.00002551    0.10321071
     atom   46 type  2   force =    -0.07146569   -0.00001368   -0.02779806
     atom   47 type  2   force =     0.07145115    0.00039942   -0.02779537
     atom   48 type  3   force =     0.00093296   -0.00146401   -0.00003552
     atom   49 type  3   force =     0.00009369   -0.00013914    0.00030217
     atom   50 type  4   force =     0.00025770    0.00294869    0.00074413
     atom   51 type  5   force =    -0.00084666   -0.00075900   -0.00131870
     atom   52 type  5   force =     0.00047822   -0.00004934   -0.00024638
     atom   53 type  5   force =    -0.00005855   -0.00195143   -0.00065217
     atom   54 type  2   force =     0.00161232    0.00010615   -0.00026189
     atom   55 type  5   force =    -0.00060612   -0.00007943   -0.00011449
     atom   56 type  5   force =    -0.00106704    0.00077199    0.00051652

     Total force =     0.367784     Total SCF correction =     0.000640
  @ DRIVER MODE: Message from server: STATUS
  @ DRIVER MODE: Message from server: GETFORCE
  @ DRIVER MODE: Returning v,forces,stress,ensemble

     Writing output data file ./calc.save/
  @ DRIVER MODE: Message from server: EXIT
  @ DRIVE MODE: Exiting

     General routines

     Parallel routines

   This run was terminated on:   2:46: 3  16Sep2021

   JOB DONE.