     Program PWSCF v.6.7GPU starts on  2Aug2021 at 12:17:35

     R & G space division:  proc/nbgrp/npool/nimage =      16
     Reading input from /storage/home/hcoda1/3/ntian30/research/carbon/02Aug_vib_paired/ads_slab/CH3N2H_a/out_0001/pw.inp
Warning: card &CELL ignored
Warning: card   CELL_DYNAMICS='IPI', ignored
Warning: card / ignored

     Current dimensions of program PWSCF are:
     Max number of different atomic species (ntypx) = 10
     Max number of k-points (npk) =  40000
     Max angular momentum in pseudopotentials (lmaxx) =  3
     Presently no symmetry can be used with electric field

     Message from routine cell_base_init:
     DEPRECATED: use true lattice parameter, not A to a.u. conversion factor

     IMPORTANT: XC functional enforced from input :
     Exchange-correlation= BEEF-VDW
                           (   1   4  43  14   2   0   0)
     Any further DFT definition will be discarded
     Please, verify this is what you really want

  @ DRIVER MODE: Connecting to
 qe_1139763_2482535.sched-torque.pace.gatech.edurgqse41v_scratch
  using UNIX socket
  @ DRIVER MODE: Message from server: STATUS
  @ DRIVER MODE: Message from server: INIT
  @ DRIVER MODE: Receiving replica           0          -1
  @ DRIVER MODE: Receiving encoded integer          25
  @ DRIVER MODE:  SCF:  T  FORCE:  T  STRESS:  F  VC:  F  ENSEMBLE:  F
  @ DRIVER MODE:  SCF:  T  FORCE:  T  STRESS:  F  VC:  F  ENSEMBLE:  F

     Using Slab Decomposition

     bravais-lattice index     =            0
     lattice parameter (alat)  =       1.8897  a.u.
     unit-cell volume          =    6658.9804 (a.u.)^3
     number of atoms/cell      =           54
     number of atomic types    =            5
     number of electrons       =       396.00
     number of Kohn-Sham states=          208
     kinetic-energy cutoff     =      29.3995  Ry
     charge density cutoff     =     293.9946  Ry
     scf convergence threshold =      7.3E-08
     mixing beta               =       0.0500
     number of iterations used =            8  plain     mixing
     Exchange-correlation= BEEF-VDW
                           (   1   4  43  14   2   0   0)

     celldm(1)=   1.889726  celldm(2)=   0.000000  celldm(3)=   0.000000
     celldm(4)=   0.000000  celldm(5)=   0.000000  celldm(6)=   0.000000

     crystal axes: (cart. coord. in units of alat)
               a(1) = (   6.579727   0.000000   0.000000 )
               a(2) = (  -0.000775   5.961596   0.000000 )
               a(3) = (   0.000000   0.000000  25.155947 )

     reciprocal axes: (cart. coord. in units 2 pi/alat)
               b(1) = (  0.151982  0.000020  0.000000 )
               b(2) = (  0.000000  0.167740  0.000000 )
               b(3) = (  0.000000  0.000000  0.039752 )

     PseudoPot. # 1 for Ti read from file:
     /storage/coda1/p-amedford6/0/shared/rich_project_chbe-medford/medford-share/data/pseudos_module/espresso/nninc/pbe/van/Ti.UPF
     MD5 check sum: 8e4df49b7f0d34bbd5052bf3f5ea0213
     Pseudo is Ultrasoft, Zval = 12.0
     Generated by new atomic code, or converted to UPF format
     Using radial grid of  851 points,  6 beta functions with:
                l(1) =   0
                l(2) =   0
                l(3) =   1
                l(4) =   1
                l(5) =   2
                l(6) =   2
     Q(r) pseudized with  8 coefficients,  rinner =    1.000   1.000   1.000
                                                       1.000   1.000

     PseudoPot. # 2 for O  read from file:
     /storage/coda1/p-amedford6/0/shared/rich_project_chbe-medford/medford-share/data/pseudos_module/espresso/nninc/pbe/van/O.UPF
     MD5 check sum: 78c19812648e8988a0fe644b0f25305e
     Pseudo is Ultrasoft, Zval =  6.0
     Generated by new atomic code, or converted to UPF format
     Using radial grid of  737 points,  4 beta functions with:
                l(1) =   0
                l(2) =   0
                l(3) =   1
                l(4) =   1
     Q(r) pseudized with  8 coefficients,  rinner =    0.800   0.800   0.800

     PseudoPot. # 3 for N  read from file:
     /storage/coda1/p-amedford6/0/shared/rich_project_chbe-medford/medford-share/data/pseudos_module/espresso/nninc/pbe/van/N.UPF
     MD5 check sum: 90d10febe142ad51ac9d5be1deb811c4
     Pseudo is Ultrasoft, Zval =  5.0
     Generated by new atomic code, or converted to UPF format
     Using radial grid of  729 points,  4 beta functions with:
                l(1) =   0
                l(2) =   0
                l(3) =   1
                l(4) =   1
     Q(r) pseudized with  8 coefficients,  rinner =    0.800   0.800   0.800

     PseudoPot. # 4 for C  read from file:
     /storage/coda1/p-amedford6/0/shared/rich_project_chbe-medford/medford-share/data/pseudos_module/espresso/nninc/pbe/van/C.UPF
     MD5 check sum: 1a69bf6b8db32088f5b2163dbdb77a27
     Pseudo is Ultrasoft, Zval =  4.0
     Generated by new atomic code, or converted to UPF format
     Using radial grid of  721 points,  4 beta functions with:
                l(1) =   0
                l(2) =   0
                l(3) =   1
                l(4) =   1
     Q(r) pseudized with  8 coefficients,  rinner =    0.800   0.800   0.800

     PseudoPot. # 5 for H  read from file:
     /storage/coda1/p-amedford6/0/shared/rich_project_chbe-medford/medford-share/data/pseudos_module/espresso/nninc/pbe/van/H.UPF
     MD5 check sum: b5ee9d7bfd3a09ee7748110bda690ff7
     Pseudo is Ultrasoft, Zval =  1.0
     Generated by new atomic code, or converted to UPF format
     Using radial grid of  615 points,  1 beta functions with:
                l(1) =   0
     Q(r) pseudized with  8 coefficients,  rinner =    0.800

     atomic species   valence    mass     pseudopotential
        Ti1           12.00    47.86700     Ti( 1.00)
        O1             6.00    15.99900     O ( 1.00)
        N1             5.00    14.00700     N ( 1.00)
        C1             4.00    12.01100     C ( 1.00)
        H1             1.00     1.00800     H ( 1.00)

     No symmetry found

   Cartesian axes

     site n.     atom                  positions (alat units)
         1           Ti1 tau(   1) = (   0.0004258   2.9801865   6.0000000  )
         2           Ti1 tau(   2) = (   3.2906075   1.4906267   6.0002472  )
         3           O1  tau(   3) = (   0.0006271   0.0005054   7.9858123  )
         4           O1  tau(   4) = (   3.2906025   0.0005020   7.3038282  )
         5           O1  tau(   5) = (   4.5942328   1.4918067   9.2879030  )
         6           O1  tau(   6) = (   1.9868534   1.4903216   9.2879459  )
         7           Ti1 tau(   7) = (   3.2907910   2.8959150   9.1758416  )
         8           Ti1 tau(   8) = (   0.0015273   1.4827037   9.2680791  )
         9           O1  tau(   9) = (   3.3106937   0.0084137  11.2927479  )
        10           O1  tau(  10) = (   0.0116148   5.9584955  10.6183126  )
        11           O1  tau(  11) = (   1.3255326   1.5151957  12.5859258  )
        12           O1  tau(  12) = (   5.3246634   1.4871208  12.6441624  )
        13           Ti1 tau(  13) = (   6.5358624   2.9940264  12.7507449  )
        14           Ti1 tau(  14) = (   3.1828407   1.5032771  12.4528579  )
        15           O1  tau(  15) = (   0.1336207   0.0073438  14.6266748  )
        16           O1  tau(  16) = (   3.2550344   0.0288700  13.8306396  )
        17           O1  tau(  17) = (   4.6334483   1.5013943  15.9792279  )
        18           O1  tau(  18) = (   2.1409664   1.5470880  15.9954950  )
        19           Ti1 tau(  19) = (   3.4798582   3.0305884  15.6593850  )
        20           Ti1 tau(  20) = (   0.1386493   1.3724552  15.8613965  )
        21           O1  tau(  21) = (   3.2904802   0.0005063   4.7018136  )
        22           O1  tau(  22) = (   0.1429122   0.0333940  17.1908172  )
        23           O1  tau(  23) = (   1.3043587   1.4918075   6.0039043  )
        24           O1  tau(  24) = (   5.2767064   1.4903225   6.0039473  )
        25           Ti1 tau(  25) = (   0.0000382   5.9609847   6.0000000  )
        26           Ti1 tau(  26) = (   3.2902200   4.4714249   6.0002472  )
        27           O1  tau(  27) = (   0.0002396   2.9813036   7.9858123  )
        28           O1  tau(  28) = (   3.2902150   2.9813002   7.3038282  )
        29           O1  tau(  29) = (   4.5938453   4.4726049   9.2879030  )
        30           O1  tau(  30) = (   1.9864658   4.4711199   9.2879459  )
        31           Ti1 tau(  31) = (   3.2891106   5.8743827   9.1763621  )
        32           Ti1 tau(  32) = (   0.0006254   4.4649316   9.2693709  )
        33           O1  tau(  33) = (   3.3137399   2.9960163  11.2943833  )
        34           O1  tau(  34) = (   0.0092240   2.9805883  10.6323155  )
        35           O1  tau(  35) = (   1.3234708   4.4688006  12.5930975  )
        36           O1  tau(  36) = (   5.3222282   4.4932535  12.6449723  )
        37           Ti1 tau(  37) = (   6.5041614   0.0053836  12.5833808  )
        38           Ti1 tau(  38) = (   3.1843229   4.4812189  12.4522442  )
        39           O1  tau(  39) = (   0.0584892   2.9792810  14.6723703  )
        40           O1  tau(  40) = (   3.3232524   2.9928384  13.8523860  )
        41           O1  tau(  41) = (   4.6237859   4.5837569  15.7472905  )
        42           O1  tau(  42) = (   2.1882403   4.4693611  16.1038286  )
        43           Ti1 tau(  43) = (   3.3015484   0.0242660  15.6383815  )
        44           Ti1 tau(  44) = (   0.0181797   4.4930750  16.1931172  )
        45           O1  tau(  45) = (   3.2900926   2.9813045   4.7018136  )
        46           O1  tau(  46) = (   1.3039711   4.4726057   6.0039043  )
        47           O1  tau(  47) = (   5.2763189   4.4711207   6.0039473  )
        48           N1  tau(  48) = (   0.2577213   2.8760844  17.5655548  )
        49           C1  tau(  49) = (   1.2271684   2.7639891  18.6598760  )
        50           H1  tau(  50) = (   1.2930054   3.7106696  19.2072709  )
        51           H1  tau(  51) = (   0.8976878   1.9730418  19.3402421  )
        52           H1  tau(  52) = (   2.2102292   2.4972526  18.2850250  )
        53           N1  tau(  53) = (   5.6732178   3.4927010  17.8452151  )
        54           H1  tau(  54) = (   5.7345573   4.0058295  18.7343860  )

     number of k points=    10  Fermi-Dirac smearing, width (Ry)=  0.0073
                       cart. coord. in units 2pi/alat
        k(    1) = (   0.0000000   0.0000000   0.0000000), wk =   0.1250000
        k(    2) = (   0.0000000   0.0419351   0.0000000), wk =   0.2500000
        k(    3) = (   0.0000000  -0.0838702   0.0000000), wk =   0.1250000
        k(    4) = (   0.0379955   0.0000049   0.0000000), wk =   0.2500000
        k(    5) = (   0.0379955   0.0419400   0.0000000), wk =   0.2500000
        k(    6) = (   0.0379955  -0.0838652   0.0000000), wk =   0.2500000
        k(    7) = (   0.0379955  -0.0419301   0.0000000), wk =   0.2500000
        k(    8) = (  -0.0759910  -0.0000099   0.0000000), wk =   0.1250000
        k(    9) = (  -0.0759910   0.0419252   0.0000000), wk =   0.2500000
        k(   10) = (  -0.0759910  -0.0838800   0.0000000), wk =   0.1250000

     Initial potential from superposition of free atoms

     starting charge  379.99915, renormalised to  396.00000

     negative rho (up, down):  1.687E-02 0.000E+00

     %%%%%%%%%%%%%%%%%%%%%%%%%%%%%%%%%%%%%%%%%%%%%%%%%%%%%%%%%%%%%%%%%%%%%%%%
     %                                                                      %
     % You are using vdW-DF, which was implemented by the Thonhauser group. %
     % Please cite the following two papers that made this development      %
     % possible and the two reviews that describe the various versions:     %
     %                                                                      %
     %   T. Thonhauser et al., PRL 115, 136402 (2015).                      %
     %   T. Thonhauser et al., PRB 76, 125112 (2007).                       %
     %   K. Berland et al., Rep. Prog. Phys. 78, 066501 (2015).             %
     %   D.C. Langreth et al., J. Phys.: Condens. Matter 21, 084203 (2009). %
     %                                                                      %
     %                                                                      %
     % If you are calculating the stress with vdW-DF, please also cite:     %
     %                                                                      %
     %   R. Sabatini et al., J. Phys.: Condens. Matter 24, 424209 (2012).   %
     %                                                                      %
     %%%%%%%%%%%%%%%%%%%%%%%%%%%%%%%%%%%%%%%%%%%%%%%%%%%%%%%%%%%%%%%%%%%%%%%%

     Adding external electric field

     Computed dipole along edir(3) :
        Dipole               -8.2222 Ry au,        -20.8988 Debye
        Dipole field         -0.0155 Ry au,

        Potential amp.        1.4384 Ry
        Total length         46.3494 bohr

     Starting wfcs are  300 atomic wfcs
  @ DRIVER MODE: Message from server: STATUS
  @ DRIVER MODE: Message from server: POSDATA
  @ DRIVER MODE: Reading and sharing cell
  @ DRIVER MODE: Reading and sharing positions
  @ DRIVER MODE: Received positions

     Self-consistent Calculation

     iteration #  1     ecut=    29.40 Ry     beta= 0.05
     Davidson diagonalization with overlap
     c_bands:  1 eigenvalues not converged
     c_bands:  1 eigenvalues not converged
     c_bands:  1 eigenvalues not converged
     c_bands:  1 eigenvalues not converged
     c_bands:  4 eigenvalues not converged
     c_bands:  1 eigenvalues not converged
     c_bands:  4 eigenvalues not converged
     c_bands:  1 eigenvalues not converged
     c_bands:  1 eigenvalues not converged
     ethr =  1.00E-05,  avg # of iterations = 19.9

[...]

     total energy              =   -2607.32425425 Ry
     estimated scf accuracy    <    3677.94161468 Ry

     iteration #  2     ecut=    29.40 Ry     beta= 0.05
     Davidson diagonalization with overlap
     ethr =  1.00E-02,  avg # of iterations = 22.3

[...]

     iteration # 68     ecut=    29.40 Ry     beta= 0.05
     Davidson diagonalization with overlap
     c_bands:  1 eigenvalues not converged
     c_bands:  2 eigenvalues not converged
     c_bands:  1 eigenvalues not converged
     ethr =  5.84E-07,  avg # of iterations = 15.2

[...]

     total energy              =   -2940.35209279 Ry
     estimated scf accuracy    <       0.00000008 Ry

     iteration # 90     ecut=    29.40 Ry     beta= 0.05
     Davidson diagonalization with overlap
     ethr =  2.00E-11,  avg # of iterations =  7.8

     negative rho (up, down):  1.745E-02 0.000E+00

     Adding external electric field

     Computed dipole along edir(3) :
        Dipole                0.7494 Ry au,          1.9048 Debye
        Dipole field          0.0014 Ry au,

        Potential amp.       -0.1311 Ry
        Total length         46.3494 bohr

     End of self-consistent calculation

          k = 0.0000 0.0000 0.0000 ( 18029 PWs)   bands (ev):

   -56.0124 -55.9784 -55.7974 -55.7585 -55.7152 -55.6807 -55.6565 -55.6298
   -55.6223 -55.5951 -55.5734 -55.4947 -55.2376 -54.9093 -54.8753 -54.7860
   -32.4793 -32.3396 -32.3066 -32.2832 -32.1820 -32.1673 -32.1593 -32.1194
   -32.1021 -32.0926 -32.0734 -32.0383 -32.0196 -31.9756 -31.9664 -31.9659
   -31.9321 -31.9242 -31.9172 -31.8865 -31.8800 -31.8635 -31.8542 -31.8539
   -31.8305 -31.8301 -31.8197 -31.8176 -31.8096 -31.7996 -31.7878 -31.7840
   -31.7692 -31.7426 -31.6908 -31.6618 -31.6152 -31.4648 -31.4614 -31.3128
   -31.2335 -31.2106 -31.2045 -31.1303 -31.0443 -30.9922 -30.9328 -30.9096
   -17.4069 -16.5524 -16.3600 -16.0702 -15.9206 -15.9074 -15.7831 -15.6835
   -15.6043 -15.5042 -15.4549 -15.3971 -15.3845 -15.3623 -15.3044 -15.2792
   -15.2404 -15.2206 -15.1819 -15.1702 -15.1287 -15.0981 -15.0794 -15.0515
   -14.9800 -14.9110 -14.8950 -14.7473 -14.6007 -14.4532 -13.4106 -13.2957
   -11.5391  -8.3646  -5.0513  -4.0230  -3.9384  -3.8671  -3.8534  -3.7669
    -3.6851  -3.4353  -3.4163  -3.3535  -3.0620  -3.0161  -2.9921  -2.9874
    -2.8906  -2.7484  -2.7182  -2.6589  -2.6538  -2.6315  -2.6151  -2.5961
    -2.5402  -2.4903  -2.4708  -2.4275  -2.2879  -2.2688  -2.2611  -2.2390
    -2.1696  -2.1598  -2.0962  -2.0760  -2.0544  -2.0341  -2.0000  -1.8692
    -1.8359  -1.7713  -1.6932  -1.5979  -1.5173  -1.4865  -1.4069  -1.3766
    -1.3694  -1.2627  -1.2513  -1.1759  -1.1380  -1.0735  -1.0425  -1.0019
    -0.8905  -0.8681  -0.8101  -0.7513  -0.7028  -0.6922  -0.6482  -0.6235
    -0.6219  -0.6088  -0.5936  -0.4030  -0.3670  -0.2262  -0.1794  -0.1560
    -0.1145  -0.0946  -0.0348  -0.0077  -0.0053   0.0378   0.0560   0.0978
     0.1517   0.1656   0.1932   0.2834   0.3150   0.3723   0.4990   0.5143
     0.5999   0.6700   0.7706   0.7897   0.8402   0.9689   1.0689   1.0876
     1.1128   1.3181   1.4200   1.6769   1.7194   3.0361   3.1807   3.2757
     3.3840   3.5041   3.5770   3.6185   3.7901   3.8241   3.8676   3.9388

[...]

          k = 0.0380-0.0419 0.0000 ( 17876 PWs)   bands (ev):

[...]

          k =-0.0760-0.0000 0.0000 ( 17886 PWs)   bands (ev):

[...]

          k =-0.0760-0.0839 0.0000 ( 17948 PWs)   bands (ev):

   -55.9964 -55.9943 -55.7852 -55.7704 -55.7015 -55.6940 -55.6408 -55.6378
   -55.6165 -55.6085 -55.5695 -55.4985 -55.2370 -54.8924 -54.8922 -54.7865
   -32.2957 -32.2947 -32.2924 -32.2906 -32.1471 -32.1349 -32.1193 -32.1171
   -32.0438 -32.0310 -32.0203 -32.0139 -32.0083 -32.0055 -31.9612 -31.9557
   -31.9487 -31.9367 -31.9101 -31.8929 -31.8807 -31.8766 -31.8744 -31.8727
   -31.8710 -31.8647 -31.8464 -31.8448 -31.8381 -31.8312 -31.8261 -31.8095
   -31.7959 -31.7877 -31.7628 -31.7050 -31.6035 -31.4672 -31.4610 -31.2546
   -31.2234 -31.2233 -31.1262 -31.1259 -31.0874 -31.0873 -31.0042 -30.9138
   -17.3894 -15.9706 -15.9419 -15.8311 -15.8115 -15.7255 -15.7119 -15.5963
   -15.5889 -15.5767 -15.5104 -15.4630 -15.4527 -15.3752 -15.3459 -15.3350
   -15.3082 -15.2983 -15.2920 -15.2818 -15.2742 -15.1889 -15.1873 -15.1822
   -15.1126 -15.0845 -14.9026 -14.8587 -14.6647 -14.6106 -13.3981 -13.3978
   -11.5426  -8.3447  -5.0575  -3.9260  -3.8466  -3.2728  -3.2365  -3.0177
    -2.9937  -2.9731  -2.9415  -2.7581  -2.7447  -2.7370  -2.7208  -2.7082
    -2.6714  -2.6527  -2.6406  -2.5743  -2.5657  -2.5421  -2.5367  -2.5287
    -2.5094  -2.4941  -2.4871  -2.4666  -2.4562  -2.4123  -2.3577  -2.3333
    -2.2850  -2.1908  -2.0873  -2.0360  -2.0200  -2.0126  -1.9901  -1.9808
    -1.9432  -1.9300  -1.8434  -1.6691  -1.6198  -1.5554  -1.5483  -1.5434
    -1.4849  -1.4244  -1.4016  -1.3154  -1.2449  -1.1877  -1.1594  -1.1317
    -1.1014  -1.0325  -0.9671  -0.9480  -0.9357  -0.9029  -0.8972  -0.8840
    -0.8060  -0.7258  -0.6819  -0.6499  -0.6264  -0.6110  -0.5954  -0.5746
    -0.4748  -0.3979  -0.3505  -0.3054  -0.2655  -0.2220  -0.1041  -0.0883
     0.0968   0.1726   0.2005   0.2751   0.3715   0.4004   0.4122   0.4714
     0.5470   0.6095   0.6431   0.6996   0.7176   0.7370   0.8048   1.0192
     1.0764   1.4868   1.4884   1.5376   1.5385   2.9997   3.6788   3.6874
     3.6909   3.7016   3.7207   3.7432   3.7947   3.8292   3.9341   3.9546

     the Fermi energy is     3.1453 ev

!    total energy              =   -2940.35209826 Ry
     estimated scf accuracy    <       0.00000007 Ry
     smearing contrib. (-TS)   =      -0.01876432 Ry
     internal energy E=F+TS    =   -2940.33333394 Ry

     The total energy is F=E-TS. E is the sum of the following terms:
     one-electron contribution =  -24661.87868090 Ry
     hartree contribution      =   12420.12128146 Ry
     xc contribution           =    -486.05527887 Ry
     ewald contribution        =    9787.47828453 Ry
     electric field correction =       0.00105984 Ry

     convergence has been achieved in  90 iterations

     Forces acting on atoms (cartesian axes, Ry/au):

     atom    1 type  1   force =     0.00026821   -0.00035917    0.10146409
     atom    2 type  1   force =     0.00003126   -0.00087347   -0.17140868
     atom    3 type  2   force =     0.00029304    0.00021760   -0.03319466
     atom    4 type  2   force =     0.00003173   -0.00078974    0.04485588
     atom    5 type  2   force =    -0.01197040   -0.00020986   -0.00229737
     atom    6 type  2   force =     0.01440588    0.00038301   -0.00109832
     atom    7 type  1   force =     0.00139941   -0.00129025   -0.00439775
     atom    8 type  1   force =    -0.00078661    0.02219781    0.05610897
     atom    9 type  2   force =     0.00002090   -0.00032666    0.00058325
     atom   10 type  2   force =    -0.00267021    0.00206923   -0.02577308
     atom   11 type  2   force =     0.00004759    0.00025229   -0.00000949
     atom   12 type  2   force =     0.00008198    0.00074313    0.00007794
     atom   13 type  1   force =    -0.00006318    0.00014276   -0.00006551
     atom   14 type  1   force =     0.00029381    0.00030728   -0.00024788
     atom   15 type  2   force =     0.00013263   -0.00028505    0.00025749
     atom   16 type  2   force =    -0.00001696   -0.00014008    0.00111251
     atom   17 type  2   force =    -0.00014262   -0.00073548    0.00018447
     atom   18 type  2   force =     0.00024395   -0.00053352    0.00060540
     atom   19 type  1   force =    -0.00014668   -0.00045441   -0.00023847
     atom   20 type  1   force =    -0.00002190    0.00014401   -0.00098286
     atom   21 type  2   force =     0.00006693   -0.00001196    0.10210722
     atom   22 type  2   force =     0.00011539   -0.00050894    0.00075883
     atom   23 type  2   force =    -0.07328233   -0.00016328   -0.02885871
     atom   24 type  2   force =     0.07323805    0.00032882   -0.02890829
     atom   25 type  1   force =    -0.00028299   -0.00032482    0.10190214
     atom   26 type  1   force =     0.00002177   -0.00017179   -0.17141088
     atom   27 type  2   force =     0.00036352   -0.00023058   -0.03192252
     atom   28 type  2   force =     0.00009192   -0.00057381    0.04546833
     atom   29 type  2   force =    -0.01212083    0.00213195   -0.00285193
     atom   30 type  2   force =     0.01443362    0.00229342   -0.00159496
     atom   31 type  1   force =     0.00160454    0.00093804   -0.00572820
     atom   32 type  1   force =    -0.00058998   -0.02474946    0.05715745
     atom   33 type  2   force =     0.00014223    0.00036235    0.00074294
     atom   34 type  2   force =    -0.00420826    0.00212136   -0.04817868
     atom   35 type  2   force =     0.00062452   -0.00058343    0.00006667
     atom   36 type  2   force =    -0.00041860   -0.00077632    0.00017952
     atom   37 type  1   force =     0.00006304    0.00061598   -0.00034495
     atom   38 type  1   force =     0.00005585   -0.00015557   -0.00034903
     atom   39 type  2   force =     0.00023484   -0.00006925   -0.00047287
     atom   40 type  2   force =    -0.00005421   -0.00003556   -0.00004141
     atom   41 type  2   force =     0.00011977    0.00044394    0.00007207
     atom   42 type  2   force =    -0.00021034    0.00016593    0.00101980
     atom   43 type  1   force =    -0.00017751   -0.00014537   -0.00019783
     atom   44 type  1   force =    -0.00046306    0.00099901   -0.00145065
     atom   45 type  2   force =     0.00004774   -0.00005119    0.10215254
     atom   46 type  2   force =    -0.07329531   -0.00008920   -0.02883483
     atom   47 type  2   force =     0.07324872    0.00028432   -0.02887272
     atom   48 type  3   force =     0.01435639   -0.00501758    0.00241079
     atom   49 type  4   force =    -0.00415383   -0.00047047   -0.00216135
     atom   50 type  5   force =    -0.00038507   -0.00018795   -0.00054245
     atom   51 type  5   force =    -0.00047440   -0.00033285    0.00039545
     atom   52 type  5   force =    -0.00101542   -0.00035705   -0.00074628
     atom   53 type  3   force =    -0.00866537    0.00400560    0.00374812
     atom   54 type  5   force =    -0.00046316   -0.00014371   -0.00024930

     Total force =     0.378187     Total SCF correction =     0.000733
  @ DRIVER MODE: Message from server: STATUS
  @ DRIVER MODE: Message from server: GETFORCE
  @ DRIVER MODE: Returning v,forces,stress,ensemble

     Writing output data file ./calc.save/
  @ DRIVER MODE: Message from server: EXIT
  @ DRIVE MODE: Exiting

     General routines

     Parallel routines

   This run was terminated on:  12:36:37   2Aug2021

   JOB DONE.