     Program PWSCF v.6.7GPU starts on 16Sep2021 at  4:30:22

     R & G space division:  proc/nbgrp/npool/nimage =      10
     Reading input from /storage/home/hcoda1/3/ntian30/research/carbon/CxH_vib/H2O_calc/ads_slab/CHN2HH2O_a/out_0042/pw.inp
Warning: card &CELL ignored
Warning: card   CELL_DYNAMICS='IPI', ignored
Warning: card / ignored

     Current dimensions of program PWSCF are:
     Max number of different atomic species (ntypx) = 10
     Max number of k-points (npk) =  40000
     Max angular momentum in pseudopotentials (lmaxx) =  3
     Presently no symmetry can be used with electric field

     Message from routine cell_base_init:
     DEPRECATED: use true lattice parameter, not A to a.u. conversion factor

     IMPORTANT: XC functional enforced from input :
     Exchange-correlation= BEEF-VDW
                           (   1   4  43  14   2   0   0)
     Any further DFT definition will be discarded
     Please, verify this is what you really want

  @ DRIVER MODE: Connecting to
 qe_1139763_2852626.sched-torque.pace.gatech.edug7zzsbt8_scratch
  using UNIX socket
  @ DRIVER MODE: Message from server: STATUS
  @ DRIVER MODE: Message from server: INIT
  @ DRIVER MODE: Receiving replica           0          -1
  @ DRIVER MODE: Receiving encoded integer          25
  @ DRIVER MODE:  SCF:  T  FORCE:  T  STRESS:  F  VC:  F  ENSEMBLE:  F
  @ DRIVER MODE:  SCF:  T  FORCE:  T  STRESS:  F  VC:  F  ENSEMBLE:  F

     Using Slab Decomposition

     bravais-lattice index     =            0
     lattice parameter (alat)  =       1.8897  a.u.
     unit-cell volume          =    6658.9804 (a.u.)^3
     number of atoms/cell      =           55
     number of atomic types    =            5
     number of electrons       =       402.00
     number of Kohn-Sham states=          211
     kinetic-energy cutoff     =      29.3995  Ry
     charge density cutoff     =     293.9946  Ry
     scf convergence threshold =      7.3E-08
     mixing beta               =       0.0500
     number of iterations used =            8  plain     mixing
     Exchange-correlation= BEEF-VDW
                           (   1   4  43  14   2   0   0)

     celldm(1)=   1.889726  celldm(2)=   0.000000  celldm(3)=   0.000000
     celldm(4)=   0.000000  celldm(5)=   0.000000  celldm(6)=   0.000000

     crystal axes: (cart. coord. in units of alat)
               a(1) = (   6.579727   0.000000   0.000000 )
               a(2) = (  -0.000775   5.961596   0.000000 )
               a(3) = (   0.000000   0.000000  25.155947 )

     reciprocal axes: (cart. coord. in units 2 pi/alat)
               b(1) = (  0.151982  0.000020  0.000000 )
               b(2) = (  0.000000  0.167740  0.000000 )
               b(3) = (  0.000000  0.000000  0.039752 )

     PseudoPot. # 1 for Ti read from file:
     /storage/coda1/p-amedford6/0/shared/rich_project_chbe-medford/medford-share/data/pseudos_module/espresso/nninc/pbe/van/Ti.UPF
     MD5 check sum: 8e4df49b7f0d34bbd5052bf3f5ea0213
     Pseudo is Ultrasoft, Zval = 12.0
     Generated by new atomic code, or converted to UPF format
     Using radial grid of  851 points,  6 beta functions with:
                l(1) =   0
                l(2) =   0
                l(3) =   1
                l(4) =   1
                l(5) =   2
                l(6) =   2
     Q(r) pseudized with  8 coefficients,  rinner =    1.000   1.000   1.000
                                                       1.000   1.000

     PseudoPot. # 2 for O  read from file:
     /storage/coda1/p-amedford6/0/shared/rich_project_chbe-medford/medford-share/data/pseudos_module/espresso/nninc/pbe/van/O.UPF
     MD5 check sum: 78c19812648e8988a0fe644b0f25305e
     Pseudo is Ultrasoft, Zval =  6.0
     Generated by new atomic code, or converted to UPF format
     Using radial grid of  737 points,  4 beta functions with:
                l(1) =   0
                l(2) =   0
                l(3) =   1
                l(4) =   1
     Q(r) pseudized with  8 coefficients,  rinner =    0.800   0.800   0.800

     PseudoPot. # 3 for N  read from file:
     /storage/coda1/p-amedford6/0/shared/rich_project_chbe-medford/medford-share/data/pseudos_module/espresso/nninc/pbe/van/N.UPF
     MD5 check sum: 90d10febe142ad51ac9d5be1deb811c4
     Pseudo is Ultrasoft, Zval =  5.0
     Generated by new atomic code, or converted to UPF format
     Using radial grid of  729 points,  4 beta functions with:
                l(1) =   0
                l(2) =   0
                l(3) =   1
                l(4) =   1
     Q(r) pseudized with  8 coefficients,  rinner =    0.800   0.800   0.800

     PseudoPot. # 4 for C  read from file:
     /storage/coda1/p-amedford6/0/shared/rich_project_chbe-medford/medford-share/data/pseudos_module/espresso/nninc/pbe/van/C.UPF
     MD5 check sum: 1a69bf6b8db32088f5b2163dbdb77a27
     Pseudo is Ultrasoft, Zval =  4.0
     Generated by new atomic code, or converted to UPF format
     Using radial grid of  721 points,  4 beta functions with:
                l(1) =   0
                l(2) =   0
                l(3) =   1
                l(4) =   1
     Q(r) pseudized with  8 coefficients,  rinner =    0.800   0.800   0.800

     PseudoPot. # 5 for H  read from file:
     /storage/coda1/p-amedford6/0/shared/rich_project_chbe-medford/medford-share/data/pseudos_module/espresso/nninc/pbe/van/H.UPF
     MD5 check sum: b5ee9d7bfd3a09ee7748110bda690ff7
     Pseudo is Ultrasoft, Zval =  1.0
     Generated by new atomic code, or converted to UPF format
     Using radial grid of  615 points,  1 beta functions with:
                l(1) =   0
     Q(r) pseudized with  8 coefficients,  rinner =    0.800

     atomic species   valence    mass     pseudopotential
        Ti1           12.00    47.86700     Ti( 1.00)
        O1             6.00    15.99900     O ( 1.00)
        N1             5.00    14.00700     N ( 1.00)
        C1             4.00    12.01100     C ( 1.00)
        H1             1.00     1.00800     H ( 1.00)

     No symmetry found

   Cartesian axes

     site n.     atom                  positions (alat units)
         1           Ti1 tau(   1) = (   0.0004258   2.9801865   6.0000000  )
         2           Ti1 tau(   2) = (   3.2906075   1.4906267   6.0002472  )
         3           O1  tau(   3) = (   0.0006271   0.0005054   7.9858123  )
         4           O1  tau(   4) = (   3.2906025   0.0005020   7.3038282  )
         5           O1  tau(   5) = (   4.5942328   1.4918067   9.2879030  )
         6           O1  tau(   6) = (   1.9868534   1.4903216   9.2879459  )
         7           Ti1 tau(   7) = (   3.2907910   2.8959150   9.1758416  )
         8           Ti1 tau(   8) = (   0.0015273   1.4827037   9.2680791  )
         9           O1  tau(   9) = (   3.2768631   0.0039008  11.3091060  )
        10           O1  tau(  10) = (   0.0116148   5.9584955  10.6183126  )
        11           O1  tau(  11) = (   1.2710838   1.4709840  12.6395574  )
        12           O1  tau(  12) = (   5.2772223   1.5075092  12.6020671  )
        13           Ti1 tau(  13) = (   0.0276258   2.9086511  12.7028215  )
        14           Ti1 tau(  14) = (   3.3492493   1.4375301  12.4845766  )
        15           O1  tau(  15) = (   6.5006329   5.9509897  14.6081112  )
        16           O1  tau(  16) = (   3.3450391   0.0041935  13.9069437  )
        17           O1  tau(  17) = (   4.5555219   1.5659029  16.0522165  )
        18           O1  tau(  18) = (   1.9836904   1.4119734  15.8927236  )
        19           Ti1 tau(  19) = (   3.2827818   2.9316656  15.8555152  )
        20           Ti1 tau(  20) = (   6.5629331   1.3437128  15.9803530  )
        21           O1  tau(  21) = (   3.2904802   0.0005063   4.7018136  )
        22           O1  tau(  22) = (   6.5074089   5.9525318  17.1494500  )
        23           O1  tau(  23) = (   1.3043587   1.4918075   6.0039043  )
        24           O1  tau(  24) = (   5.2767064   1.4903225   6.0039473  )
        25           Ti1 tau(  25) = (   0.0000382   5.9609847   6.0000000  )
        26           Ti1 tau(  26) = (   3.2902200   4.4714249   6.0002472  )
        27           O1  tau(  27) = (   0.0002396   2.9813036   7.9858123  )
        28           O1  tau(  28) = (   3.2902150   2.9813002   7.3038282  )
        29           O1  tau(  29) = (   4.5938453   4.4726049   9.2879030  )
        30           O1  tau(  30) = (   1.9864658   4.4711199   9.2879459  )
        31           Ti1 tau(  31) = (   3.2891106   5.8743827   9.1763621  )
        32           Ti1 tau(  32) = (   0.0006254   4.4649316   9.2693709  )
        33           O1  tau(  33) = (   3.2854303   2.9668816  11.2996989  )
        34           O1  tau(  34) = (   0.0092240   2.9805883  10.6323155  )
        35           O1  tau(  35) = (   1.2743094   4.4851408  12.6236879  )
        36           O1  tau(  36) = (   5.2782958   4.4707264  12.5946799  )
        37           Ti1 tau(  37) = (   0.0481499   5.8920156  12.5607908  )
        38           Ti1 tau(  38) = (   3.3544845   4.3749597  12.5572158  )
        39           O1  tau(  39) = (   6.5410016   3.0017514  14.6365314  )
        40           O1  tau(  40) = (   3.2441134   3.0029108  13.8718978  )
        41           O1  tau(  41) = (   4.5385932   4.4028810  16.0550583  )
        42           O1  tau(  42) = (   1.9619458   4.5383001  15.8611175  )
        43           Ti1 tau(  43) = (   3.2178196   5.9097812  15.7399460  )
        44           Ti1 tau(  44) = (   6.5330930   4.4908980  15.8705378  )
        45           O1  tau(  45) = (   3.2900926   2.9813045   4.7018136  )
        46           O1  tau(  46) = (   1.3039711   4.4726057   6.0039043  )
        47           O1  tau(  47) = (   5.2763189   4.4711207   6.0039473  )
        48           N1  tau(  48) = (   1.2867840   3.0293760  18.3347772  )
        49           C1  tau(  49) = (   2.5003166   3.0326976  17.9707196  )
        50           H1  tau(  50) = (   3.2053588   3.1791635  18.8000936  )
        51           N1  tau(  51) = (   0.2138509   2.9871109  17.4421441  )
        52           H1  tau(  52) = (   5.9621615   2.9869774  18.0311354  )
        53           O1  tau(  53) = (   3.4290693   5.9360351  18.0748810  )
        54           H1  tau(  54) = (   4.3780305   0.1327944  18.2406609  )
        55           H1  tau(  55) = (   2.9458904   0.7245148  18.4607207  )

     number of k points=    10  Fermi-Dirac smearing, width (Ry)=  0.0073
                       cart. coord. in units 2pi/alat
        k(    1) = (   0.0000000   0.0000000   0.0000000), wk =   0.1250000
        k(    2) = (   0.0000000   0.0419351   0.0000000), wk =   0.2500000
        k(    3) = (   0.0000000  -0.0838702   0.0000000), wk =   0.1250000
        k(    4) = (   0.0379955   0.0000049   0.0000000), wk =   0.2500000
        k(    5) = (   0.0379955   0.0419400   0.0000000), wk =   0.2500000
        k(    6) = (   0.0379955  -0.0838652   0.0000000), wk =   0.2500000
        k(    7) = (   0.0379955  -0.0419301   0.0000000), wk =   0.2500000
        k(    8) = (  -0.0759910  -0.0000099   0.0000000), wk =   0.1250000
        k(    9) = (  -0.0759910   0.0419252   0.0000000), wk =   0.2500000
        k(   10) = (  -0.0759910  -0.0838800   0.0000000), wk =   0.1250000

     Initial potential from superposition of free atoms

     starting charge  385.99915, renormalised to  402.00000

     negative rho (up, down):  1.830E-02 0.000E+00

     %%%%%%%%%%%%%%%%%%%%%%%%%%%%%%%%%%%%%%%%%%%%%%%%%%%%%%%%%%%%%%%%%%%%%%%%
     %                                                                      %
     % You are using vdW-DF, which was implemented by the Thonhauser group. %
     % Please cite the following two papers that made this development      %
     % possible and the two reviews that describe the various versions:     %
     %                                                                      %
     %   T. Thonhauser et al., PRL 115, 136402 (2015).                      %
     %   T. Thonhauser et al., PRB 76, 125112 (2007).                       %
     %   K. Berland et al., Rep. Prog. Phys. 78, 066501 (2015).             %
     %   D.C. Langreth et al., J. Phys.: Condens. Matter 21, 084203 (2009). %
     %                                                                      %
     %                                                                      %
     % If you are calculating the stress with vdW-DF, please also cite:     %
     %                                                                      %
     %   R. Sabatini et al., J. Phys.: Condens. Matter 24, 424209 (2012).   %
     %                                                                      %
     %%%%%%%%%%%%%%%%%%%%%%%%%%%%%%%%%%%%%%%%%%%%%%%%%%%%%%%%%%%%%%%%%%%%%%%%

     Adding external electric field

     Computed dipole along edir(3) :
        Dipole              -11.0907 Ry au,        -28.1897 Debye
        Dipole field         -0.0209 Ry au,

        Potential amp.        1.9401 Ry
        Total length         46.3494 bohr

     Starting wfcs are  304 atomic wfcs
  @ DRIVER MODE: Message from server: STATUS
  @ DRIVER MODE: Message from server: POSDATA
  @ DRIVER MODE: Reading and sharing cell
  @ DRIVER MODE: Reading and sharing positions
  @ DRIVER MODE: Received positions

     Self-consistent Calculation

     iteration #  1     ecut=    29.40 Ry     beta= 0.05
     Davidson diagonalization with overlap
     c_bands:  5 eigenvalues not converged
     c_bands:  1 eigenvalues not converged
     c_bands:  3 eigenvalues not converged
     c_bands:  4 eigenvalues not converged
     c_bands:  1 eigenvalues not converged
     c_bands:  1 eigenvalues not converged
     c_bands:  1 eigenvalues not converged
     c_bands:  1 eigenvalues not converged
     ethr =  1.00E-05,  avg # of iterations = 28.9

[...]

     total energy              =   -2403.82427856 Ry
     estimated scf accuracy    <    6374.30608273 Ry

     iteration #  2     ecut=    29.40 Ry     beta= 0.05
     Davidson diagonalization with overlap
     ethr =  1.00E-02,  avg # of iterations = 25.8

[...]

     iteration # 50     ecut=    29.40 Ry     beta= 0.05
     Davidson diagonalization with overlap
     c_bands:  1 eigenvalues not converged
     ethr =  7.55E-07,  avg # of iterations = 11.0

[...]

     total energy              =   -2972.69116291 Ry
     estimated scf accuracy    <       0.00000013 Ry

     iteration # 73     ecut=    29.40 Ry     beta= 0.05
     Davidson diagonalization with overlap
     ethr =  2.23E-11,  avg # of iterations =  6.1

     negative rho (up, down):  1.793E-02 0.000E+00

     Adding external electric field

     Computed dipole along edir(3) :
        Dipole                0.3653 Ry au,          0.9284 Debye
        Dipole field          0.0007 Ry au,

        Potential amp.       -0.0639 Ry
        Total length         46.3494 bohr

     End of self-consistent calculation

          k = 0.0000 0.0000 0.0000 ( 18029 PWs)   bands (ev):

   -56.3413 -56.3074 -55.9391 -55.9053 -55.7507 -55.7142 -55.5591 -55.5542
   -55.5461 -55.5226 -55.5127 -55.4495 -55.2509 -55.2374 -55.1447 -55.1107
   -32.7947 -32.6338 -32.6069 -32.4994 -32.4186 -32.4142 -32.4065 -32.2396
   -32.1566 -32.1523 -32.0938 -32.0811 -32.0669 -32.0422 -32.0366 -31.9764
   -31.9735 -31.9651 -31.9318 -31.9080 -31.9071 -31.8646 -31.8499 -31.8414
   -31.8163 -31.7788 -31.7578 -31.7306 -31.7275 -31.7084 -31.7066 -31.7036
   -31.6877 -31.6684 -31.6515 -31.6371 -31.5488 -31.5433 -31.5101 -31.4960
   -31.4753 -31.4676 -31.4519 -31.4386 -31.3614 -31.3310 -31.2765 -31.1649
   -18.7407 -16.9383 -16.6580 -16.3459 -16.1438 -15.9608 -15.8969 -15.8388
   -15.7863 -15.6655 -15.6033 -15.5751 -15.5030 -15.3980 -15.3787 -15.3511
   -15.3003 -15.2828 -15.2660 -15.2365 -15.1832 -15.1482 -15.1312 -15.0557
   -15.0342 -15.0226 -14.8971 -14.8303 -14.8063 -14.7711 -14.5179 -13.6436
   -13.5306 -12.2804  -6.7277  -6.5089  -4.1598  -4.0791  -3.9046  -3.7717
    -3.6653  -3.6170  -3.4626  -3.4128  -3.3636  -3.2718  -3.1185  -3.0865
    -3.0139  -2.9635  -2.9213  -2.8623  -2.8030  -2.7581  -2.7164  -2.6338
    -2.6279  -2.6164  -2.5977  -2.5793  -2.5618  -2.4460  -2.3540  -2.3361
    -2.3133  -2.2702  -2.2511  -2.2386  -2.1885  -2.1593  -2.0756  -2.0663
    -2.0193  -1.9610  -1.9137  -1.8064  -1.7941  -1.7192  -1.7012  -1.6596
    -1.5276  -1.4039  -1.3733  -1.3206  -1.3065  -1.2230  -1.2030  -1.1748
    -1.0774  -1.0652  -1.0212  -0.9992  -0.8751  -0.8494  -0.8015  -0.7936
    -0.7647  -0.6665  -0.6296  -0.5184  -0.4738  -0.4288  -0.4191  -0.3446
    -0.3161  -0.2718  -0.2213  -0.1683  -0.1665  -0.1382  -0.0555  -0.0140
     0.0319   0.0806   0.1162   0.2041   0.2577   0.2942   0.3094   0.3974
     0.4400   0.4554   0.5206   0.5892   0.6407   0.7072   0.7505   0.8646
     0.8788   0.8961   0.9789   1.1010   1.4108   1.4319   1.4723   1.6612
     2.6495   2.8821   3.0029   3.1672   3.3122   3.3620   3.6322   3.6867
     3.7294   3.7624   3.8374

[...]

          k = 0.0380-0.0419 0.0000 ( 17876 PWs)   bands (ev):

[...]

          k =-0.0760-0.0000 0.0000 ( 17886 PWs)   bands (ev):

[...]

          k =-0.0760-0.0839 0.0000 ( 17948 PWs)   bands (ev):

   -56.3248 -56.3237 -55.9239 -55.9203 -55.7393 -55.7256 -55.5538 -55.5434
   -55.5367 -55.5316 -55.5279 -55.4480 -55.2521 -55.2384 -55.1276 -55.1276
   -32.6199 -32.6187 -32.6109 -32.6103 -32.4517 -32.4504 -32.2396 -32.2355
   -32.1292 -32.1258 -32.1164 -32.1091 -32.0396 -32.0295 -31.9675 -31.9574
   -31.9480 -31.9453 -31.8967 -31.8862 -31.8654 -31.8636 -31.8570 -31.8259
   -31.8108 -31.7798 -31.7730 -31.7567 -31.7541 -31.7458 -31.7446 -31.7294
   -31.7243 -31.7148 -31.7032 -31.6337 -31.6062 -31.5531 -31.5235 -31.5082
   -31.4722 -31.4647 -31.4647 -31.3576 -31.3575 -31.3324 -31.3191 -31.3190
   -18.7383 -16.9169 -16.0625 -16.0501 -15.9323 -15.9273 -15.7487 -15.7303
   -15.6964 -15.6710 -15.6341 -15.5480 -15.4833 -15.4755 -15.4688 -15.4047
   -15.3598 -15.3508 -15.3316 -15.3035 -15.2769 -15.2510 -15.1594 -15.1336
   -15.1297 -15.1000 -15.0186 -15.0061 -14.9457 -14.8090 -14.7359 -13.6337
   -13.6332 -12.3017  -6.7061  -6.4339  -3.9929  -3.8316  -3.2329  -3.1945
    -3.1733  -3.0640  -3.0386  -2.9627  -2.8661  -2.8500  -2.8344  -2.8005
    -2.7757  -2.7673  -2.7513  -2.7063  -2.6590  -2.6372  -2.6213  -2.6128
    -2.6076  -2.5939  -2.5638  -2.5361  -2.4770  -2.4676  -2.4352  -2.4159
    -2.3868  -2.3102  -2.3036  -2.2877  -2.2863  -2.2296  -2.1308  -2.1154
    -2.1066  -2.0635  -1.9987  -1.9289  -1.8406  -1.7986  -1.7323  -1.6767
    -1.6205  -1.5921  -1.5796  -1.4806  -1.4212  -1.4107  -1.3638  -1.3108
    -1.2320  -1.1955  -1.1580  -1.1468  -1.1343  -1.0932  -1.0427  -0.9829
    -0.8678  -0.8437  -0.8336  -0.7708  -0.7665  -0.7563  -0.6465  -0.6154
    -0.5654  -0.5399  -0.5206  -0.4820  -0.4531  -0.3785  -0.2871  -0.2409
    -0.1122  -0.0962  -0.0422   0.0049   0.0169   0.1082   0.1965   0.2205
     0.3595   0.3737   0.4063   0.5394   0.6085   0.6597   0.6771   0.7998
     0.8191   0.8546   1.0215   1.2653   1.2697   1.2886   1.2897   1.6116
     2.6263   3.4212   3.4235   3.4535   3.4556   3.6657   3.6793   3.7572
     3.7952   3.8866   3.9082

     the Fermi energy is     2.8234 ev

!    total energy              =   -2972.69117828 Ry
     estimated scf accuracy    <       0.00000007 Ry
     smearing contrib. (-TS)   =      -0.01344945 Ry
     internal energy E=F+TS    =   -2972.67772883 Ry

     The total energy is F=E-TS. E is the sum of the following terms:
     one-electron contribution =  -24586.24304025 Ry
     hartree contribution      =   12385.16305868 Ry
     xc contribution           =    -493.17289869 Ry
     ewald contribution        =    9721.57489965 Ry
     electric field correction =       0.00025178 Ry

     convergence has been achieved in  73 iterations

     Forces acting on atoms (cartesian axes, Ry/au):

     atom    1 type  1   force =    -0.00000948   -0.00028257    0.10607175
     atom    2 type  1   force =    -0.00022286   -0.00076482   -0.16691477
     atom    3 type  2   force =    -0.00002407   -0.00013720   -0.03889584
     atom    4 type  2   force =    -0.00009932   -0.00037878    0.03647843
     atom    5 type  2   force =    -0.00756174   -0.00012934   -0.00578467
     atom    6 type  2   force =     0.00857494    0.00077962   -0.00747282
     atom    7 type  1   force =    -0.00079452   -0.00146016    0.01973671
     atom    8 type  1   force =     0.00110304    0.01827895    0.06311705
     atom    9 type  2   force =    -0.00008655   -0.00019853    0.00032739
     atom   10 type  2   force =    -0.00265130    0.00203324   -0.04763914
     atom   11 type  2   force =    -0.00023303   -0.00002529    0.00010554
     atom   12 type  2   force =     0.00037068   -0.00014195    0.00006935
     atom   13 type  1   force =     0.00006231   -0.00011109   -0.00039967
     atom   14 type  1   force =    -0.00048476    0.00001309    0.00003384
     atom   15 type  2   force =     0.00027104    0.00008137   -0.00031020
     atom   16 type  2   force =    -0.00013446   -0.00029845    0.00061208
     atom   17 type  2   force =     0.00005108   -0.00014221    0.00031565
     atom   18 type  2   force =     0.00014520    0.00004437   -0.00021616
     atom   19 type  1   force =     0.00015431    0.00003149    0.00124565
     atom   20 type  1   force =     0.00009919    0.00017445    0.00002271
     atom   21 type  2   force =     0.00004811   -0.00001903    0.10088608
     atom   22 type  2   force =     0.00041039    0.00026291    0.00049757
     atom   23 type  2   force =    -0.07581288   -0.00011836   -0.02985877
     atom   24 type  2   force =     0.07570328    0.00033740   -0.02986840
     atom   25 type  1   force =     0.00020195   -0.00055995    0.10643152
     atom   26 type  1   force =    -0.00006745   -0.00026686   -0.16735138
     atom   27 type  2   force =    -0.00006344   -0.00031975   -0.03754840
     atom   28 type  2   force =     0.00007128   -0.00045733    0.03693780
     atom   29 type  2   force =    -0.00853413    0.00126507   -0.00517885
     atom   30 type  2   force =     0.00948796    0.00122692   -0.00689548
     atom   31 type  1   force =    -0.00129541   -0.00008582    0.02606533
     atom   32 type  1   force =     0.00116009   -0.02138006    0.06369332
     atom   33 type  2   force =    -0.00002591    0.00024634   -0.00006517
     atom   34 type  2   force =    -0.00008292    0.00090764   -0.05944478
     atom   35 type  2   force =    -0.00008265    0.00010191   -0.00014543
     atom   36 type  2   force =    -0.00011540    0.00037609   -0.00016622
     atom   37 type  1   force =     0.00002312   -0.00031874    0.00003074
     atom   38 type  1   force =    -0.00042832   -0.00010520   -0.00013456
     atom   39 type  2   force =    -0.00019927    0.00038149    0.00050634
     atom   40 type  2   force =     0.00045373    0.00013647   -0.00042421
     atom   41 type  2   force =    -0.00007308    0.00030218   -0.00011884
     atom   42 type  2   force =     0.00048374    0.00021601    0.00012513
     atom   43 type  1   force =    -0.00010854    0.00005502   -0.00000808
     atom   44 type  1   force =     0.00033410    0.00012763   -0.00033059
     atom   45 type  2   force =     0.00002617   -0.00000205    0.10092003
     atom   46 type  2   force =    -0.07582274   -0.00010647   -0.02981309
     atom   47 type  2   force =     0.07569290    0.00032274   -0.02985160
     atom   48 type  3   force =    -0.00010079    0.00025381    0.00009209
     atom   49 type  4   force =     0.00092992    0.00092389    0.00091861
     atom   50 type  5   force =    -0.00029863   -0.00136073   -0.00024218
     atom   51 type  3   force =     0.00020472    0.00005103   -0.00026329
     atom   52 type  5   force =     0.00000866    0.00028502    0.00023918
     atom   53 type  2   force =     0.00262618    0.00113889    0.00052869
     atom   54 type  5   force =    -0.00304905   -0.00093772   -0.00098017
     atom   55 type  5   force =    -0.00023537   -0.00024660    0.00031417

     Total force =     0.383619     Total SCF correction =     0.000781
  @ DRIVER MODE: Message from server: STATUS
  @ DRIVER MODE: Message from server: GETFORCE
  @ DRIVER MODE: Returning v,forces,stress,ensemble

     Writing output data file ./calc.save/
  @ DRIVER MODE: Message from server: EXIT
  @ DRIVE MODE: Exiting

     General routines

     Parallel routines

   This run was terminated on:   4:48:46  16Sep2021

   JOB DONE.