     Program PWSCF v.6.7GPU starts on 27Sep2021 at 18:49:10

     R & G space division:  proc/nbgrp/npool/nimage =       8
     Reading input from /storage/home/hcoda1/3/ntian30/research/carbon/CxH_vib/H2O_calc/ads_slab/CHOHO_b/out_0008/pw.inp
Warning: card &CELL ignored
Warning: card   CELL_DYNAMICS='IPI', ignored
Warning: card / ignored

     Current dimensions of program PWSCF are:
     Max number of different atomic species (ntypx) = 10
     Max number of k-points (npk) =  40000
     Max angular momentum in pseudopotentials (lmaxx) =  3
     Presently no symmetry can be used with electric field

     Message from routine cell_base_init:
     DEPRECATED: use true lattice parameter, not A to a.u. conversion factor

     IMPORTANT: XC functional enforced from input :
     Exchange-correlation= BEEF-VDW
                           (   1   4  43  14   2   0   0)
     Any further DFT definition will be discarded
     Please, verify this is what you really want

  @ DRIVER MODE: Connecting to
 qe_1139763_3000314.sched-torque.pace.gatech.eduo_9aa03w_scratch
  using UNIX socket
  @ DRIVER MODE: Message from server: STATUS
  @ DRIVER MODE: Message from server: INIT
  @ DRIVER MODE: Receiving replica           0          -1
  @ DRIVER MODE: Receiving encoded integer          25
  @ DRIVER MODE:  SCF:  T  FORCE:  T  STRESS:  F  VC:  F  ENSEMBLE:  F
  @ DRIVER MODE:  SCF:  T  FORCE:  T  STRESS:  F  VC:  F  ENSEMBLE:  F

     Using Slab Decomposition

     bravais-lattice index     =            0
     lattice parameter (alat)  =       1.8897  a.u.
     unit-cell volume          =    6658.9804 (a.u.)^3
     number of atoms/cell      =           52
     number of atomic types    =            4
     number of electrons       =       396.00
     number of Kohn-Sham states=          208
     kinetic-energy cutoff     =      29.3995  Ry
     charge density cutoff     =     293.9946  Ry
     scf convergence threshold =      7.3E-08
     mixing beta               =       0.0500
     number of iterations used =            8  plain     mixing
     Exchange-correlation= BEEF-VDW
                           (   1   4  43  14   2   0   0)

     celldm(1)=   1.889726  celldm(2)=   0.000000  celldm(3)=   0.000000
     celldm(4)=   0.000000  celldm(5)=   0.000000  celldm(6)=   0.000000

     crystal axes: (cart. coord. in units of alat)
               a(1) = (   6.579727   0.000000   0.000000 )
               a(2) = (  -0.000775   5.961596   0.000000 )
               a(3) = (   0.000000   0.000000  25.155947 )

     reciprocal axes: (cart. coord. in units 2 pi/alat)
               b(1) = (  0.151982  0.000020  0.000000 )
               b(2) = (  0.000000  0.167740  0.000000 )
               b(3) = (  0.000000  0.000000  0.039752 )

     PseudoPot. # 1 for C  read from file:
     /storage/coda1/p-amedford6/0/shared/rich_project_chbe-medford/medford-share/data/pseudos_module/espresso/nninc/pbe/van/C.UPF
     MD5 check sum: 1a69bf6b8db32088f5b2163dbdb77a27
     Pseudo is Ultrasoft, Zval =  4.0
     Generated by new atomic code, or converted to UPF format
     Using radial grid of  721 points,  4 beta functions with:
                l(1) =   0
                l(2) =   0
                l(3) =   1
                l(4) =   1
     Q(r) pseudized with  8 coefficients,  rinner =    0.800   0.800   0.800

     PseudoPot. # 2 for H  read from file:
     /storage/coda1/p-amedford6/0/shared/rich_project_chbe-medford/medford-share/data/pseudos_module/espresso/nninc/pbe/van/H.UPF
     MD5 check sum: b5ee9d7bfd3a09ee7748110bda690ff7
     Pseudo is Ultrasoft, Zval =  1.0
     Generated by new atomic code, or converted to UPF format
     Using radial grid of  615 points,  1 beta functions with:
                l(1) =   0
     Q(r) pseudized with  8 coefficients,  rinner =    0.800

     PseudoPot. # 3 for O  read from file:
     /storage/coda1/p-amedford6/0/shared/rich_project_chbe-medford/medford-share/data/pseudos_module/espresso/nninc/pbe/van/O.UPF
     MD5 check sum: 78c19812648e8988a0fe644b0f25305e
     Pseudo is Ultrasoft, Zval =  6.0
     Generated by new atomic code, or converted to UPF format
     Using radial grid of  737 points,  4 beta functions with:
                l(1) =   0
                l(2) =   0
                l(3) =   1
                l(4) =   1
     Q(r) pseudized with  8 coefficients,  rinner =    0.800   0.800   0.800

     PseudoPot. # 4 for Ti read from file:
     /storage/coda1/p-amedford6/0/shared/rich_project_chbe-medford/medford-share/data/pseudos_module/espresso/nninc/pbe/van/Ti.UPF
     MD5 check sum: 8e4df49b7f0d34bbd5052bf3f5ea0213
     Pseudo is Ultrasoft, Zval = 12.0
     Generated by new atomic code, or converted to UPF format
     Using radial grid of  851 points,  6 beta functions with:
                l(1) =   0
                l(2) =   0
                l(3) =   1
                l(4) =   1
                l(5) =   2
                l(6) =   2
     Q(r) pseudized with  8 coefficients,  rinner =    1.000   1.000   1.000
                                                       1.000   1.000

     atomic species   valence    mass     pseudopotential
        C1             4.00    12.01100     C ( 1.00)
        H1             1.00     1.00800     H ( 1.00)
        O1             6.00    15.99900     O ( 1.00)
        Ti1           12.00    47.86700     Ti( 1.00)

     No symmetry found

   Cartesian axes

     site n.     atom                  positions (alat units)
         1           C1  tau(   1) = (   6.4174581   3.0630250  18.7433229  )
         2           H1  tau(   2) = (   6.4111689   4.1212957  19.1161716  )
         3           O1  tau(   3) = (   3.2904802   0.0005063   4.7018136  )
         4           O1  tau(   4) = (   3.2900926   2.9813045   4.7018136  )
         5           O1  tau(   5) = (   1.3043587   1.4918075   6.0039043  )
         6           O1  tau(   6) = (   1.3039711   4.4726057   6.0039043  )
         7           O1  tau(   7) = (   5.2767064   1.4903225   6.0039473  )
         8           O1  tau(   8) = (   5.2763189   4.4711207   6.0039473  )
         9           O1  tau(   9) = (   3.2906025   0.0005020   7.3038282  )
        10           O1  tau(  10) = (   3.2902150   2.9813002   7.3038282  )
        11           O1  tau(  11) = (   0.0006271   0.0005054   7.9858123  )
        12           O1  tau(  12) = (   0.0002396   2.9813036   7.9858123  )
        13           O1  tau(  13) = (   4.5942328   1.4918067   9.2879030  )
        14           O1  tau(  14) = (   4.5938453   4.4726049   9.2879030  )
        15           O1  tau(  15) = (   1.9868534   1.4903216   9.2879459  )
        16           O1  tau(  16) = (   1.9864658   4.4711199   9.2879459  )
        17           O1  tau(  17) = (   0.0063547   0.0038039  10.5886533  )
        18           O1  tau(  18) = (   0.0036009   2.9935247  10.5534957  )
        19           O1  tau(  19) = (   3.2887833   2.9558164  11.3026950  )
        20           O1  tau(  20) = (   3.2889155   0.0180965  11.3284547  )
        21           O1  tau(  21) = (   1.2693144   4.4854729  12.6486175  )
        22           O1  tau(  22) = (   1.2682469   1.5082983  12.6349555  )
        23           O1  tau(  23) = (   5.3117200   4.4832310  12.6447022  )
        24           O1  tau(  24) = (   5.3022439   1.5078309  12.6340177  )
        25           O1  tau(  25) = (   3.2906411   2.9682164  13.9081918  )
        26           O1  tau(  26) = (   3.2897682   5.9313675  13.9192633  )
        27           O1  tau(  27) = (   0.0102991   0.0146890  14.6966064  )
        28           O1  tau(  28) = (   6.5585574   2.9631049  14.7216645  )
        29           O1  tau(  29) = (   4.5396285   4.4015509  16.0671556  )
        30           O1  tau(  30) = (   4.5390945   1.4941059  16.1279003  )
        31           O1  tau(  31) = (   2.0082845   1.5156796  16.1272261  )
        32           O1  tau(  32) = (   2.0064512   4.3952525  16.0627866  )
        33           O1  tau(  33) = (   6.5747792   5.9015977  17.1979186  )
        34           O1  tau(  34) = (   6.5364340   3.0300823  17.4955599  )
        35           Ti1 tau(  35) = (   0.0004258   2.9801865   6.0000000  )
        36           Ti1 tau(  36) = (   0.0000382   5.9609847   6.0000000  )
        37           Ti1 tau(  37) = (   3.2906075   1.4906267   6.0002472  )
        38           Ti1 tau(  38) = (   3.2902200   4.4714249   6.0002472  )
        39           Ti1 tau(  39) = (   3.3327010   0.0642822   9.1729847  )
        40           Ti1 tau(  40) = (   3.3370945   3.0443960   9.2119432  )
        41           Ti1 tau(  41) = (   0.0627859   4.5109727   9.2698030  )
        42           Ti1 tau(  42) = (   0.0576648   1.5917673   9.3593984  )
        43           Ti1 tau(  43) = (   0.0253163   5.9063241  12.4905130  )
        44           Ti1 tau(  44) = (   3.2927504   4.6587819  12.6908054  )
        45           Ti1 tau(  45) = (   3.2752962   1.5585801  12.4345831  )
        46           Ti1 tau(  46) = (   6.5429176   2.9239390  12.8034251  )
        47           Ti1 tau(  47) = (   3.2945171   2.9475426  15.6852994  )
        48           Ti1 tau(  48) = (   3.3539256   5.9263172  16.3551506  )
        49           Ti1 tau(  49) = (   0.0720310   4.5244698  15.8688857  )
        50           Ti1 tau(  50) = (   0.0504038   1.3137671  16.0740927  )
        51           O1  tau(  51) = (   3.3002437   5.8605330  18.1582223  )
        52           H1  tau(  52) = (   3.3828385   0.6075072  18.8126307  )

     number of k points=    10  Fermi-Dirac smearing, width (Ry)=  0.0073
                       cart. coord. in units 2pi/alat
        k(    1) = (   0.0000000   0.0000000   0.0000000), wk =   0.1250000
        k(    2) = (   0.0000000   0.0419351   0.0000000), wk =   0.2500000
        k(    3) = (   0.0000000  -0.0838702   0.0000000), wk =   0.1250000
        k(    4) = (   0.0379955   0.0000049   0.0000000), wk =   0.2500000
        k(    5) = (   0.0379955   0.0419400   0.0000000), wk =   0.2500000
        k(    6) = (   0.0379955  -0.0838652   0.0000000), wk =   0.2500000
        k(    7) = (   0.0379955  -0.0419301   0.0000000), wk =   0.2500000
        k(    8) = (  -0.0759910  -0.0000099   0.0000000), wk =   0.1250000
        k(    9) = (  -0.0759910   0.0419252   0.0000000), wk =   0.2500000
        k(   10) = (  -0.0759910  -0.0838800   0.0000000), wk =   0.1250000

     Initial potential from superposition of free atoms

     starting charge  379.99919, renormalised to  396.00000

     negative rho (up, down):  1.746E-02 0.000E+00

     %%%%%%%%%%%%%%%%%%%%%%%%%%%%%%%%%%%%%%%%%%%%%%%%%%%%%%%%%%%%%%%%%%%%%%%%
     %                                                                      %
     % You are using vdW-DF, which was implemented by the Thonhauser group. %
     % Please cite the following two papers that made this development      %
     % possible and the two reviews that describe the various versions:     %
     %                                                                      %
     %   T. Thonhauser et al., PRL 115, 136402 (2015).                      %
     %   T. Thonhauser et al., PRB 76, 125112 (2007).                       %
     %   K. Berland et al., Rep. Prog. Phys. 78, 066501 (2015).             %
     %   D.C. Langreth et al., J. Phys.: Condens. Matter 21, 084203 (2009). %
     %                                                                      %
     %                                                                      %
     % If you are calculating the stress with vdW-DF, please also cite:     %
     %                                                                      %
     %   R. Sabatini et al., J. Phys.: Condens. Matter 24, 424209 (2012).   %
     %                                                                      %
     %%%%%%%%%%%%%%%%%%%%%%%%%%%%%%%%%%%%%%%%%%%%%%%%%%%%%%%%%%%%%%%%%%%%%%%%

     Adding external electric field

     Computed dipole along edir(3) :
        Dipole               -7.6492 Ry au,        -19.4423 Debye
        Dipole field         -0.0144 Ry au,

        Potential amp.        1.3381 Ry
        Total length         46.3494 bohr

     Starting wfcs are  298 atomic wfcs
  @ DRIVER MODE: Message from server: STATUS
  @ DRIVER MODE: Message from server: POSDATA
  @ DRIVER MODE: Reading and sharing cell
  @ DRIVER MODE: Reading and sharing positions
  @ DRIVER MODE: Received positions

     Self-consistent Calculation

     iteration #  1     ecut=    29.40 Ry     beta= 0.05
     Davidson diagonalization with overlap
     c_bands:  1 eigenvalues not converged
     c_bands:  2 eigenvalues not converged
     c_bands:  1 eigenvalues not converged
     c_bands:  1 eigenvalues not converged
     c_bands:  3 eigenvalues not converged
     c_bands:  1 eigenvalues not converged
     c_bands:  3 eigenvalues not converged
     c_bands:  1 eigenvalues not converged
     c_bands:  2 eigenvalues not converged
     c_bands:  1 eigenvalues not converged
     ethr =  1.00E-05,  avg # of iterations = 20.0

[...]

     total energy              =   -2670.37688618 Ry
     estimated scf accuracy    <    3232.99732942 Ry

[...]

     iteration #  3     ecut=    29.40 Ry     beta= 0.05
     Davidson diagonalization with overlap
     ethr =  1.00E-02,  avg # of iterations = 14.5

[...]

     iteration # 53     ecut=    29.40 Ry     beta= 0.05
     Davidson diagonalization with overlap
     c_bands:  1 eigenvalues not converged
     c_bands:  2 eigenvalues not converged
     c_bands:  1 eigenvalues not converged
     c_bands:  1 eigenvalues not converged
     ethr =  6.05E-07,  avg # of iterations = 16.3

[...]

     total energy              =   -2962.43524735 Ry
     estimated scf accuracy    <       0.00000007 Ry

     iteration # 81     ecut=    29.40 Ry     beta= 0.05
     Davidson diagonalization with overlap
     ethr =  1.88E-11,  avg # of iterations =  6.0

     negative rho (up, down):  1.661E-02 0.000E+00

     Adding external electric field

     Computed dipole along edir(3) :
        Dipole                0.3243 Ry au,          0.8242 Debye
        Dipole field          0.0006 Ry au,

        Potential amp.       -0.0567 Ry
        Total length         46.3494 bohr

     End of self-consistent calculation

          k = 0.0000 0.0000 0.0000 ( 18029 PWs)   bands (ev):

   -56.3714 -56.3258 -56.1731 -56.0682 -56.0375 -56.0249 -55.9641 -55.9461
   -55.9137 -55.9078 -55.8879 -55.8763 -55.7930 -55.6656 -55.1517 -55.1177
   -32.8107 -32.6613 -32.6117 -32.5558 -32.5337 -32.5326 -32.5276 -32.5131
   -32.4375 -32.4344 -32.4212 -32.3990 -32.3879 -32.3493 -32.3196 -32.3181
   -32.2745 -32.2594 -32.2546 -32.2478 -32.2173 -32.2015 -32.1974 -32.1613
   -32.1530 -32.1500 -32.1382 -32.1373 -32.1348 -32.1080 -32.1008 -32.0970
   -32.0812 -32.0735 -32.0699 -32.0466 -32.0442 -32.0211 -31.9946 -31.9204
   -31.8775 -31.8753 -31.5525 -31.4820 -31.4584 -31.3691 -31.2833 -31.1721
   -19.9945 -16.9804 -16.7673 -16.6062 -16.4154 -16.3000 -16.2186 -16.0259
   -15.9165 -15.8627 -15.7877 -15.7467 -15.6673 -15.6621 -15.6501 -15.6184
   -15.5972 -15.5951 -15.5418 -15.5402 -15.5039 -15.4913 -15.4303 -15.3815
   -15.3390 -15.3081 -15.2379 -15.2259 -15.1561 -15.1467 -14.8706 -13.6539
   -13.5415  -8.1629  -5.0462  -4.8255  -4.1671  -4.1029  -4.0114  -3.9331
    -3.8520  -3.6602  -3.5645  -3.4899  -3.4046  -3.3052  -3.2542  -3.2168
    -3.1187  -3.1066  -3.0536  -3.0112  -2.9785  -2.9503  -2.9008  -2.8668
    -2.8192  -2.7879  -2.7733  -2.7307  -2.6898  -2.6754  -2.5870  -2.5670
    -2.5573  -2.5196  -2.4835  -2.4390  -2.4166  -2.3762  -2.3525  -2.3400
    -2.2228  -2.1538  -2.1381  -2.0676  -1.9411  -1.7371  -1.6999  -1.6716
    -1.6649  -1.5479  -1.5092  -1.4924  -1.4632  -1.4294  -1.3910  -1.2870
    -1.2817  -1.2208  -1.1802  -1.1669  -1.0203  -1.0014  -0.9720  -0.8996
    -0.8750  -0.8157  -0.8012  -0.6864  -0.6365  -0.6177  -0.5045  -0.4640
    -0.4440  -0.4311  -0.3847  -0.3640  -0.3509  -0.3061  -0.2291  -0.2200
    -0.1842  -0.1608  -0.1470  -0.1085  -0.0319   0.0062   0.0744   0.1499
     0.1821   0.1983   0.2637   0.3267   0.4401   0.5379   0.6665   0.8676
     0.8680   0.9896   1.0948   1.4253   1.4706   2.6452   2.8746   2.9800
     3.1346   3.1917   3.2103   3.2957   3.3324   3.4182   3.6275   3.6654

[...]

          k = 0.0380-0.0419 0.0000 ( 17876 PWs)   bands (ev):

[...]

          k =-0.0760-0.0000 0.0000 ( 17886 PWs)   bands (ev):

[...]

          k =-0.0760-0.0839 0.0000 ( 17948 PWs)   bands (ev):

   -56.3639 -56.3332 -56.1723 -56.0607 -56.0351 -56.0322 -55.9600 -55.9470
   -55.9107 -55.9016 -55.8917 -55.8875 -55.7908 -55.6677 -55.1352 -55.1340
   -32.6565 -32.6398 -32.6131 -32.6126 -32.4948 -32.4771 -32.4735 -32.4717
   -32.4173 -32.3836 -32.3700 -32.3685 -32.3524 -32.3188 -32.3090 -32.2760
   -32.2578 -32.2557 -32.2494 -32.2436 -32.2409 -32.2324 -32.2266 -32.2069
   -32.1853 -32.1804 -32.1721 -32.1609 -32.1397 -32.1388 -32.1234 -32.1156
   -32.1108 -32.1039 -32.0963 -32.0901 -32.0862 -32.0417 -31.9986 -31.9927
   -31.9219 -31.8802 -31.4719 -31.4707 -31.3673 -31.3651 -31.3263 -31.3247
   -19.9883 -16.9684 -16.2099 -16.1808 -16.0840 -16.0259 -16.0128 -15.9506
   -15.9251 -15.8779 -15.8725 -15.7912 -15.7803 -15.7549 -15.7194 -15.6870
   -15.6842 -15.6521 -15.6253 -15.5914 -15.5806 -15.5597 -15.5274 -15.4979
   -15.4480 -15.4421 -15.3785 -15.3525 -15.3252 -15.2157 -15.0270 -13.6453
   -13.6434  -8.1638  -5.0252  -4.8337  -3.6190  -3.4791  -3.3997  -3.2981
    -3.2107  -3.1597  -3.1359  -3.0971  -3.0752  -3.0260  -3.0240  -2.9802
    -2.9692  -2.9276  -2.9107  -2.8735  -2.8415  -2.8365  -2.8198  -2.8128
    -2.8091  -2.7940  -2.7625  -2.7510  -2.7337  -2.7300  -2.6887  -2.6499
    -2.6299  -2.5260  -2.4825  -2.4478  -2.3907  -2.3357  -2.3084  -2.2902
    -2.2754  -2.2274  -2.2108  -2.1820  -2.0719  -2.0321  -1.8652  -1.8106
    -1.7692  -1.7261  -1.6855  -1.6465  -1.5939  -1.5777  -1.5529  -1.5029
    -1.4895  -1.3566  -1.3530  -1.2985  -1.2161  -1.1874  -1.1799  -1.1692
    -1.1033  -1.0456  -1.0315  -1.0264  -0.9863  -0.8915  -0.8856  -0.8393
    -0.8275  -0.7915  -0.7214  -0.6517  -0.5573  -0.5199  -0.4698  -0.4394
    -0.3081  -0.2704  -0.1295  -0.1121  -0.0281   0.0134   0.0412   0.1210
     0.1431   0.1794   0.2578   0.2849   0.3652   0.4150   0.4581   0.4691
     0.5318   1.2447   1.2604   1.2774   1.2891   2.5483   3.2724   3.3740
     3.3791   3.4069   3.4197   3.5213   3.5340   3.6048   3.6391   3.6849

     the Fermi energy is     2.7866 ev

!    total energy              =   -2962.43525400 Ry
     estimated scf accuracy    <       0.00000003 Ry
     smearing contrib. (-TS)   =      -0.01288494 Ry
     internal energy E=F+TS    =   -2962.42236906 Ry

     The total energy is F=E-TS. E is the sum of the following terms:
     one-electron contribution =  -24149.93155289 Ry
     hartree contribution      =   12160.90671046 Ry
     xc contribution           =    -488.27624700 Ry
     ewald contribution        =    9514.87852192 Ry
     electric field correction =       0.00019845 Ry

     convergence has been achieved in  81 iterations

     Forces acting on atoms (cartesian axes, Ry/au):

     atom    1 type  1   force =    -0.00024546   -0.00004506    0.00018186
     atom    2 type  2   force =     0.00006343   -0.00044242   -0.00030877
     atom    3 type  3   force =    -0.00000809    0.00007968    0.10097157
     atom    4 type  3   force =    -0.00000558    0.00014126    0.10054300
     atom    5 type  3   force =    -0.07610656    0.00087564   -0.03116593
     atom    6 type  3   force =    -0.07555442   -0.00154944   -0.03117265
     atom    7 type  3   force =     0.07593124    0.00141659   -0.03123333
     atom    8 type  3   force =     0.07554314   -0.00105064   -0.03119361
     atom    9 type  3   force =     0.00101991    0.00071481    0.04689282
     atom   10 type  3   force =     0.00093375    0.00023063    0.04950077
     atom   11 type  3   force =     0.00037898   -0.00605369   -0.04130906
     atom   12 type  3   force =     0.00101140    0.00274839   -0.03528325
     atom   13 type  3   force =    -0.01263982   -0.00287406    0.00044180
     atom   14 type  3   force =    -0.01411466    0.00448282    0.00143742
     atom   15 type  3   force =     0.01209641   -0.00536714    0.00103341
     atom   16 type  3   force =     0.01169896    0.00182328    0.00133439
     atom   17 type  3   force =     0.00008453    0.00034972    0.00073632
     atom   18 type  3   force =     0.00013353   -0.00027170    0.00016721
     atom   19 type  3   force =    -0.00013935   -0.00001349    0.00024070
     atom   20 type  3   force =    -0.00007214    0.00052613   -0.00040713
     atom   21 type  3   force =     0.00037871    0.00004447   -0.00000110
     atom   22 type  3   force =     0.00000673    0.00000333   -0.00000098
     atom   23 type  3   force =    -0.00012327    0.00007766   -0.00004317
     atom   24 type  3   force =    -0.00004642   -0.00000326   -0.00020077
     atom   25 type  3   force =    -0.00022881    0.00023716   -0.00020697
     atom   26 type  3   force =    -0.00019879    0.00058613    0.00043187
     atom   27 type  3   force =     0.00041459   -0.00007268   -0.00053077
     atom   28 type  3   force =     0.00020101    0.00020312   -0.00012011
     atom   29 type  3   force =    -0.00166518   -0.00026209   -0.00021327
     atom   30 type  3   force =    -0.00081464    0.00042528   -0.00050605
     atom   31 type  3   force =    -0.00005159    0.00046918   -0.00026936
     atom   32 type  3   force =     0.00006886    0.00009847    0.00008123
     atom   33 type  3   force =     0.00038754   -0.00012164    0.00068522
     atom   34 type  3   force =     0.00019279    0.00016092   -0.00024398
     atom   35 type  4   force =    -0.00009784   -0.00133149    0.10982862
     atom   36 type  4   force =    -0.00019575    0.00142317    0.12390259
     atom   37 type  4   force =    -0.00029611    0.00759524   -0.16583089
     atom   38 type  4   force =     0.00000281   -0.00693711   -0.16568055
     atom   39 type  4   force =     0.00076301   -0.00132502   -0.00023905
     atom   40 type  4   force =     0.00083460    0.00162405   -0.00034363
     atom   41 type  4   force =    -0.00061709    0.00000731   -0.00006261
     atom   42 type  4   force =    -0.00072087    0.00002475   -0.00030010
     atom   43 type  4   force =    -0.00000365   -0.00015399    0.00015879
     atom   44 type  4   force =     0.00049306    0.00013896   -0.00033628
     atom   45 type  4   force =     0.00013555    0.00094755   -0.00023920
     atom   46 type  4   force =    -0.00012466   -0.00005051   -0.00027949
     atom   47 type  4   force =     0.00288635   -0.00016986    0.00012919
     atom   48 type  4   force =     0.00257134    0.00000891   -0.00009741
     atom   49 type  4   force =    -0.00359067    0.00073836   -0.00007904
     atom   50 type  4   force =    -0.00119393   -0.00027718   -0.00058496
     atom   51 type  3   force =     0.00001354    0.00022499    0.00032593
     atom   52 type  2   force =     0.00060956   -0.00005549   -0.00054125

     Total force =     0.371555     Total SCF correction =     0.000440
  @ DRIVER MODE: Message from server: STATUS
  @ DRIVER MODE: Message from server: GETFORCE
  @ DRIVER MODE: Returning v,forces,stress,ensemble

     Writing output data file ./calc.save/
  @ DRIVER MODE: Message from server: EXIT
  @ DRIVE MODE: Exiting

     General routines

     Parallel routines

   This run was terminated on:  19:15: 1  27Sep2021

   JOB DONE.