     Program PWSCF v.6.7GPU starts on 16Jul2021 at  1:59: 4

     R & G space division:  proc/nbgrp/npool/nimage =      16
     Reading input from /storage/home/hcoda1/3/ntian30/research/carbon/15Jul_vib/ads_slab/CH3N2_b/out_0016/pw.inp
Warning: card &CELL ignored
Warning: card   CELL_DYNAMICS='IPI', ignored
Warning: card / ignored

     Current dimensions of program PWSCF are:
     Max number of different atomic species (ntypx) = 10
     Max number of k-points (npk) =  40000
     Max angular momentum in pseudopotentials (lmaxx) =  3
     Presently no symmetry can be used with electric field

     Message from routine cell_base_init:
     DEPRECATED: use true lattice parameter, not A to a.u. conversion factor

     IMPORTANT: XC functional enforced from input :
     Exchange-correlation= BEEF-VDW
                           (   1   4  43  14   2   0   0)
     Any further DFT definition will be discarded
     Please, verify this is what you really want

  @ DRIVER MODE: Connecting to
 qe_1139763_2351645.sched-torque.pace.gatech.eduz2ak8_hf_scratch
  using UNIX socket
  @ DRIVER MODE: Message from server: STATUS
  @ DRIVER MODE: Message from server: INIT
  @ DRIVER MODE: Receiving replica           0          -1
  @ DRIVER MODE: Receiving encoded integer          25
  @ DRIVER MODE:  SCF:  T  FORCE:  T  STRESS:  F  VC:  F  ENSEMBLE:  F
  @ DRIVER MODE:  SCF:  T  FORCE:  T  STRESS:  F  VC:  F  ENSEMBLE:  F

     Using Slab Decomposition

     bravais-lattice index     =            0
     lattice parameter (alat)  =       1.8897  a.u.
     unit-cell volume          =    6658.9804 (a.u.)^3
     number of atoms/cell      =           53
     number of atomic types    =            5
     number of electrons       =       395.00
     number of Kohn-Sham states=          207
     kinetic-energy cutoff     =      29.3995  Ry
     charge density cutoff     =     293.9946  Ry
     scf convergence threshold =      7.3E-08
     mixing beta               =       0.0500
     number of iterations used =            8  plain     mixing
     Exchange-correlation= BEEF-VDW
                           (   1   4  43  14   2   0   0)

     celldm(1)=   1.889726  celldm(2)=   0.000000  celldm(3)=   0.000000
     celldm(4)=   0.000000  celldm(5)=   0.000000  celldm(6)=   0.000000

     crystal axes: (cart. coord. in units of alat)
               a(1) = (   6.579727   0.000000   0.000000 )
               a(2) = (  -0.000775   5.961596   0.000000 )
               a(3) = (   0.000000   0.000000  25.155947 )

     reciprocal axes: (cart. coord. in units 2 pi/alat)
               b(1) = (  0.151982  0.000020  0.000000 )
               b(2) = (  0.000000  0.167740  0.000000 )
               b(3) = (  0.000000  0.000000  0.039752 )

     PseudoPot. # 1 for Ti read from file:
     /storage/coda1/p-amedford6/0/shared/rich_project_chbe-medford/medford-share/data/pseudos_module/espresso/nninc/pbe/van/Ti.UPF
     MD5 check sum: 8e4df49b7f0d34bbd5052bf3f5ea0213
     Pseudo is Ultrasoft, Zval = 12.0
     Generated by new atomic code, or converted to UPF format
     Using radial grid of  851 points,  6 beta functions with:
                l(1) =   0
                l(2) =   0
                l(3) =   1
                l(4) =   1
                l(5) =   2
                l(6) =   2
     Q(r) pseudized with  8 coefficients,  rinner =    1.000   1.000   1.000
                                                       1.000   1.000

     PseudoPot. # 2 for O  read from file:
     /storage/coda1/p-amedford6/0/shared/rich_project_chbe-medford/medford-share/data/pseudos_module/espresso/nninc/pbe/van/O.UPF
     MD5 check sum: 78c19812648e8988a0fe644b0f25305e
     Pseudo is Ultrasoft, Zval =  6.0
     Generated by new atomic code, or converted to UPF format
     Using radial grid of  737 points,  4 beta functions with:
                l(1) =   0
                l(2) =   0
                l(3) =   1
                l(4) =   1
     Q(r) pseudized with  8 coefficients,  rinner =    0.800   0.800   0.800

     PseudoPot. # 3 for N  read from file:
     /storage/coda1/p-amedford6/0/shared/rich_project_chbe-medford/medford-share/data/pseudos_module/espresso/nninc/pbe/van/N.UPF
     MD5 check sum: 90d10febe142ad51ac9d5be1deb811c4
     Pseudo is Ultrasoft, Zval =  5.0
     Generated by new atomic code, or converted to UPF format
     Using radial grid of  729 points,  4 beta functions with:
                l(1) =   0
                l(2) =   0
                l(3) =   1
                l(4) =   1
     Q(r) pseudized with  8 coefficients,  rinner =    0.800   0.800   0.800

     PseudoPot. # 4 for C  read from file:
     /storage/coda1/p-amedford6/0/shared/rich_project_chbe-medford/medford-share/data/pseudos_module/espresso/nninc/pbe/van/C.UPF
     MD5 check sum: 1a69bf6b8db32088f5b2163dbdb77a27
     Pseudo is Ultrasoft, Zval =  4.0
     Generated by new atomic code, or converted to UPF format
     Using radial grid of  721 points,  4 beta functions with:
                l(1) =   0
                l(2) =   0
                l(3) =   1
                l(4) =   1
     Q(r) pseudized with  8 coefficients,  rinner =    0.800   0.800   0.800

     PseudoPot. # 5 for H  read from file:
     /storage/coda1/p-amedford6/0/shared/rich_project_chbe-medford/medford-share/data/pseudos_module/espresso/nninc/pbe/van/H.UPF
     MD5 check sum: b5ee9d7bfd3a09ee7748110bda690ff7
     Pseudo is Ultrasoft, Zval =  1.0
     Generated by new atomic code, or converted to UPF format
     Using radial grid of  615 points,  1 beta functions with:
                l(1) =   0
     Q(r) pseudized with  8 coefficients,  rinner =    0.800

     atomic species   valence    mass     pseudopotential
        Ti1           12.00    47.86700     Ti( 1.00)
        O1             6.00    15.99900     O ( 1.00)
        N1             5.00    14.00700     N ( 1.00)
        C1             4.00    12.01100     C ( 1.00)
        H1             1.00     1.00800     H ( 1.00)

     Starting magnetic structure
     atomic species   magnetization
        Ti1          0.000
        O1           0.000
        N1           0.000
        C1           0.025
        H1           0.000

     No symmetry found

   Cartesian axes

     site n.     atom                  positions (alat units)
         1           Ti1 tau(   1) = (   0.0004258   2.9801865   6.0000000  )
         2           Ti1 tau(   2) = (   3.2906075   1.4906267   6.0002472  )
         3           O1  tau(   3) = (   0.0006271   0.0005054   7.9858123  )
         4           O1  tau(   4) = (   3.2906025   0.0005020   7.3038282  )
         5           O1  tau(   5) = (   4.5942328   1.4918067   9.2879030  )
         6           O1  tau(   6) = (   1.9868534   1.4903216   9.2879459  )
         7           Ti1 tau(   7) = (   3.2907910   2.8959150   9.1758416  )
         8           Ti1 tau(   8) = (   0.0015273   1.4827037   9.2680791  )
         9           O1  tau(   9) = (   3.3037365   0.0094216  11.3222111  )
        10           O1  tau(  10) = (   0.0116148   5.9584955  10.6183126  )
        11           O1  tau(  11) = (   1.3152514   1.5075076  12.6320051  )
        12           O1  tau(  12) = (   5.3186361   1.4995162  12.6508707  )
        13           Ti1 tau(  13) = (   6.5540705   2.9956815  12.5884341  )
        14           Ti1 tau(  14) = (   3.2234832   1.4927074  12.4921739  )
        15           O1  tau(  15) = (   0.0610261   5.9052480  14.6017706  )
        16           O1  tau(  16) = (   3.2936532   0.0132264  13.8830087  )
        17           O1  tau(  17) = (   4.5722397   1.5061520  16.0138922  )
        18           O1  tau(  18) = (   2.0767725   1.5295127  16.0808449  )
        19           Ti1 tau(  19) = (   3.3650854   3.0251465  15.6907462  )
        20           Ti1 tau(  20) = (   0.0387768   1.3037779  15.7216176  )
        21           O1  tau(  21) = (   3.2904802   0.0005063   4.7018136  )
        22           O1  tau(  22) = (   0.0189486   0.1070799  17.1824039  )
        23           O1  tau(  23) = (   1.3043587   1.4918075   6.0039043  )
        24           O1  tau(  24) = (   5.2767064   1.4903225   6.0039473  )
        25           Ti1 tau(  25) = (   0.0000382   5.9609847   6.0000000  )
        26           Ti1 tau(  26) = (   3.2902200   4.4714249   6.0002472  )
        27           O1  tau(  27) = (   0.0002396   2.9813036   7.9858123  )
        28           O1  tau(  28) = (   3.2902150   2.9813002   7.3038282  )
        29           O1  tau(  29) = (   4.5938453   4.4726049   9.2879030  )
        30           O1  tau(  30) = (   1.9864658   4.4711199   9.2879459  )
        31           Ti1 tau(  31) = (   3.2891106   5.8743827   9.1763621  )
        32           Ti1 tau(  32) = (   0.0006254   4.4649316   9.2693709  )
        33           O1  tau(  33) = (   3.3043114   2.9829305  11.3227053  )
        34           O1  tau(  34) = (   0.0092240   2.9805883  10.6323155  )
        35           O1  tau(  35) = (   1.3131995   4.4620516  12.6081187  )
        36           O1  tau(  36) = (   5.3117129   4.4692194  12.6284301  )
        37           Ti1 tau(  37) = (   6.5303063   5.9583428  12.5400172  )
        38           Ti1 tau(  38) = (   3.2255477   4.4746212  12.4748647  )
        39           O1  tau(  39) = (   0.0377805   3.0059521  14.8845374  )
        40           O1  tau(  40) = (   3.3120027   2.9986483  13.8863452  )
        41           O1  tau(  41) = (   4.5434534   4.5277214  16.0148975  )
        42           O1  tau(  42) = (   2.1165747   4.4940517  16.0783766  )
        43           Ti1 tau(  43) = (   3.3042555   0.0241951  15.7004812  )
        44           Ti1 tau(  44) = (   0.0495666   4.4505358  16.3362958  )
        45           O1  tau(  45) = (   3.2900926   2.9813045   4.7018136  )
        46           O1  tau(  46) = (   1.3039711   4.4726057   6.0039043  )
        47           O1  tau(  47) = (   5.2763189   4.4711207   6.0039473  )
        48           N1  tau(  48) = (   0.5348212   3.4288502  18.0689430  )
        49           C1  tau(  49) = (   1.3556880   3.0079929  19.2215664  )
        50           H1  tau(  50) = (   1.4862090   3.9000195  19.8496782  )
        51           H1  tau(  51) = (   0.8469181   2.2141957  19.7647163  )
        52           H1  tau(  52) = (   2.3296892   2.6851793  18.8624704  )
        53           N1  tau(  53) = (   5.9145885   3.2636146  17.9655992  )

     number of k points=    10  Fermi-Dirac smearing, width (Ry)=  0.0073
                       cart. coord. in units 2pi/alat
        k(    1) = (   0.0000000   0.0000000   0.0000000), wk =   0.0625000
        k(    2) = (   0.0000000   0.0419351   0.0000000), wk =   0.1250000
        k(    3) = (   0.0000000  -0.0838702   0.0000000), wk =   0.0625000
        k(    4) = (   0.0379955   0.0000049   0.0000000), wk =   0.1250000
        k(    5) = (   0.0379955   0.0419400   0.0000000), wk =   0.1250000
        k(    6) = (   0.0379955  -0.0838652   0.0000000), wk =   0.1250000
        k(    7) = (   0.0379955  -0.0419301   0.0000000), wk =   0.1250000
        k(    8) = (  -0.0759910  -0.0000099   0.0000000), wk =   0.0625000
        k(    9) = (  -0.0759910   0.0419252   0.0000000), wk =   0.1250000
        k(   10) = (  -0.0759910  -0.0838800   0.0000000), wk =   0.0625000

     Initial potential from superposition of free atoms

     starting charge  378.99916, renormalised to  395.00000

     negative rho (up, down):  8.046E-03 8.053E-03

     %%%%%%%%%%%%%%%%%%%%%%%%%%%%%%%%%%%%%%%%%%%%%%%%%%%%%%%%%%%%%%%%%%%%%%%%
     %                                                                      %
     % You are using vdW-DF, which was implemented by the Thonhauser group. %
     % Please cite the following two papers that made this development      %
     % possible and the two reviews that describe the various versions:     %
     %                                                                      %
     %   T. Thonhauser et al., PRL 115, 136402 (2015).                      %
     %   T. Thonhauser et al., PRB 76, 125112 (2007).                       %
     %   K. Berland et al., Rep. Prog. Phys. 78, 066501 (2015).             %
     %   D.C. Langreth et al., J. Phys.: Condens. Matter 21, 084203 (2009). %
     %                                                                      %
     %                                                                      %
     % If you are calculating the stress with vdW-DF, please also cite:     %
     %                                                                      %
     %   R. Sabatini et al., J. Phys.: Condens. Matter 24, 424209 (2012).   %
     %                                                                      %
     %%%%%%%%%%%%%%%%%%%%%%%%%%%%%%%%%%%%%%%%%%%%%%%%%%%%%%%%%%%%%%%%%%%%%%%%

     Adding external electric field

     Computed dipole along edir(3) :
        Dipole               -8.5786 Ry au,        -21.8047 Debye
        Dipole field         -0.0162 Ry au,

        Potential amp.        1.5007 Ry
        Total length         46.3494 bohr

[...]

     Starting wfcs are  299 atomic wfcs
  @ DRIVER MODE: Message from server: STATUS
  @ DRIVER MODE: Message from server: POSDATA
  @ DRIVER MODE: Reading and sharing cell
  @ DRIVER MODE: Reading and sharing positions
  @ DRIVER MODE: Received positions

     Self-consistent Calculation

     iteration #  1     ecut=    29.40 Ry     beta= 0.05
     Davidson diagonalization with overlap
     c_bands:  1 eigenvalues not converged
     c_bands:  1 eigenvalues not converged
     c_bands:  1 eigenvalues not converged
     c_bands:  3 eigenvalues not converged
     c_bands:  1 eigenvalues not converged
     c_bands:  3 eigenvalues not converged
     c_bands:  1 eigenvalues not converged
     c_bands:  2 eigenvalues not converged
     c_bands:  1 eigenvalues not converged
     c_bands:  1 eigenvalues not converged
     c_bands:  1 eigenvalues not converged
     c_bands:  3 eigenvalues not converged
     c_bands:  1 eigenvalues not converged
     c_bands:  3 eigenvalues not converged
     c_bands:  1 eigenvalues not converged
     c_bands:  2 eigenvalues not converged
     ethr =  1.00E-05,  avg # of iterations = 19.2

[...]

     total energy              =   -2599.53439829 Ry
     estimated scf accuracy    <    3761.95769800 Ry

     total magnetization       =     0.00 Bohr mag/cell
     absolute magnetization    =     0.02 Bohr mag/cell

     iteration #  2     ecut=    29.40 Ry     beta= 0.05
     Davidson diagonalization with overlap
     ethr =  1.00E-02,  avg # of iterations = 22.6

[...]

     iteration # 54     ecut=    29.40 Ry     beta= 0.05
     Davidson diagonalization with overlap
     c_bands:  1 eigenvalues not converged
     ethr =  4.11E-09,  avg # of iterations = 11.3

[...]

     total energy              =   -2939.12582755 Ry
     estimated scf accuracy    <       0.00000009 Ry

[...]

     iteration # 67     ecut=    29.40 Ry     beta= 0.05
     Davidson diagonalization with overlap
     ethr =  2.26E-11,  avg # of iterations =  9.8

     negative rho (up, down):  8.112E-03 8.114E-03

[...]

     Adding external electric field

     Computed dipole along edir(3) :
        Dipole                0.9114 Ry au,          2.3165 Debye
        Dipole field          0.0017 Ry au,

        Potential amp.       -0.1594 Ry
        Total length         46.3494 bohr

     Magnetic moment per site  (integrated on atomic sphere of radius R)
     atom   1 (R=0.727)  charge=  7.9485  magn=  0.0190
     atom   2 (R=0.727)  charge=  7.9315  magn=  0.0010
     atom   3 (R=0.727)  charge=  4.9369  magn= -0.0016
     atom   4 (R=0.727)  charge=  4.9738  magn= -0.0003
     atom   5 (R=0.727)  charge=  4.9424  magn= -0.0002
     atom   6 (R=0.727)  charge=  4.9431  magn= -0.0002
     atom   7 (R=0.727)  charge=  7.9299  magn=  0.0008
     atom   8 (R=0.727)  charge=  7.9249  magn=  0.0069
     atom   9 (R=0.727)  charge=  4.9562  magn= -0.0000
     atom  10 (R=0.727)  charge=  4.9398  magn= -0.0005
     atom  11 (R=0.727)  charge=  4.9438  magn= -0.0001
     atom  12 (R=0.727)  charge=  4.9403  magn= -0.0001
     atom  13 (R=0.727)  charge=  7.9199  magn=  0.0014
     atom  14 (R=0.727)  charge=  7.9286  magn=  0.0003
     atom  15 (R=0.727)  charge=  4.9367  magn= -0.0000
     atom  16 (R=0.727)  charge=  4.9585  magn= -0.0000
     atom  17 (R=0.727)  charge=  4.9268  magn= -0.0000
     atom  18 (R=0.727)  charge=  4.9195  magn= -0.0000
     atom  19 (R=0.727)  charge=  7.9516  magn=  0.0000
     atom  20 (R=0.727)  charge=  7.9765  magn=  0.0001
     atom  21 (R=0.727)  charge=  4.8266  magn= -0.0011
     atom  22 (R=0.727)  charge=  4.9097  magn=  0.0000
     atom  23 (R=0.727)  charge=  4.9340  magn= -0.0023
     atom  24 (R=0.727)  charge=  4.9340  magn= -0.0023
     atom  25 (R=0.727)  charge=  7.9486  magn=  0.0187
     atom  26 (R=0.727)  charge=  7.9316  magn=  0.0010
     atom  27 (R=0.727)  charge=  4.9364  magn= -0.0017
     atom  28 (R=0.727)  charge=  4.9740  magn= -0.0002
     atom  29 (R=0.727)  charge=  4.9433  magn= -0.0002
     atom  30 (R=0.727)  charge=  4.9439  magn= -0.0002
     atom  31 (R=0.727)  charge=  7.9304  magn=  0.0008
     atom  32 (R=0.727)  charge=  7.9251  magn=  0.0069
     atom  33 (R=0.727)  charge=  4.9554  magn= -0.0001
     atom  34 (R=0.727)  charge=  4.9242  magn= -0.0005
     atom  35 (R=0.727)  charge=  4.9448  magn= -0.0001
     atom  36 (R=0.727)  charge=  4.9438  magn= -0.0001
     atom  37 (R=0.727)  charge=  7.9230  magn=  0.0013
     atom  38 (R=0.727)  charge=  7.9295  magn=  0.0003
     atom  39 (R=0.727)  charge=  4.9078  magn= -0.0000
     atom  40 (R=0.727)  charge=  4.9610  magn= -0.0000
     atom  41 (R=0.727)  charge=  4.9355  magn= -0.0000
     atom  42 (R=0.727)  charge=  4.9347  magn=  0.0000
     atom  43 (R=0.727)  charge=  7.9537  magn=  0.0000
     atom  44 (R=0.727)  charge=  7.9725  magn= -0.0001
     atom  45 (R=0.727)  charge=  4.8266  magn= -0.0010
     atom  46 (R=0.727)  charge=  4.9340  magn= -0.0023
     atom  47 (R=0.727)  charge=  4.9341  magn= -0.0023
     atom  48 (R=0.501)  charge=  1.9977  magn=  0.0001
     atom  49 (R=0.448)  charge=  0.8464  magn=  0.0000
     atom  50 (R=0.448)  charge=  0.4936  magn= -0.0000
     atom  51 (R=0.448)  charge=  0.5028  magn= -0.0000
     atom  52 (R=0.448)  charge=  0.5040  magn= -0.0000
     atom  53 (R=0.501)  charge=  1.9556  magn=  0.0000

     End of self-consistent calculation

 ------ SPIN UP ------------

          k = 0.0000 0.0000 0.0000 ( 18029 PWs)   bands (ev):

   -55.7922 -55.7699 -55.7581 -55.7339 -55.6844 -55.6361 -55.6024 -55.5685
   -55.5557 -55.5220 -55.5194 -55.4463 -54.9562 -54.8069 -54.7562 -54.7222
   -32.3185 -32.2660 -32.1748 -32.1046 -32.0863 -32.0561 -32.0473 -32.0373
   -32.0061 -31.9699 -31.9473 -31.9400 -31.9217 -31.9046 -31.8880 -31.8847
   -31.8810 -31.8781 -31.8658 -31.8526 -31.8362 -31.8227 -31.8001 -31.7962
   -31.7929 -31.7825 -31.7818 -31.7556 -31.7407 -31.7382 -31.7312 -31.7129
   -31.7108 -31.6693 -31.6359 -31.5636 -31.4923 -31.3379 -31.1673 -31.1625
   -31.1047 -31.0753 -31.0659 -31.0527 -30.9800 -30.9126 -30.8935 -30.7817
   -19.4380 -16.5167 -16.2510 -15.9652 -15.9148 -15.8405 -15.7473 -15.6235
   -15.5272 -15.4099 -15.3712 -15.3123 -15.3072 -15.2629 -15.2361 -15.2319
   -15.2058 -15.1954 -15.1331 -15.1256 -15.0755 -15.0639 -15.0155 -14.9811
   -14.9695 -14.9123 -14.8448 -14.8045 -14.6853 -14.1599 -13.2554 -13.1389
   -12.3005  -7.2467  -4.9374  -4.7736  -3.8993  -3.7569  -3.7037  -3.6847
    -3.6404  -3.4403  -3.3519  -3.2835  -3.0440  -2.9525  -2.9281  -2.9170
    -2.8681  -2.7105  -2.6602  -2.6041  -2.5883  -2.5620  -2.5398  -2.5315
    -2.4967  -2.4861  -2.4592  -2.4228  -2.3250  -2.2127  -2.1834  -2.1057
    -2.0906  -2.0742  -2.0443  -2.0341  -2.0247  -2.0149  -1.9960  -1.9589
    -1.8947  -1.8515  -1.7866  -1.7021  -1.5604  -1.5384  -1.4603  -1.3843
    -1.3050  -1.2621  -1.2406  -1.2120  -1.1720  -1.0926  -1.0665  -0.9204
    -0.8236  -0.7901  -0.7733  -0.7310  -0.6947  -0.5926  -0.5709  -0.5413
    -0.5308  -0.5043  -0.4312  -0.3748  -0.2417  -0.2118  -0.2079  -0.1704
    -0.0997  -0.0461   0.0075   0.0568   0.0644   0.1011   0.1607   0.1862
     0.1917   0.2336   0.2755   0.3502   0.3763   0.4505   0.4547   0.5186
     0.5623   0.6440   0.7523   0.8745   1.0175   1.1544   1.1997   1.2689
     1.3634   1.4606   1.8399   1.8847   2.1440   3.3283   3.4244   3.4654
     3.4758   3.5844   3.7863   3.8180   3.8666   3.8861   3.8953

[...]

          k =-0.0760-0.0000 0.0000 ( 17886 PWs)   bands (ev):

[...]

 ------ SPIN DOWN ----------

[...]

          k = 0.0380-0.0419 0.0000 ( 17876 PWs)   bands (ev):

[...]

          k =-0.0760-0.0839 0.0000 ( 17948 PWs)   bands (ev):

   -55.7520 -55.7504 -55.7400 -55.7395 -55.6748 -55.6410 -55.5729 -55.5726
   -55.5377 -55.5373 -55.5149 -55.4506 -54.9547 -54.8084 -54.7369 -54.7368
   -32.1217 -32.1182 -32.0663 -32.0661 -32.0321 -32.0316 -32.0188 -32.0042
   -31.9979 -31.9891 -31.9203 -31.9149 -31.8989 -31.8921 -31.8803 -31.8783
   -31.8773 -31.8717 -31.8557 -31.8550 -31.8523 -31.8486 -31.8471 -31.8133
   -31.7839 -31.7782 -31.7766 -31.7669 -31.7667 -31.7547 -31.7538 -31.7525
   -31.7515 -31.7360 -31.7115 -31.6605 -31.4393 -31.3200 -31.1690 -31.1588
   -31.0833 -31.0629 -31.0628 -30.9739 -30.9737 -30.9345 -30.9344 -30.9160
   -19.4358 -15.9173 -15.9112 -15.7501 -15.7158 -15.6495 -15.6408 -15.5733
   -15.5062 -15.4617 -15.4567 -15.3414 -15.3391 -15.3249 -15.3029 -15.2486
   -15.2324 -15.2309 -15.2281 -15.2203 -15.2079 -15.1805 -15.1499 -15.0992
   -15.0941 -15.0733 -15.0633 -14.9416 -14.5317 -14.4700 -13.2433 -13.2429
   -12.3028  -7.2331  -4.9388  -4.7711  -3.6285  -3.2065  -3.1901  -3.0014
    -2.9188  -2.9075  -2.8912  -2.7391  -2.7275  -2.7105  -2.6532  -2.6438
    -2.6361  -2.5995  -2.5831  -2.5595  -2.5193  -2.5141  -2.4658  -2.4629
    -2.4478  -2.4287  -2.4073  -2.4018  -2.3885  -2.3736  -2.3359  -2.2802
    -2.2418  -2.2150  -2.1868  -2.0904  -2.0295  -1.9938  -1.9262  -1.9176
    -1.8666  -1.8415  -1.8272  -1.7611  -1.6908  -1.6615  -1.5771  -1.4857
    -1.4671  -1.4518  -1.3332  -1.3193  -1.2447  -1.2206  -1.1369  -1.1197
    -1.0803  -0.9695  -0.9463  -0.9151  -0.8804  -0.8364  -0.7728  -0.7360
    -0.7340  -0.6853  -0.6410  -0.5847  -0.5229  -0.5111  -0.4964  -0.4878
    -0.4240  -0.3904  -0.3685  -0.2861  -0.2709  -0.1892  -0.0455  -0.0126
     0.1446   0.1938   0.3028   0.3304   0.4213   0.4429   0.5360   0.5391
     0.5730   0.7020   0.7206   0.7382   0.7545   0.7743   0.7982   0.9371
     1.6318   1.6320   1.7034   1.7035   2.0819   3.6720   3.7091   3.7603
     3.7835   3.8948   3.8982   3.9007   3.9088   4.0274   4.0317

     the Fermi energy is     3.3514 ev

!    total energy              =   -2939.12587092 Ry
     estimated scf accuracy    <       0.00000007 Ry
     smearing contrib. (-TS)   =      -0.02048825 Ry
     internal energy E=F+TS    =   -2939.10538267 Ry

     The total energy is F=E-TS. E is the sum of the following terms:
     one-electron contribution =  -24213.32283984 Ry
     hartree contribution      =   12195.40604069 Ry
     xc contribution           =    -485.19455530 Ry
     ewald contribution        =    9564.00440425 Ry
     electric field correction =       0.00156754 Ry

     total magnetization       =     0.08 Bohr mag/cell
     absolute magnetization    =     0.12 Bohr mag/cell

     convergence has been achieved in  67 iterations

     Forces acting on atoms (cartesian axes, Ry/au):

     atom    1 type  1   force =     0.00010104   -0.00021413    0.09580855
     atom    2 type  1   force =     0.00007644   -0.00063470   -0.17550461
     atom    3 type  2   force =     0.00017905   -0.00019333   -0.02299125
     atom    4 type  2   force =     0.00003958   -0.00128617    0.05263133
     atom    5 type  2   force =    -0.00977187   -0.00031486    0.00253698
     atom    6 type  2   force =     0.01165106    0.00022617    0.00291977
     atom    7 type  1   force =     0.00088072    0.00000560   -0.00992448
     atom    8 type  1   force =     0.00000677    0.00530511    0.01812626
     atom    9 type  2   force =    -0.00001803   -0.00028941   -0.00010267
     atom   10 type  2   force =    -0.00253898    0.00216273   -0.01348790
     atom   11 type  2   force =    -0.00098394    0.00011327    0.00018267
     atom   12 type  2   force =     0.00040391   -0.00025172    0.00049581
     atom   13 type  1   force =     0.00010732   -0.00008588    0.00054221
     atom   14 type  1   force =    -0.00004653   -0.00013760   -0.00016266
     atom   15 type  2   force =    -0.00059573    0.00024542    0.00045182
     atom   16 type  2   force =    -0.00043622    0.00007832    0.00019719
     atom   17 type  2   force =    -0.00015687   -0.00008976   -0.00033757
     atom   18 type  2   force =     0.00028558    0.00022242    0.00007681
     atom   19 type  1   force =    -0.00057493   -0.00055339    0.00072676
     atom   20 type  1   force =    -0.00025668    0.00039960   -0.00076709
     atom   21 type  2   force =     0.00006984   -0.00006184    0.10323133
     atom   22 type  2   force =     0.00009890   -0.00005003   -0.00041146
     atom   23 type  2   force =    -0.07153815   -0.00019327   -0.02753174
     atom   24 type  2   force =     0.07151444    0.00030845   -0.02759364
     atom   25 type  1   force =     0.00012099   -0.00027878    0.09518749
     atom   26 type  1   force =     0.00007984   -0.00048216   -0.17566175
     atom   27 type  2   force =     0.00016011   -0.00012089   -0.02174183
     atom   28 type  2   force =     0.00007940   -0.00106131    0.05251278
     atom   29 type  2   force =    -0.01015355    0.00023264    0.00291623
     atom   30 type  2   force =     0.01196928    0.00051929    0.00329258
     atom   31 type  1   force =     0.00088017    0.00414391   -0.01179445
     atom   32 type  1   force =     0.00013552   -0.00634278    0.01826761
     atom   33 type  2   force =     0.00015892    0.00041705   -0.00009939
     atom   34 type  2   force =    -0.00308389   -0.00010662   -0.00866664
     atom   35 type  2   force =    -0.00022133    0.00006349    0.00001708
     atom   36 type  2   force =    -0.00002256    0.00027544   -0.00005957
     atom   37 type  1   force =     0.00044358   -0.00094609    0.00017806
     atom   38 type  1   force =    -0.00032617    0.00009842    0.00034379
     atom   39 type  2   force =     0.00011289   -0.00027498    0.00053679
     atom   40 type  2   force =    -0.00008605    0.00026444    0.00016147
     atom   41 type  2   force =     0.00002076   -0.00014539   -0.00020217
     atom   42 type  2   force =    -0.00044681    0.00013804   -0.00042374
     atom   43 type  1   force =     0.00026139    0.00050958    0.00012510
     atom   44 type  1   force =    -0.00023416   -0.00084739   -0.00089657
     atom   45 type  2   force =     0.00007571   -0.00005980    0.10318670
     atom   46 type  2   force =    -0.07155199   -0.00009272   -0.02752504
     atom   47 type  2   force =     0.07153200    0.00025764   -0.02758792
     atom   48 type  3   force =     0.00063849   -0.00099671    0.00047205
     atom   49 type  4   force =     0.00117634    0.00825592    0.00370666
     atom   50 type  5   force =    -0.00057810   -0.00835870   -0.00489035
     atom   51 type  5   force =    -0.00080694    0.00030152    0.00041078
     atom   52 type  5   force =     0.00031104   -0.00053456   -0.00046855
     atom   53 type  3   force =     0.00085841    0.00046049   -0.00040964

     Total force =     0.364981     Total SCF correction =     0.000406
  @ DRIVER MODE: Message from server: STATUS
  @ DRIVER MODE: Message from server: GETFORCE
  @ DRIVER MODE: Returning v,forces,stress,ensemble

     Writing output data file ./calc.save/
  @ DRIVER MODE: Message from server: EXIT
  @ DRIVE MODE: Exiting

     General routines

     Parallel routines

   This run was terminated on:   2:28:34  16Jul2021

   JOB DONE.