     Program PWSCF v.6.7GPU starts on 16Sep2021 at 14:39:42

     R & G space division:  proc/nbgrp/npool/nimage =      10
     Reading input from /storage/home/hcoda1/3/ntian30/research/carbon/CxH_vib/H2O_calc/ads_slab/CH3NNHHHH2O_a/out_0065/pw.inp
Warning: card &CELL ignored
Warning: card   CELL_DYNAMICS='IPI', ignored
Warning: card / ignored

     Current dimensions of program PWSCF are:
     Max number of different atomic species (ntypx) = 10
     Max number of k-points (npk) =  40000
     Max angular momentum in pseudopotentials (lmaxx) =  3
     Presently no symmetry can be used with electric field

     Message from routine cell_base_init:
     DEPRECATED: use true lattice parameter, not A to a.u. conversion factor

     IMPORTANT: XC functional enforced from input :
     Exchange-correlation= BEEF-VDW
                           (   1   4  43  14   2   0   0)
     Any further DFT definition will be discarded
     Please, verify this is what you really want

  @ DRIVER MODE: Connecting to
 qe_1139763_2852622.sched-torque.pace.gatech.eduudxpavss_scratch
  using UNIX socket
  @ DRIVER MODE: Message from server: STATUS
  @ DRIVER MODE: Message from server: INIT
  @ DRIVER MODE: Receiving replica           0          -1
  @ DRIVER MODE: Receiving encoded integer          25
  @ DRIVER MODE:  SCF:  T  FORCE:  T  STRESS:  F  VC:  F  ENSEMBLE:  F
  @ DRIVER MODE:  SCF:  T  FORCE:  T  STRESS:  F  VC:  F  ENSEMBLE:  F

     Using Slab Decomposition

     bravais-lattice index     =            0
     lattice parameter (alat)  =       1.8897  a.u.
     unit-cell volume          =    6658.9804 (a.u.)^3
     number of atoms/cell      =           59
     number of atomic types    =            5
     number of electrons       =       406.00
     number of Kohn-Sham states=          213
     kinetic-energy cutoff     =      29.3995  Ry
     charge density cutoff     =     293.9946  Ry
     scf convergence threshold =      7.3E-08
     mixing beta               =       0.0500
     number of iterations used =            8  plain     mixing
     Exchange-correlation= BEEF-VDW
                           (   1   4  43  14   2   0   0)

     celldm(1)=   1.889726  celldm(2)=   0.000000  celldm(3)=   0.000000
     celldm(4)=   0.000000  celldm(5)=   0.000000  celldm(6)=   0.000000

     crystal axes: (cart. coord. in units of alat)
               a(1) = (   6.579727   0.000000   0.000000 )
               a(2) = (  -0.000775   5.961596   0.000000 )
               a(3) = (   0.000000   0.000000  25.155947 )

     reciprocal axes: (cart. coord. in units 2 pi/alat)
               b(1) = (  0.151982  0.000020  0.000000 )
               b(2) = (  0.000000  0.167740  0.000000 )
               b(3) = (  0.000000  0.000000  0.039752 )

     PseudoPot. # 1 for Ti read from file:
     /storage/coda1/p-amedford6/0/shared/rich_project_chbe-medford/medford-share/data/pseudos_module/espresso/nninc/pbe/van/Ti.UPF
     MD5 check sum: 8e4df49b7f0d34bbd5052bf3f5ea0213
     Pseudo is Ultrasoft, Zval = 12.0
     Generated by new atomic code, or converted to UPF format
     Using radial grid of  851 points,  6 beta functions with:
                l(1) =   0
                l(2) =   0
                l(3) =   1
                l(4) =   1
                l(5) =   2
                l(6) =   2
     Q(r) pseudized with  8 coefficients,  rinner =    1.000   1.000   1.000
                                                       1.000   1.000

     PseudoPot. # 2 for O  read from file:
     /storage/coda1/p-amedford6/0/shared/rich_project_chbe-medford/medford-share/data/pseudos_module/espresso/nninc/pbe/van/O.UPF
     MD5 check sum: 78c19812648e8988a0fe644b0f25305e
     Pseudo is Ultrasoft, Zval =  6.0
     Generated by new atomic code, or converted to UPF format
     Using radial grid of  737 points,  4 beta functions with:
                l(1) =   0
                l(2) =   0
                l(3) =   1
                l(4) =   1
     Q(r) pseudized with  8 coefficients,  rinner =    0.800   0.800   0.800

     PseudoPot. # 3 for N  read from file:
     /storage/coda1/p-amedford6/0/shared/rich_project_chbe-medford/medford-share/data/pseudos_module/espresso/nninc/pbe/van/N.UPF
     MD5 check sum: 90d10febe142ad51ac9d5be1deb811c4
     Pseudo is Ultrasoft, Zval =  5.0
     Generated by new atomic code, or converted to UPF format
     Using radial grid of  729 points,  4 beta functions with:
                l(1) =   0
                l(2) =   0
                l(3) =   1
                l(4) =   1
     Q(r) pseudized with  8 coefficients,  rinner =    0.800   0.800   0.800

     PseudoPot. # 4 for C  read from file:
     /storage/coda1/p-amedford6/0/shared/rich_project_chbe-medford/medford-share/data/pseudos_module/espresso/nninc/pbe/van/C.UPF
     MD5 check sum: 1a69bf6b8db32088f5b2163dbdb77a27
     Pseudo is Ultrasoft, Zval =  4.0
     Generated by new atomic code, or converted to UPF format
     Using radial grid of  721 points,  4 beta functions with:
                l(1) =   0
                l(2) =   0
                l(3) =   1
                l(4) =   1
     Q(r) pseudized with  8 coefficients,  rinner =    0.800   0.800   0.800

     PseudoPot. # 5 for H  read from file:
     /storage/coda1/p-amedford6/0/shared/rich_project_chbe-medford/medford-share/data/pseudos_module/espresso/nninc/pbe/van/H.UPF
     MD5 check sum: b5ee9d7bfd3a09ee7748110bda690ff7
     Pseudo is Ultrasoft, Zval =  1.0
     Generated by new atomic code, or converted to UPF format
     Using radial grid of  615 points,  1 beta functions with:
                l(1) =   0
     Q(r) pseudized with  8 coefficients,  rinner =    0.800

     atomic species   valence    mass     pseudopotential
        Ti1           12.00    47.86700     Ti( 1.00)
        O1             6.00    15.99900     O ( 1.00)
        N1             5.00    14.00700     N ( 1.00)
        C1             4.00    12.01100     C ( 1.00)
        H1             1.00     1.00800     H ( 1.00)

     No symmetry found

   Cartesian axes

     site n.     atom                  positions (alat units)
         1           Ti1 tau(   1) = (   0.0004258   2.9801865   6.0000000  )
         2           Ti1 tau(   2) = (   3.2906075   1.4906267   6.0002472  )
         3           O1  tau(   3) = (   0.0006271   0.0005054   7.9858123  )
         4           O1  tau(   4) = (   3.2906025   0.0005020   7.3038282  )
         5           O1  tau(   5) = (   4.5942328   1.4918067   9.2879030  )
         6           O1  tau(   6) = (   1.9868534   1.4903216   9.2879459  )
         7           Ti1 tau(   7) = (   3.2907910   2.8959150   9.1758416  )
         8           Ti1 tau(   8) = (   0.0015273   1.4827037   9.2680791  )
         9           O1  tau(   9) = (   3.2800960   5.9426830  11.3808346  )
        10           O1  tau(  10) = (   0.0116148   5.9584955  10.6183126  )
        11           O1  tau(  11) = (   1.2797812   1.4911726  12.6624455  )
        12           O1  tau(  12) = (   5.2824698   1.4871998  12.6412817  )
        13           Ti1 tau(  13) = (   0.0041451   2.9720195  12.5119452  )
        14           Ti1 tau(  14) = (   3.3095611   1.4699318  12.5307708  )
        15           O1  tau(  15) = (   6.5436702   0.0697967  14.6864816  )
        16           O1  tau(  16) = (   3.2812162   5.9597207  14.0300411  )
        17           O1  tau(  17) = (   4.5129646   1.5046642  16.2361130  )
        18           O1  tau(  18) = (   1.9708392   1.5012857  16.1671103  )
        19           Ti1 tau(  19) = (   3.2655272   2.9480959  15.7331506  )
        20           Ti1 tau(  20) = (   6.5674642   1.4497656  15.9937491  )
        21           O1  tau(  21) = (   3.2904802   0.0005063   4.7018136  )
        22           O1  tau(  22) = (   6.5217933   5.8323795  17.2454964  )
        23           O1  tau(  23) = (   1.3043587   1.4918075   6.0039043  )
        24           O1  tau(  24) = (   5.2767064   1.4903225   6.0039473  )
        25           Ti1 tau(  25) = (   0.0000382   5.9609847   6.0000000  )
        26           Ti1 tau(  26) = (   3.2902200   4.4714249   6.0002472  )
        27           O1  tau(  27) = (   0.0002396   2.9813036   7.9858123  )
        28           O1  tau(  28) = (   3.2902150   2.9813002   7.3038282  )
        29           O1  tau(  29) = (   4.5938453   4.4726049   9.2879030  )
        30           O1  tau(  30) = (   1.9864658   4.4711199   9.2879459  )
        31           Ti1 tau(  31) = (   3.2891106   5.8743827   9.1763621  )
        32           Ti1 tau(  32) = (   0.0006254   4.4649316   9.2693709  )
        33           O1  tau(  33) = (   3.2830490   2.9749636  11.3746576  )
        34           O1  tau(  34) = (   0.0092240   2.9805883  10.6323155  )
        35           O1  tau(  35) = (   1.2760807   4.4612897  12.6946019  )
        36           O1  tau(  36) = (   5.2846406   4.4647657  12.6742532  )
        37           Ti1 tau(  37) = (   0.0173662   5.9591775  12.4970172  )
        38           Ti1 tau(  38) = (   3.3070294   4.4569304  12.5379467  )
        39           O1  tau(  39) = (   6.5190077   2.9374781  14.9220565  )
        40           O1  tau(  40) = (   3.2909943   2.9519766  13.9498127  )
        41           O1  tau(  41) = (   4.5146313   4.4149292  16.1460290  )
        42           O1  tau(  42) = (   1.9668235   4.4047650  16.1116202  )
        43           Ti1 tau(  43) = (   3.2426406   5.9218513  15.8539982  )
        44           Ti1 tau(  44) = (   6.5337747   4.6515477  15.8702276  )
        45           O1  tau(  45) = (   3.2900926   2.9813045   4.7018136  )
        46           O1  tau(  46) = (   1.3039711   4.4726057   6.0039043  )
        47           O1  tau(  47) = (   5.2763189   4.4711207   6.0039473  )
        48           N1  tau(  48) = (   1.0802268   3.0592680  18.8437747  )
        49           N1  tau(  49) = (   6.4825355   2.6367244  18.1156036  )
        50           C1  tau(  50) = (   0.7269815   3.7261681  20.0984356  )
        51           H1  tau(  51) = (   0.0344531   4.5672025  19.9493712  )
        52           H1  tau(  52) = (   0.2718923   3.0081313  20.7822053  )
        53           H1  tau(  53) = (   1.6424345   4.1087450  20.5485440  )
        54           H1  tau(  54) = (   5.7152520   3.3097272  18.2274121  )
        55           H1  tau(  55) = (   6.1788988   1.7551022  18.5268573  )
        56           H1  tau(  56) = (   1.5478348   3.7306874  18.2371031  )
        57           O1  tau(  57) = (   3.1661568   0.0027346  18.3937517  )
        58           H1  tau(  58) = (   4.0701885   0.3469208  18.4597374  )
        59           H1  tau(  59) = (   2.5798038   0.7742236  18.5044111  )

     number of k points=    10  Fermi-Dirac smearing, width (Ry)=  0.0073
                       cart. coord. in units 2pi/alat
        k(    1) = (   0.0000000   0.0000000   0.0000000), wk =   0.1250000
        k(    2) = (   0.0000000   0.0419351   0.0000000), wk =   0.2500000
        k(    3) = (   0.0000000  -0.0838702   0.0000000), wk =   0.1250000
        k(    4) = (   0.0379955   0.0000049   0.0000000), wk =   0.2500000
        k(    5) = (   0.0379955   0.0419400   0.0000000), wk =   0.2500000
        k(    6) = (   0.0379955  -0.0838652   0.0000000), wk =   0.2500000
        k(    7) = (   0.0379955  -0.0419301   0.0000000), wk =   0.2500000
        k(    8) = (  -0.0759910  -0.0000099   0.0000000), wk =   0.1250000
        k(    9) = (  -0.0759910   0.0419252   0.0000000), wk =   0.2500000
        k(   10) = (  -0.0759910  -0.0838800   0.0000000), wk =   0.1250000

     Initial potential from superposition of free atoms

     starting charge  389.99912, renormalised to  406.00000

     negative rho (up, down):  1.306E-02 0.000E+00

     %%%%%%%%%%%%%%%%%%%%%%%%%%%%%%%%%%%%%%%%%%%%%%%%%%%%%%%%%%%%%%%%%%%%%%%%
     %                                                                      %
     % You are using vdW-DF, which was implemented by the Thonhauser group. %
     % Please cite the following two papers that made this development      %
     % possible and the two reviews that describe the various versions:     %
     %                                                                      %
     %   T. Thonhauser et al., PRL 115, 136402 (2015).                      %
     %   T. Thonhauser et al., PRB 76, 125112 (2007).                       %
     %   K. Berland et al., Rep. Prog. Phys. 78, 066501 (2015).             %
     %   D.C. Langreth et al., J. Phys.: Condens. Matter 21, 084203 (2009). %
     %                                                                      %
     %                                                                      %
     % If you are calculating the stress with vdW-DF, please also cite:     %
     %                                                                      %
     %   R. Sabatini et al., J. Phys.: Condens. Matter 24, 424209 (2012).   %
     %                                                                      %
     %%%%%%%%%%%%%%%%%%%%%%%%%%%%%%%%%%%%%%%%%%%%%%%%%%%%%%%%%%%%%%%%%%%%%%%%

     Adding external electric field

     Computed dipole along edir(3) :
        Dipole              -16.1150 Ry au,        -40.9603 Debye
        Dipole field         -0.0304 Ry au,

        Potential amp.        2.8191 Ry
        Total length         46.3494 bohr

     Starting wfcs are  308 atomic wfcs
  @ DRIVER MODE: Message from server: STATUS
  @ DRIVER MODE: Message from server: POSDATA
  @ DRIVER MODE: Reading and sharing cell
  @ DRIVER MODE: Reading and sharing positions
  @ DRIVER MODE: Received positions

     Self-consistent Calculation

     iteration #  1     ecut=    29.40 Ry     beta= 0.05
     Davidson diagonalization with overlap
     c_bands:  2 eigenvalues not converged
     c_bands:  3 eigenvalues not converged
     c_bands:  2 eigenvalues not converged
     c_bands:  3 eigenvalues not converged
     c_bands:  4 eigenvalues not converged
     c_bands:  2 eigenvalues not converged
     c_bands:  1 eigenvalues not converged
     c_bands:  5 eigenvalues not converged
     c_bands:  1 eigenvalues not converged
     ethr =  1.00E-05,  avg # of iterations = 23.1

[...]

     total energy              =   -2140.64329946 Ry
     estimated scf accuracy    <    9598.75530123 Ry

     iteration #  2     ecut=    29.40 Ry     beta= 0.05
     Davidson diagonalization with overlap
     ethr =  1.00E-02,  avg # of iterations = 33.6

[...]

     iteration # 69     ecut=    29.40 Ry     beta= 0.05
     Davidson diagonalization with overlap
     c_bands:  1 eigenvalues not converged
     c_bands:  1 eigenvalues not converged
     ethr =  4.02E-11,  avg # of iterations = 14.8

[...]

     total energy              =   -2977.70011608 Ry
     estimated scf accuracy    <       0.00000017 Ry

     iteration # 70     ecut=    29.40 Ry     beta= 0.05
     Davidson diagonalization with overlap
     ethr =  4.02E-11,  avg # of iterations = 11.6

     negative rho (up, down):  1.407E-02 0.000E+00

     Adding external electric field

     Computed dipole along edir(3) :
        Dipole                1.3342 Ry au,          3.3913 Debye
        Dipole field          0.0025 Ry au,

        Potential amp.       -0.2334 Ry
        Total length         46.3494 bohr

     End of self-consistent calculation

          k = 0.0000 0.0000 0.0000 ( 18029 PWs)   bands (ev):

   -55.1221 -55.0854 -55.0781 -55.0440 -55.0378 -55.0327 -55.0012 -54.9653
   -54.9469 -54.9121 -54.9083 -54.8916 -54.8747 -54.8404 -54.1077 -54.0736
   -31.6839 -31.5974 -31.5706 -31.4903 -31.4360 -31.4333 -31.4197 -31.4139
   -31.3669 -31.3440 -31.3336 -31.3227 -31.3157 -31.3133 -31.2949 -31.2865
   -31.2664 -31.2636 -31.2614 -31.2431 -31.2307 -31.2210 -31.2036 -31.1989
   -31.1920 -31.1800 -31.1770 -31.1478 -31.1354 -31.1320 -31.1272 -31.1069
   -31.1040 -31.0964 -31.0930 -31.0693 -31.0603 -31.0437 -31.0363 -31.0342
   -31.0194 -31.0178 -30.5171 -30.4228 -30.4008 -30.3335 -30.2467 -30.1358
   -18.8062 -17.8171 -15.9531 -15.6977 -15.5611 -15.4600 -15.3255 -15.2191
   -15.1378 -15.0237 -14.9739 -14.8583 -14.8262 -14.8215 -14.7831 -14.7508
   -14.7021 -14.6635 -14.6613 -14.6387 -14.6196 -14.6117 -14.5688 -14.5621
   -14.5229 -14.5206 -14.5007 -14.3643 -14.2829 -14.2130 -14.0302 -13.1996
   -12.6104 -12.4930  -9.7747  -6.5422  -6.4014  -5.4479  -4.9179  -3.5304
    -3.2864  -3.1419  -3.0883  -3.0525  -3.0184  -2.9566  -2.8840  -2.7997
    -2.6518  -2.5840  -2.5590  -2.4067  -2.3328  -2.3228  -2.2666  -2.1666
    -2.1419  -2.0953  -2.0529  -1.9884  -1.9511  -1.9277  -1.9059  -1.8709
    -1.8667  -1.8128  -1.7589  -1.6899  -1.6001  -1.5687  -1.5227  -1.4792
    -1.4570  -1.4544  -1.4143  -1.4078  -1.3965  -1.3531  -1.3465  -1.3165
    -1.2704  -1.1610  -1.0107  -0.9487  -0.8582  -0.7645  -0.7380  -0.7135
    -0.6933  -0.6311  -0.6088  -0.5789  -0.5042  -0.4556  -0.3764  -0.3291
    -0.3073  -0.2279  -0.1232  -0.1060  -0.0985  -0.0106   0.0815   0.0945
     0.1090   0.1187   0.2167   0.2820   0.3158   0.3573   0.4217   0.4308
     0.4890   0.5176   0.5692   0.6356   0.6684   0.7479   0.7874   0.8082
     0.8136   0.8360   0.8571   0.8686   0.9490   0.9575   0.9830   1.0717
     1.1761   1.3305   1.4765   1.4872   1.8206   1.8217   1.9150   2.0986
     2.4912   2.5395   3.9723   4.0480   4.1065   4.1174   4.1231   4.2080
     4.4572   4.4749   4.4864   4.4879   4.5233

[...]

          k = 0.0380-0.0419 0.0000 ( 17876 PWs)   bands (ev):

[...]

          k =-0.0760-0.0000 0.0000 ( 17886 PWs)   bands (ev):

[...]

          k =-0.0760-0.0839 0.0000 ( 17948 PWs)   bands (ev):

   -55.1076 -55.0996 -55.0612 -55.0608 -55.0351 -55.0316 -54.9884 -54.9781
   -54.9324 -54.9261 -54.8935 -54.8923 -54.8909 -54.8421 -54.0906 -54.0906
   -31.5128 -31.4936 -31.4838 -31.3858 -31.3856 -31.3799 -31.3734 -31.3522
   -31.3520 -31.3315 -31.3264 -31.3208 -31.3112 -31.2920 -31.2788 -31.2643
   -31.2599 -31.2587 -31.2551 -31.2488 -31.2468 -31.2430 -31.2308 -31.2298
   -31.2009 -31.1998 -31.1826 -31.1809 -31.1806 -31.1719 -31.1715 -31.1656
   -31.1572 -31.1448 -31.1393 -31.1237 -31.1221 -31.1058 -31.0724 -31.0716
   -31.0705 -31.0466 -30.4134 -30.4134 -30.3297 -30.3295 -30.2902 -30.2901
   -18.8047 -17.8137 -15.5329 -15.3946 -15.2554 -15.1518 -15.1369 -15.0833
   -15.0342 -14.9922 -14.9509 -14.9065 -14.8965 -14.8783 -14.8509 -14.8231
   -14.7989 -14.7395 -14.7230 -14.7074 -14.6852 -14.6385 -14.6307 -14.6278
   -14.6207 -14.5746 -14.5720 -14.5468 -14.4784 -14.4763 -14.2893 -13.2016
   -12.5945 -12.5943  -9.7716  -6.5925  -6.3251  -5.4450  -4.9287  -3.5035
    -2.9475  -2.8143  -2.6566  -2.6205  -2.4752  -2.3746  -2.3295  -2.3011
    -2.2475  -2.2018  -2.1418  -2.1267  -2.1083  -2.0497  -2.0237  -2.0054
    -1.9741  -1.9552  -1.9414  -1.9226  -1.9054  -1.8773  -1.8512  -1.8426
    -1.8380  -1.8089  -1.7931  -1.7536  -1.7468  -1.7392  -1.6957  -1.6840
    -1.6576  -1.6016  -1.4936  -1.4833  -1.3310  -1.3286  -1.2938  -1.2489
    -1.2286  -1.2189  -1.1585  -1.1505  -1.1383  -0.9019  -0.8752  -0.8652
    -0.8377  -0.7790  -0.7621  -0.6995  -0.6902  -0.6057  -0.5918  -0.4894
    -0.4737  -0.4165  -0.3339  -0.3256  -0.3139  -0.2018  -0.1530  -0.1155
    -0.0890  -0.0788  -0.0613  -0.0235  -0.0233   0.0666   0.1099   0.1403
     0.1555   0.1854   0.3502   0.3985   0.4078   0.5469   0.5605   0.7090
     0.7716   0.7864   0.8765   0.8945   0.9821   0.9917   1.0313   1.1709
     1.1824   1.2058   1.2528   1.2812   1.3330   1.3382   2.2713   2.2726
     2.3594   2.3596   4.1047   4.2300   4.2363   4.2970   4.4064   4.4399
     4.4856   4.5193   4.5570   4.5598   4.6303

     the Fermi energy is     4.0343 ev

!    total energy              =   -2977.70014324 Ry
     estimated scf accuracy    <       0.00000005 Ry
     smearing contrib. (-TS)   =      -0.03674678 Ry
     internal energy E=F+TS    =   -2977.66339646 Ry

     The total energy is F=E-TS. E is the sum of the following terms:
     one-electron contribution =  -23083.32563889 Ry
     hartree contribution      =   11640.78113238 Ry
     xc contribution           =    -496.62272508 Ry
     ewald contribution        =    8961.50047575 Ry
     electric field correction =       0.00335938 Ry

     convergence has been achieved in  70 iterations

     Forces acting on atoms (cartesian axes, Ry/au):

     atom    1 type  1   force =     0.00018015   -0.00018671    0.09314257
     atom    2 type  1   force =    -0.00010008   -0.00033573   -0.17817952
     atom    3 type  2   force =     0.00002123   -0.00018458   -0.02036472
     atom    4 type  2   force =    -0.00002540   -0.00200570    0.05897858
     atom    5 type  2   force =    -0.01060066   -0.00141664    0.00860668
     atom    6 type  2   force =     0.01186693   -0.00069967    0.00714011
     atom    7 type  1   force =    -0.00089341    0.00312956   -0.01228181
     atom    8 type  1   force =     0.00054689    0.00112872   -0.00449452
     atom    9 type  2   force =    -0.00007356   -0.00037145    0.00014276
     atom   10 type  2   force =    -0.00129548   -0.00051574   -0.00196132
     atom   11 type  2   force =    -0.00021554   -0.00020874   -0.00006426
     atom   12 type  2   force =     0.00060606   -0.00006782   -0.00024786
     atom   13 type  1   force =    -0.00102977   -0.00063180    0.00022023
     atom   14 type  1   force =     0.00011605   -0.00004783    0.00016760
     atom   15 type  2   force =    -0.00028408   -0.00051382   -0.00007725
     atom   16 type  2   force =    -0.00000160   -0.00007376    0.00066813
     atom   17 type  2   force =    -0.00030511    0.00014557    0.00067330
     atom   18 type  2   force =     0.00023040    0.00006051    0.00025421
     atom   19 type  1   force =     0.00011524    0.00010913    0.00056870
     atom   20 type  1   force =    -0.00007650   -0.00019459    0.00031772
     atom   21 type  2   force =     0.00007318   -0.00001848    0.10395716
     atom   22 type  2   force =     0.00000164   -0.00021281   -0.00115353
     atom   23 type  2   force =    -0.07039306   -0.00011160   -0.02687664
     atom   24 type  2   force =     0.07027080    0.00033571   -0.02691973
     atom   25 type  1   force =     0.00000306   -0.00021995    0.09279986
     atom   26 type  1   force =    -0.00019865   -0.00036621   -0.17829567
     atom   27 type  2   force =     0.00010431   -0.00028299   -0.01932764
     atom   28 type  2   force =     0.00003790   -0.00162500    0.05805743
     atom   29 type  2   force =    -0.01068151   -0.00080462    0.00800410
     atom   30 type  2   force =     0.01180098   -0.00047702    0.00652924
     atom   31 type  1   force =    -0.00072888    0.00505375   -0.01491005
     atom   32 type  1   force =     0.00040193   -0.00139661   -0.00477357
     atom   33 type  2   force =    -0.00011125    0.00021535    0.00029306
     atom   34 type  2   force =    -0.00128944    0.00141185   -0.00091188
     atom   35 type  2   force =     0.00019850    0.00013050    0.00001383
     atom   36 type  2   force =     0.00011663   -0.00001882   -0.00012214
     atom   37 type  1   force =    -0.00103643    0.00055707    0.00004929
     atom   38 type  1   force =     0.00014943   -0.00014650   -0.00004469
     atom   39 type  2   force =    -0.00004798   -0.00015856    0.00007914
     atom   40 type  2   force =    -0.00020075    0.00020581    0.00025497
     atom   41 type  2   force =    -0.00001895   -0.00011314    0.00041574
     atom   42 type  2   force =    -0.00012769   -0.00006897   -0.00000596
     atom   43 type  1   force =    -0.00014365    0.00019019    0.00018013
     atom   44 type  1   force =    -0.00004970    0.00021129   -0.00032457
     atom   45 type  2   force =     0.00003961   -0.00005053    0.10395357
     atom   46 type  2   force =    -0.07038632   -0.00005336   -0.02690585
     atom   47 type  2   force =     0.07029781    0.00037410   -0.02693881
     atom   48 type  3   force =     0.00007891    0.00016936   -0.00038519
     atom   49 type  3   force =    -0.00086998   -0.00032776    0.00018247
     atom   50 type  4   force =     0.00067354    0.00039085   -0.00045890
     atom   51 type  5   force =     0.00012969   -0.00028678    0.00009481
     atom   52 type  5   force =     0.00033723   -0.00060629    0.00048690
     atom   53 type  5   force =     0.00059368    0.00010019   -0.00020904
     atom   54 type  5   force =     0.00080024   -0.00024781   -0.00025147
     atom   55 type  5   force =     0.00040988    0.00085699    0.00003862
     atom   56 type  5   force =     0.00006712    0.00031580    0.00021170
     atom   57 type  2   force =    -0.00167629   -0.00009293   -0.00096052
     atom   58 type  5   force =     0.00210420    0.00033862    0.00061551
     atom   59 type  5   force =     0.00048849   -0.00028959    0.00034897

     Total force =     0.366059     Total SCF correction =     0.000546
  @ DRIVER MODE: Message from server: STATUS
  @ DRIVER MODE: Message from server: GETFORCE
  @ DRIVER MODE: Returning v,forces,stress,ensemble

     Writing output data file ./calc.save/
  @ DRIVER MODE: Message from server: EXIT
  @ DRIVE MODE: Exiting

     General routines

     Parallel routines

   This run was terminated on:  15: 0: 9  16Sep2021

   JOB DONE.