     Program PWSCF v.6.7GPU starts on 15Sep2021 at 12:22:26

     R & G space division:  proc/nbgrp/npool/nimage =      10
     Reading input from /storage/home/hcoda1/3/ntian30/research/carbon/CxH_vib/CH_calc/ads_slab/CHOH_d/out_0011/pw.inp
Warning: card &CELL ignored
Warning: card   CELL_DYNAMICS='IPI', ignored
Warning: card / ignored

     Current dimensions of program PWSCF are:
     Max number of different atomic species (ntypx) = 10
     Max number of k-points (npk) =  40000
     Max angular momentum in pseudopotentials (lmaxx) =  3
     Presently no symmetry can be used with electric field

     Message from routine cell_base_init:
     DEPRECATED: use true lattice parameter, not A to a.u. conversion factor

     IMPORTANT: XC functional enforced from input :
     Exchange-correlation= BEEF-VDW
                           (   1   4  43  14   2   0   0)
     Any further DFT definition will be discarded
     Please, verify this is what you really want

  @ DRIVER MODE: Connecting to
 qe_1139763_2850204.sched-torque.pace.gatech.eduok4f5v08_scratch
  using UNIX socket
  @ DRIVER MODE: Message from server: STATUS
  @ DRIVER MODE: Message from server: INIT
  @ DRIVER MODE: Receiving replica           0          -1
  @ DRIVER MODE: Receiving encoded integer          25
  @ DRIVER MODE:  SCF:  T  FORCE:  T  STRESS:  F  VC:  F  ENSEMBLE:  F
  @ DRIVER MODE:  SCF:  T  FORCE:  T  STRESS:  F  VC:  F  ENSEMBLE:  F

     Using Slab Decomposition

     bravais-lattice index     =            0
     lattice parameter (alat)  =       1.8897  a.u.
     unit-cell volume          =    6658.9804 (a.u.)^3
     number of atoms/cell      =           51
     number of atomic types    =            4
     number of electrons       =       390.00
     number of Kohn-Sham states=          205
     kinetic-energy cutoff     =      29.3995  Ry
     charge density cutoff     =     293.9946  Ry
     scf convergence threshold =      7.3E-08
     mixing beta               =       0.0500
     number of iterations used =            8  plain     mixing
     Exchange-correlation= BEEF-VDW
                           (   1   4  43  14   2   0   0)

     celldm(1)=   1.889726  celldm(2)=   0.000000  celldm(3)=   0.000000
     celldm(4)=   0.000000  celldm(5)=   0.000000  celldm(6)=   0.000000

     crystal axes: (cart. coord. in units of alat)
               a(1) = (   6.579727   0.000000   0.000000 )
               a(2) = (  -0.000775   5.961596   0.000000 )
               a(3) = (   0.000000   0.000000  25.155947 )

     reciprocal axes: (cart. coord. in units 2 pi/alat)
               b(1) = (  0.151982  0.000020  0.000000 )
               b(2) = (  0.000000  0.167740  0.000000 )
               b(3) = (  0.000000  0.000000  0.039752 )

     PseudoPot. # 1 for Ti read from file:
     /storage/coda1/p-amedford6/0/shared/rich_project_chbe-medford/medford-share/data/pseudos_module/espresso/nninc/pbe/van/Ti.UPF
     MD5 check sum: 8e4df49b7f0d34bbd5052bf3f5ea0213
     Pseudo is Ultrasoft, Zval = 12.0
     Generated by new atomic code, or converted to UPF format
     Using radial grid of  851 points,  6 beta functions with:
                l(1) =   0
                l(2) =   0
                l(3) =   1
                l(4) =   1
                l(5) =   2
                l(6) =   2
     Q(r) pseudized with  8 coefficients,  rinner =    1.000   1.000   1.000
                                                       1.000   1.000

     PseudoPot. # 2 for O  read from file:
     /storage/coda1/p-amedford6/0/shared/rich_project_chbe-medford/medford-share/data/pseudos_module/espresso/nninc/pbe/van/O.UPF
     MD5 check sum: 78c19812648e8988a0fe644b0f25305e
     Pseudo is Ultrasoft, Zval =  6.0
     Generated by new atomic code, or converted to UPF format
     Using radial grid of  737 points,  4 beta functions with:
                l(1) =   0
                l(2) =   0
                l(3) =   1
                l(4) =   1
     Q(r) pseudized with  8 coefficients,  rinner =    0.800   0.800   0.800

     PseudoPot. # 3 for C  read from file:
     /storage/coda1/p-amedford6/0/shared/rich_project_chbe-medford/medford-share/data/pseudos_module/espresso/nninc/pbe/van/C.UPF
     MD5 check sum: 1a69bf6b8db32088f5b2163dbdb77a27
     Pseudo is Ultrasoft, Zval =  4.0
     Generated by new atomic code, or converted to UPF format
     Using radial grid of  721 points,  4 beta functions with:
                l(1) =   0
                l(2) =   0
                l(3) =   1
                l(4) =   1
     Q(r) pseudized with  8 coefficients,  rinner =    0.800   0.800   0.800

     PseudoPot. # 4 for H  read from file:
     /storage/coda1/p-amedford6/0/shared/rich_project_chbe-medford/medford-share/data/pseudos_module/espresso/nninc/pbe/van/H.UPF
     MD5 check sum: b5ee9d7bfd3a09ee7748110bda690ff7
     Pseudo is Ultrasoft, Zval =  1.0
     Generated by new atomic code, or converted to UPF format
     Using radial grid of  615 points,  1 beta functions with:
                l(1) =   0
     Q(r) pseudized with  8 coefficients,  rinner =    0.800

     atomic species   valence    mass     pseudopotential
        Ti1           12.00    47.86700     Ti( 1.00)
        O1             6.00    15.99900     O ( 1.00)
        C1             4.00    12.01100     C ( 1.00)
        H1             1.00     1.00800     H ( 1.00)

     No symmetry found

   Cartesian axes

     site n.     atom                  positions (alat units)
         1           Ti1 tau(   1) = (   0.0004258   2.9801865   6.0000000  )
         2           Ti1 tau(   2) = (   3.2906075   1.4906267   6.0002472  )
         3           O1  tau(   3) = (   0.0006271   0.0005054   7.9858123  )
         4           O1  tau(   4) = (   3.2906025   0.0005020   7.3038282  )
         5           O1  tau(   5) = (   4.5942328   1.4918067   9.2879030  )
         6           O1  tau(   6) = (   1.9868534   1.4903216   9.2879459  )
         7           Ti1 tau(   7) = (   3.2907309   2.9776765   9.1658812  )
         8           Ti1 tau(   8) = (   0.0000975   1.4630848   9.2758602  )
         9           O1  tau(   9) = (   3.2992614   5.9483050  11.3479409  )
        10           O1  tau(  10) = (   0.0007063   5.9515697  10.5933799  )
        11           O1  tau(  11) = (   1.2886368   1.4758772  12.6169360  )
        12           O1  tau(  12) = (   5.2821765   1.4725572  12.6321404  )
        13           Ti1 tau(  13) = (   0.0439011   2.9969894  12.8193871  )
        14           Ti1 tau(  14) = (   3.3815342   1.4778063  12.4828959  )
        15           O1  tau(  15) = (   0.0352585   5.9375929  14.6168471  )
        16           O1  tau(  16) = (   3.2809659   0.0029960  13.9351646  )
        17           O1  tau(  17) = (   4.5639172   1.5021510  16.0678584  )
        18           O1  tau(  18) = (   2.0588050   1.5241738  16.1323679  )
        19           Ti1 tau(  19) = (   3.3289217   2.9983165  15.7225387  )
        20           Ti1 tau(  20) = (   0.0567091   1.5532474  16.1006893  )
        21           O1  tau(  21) = (   3.2904802   0.0005063   4.7018136  )
        22           O1  tau(  22) = (   0.0083150   5.8936170  17.2391820  )
        23           O1  tau(  23) = (   1.3043587   1.4918075   6.0039043  )
        24           O1  tau(  24) = (   5.2767064   1.4903225   6.0039473  )
        25           Ti1 tau(  25) = (   0.0000382   5.9609847   6.0000000  )
        26           Ti1 tau(  26) = (   3.2902200   4.4714249   6.0002472  )
        27           O1  tau(  27) = (   0.0002396   2.9813036   7.9858123  )
        28           O1  tau(  28) = (   3.2902150   2.9813002   7.3038282  )
        29           O1  tau(  29) = (   4.5938453   4.4726049   9.2879030  )
        30           O1  tau(  30) = (   1.9864658   4.4711199   9.2879459  )
        31           Ti1 tau(  31) = (   3.2906741   5.9584693   9.1623309  )
        32           Ti1 tau(  32) = (   0.0020182   4.4105903   9.4029630  )
        33           O1  tau(  33) = (   3.2963946   2.9714859  11.3431964  )
        34           O1  tau(  34) = (  -0.0003580   2.9688738  10.5596877  )
        35           O1  tau(  35) = (   1.2880207   4.4560207  12.6239755  )
        36           O1  tau(  36) = (   5.2744328   4.4398676  12.6388197  )
        37           Ti1 tau(  37) = (   0.0843456   0.0234473  12.6131129  )
        38           Ti1 tau(  38) = (   3.3736736   4.4543396  12.4891683  )
        39           O1  tau(  39) = (   0.0394168   2.9432389  14.6713939  )
        40           O1  tau(  40) = (   3.2833495   2.9670780  13.9230463  )
        41           O1  tau(  41) = (   4.5592427   4.4833083  16.0293399  )
        42           O1  tau(  42) = (   2.0780377   4.4655606  16.1075158  )
        43           Ti1 tau(  43) = (   3.3267552   0.0098278  15.7307941  )
        44           Ti1 tau(  44) = (   0.0353388   4.6693566  15.9825682  )
        45           O1  tau(  45) = (   3.2900926   2.9813045   4.7018136  )
        46           C1  tau(  46) = (   6.5364748   2.8130622  17.7364117  )
        47           O1  tau(  47) = (   1.3039711   4.4726057   6.0039043  )
        48           O1  tau(  48) = (   5.2763189   4.4711207   6.0039473  )
        49           H1  tau(  49) = (   0.8622447   3.0922372  18.2794884  )
        50           O1  tau(  50) = (   5.4077661   2.9637287  18.5068037  )
        51           H1  tau(  51) = (   5.6109787   3.4346953  19.3318178  )

     number of k points=    10  Fermi-Dirac smearing, width (Ry)=  0.0073
                       cart. coord. in units 2pi/alat
        k(    1) = (   0.0000000   0.0000000   0.0000000), wk =   0.1250000
        k(    2) = (   0.0000000   0.0419351   0.0000000), wk =   0.2500000
        k(    3) = (   0.0000000  -0.0838702   0.0000000), wk =   0.1250000
        k(    4) = (   0.0379955   0.0000049   0.0000000), wk =   0.2500000
        k(    5) = (   0.0379955   0.0419400   0.0000000), wk =   0.2500000
        k(    6) = (   0.0379955  -0.0838652   0.0000000), wk =   0.2500000
        k(    7) = (   0.0379955  -0.0419301   0.0000000), wk =   0.2500000
        k(    8) = (  -0.0759910  -0.0000099   0.0000000), wk =   0.1250000
        k(    9) = (  -0.0759910   0.0419252   0.0000000), wk =   0.2500000
        k(   10) = (  -0.0759910  -0.0838800   0.0000000), wk =   0.1250000

     Initial potential from superposition of free atoms

     starting charge  373.99919, renormalised to  390.00000

     negative rho (up, down):  1.919E-02 0.000E+00

     %%%%%%%%%%%%%%%%%%%%%%%%%%%%%%%%%%%%%%%%%%%%%%%%%%%%%%%%%%%%%%%%%%%%%%%%
     %                                                                      %
     % You are using vdW-DF, which was implemented by the Thonhauser group. %
     % Please cite the following two papers that made this development      %
     % possible and the two reviews that describe the various versions:     %
     %                                                                      %
     %   T. Thonhauser et al., PRL 115, 136402 (2015).                      %
     %   T. Thonhauser et al., PRB 76, 125112 (2007).                       %
     %   K. Berland et al., Rep. Prog. Phys. 78, 066501 (2015).             %
     %   D.C. Langreth et al., J. Phys.: Condens. Matter 21, 084203 (2009). %
     %                                                                      %
     %                                                                      %
     % If you are calculating the stress with vdW-DF, please also cite:     %
     %                                                                      %
     %   R. Sabatini et al., J. Phys.: Condens. Matter 24, 424209 (2012).   %
     %                                                                      %
     %%%%%%%%%%%%%%%%%%%%%%%%%%%%%%%%%%%%%%%%%%%%%%%%%%%%%%%%%%%%%%%%%%%%%%%%

     Adding external electric field

     Computed dipole along edir(3) :
        Dipole               -4.8486 Ry au,        -12.3240 Debye
        Dipole field         -0.0091 Ry au,

        Potential amp.        0.8482 Ry
        Total length         46.3494 bohr

     Starting wfcs are  294 atomic wfcs
  @ DRIVER MODE: Message from server: STATUS
  @ DRIVER MODE: Message from server: POSDATA
  @ DRIVER MODE: Reading and sharing cell
  @ DRIVER MODE: Reading and sharing positions
  @ DRIVER MODE: Received positions

     Self-consistent Calculation

     iteration #  1     ecut=    29.40 Ry     beta= 0.05
     Davidson diagonalization with overlap
     c_bands:  4 eigenvalues not converged
     c_bands:  3 eigenvalues not converged
     c_bands:  3 eigenvalues not converged
     c_bands:  2 eigenvalues not converged
     c_bands:  2 eigenvalues not converged
     c_bands:  2 eigenvalues not converged
     c_bands:  1 eigenvalues not converged
     ethr =  1.00E-05,  avg # of iterations = 19.3

[...]

     total energy              =   -2871.32066276 Ry
     estimated scf accuracy    <     672.92061590 Ry

     iteration #  2     ecut=    29.40 Ry     beta= 0.05
     Davidson diagonalization with overlap
     ethr =  1.00E-02,  avg # of iterations = 15.5

[...]

     iteration # 58     ecut=    29.40 Ry     beta= 0.05
     Davidson diagonalization with overlap
     c_bands:  1 eigenvalues not converged
     ethr =  2.01E-07,  avg # of iterations = 14.8

[...]

     total energy              =   -2930.03908636 Ry
     estimated scf accuracy    <       0.00000008 Ry

     iteration # 83     ecut=    29.40 Ry     beta= 0.05
     Davidson diagonalization with overlap
     ethr =  2.09E-11,  avg # of iterations =  8.2

     negative rho (up, down):  1.868E-02 0.000E+00

     Adding external electric field

     Computed dipole along edir(3) :
        Dipole                0.8319 Ry au,          2.1145 Debye
        Dipole field          0.0016 Ry au,

        Potential amp.       -0.1455 Ry
        Total length         46.3494 bohr

     End of self-consistent calculation

          k = 0.0000 0.0000 0.0000 ( 18029 PWs)   bands (ev):

   -56.0432 -56.0075 -55.9852 -55.9489 -55.9057 -55.8368 -55.8361 -55.7467
   -55.7307 -55.7046 -55.6966 -55.5673 -55.1259 -55.0467 -54.9800 -54.9459
   -32.5380 -32.4939 -32.3472 -32.3217 -32.3062 -32.3034 -32.2906 -32.2308
   -32.2127 -32.2020 -32.2010 -32.1850 -32.1673 -32.1572 -32.1350 -32.1292
   -32.1207 -32.1189 -32.1177 -32.0491 -32.0223 -32.0151 -31.9947 -31.9771
   -31.9633 -31.9563 -31.9548 -31.9486 -31.9184 -31.9145 -31.8733 -31.8680
   -31.8259 -31.7810 -31.7641 -31.7553 -31.6132 -31.4959 -31.4123 -31.3900
   -31.3874 -31.2967 -31.2738 -31.2041 -31.1803 -31.1180 -31.0792 -31.0070
   -19.4341 -16.6933 -16.3834 -16.2266 -16.0780 -16.0728 -15.9691 -15.6998
   -15.6387 -15.5251 -15.5172 -15.5096 -15.4809 -15.4725 -15.4535 -15.4351
   -15.4107 -15.3969 -15.3893 -15.3494 -15.3015 -15.2230 -15.2020 -15.1480
   -15.1061 -15.1023 -15.0664 -14.9198 -14.9055 -14.5939 -13.4807 -13.3639
    -8.8110  -5.9122  -4.0613  -3.9037  -3.8734  -3.8562  -3.7371  -3.5043
    -3.4415  -3.1558  -3.1094  -3.1031  -3.0969  -3.0163  -2.9475  -2.8661
    -2.8002  -2.7550  -2.7264  -2.7206  -2.7147  -2.7113  -2.6721  -2.6418
    -2.5666  -2.5190  -2.4396  -2.3929  -2.3698  -2.3419  -2.3397  -2.3019
    -2.2178  -2.2121  -2.1623  -2.1544  -2.0877  -2.0715  -2.0382  -1.9754
    -1.8059  -1.7699  -1.7326  -1.6890  -1.6290  -1.4128  -1.3912  -1.3823
    -1.3552  -1.3235  -1.2716  -1.2575  -1.1295  -1.0945  -1.0435  -1.0177
    -0.9473  -0.9237  -0.8322  -0.8102  -0.7558  -0.7408  -0.6988  -0.6836
    -0.6350  -0.4487  -0.3982  -0.3562  -0.3226  -0.2827  -0.2316  -0.2290
    -0.1676  -0.1231  -0.1127  -0.1028  -0.0103   0.0174   0.0320   0.0504
     0.0572   0.1562   0.1689   0.2380   0.2984   0.4720   0.4757   0.6123
     0.6474   0.6723   0.7066   0.8339   0.9617   1.0433   1.1766   1.2257
     1.6326   1.6996   2.8954   3.1811   3.2630   3.3216   3.3418   3.4198
     3.5724   3.6282   3.6651   3.6885   3.7253

[...]

          k = 0.0380-0.0419 0.0000 ( 17876 PWs)   bands (ev):

[...]

          k =-0.0760-0.0000 0.0000 ( 17886 PWs)   bands (ev):

[...]

          k =-0.0760-0.0839 0.0000 ( 17948 PWs)   bands (ev):

   -56.0310 -56.0196 -55.9688 -55.9651 -55.9011 -55.8405 -55.8335 -55.7498
   -55.7147 -55.7122 -55.7026 -55.5694 -55.1224 -55.0500 -54.9634 -54.9624
   -32.3423 -32.3396 -32.3166 -32.3116 -32.3049 -32.2964 -32.2762 -32.2441
   -32.1959 -32.1927 -32.1893 -32.1678 -32.1639 -32.1595 -32.1581 -32.1275
   -32.1179 -32.1005 -32.0688 -32.0508 -32.0450 -32.0275 -32.0270 -32.0204
   -32.0067 -31.9752 -31.9656 -31.9622 -31.9611 -31.9226 -31.9121 -31.9092
   -31.8885 -31.8793 -31.7941 -31.7704 -31.5332 -31.4944 -31.4086 -31.3922
   -31.2871 -31.2860 -31.2672 -31.2007 -31.2001 -31.1615 -31.1607 -31.0829
   -19.4335 -16.1372 -16.1225 -15.8730 -15.8655 -15.7872 -15.7511 -15.6791
   -15.6778 -15.6614 -15.6428 -15.6131 -15.5755 -15.5343 -15.5149 -15.5005
   -15.4752 -15.4695 -15.4501 -15.4060 -15.3958 -15.2631 -15.2529 -15.2471
   -15.2436 -15.2098 -15.1595 -15.1275 -15.0783 -14.6933 -13.4662 -13.4648
    -8.8175  -5.9205  -3.4309  -3.4159  -3.0989  -3.0937  -3.0269  -2.9902
    -2.9121  -2.8926  -2.8334  -2.8172  -2.7939  -2.7930  -2.7851  -2.7611
    -2.7042  -2.6894  -2.6859  -2.6498  -2.6297  -2.5959  -2.5674  -2.5577
    -2.5366  -2.5347  -2.4987  -2.4815  -2.4730  -2.4604  -2.4471  -2.4403
    -2.3039  -2.1979  -2.1728  -2.1280  -2.0505  -2.0455  -2.0316  -2.0070
    -1.9725  -1.9589  -1.9251  -1.8455  -1.6886  -1.6749  -1.6518  -1.6148
    -1.5092  -1.4667  -1.3744  -1.3019  -1.2523  -1.2192  -1.1734  -1.1593
    -1.1456  -1.1125  -1.0654  -0.9938  -0.9573  -0.9401  -0.9285  -0.9044
    -0.8162  -0.7886  -0.7674  -0.7355  -0.7065  -0.6059  -0.5751  -0.5407
    -0.5112  -0.4757  -0.4201  -0.3935  -0.2922  -0.2909   0.0485   0.0662
     0.0822   0.1375   0.2081   0.3064   0.3375   0.3834   0.4798   0.5138
     0.5687   0.6020   0.6210   0.6742   0.6934   0.7071   1.4111   1.4117
     1.4927   1.4998   3.0914   3.4336   3.4614   3.4886   3.5317   3.6575
     3.6721   3.6787   3.6970   3.8924   3.9286

     the Fermi energy is     3.1165 ev

!    total energy              =   -2930.03909061 Ry
     estimated scf accuracy    <       0.00000005 Ry
     smearing contrib. (-TS)   =      -0.02063303 Ry
     internal energy E=F+TS    =   -2930.01845758 Ry

     The total energy is F=E-TS. E is the sum of the following terms:
     one-electron contribution =  -24524.16700161 Ry
     hartree contribution      =   12347.11030890 Ry
     xc contribution           =    -481.12456364 Ry
     ewald contribution        =    9728.16149277 Ry
     electric field correction =       0.00130600 Ry

     convergence has been achieved in  83 iterations

     Forces acting on atoms (cartesian axes, Ry/au):

     atom    1 type  1   force =    -0.00006511    0.00195292    0.12134817
     atom    2 type  1   force =    -0.00015403    0.00019928   -0.17637480
     atom    3 type  2   force =    -0.00008516    0.00550796   -0.04188983
     atom    4 type  2   force =     0.00009697    0.00023425    0.04679049
     atom    5 type  2   force =    -0.02224628   -0.00182982    0.00393276
     atom    6 type  2   force =     0.02249634   -0.00138912    0.00398654
     atom    7 type  1   force =    -0.00063918    0.00238290   -0.00662711
     atom    8 type  1   force =     0.00068732   -0.00171443    0.00448669
     atom    9 type  2   force =     0.00005742    0.00035018   -0.00023899
     atom   10 type  2   force =     0.00006120    0.00101512    0.00004520
     atom   11 type  2   force =     0.00028744    0.00130907   -0.00033791
     atom   12 type  2   force =     0.00022268    0.00130264   -0.00065018
     atom   13 type  1   force =     0.00012993   -0.00012831   -0.00032570
     atom   14 type  1   force =     0.00002660    0.00011055    0.00067846
     atom   15 type  2   force =     0.00002630   -0.00068253   -0.00027855
     atom   16 type  2   force =     0.00021500   -0.00012426    0.00192588
     atom   17 type  2   force =    -0.00103841    0.00033602   -0.00028930
     atom   18 type  2   force =     0.00057758    0.00022318   -0.00018910
     atom   19 type  1   force =    -0.00005685   -0.00108668   -0.00060722
     atom   20 type  1   force =    -0.00064193   -0.00034117   -0.00013496
     atom   21 type  2   force =     0.00002755    0.00004497    0.10349405
     atom   22 type  2   force =    -0.00026225    0.00069016   -0.00018904
     atom   23 type  2   force =    -0.06993897    0.00048347   -0.03150767
     atom   24 type  2   force =     0.06985585    0.00093149   -0.03151385
     atom   25 type  1   force =     0.00027369   -0.00189689    0.12781104
     atom   26 type  1   force =    -0.00017710   -0.00059840   -0.17577647
     atom   27 type  2   force =    -0.00004176   -0.00351997   -0.03804549
     atom   28 type  2   force =     0.00004999   -0.00033300    0.04765752
     atom   29 type  2   force =    -0.02393651   -0.00045979    0.00448683
     atom   30 type  2   force =     0.02412776    0.00012021    0.00466702
     atom   31 type  1   force =    -0.00084181   -0.00334779   -0.00585369
     atom   32 type  1   force =    -0.00001292   -0.00002204   -0.00082717
     atom   33 type  2   force =     0.00006197   -0.00016272    0.00029646
     atom   34 type  2   force =     0.00005909   -0.00063154   -0.00011000
     atom   35 type  2   force =    -0.00015656   -0.00021511   -0.00018775
     atom   36 type  2   force =     0.00068770    0.00019005   -0.00065825
     atom   37 type  1   force =     0.00071007   -0.00039933    0.00128365
     atom   38 type  1   force =    -0.00005816   -0.00032208    0.00039440
     atom   39 type  2   force =     0.00010288   -0.00033733   -0.00064199
     atom   40 type  2   force =     0.00017883    0.00050841    0.00151930
     atom   41 type  2   force =    -0.00026713   -0.00022085   -0.00018747
     atom   42 type  2   force =    -0.00018225   -0.00028266    0.00000386
     atom   43 type  1   force =    -0.00053767    0.00027690   -0.00091528
     atom   44 type  1   force =    -0.00062923    0.00083954   -0.00067156
     atom   45 type  2   force =     0.00004931    0.00011768    0.10352969
     atom   46 type  3   force =    -0.00431038   -0.00118991   -0.00331033
     atom   47 type  2   force =    -0.07044455   -0.00082687   -0.03147163
     atom   48 type  2   force =     0.07038189   -0.00036206   -0.03153010
     atom   49 type  4   force =     0.00354154    0.00184787    0.00347195
     atom   50 type  2   force =     0.00138351    0.00089234    0.00035727
     atom   51 type  4   force =     0.00034781    0.00055751   -0.00082586

     Total force =     0.385114     Total SCF correction =     0.000685
  @ DRIVER MODE: Message from server: STATUS
  @ DRIVER MODE: Message from server: GETFORCE
  @ DRIVER MODE: Returning v,forces,stress,ensemble

     Writing output data file ./calc.save/
  @ DRIVER MODE: Message from server: EXIT
  @ DRIVE MODE: Exiting

     General routines

     Parallel routines

   This run was terminated on:  12:43:28  15Sep2021

   JOB DONE.