     Program PWSCF v.6.7GPU starts on 15Sep2021 at 19: 2:46

     R & G space division:  proc/nbgrp/npool/nimage =      10
     Reading input from /storage/home/hcoda1/3/ntian30/research/carbon/CxH_vib/H2O_calc/ads_slab/CHN2H2O_c/out_0011/pw.inp
Warning: card &CELL ignored
Warning: card   CELL_DYNAMICS='IPI', ignored
Warning: card / ignored

     Current dimensions of program PWSCF are:
     Max number of different atomic species (ntypx) = 10
     Max number of k-points (npk) =  40000
     Max angular momentum in pseudopotentials (lmaxx) =  3
     Presently no symmetry can be used with electric field

     Message from routine cell_base_init:
     DEPRECATED: use true lattice parameter, not A to a.u. conversion factor

     IMPORTANT: XC functional enforced from input :
     Exchange-correlation= BEEF-VDW
                           (   1   4  43  14   2   0   0)
     Any further DFT definition will be discarded
     Please, verify this is what you really want

  @ DRIVER MODE: Connecting to
 qe_1139763_2852625.sched-torque.pace.gatech.edufa116xdc_scratch
  using UNIX socket
  @ DRIVER MODE: Message from server: STATUS
  @ DRIVER MODE: Message from server: INIT
  @ DRIVER MODE: Receiving replica           0          -1
  @ DRIVER MODE: Receiving encoded integer          25
  @ DRIVER MODE:  SCF:  T  FORCE:  T  STRESS:  F  VC:  F  ENSEMBLE:  F
  @ DRIVER MODE:  SCF:  T  FORCE:  T  STRESS:  F  VC:  F  ENSEMBLE:  F

     Using Slab Decomposition

     bravais-lattice index     =            0
     lattice parameter (alat)  =       1.8897  a.u.
     unit-cell volume          =    6658.9804 (a.u.)^3
     number of atoms/cell      =           54
     number of atomic types    =            5
     number of electrons       =       401.00
     number of Kohn-Sham states=          210
     kinetic-energy cutoff     =      29.3995  Ry
     charge density cutoff     =     293.9946  Ry
     scf convergence threshold =      7.3E-08
     mixing beta               =       0.0500
     number of iterations used =            8  plain     mixing
     Exchange-correlation= BEEF-VDW
                           (   1   4  43  14   2   0   0)

     celldm(1)=   1.889726  celldm(2)=   0.000000  celldm(3)=   0.000000
     celldm(4)=   0.000000  celldm(5)=   0.000000  celldm(6)=   0.000000

     crystal axes: (cart. coord. in units of alat)
               a(1) = (   6.579727   0.000000   0.000000 )
               a(2) = (  -0.000775   5.961596   0.000000 )
               a(3) = (   0.000000   0.000000  25.155947 )

     reciprocal axes: (cart. coord. in units 2 pi/alat)
               b(1) = (  0.151982  0.000020  0.000000 )
               b(2) = (  0.000000  0.167740  0.000000 )
               b(3) = (  0.000000  0.000000  0.039752 )

     PseudoPot. # 1 for Ti read from file:
     /storage/coda1/p-amedford6/0/shared/rich_project_chbe-medford/medford-share/data/pseudos_module/espresso/nninc/pbe/van/Ti.UPF
     MD5 check sum: 8e4df49b7f0d34bbd5052bf3f5ea0213
     Pseudo is Ultrasoft, Zval = 12.0
     Generated by new atomic code, or converted to UPF format
     Using radial grid of  851 points,  6 beta functions with:
                l(1) =   0
                l(2) =   0
                l(3) =   1
                l(4) =   1
                l(5) =   2
                l(6) =   2
     Q(r) pseudized with  8 coefficients,  rinner =    1.000   1.000   1.000
                                                       1.000   1.000

     PseudoPot. # 2 for O  read from file:
     /storage/coda1/p-amedford6/0/shared/rich_project_chbe-medford/medford-share/data/pseudos_module/espresso/nninc/pbe/van/O.UPF
     MD5 check sum: 78c19812648e8988a0fe644b0f25305e
     Pseudo is Ultrasoft, Zval =  6.0
     Generated by new atomic code, or converted to UPF format
     Using radial grid of  737 points,  4 beta functions with:
                l(1) =   0
                l(2) =   0
                l(3) =   1
                l(4) =   1
     Q(r) pseudized with  8 coefficients,  rinner =    0.800   0.800   0.800

     PseudoPot. # 3 for C  read from file:
     /storage/coda1/p-amedford6/0/shared/rich_project_chbe-medford/medford-share/data/pseudos_module/espresso/nninc/pbe/van/C.UPF
     MD5 check sum: 1a69bf6b8db32088f5b2163dbdb77a27
     Pseudo is Ultrasoft, Zval =  4.0
     Generated by new atomic code, or converted to UPF format
     Using radial grid of  721 points,  4 beta functions with:
                l(1) =   0
                l(2) =   0
                l(3) =   1
                l(4) =   1
     Q(r) pseudized with  8 coefficients,  rinner =    0.800   0.800   0.800

     PseudoPot. # 4 for H  read from file:
     /storage/coda1/p-amedford6/0/shared/rich_project_chbe-medford/medford-share/data/pseudos_module/espresso/nninc/pbe/van/H.UPF
     MD5 check sum: b5ee9d7bfd3a09ee7748110bda690ff7
     Pseudo is Ultrasoft, Zval =  1.0
     Generated by new atomic code, or converted to UPF format
     Using radial grid of  615 points,  1 beta functions with:
                l(1) =   0
     Q(r) pseudized with  8 coefficients,  rinner =    0.800

     PseudoPot. # 5 for N  read from file:
     /storage/coda1/p-amedford6/0/shared/rich_project_chbe-medford/medford-share/data/pseudos_module/espresso/nninc/pbe/van/N.UPF
     MD5 check sum: 90d10febe142ad51ac9d5be1deb811c4
     Pseudo is Ultrasoft, Zval =  5.0
     Generated by new atomic code, or converted to UPF format
     Using radial grid of  729 points,  4 beta functions with:
                l(1) =   0
                l(2) =   0
                l(3) =   1
                l(4) =   1
     Q(r) pseudized with  8 coefficients,  rinner =    0.800   0.800   0.800

     atomic species   valence    mass     pseudopotential
        Ti1           12.00    47.86700     Ti( 1.00)
        O1             6.00    15.99900     O ( 1.00)
        C1             4.00    12.01100     C ( 1.00)
        H1             1.00     1.00800     H ( 1.00)
        N1             5.00    14.00700     N ( 1.00)

     No symmetry found

   Cartesian axes

     site n.     atom                  positions (alat units)
         1           Ti1 tau(   1) = (   0.0004258   2.9801865   6.0000000  )
         2           Ti1 tau(   2) = (   3.2906075   1.4906267   6.0002472  )
         3           O1  tau(   3) = (   0.0006271   0.0005054   7.9858123  )
         4           O1  tau(   4) = (   3.2906025   0.0005020   7.3038282  )
         5           O1  tau(   5) = (   4.5942328   1.4918067   9.2879030  )
         6           O1  tau(   6) = (   1.9868534   1.4903216   9.2879459  )
         7           Ti1 tau(   7) = (   3.2907910   2.8959150   9.1758416  )
         8           Ti1 tau(   8) = (   0.0015273   1.4827037   9.2680791  )
         9           O1  tau(   9) = (   3.2982821   5.9591942  11.3418950  )
        10           O1  tau(  10) = (   0.0116148   5.9584955  10.6183126  )
        11           O1  tau(  11) = (   1.2990089   1.4837789  12.6285733  )
        12           O1  tau(  12) = (   5.2904647   1.4888503  12.6163117  )
        13           Ti1 tau(  13) = (   0.0603338   2.9457994  12.6026339  )
        14           Ti1 tau(  14) = (   3.3706290   1.4705258  12.5092779  )
        15           O1  tau(  15) = (   6.5788109   0.0160518  14.6499261  )
        16           O1  tau(  16) = (   3.3158691   0.0087694  13.9605792  )
        17           O1  tau(  17) = (   4.5613999   1.5213109  16.0555727  )
        18           O1  tau(  18) = (   2.0390476   1.5587733  16.0026688  )
        19           Ti1 tau(  19) = (   3.2958454   3.0042652  15.6812246  )
        20           Ti1 tau(  20) = (   0.0477533   1.5223793  15.8108347  )
        21           O1  tau(  21) = (   3.2904802   0.0005063   4.7018136  )
        22           O1  tau(  22) = (   0.0778492   0.0082781  17.2116806  )
        23           O1  tau(  23) = (   1.3043587   1.4918075   6.0039043  )
        24           O1  tau(  24) = (   5.2767064   1.4903225   6.0039473  )
        25           Ti1 tau(  25) = (   0.0000382   5.9609847   6.0000000  )
        26           Ti1 tau(  26) = (   3.2902200   4.4714249   6.0002472  )
        27           O1  tau(  27) = (   0.0002396   2.9813036   7.9858123  )
        28           O1  tau(  28) = (   3.2902150   2.9813002   7.3038282  )
        29           O1  tau(  29) = (   4.5938453   4.4726049   9.2879030  )
        30           O1  tau(  30) = (   1.9864658   4.4711199   9.2879459  )
        31           Ti1 tau(  31) = (   3.2891106   5.8743827   9.1763621  )
        32           Ti1 tau(  32) = (   0.0006254   4.4649316   9.2693709  )
        33           O1  tau(  33) = (   3.3003553   2.9806904  11.3444413  )
        34           O1  tau(  34) = (   0.0092240   2.9805883  10.6323155  )
        35           O1  tau(  35) = (   1.2971990   4.4717445  12.6361083  )
        36           O1  tau(  36) = (   5.2938362   4.4783115  12.6231241  )
        37           Ti1 tau(  37) = (   0.0537182   5.9220384  12.5388396  )
        38           Ti1 tau(  38) = (   3.3696634   4.4695314  12.5002334  )
        39           O1  tau(  39) = (   0.0023790   2.9538485  14.6690360  )
        40           O1  tau(  40) = (   3.3142834   2.9899978  13.8932647  )
        41           O1  tau(  41) = (   4.5682027   4.4688565  16.0600133  )
        42           O1  tau(  42) = (   2.0418658   4.4415600  16.0251682  )
        43           Ti1 tau(  43) = (   3.3511655   0.0130708  15.8150828  )
        44           Ti1 tau(  44) = (   0.0311020   4.6533438  16.0685068  )
        45           O1  tau(  45) = (   3.2900926   2.9813045   4.7018136  )
        46           O1  tau(  46) = (   1.3039711   4.4726057   6.0039043  )
        47           O1  tau(  47) = (   5.2763189   4.4711207   6.0039473  )
        48           C1  tau(  48) = (   0.0453995   2.9433715  17.6444507  )
        49           H1  tau(  49) = (   0.9770157   2.9292850  18.1972415  )
        50           N1  tau(  50) = (   5.5932985   2.7872967  18.4085793  )
        51           N1  tau(  51) = (   4.6087457   2.6299947  18.9712495  )
        52           O1  tau(  52) = (   3.0556172   5.9408547  18.1262901  )
        53           H1  tau(  53) = (   3.4776725   0.7204629  18.5958315  )
        54           H1  tau(  54) = (   2.0935776   0.0631959  18.2589326  )

     number of k points=    10  Fermi-Dirac smearing, width (Ry)=  0.0073
                       cart. coord. in units 2pi/alat
        k(    1) = (   0.0000000   0.0000000   0.0000000), wk =   0.1250000
        k(    2) = (   0.0000000   0.0419351   0.0000000), wk =   0.2500000
        k(    3) = (   0.0000000  -0.0838702   0.0000000), wk =   0.1250000
        k(    4) = (   0.0379955   0.0000049   0.0000000), wk =   0.2500000
        k(    5) = (   0.0379955   0.0419400   0.0000000), wk =   0.2500000
        k(    6) = (   0.0379955  -0.0838652   0.0000000), wk =   0.2500000
        k(    7) = (   0.0379955  -0.0419301   0.0000000), wk =   0.2500000
        k(    8) = (  -0.0759910  -0.0000099   0.0000000), wk =   0.1250000
        k(    9) = (  -0.0759910   0.0419252   0.0000000), wk =   0.2500000
        k(   10) = (  -0.0759910  -0.0838800   0.0000000), wk =   0.1250000

     Initial potential from superposition of free atoms

     starting charge  384.99916, renormalised to  401.00000

     negative rho (up, down):  1.776E-02 0.000E+00

     %%%%%%%%%%%%%%%%%%%%%%%%%%%%%%%%%%%%%%%%%%%%%%%%%%%%%%%%%%%%%%%%%%%%%%%%
     %                                                                      %
     % You are using vdW-DF, which was implemented by the Thonhauser group. %
     % Please cite the following two papers that made this development      %
     % possible and the two reviews that describe the various versions:     %
     %                                                                      %
     %   T. Thonhauser et al., PRL 115, 136402 (2015).                      %
     %   T. Thonhauser et al., PRB 76, 125112 (2007).                       %
     %   K. Berland et al., Rep. Prog. Phys. 78, 066501 (2015).             %
     %   D.C. Langreth et al., J. Phys.: Condens. Matter 21, 084203 (2009). %
     %                                                                      %
     %                                                                      %
     % If you are calculating the stress with vdW-DF, please also cite:     %
     %                                                                      %
     %   R. Sabatini et al., J. Phys.: Condens. Matter 24, 424209 (2012).   %
     %                                                                      %
     %%%%%%%%%%%%%%%%%%%%%%%%%%%%%%%%%%%%%%%%%%%%%%%%%%%%%%%%%%%%%%%%%%%%%%%%

     Adding external electric field

     Computed dipole along edir(3) :
        Dipole              -11.5976 Ry au,        -29.4781 Debye
        Dipole field         -0.0219 Ry au,

        Potential amp.        2.0288 Ry
        Total length         46.3494 bohr

     Starting wfcs are  303 atomic wfcs
  @ DRIVER MODE: Message from server: STATUS
  @ DRIVER MODE: Message from server: POSDATA
  @ DRIVER MODE: Reading and sharing cell
  @ DRIVER MODE: Reading and sharing positions
  @ DRIVER MODE: Received positions

     Self-consistent Calculation

     iteration #  1     ecut=    29.40 Ry     beta= 0.05
     Davidson diagonalization with overlap
     c_bands:  3 eigenvalues not converged
     c_bands:  1 eigenvalues not converged
     c_bands:  3 eigenvalues not converged
     c_bands:  3 eigenvalues not converged
     c_bands:  5 eigenvalues not converged
     c_bands:  2 eigenvalues not converged
     c_bands:  3 eigenvalues not converged
     c_bands:  1 eigenvalues not converged
     c_bands:  5 eigenvalues not converged
     ethr =  1.00E-05,  avg # of iterations = 23.5

[...]

     total energy              =   -2415.40931673 Ry
     estimated scf accuracy    <    6267.14084809 Ry

     iteration #  2     ecut=    29.40 Ry     beta= 0.05
     Davidson diagonalization with overlap
     ethr =  1.00E-02,  avg # of iterations = 31.7

[...]

     iteration # 74     ecut=    29.40 Ry     beta= 0.05
     Davidson diagonalization with overlap
     c_bands:  2 eigenvalues not converged
     ethr =  1.25E-10,  avg # of iterations = 15.9

[...]

     total energy              =   -2971.50212036 Ry
     estimated scf accuracy    <       0.00000047 Ry

     iteration # 77     ecut=    29.40 Ry     beta= 0.05
     Davidson diagonalization with overlap
     ethr =  1.18E-10,  avg # of iterations =  5.4

     negative rho (up, down):  1.756E-02 0.000E+00

     Adding external electric field

     Computed dipole along edir(3) :
        Dipole                0.5768 Ry au,          1.4660 Debye
        Dipole field          0.0011 Ry au,

        Potential amp.       -0.1009 Ry
        Total length         46.3494 bohr

     End of self-consistent calculation

          k = 0.0000 0.0000 0.0000 ( 18029 PWs)   bands (ev):

   -55.8816 -55.8475 -55.8471 -55.8417 -55.8105 -55.7247 -55.6957 -55.6873
   -55.6619 -55.6616 -55.6520 -55.6281 -55.4125 -55.2212 -54.8635 -54.8294
   -32.3897 -32.3652 -32.2473 -32.2199 -32.1945 -32.1740 -32.1518 -32.1451
   -32.1253 -32.0729 -32.0678 -32.0655 -32.0339 -32.0274 -32.0224 -31.9965
   -31.9871 -31.9792 -31.9721 -31.9444 -31.9388 -31.9212 -31.8994 -31.8892
   -31.8864 -31.8746 -31.8740 -31.8602 -31.8530 -31.8487 -31.8377 -31.8346
   -31.8299 -31.8256 -31.8151 -31.8032 -31.7738 -31.6612 -31.6273 -31.4814
   -31.4658 -31.4339 -31.2706 -31.1821 -31.1597 -31.0875 -31.0010 -30.8898
   -20.5011 -18.7851 -16.5842 -16.3541 -16.1300 -16.0392 -15.9940 -15.7840
   -15.6749 -15.6194 -15.4955 -15.4318 -15.4235 -15.4161 -15.3951 -15.3849
   -15.3286 -15.3184 -15.3058 -15.3001 -15.2722 -15.2353 -15.2197 -15.2183
   -15.1465 -15.0435 -15.0226 -14.9995 -14.9972 -14.9394 -14.4982 -13.6086
   -13.3652 -13.2487  -6.6247  -5.8607  -4.7102  -4.4892  -3.9580  -3.8241
    -3.7888  -3.7523  -3.7166  -3.5215  -3.4902  -3.3781  -3.2310  -3.1312
    -3.0619  -3.0274  -2.9727  -2.8961  -2.8274  -2.7653  -2.7296  -2.6874
    -2.6782  -2.6425  -2.6359  -2.6179  -2.5978  -2.4978  -2.4624  -2.4141
    -2.3492  -2.2472  -2.2270  -2.1956  -2.1900  -2.1547  -2.1471  -2.1258
    -2.1086  -2.0990  -2.0236  -1.9275  -1.8780  -1.7853  -1.6733  -1.5356
    -1.5323  -1.4885  -1.3607  -1.3473  -1.3174  -1.2906  -1.2754  -1.2324
    -1.1437  -1.0871  -1.0411  -0.9779  -0.9047  -0.8155  -0.7732  -0.7219
    -0.6576  -0.6409  -0.6329  -0.6142  -0.5763  -0.4688  -0.4457  -0.3683
    -0.3662  -0.2808  -0.2492  -0.1893  -0.1587  -0.1206  -0.0818  -0.0080
     0.0122   0.0378   0.0550   0.0824   0.0907   0.1326   0.1654   0.1700
     0.3654   0.3911   0.4503   0.4600   0.5225   0.6411   0.6596   0.7736
     0.8906   1.0862   1.1594   1.2525   1.3510   1.7307   1.7765   1.7829
     3.2418   3.3395   3.3780   3.3871   3.4746   3.4861   3.7029   3.7489
     3.7566   3.8120

[...]

          k = 0.0380-0.0419 0.0000 ( 17876 PWs)   bands (ev):

[...]

          k =-0.0760-0.0000 0.0000 ( 17886 PWs)   bands (ev):

[...]

          k =-0.0760-0.0839 0.0000 ( 17948 PWs)   bands (ev):

   -55.8650 -55.8640 -55.8405 -55.8316 -55.8253 -55.7135 -55.6986 -55.6790
   -55.6778 -55.6534 -55.6469 -55.6433 -55.4111 -55.2225 -54.8465 -54.8463
   -32.2066 -32.1844 -32.1808 -32.1802 -32.1598 -32.1589 -32.1313 -32.1044
   -32.0918 -32.0643 -32.0563 -32.0516 -32.0382 -32.0078 -32.0000 -31.9933
   -31.9856 -31.9852 -31.9845 -31.9832 -31.9815 -31.9791 -31.9601 -31.9271
   -31.9148 -31.9100 -31.9021 -31.8809 -31.8803 -31.8768 -31.8696 -31.8622
   -31.8583 -31.8544 -31.8518 -31.8493 -31.7849 -31.6645 -31.6206 -31.5382
   -31.4837 -31.4570 -31.1725 -31.1723 -31.0835 -31.0833 -31.0443 -31.0442
   -20.5004 -18.7842 -16.0449 -15.9285 -15.8471 -15.8064 -15.7384 -15.7021
   -15.6552 -15.5906 -15.5607 -15.5574 -15.5026 -15.4867 -15.4461 -15.4319
   -15.4075 -15.4010 -15.3851 -15.3370 -15.3250 -15.3166 -15.3077 -15.3040
   -15.2633 -15.2290 -15.2040 -15.1996 -15.0934 -14.9623 -14.6730 -13.6174
   -13.3506 -13.3503  -6.6225  -5.8555  -4.6701  -4.4631  -3.6298  -3.3301
    -3.3209  -3.1049  -3.0481  -2.9925  -2.9848  -2.9415  -2.8188  -2.7912
    -2.7426  -2.7344  -2.6956  -2.6902  -2.6852  -2.6656  -2.6321  -2.6127
    -2.6075  -2.5566  -2.5509  -2.5439  -2.5263  -2.5156  -2.5083  -2.4837
    -2.4571  -2.4412  -2.4243  -2.3949  -2.3118  -2.2812  -2.1137  -2.0724
    -2.0248  -2.0164  -1.9852  -1.9645  -1.9527  -1.9314  -1.8877  -1.7303
    -1.6524  -1.5851  -1.5746  -1.5649  -1.4901  -1.4736  -1.3622  -1.3250
    -1.2921  -1.2578  -1.1833  -1.1053  -1.0971  -1.0754  -0.9710  -0.9635
    -0.9297  -0.8862  -0.8477  -0.8367  -0.8280  -0.7503  -0.6945  -0.6227
    -0.6165  -0.5923  -0.5792  -0.5528  -0.5277  -0.4339  -0.3667  -0.3104
    -0.2768  -0.1887  -0.1597   0.0629   0.0884   0.1948   0.2082   0.2759
     0.3172   0.4257   0.4338   0.4820   0.5050   0.5315   0.5920   0.6579
     0.6678   0.6949   0.8128   1.5225   1.5238   1.5962   1.5965   1.6970
     3.5611   3.5927   3.6253   3.6351   3.7448   3.7653   3.7853   3.7878
     3.9038   3.9244

     the Fermi energy is     3.2496 ev

!    total energy              =   -2971.50213100 Ry
     estimated scf accuracy    <       0.00000007 Ry
     smearing contrib. (-TS)   =      -0.02120679 Ry
     internal energy E=F+TS    =   -2971.48092421 Ry

     The total energy is F=E-TS. E is the sum of the following terms:
     one-electron contribution =  -24214.43871040 Ry
     hartree contribution      =   12197.88772517 Ry
     xc contribution           =    -492.39868068 Ry
     ewald contribution        =    9537.46811395 Ry
     electric field correction =       0.00062775 Ry

     convergence has been achieved in  77 iterations

     Forces acting on atoms (cartesian axes, Ry/au):

     atom    1 type  1   force =     0.00019292   -0.00029771    0.09585666
     atom    2 type  1   force =    -0.00004665   -0.00048088   -0.17574303
     atom    3 type  2   force =     0.00007078   -0.00014182   -0.02407294
     atom    4 type  2   force =     0.00006009   -0.00155741    0.05356837
     atom    5 type  2   force =    -0.01130642   -0.00085002    0.00336597
     atom    6 type  2   force =     0.01317794   -0.00018780    0.00285613
     atom    7 type  1   force =    -0.00059673    0.00052814   -0.00601600
     atom    8 type  1   force =     0.00022312    0.00884300    0.02326741
     atom    9 type  2   force =    -0.00020708    0.00014013   -0.00008403
     atom   10 type  2   force =    -0.00060045    0.00120072   -0.01590416
     atom   11 type  2   force =    -0.00018440    0.00013943   -0.00003740
     atom   12 type  2   force =    -0.00019720   -0.00007615   -0.00016765
     atom   13 type  1   force =    -0.00000027    0.00057544    0.00021886
     atom   14 type  1   force =    -0.00005480    0.00003131   -0.00001660
     atom   15 type  2   force =    -0.00026434   -0.00013954   -0.00010087
     atom   16 type  2   force =    -0.00022559    0.00024054   -0.00009577
     atom   17 type  2   force =    -0.00034937   -0.00004742    0.00012025
     atom   18 type  2   force =    -0.00048421    0.00025709   -0.00001375
     atom   19 type  1   force =    -0.00000592   -0.00035129   -0.00017460
     atom   20 type  1   force =    -0.00038750   -0.00037776    0.00002493
     atom   21 type  2   force =     0.00006362   -0.00004386    0.10327548
     atom   22 type  2   force =     0.00021920    0.00018410   -0.00019774
     atom   23 type  2   force =    -0.07145060   -0.00011969   -0.02768353
     atom   24 type  2   force =     0.07143509    0.00030427   -0.02771563
     atom   25 type  1   force =     0.00002593   -0.00023639    0.09563494
     atom   26 type  1   force =    -0.00015240   -0.00036498   -0.17589997
     atom   27 type  2   force =     0.00010125   -0.00019891   -0.02308100
     atom   28 type  2   force =     0.00012554   -0.00121797    0.05308013
     atom   29 type  2   force =    -0.01155476    0.00062446    0.00328250
     atom   30 type  2   force =     0.01329463    0.00093102    0.00278506
     atom   31 type  1   force =    -0.00046807    0.00377999   -0.01061348
     atom   32 type  1   force =     0.00008411   -0.01103081    0.02367459
     atom   33 type  2   force =     0.00011454   -0.00003395    0.00003301
     atom   34 type  2   force =     0.00007792    0.00062405   -0.02083424
     atom   35 type  2   force =    -0.00019415   -0.00022290    0.00000516
     atom   36 type  2   force =    -0.00038885    0.00001524   -0.00009368
     atom   37 type  1   force =     0.00032528   -0.00052611   -0.00002085
     atom   38 type  1   force =     0.00001799   -0.00000292   -0.00018819
     atom   39 type  2   force =    -0.00032679    0.00000854   -0.00000169
     atom   40 type  2   force =     0.00003150   -0.00015457   -0.00028742
     atom   41 type  2   force =    -0.00038479   -0.00017711   -0.00003734
     atom   42 type  2   force =     0.00004243   -0.00009258   -0.00000977
     atom   43 type  1   force =     0.00034629   -0.00043408   -0.00007133
     atom   44 type  1   force =    -0.00035622   -0.00031363    0.00018913
     atom   45 type  2   force =     0.00006431   -0.00008262    0.10326425
     atom   46 type  2   force =    -0.07146122   -0.00010512   -0.02770709
     atom   47 type  2   force =     0.07146213    0.00033119   -0.02773309
     atom   48 type  3   force =    -0.00581422    0.00017715   -0.00355864
     atom   49 type  4   force =     0.00497798    0.00002033    0.00430334
     atom   50 type  5   force =     0.00239281    0.00058049   -0.00022029
     atom   51 type  5   force =    -0.00125085    0.00018617   -0.00010542
     atom   52 type  2   force =    -0.00062167   -0.00004241   -0.00022122
     atom   53 type  4   force =     0.00022217    0.00007988    0.00051829
     atom   54 type  4   force =     0.00018593    0.00010573   -0.00061607

     Total force =     0.367010     Total SCF correction =     0.000715
  @ DRIVER MODE: Message from server: STATUS
  @ DRIVER MODE: Message from server: GETFORCE
  @ DRIVER MODE: Returning v,forces,stress,ensemble

     Writing output data file ./calc.save/
  @ DRIVER MODE: Message from server: EXIT
  @ DRIVE MODE: Exiting

     General routines

     Parallel routines

   This run was terminated on:  19:22:58  15Sep2021

   JOB DONE.