     Program PWSCF v.6.7GPU starts on  9Sep2021 at  0:33:55

     R & G space division:  proc/nbgrp/npool/nimage =      10
     Reading input from /storage/home/hcoda1/3/ntian30/research/carbon/CxH_vib/CH_calc/ads_slab/CHO_a/out_0009/pw.inp
Warning: card &CELL ignored
Warning: card   CELL_DYNAMICS='IPI', ignored
Warning: card / ignored

     Current dimensions of program PWSCF are:
     Max number of different atomic species (ntypx) = 10
     Max number of k-points (npk) =  40000
     Max angular momentum in pseudopotentials (lmaxx) =  3
     Presently no symmetry can be used with electric field

     Message from routine cell_base_init:
     DEPRECATED: use true lattice parameter, not A to a.u. conversion factor

     IMPORTANT: XC functional enforced from input :
     Exchange-correlation= BEEF-VDW
                           (   1   4  43  14   2   0   0)
     Any further DFT definition will be discarded
     Please, verify this is what you really want

  @ DRIVER MODE: Connecting to
 qe_1139763_2767379.sched-torque.pace.gatech.edufbog9_vi_scratch
  using UNIX socket
  @ DRIVER MODE: Message from server: STATUS
  @ DRIVER MODE: Message from server: INIT
  @ DRIVER MODE: Receiving replica           0          -1
  @ DRIVER MODE: Receiving encoded integer          25
  @ DRIVER MODE:  SCF:  T  FORCE:  T  STRESS:  F  VC:  F  ENSEMBLE:  F
  @ DRIVER MODE:  SCF:  T  FORCE:  T  STRESS:  F  VC:  F  ENSEMBLE:  F

     Using Slab Decomposition

     bravais-lattice index     =            0
     lattice parameter (alat)  =       1.8897  a.u.
     unit-cell volume          =    6658.9804 (a.u.)^3
     number of atoms/cell      =           50
     number of atomic types    =            4
     number of electrons       =       389.00
     number of Kohn-Sham states=          204
     kinetic-energy cutoff     =      29.3995  Ry
     charge density cutoff     =     293.9946  Ry
     scf convergence threshold =      7.3E-08
     mixing beta               =       0.0500
     number of iterations used =            8  plain     mixing
     Exchange-correlation= BEEF-VDW
                           (   1   4  43  14   2   0   0)

     celldm(1)=   1.889726  celldm(2)=   0.000000  celldm(3)=   0.000000
     celldm(4)=   0.000000  celldm(5)=   0.000000  celldm(6)=   0.000000

     crystal axes: (cart. coord. in units of alat)
               a(1) = (   6.579727   0.000000   0.000000 )
               a(2) = (  -0.000775   5.961596   0.000000 )
               a(3) = (   0.000000   0.000000  25.155947 )

     reciprocal axes: (cart. coord. in units 2 pi/alat)
               b(1) = (  0.151982  0.000020  0.000000 )
               b(2) = (  0.000000  0.167740  0.000000 )
               b(3) = (  0.000000  0.000000  0.039752 )

     PseudoPot. # 1 for O  read from file:
     /storage/coda1/p-amedford6/0/shared/rich_project_chbe-medford/medford-share/data/pseudos_module/espresso/nninc/pbe/van/O.UPF
     MD5 check sum: 78c19812648e8988a0fe644b0f25305e
     Pseudo is Ultrasoft, Zval =  6.0
     Generated by new atomic code, or converted to UPF format
     Using radial grid of  737 points,  4 beta functions with:
                l(1) =   0
                l(2) =   0
                l(3) =   1
                l(4) =   1
     Q(r) pseudized with  8 coefficients,  rinner =    0.800   0.800   0.800

     PseudoPot. # 2 for Ti read from file:
     /storage/coda1/p-amedford6/0/shared/rich_project_chbe-medford/medford-share/data/pseudos_module/espresso/nninc/pbe/van/Ti.UPF
     MD5 check sum: 8e4df49b7f0d34bbd5052bf3f5ea0213
     Pseudo is Ultrasoft, Zval = 12.0
     Generated by new atomic code, or converted to UPF format
     Using radial grid of  851 points,  6 beta functions with:
                l(1) =   0
                l(2) =   0
                l(3) =   1
                l(4) =   1
                l(5) =   2
                l(6) =   2
     Q(r) pseudized with  8 coefficients,  rinner =    1.000   1.000   1.000
                                                       1.000   1.000

     PseudoPot. # 3 for C  read from file:
     /storage/coda1/p-amedford6/0/shared/rich_project_chbe-medford/medford-share/data/pseudos_module/espresso/nninc/pbe/van/C.UPF
     MD5 check sum: 1a69bf6b8db32088f5b2163dbdb77a27
     Pseudo is Ultrasoft, Zval =  4.0
     Generated by new atomic code, or converted to UPF format
     Using radial grid of  721 points,  4 beta functions with:
                l(1) =   0
                l(2) =   0
                l(3) =   1
                l(4) =   1
     Q(r) pseudized with  8 coefficients,  rinner =    0.800   0.800   0.800

     PseudoPot. # 4 for H  read from file:
     /storage/coda1/p-amedford6/0/shared/rich_project_chbe-medford/medford-share/data/pseudos_module/espresso/nninc/pbe/van/H.UPF
     MD5 check sum: b5ee9d7bfd3a09ee7748110bda690ff7
     Pseudo is Ultrasoft, Zval =  1.0
     Generated by new atomic code, or converted to UPF format
     Using radial grid of  615 points,  1 beta functions with:
                l(1) =   0
     Q(r) pseudized with  8 coefficients,  rinner =    0.800

     atomic species   valence    mass     pseudopotential
        O1             6.00    15.99900     O ( 1.00)
        Ti1           12.00    47.86700     Ti( 1.00)
        C1             4.00    12.01100     C ( 1.00)
        H1             1.00     1.00800     H ( 1.00)

     No symmetry found

   Cartesian axes

     site n.     atom                  positions (alat units)
         1           O1  tau(   1) = (   3.2904802   0.0005063   4.7018136  )
         2           O1  tau(   2) = (   3.2900926   2.9813045   4.7018136  )
         3           Ti1 tau(   3) = (   0.0004258   2.9801865   6.0000000  )
         4           Ti1 tau(   4) = (   0.0000382   5.9609847   6.0000000  )
         5           Ti1 tau(   5) = (   3.2906075   1.4906267   6.0002472  )
         6           Ti1 tau(   6) = (   3.2902200   4.4714249   6.0002472  )
         7           O1  tau(   7) = (   1.3043587   1.4918075   6.0039043  )
         8           O1  tau(   8) = (   1.3039711   4.4726057   6.0039043  )
         9           O1  tau(   9) = (   5.2767064   1.4903225   6.0039473  )
        10           O1  tau(  10) = (   5.2763189   4.4711207   6.0039473  )
        11           O1  tau(  11) = (   3.2906025   0.0005020   7.3038282  )
        12           O1  tau(  12) = (   3.2902150   2.9813002   7.3038282  )
        13           O1  tau(  13) = (   0.0006271   0.0005054   7.9858123  )
        14           O1  tau(  14) = (   0.0002396   2.9813036   7.9858123  )
        15           Ti1 tau(  15) = (   3.2969808   0.0564913   9.1534998  )
        16           Ti1 tau(  16) = (   3.3141337   3.0327768   9.1571505  )
        17           Ti1 tau(  17) = (   0.0233175   4.5369896   9.2585411  )
        18           Ti1 tau(  18) = (   0.0198836   1.6172415   9.3624336  )
        19           O1  tau(  19) = (   4.5942328   1.4918067   9.2879030  )
        20           O1  tau(  20) = (   4.5938453   4.4726049   9.2879030  )
        21           O1  tau(  21) = (   1.9868534   1.4903216   9.2879459  )
        22           O1  tau(  22) = (   1.9864658   4.4711199   9.2879459  )
        23           O1  tau(  23) = (   0.0063158   0.0123177  10.6034754  )
        24           O1  tau(  24) = (   0.0044132   2.9941235  10.5786081  )
        25           O1  tau(  25) = (   3.2970120   2.9984392  11.3520126  )
        26           O1  tau(  26) = (   3.2962737   0.0176366  11.3543537  )
        27           Ti1 tau(  27) = (   0.0302790   0.0280999  12.4961607  )
        28           Ti1 tau(  28) = (   3.3312859   4.4933669  12.4927350  )
        29           Ti1 tau(  29) = (   3.3314798   1.5140231  12.4973429  )
        30           Ti1 tau(  30) = (   0.0296678   3.0111287  12.7911082  )
        31           O1  tau(  31) = (   1.2935131   4.4896988  12.6418387  )
        32           O1  tau(  32) = (   1.2923886   1.5080263  12.6414434  )
        33           O1  tau(  33) = (   5.2919490   4.4892252  12.6414299  )
        34           O1  tau(  34) = (   5.2935099   1.5067266  12.6404615  )
        35           O1  tau(  35) = (   3.2972132   2.9952276  13.9333167  )
        36           O1  tau(  36) = (   3.2969292   0.0217920  13.9560627  )
        37           O1  tau(  37) = (   0.0109375   0.0110981  14.6876342  )
        38           O1  tau(  38) = (   0.0109565   3.0062585  14.7134293  )
        39           Ti1 tau(  39) = (   3.3068652   2.9980133  15.7272348  )
        40           Ti1 tau(  40) = (   3.3088638   0.0192678  15.7517854  )
        41           Ti1 tau(  41) = (   0.0288418   4.5446802  15.9499200  )
        42           Ti1 tau(  42) = (   0.0223207   1.3431340  16.0223868  )
        43           O1  tau(  43) = (   4.5495857   4.4747881  16.0802101  )
        44           O1  tau(  44) = (   4.5538725   1.5135375  16.1032510  )
        45           O1  tau(  45) = (   2.0418931   1.5171625  16.1093315  )
        46           O1  tau(  46) = (   2.0408760   4.4691196  16.0910022  )
        47           O1  tau(  47) = (   0.0096378   0.0051088  17.2033978  )
        48           O1  tau(  48) = (   6.5496506   3.0476207  17.4767105  )
        49           C1  tau(  49) = (   6.4067813   3.0203407  18.7370298  )
        50           H1  tau(  50) = (   6.4030715   1.9712591  19.1029599  )

     number of k points=    10  Fermi-Dirac smearing, width (Ry)=  0.0073
                       cart. coord. in units 2pi/alat
        k(    1) = (   0.0000000   0.0000000   0.0000000), wk =   0.1250000
        k(    2) = (   0.0000000   0.0419351   0.0000000), wk =   0.2500000
        k(    3) = (   0.0000000  -0.0838702   0.0000000), wk =   0.1250000
        k(    4) = (   0.0379955   0.0000049   0.0000000), wk =   0.2500000
        k(    5) = (   0.0379955   0.0419400   0.0000000), wk =   0.2500000
        k(    6) = (   0.0379955  -0.0838652   0.0000000), wk =   0.2500000
        k(    7) = (   0.0379955  -0.0419301   0.0000000), wk =   0.2500000
        k(    8) = (  -0.0759910  -0.0000099   0.0000000), wk =   0.1250000
        k(    9) = (  -0.0759910   0.0419252   0.0000000), wk =   0.2500000
        k(   10) = (  -0.0759910  -0.0838800   0.0000000), wk =   0.1250000

     Initial potential from superposition of free atoms

     starting charge  372.99920, renormalised to  389.00000

     negative rho (up, down):  1.926E-02 0.000E+00

     %%%%%%%%%%%%%%%%%%%%%%%%%%%%%%%%%%%%%%%%%%%%%%%%%%%%%%%%%%%%%%%%%%%%%%%%
     %                                                                      %
     % You are using vdW-DF, which was implemented by the Thonhauser group. %
     % Please cite the following two papers that made this development      %
     % possible and the two reviews that describe the various versions:     %
     %                                                                      %
     %   T. Thonhauser et al., PRL 115, 136402 (2015).                      %
     %   T. Thonhauser et al., PRB 76, 125112 (2007).                       %
     %   K. Berland et al., Rep. Prog. Phys. 78, 066501 (2015).             %
     %   D.C. Langreth et al., J. Phys.: Condens. Matter 21, 084203 (2009). %
     %                                                                      %
     %                                                                      %
     % If you are calculating the stress with vdW-DF, please also cite:     %
     %                                                                      %
     %   R. Sabatini et al., J. Phys.: Condens. Matter 24, 424209 (2012).   %
     %                                                                      %
     %%%%%%%%%%%%%%%%%%%%%%%%%%%%%%%%%%%%%%%%%%%%%%%%%%%%%%%%%%%%%%%%%%%%%%%%

     Adding external electric field

     Computed dipole along edir(3) :
        Dipole               -4.4813 Ry au,        -11.3903 Debye
        Dipole field         -0.0085 Ry au,

        Potential amp.        0.7839 Ry
        Total length         46.3494 bohr

     Starting wfcs are  293 atomic wfcs
  @ DRIVER MODE: Message from server: STATUS
  @ DRIVER MODE: Message from server: POSDATA
  @ DRIVER MODE: Reading and sharing cell
  @ DRIVER MODE: Reading and sharing positions
  @ DRIVER MODE: Received positions

     Self-consistent Calculation

     iteration #  1     ecut=    29.40 Ry     beta= 0.05
     Davidson diagonalization with overlap
     c_bands:  5 eigenvalues not converged
     c_bands:  5 eigenvalues not converged
     c_bands:  5 eigenvalues not converged
     c_bands:  3 eigenvalues not converged
     c_bands:  3 eigenvalues not converged
     c_bands:  1 eigenvalues not converged
     c_bands:  4 eigenvalues not converged
     c_bands:  3 eigenvalues not converged
     c_bands:  3 eigenvalues not converged
     c_bands:  1 eigenvalues not converged
     ethr =  1.00E-05,  avg # of iterations = 20.0

[...]

     total energy              =   -2877.96672028 Ry
     estimated scf accuracy    <     584.53610344 Ry

     iteration #  2     ecut=    29.40 Ry     beta= 0.05
     Davidson diagonalization with overlap
     ethr =  1.00E-02,  avg # of iterations = 13.9

[...]

     iteration # 52     ecut=    29.40 Ry     beta= 0.05
     Davidson diagonalization with overlap
     c_bands:  1 eigenvalues not converged
     ethr =  1.17E-10,  avg # of iterations = 10.8

[...]

     total energy              =   -2928.82029568 Ry
     estimated scf accuracy    <       0.00000012 Ry

     iteration # 56     ecut=    29.40 Ry     beta= 0.05
     Davidson diagonalization with overlap
     ethr =  1.97E-11,  avg # of iterations =  4.4

     negative rho (up, down):  1.792E-02 0.000E+00

     Adding external electric field

     Computed dipole along edir(3) :
        Dipole                0.1925 Ry au,          0.4892 Debye
        Dipole field          0.0004 Ry au,

        Potential amp.       -0.0337 Ry
        Total length         46.3494 bohr

     End of self-consistent calculation

          k = 0.0000 0.0000 0.0000 ( 18029 PWs)   bands (ev):

   -56.2983 -56.2848 -56.2616 -56.2486 -56.1970 -56.1845 -56.1517 -56.1316
   -56.1182 -56.0831 -56.0692 -56.0356 -55.9871 -55.9664 -55.3250 -55.2909
   -32.8514 -32.7704 -32.6749 -32.6593 -32.6393 -32.6072 -32.5942 -32.5758
   -32.5480 -32.5318 -32.5306 -32.5030 -32.5005 -32.4661 -32.4569 -32.4471
   -32.4307 -32.4196 -32.4187 -32.3922 -32.3710 -32.3633 -32.3615 -32.3516
   -32.3369 -32.3275 -32.3247 -32.3226 -32.3053 -32.2998 -32.2945 -32.2905
   -32.2530 -32.2425 -32.2206 -32.2130 -32.2030 -32.1901 -32.1741 -32.1562
   -32.1557 -32.1540 -31.7351 -31.6371 -31.6149 -31.5517 -31.4657 -31.3545
   -19.8976 -17.0575 -16.7726 -16.6213 -16.4902 -16.4428 -16.3105 -16.1690
   -16.0803 -16.0021 -15.9527 -15.9132 -15.8834 -15.8722 -15.8525 -15.8345
   -15.8311 -15.8205 -15.7500 -15.7463 -15.7130 -15.6964 -15.6934 -15.5965
   -15.5359 -15.4728 -15.4281 -15.3538 -15.3175 -15.2481 -13.8258 -13.7073
    -8.3000  -5.1008  -4.4057  -4.2363  -4.2066  -4.1991  -4.1256  -3.9073
    -3.8544  -3.6489  -3.6053  -3.4843  -3.4596  -3.4484  -3.4109  -3.3600
    -3.2694  -3.1394  -3.1368  -3.1262  -3.1193  -3.1067  -3.0724  -3.0488
    -3.0404  -3.0054  -2.9343  -2.8246  -2.8221  -2.7212  -2.6939  -2.6772
    -2.6197  -2.6082  -2.5758  -2.5570  -2.5448  -2.5231  -2.4789  -2.4585
    -2.3764  -2.2750  -2.1540  -2.0986  -2.0164  -1.9807  -1.8512  -1.7927
    -1.7363  -1.7112  -1.6633  -1.6343  -1.5954  -1.5648  -1.5322  -1.4570
    -1.3379  -1.3364  -1.2377  -1.1626  -1.1306  -1.1043  -1.0495  -1.0350
    -1.0268  -0.9260  -0.7916  -0.7828  -0.7743  -0.6847  -0.6410  -0.6232
    -0.5407  -0.5346  -0.4992  -0.4762  -0.4503  -0.3710  -0.3621  -0.3143
    -0.2983  -0.2709  -0.1577  -0.1076  -0.0955  -0.0545  -0.0119   0.1750
     0.1880   0.3299   0.4071   0.6007   0.6995   0.7545   0.8684   1.2874
     1.3457   2.6286   2.8764   2.9035   2.9340   2.9718   3.0153   3.1261
     3.2343   3.3159   3.3315   3.3642

[...]

          k = 0.0380-0.0419 0.0000 ( 17876 PWs)   bands (ev):

[...]

          k =-0.0760-0.0000 0.0000 ( 17886 PWs)   bands (ev):

[...]

          k =-0.0760-0.0839 0.0000 ( 17948 PWs)   bands (ev):

   -56.2867 -56.2730 -56.2676 -56.2656 -56.1920 -56.1706 -56.1655 -56.1362
   -56.1160 -56.0799 -56.0547 -56.0504 -55.9893 -55.9689 -55.3085 -55.3072
   -32.6554 -32.6518 -32.5941 -32.5917 -32.5807 -32.5789 -32.5763 -32.5583
   -32.5515 -32.5036 -32.5024 -32.4940 -32.4882 -32.4617 -32.4337 -32.4293
   -32.4160 -32.4140 -32.4111 -32.4024 -32.4018 -32.3905 -32.3782 -32.3762
   -32.3744 -32.3705 -32.3645 -32.3439 -32.3352 -32.3207 -32.3079 -32.3075
   -32.3070 -32.2830 -32.2633 -32.2618 -32.2594 -32.2492 -32.2111 -32.2064
   -32.1974 -32.1631 -31.6283 -31.6268 -31.5486 -31.5476 -31.5093 -31.5082
   -19.8899 -16.4852 -16.4546 -16.3494 -16.2281 -16.2155 -16.1845 -16.1423
   -16.0864 -16.0350 -16.0296 -15.9804 -15.9584 -15.9573 -15.9167 -15.8818
   -15.8324 -15.8245 -15.8184 -15.8142 -15.7631 -15.7584 -15.7183 -15.6921
   -15.6843 -15.6460 -15.6441 -15.5655 -15.4913 -15.4529 -13.8097 -13.8074
    -8.2998  -5.0543  -3.7763  -3.7353  -3.6465  -3.6045  -3.4456  -3.4356
    -3.3909  -3.3295  -3.2714  -3.2170  -3.1906  -3.1648  -3.1483  -3.1328
    -3.1231  -3.1119  -3.1017  -3.0477  -3.0414  -3.0067  -2.9865  -2.9533
    -2.9416  -2.9352  -2.9313  -2.8888  -2.8731  -2.8620  -2.8555  -2.8459
    -2.7516  -2.6672  -2.6237  -2.5578  -2.5065  -2.4508  -2.4340  -2.4156
    -2.3794  -2.3639  -2.3475  -2.2099  -2.1800  -2.0449  -2.0335  -2.0138
    -1.9946  -1.9082  -1.8730  -1.7647  -1.7468  -1.7412  -1.6528  -1.6189
    -1.5579  -1.5416  -1.4666  -1.4242  -1.4016  -1.3257  -1.2743  -1.2621
    -1.2115  -1.1921  -1.1056  -1.0648  -1.0595  -1.0426  -0.9861  -0.9570
    -0.8770  -0.8598  -0.8396  -0.7477  -0.6836  -0.6588  -0.4741  -0.3120
    -0.3032  -0.2654  -0.1752  -0.1228  -0.0782  -0.0280  -0.0248   0.0555
     0.1091   0.2020   0.2196   0.2255   0.3004   1.0580   1.0593   1.1505
     1.1614   2.5440   3.0518   3.0967   3.1222   3.1901   3.3176   3.3429
     3.3564   3.3652   3.3790   3.4895

     the Fermi energy is     2.8525 ev

!    total energy              =   -2928.82034875 Ry
     estimated scf accuracy    <       0.00000006 Ry
     smearing contrib. (-TS)   =      -0.02923701 Ry
     internal energy E=F+TS    =   -2928.79111174 Ry

     The total energy is F=E-TS. E is the sum of the following terms:
     one-electron contribution =  -24718.19770664 Ry
     hartree contribution      =   12439.08063197 Ry
     xc contribution           =    -480.34817004 Ry
     ewald contribution        =    9830.67406307 Ry
     electric field correction =       0.00006990 Ry

     convergence has been achieved in  56 iterations

     Forces acting on atoms (cartesian axes, Ry/au):

     atom    1 type  1   force =    -0.00009054    0.00005833    0.10425046
     atom    2 type  1   force =    -0.00008832    0.00006891    0.10433048
     atom    3 type  2   force =    -0.00023291   -0.00190979    0.10281444
     atom    4 type  2   force =    -0.00013276    0.00162047    0.11446827
     atom    5 type  2   force =    -0.00027622    0.00044549   -0.18036103
     atom    6 type  2   force =    -0.00018837   -0.00001683   -0.18073240
     atom    7 type  1   force =    -0.06894566    0.00069064   -0.02918133
     atom    8 type  1   force =    -0.06849945   -0.00126219   -0.02923202
     atom    9 type  1   force =     0.06858267    0.00119412   -0.02924650
     atom   10 type  1   force =     0.06821571   -0.00088222   -0.02931404
     atom   11 type  1   force =     0.00017954    0.00061891    0.04601438
     atom   12 type  1   force =     0.00045120    0.00081042    0.04735850
     atom   13 type  1   force =     0.00022651   -0.00581204   -0.03327329
     atom   14 type  1   force =     0.00032585    0.00433566   -0.02638877
     atom   15 type  2   force =     0.00025081   -0.00054760   -0.00005663
     atom   16 type  2   force =     0.00042028    0.00038988    0.00032579
     atom   17 type  2   force =    -0.00027558   -0.00073044   -0.00076634
     atom   18 type  2   force =    -0.00040839   -0.00092539   -0.00123098
     atom   19 type  1   force =    -0.01836257    0.00018759    0.00432972
     atom   20 type  1   force =    -0.01687693    0.00156860    0.00359494
     atom   21 type  1   force =     0.01895522   -0.00059870    0.00445727
     atom   22 type  1   force =     0.01761486    0.00156400    0.00358676
     atom   23 type  1   force =     0.00002107    0.00013824   -0.00075710
     atom   24 type  1   force =     0.00004706    0.00026268    0.00097263
     atom   25 type  1   force =    -0.00000014   -0.00008960   -0.00004961
     atom   26 type  1   force =    -0.00006602   -0.00024590   -0.00058386
     atom   27 type  2   force =    -0.00007321    0.00036636    0.00133851
     atom   28 type  2   force =    -0.00007102   -0.00029217    0.00068168
     atom   29 type  2   force =     0.00005158    0.00018630    0.00041538
     atom   30 type  2   force =    -0.00000239   -0.00032758    0.00118692
     atom   31 type  1   force =    -0.00004332   -0.00043323    0.00004351
     atom   32 type  1   force =    -0.00000041    0.00016076    0.00014749
     atom   33 type  1   force =     0.00017798   -0.00039377   -0.00006415
     atom   34 type  1   force =     0.00007428    0.00010540    0.00005195
     atom   35 type  1   force =    -0.00018510   -0.00013440   -0.00016874
     atom   36 type  1   force =    -0.00019008   -0.00063437    0.00087050
     atom   37 type  1   force =     0.00020820   -0.00081409    0.00104982
     atom   38 type  1   force =    -0.00020225    0.00026585   -0.00096886
     atom   39 type  2   force =    -0.00008948   -0.00024517    0.00002823
     atom   40 type  2   force =     0.00018744   -0.00041522   -0.00060580
     atom   41 type  2   force =    -0.00020703    0.00030300    0.00022449
     atom   42 type  2   force =    -0.00003760    0.00036541   -0.00082803
     atom   43 type  1   force =     0.00091687   -0.00020168    0.00030559
     atom   44 type  1   force =    -0.00036615    0.00006692   -0.00037489
     atom   45 type  1   force =    -0.00014695    0.00012054   -0.00017418
     atom   46 type  1   force =    -0.00135612    0.00000195    0.00035854
     atom   47 type  1   force =    -0.00010132   -0.00016550    0.00055267
     atom   48 type  1   force =    -0.00061180   -0.00137914    0.00268777
     atom   49 type  3   force =     0.00107186    0.01144570   -0.00365322
     atom   50 type  4   force =     0.00014913   -0.00888507    0.00156507

     Total force =     0.375089     Total SCF correction =     0.000742
  @ DRIVER MODE: Message from server: STATUS
  @ DRIVER MODE: Message from server: GETFORCE
  @ DRIVER MODE: Returning v,forces,stress,ensemble

     Writing output data file ./calc.save/
  @ DRIVER MODE: Message from server: EXIT
  @ DRIVE MODE: Exiting

     General routines

     Parallel routines

   This run was terminated on:   0:47:29   9Sep2021

   JOB DONE.