     Program PWSCF v.6.7GPU starts on 22Sep2021 at 11:21:25

     R & G space division:  proc/nbgrp/npool/nimage =      10
     Reading input from /storage/home/hcoda1/3/ntian30/research/carbon/CxH_vib/CH_calc/ads_slab/CHNHNHH2O_b/out_0037/pw.inp
Warning: card &CELL ignored
Warning: card   CELL_DYNAMICS='IPI', ignored
Warning: card / ignored

     Current dimensions of program PWSCF are:
     Max number of different atomic species (ntypx) = 10
     Max number of k-points (npk) =  40000
     Max angular momentum in pseudopotentials (lmaxx) =  3
     Presently no symmetry can be used with electric field

     Message from routine cell_base_init:
     DEPRECATED: use true lattice parameter, not A to a.u. conversion factor

     IMPORTANT: XC functional enforced from input :
     Exchange-correlation= BEEF-VDW
                           (   1   4  43  14   2   0   0)
     Any further DFT definition will be discarded
     Please, verify this is what you really want

  @ DRIVER MODE: Connecting to
 qe_1139763_2927424.sched-torque.pace.gatech.edukak98mlf_scratch
  using UNIX socket
  @ DRIVER MODE: Message from server: STATUS
  @ DRIVER MODE: Message from server: INIT
  @ DRIVER MODE: Receiving replica           0          -1
  @ DRIVER MODE: Receiving encoded integer          25
  @ DRIVER MODE:  SCF:  T  FORCE:  T  STRESS:  F  VC:  F  ENSEMBLE:  F
  @ DRIVER MODE:  SCF:  T  FORCE:  T  STRESS:  F  VC:  F  ENSEMBLE:  F

     Using Slab Decomposition

     bravais-lattice index     =            0
     lattice parameter (alat)  =       1.8897  a.u.
     unit-cell volume          =    6658.9804 (a.u.)^3
     number of atoms/cell      =           56
     number of atomic types    =            5
     number of electrons       =       403.00
     number of Kohn-Sham states=          211
     kinetic-energy cutoff     =      29.3995  Ry
     charge density cutoff     =     293.9946  Ry
     scf convergence threshold =      7.3E-08
     mixing beta               =       0.0500
     number of iterations used =            8  plain     mixing
     Exchange-correlation= BEEF-VDW
                           (   1   4  43  14   2   0   0)

     celldm(1)=   1.889726  celldm(2)=   0.000000  celldm(3)=   0.000000
     celldm(4)=   0.000000  celldm(5)=   0.000000  celldm(6)=   0.000000

     crystal axes: (cart. coord. in units of alat)
               a(1) = (   6.579727   0.000000   0.000000 )
               a(2) = (  -0.000775   5.961596   0.000000 )
               a(3) = (   0.000000   0.000000  25.155947 )

     reciprocal axes: (cart. coord. in units 2 pi/alat)
               b(1) = (  0.151982  0.000020  0.000000 )
               b(2) = (  0.000000  0.167740  0.000000 )
               b(3) = (  0.000000  0.000000  0.039752 )

     PseudoPot. # 1 for Ti read from file:
     /storage/coda1/p-amedford6/0/shared/rich_project_chbe-medford/medford-share/data/pseudos_module/espresso/nninc/pbe/van/Ti.UPF
     MD5 check sum: 8e4df49b7f0d34bbd5052bf3f5ea0213
     Pseudo is Ultrasoft, Zval = 12.0
     Generated by new atomic code, or converted to UPF format
     Using radial grid of  851 points,  6 beta functions with:
                l(1) =   0
                l(2) =   0
                l(3) =   1
                l(4) =   1
                l(5) =   2
                l(6) =   2
     Q(r) pseudized with  8 coefficients,  rinner =    1.000   1.000   1.000
                                                       1.000   1.000

     PseudoPot. # 2 for O  read from file:
     /storage/coda1/p-amedford6/0/shared/rich_project_chbe-medford/medford-share/data/pseudos_module/espresso/nninc/pbe/van/O.UPF
     MD5 check sum: 78c19812648e8988a0fe644b0f25305e
     Pseudo is Ultrasoft, Zval =  6.0
     Generated by new atomic code, or converted to UPF format
     Using radial grid of  737 points,  4 beta functions with:
                l(1) =   0
                l(2) =   0
                l(3) =   1
                l(4) =   1
     Q(r) pseudized with  8 coefficients,  rinner =    0.800   0.800   0.800

     PseudoPot. # 3 for N  read from file:
     /storage/coda1/p-amedford6/0/shared/rich_project_chbe-medford/medford-share/data/pseudos_module/espresso/nninc/pbe/van/N.UPF
     MD5 check sum: 90d10febe142ad51ac9d5be1deb811c4
     Pseudo is Ultrasoft, Zval =  5.0
     Generated by new atomic code, or converted to UPF format
     Using radial grid of  729 points,  4 beta functions with:
                l(1) =   0
                l(2) =   0
                l(3) =   1
                l(4) =   1
     Q(r) pseudized with  8 coefficients,  rinner =    0.800   0.800   0.800

     PseudoPot. # 4 for C  read from file:
     /storage/coda1/p-amedford6/0/shared/rich_project_chbe-medford/medford-share/data/pseudos_module/espresso/nninc/pbe/van/C.UPF
     MD5 check sum: 1a69bf6b8db32088f5b2163dbdb77a27
     Pseudo is Ultrasoft, Zval =  4.0
     Generated by new atomic code, or converted to UPF format
     Using radial grid of  721 points,  4 beta functions with:
                l(1) =   0
                l(2) =   0
                l(3) =   1
                l(4) =   1
     Q(r) pseudized with  8 coefficients,  rinner =    0.800   0.800   0.800

     PseudoPot. # 5 for H  read from file:
     /storage/coda1/p-amedford6/0/shared/rich_project_chbe-medford/medford-share/data/pseudos_module/espresso/nninc/pbe/van/H.UPF
     MD5 check sum: b5ee9d7bfd3a09ee7748110bda690ff7
     Pseudo is Ultrasoft, Zval =  1.0
     Generated by new atomic code, or converted to UPF format
     Using radial grid of  615 points,  1 beta functions with:
                l(1) =   0
     Q(r) pseudized with  8 coefficients,  rinner =    0.800

     atomic species   valence    mass     pseudopotential
        Ti1           12.00    47.86700     Ti( 1.00)
        O1             6.00    15.99900     O ( 1.00)
        N1             5.00    14.00700     N ( 1.00)
        C1             4.00    12.01100     C ( 1.00)
        H1             1.00     1.00800     H ( 1.00)

     No symmetry found

   Cartesian axes

     site n.     atom                  positions (alat units)
         1           Ti1 tau(   1) = (   0.0004258   2.9801865   6.0000000  )
         2           Ti1 tau(   2) = (   3.2906075   1.4906267   6.0002472  )
         3           O1  tau(   3) = (   0.0006271   0.0005054   7.9858123  )
         4           O1  tau(   4) = (   3.2906025   0.0005020   7.3038282  )
         5           O1  tau(   5) = (   4.5942328   1.4918067   9.2879030  )
         6           O1  tau(   6) = (   1.9868534   1.4903216   9.2879459  )
         7           Ti1 tau(   7) = (   3.2907910   2.8959150   9.1758416  )
         8           Ti1 tau(   8) = (   0.0015273   1.4827037   9.2680791  )
         9           O1  tau(   9) = (   3.2780774   5.9605562  11.3537357  )
        10           O1  tau(  10) = (   0.0116148   5.9584955  10.6183126  )
        11           O1  tau(  11) = (   1.2922713   1.4781662  12.6511241  )
        12           O1  tau(  12) = (   5.2965393   1.5043564  12.6031353  )
        13           Ti1 tau(  13) = (   6.5273184   3.0207086  12.5807821  )
        14           Ti1 tau(  14) = (   3.2344070   1.4559942  12.5004267  )
        15           O1  tau(  15) = (   6.4759410   0.0295824  14.6525783  )
        16           O1  tau(  16) = (   3.3604338   0.0238249  13.9383540  )
        17           O1  tau(  17) = (   4.5324113   1.5808541  16.1066768  )
        18           O1  tau(  18) = (   1.9684897   1.4712893  15.8817925  )
        19           Ti1 tau(  19) = (   3.2566353   3.0739815  15.8599551  )
        20           Ti1 tau(  20) = (   6.5466614   1.5318677  15.7800735  )
        21           O1  tau(  21) = (   3.2904802   0.0005063   4.7018136  )
        22           O1  tau(  22) = (   6.5744325   0.0155309  17.2227980  )
        23           O1  tau(  23) = (   1.3043587   1.4918075   6.0039043  )
        24           O1  tau(  24) = (   5.2767064   1.4903225   6.0039473  )
        25           Ti1 tau(  25) = (   0.0000382   5.9609847   6.0000000  )
        26           Ti1 tau(  26) = (   3.2902200   4.4714249   6.0002472  )
        27           O1  tau(  27) = (   0.0002396   2.9813036   7.9858123  )
        28           O1  tau(  28) = (   3.2902150   2.9813002   7.3038282  )
        29           O1  tau(  29) = (   4.5938453   4.4726049   9.2879030  )
        30           O1  tau(  30) = (   1.9864658   4.4711199   9.2879459  )
        31           Ti1 tau(  31) = (   3.2891106   5.8743827   9.1763621  )
        32           Ti1 tau(  32) = (   0.0006254   4.4649316   9.2693709  )
        33           O1  tau(  33) = (   3.2727763   2.9788165  11.3438337  )
        34           O1  tau(  34) = (   0.0092240   2.9805883  10.6323155  )
        35           O1  tau(  35) = (   1.2865780   4.4896361  12.6556599  )
        36           O1  tau(  36) = (   5.2967437   4.4749066  12.6066920  )
        37           Ti1 tau(  37) = (   6.5467059   0.0356701  12.5108493  )
        38           Ti1 tau(  38) = (   3.2305653   4.4019604  12.5605372  )
        39           O1  tau(  39) = (   6.5199767   2.9846217  14.6905747  )
        40           O1  tau(  40) = (   3.2851694   3.0254550  13.9321539  )
        41           O1  tau(  41) = (   4.5310495   4.4602642  16.1636806  )
        42           O1  tau(  42) = (   1.9842988   4.5744318  15.9411167  )
        43           Ti1 tau(  43) = (   3.2691225   0.1036042  15.7405456  )
        44           Ti1 tau(  44) = (   6.5697781   4.6877429  16.0360384  )
        45           O1  tau(  45) = (   3.2900926   2.9813045   4.7018136  )
        46           O1  tau(  46) = (   1.3039711   4.4726057   6.0039043  )
        47           O1  tau(  47) = (   5.2763189   4.4711207   6.0039473  )
        48           N1  tau(  48) = (   1.2792381   2.8578196  18.3696018  )
        49           N1  tau(  49) = (   0.1888888   2.9646215  17.5057353  )
        50           C1  tau(  50) = (   2.5352320   2.9081513  18.0382144  )
        51           H1  tau(  51) = (   3.1442446   2.7411670  18.9317345  )
        52           H1  tau(  52) = (   1.0014291   2.6635404  19.3302151  )
        53           H1  tau(  53) = (   5.9397212   2.8571719  18.0851170  )
        54           O1  tau(  54) = (   3.2530597   0.0341043  18.2348460  )
        55           H1  tau(  55) = (   4.0455299   5.4198958  18.2485053  )
        56           H1  tau(  56) = (   2.4923979   5.4091459  18.3156537  )

     number of k points=    10  Fermi-Dirac smearing, width (Ry)=  0.0073
                       cart. coord. in units 2pi/alat
        k(    1) = (   0.0000000   0.0000000   0.0000000), wk =   0.1250000
        k(    2) = (   0.0000000   0.0419351   0.0000000), wk =   0.2500000
        k(    3) = (   0.0000000  -0.0838702   0.0000000), wk =   0.1250000
        k(    4) = (   0.0379955   0.0000049   0.0000000), wk =   0.2500000
        k(    5) = (   0.0379955   0.0419400   0.0000000), wk =   0.2500000
        k(    6) = (   0.0379955  -0.0838652   0.0000000), wk =   0.2500000
        k(    7) = (   0.0379955  -0.0419301   0.0000000), wk =   0.2500000
        k(    8) = (  -0.0759910  -0.0000099   0.0000000), wk =   0.1250000
        k(    9) = (  -0.0759910   0.0419252   0.0000000), wk =   0.2500000
        k(   10) = (  -0.0759910  -0.0838800   0.0000000), wk =   0.1250000

     Initial potential from superposition of free atoms

     starting charge  386.99914, renormalised to  403.00000

     negative rho (up, down):  1.739E-02 0.000E+00

     %%%%%%%%%%%%%%%%%%%%%%%%%%%%%%%%%%%%%%%%%%%%%%%%%%%%%%%%%%%%%%%%%%%%%%%%
     %                                                                      %
     % You are using vdW-DF, which was implemented by the Thonhauser group. %
     % Please cite the following two papers that made this development      %
     % possible and the two reviews that describe the various versions:     %
     %                                                                      %
     %   T. Thonhauser et al., PRL 115, 136402 (2015).                      %
     %   T. Thonhauser et al., PRB 76, 125112 (2007).                       %
     %   K. Berland et al., Rep. Prog. Phys. 78, 066501 (2015).             %
     %   D.C. Langreth et al., J. Phys.: Condens. Matter 21, 084203 (2009). %
     %                                                                      %
     %                                                                      %
     % If you are calculating the stress with vdW-DF, please also cite:     %
     %                                                                      %
     %   R. Sabatini et al., J. Phys.: Condens. Matter 24, 424209 (2012).   %
     %                                                                      %
     %%%%%%%%%%%%%%%%%%%%%%%%%%%%%%%%%%%%%%%%%%%%%%%%%%%%%%%%%%%%%%%%%%%%%%%%

     Adding external electric field

     Computed dipole along edir(3) :
        Dipole              -12.3463 Ry au,        -31.3811 Debye
        Dipole field         -0.0233 Ry au,

        Potential amp.        2.1598 Ry
        Total length         46.3494 bohr

     Starting wfcs are  305 atomic wfcs
  @ DRIVER MODE: Message from server: STATUS
  @ DRIVER MODE: Message from server: POSDATA
  @ DRIVER MODE: Reading and sharing cell
  @ DRIVER MODE: Reading and sharing positions
  @ DRIVER MODE: Received positions

     Self-consistent Calculation

     iteration #  1     ecut=    29.40 Ry     beta= 0.05
     Davidson diagonalization with overlap
     c_bands:  5 eigenvalues not converged
     c_bands:  3 eigenvalues not converged
     c_bands:  3 eigenvalues not converged
     c_bands:  1 eigenvalues not converged
     c_bands:  2 eigenvalues not converged
     c_bands:  2 eigenvalues not converged
     c_bands:  5 eigenvalues not converged
     c_bands:  2 eigenvalues not converged
     c_bands:  4 eigenvalues not converged
     ethr =  1.00E-05,  avg # of iterations = 29.3

[...]

     total energy              =   -2358.71089529 Ry
     estimated scf accuracy    <    6971.47258429 Ry

     iteration #  2     ecut=    29.40 Ry     beta= 0.05
     Davidson diagonalization with overlap
     ethr =  1.00E-02,  avg # of iterations = 27.7

[...]

     iteration # 72     ecut=    29.40 Ry     beta= 0.05
     Davidson diagonalization with overlap
     c_bands:  1 eigenvalues not converged
     c_bands:  1 eigenvalues not converged
     ethr =  7.32E-11,  avg # of iterations = 12.9

[...]

     total energy              =   -2973.93988860 Ry
     estimated scf accuracy    <       0.00000008 Ry

     iteration # 76     ecut=    29.40 Ry     beta= 0.05
     Davidson diagonalization with overlap
     ethr =  2.00E-11,  avg # of iterations =  8.8

     negative rho (up, down):  1.725E-02 0.000E+00

     Adding external electric field

     Computed dipole along edir(3) :
        Dipole                1.3988 Ry au,          3.5554 Debye
        Dipole field          0.0026 Ry au,

        Potential amp.       -0.2447 Ry
        Total length         46.3494 bohr

     End of self-consistent calculation

          k = 0.0000 0.0000 0.0000 ( 18029 PWs)   bands (ev):

   -55.3193 -55.2852 -55.2106 -55.1860 -55.1675 -55.1558 -55.1403 -55.1185
   -55.1064 -55.1045 -55.0975 -55.0630 -54.9921 -54.8339 -54.2998 -54.2658
   -31.8035 -31.7315 -31.6571 -31.6502 -31.6401 -31.6113 -31.5872 -31.5645
   -31.5201 -31.5012 -31.4717 -31.4642 -31.4557 -31.4411 -31.4253 -31.4214
   -31.3982 -31.3805 -31.3766 -31.3653 -31.3356 -31.3330 -31.3289 -31.3261
   -31.3233 -31.3192 -31.3151 -31.2971 -31.2891 -31.2791 -31.2723 -31.2722
   -31.2620 -31.2606 -31.2520 -31.2481 -31.2401 -31.2148 -31.2101 -31.0902
   -31.0752 -31.0494 -30.7067 -30.6186 -30.5962 -30.5237 -30.4372 -30.3259
   -18.8799 -18.6510 -15.9778 -15.7940 -15.6131 -15.4738 -15.3920 -15.1603
   -15.1018 -15.0634 -14.9824 -14.9594 -14.8586 -14.8405 -14.8390 -14.8204
   -14.8175 -14.7623 -14.7471 -14.7425 -14.6941 -14.6873 -14.6620 -14.6466
   -14.5945 -14.5154 -14.5069 -14.4601 -14.4151 -14.3686 -14.0226 -13.4129
   -12.8004 -12.6839  -8.8023  -7.2707  -6.6166  -4.3217  -3.7902  -3.3609
    -3.2847  -3.2492  -3.2241  -3.0886  -2.9717  -2.8661  -2.7556  -2.6713
    -2.5847  -2.4803  -2.4237  -2.3779  -2.3176  -2.2577  -2.2313  -2.1455
    -2.1260  -2.1061  -2.0846  -2.0578  -2.0286  -1.9921  -1.8685  -1.8583
    -1.7764  -1.7198  -1.6816  -1.6634  -1.6391  -1.6334  -1.6016  -1.5808
    -1.5724  -1.5607  -1.5590  -1.5242  -1.3850  -1.3609  -1.3322  -1.3101
    -1.1632  -1.0260  -0.9374  -0.9344  -0.8250  -0.7604  -0.7571  -0.7185
    -0.7031  -0.6007  -0.5155  -0.4782  -0.4543  -0.3753  -0.3179  -0.2626
    -0.2110  -0.1753  -0.1091  -0.0849  -0.0683  -0.0514   0.0174   0.0801
     0.1414   0.2262   0.2696   0.2943   0.3853   0.3995   0.4227   0.4872
     0.5193   0.5642   0.5997   0.6287   0.6527   0.6826   0.7077   0.7511
     0.7893   0.9148   0.9332   0.9618   0.9827   1.1571   1.2068   1.3097
     1.3400   1.4423   1.4843   1.6630   1.7243   1.8034   1.9162   2.2944
     2.3402   3.7898   3.9011   3.9352   3.9599   3.9992   4.0507   4.2575
     4.3302   4.3715   4.4388

[...]

          k = 0.0380-0.0419 0.0000 ( 17876 PWs)   bands (ev):

[...]

          k =-0.0760-0.0000 0.0000 ( 17886 PWs)   bands (ev):

[...]

          k =-0.0760-0.0839 0.0000 ( 17948 PWs)   bands (ev):

   -55.3025 -55.3019 -55.2011 -55.1826 -55.1761 -55.1444 -55.1303 -55.1234
   -55.1227 -55.1081 -55.0842 -55.0764 -54.9904 -54.8355 -54.2828 -54.2827
   -31.6189 -31.6186 -31.5969 -31.5965 -31.5658 -31.5337 -31.5025 -31.4901
   -31.4830 -31.4676 -31.4489 -31.4441 -31.4397 -31.4306 -31.4253 -31.4236
   -31.4219 -31.4216 -31.4167 -31.4011 -31.3902 -31.3763 -31.3653 -31.3630
   -31.3581 -31.3536 -31.3443 -31.3317 -31.3258 -31.3243 -31.3091 -31.2999
   -31.2967 -31.2960 -31.2942 -31.2915 -31.2615 -31.2335 -31.2195 -31.1463
   -31.0925 -31.0782 -30.6089 -30.6089 -30.5195 -30.5194 -30.4805 -30.4804
   -18.8691 -18.6575 -15.3552 -15.3202 -15.2822 -15.2546 -15.2386 -15.1177
   -15.1042 -15.0687 -15.0267 -15.0139 -14.9840 -14.9549 -14.9059 -14.8978
   -14.8632 -14.8435 -14.8044 -14.7781 -14.7586 -14.7543 -14.7377 -14.7160
   -14.6726 -14.6508 -14.6380 -14.6337 -14.5820 -14.4877 -14.2079 -13.4355
   -12.7858 -12.7857  -8.7982  -7.1960  -6.6170  -4.5302  -3.5716  -2.8670
    -2.6692  -2.6307  -2.5787  -2.4883  -2.4409  -2.3193  -2.3124  -2.2900
    -2.2445  -2.2314  -2.1907  -2.1506  -2.1447  -2.1166  -2.1045  -2.0597
    -2.0484  -2.0459  -2.0312  -1.9976  -1.9917  -1.9713  -1.9472  -1.9440
    -1.9340  -1.9174  -1.8842  -1.8771  -1.8502  -1.8313  -1.6803  -1.6064
    -1.5629  -1.4856  -1.4624  -1.4456  -1.4266  -1.3917  -1.3715  -1.3462
    -1.3177  -1.1716  -1.0303  -0.9965  -0.9714  -0.8733  -0.8581  -0.8387
    -0.7914  -0.7502  -0.7150  -0.6558  -0.6476  -0.6016  -0.5805  -0.4601
    -0.4235  -0.3241  -0.2880  -0.2866  -0.2685  -0.2539  -0.2369  -0.2111
    -0.1613  -0.0899  -0.0745  -0.0258  -0.0019   0.0007   0.0136   0.1595
     0.2304   0.2511   0.3532   0.3830   0.5580   0.7218   0.7339   0.8015
     0.8648   0.9196   0.9536   0.9937   1.0039   1.0694   1.0942   1.1989
     1.2091   1.2580   1.2633   1.3420   1.3542   2.0880   2.0897   2.1601
     2.1603   4.1533   4.1691   4.1972   4.2603   4.3040   4.3156   4.3532
     4.3568   4.4597   4.4777

     the Fermi energy is     3.8078 ev

!    total energy              =   -2973.93990041 Ry
     estimated scf accuracy    <       0.00000004 Ry
     smearing contrib. (-TS)   =      -0.02072699 Ry
     internal energy E=F+TS    =   -2973.91917342 Ry

     The total energy is F=E-TS. E is the sum of the following terms:
     one-electron contribution =  -24339.03452269 Ry
     hartree contribution      =   12267.22896368 Ry
     xc contribution           =    -494.11753910 Ry
     ewald contribution        =    9592.00023217 Ry
     electric field correction =       0.00369251 Ry

     convergence has been achieved in  76 iterations

     Forces acting on atoms (cartesian axes, Ry/au):

     atom    1 type  1   force =     0.00002045   -0.00010398    0.09507097
     atom    2 type  1   force =     0.00017726   -0.00068661   -0.17565125
     atom    3 type  2   force =     0.00008742   -0.00005217   -0.02294913
     atom    4 type  2   force =     0.00002156   -0.00143477    0.05290820
     atom    5 type  2   force =    -0.01000381   -0.00031654    0.00380751
     atom    6 type  2   force =     0.01112681    0.00020116    0.00206251
     atom    7 type  1   force =    -0.00021310    0.00177702   -0.00591649
     atom    8 type  1   force =     0.00081197    0.01008312    0.01603148
     atom    9 type  2   force =    -0.00015556    0.00086405    0.00034185
     atom   10 type  2   force =    -0.00227227    0.00217176   -0.01800131
     atom   11 type  2   force =     0.00024065   -0.00003434    0.00008674
     atom   12 type  2   force =    -0.00035684   -0.00019014    0.00056669
     atom   13 type  1   force =    -0.00002167    0.00125685    0.00018857
     atom   14 type  1   force =    -0.00012433    0.00008445    0.00000681
     atom   15 type  2   force =     0.00010639    0.00021049   -0.00003249
     atom   16 type  2   force =    -0.00037182    0.00044106   -0.00023888
     atom   17 type  2   force =    -0.00022410   -0.00035723    0.00017507
     atom   18 type  2   force =    -0.00005632    0.00011587    0.00027459
     atom   19 type  1   force =    -0.00073594    0.00031735   -0.00028834
     atom   20 type  1   force =    -0.00013400   -0.00012620    0.00016524
     atom   21 type  2   force =     0.00008858   -0.00008444    0.10319399
     atom   22 type  2   force =     0.00025562    0.00000571    0.00055125
     atom   23 type  2   force =    -0.07159960   -0.00016903   -0.02757903
     atom   24 type  2   force =     0.07155696    0.00024631   -0.02762726
     atom   25 type  1   force =     0.00023402   -0.00039950    0.09517863
     atom   26 type  1   force =    -0.00004044   -0.00020433   -0.17582155
     atom   27 type  2   force =     0.00012102   -0.00011985   -0.02197661
     atom   28 type  2   force =     0.00001498   -0.00139849    0.05323528
     atom   29 type  2   force =    -0.01034208   -0.00022961    0.00365059
     atom   30 type  2   force =     0.01137819    0.00042196    0.00191891
     atom   31 type  1   force =    -0.00029585    0.00266229   -0.00012413
     atom   32 type  1   force =     0.00067220   -0.01114456    0.01691009
     atom   33 type  2   force =     0.00036983   -0.00026850    0.00001608
     atom   34 type  2   force =    -0.00033870    0.00144486   -0.01893446
     atom   35 type  2   force =    -0.00000364   -0.00035235   -0.00015922
     atom   36 type  2   force =    -0.00000917   -0.00023963    0.00044374
     atom   37 type  1   force =    -0.00005982   -0.00122057    0.00035280
     atom   38 type  1   force =    -0.00039197    0.00088932    0.00006488
     atom   39 type  2   force =     0.00006765    0.00008336    0.00008726
     atom   40 type  2   force =    -0.00047540   -0.00059757   -0.00000214
     atom   41 type  2   force =     0.00017031    0.00002503    0.00052225
     atom   42 type  2   force =    -0.00021903   -0.00045936   -0.00034807
     atom   43 type  1   force =    -0.00057341   -0.00018277    0.00044086
     atom   44 type  1   force =     0.00021479   -0.00031615    0.00022198
     atom   45 type  2   force =     0.00009979   -0.00010290    0.10321435
     atom   46 type  2   force =    -0.07158409   -0.00016994   -0.02756998
     atom   47 type  2   force =     0.07158408    0.00024459   -0.02758324
     atom   48 type  3   force =     0.00029637   -0.00045735    0.00028927
     atom   49 type  3   force =     0.00004679    0.00009647   -0.00017698
     atom   50 type  4   force =     0.00026153   -0.00030073    0.00045962
     atom   51 type  5   force =    -0.00016921   -0.00049608   -0.00022800
     atom   52 type  5   force =    -0.00000928   -0.00103799   -0.00082621
     atom   53 type  5   force =     0.00017771   -0.00040798   -0.00059894
     atom   54 type  2   force =     0.02506343    0.00177056   -0.00122272
     atom   55 type  5   force =    -0.01197285    0.00858369   -0.00022656
     atom   56 type  5   force =    -0.01251203   -0.01033567    0.00164496

     Total force =     0.366729     Total SCF correction =     0.000524
  @ DRIVER MODE: Message from server: STATUS
  @ DRIVER MODE: Message from server: GETFORCE
  @ DRIVER MODE: Returning v,forces,stress,ensemble

     Writing output data file ./calc.save/
  @ DRIVER MODE: Message from server: EXIT
  @ DRIVE MODE: Exiting

     General routines

     Parallel routines

   This run was terminated on:  11:45: 0  22Sep2021

   JOB DONE.