     Program PWSCF v.6.7GPU starts on 15Sep2021 at 15:34:20

     R & G space division:  proc/nbgrp/npool/nimage =      10
     Reading input from /storage/home/hcoda1/3/ntian30/research/carbon/CxH_vib/H2O_calc/ads_slab/CH3NHNHH2O_a/out_0000/pw.inp
Warning: card &CELL ignored
Warning: card   CELL_DYNAMICS='IPI', ignored
Warning: card / ignored

     Current dimensions of program PWSCF are:
     Max number of different atomic species (ntypx) = 10
     Max number of k-points (npk) =  40000
     Max angular momentum in pseudopotentials (lmaxx) =  3
     Presently no symmetry can be used with electric field

     Message from routine cell_base_init:
     DEPRECATED: use true lattice parameter, not A to a.u. conversion factor

     IMPORTANT: XC functional enforced from input :
     Exchange-correlation= BEEF-VDW
                           (   1   4  43  14   2   0   0)
     Any further DFT definition will be discarded
     Please, verify this is what you really want

  @ DRIVER MODE: Connecting to
 qe_1139763_2852620.sched-torque.pace.gatech.edu1fjhmagp_scratch
  using UNIX socket
  @ DRIVER MODE: Message from server: STATUS
  @ DRIVER MODE: Message from server: INIT
  @ DRIVER MODE: Receiving replica           0          -1
  @ DRIVER MODE: Receiving encoded integer          25
  @ DRIVER MODE:  SCF:  T  FORCE:  T  STRESS:  F  VC:  F  ENSEMBLE:  F
  @ DRIVER MODE:  SCF:  T  FORCE:  T  STRESS:  F  VC:  F  ENSEMBLE:  F

     Using Slab Decomposition

     bravais-lattice index     =            0
     lattice parameter (alat)  =       1.8897  a.u.
     unit-cell volume          =    6658.9804 (a.u.)^3
     number of atoms/cell      =           58
     number of atomic types    =            5
     number of electrons       =       405.00
     number of Kohn-Sham states=          212
     kinetic-energy cutoff     =      29.3995  Ry
     charge density cutoff     =     293.9946  Ry
     scf convergence threshold =      7.3E-08
     mixing beta               =       0.0500
     number of iterations used =            8  plain     mixing
     Exchange-correlation= BEEF-VDW
                           (   1   4  43  14   2   0   0)

     celldm(1)=   1.889726  celldm(2)=   0.000000  celldm(3)=   0.000000
     celldm(4)=   0.000000  celldm(5)=   0.000000  celldm(6)=   0.000000

     crystal axes: (cart. coord. in units of alat)
               a(1) = (   6.579727   0.000000   0.000000 )
               a(2) = (  -0.000775   5.961596   0.000000 )
               a(3) = (   0.000000   0.000000  25.155947 )

     reciprocal axes: (cart. coord. in units 2 pi/alat)
               b(1) = (  0.151982  0.000020  0.000000 )
               b(2) = (  0.000000  0.167740  0.000000 )
               b(3) = (  0.000000  0.000000  0.039752 )

     PseudoPot. # 1 for Ti read from file:
     /storage/coda1/p-amedford6/0/shared/rich_project_chbe-medford/medford-share/data/pseudos_module/espresso/nninc/pbe/van/Ti.UPF
     MD5 check sum: 8e4df49b7f0d34bbd5052bf3f5ea0213
     Pseudo is Ultrasoft, Zval = 12.0
     Generated by new atomic code, or converted to UPF format
     Using radial grid of  851 points,  6 beta functions with:
                l(1) =   0
                l(2) =   0
                l(3) =   1
                l(4) =   1
                l(5) =   2
                l(6) =   2
     Q(r) pseudized with  8 coefficients,  rinner =    1.000   1.000   1.000
                                                       1.000   1.000

     PseudoPot. # 2 for O  read from file:
     /storage/coda1/p-amedford6/0/shared/rich_project_chbe-medford/medford-share/data/pseudos_module/espresso/nninc/pbe/van/O.UPF
     MD5 check sum: 78c19812648e8988a0fe644b0f25305e
     Pseudo is Ultrasoft, Zval =  6.0
     Generated by new atomic code, or converted to UPF format
     Using radial grid of  737 points,  4 beta functions with:
                l(1) =   0
                l(2) =   0
                l(3) =   1
                l(4) =   1
     Q(r) pseudized with  8 coefficients,  rinner =    0.800   0.800   0.800

     PseudoPot. # 3 for N  read from file:
     /storage/coda1/p-amedford6/0/shared/rich_project_chbe-medford/medford-share/data/pseudos_module/espresso/nninc/pbe/van/N.UPF
     MD5 check sum: 90d10febe142ad51ac9d5be1deb811c4
     Pseudo is Ultrasoft, Zval =  5.0
     Generated by new atomic code, or converted to UPF format
     Using radial grid of  729 points,  4 beta functions with:
                l(1) =   0
                l(2) =   0
                l(3) =   1
                l(4) =   1
     Q(r) pseudized with  8 coefficients,  rinner =    0.800   0.800   0.800

     PseudoPot. # 4 for C  read from file:
     /storage/coda1/p-amedford6/0/shared/rich_project_chbe-medford/medford-share/data/pseudos_module/espresso/nninc/pbe/van/C.UPF
     MD5 check sum: 1a69bf6b8db32088f5b2163dbdb77a27
     Pseudo is Ultrasoft, Zval =  4.0
     Generated by new atomic code, or converted to UPF format
     Using radial grid of  721 points,  4 beta functions with:
                l(1) =   0
                l(2) =   0
                l(3) =   1
                l(4) =   1
     Q(r) pseudized with  8 coefficients,  rinner =    0.800   0.800   0.800

     PseudoPot. # 5 for H  read from file:
     /storage/coda1/p-amedford6/0/shared/rich_project_chbe-medford/medford-share/data/pseudos_module/espresso/nninc/pbe/van/H.UPF
     MD5 check sum: b5ee9d7bfd3a09ee7748110bda690ff7
     Pseudo is Ultrasoft, Zval =  1.0
     Generated by new atomic code, or converted to UPF format
     Using radial grid of  615 points,  1 beta functions with:
                l(1) =   0
     Q(r) pseudized with  8 coefficients,  rinner =    0.800

     atomic species   valence    mass     pseudopotential
        Ti1           12.00    47.86700     Ti( 1.00)
        O1             6.00    15.99900     O ( 1.00)
        N1             5.00    14.00700     N ( 1.00)
        C1             4.00    12.01100     C ( 1.00)
        H1             1.00     1.00800     H ( 1.00)

     No symmetry found

   Cartesian axes

     site n.     atom                  positions (alat units)
         1           Ti1 tau(   1) = (   0.0004258   2.9801865   6.0000000  )
         2           Ti1 tau(   2) = (   3.2906075   1.4906267   6.0002472  )
         3           O1  tau(   3) = (   0.0006271   0.0005054   7.9858123  )
         4           O1  tau(   4) = (   3.2906025   0.0005020   7.3038282  )
         5           O1  tau(   5) = (   4.5942328   1.4918067   9.2879030  )
         6           O1  tau(   6) = (   1.9868534   1.4903216   9.2879459  )
         7           Ti1 tau(   7) = (   3.2907910   2.8959150   9.1758416  )
         8           Ti1 tau(   8) = (   0.0015273   1.4827037   9.2680791  )
         9           O1  tau(   9) = (   3.2925356   5.9605122  11.3387169  )
        10           O1  tau(  10) = (   0.0116148   5.9584955  10.6183126  )
        11           O1  tau(  11) = (   1.2897729   1.4809555  12.6268520  )
        12           O1  tau(  12) = (   5.2791511   1.4810064  12.6173870  )
        13           Ti1 tau(  13) = (   0.0595640   3.0140846  12.5912772  )
        14           Ti1 tau(  14) = (   3.3761946   1.4800080  12.4968112  )
        15           O1  tau(  15) = (   6.5629824   0.0009262  14.6613707  )
        16           O1  tau(  16) = (   3.3123588   5.9604043  13.9421911  )
        17           O1  tau(  17) = (   4.5376415   1.5680301  16.0260299  )
        18           O1  tau(  18) = (   2.0142527   1.4857506  15.9764776  )
        19           Ti1 tau(  19) = (   3.2467940   3.0138708  15.6952036  )
        20           Ti1 tau(  20) = (   6.5376764   1.5432071  15.7832198  )
        21           O1  tau(  21) = (   3.2904802   0.0005063   4.7018136  )
        22           O1  tau(  22) = (   6.4898080   0.0110182  17.2547379  )
        23           O1  tau(  23) = (   1.3043587   1.4918075   6.0039043  )
        24           O1  tau(  24) = (   5.2767064   1.4903225   6.0039473  )
        25           Ti1 tau(  25) = (   0.0000382   5.9609847   6.0000000  )
        26           Ti1 tau(  26) = (   3.2902200   4.4714249   6.0002472  )
        27           O1  tau(  27) = (   0.0002396   2.9813036   7.9858123  )
        28           O1  tau(  28) = (   3.2902150   2.9813002   7.3038282  )
        29           O1  tau(  29) = (   4.5938453   4.4726049   9.2879030  )
        30           O1  tau(  30) = (   1.9864658   4.4711199   9.2879459  )
        31           Ti1 tau(  31) = (   3.2891106   5.8743827   9.1763621  )
        32           Ti1 tau(  32) = (   0.0006254   4.4649316   9.2693709  )
        33           O1  tau(  33) = (   3.2967638   2.9790471  11.3409087  )
        34           O1  tau(  34) = (   0.0092240   2.9805883  10.6323155  )
        35           O1  tau(  35) = (   1.2869154   4.4778632  12.6304858  )
        36           O1  tau(  36) = (   5.2845859   4.4648683  12.6187650  )
        37           Ti1 tau(  37) = (   0.0627082   0.0241251  12.5486904  )
        38           Ti1 tau(  38) = (   3.3788516   4.4738568  12.4976958  )
        39           O1  tau(  39) = (   6.5772583   2.9562949  14.6416036  )
        40           O1  tau(  40) = (   3.2725681   2.9944745  13.9013672  )
        41           O1  tau(  41) = (   4.5452577   4.4055011  16.0651929  )
        42           O1  tau(  42) = (   2.0228361   4.5129635  16.0417754  )
        43           Ti1 tau(  43) = (   3.2583029   0.0391736  15.7773877  )
        44           Ti1 tau(  44) = (   6.5476622   4.6515957  16.1089089  )
        45           O1  tau(  45) = (   3.2900926   2.9813045   4.7018136  )
        46           O1  tau(  46) = (   1.3039711   4.4726057   6.0039043  )
        47           O1  tau(  47) = (   5.2763189   4.4711207   6.0039473  )
        48           N1  tau(  48) = (   1.2275869   2.8250850  18.3327965  )
        49           N1  tau(  49) = (   0.1007212   2.9268546  17.4424539  )
        50           C1  tau(  50) = (   0.9834745   3.5098297  19.5973225  )
        51           H1  tau(  51) = (   0.0800711   3.1483545  20.1177682  )
        52           H1  tau(  52) = (   1.8428167   3.3484677  20.2521386  )
        53           H1  tau(  53) = (   0.8645268   4.5787652  19.4145101  )
        54           H1  tau(  54) = (   1.4038961   1.8348574  18.5000659  )
        55           H1  tau(  55) = (   5.8167727   2.7947134  17.9807349  )
        56           O1  tau(  56) = (   3.6251350   0.0523402  18.1652986  )
        57           H1  tau(  57) = (   4.6063402   0.0342754  18.1216558  )
        58           H1  tau(  58) = (   3.3562690   5.1322054  18.4688733  )

     number of k points=    10  Fermi-Dirac smearing, width (Ry)=  0.0073
                       cart. coord. in units 2pi/alat
        k(    1) = (   0.0000000   0.0000000   0.0000000), wk =   0.1250000
        k(    2) = (   0.0000000   0.0419351   0.0000000), wk =   0.2500000
        k(    3) = (   0.0000000  -0.0838702   0.0000000), wk =   0.1250000
        k(    4) = (   0.0379955   0.0000049   0.0000000), wk =   0.2500000
        k(    5) = (   0.0379955   0.0419400   0.0000000), wk =   0.2500000
        k(    6) = (   0.0379955  -0.0838652   0.0000000), wk =   0.2500000
        k(    7) = (   0.0379955  -0.0419301   0.0000000), wk =   0.2500000
        k(    8) = (  -0.0759910  -0.0000099   0.0000000), wk =   0.1250000
        k(    9) = (  -0.0759910   0.0419252   0.0000000), wk =   0.2500000
        k(   10) = (  -0.0759910  -0.0838800   0.0000000), wk =   0.1250000

     Initial potential from superposition of free atoms

     starting charge  388.99913, renormalised to  405.00000

     negative rho (up, down):  1.444E-02 0.000E+00

     %%%%%%%%%%%%%%%%%%%%%%%%%%%%%%%%%%%%%%%%%%%%%%%%%%%%%%%%%%%%%%%%%%%%%%%%
     %                                                                      %
     % You are using vdW-DF, which was implemented by the Thonhauser group. %
     % Please cite the following two papers that made this development      %
     % possible and the two reviews that describe the various versions:     %
     %                                                                      %
     %   T. Thonhauser et al., PRL 115, 136402 (2015).                      %
     %   T. Thonhauser et al., PRB 76, 125112 (2007).                       %
     %   K. Berland et al., Rep. Prog. Phys. 78, 066501 (2015).             %
     %   D.C. Langreth et al., J. Phys.: Condens. Matter 21, 084203 (2009). %
     %                                                                      %
     %                                                                      %
     % If you are calculating the stress with vdW-DF, please also cite:     %
     %                                                                      %
     %   R. Sabatini et al., J. Phys.: Condens. Matter 24, 424209 (2012).   %
     %                                                                      %
     %%%%%%%%%%%%%%%%%%%%%%%%%%%%%%%%%%%%%%%%%%%%%%%%%%%%%%%%%%%%%%%%%%%%%%%%

     Adding external electric field

     Computed dipole along edir(3) :
        Dipole              -14.1501 Ry au,        -35.9660 Debye
        Dipole field         -0.0267 Ry au,

        Potential amp.        2.4753 Ry
        Total length         46.3494 bohr

     Starting wfcs are  307 atomic wfcs
  @ DRIVER MODE: Message from server: STATUS
  @ DRIVER MODE: Message from server: POSDATA
  @ DRIVER MODE: Reading and sharing cell
  @ DRIVER MODE: Reading and sharing positions
  @ DRIVER MODE: Received positions

     Self-consistent Calculation

     iteration #  1     ecut=    29.40 Ry     beta= 0.05
     Davidson diagonalization with overlap
     ethr =  1.00E-02,  avg # of iterations =  5.3

[...]

     total energy              =   -2301.03942877 Ry
     estimated scf accuracy    <    7726.73250125 Ry

[...]

     iteration #  3     ecut=    29.40 Ry     beta= 0.05
     Davidson diagonalization with overlap
     c_bands:  2 eigenvalues not converged
     ethr =  1.00E-02,  avg # of iterations = 17.6

[...]

     iteration # 61     ecut=    29.40 Ry     beta= 0.05
     Davidson diagonalization with overlap
     c_bands:  1 eigenvalues not converged
     ethr =  6.56E-10,  avg # of iterations = 11.8

[...]

     total energy              =   -2976.50556264 Ry
     estimated scf accuracy    <       0.00000007 Ry

     iteration # 68     ecut=    29.40 Ry     beta= 0.05
     Davidson diagonalization with overlap
     ethr =  1.85E-11,  avg # of iterations = 10.2

     negative rho (up, down):  1.504E-02 0.000E+00

     Adding external electric field

     Computed dipole along edir(3) :
        Dipole                0.9851 Ry au,          2.5038 Debye
        Dipole field          0.0019 Ry au,

        Potential amp.       -0.1723 Ry
        Total length         46.3494 bohr

     End of self-consistent calculation

          k = 0.0000 0.0000 0.0000 ( 18029 PWs)   bands (ev):

   -55.5106 -55.4802 -55.4765 -55.4471 -55.4442 -55.3589 -55.3281 -55.3263
   -55.3238 -55.2941 -55.2928 -55.2592 -55.0508 -54.8862 -54.4933 -54.4593
   -32.0245 -31.9943 -31.8831 -31.8601 -31.8262 -31.8031 -31.7848 -31.7831
   -31.7551 -31.7118 -31.7004 -31.6807 -31.6777 -31.6628 -31.6573 -31.6354
   -31.6161 -31.6107 -31.6097 -31.5774 -31.5676 -31.5588 -31.5329 -31.5209
   -31.5182 -31.5165 -31.5134 -31.5076 -31.4924 -31.4844 -31.4814 -31.4716
   -31.4691 -31.4576 -31.4462 -31.4371 -31.4051 -31.3066 -31.2611 -31.1496
   -31.1411 -31.0769 -30.9006 -30.8118 -30.7894 -30.7173 -30.6308 -30.5197
   -18.7236 -16.5585 -16.2208 -15.9835 -15.7614 -15.6679 -15.6257 -15.4288
   -15.3344 -15.2497 -15.1295 -15.0785 -15.0526 -15.0450 -15.0314 -15.0061
   -14.9718 -14.9657 -14.9625 -14.9384 -14.9190 -14.8677 -14.8616 -14.8548
   -14.7615 -14.6975 -14.6626 -14.6494 -14.6398 -14.5741 -14.2022 -12.9953
   -12.8788 -11.6406  -8.8697  -6.4617  -5.1558  -4.2809  -3.6996  -3.5953
    -3.4671  -3.4193  -3.3713  -3.3436  -3.1509  -3.0943  -2.9427  -2.7714
    -2.6979  -2.6596  -2.6262  -2.5914  -2.5556  -2.4337  -2.4085  -2.3350
    -2.3195  -2.3084  -2.2761  -2.2662  -2.2513  -2.2327  -2.1571  -2.1485
    -2.0625  -1.9513  -1.9007  -1.8857  -1.8671  -1.8258  -1.7885  -1.7750
    -1.7617  -1.7435  -1.7303  -1.6926  -1.5769  -1.5264  -1.4476  -1.3673
    -1.2961  -1.2084  -1.1319  -1.1038  -1.0362  -1.0110  -0.9507  -0.9264
    -0.9127  -0.9059  -0.7886  -0.6806  -0.6624  -0.5927  -0.5317  -0.4552
    -0.4117  -0.3858  -0.3166  -0.2832  -0.2725  -0.2589  -0.2328  -0.2179
    -0.1617  -0.0145   0.0627   0.0811   0.1398   0.1806   0.2320   0.2573
     0.2852   0.3330   0.3644   0.4045   0.4542   0.4578   0.4698   0.4940
     0.5082   0.6673   0.7225   0.7556   0.7812   0.8300   0.9422   0.9853
     1.1391   1.2075   1.2724   1.4553   1.5293   1.6099   1.7208   2.0662
     2.1006   2.1464   3.6151   3.7075   3.7485   3.7697   3.8567   3.8593
     4.0701   4.1150   4.1230   4.1896

[...]

          k = 0.0380-0.0419 0.0000 ( 17876 PWs)   bands (ev):

[...]

          k =-0.0760-0.0000 0.0000 ( 17886 PWs)   bands (ev):

[...]

          k =-0.0760-0.0839 0.0000 ( 17948 PWs)   bands (ev):

   -55.4938 -55.4931 -55.4643 -55.4599 -55.4445 -55.3446 -55.3381 -55.3287
   -55.3111 -55.3106 -55.2772 -55.2750 -55.0492 -54.8876 -54.4763 -54.4762
   -31.8379 -31.8212 -31.8098 -31.8092 -31.7889 -31.7881 -31.7484 -31.7409
   -31.7329 -31.7048 -31.6938 -31.6748 -31.6593 -31.6574 -31.6319 -31.6299
   -31.6274 -31.6253 -31.6173 -31.6163 -31.6139 -31.6126 -31.6121 -31.5605
   -31.5522 -31.5458 -31.5378 -31.5272 -31.5128 -31.5117 -31.5074 -31.5029
   -31.4926 -31.4901 -31.4849 -31.4829 -31.4119 -31.3094 -31.2566 -31.2110
   -31.1521 -31.1046 -30.8022 -30.8021 -30.7134 -30.7133 -30.6741 -30.6741
   -18.7222 -16.5351 -15.6577 -15.5866 -15.4707 -15.4417 -15.3820 -15.3319
   -15.3143 -15.2451 -15.2090 -15.1966 -15.1447 -15.1421 -15.0943 -15.0704
   -15.0436 -15.0398 -15.0247 -14.9821 -14.9713 -14.9560 -14.9519 -14.9484
   -14.8711 -14.8354 -14.8313 -14.8265 -14.7573 -14.6236 -14.3513 -12.9807
   -12.9805 -11.6476  -8.8786  -6.4575  -5.1592  -4.2758  -3.6426  -3.0826
    -2.9430  -2.7852  -2.7198  -2.6390  -2.6382  -2.5956  -2.4692  -2.4463
    -2.4080  -2.3807  -2.3496  -2.3393  -2.3302  -2.3265  -2.3144  -2.3003
    -2.2873  -2.2479  -2.2021  -2.1865  -2.1781  -2.1735  -2.1587  -2.1455
    -2.1299  -2.1273  -2.0915  -2.0622  -2.0350  -1.9993  -1.9458  -1.7451
    -1.7175  -1.6964  -1.6690  -1.6569  -1.6451  -1.6120  -1.5735  -1.5633
    -1.4910  -1.4031  -1.3149  -1.2369  -1.2037  -1.1909  -1.1217  -1.0361
    -0.9948  -0.9557  -0.9184  -0.8586  -0.7997  -0.7615  -0.7242  -0.6428
    -0.6245  -0.6144  -0.5530  -0.5366  -0.4764  -0.4682  -0.3902  -0.3485
    -0.3120  -0.2650  -0.2374  -0.2318  -0.2129  -0.1785  -0.1705  -0.1167
    -0.0002   0.0085   0.0280   0.1329   0.2214   0.4606   0.5174   0.5499
     0.6301   0.6927   0.7541   0.7753   0.7970   0.8009   0.8368   0.8974
     1.0115   1.0213   1.0599   1.1481   1.1746   1.8925   1.8933   1.9662
     1.9664   2.0690   3.9272   3.9535   3.9793   4.0151   4.1159   4.1330
     4.1554   4.1574   4.2724   4.2935

     the Fermi energy is     3.6203 ev

!    total energy              =   -2976.50558406 Ry
     estimated scf accuracy    <       0.00000005 Ry
     smearing contrib. (-TS)   =      -0.02132700 Ry
     internal energy E=F+TS    =   -2976.48425706 Ry

     The total energy is F=E-TS. E is the sum of the following terms:
     one-electron contribution =  -23892.26030095 Ry
     hartree contribution      =   12042.65971183 Ry
     xc contribution           =    -495.75462348 Ry
     ewald contribution        =    9368.86912426 Ry
     electric field correction =       0.00183128 Ry

     convergence has been achieved in  68 iterations

     Forces acting on atoms (cartesian axes, Ry/au):

     atom    1 type  1   force =     0.00015410   -0.00028195    0.09581893
     atom    2 type  1   force =    -0.00022897   -0.00062796   -0.17573095
     atom    3 type  2   force =     0.00006158   -0.00014609   -0.02382031
     atom    4 type  2   force =     0.00006499   -0.00154431    0.05353212
     atom    5 type  2   force =    -0.01126556   -0.00076246    0.00356156
     atom    6 type  2   force =     0.01296775    0.00005762    0.00268561
     atom    7 type  1   force =    -0.00096739    0.00065539   -0.00793751
     atom    8 type  1   force =     0.00042789    0.00624386    0.02298255
     atom    9 type  2   force =    -0.00005312   -0.00030792   -0.00094429
     atom   10 type  2   force =    -0.00136681    0.00127987   -0.01512401
     atom   11 type  2   force =    -0.00030856    0.00024790   -0.00023674
     atom   12 type  2   force =    -0.00021319    0.00022696   -0.00033835
     atom   13 type  1   force =     0.00074443   -0.00046836    0.00025599
     atom   14 type  1   force =    -0.00019685    0.00042217    0.00150076
     atom   15 type  2   force =     0.00001165   -0.00003264    0.00033743
     atom   16 type  2   force =     0.00025863    0.00005529    0.00013268
     atom   17 type  2   force =     0.00064463   -0.00023335    0.00035377
     atom   18 type  2   force =     0.00014043   -0.00045371    0.00043749
     atom   19 type  1   force =    -0.00123966    0.00020726    0.00062723
     atom   20 type  1   force =     0.00075105   -0.00003878   -0.00004654
     atom   21 type  2   force =     0.00008674   -0.00008993    0.10325962
     atom   22 type  2   force =    -0.00071033   -0.00046626   -0.00064119
     atom   23 type  2   force =    -0.07142778   -0.00018621   -0.02770034
     atom   24 type  2   force =     0.07139736    0.00027742   -0.02770402
     atom   25 type  1   force =     0.00002600   -0.00031186    0.09553233
     atom   26 type  1   force =    -0.00017763   -0.00031119   -0.17601009
     atom   27 type  2   force =     0.00009864   -0.00011988   -0.02292443
     atom   28 type  2   force =     0.00011500   -0.00127417    0.05318414
     atom   29 type  2   force =    -0.01151327    0.00015018    0.00362044
     atom   30 type  2   force =     0.01316389    0.00046303    0.00271098
     atom   31 type  1   force =    -0.00100997    0.00373514   -0.01105078
     atom   32 type  1   force =     0.00051031   -0.00741197    0.02338442
     atom   33 type  2   force =    -0.00023914    0.00031173   -0.00031280
     atom   34 type  2   force =    -0.00033447    0.00024886   -0.02184785
     atom   35 type  2   force =     0.00010527    0.00029964   -0.00037391
     atom   36 type  2   force =    -0.00036985    0.00030315   -0.00029650
     atom   37 type  1   force =     0.00040131    0.00057214   -0.00027762
     atom   38 type  1   force =    -0.00023576   -0.00041956    0.00134043
     atom   39 type  2   force =    -0.00007341   -0.00030236    0.00039841
     atom   40 type  2   force =     0.00032246    0.00008937   -0.00082450
     atom   41 type  2   force =     0.00117112    0.00050413    0.00013683
     atom   42 type  2   force =    -0.00068384    0.00030983    0.00001466
     atom   43 type  1   force =    -0.00095586   -0.00106611   -0.00011539
     atom   44 type  1   force =     0.00077084    0.00049839   -0.00016103
     atom   45 type  2   force =     0.00008737   -0.00010198    0.10326115
     atom   46 type  2   force =    -0.07143983   -0.00013757   -0.02768346
     atom   47 type  2   force =     0.07144042    0.00029686   -0.02771430
     atom   48 type  3   force =    -0.00037976   -0.00079821   -0.00033658
     atom   49 type  3   force =    -0.00065758    0.00038738   -0.00050279
     atom   50 type  4   force =    -0.00015280    0.00023538    0.00003351
     atom   51 type  5   force =     0.00010626    0.00070891    0.00009741
     atom   52 type  5   force =    -0.00047380   -0.00024975    0.00004379
     atom   53 type  5   force =     0.00036276   -0.00039539    0.00033701
     atom   54 type  5   force =     0.00012159    0.00011720    0.00003992
     atom   55 type  5   force =     0.00018116   -0.00010084    0.00049933
     atom   56 type  2   force =    -0.00077189   -0.00004731   -0.00005545
     atom   57 type  5   force =     0.00076775   -0.00005360   -0.00001427
     atom   58 type  5   force =    -0.00001628   -0.00016335    0.00060549

     Total force =     0.366755     Total SCF correction =     0.000899
  @ DRIVER MODE: Message from server: STATUS
  @ DRIVER MODE: Message from server: GETFORCE
  @ DRIVER MODE: Returning v,forces,stress,ensemble

     Writing output data file ./calc.save/
  @ DRIVER MODE: Message from server: EXIT
  @ DRIVE MODE: Exiting

     General routines

     Parallel routines

   This run was terminated on:  15:53: 8  15Sep2021

   JOB DONE.