     Program PWSCF v.6.7GPU starts on 28Sep2021 at  1: 0:31

     R & G space division:  proc/nbgrp/npool/nimage =       8
     Reading input from /storage/home/hcoda1/3/ntian30/research/carbon/CxH_vib/H2O_calc/ads_slab/CHN2HO_c/out_0008/pw.inp
Warning: card &CELL ignored
Warning: card   CELL_DYNAMICS='IPI', ignored
Warning: card / ignored

     Current dimensions of program PWSCF are:
     Max number of different atomic species (ntypx) = 10
     Max number of k-points (npk) =  40000
     Max angular momentum in pseudopotentials (lmaxx) =  3
     Presently no symmetry can be used with electric field

     Message from routine cell_base_init:
     DEPRECATED: use true lattice parameter, not A to a.u. conversion factor

     IMPORTANT: XC functional enforced from input :
     Exchange-correlation= BEEF-VDW
                           (   1   4  43  14   2   0   0)
     Any further DFT definition will be discarded
     Please, verify this is what you really want

  @ DRIVER MODE: Connecting to
 qe_1139763_3003540.sched-torque.pace.gatech.edut8iwqbh8_scratch
  using UNIX socket
  @ DRIVER MODE: Message from server: STATUS
  @ DRIVER MODE: Message from server: INIT
  @ DRIVER MODE: Receiving replica           0          -1
  @ DRIVER MODE: Receiving encoded integer          25
  @ DRIVER MODE:  SCF:  T  FORCE:  T  STRESS:  F  VC:  F  ENSEMBLE:  F
  @ DRIVER MODE:  SCF:  T  FORCE:  T  STRESS:  F  VC:  F  ENSEMBLE:  F

     Using Slab Decomposition

     bravais-lattice index     =            0
     lattice parameter (alat)  =       1.8897  a.u.
     unit-cell volume          =    6658.9804 (a.u.)^3
     number of atoms/cell      =           53
     number of atomic types    =            5
     number of electrons       =       400.00
     number of Kohn-Sham states=          210
     kinetic-energy cutoff     =      29.3995  Ry
     charge density cutoff     =     293.9946  Ry
     scf convergence threshold =      7.3E-08
     mixing beta               =       0.0500
     number of iterations used =            8  plain     mixing
     Exchange-correlation= BEEF-VDW
                           (   1   4  43  14   2   0   0)

     celldm(1)=   1.889726  celldm(2)=   0.000000  celldm(3)=   0.000000
     celldm(4)=   0.000000  celldm(5)=   0.000000  celldm(6)=   0.000000

     crystal axes: (cart. coord. in units of alat)
               a(1) = (   6.579727   0.000000   0.000000 )
               a(2) = (  -0.000775   5.961596   0.000000 )
               a(3) = (   0.000000   0.000000  25.155947 )

     reciprocal axes: (cart. coord. in units 2 pi/alat)
               b(1) = (  0.151982  0.000020  0.000000 )
               b(2) = (  0.000000  0.167740  0.000000 )
               b(3) = (  0.000000  0.000000  0.039752 )

     PseudoPot. # 1 for Ti read from file:
     /storage/coda1/p-amedford6/0/shared/rich_project_chbe-medford/medford-share/data/pseudos_module/espresso/nninc/pbe/van/Ti.UPF
     MD5 check sum: 8e4df49b7f0d34bbd5052bf3f5ea0213
     Pseudo is Ultrasoft, Zval = 12.0
     Generated by new atomic code, or converted to UPF format
     Using radial grid of  851 points,  6 beta functions with:
                l(1) =   0
                l(2) =   0
                l(3) =   1
                l(4) =   1
                l(5) =   2
                l(6) =   2
     Q(r) pseudized with  8 coefficients,  rinner =    1.000   1.000   1.000
                                                       1.000   1.000

     PseudoPot. # 2 for O  read from file:
     /storage/coda1/p-amedford6/0/shared/rich_project_chbe-medford/medford-share/data/pseudos_module/espresso/nninc/pbe/van/O.UPF
     MD5 check sum: 78c19812648e8988a0fe644b0f25305e
     Pseudo is Ultrasoft, Zval =  6.0
     Generated by new atomic code, or converted to UPF format
     Using radial grid of  737 points,  4 beta functions with:
                l(1) =   0
                l(2) =   0
                l(3) =   1
                l(4) =   1
     Q(r) pseudized with  8 coefficients,  rinner =    0.800   0.800   0.800

     PseudoPot. # 3 for C  read from file:
     /storage/coda1/p-amedford6/0/shared/rich_project_chbe-medford/medford-share/data/pseudos_module/espresso/nninc/pbe/van/C.UPF
     MD5 check sum: 1a69bf6b8db32088f5b2163dbdb77a27
     Pseudo is Ultrasoft, Zval =  4.0
     Generated by new atomic code, or converted to UPF format
     Using radial grid of  721 points,  4 beta functions with:
                l(1) =   0
                l(2) =   0
                l(3) =   1
                l(4) =   1
     Q(r) pseudized with  8 coefficients,  rinner =    0.800   0.800   0.800

     PseudoPot. # 4 for H  read from file:
     /storage/coda1/p-amedford6/0/shared/rich_project_chbe-medford/medford-share/data/pseudos_module/espresso/nninc/pbe/van/H.UPF
     MD5 check sum: b5ee9d7bfd3a09ee7748110bda690ff7
     Pseudo is Ultrasoft, Zval =  1.0
     Generated by new atomic code, or converted to UPF format
     Using radial grid of  615 points,  1 beta functions with:
                l(1) =   0
     Q(r) pseudized with  8 coefficients,  rinner =    0.800

     PseudoPot. # 5 for N  read from file:
     /storage/coda1/p-amedford6/0/shared/rich_project_chbe-medford/medford-share/data/pseudos_module/espresso/nninc/pbe/van/N.UPF
     MD5 check sum: 90d10febe142ad51ac9d5be1deb811c4
     Pseudo is Ultrasoft, Zval =  5.0
     Generated by new atomic code, or converted to UPF format
     Using radial grid of  729 points,  4 beta functions with:
                l(1) =   0
                l(2) =   0
                l(3) =   1
                l(4) =   1
     Q(r) pseudized with  8 coefficients,  rinner =    0.800   0.800   0.800

     atomic species   valence    mass     pseudopotential
        Ti1           12.00    47.86700     Ti( 1.00)
        O1             6.00    15.99900     O ( 1.00)
        C1             4.00    12.01100     C ( 1.00)
        H1             1.00     1.00800     H ( 1.00)
        N1             5.00    14.00700     N ( 1.00)

     No symmetry found

   Cartesian axes

     site n.     atom                  positions (alat units)
         1           Ti1 tau(   1) = (   0.0004258   2.9801865   6.0000000  )
         2           Ti1 tau(   2) = (   3.2906075   1.4906267   6.0002472  )
         3           O1  tau(   3) = (   0.0006271   0.0005054   7.9858123  )
         4           O1  tau(   4) = (   3.2906025   0.0005020   7.3038282  )
         5           O1  tau(   5) = (   4.5942328   1.4918067   9.2879030  )
         6           O1  tau(   6) = (   1.9868534   1.4903216   9.2879459  )
         7           Ti1 tau(   7) = (   3.2907910   2.8959150   9.1758416  )
         8           Ti1 tau(   8) = (   0.0015273   1.4827037   9.2680791  )
         9           O1  tau(   9) = (   3.2766663   5.9464886  11.2681881  )
        10           O1  tau(  10) = (   0.0116148   5.9584955  10.6183126  )
        11           O1  tau(  11) = (   1.2752176   1.4923442  12.6271229  )
        12           O1  tau(  12) = (   5.2852060   1.4859299  12.6156521  )
        13           Ti1 tau(  13) = (   6.5717068   2.8472942  12.7124165  )
        14           Ti1 tau(  14) = (   3.2754330   1.3122793  12.6492615  )
        15           O1  tau(  15) = (   6.5604847   5.9612185  14.6398873  )
        16           O1  tau(  16) = (   3.2770837   0.0341078  13.8632434  )
        17           O1  tau(  17) = (   4.5026011   1.5263741  16.0779633  )
        18           O1  tau(  18) = (   1.9856211   1.5373541  16.0544900  )
        19           Ti1 tau(  19) = (   3.2645371   3.0024783  15.6402076  )
        20           Ti1 tau(  20) = (   0.0306923   1.4636683  15.8866077  )
        21           O1  tau(  21) = (   3.2904802   0.0005063   4.7018136  )
        22           O1  tau(  22) = (   6.5250562   0.0096470  17.1651689  )
        23           O1  tau(  23) = (   1.3043587   1.4918075   6.0039043  )
        24           O1  tau(  24) = (   5.2767064   1.4903225   6.0039473  )
        25           Ti1 tau(  25) = (   0.0000382   5.9609847   6.0000000  )
        26           Ti1 tau(  26) = (   3.2902200   4.4714249   6.0002472  )
        27           O1  tau(  27) = (   0.0002396   2.9813036   7.9858123  )
        28           O1  tau(  28) = (   3.2902150   2.9813002   7.3038282  )
        29           O1  tau(  29) = (   4.5938453   4.4726049   9.2879030  )
        30           O1  tau(  30) = (   1.9864658   4.4711199   9.2879459  )
        31           Ti1 tau(  31) = (   3.2891106   5.8743827   9.1763621  )
        32           Ti1 tau(  32) = (   0.0006254   4.4649316   9.2693709  )
        33           O1  tau(  33) = (   3.2790072   3.0290766  11.2406627  )
        34           O1  tau(  34) = (   0.0092240   2.9805883  10.6323155  )
        35           O1  tau(  35) = (   1.2722205   4.4691906  12.6310473  )
        36           O1  tau(  36) = (   5.2766839   4.4717175  12.6187613  )
        37           Ti1 tau(  37) = (   6.5522158   5.8291752  12.6058762  )
        38           Ti1 tau(  38) = (   3.2615408   4.4097241  12.4102932  )
        39           O1  tau(  39) = (   6.5509886   2.9451087  14.6802276  )
        40           O1  tau(  40) = (   3.2772003   2.9821494  13.8576607  )
        41           O1  tau(  41) = (   4.5331312   4.4179464  16.0511208  )
        42           O1  tau(  42) = (   2.0062445   4.4387243  16.0647957  )
        43           Ti1 tau(  43) = (   3.2965114   0.0079596  16.3395523  )
        44           Ti1 tau(  44) = (   6.5556523   4.6042306  16.0453395  )
        45           O1  tau(  45) = (   3.2900926   2.9813045   4.7018136  )
        46           O1  tau(  46) = (   1.3039711   4.4726057   6.0039043  )
        47           O1  tau(  47) = (   5.2763189   4.4711207   6.0039473  )
        48           C1  tau(  48) = (   0.0539703   2.9674629  17.6512085  )
        49           H1  tau(  49) = (   1.0188706   2.9548903  18.1741722  )
        50           N1  tau(  50) = (   5.6350074   2.8816608  18.4775489  )
        51           N1  tau(  51) = (   4.6939826   2.7887373  19.1166784  )
        52           O1  tau(  52) = (   3.2898008   5.9156070  18.1392511  )
        53           H1  tau(  53) = (   3.8410492   0.4763436  18.7420070  )

     number of k points=    10  Fermi-Dirac smearing, width (Ry)=  0.0073
                       cart. coord. in units 2pi/alat
        k(    1) = (   0.0000000   0.0000000   0.0000000), wk =   0.1250000
        k(    2) = (   0.0000000   0.0419351   0.0000000), wk =   0.2500000
        k(    3) = (   0.0000000  -0.0838702   0.0000000), wk =   0.1250000
        k(    4) = (   0.0379955   0.0000049   0.0000000), wk =   0.2500000
        k(    5) = (   0.0379955   0.0419400   0.0000000), wk =   0.2500000
        k(    6) = (   0.0379955  -0.0838652   0.0000000), wk =   0.2500000
        k(    7) = (   0.0379955  -0.0419301   0.0000000), wk =   0.2500000
        k(    8) = (  -0.0759910  -0.0000099   0.0000000), wk =   0.1250000
        k(    9) = (  -0.0759910   0.0419252   0.0000000), wk =   0.2500000
        k(   10) = (  -0.0759910  -0.0838800   0.0000000), wk =   0.1250000

     Initial potential from superposition of free atoms

     starting charge  383.99917, renormalised to  400.00000

     negative rho (up, down):  1.800E-02 0.000E+00

     %%%%%%%%%%%%%%%%%%%%%%%%%%%%%%%%%%%%%%%%%%%%%%%%%%%%%%%%%%%%%%%%%%%%%%%%
     %                                                                      %
     % You are using vdW-DF, which was implemented by the Thonhauser group. %
     % Please cite the following two papers that made this development      %
     % possible and the two reviews that describe the various versions:     %
     %                                                                      %
     %   T. Thonhauser et al., PRL 115, 136402 (2015).                      %
     %   T. Thonhauser et al., PRB 76, 125112 (2007).                       %
     %   K. Berland et al., Rep. Prog. Phys. 78, 066501 (2015).             %
     %   D.C. Langreth et al., J. Phys.: Condens. Matter 21, 084203 (2009). %
     %                                                                      %
     %                                                                      %
     % If you are calculating the stress with vdW-DF, please also cite:     %
     %                                                                      %
     %   R. Sabatini et al., J. Phys.: Condens. Matter 24, 424209 (2012).   %
     %                                                                      %
     %%%%%%%%%%%%%%%%%%%%%%%%%%%%%%%%%%%%%%%%%%%%%%%%%%%%%%%%%%%%%%%%%%%%%%%%

     Adding external electric field

     Computed dipole along edir(3) :
        Dipole              -10.2460 Ry au,        -26.0427 Debye
        Dipole field         -0.0193 Ry au,

        Potential amp.        1.7924 Ry
        Total length         46.3494 bohr

     Starting wfcs are  302 atomic wfcs
  @ DRIVER MODE: Message from server: STATUS
  @ DRIVER MODE: Message from server: POSDATA
  @ DRIVER MODE: Reading and sharing cell
  @ DRIVER MODE: Reading and sharing positions
  @ DRIVER MODE: Received positions

     Self-consistent Calculation

     iteration #  1     ecut=    29.40 Ry     beta= 0.05
     Davidson diagonalization with overlap
     c_bands:  2 eigenvalues not converged
     c_bands:  1 eigenvalues not converged
     c_bands:  2 eigenvalues not converged
     c_bands:  2 eigenvalues not converged
     c_bands:  3 eigenvalues not converged
     c_bands:  2 eigenvalues not converged
     c_bands:  1 eigenvalues not converged
     c_bands:  1 eigenvalues not converged
     ethr =  1.00E-05,  avg # of iterations = 19.5

[...]

     total energy              =   -2478.83964295 Ry
     estimated scf accuracy    <    5474.14814351 Ry

     iteration #  2     ecut=    29.40 Ry     beta= 0.05
     Davidson diagonalization with overlap
     ethr =  1.00E-02,  avg # of iterations = 24.2

[...]

     iteration # 77     ecut=    29.40 Ry     beta= 0.05
     Davidson diagonalization with overlap
     c_bands:  1 eigenvalues not converged
     ethr =  3.07E-08,  avg # of iterations =  9.9

[...]

     total energy              =   -2970.23697874 Ry
     estimated scf accuracy    <       0.00000014 Ry

     iteration #107     ecut=    29.40 Ry     beta= 0.05
     Davidson diagonalization with overlap
     ethr =  1.89E-11,  avg # of iterations =  6.0

     negative rho (up, down):  1.778E-02 0.000E+00

     Adding external electric field

     Computed dipole along edir(3) :
        Dipole                0.0349 Ry au,          0.0888 Debye
        Dipole field          0.0001 Ry au,

        Potential amp.       -0.0061 Ry
        Total length         46.3494 bohr

     End of self-consistent calculation

          k = 0.0000 0.0000 0.0000 ( 18029 PWs)   bands (ev):

   -56.8995 -56.8659 -56.1329 -56.0971 -55.8752 -55.8138 -55.7059 -55.5585
   -55.5022 -55.4934 -55.4818 -55.4683 -55.4418 -55.4285 -55.2437 -55.2286
   -33.3250 -33.1788 -33.1508 -33.0719 -32.9812 -32.9513 -32.6159 -32.3544
   -32.3528 -32.3238 -32.2743 -32.2721 -32.2410 -32.1063 -32.0950 -32.0420
   -32.0397 -32.0379 -32.0178 -31.9768 -31.9696 -31.9283 -31.9271 -31.8997
   -31.8870 -31.8546 -31.8461 -31.8264 -31.8218 -31.7668 -31.7117 -31.7103
   -31.6981 -31.6926 -31.6821 -31.6763 -31.6535 -31.6469 -31.6334 -31.6276
   -31.6201 -31.5159 -31.4941 -31.4810 -31.4726 -31.4680 -31.4378 -31.4338
   -20.3926 -17.0452 -16.5576 -16.5148 -16.2439 -16.2168 -16.1413 -16.1271
   -16.1217 -15.8611 -15.8351 -15.8111 -15.7439 -15.6942 -15.5206 -15.4239
   -15.3581 -15.2659 -15.1988 -15.1790 -15.1747 -15.1457 -15.1242 -15.1204
   -15.0330 -15.0254 -14.9148 -14.8178 -14.7726 -14.5222 -14.4784 -13.9994
   -13.8911 -13.4147  -5.5509  -4.6081  -4.5528  -4.4058  -4.1816  -4.0434
    -3.8638  -3.6691  -3.6163  -3.4615  -3.4498  -3.3893  -3.3450  -3.3281
    -3.2360  -3.1418  -3.0597  -3.0594  -3.0351  -2.9664  -2.9400  -2.7802
    -2.7794  -2.7687  -2.6450  -2.5940  -2.5395  -2.4929  -2.4809  -2.4349
    -2.4116  -2.4001  -2.3518  -2.3033  -2.2963  -2.1644  -2.1227  -2.0980
    -2.0456  -1.9874  -1.9709  -1.8960  -1.8782  -1.8549  -1.6865  -1.6205
    -1.5792  -1.5278  -1.4977  -1.4718  -1.3328  -1.3012  -1.2032  -1.2001
    -1.1623  -1.1131  -1.0557  -1.0347  -0.9660  -0.8758  -0.8614  -0.8498
    -0.7770  -0.6978  -0.6194  -0.5761  -0.5093  -0.4993  -0.4796  -0.4484
    -0.4396  -0.3453  -0.3006  -0.2531  -0.1667  -0.1388  -0.0115  -0.0007
     0.0629   0.1112   0.1313   0.1627   0.1756   0.2060   0.2757   0.3428
     0.3688   0.3963   0.5200   0.5285   0.5791   0.5952   0.7102   0.7335
     0.7427   0.7915   0.8575   0.9311   1.0558   1.0969   1.3636   1.9250
     2.3796   2.5391   2.8191   2.9055   3.2140   3.3618   3.3672   3.3767
     3.5524   3.6745

[...]

          k = 0.0380-0.0419 0.0000 ( 17876 PWs)   bands (ev):

[...]

          k =-0.0760-0.0000 0.0000 ( 17886 PWs)   bands (ev):

[...]

          k =-0.0760-0.0839 0.0000 ( 17948 PWs)   bands (ev):

   -56.8831 -56.8821 -56.1212 -56.1086 -55.8701 -55.8188 -55.7050 -55.5543
   -55.4941 -55.4858 -55.4857 -55.4846 -55.4406 -55.4270 -55.2451 -55.2298
   -33.1650 -33.1640 -33.1425 -33.1414 -33.0254 -33.0248 -32.4418 -32.4314
   -32.3153 -32.3024 -32.3017 -32.2936 -32.1772 -32.1366 -32.1000 -32.0907
   -32.0460 -32.0398 -31.9956 -31.9549 -31.9153 -31.8850 -31.8616 -31.8353
   -31.8344 -31.8260 -31.8150 -31.8129 -31.7804 -31.7738 -31.7578 -31.7211
   -31.7080 -31.7064 -31.7012 -31.6829 -31.6798 -31.6693 -31.6679 -31.6571
   -31.6413 -31.6176 -31.5803 -31.5328 -31.4941 -31.4831 -31.4630 -31.4416
   -20.3921 -16.5055 -16.4171 -16.4140 -16.3491 -16.3472 -16.1225 -16.1164
   -15.8971 -15.8646 -15.7564 -15.6653 -15.5976 -15.5447 -15.5399 -15.4988
   -15.4035 -15.3885 -15.3241 -15.2839 -15.2689 -15.2035 -15.1798 -15.1376
   -15.1302 -15.0953 -14.9548 -14.8979 -14.8720 -14.7297 -14.6188 -13.9954
   -13.9947 -13.4209  -5.5531  -4.5576  -4.3579  -4.1668  -3.5003  -3.4813
    -3.4703  -3.4638  -3.2361  -3.2215  -3.2083  -3.1061  -3.0843  -3.0536
    -2.9916  -2.9888  -2.8866  -2.8312  -2.8010  -2.7927  -2.7768  -2.7209
    -2.7185  -2.6979  -2.6510  -2.5580  -2.5487  -2.5170  -2.4950  -2.4431
    -2.3631  -2.3307  -2.3098  -2.2871  -2.2768  -2.2684  -2.2454  -2.2108
    -2.1451  -1.9608  -1.9236  -1.8832  -1.8432  -1.8004  -1.7895  -1.7217
    -1.7126  -1.6934  -1.6506  -1.5665  -1.5418  -1.5035  -1.4976  -1.4159
    -1.3673  -1.3448  -1.2891  -1.2281  -1.1178  -1.0585  -1.0244  -1.0141
    -0.9999  -0.9728  -0.9011  -0.8270  -0.7785  -0.7026  -0.6730  -0.6539
    -0.6197  -0.5952  -0.5314  -0.5181  -0.4269  -0.3724  -0.2729  -0.2046
    -0.1725  -0.1229  -0.0935  -0.0189   0.0523   0.1445   0.1694   0.2364
     0.2473   0.2996   0.3365   0.5172   0.6240   0.6508   0.6833   0.8039
     0.8168   0.8494   0.9007   0.9043   0.9051   0.9434   0.9879   1.8846
     2.9594   2.9622   3.0167   3.0234   3.3159   3.3240   3.4322   3.4364
     3.6543   3.6774

     the Fermi energy is     2.2100 ev

!    total energy              =   -2970.23697927 Ry
     estimated scf accuracy    <       0.00000005 Ry
     smearing contrib. (-TS)   =      -0.00495670 Ry
     internal energy E=F+TS    =   -2970.23202257 Ry

     The total energy is F=E-TS. E is the sum of the following terms:
     one-electron contribution =  -23890.89682500 Ry
     hartree contribution      =   12034.92710624 Ry
     xc contribution           =    -491.36976585 Ry
     ewald contribution        =    9377.10745974 Ry
     electric field correction =       0.00000230 Ry

     convergence has been achieved in 107 iterations

     Forces acting on atoms (cartesian axes, Ry/au):

     atom    1 type  1   force =     0.00016665   -0.00041978    0.12031847
     atom    2 type  1   force =    -0.00006003    0.00015979   -0.15701367
     atom    3 type  2   force =     0.00001936   -0.00007204   -0.05924447
     atom    4 type  2   force =     0.00000172    0.00008513    0.02056978
     atom    5 type  2   force =    -0.00369935   -0.00202105   -0.01103100
     atom    6 type  2   force =     0.00482250   -0.00123682   -0.01302268
     atom    7 type  1   force =    -0.00068556   -0.00619847    0.05342476
     atom    8 type  1   force =     0.00115869    0.01366923    0.08841378
     atom    9 type  2   force =    -0.00013204   -0.00125303    0.00076784
     atom   10 type  2   force =    -0.00301336    0.00052526   -0.05510412
     atom   11 type  2   force =     0.00000110    0.00031109    0.00021465
     atom   12 type  2   force =    -0.00049144   -0.00023337   -0.00030721
     atom   13 type  1   force =    -0.00072100    0.00115965   -0.00086454
     atom   14 type  1   force =    -0.00005598   -0.00122122   -0.00010752
     atom   15 type  2   force =     0.00015781    0.00051067   -0.00030295
     atom   16 type  2   force =     0.00059595   -0.00075579   -0.00063114
     atom   17 type  2   force =     0.00051619    0.00048707   -0.00026147
     atom   18 type  2   force =     0.00012107    0.00043407   -0.00083799
     atom   19 type  1   force =     0.00018765    0.00004264    0.00054967
     atom   20 type  1   force =     0.00053753   -0.00070064    0.00025413
     atom   21 type  2   force =     0.00009577    0.00021618    0.09834242
     atom   22 type  2   force =     0.00022965    0.00002242    0.00076242
     atom   23 type  2   force =    -0.08117283    0.00005405   -0.03238090
     atom   24 type  2   force =     0.08115786    0.00049370   -0.03237332
     atom   25 type  1   force =     0.00015689   -0.00059670    0.12071974
     atom   26 type  1   force =     0.00006960   -0.00144987   -0.15747340
     atom   27 type  2   force =     0.00009652   -0.00078322   -0.05738107
     atom   28 type  2   force =     0.00003703    0.00183088    0.01625957
     atom   29 type  2   force =    -0.00203427    0.00509198   -0.01430922
     atom   30 type  2   force =     0.00291295    0.00551846   -0.01632384
     atom   31 type  1   force =    -0.00059244    0.00198255    0.03656819
     atom   32 type  1   force =     0.00117456   -0.01697334    0.08810403
     atom   33 type  2   force =    -0.00003400    0.00049273    0.00106526
     atom   34 type  2   force =    -0.00260487    0.00100779   -0.07063289
     atom   35 type  2   force =     0.00136556   -0.00051015    0.00039117
     atom   36 type  2   force =    -0.00025741   -0.00017993    0.00025347
     atom   37 type  1   force =    -0.00061539   -0.00038422    0.00012809
     atom   38 type  1   force =     0.00107100   -0.00063156   -0.00019190
     atom   39 type  2   force =    -0.00063056   -0.00076977    0.00037036
     atom   40 type  2   force =    -0.00014762   -0.00008008   -0.00061598
     atom   41 type  2   force =     0.00091673    0.00027537   -0.00005571
     atom   42 type  2   force =     0.00011940    0.00001853   -0.00029047
     atom   43 type  1   force =     0.00000467    0.00055664    0.00039672
     atom   44 type  1   force =     0.00023753    0.00068883   -0.00058730
     atom   45 type  2   force =     0.00010012    0.00002494    0.09817322
     atom   46 type  2   force =    -0.08121190    0.00000724   -0.03235869
     atom   47 type  2   force =     0.08120213    0.00042450   -0.03237669
     atom   48 type  3   force =     0.00952802   -0.00143323    0.00417207
     atom   49 type  4   force =    -0.01063039    0.00030580   -0.00344711
     atom   50 type  5   force =     0.00197627   -0.00029248   -0.00053849
     atom   51 type  5   force =    -0.00078411   -0.00061353   -0.00014545
     atom   52 type  2   force =    -0.00088913    0.00079603   -0.00068484
     atom   53 type  4   force =    -0.00027479    0.00161707    0.00067623

     Total force =     0.406620     Total SCF correction =     0.000555
  @ DRIVER MODE: Message from server: STATUS
  @ DRIVER MODE: Message from server: GETFORCE
  @ DRIVER MODE: Returning v,forces,stress,ensemble

     Writing output data file ./calc.save/
  @ DRIVER MODE: Message from server: EXIT
  @ DRIVE MODE: Exiting

     General routines

     Parallel routines

   This run was terminated on:   1:31:40  28Sep2021

   JOB DONE.