     Program PWSCF v.6.7GPU starts on 16Sep2021 at  8:52:31

     R & G space division:  proc/nbgrp/npool/nimage =      10
     Reading input from /storage/home/hcoda1/3/ntian30/research/carbon/CxH_vib/H2O_calc/ads_slab/CH3N2HH2O_a/out_0053/pw.inp
Warning: card &CELL ignored
Warning: card   CELL_DYNAMICS='IPI', ignored
Warning: card / ignored

     Current dimensions of program PWSCF are:
     Max number of different atomic species (ntypx) = 10
     Max number of k-points (npk) =  40000
     Max angular momentum in pseudopotentials (lmaxx) =  3
     Presently no symmetry can be used with electric field

     Message from routine cell_base_init:
     DEPRECATED: use true lattice parameter, not A to a.u. conversion factor

     IMPORTANT: XC functional enforced from input :
     Exchange-correlation= BEEF-VDW
                           (   1   4  43  14   2   0   0)
     Any further DFT definition will be discarded
     Please, verify this is what you really want

  @ DRIVER MODE: Connecting to
 qe_1139763_2852617.sched-torque.pace.gatech.edu3e4k4frg_scratch
  using UNIX socket
  @ DRIVER MODE: Message from server: STATUS
  @ DRIVER MODE: Message from server: INIT
  @ DRIVER MODE: Receiving replica           0          -1
  @ DRIVER MODE: Receiving encoded integer          25
  @ DRIVER MODE:  SCF:  T  FORCE:  T  STRESS:  F  VC:  F  ENSEMBLE:  F
  @ DRIVER MODE:  SCF:  T  FORCE:  T  STRESS:  F  VC:  F  ENSEMBLE:  F

     Using Slab Decomposition

     bravais-lattice index     =            0
     lattice parameter (alat)  =       1.8897  a.u.
     unit-cell volume          =    6658.9804 (a.u.)^3
     number of atoms/cell      =           57
     number of atomic types    =            5
     number of electrons       =       404.00
     number of Kohn-Sham states=          212
     kinetic-energy cutoff     =      29.3995  Ry
     charge density cutoff     =     293.9946  Ry
     scf convergence threshold =      7.3E-08
     mixing beta               =       0.0500
     number of iterations used =            8  plain     mixing
     Exchange-correlation= BEEF-VDW
                           (   1   4  43  14   2   0   0)

     celldm(1)=   1.889726  celldm(2)=   0.000000  celldm(3)=   0.000000
     celldm(4)=   0.000000  celldm(5)=   0.000000  celldm(6)=   0.000000

     crystal axes: (cart. coord. in units of alat)
               a(1) = (   6.579727   0.000000   0.000000 )
               a(2) = (  -0.000775   5.961596   0.000000 )
               a(3) = (   0.000000   0.000000  25.155947 )

     reciprocal axes: (cart. coord. in units 2 pi/alat)
               b(1) = (  0.151982  0.000020  0.000000 )
               b(2) = (  0.000000  0.167740  0.000000 )
               b(3) = (  0.000000  0.000000  0.039752 )

     PseudoPot. # 1 for Ti read from file:
     /storage/coda1/p-amedford6/0/shared/rich_project_chbe-medford/medford-share/data/pseudos_module/espresso/nninc/pbe/van/Ti.UPF
     MD5 check sum: 8e4df49b7f0d34bbd5052bf3f5ea0213
     Pseudo is Ultrasoft, Zval = 12.0
     Generated by new atomic code, or converted to UPF format
     Using radial grid of  851 points,  6 beta functions with:
                l(1) =   0
                l(2) =   0
                l(3) =   1
                l(4) =   1
                l(5) =   2
                l(6) =   2
     Q(r) pseudized with  8 coefficients,  rinner =    1.000   1.000   1.000
                                                       1.000   1.000

     PseudoPot. # 2 for O  read from file:
     /storage/coda1/p-amedford6/0/shared/rich_project_chbe-medford/medford-share/data/pseudos_module/espresso/nninc/pbe/van/O.UPF
     MD5 check sum: 78c19812648e8988a0fe644b0f25305e
     Pseudo is Ultrasoft, Zval =  6.0
     Generated by new atomic code, or converted to UPF format
     Using radial grid of  737 points,  4 beta functions with:
                l(1) =   0
                l(2) =   0
                l(3) =   1
                l(4) =   1
     Q(r) pseudized with  8 coefficients,  rinner =    0.800   0.800   0.800

     PseudoPot. # 3 for N  read from file:
     /storage/coda1/p-amedford6/0/shared/rich_project_chbe-medford/medford-share/data/pseudos_module/espresso/nninc/pbe/van/N.UPF
     MD5 check sum: 90d10febe142ad51ac9d5be1deb811c4
     Pseudo is Ultrasoft, Zval =  5.0
     Generated by new atomic code, or converted to UPF format
     Using radial grid of  729 points,  4 beta functions with:
                l(1) =   0
                l(2) =   0
                l(3) =   1
                l(4) =   1
     Q(r) pseudized with  8 coefficients,  rinner =    0.800   0.800   0.800

     PseudoPot. # 4 for C  read from file:
     /storage/coda1/p-amedford6/0/shared/rich_project_chbe-medford/medford-share/data/pseudos_module/espresso/nninc/pbe/van/C.UPF
     MD5 check sum: 1a69bf6b8db32088f5b2163dbdb77a27
     Pseudo is Ultrasoft, Zval =  4.0
     Generated by new atomic code, or converted to UPF format
     Using radial grid of  721 points,  4 beta functions with:
                l(1) =   0
                l(2) =   0
                l(3) =   1
                l(4) =   1
     Q(r) pseudized with  8 coefficients,  rinner =    0.800   0.800   0.800

     PseudoPot. # 5 for H  read from file:
     /storage/coda1/p-amedford6/0/shared/rich_project_chbe-medford/medford-share/data/pseudos_module/espresso/nninc/pbe/van/H.UPF
     MD5 check sum: b5ee9d7bfd3a09ee7748110bda690ff7
     Pseudo is Ultrasoft, Zval =  1.0
     Generated by new atomic code, or converted to UPF format
     Using radial grid of  615 points,  1 beta functions with:
                l(1) =   0
     Q(r) pseudized with  8 coefficients,  rinner =    0.800

     atomic species   valence    mass     pseudopotential
        Ti1           12.00    47.86700     Ti( 1.00)
        O1             6.00    15.99900     O ( 1.00)
        N1             5.00    14.00700     N ( 1.00)
        C1             4.00    12.01100     C ( 1.00)
        H1             1.00     1.00800     H ( 1.00)

     No symmetry found

   Cartesian axes

     site n.     atom                  positions (alat units)
         1           Ti1 tau(   1) = (   0.0004258   2.9801865   6.0000000  )
         2           Ti1 tau(   2) = (   3.2906075   1.4906267   6.0002472  )
         3           O1  tau(   3) = (   0.0006271   0.0005054   7.9858123  )
         4           O1  tau(   4) = (   3.2906025   0.0005020   7.3038282  )
         5           O1  tau(   5) = (   4.5942328   1.4918067   9.2879030  )
         6           O1  tau(   6) = (   1.9868534   1.4903216   9.2879459  )
         7           Ti1 tau(   7) = (   3.2907910   2.8959150   9.1758416  )
         8           Ti1 tau(   8) = (   0.0015273   1.4827037   9.2680791  )
         9           O1  tau(   9) = (   3.2846840   0.0164488  11.3171736  )
        10           O1  tau(  10) = (   0.0116148   5.9584955  10.6183126  )
        11           O1  tau(  11) = (   1.2780696   1.4966870  12.6228330  )
        12           O1  tau(  12) = (   5.2671132   1.5021727  12.6038655  )
        13           Ti1 tau(  13) = (   0.0814623   2.9703834  12.6092300  )
        14           Ti1 tau(  14) = (   3.3984034   1.5042134  12.4754612  )
        15           O1  tau(  15) = (   6.5611900   5.9602394  14.6246442  )
        16           O1  tau(  16) = (   3.2847170   0.0117735  13.9091713  )
        17           O1  tau(  17) = (   4.5127615   1.5439160  15.9886145  )
        18           O1  tau(  18) = (   2.0245574   1.5486524  15.9865356  )
        19           Ti1 tau(  19) = (   3.2678410   3.0292036  15.6627315  )
        20           Ti1 tau(  20) = (   6.5437773   1.5790868  15.8036792  )
        21           O1  tau(  21) = (   3.2904802   0.0005063   4.7018136  )
        22           O1  tau(  22) = (   6.5616667   0.0409992  17.2467836  )
        23           O1  tau(  23) = (   1.3043587   1.4918075   6.0039043  )
        24           O1  tau(  24) = (   5.2767064   1.4903225   6.0039473  )
        25           Ti1 tau(  25) = (   0.0000382   5.9609847   6.0000000  )
        26           Ti1 tau(  26) = (   3.2902200   4.4714249   6.0002472  )
        27           O1  tau(  27) = (   0.0002396   2.9813036   7.9858123  )
        28           O1  tau(  28) = (   3.2902150   2.9813002   7.3038282  )
        29           O1  tau(  29) = (   4.5938453   4.4726049   9.2879030  )
        30           O1  tau(  30) = (   1.9864658   4.4711199   9.2879459  )
        31           Ti1 tau(  31) = (   3.2891106   5.8743827   9.1763621  )
        32           Ti1 tau(  32) = (   0.0006254   4.4649316   9.2693709  )
        33           O1  tau(  33) = (   3.2886753   2.9955121  11.3174028  )
        34           O1  tau(  34) = (   0.0092240   2.9805883  10.6323155  )
        35           O1  tau(  35) = (   1.2771457   4.4765085  12.6200386  )
        36           O1  tau(  36) = (   5.2716127   4.4859779  12.5990880  )
        37           Ti1 tau(  37) = (   0.0719143   5.9417653  12.6408960  )
        38           Ti1 tau(  38) = (   3.4009286   4.4967646  12.4819834  )
        39           O1  tau(  39) = (   6.5633752   2.9851081  14.6229342  )
        40           O1  tau(  40) = (   3.2806164   3.0132077  13.8636590  )
        41           O1  tau(  41) = (   4.5054435   4.4842064  16.0752605  )
        42           O1  tau(  42) = (   2.0287922   4.4846499  16.0567397  )
        43           Ti1 tau(  43) = (   3.2585180   0.0608266  15.7494983  )
        44           Ti1 tau(  44) = (   6.5556145   4.6328118  16.1363011  )
        45           O1  tau(  45) = (   3.2900926   2.9813045   4.7018136  )
        46           O1  tau(  46) = (   1.3039711   4.4726057   6.0039043  )
        47           O1  tau(  47) = (   5.2763189   4.4711207   6.0039473  )
        48           N1  tau(  48) = (   6.4582227   2.6263240  18.5734135  )
        49           N1  tau(  49) = (   6.5493832   2.9496485  17.3103279  )
        50           C1  tau(  50) = (   0.1600853   3.5596473  19.6455425  )
        51           H1  tau(  51) = (   6.1911903   4.4878083  19.4849519  )
        52           H1  tau(  52) = (   6.4401482   3.1080517  20.5902855  )
        53           H1  tau(  53) = (   1.2308410   3.8049764  19.6956042  )
        54           H1  tau(  54) = (   6.5044843   1.6253530  18.7706356  )
        55           O1  tau(  55) = (   3.2415852   0.0755412  18.2049893  )
        56           H1  tau(  56) = (   4.0109045   5.4607113  18.3309029  )
        57           H1  tau(  57) = (   2.4534619   5.4803556  18.3240773  )

     number of k points=    10  Fermi-Dirac smearing, width (Ry)=  0.0073
                       cart. coord. in units 2pi/alat
        k(    1) = (   0.0000000   0.0000000   0.0000000), wk =   0.1250000
        k(    2) = (   0.0000000   0.0419351   0.0000000), wk =   0.2500000
        k(    3) = (   0.0000000  -0.0838702   0.0000000), wk =   0.1250000
        k(    4) = (   0.0379955   0.0000049   0.0000000), wk =   0.2500000
        k(    5) = (   0.0379955   0.0419400   0.0000000), wk =   0.2500000
        k(    6) = (   0.0379955  -0.0838652   0.0000000), wk =   0.2500000
        k(    7) = (   0.0379955  -0.0419301   0.0000000), wk =   0.2500000
        k(    8) = (  -0.0759910  -0.0000099   0.0000000), wk =   0.1250000
        k(    9) = (  -0.0759910   0.0419252   0.0000000), wk =   0.2500000
        k(   10) = (  -0.0759910  -0.0838800   0.0000000), wk =   0.1250000

     Initial potential from superposition of free atoms

     starting charge  387.99913, renormalised to  404.00000

     negative rho (up, down):  1.445E-02 0.000E+00

     %%%%%%%%%%%%%%%%%%%%%%%%%%%%%%%%%%%%%%%%%%%%%%%%%%%%%%%%%%%%%%%%%%%%%%%%
     %                                                                      %
     % You are using vdW-DF, which was implemented by the Thonhauser group. %
     % Please cite the following two papers that made this development      %
     % possible and the two reviews that describe the various versions:     %
     %                                                                      %
     %   T. Thonhauser et al., PRL 115, 136402 (2015).                      %
     %   T. Thonhauser et al., PRB 76, 125112 (2007).                       %
     %   K. Berland et al., Rep. Prog. Phys. 78, 066501 (2015).             %
     %   D.C. Langreth et al., J. Phys.: Condens. Matter 21, 084203 (2009). %
     %                                                                      %
     %                                                                      %
     % If you are calculating the stress with vdW-DF, please also cite:     %
     %                                                                      %
     %   R. Sabatini et al., J. Phys.: Condens. Matter 24, 424209 (2012).   %
     %                                                                      %
     %%%%%%%%%%%%%%%%%%%%%%%%%%%%%%%%%%%%%%%%%%%%%%%%%%%%%%%%%%%%%%%%%%%%%%%%

     Adding external electric field

     Computed dipole along edir(3) :
        Dipole              -13.5661 Ry au,        -34.4815 Debye
        Dipole field         -0.0256 Ry au,

        Potential amp.        2.3732 Ry
        Total length         46.3494 bohr

     Starting wfcs are  306 atomic wfcs
  @ DRIVER MODE: Message from server: STATUS
  @ DRIVER MODE: Message from server: POSDATA
  @ DRIVER MODE: Reading and sharing cell
  @ DRIVER MODE: Reading and sharing positions
  @ DRIVER MODE: Received positions

     Self-consistent Calculation

     iteration #  1     ecut=    29.40 Ry     beta= 0.05
     Davidson diagonalization with overlap
     c_bands:  4 eigenvalues not converged
     c_bands:  4 eigenvalues not converged
     c_bands:  4 eigenvalues not converged
     c_bands:  4 eigenvalues not converged
     c_bands:  3 eigenvalues not converged
     c_bands:  3 eigenvalues not converged
     ethr =  1.00E-05,  avg # of iterations = 25.3

[...]

     total energy              =   -2339.27336314 Ry
     estimated scf accuracy    <    7249.27285015 Ry

     iteration #  2     ecut=    29.40 Ry     beta= 0.05
     Davidson diagonalization with overlap
     ethr =  1.00E-02,  avg # of iterations = 23.6

[...]

     iteration # 58     ecut=    29.40 Ry     beta= 0.05
     Davidson diagonalization with overlap
     c_bands:  2 eigenvalues not converged
     ethr =  4.68E-07,  avg # of iterations = 13.3

[...]

     total energy              =   -2975.23051899 Ry
     estimated scf accuracy    <       0.00000008 Ry

     iteration # 84     ecut=    29.40 Ry     beta= 0.05
     Davidson diagonalization with overlap
     ethr =  2.05E-11,  avg # of iterations =  7.6

     negative rho (up, down):  1.507E-02 0.000E+00

     Adding external electric field

     Computed dipole along edir(3) :
        Dipole                1.1608 Ry au,          2.9506 Debye
        Dipole field          0.0022 Ry au,

        Potential amp.       -0.2031 Ry
        Total length         46.3494 bohr

     End of self-consistent calculation

          k = 0.0000 0.0000 0.0000 ( 18029 PWs)   bands (ev):

   -55.5069 -55.4729 -55.3342 -55.2977 -55.2641 -55.2303 -55.2039 -55.2005
   -55.1893 -55.1663 -55.1550 -55.0165 -54.5545 -54.4373 -54.4033 -54.3908
   -31.9799 -31.8696 -31.8012 -31.7862 -31.7230 -31.7140 -31.6784 -31.6602
   -31.6233 -31.6063 -31.6024 -31.5755 -31.5658 -31.5216 -31.5135 -31.5025
   -31.4837 -31.4819 -31.4573 -31.4399 -31.4271 -31.4185 -31.4156 -31.3982
   -31.3941 -31.3865 -31.3768 -31.3696 -31.3674 -31.3652 -31.3431 -31.3316
   -31.3191 -31.3018 -31.2087 -31.1814 -31.0484 -30.8423 -30.7788 -30.7646
   -30.7592 -30.7364 -30.7259 -30.6593 -30.6014 -30.5731 -30.5703 -30.4620
   -18.7936 -17.7499 -16.0757 -15.8835 -15.6113 -15.4883 -15.4608 -15.2770
   -15.2005 -15.1489 -15.0167 -14.9699 -14.9403 -14.9103 -14.8976 -14.8405
   -14.8133 -14.7863 -14.7572 -14.7522 -14.7326 -14.7104 -14.6702 -14.6116
   -14.5867 -14.5254 -14.4751 -14.4536 -14.3612 -14.3556 -13.9305 -12.9389
   -12.8234 -11.9013  -8.8047  -6.5683  -5.6078  -4.3232  -4.0877  -3.4603
    -3.3846  -3.3258  -3.2096  -3.1290  -2.9914  -2.9492  -2.8816  -2.7742
    -2.6067  -2.5487  -2.5216  -2.4939  -2.4095  -2.2759  -2.2643  -2.2166
    -2.1886  -2.1681  -2.1535  -2.1375  -2.0425  -2.0036  -1.9662  -1.8558
    -1.8197  -1.7970  -1.7804  -1.7719  -1.7551  -1.6905  -1.6591  -1.6404
    -1.6301  -1.5929  -1.5588  -1.5483  -1.4178  -1.3997  -1.2821  -1.1536
    -1.1308  -1.0730  -1.0486  -0.8895  -0.8833  -0.8622  -0.8209  -0.8136
    -0.7418  -0.6689  -0.6270  -0.5520  -0.4335  -0.4241  -0.3894  -0.2430
    -0.2398  -0.2165  -0.1784  -0.1672  -0.1163  -0.1070  -0.0606   0.0004
     0.0946   0.1651   0.2710   0.2738   0.3266   0.3661   0.3787   0.4366
     0.4532   0.5028   0.5147   0.5222   0.5742   0.6091   0.6216   0.6791
     0.7306   0.8478   0.9172   0.9423   0.9888   1.1108   1.1861   1.2337
     1.2389   1.4070   1.5299   1.5596   1.5849   1.7851   1.8165   2.1517
     2.1956   3.6671   3.6839   3.7735   3.8326   3.9466   4.0183   4.1067
     4.1860   4.2560   4.3485   4.3918

[...]

          k = 0.0380-0.0419 0.0000 ( 17876 PWs)   bands (ev):

[...]

          k =-0.0760-0.0000 0.0000 ( 17886 PWs)   bands (ev):

[...]

          k =-0.0760-0.0839 0.0000 ( 17948 PWs)   bands (ev):

   -55.4901 -55.4897 -55.3197 -55.3120 -55.2472 -55.2469 -55.1988 -55.1924
   -55.1778 -55.1754 -55.1689 -55.0181 -54.5529 -54.4203 -54.4201 -54.3923
   -31.7955 -31.7954 -31.7865 -31.7864 -31.6827 -31.6655 -31.6111 -31.6105
   -31.5720 -31.5673 -31.5640 -31.5592 -31.5565 -31.5508 -31.5184 -31.5134
   -31.4915 -31.4825 -31.4799 -31.4729 -31.4403 -31.4381 -31.4301 -31.4275
   -31.4167 -31.4144 -31.4036 -31.4010 -31.3969 -31.3908 -31.3905 -31.3850
   -31.3575 -31.3333 -31.3185 -31.2164 -30.9579 -30.8023 -30.7677 -30.7493
   -30.7491 -30.7473 -30.6555 -30.6552 -30.6200 -30.6164 -30.6162 -30.6014
   -18.7926 -17.7439 -15.4990 -15.4329 -15.3619 -15.3580 -15.2534 -15.2004
   -15.1056 -15.0949 -15.0878 -15.0847 -14.9840 -14.9807 -14.9150 -14.9061
   -14.8669 -14.8599 -14.8561 -14.8395 -14.8247 -14.8196 -14.8048 -14.7593
   -14.7406 -14.7348 -14.5714 -14.5463 -14.4308 -14.4125 -14.0546 -12.9254
   -12.9254 -11.9026  -8.8152  -6.5522  -5.5998  -4.2729  -4.1080  -2.9296
    -2.9087  -2.7904  -2.6629  -2.5302  -2.5179  -2.4972  -2.4607  -2.2943
    -2.2816  -2.2661  -2.2566  -2.2152  -2.2039  -2.1850  -2.1707  -2.1168
    -2.0994  -2.0806  -2.0760  -2.0650  -2.0587  -2.0489  -2.0397  -2.0315
    -2.0079  -1.9611  -1.9395  -1.8583  -1.7724  -1.7620  -1.6857  -1.5563
    -1.5495  -1.5376  -1.5361  -1.5238  -1.5142  -1.4729  -1.4374  -1.3825
    -1.2721  -1.1542  -1.1035  -1.0853  -1.0307  -1.0117  -0.9231  -0.8425
    -0.8077  -0.7895  -0.7039  -0.6553  -0.5764  -0.5608  -0.5240  -0.4733
    -0.4492  -0.4353  -0.4192  -0.4110  -0.3478  -0.3042  -0.2364  -0.2224
    -0.1665  -0.1355  -0.1072  -0.0836  -0.0429   0.0501   0.0579   0.0861
     0.1133   0.1282   0.2025   0.3535   0.3938   0.6332   0.6424   0.7138
     0.8424   0.8651   0.8722   0.9485   0.9620   0.9990   1.0202   1.1410
     1.1638   1.1881   1.3165   1.3518   1.4441   1.9547   1.9556   2.0146
     2.0150   3.5300   4.1312   4.1411   4.1583   4.1717   4.1972   4.2038
     4.2461   4.2597   4.3927   4.4135

     the Fermi energy is     3.6430 ev

!    total energy              =   -2975.23052763 Ry
     estimated scf accuracy    <       0.00000007 Ry
     smearing contrib. (-TS)   =      -0.02108866 Ry
     internal energy E=F+TS    =   -2975.20943897 Ry

     The total energy is F=E-TS. E is the sum of the following terms:
     one-electron contribution =  -23879.12977504 Ry
     hartree contribution      =   12036.96349568 Ry
     xc contribution           =    -494.92879063 Ry
     ewald contribution        =    9361.88308798 Ry
     electric field correction =       0.00254302 Ry

     convergence has been achieved in  84 iterations

     Forces acting on atoms (cartesian axes, Ry/au):

     atom    1 type  1   force =     0.00016771   -0.00022632    0.09946676
     atom    2 type  1   force =    -0.00014597   -0.00038549   -0.17310282
     atom    3 type  2   force =    -0.00006846   -0.00000143   -0.02911710
     atom    4 type  2   force =     0.00003901   -0.00102696    0.04892766
     atom    5 type  2   force =    -0.01224204    0.00099245    0.00048781
     atom    6 type  2   force =     0.01355088    0.00186565   -0.00110832
     atom    7 type  1   force =    -0.00136377   -0.00052998   -0.00301774
     atom    8 type  1   force =     0.00094781   -0.00608410    0.04539325
     atom    9 type  2   force =    -0.00000319   -0.00023179   -0.00002489
     atom   10 type  2   force =    -0.00155629    0.00261755   -0.03093663
     atom   11 type  2   force =    -0.00015960   -0.00044825    0.00005668
     atom   12 type  2   force =     0.00008053   -0.00023367    0.00016095
     atom   13 type  1   force =    -0.00019786   -0.00054640   -0.00038146
     atom   14 type  1   force =     0.00030746   -0.00017068    0.00020067
     atom   15 type  2   force =    -0.00000617   -0.00013085   -0.00023632
     atom   16 type  2   force =    -0.00021426    0.00004528    0.00016591
     atom   17 type  2   force =     0.00018379   -0.00030422    0.00019106
     atom   18 type  2   force =    -0.00004775   -0.00030009   -0.00002990
     atom   19 type  1   force =    -0.00003564   -0.00027002    0.00029668
     atom   20 type  1   force =     0.00001676   -0.00054318    0.00023835
     atom   21 type  2   force =     0.00008754   -0.00000583    0.10254277
     atom   22 type  2   force =     0.00004086   -0.00027239   -0.00010805
     atom   23 type  2   force =    -0.07247099   -0.00008537   -0.02845135
     atom   24 type  2   force =     0.07243583    0.00034719   -0.02843274
     atom   25 type  1   force =     0.00009445   -0.00027228    0.09896332
     atom   26 type  1   force =    -0.00006231   -0.00041882   -0.17327619
     atom   27 type  2   force =    -0.00003373    0.00000651   -0.02842497
     atom   28 type  2   force =     0.00009507   -0.00075379    0.04809067
     atom   29 type  2   force =    -0.01261224    0.00062970    0.00052065
     atom   30 type  2   force =     0.01384581    0.00095884   -0.00104757
     atom   31 type  1   force =    -0.00146285    0.00225899   -0.00573770
     atom   32 type  1   force =     0.00112273    0.00384150    0.04591401
     atom   33 type  2   force =    -0.00006553   -0.00026158   -0.00010249
     atom   34 type  2   force =    -0.00096507    0.00134205   -0.03379358
     atom   35 type  2   force =    -0.00026714    0.00004515   -0.00023187
     atom   36 type  2   force =     0.00048177    0.00010114   -0.00002149
     atom   37 type  1   force =    -0.00032006    0.00007608    0.00021627
     atom   38 type  1   force =     0.00018069   -0.00028632    0.00000569
     atom   39 type  2   force =     0.00001533   -0.00051497    0.00042549
     atom   40 type  2   force =    -0.00004628    0.00018322   -0.00021757
     atom   41 type  2   force =    -0.00014091   -0.00014719    0.00023898
     atom   42 type  2   force =     0.00025139   -0.00019434   -0.00003786
     atom   43 type  1   force =    -0.00016920    0.00024494   -0.00033302
     atom   44 type  1   force =     0.00009657   -0.00020270   -0.00000384
     atom   45 type  2   force =     0.00009525   -0.00000686    0.10254551
     atom   46 type  2   force =    -0.07248808   -0.00001024   -0.02844299
     atom   47 type  2   force =     0.07244982    0.00037723   -0.02843548
     atom   48 type  3   force =    -0.00029901   -0.00036042   -0.00044369
     atom   49 type  3   force =     0.00011070   -0.00061031   -0.00009102
     atom   50 type  4   force =     0.00018441   -0.00031390    0.00009856
     atom   51 type  5   force =     0.00015501   -0.00015696    0.00020993
     atom   52 type  5   force =    -0.00011233    0.00024641    0.00020097
     atom   53 type  5   force =     0.00005256   -0.00010797    0.00012759
     atom   54 type  5   force =     0.00029791    0.00009263    0.00018484
     atom   55 type  2   force =    -0.00139330    0.00221135   -0.00091246
     atom   56 type  5   force =     0.00179562   -0.00216503    0.00055522
     atom   57 type  5   force =    -0.00023326    0.00009683    0.00007487

     Total force =     0.372034     Total SCF correction =     0.001257
  @ DRIVER MODE: Message from server: STATUS
  @ DRIVER MODE: Message from server: GETFORCE
  @ DRIVER MODE: Returning v,forces,stress,ensemble

     Writing output data file ./calc.save/
  @ DRIVER MODE: Message from server: EXIT
  @ DRIVE MODE: Exiting

     General routines

     Parallel routines

   This run was terminated on:   9:13:57  16Sep2021

   JOB DONE.