     Program PWSCF v.6.7GPU starts on 16Sep2021 at  2:39:22

     R & G space division:  proc/nbgrp/npool/nimage =      10
     Reading input from /storage/home/hcoda1/3/ntian30/research/carbon/CxH_vib/H2O_calc/ads_slab/CHNHHH2O_a/out_0034/pw.inp
Warning: card &CELL ignored
Warning: card   CELL_DYNAMICS='IPI', ignored
Warning: card / ignored

     Current dimensions of program PWSCF are:
     Max number of different atomic species (ntypx) = 10
     Max number of k-points (npk) =  40000
     Max angular momentum in pseudopotentials (lmaxx) =  3
     Presently no symmetry can be used with electric field

     Message from routine cell_base_init:
     DEPRECATED: use true lattice parameter, not A to a.u. conversion factor

     IMPORTANT: XC functional enforced from input :
     Exchange-correlation= BEEF-VDW
                           (   1   4  43  14   2   0   0)
     Any further DFT definition will be discarded
     Please, verify this is what you really want

  @ DRIVER MODE: Connecting to
 qe_1139763_2852629.sched-torque.pace.gatech.eduxagi34my_scratch
  using UNIX socket
  @ DRIVER MODE: Message from server: STATUS
  @ DRIVER MODE: Message from server: INIT
  @ DRIVER MODE: Receiving replica           0          -1
  @ DRIVER MODE: Receiving encoded integer          25
  @ DRIVER MODE:  SCF:  T  FORCE:  T  STRESS:  F  VC:  F  ENSEMBLE:  F
  @ DRIVER MODE:  SCF:  T  FORCE:  T  STRESS:  F  VC:  F  ENSEMBLE:  F

     Using Slab Decomposition

     bravais-lattice index     =            0
     lattice parameter (alat)  =       1.8897  a.u.
     unit-cell volume          =    6658.9804 (a.u.)^3
     number of atoms/cell      =           55
     number of atomic types    =            5
     number of electrons       =       398.00
     number of Kohn-Sham states=          209
     kinetic-energy cutoff     =      29.3995  Ry
     charge density cutoff     =     293.9946  Ry
     scf convergence threshold =      7.3E-08
     mixing beta               =       0.0500
     number of iterations used =            8  plain     mixing
     Exchange-correlation= BEEF-VDW
                           (   1   4  43  14   2   0   0)

     celldm(1)=   1.889726  celldm(2)=   0.000000  celldm(3)=   0.000000
     celldm(4)=   0.000000  celldm(5)=   0.000000  celldm(6)=   0.000000

     crystal axes: (cart. coord. in units of alat)
               a(1) = (   6.579727   0.000000   0.000000 )
               a(2) = (  -0.000775   5.961596   0.000000 )
               a(3) = (   0.000000   0.000000  25.155947 )

     reciprocal axes: (cart. coord. in units 2 pi/alat)
               b(1) = (  0.151982  0.000020  0.000000 )
               b(2) = (  0.000000  0.167740  0.000000 )
               b(3) = (  0.000000  0.000000  0.039752 )

     PseudoPot. # 1 for Ti read from file:
     /storage/coda1/p-amedford6/0/shared/rich_project_chbe-medford/medford-share/data/pseudos_module/espresso/nninc/pbe/van/Ti.UPF
     MD5 check sum: 8e4df49b7f0d34bbd5052bf3f5ea0213
     Pseudo is Ultrasoft, Zval = 12.0
     Generated by new atomic code, or converted to UPF format
     Using radial grid of  851 points,  6 beta functions with:
                l(1) =   0
                l(2) =   0
                l(3) =   1
                l(4) =   1
                l(5) =   2
                l(6) =   2
     Q(r) pseudized with  8 coefficients,  rinner =    1.000   1.000   1.000
                                                       1.000   1.000

     PseudoPot. # 2 for O  read from file:
     /storage/coda1/p-amedford6/0/shared/rich_project_chbe-medford/medford-share/data/pseudos_module/espresso/nninc/pbe/van/O.UPF
     MD5 check sum: 78c19812648e8988a0fe644b0f25305e
     Pseudo is Ultrasoft, Zval =  6.0
     Generated by new atomic code, or converted to UPF format
     Using radial grid of  737 points,  4 beta functions with:
                l(1) =   0
                l(2) =   0
                l(3) =   1
                l(4) =   1
     Q(r) pseudized with  8 coefficients,  rinner =    0.800   0.800   0.800

     PseudoPot. # 3 for N  read from file:
     /storage/coda1/p-amedford6/0/shared/rich_project_chbe-medford/medford-share/data/pseudos_module/espresso/nninc/pbe/van/N.UPF
     MD5 check sum: 90d10febe142ad51ac9d5be1deb811c4
     Pseudo is Ultrasoft, Zval =  5.0
     Generated by new atomic code, or converted to UPF format
     Using radial grid of  729 points,  4 beta functions with:
                l(1) =   0
                l(2) =   0
                l(3) =   1
                l(4) =   1
     Q(r) pseudized with  8 coefficients,  rinner =    0.800   0.800   0.800

     PseudoPot. # 4 for C  read from file:
     /storage/coda1/p-amedford6/0/shared/rich_project_chbe-medford/medford-share/data/pseudos_module/espresso/nninc/pbe/van/C.UPF
     MD5 check sum: 1a69bf6b8db32088f5b2163dbdb77a27
     Pseudo is Ultrasoft, Zval =  4.0
     Generated by new atomic code, or converted to UPF format
     Using radial grid of  721 points,  4 beta functions with:
                l(1) =   0
                l(2) =   0
                l(3) =   1
                l(4) =   1
     Q(r) pseudized with  8 coefficients,  rinner =    0.800   0.800   0.800

     PseudoPot. # 5 for H  read from file:
     /storage/coda1/p-amedford6/0/shared/rich_project_chbe-medford/medford-share/data/pseudos_module/espresso/nninc/pbe/van/H.UPF
     MD5 check sum: b5ee9d7bfd3a09ee7748110bda690ff7
     Pseudo is Ultrasoft, Zval =  1.0
     Generated by new atomic code, or converted to UPF format
     Using radial grid of  615 points,  1 beta functions with:
                l(1) =   0
     Q(r) pseudized with  8 coefficients,  rinner =    0.800

     atomic species   valence    mass     pseudopotential
        Ti1           12.00    47.86700     Ti( 1.00)
        O1             6.00    15.99900     O ( 1.00)
        N1             5.00    14.00700     N ( 1.00)
        C1             4.00    12.01100     C ( 1.00)
        H1             1.00     1.00800     H ( 1.00)

     No symmetry found

   Cartesian axes

     site n.     atom                  positions (alat units)
         1           Ti1 tau(   1) = (   0.0004258   2.9801865   6.0000000  )
         2           Ti1 tau(   2) = (   3.2906075   1.4906267   6.0002472  )
         3           O1  tau(   3) = (   0.0006271   0.0005054   7.9858123  )
         4           O1  tau(   4) = (   3.2906025   0.0005020   7.3038282  )
         5           O1  tau(   5) = (   4.5942328   1.4918067   9.2879030  )
         6           O1  tau(   6) = (   1.9868534   1.4903216   9.2879459  )
         7           Ti1 tau(   7) = (   3.2907910   2.8959150   9.1758416  )
         8           Ti1 tau(   8) = (   0.0015273   1.4827037   9.2680791  )
         9           O1  tau(   9) = (   3.2943807   5.9438157  11.3430345  )
        10           O1  tau(  10) = (   0.0116148   5.9584955  10.6183126  )
        11           O1  tau(  11) = (   1.2953376   1.4759649  12.6292060  )
        12           O1  tau(  12) = (   5.2846356   1.4785235  12.6176154  )
        13           Ti1 tau(  13) = (   0.0556596   2.9564334  12.6140783  )
        14           Ti1 tau(  14) = (   3.3658323   1.4657407  12.4949608  )
        15           O1  tau(  15) = (   6.5664030   0.0209144  14.6477191  )
        16           O1  tau(  16) = (   3.3113265   5.9542485  13.9698242  )
        17           O1  tau(  17) = (   4.5454210   1.5146250  16.1225105  )
        18           O1  tau(  18) = (   2.0305911   1.5113983  16.0894517  )
        19           Ti1 tau(  19) = (   3.2587399   2.9544808  15.6767922  )
        20           Ti1 tau(  20) = (   6.5654577   1.5458692  15.9193722  )
        21           O1  tau(  21) = (   3.2904802   0.0005063   4.7018136  )
        22           O1  tau(  22) = (   0.0418464   5.8849155  17.2380659  )
        23           O1  tau(  23) = (   1.3043587   1.4918075   6.0039043  )
        24           O1  tau(  24) = (   5.2767064   1.4903225   6.0039473  )
        25           Ti1 tau(  25) = (   0.0000382   5.9609847   6.0000000  )
        26           Ti1 tau(  26) = (   3.2902200   4.4714249   6.0002472  )
        27           O1  tau(  27) = (   0.0002396   2.9813036   7.9858123  )
        28           O1  tau(  28) = (   3.2902150   2.9813002   7.3038282  )
        29           O1  tau(  29) = (   4.5938453   4.4726049   9.2879030  )
        30           O1  tau(  30) = (   1.9864658   4.4711199   9.2879459  )
        31           Ti1 tau(  31) = (   3.2891106   5.8743827   9.1763621  )
        32           Ti1 tau(  32) = (   0.0006254   4.4649316   9.2693709  )
        33           O1  tau(  33) = (   3.2978316   2.9705197  11.3397625  )
        34           O1  tau(  34) = (   0.0092240   2.9805883  10.6323155  )
        35           O1  tau(  35) = (   1.2936985   4.4655287  12.6460247  )
        36           O1  tau(  36) = (   5.2856521   4.4646452  12.6308247  )
        37           Ti1 tau(  37) = (   0.0515089   5.9379728  12.5308627  )
        38           Ti1 tau(  38) = (   3.3654372   4.4547101  12.4935900  )
        39           O1  tau(  39) = (   6.5748852   2.9443291  14.6951209  )
        40           O1  tau(  40) = (   3.2957406   2.9584624  13.8938737  )
        41           O1  tau(  41) = (   4.5486474   4.4154460  16.0876977  )
        42           O1  tau(  42) = (   2.0388008   4.4257786  16.0448984  )
        43           Ti1 tau(  43) = (   3.3137362   5.9209902  15.7922403  )
        44           Ti1 tau(  44) = (   0.0032603   4.6697478  15.9558853  )
        45           O1  tau(  45) = (   3.2900926   2.9813045   4.7018136  )
        46           O1  tau(  46) = (   1.3039711   4.4726057   6.0039043  )
        47           O1  tau(  47) = (   5.2763189   4.4711207   6.0039473  )
        48           N1  tau(  48) = (   5.6270067   3.1633449  18.6203826  )
        49           C1  tau(  49) = (   0.0237924   2.7940403  17.7774691  )
        50           H1  tau(  50) = (   0.9584034   2.6460975  18.3247808  )
        51           H1  tau(  51) = (   4.7713523   3.5531088  18.2436842  )
        52           H1  tau(  52) = (   5.8168525   3.4166350  19.5804594  )
        53           O1  tau(  53) = (   3.2115967   5.9181562  18.2546127  )
        54           H1  tau(  54) = (   3.8106726   0.6855978  18.4519937  )
        55           H1  tau(  55) = (   2.3006756   0.2828797  18.3268221  )

     number of k points=    10  Fermi-Dirac smearing, width (Ry)=  0.0073
                       cart. coord. in units 2pi/alat
        k(    1) = (   0.0000000   0.0000000   0.0000000), wk =   0.1250000
        k(    2) = (   0.0000000   0.0419351   0.0000000), wk =   0.2500000
        k(    3) = (   0.0000000  -0.0838702   0.0000000), wk =   0.1250000
        k(    4) = (   0.0379955   0.0000049   0.0000000), wk =   0.2500000
        k(    5) = (   0.0379955   0.0419400   0.0000000), wk =   0.2500000
        k(    6) = (   0.0379955  -0.0838652   0.0000000), wk =   0.2500000
        k(    7) = (   0.0379955  -0.0419301   0.0000000), wk =   0.2500000
        k(    8) = (  -0.0759910  -0.0000099   0.0000000), wk =   0.1250000
        k(    9) = (  -0.0759910   0.0419252   0.0000000), wk =   0.2500000
        k(   10) = (  -0.0759910  -0.0838800   0.0000000), wk =   0.1250000

     Initial potential from superposition of free atoms

     starting charge  381.99915, renormalised to  398.00000

     negative rho (up, down):  1.708E-02 0.000E+00

     %%%%%%%%%%%%%%%%%%%%%%%%%%%%%%%%%%%%%%%%%%%%%%%%%%%%%%%%%%%%%%%%%%%%%%%%
     %                                                                      %
     % You are using vdW-DF, which was implemented by the Thonhauser group. %
     % Please cite the following two papers that made this development      %
     % possible and the two reviews that describe the various versions:     %
     %                                                                      %
     %   T. Thonhauser et al., PRL 115, 136402 (2015).                      %
     %   T. Thonhauser et al., PRB 76, 125112 (2007).                       %
     %   K. Berland et al., Rep. Prog. Phys. 78, 066501 (2015).             %
     %   D.C. Langreth et al., J. Phys.: Condens. Matter 21, 084203 (2009). %
     %                                                                      %
     %                                                                      %
     % If you are calculating the stress with vdW-DF, please also cite:     %
     %                                                                      %
     %   R. Sabatini et al., J. Phys.: Condens. Matter 24, 424209 (2012).   %
     %                                                                      %
     %%%%%%%%%%%%%%%%%%%%%%%%%%%%%%%%%%%%%%%%%%%%%%%%%%%%%%%%%%%%%%%%%%%%%%%%

     Adding external electric field

     Computed dipole along edir(3) :
        Dipole              -10.1352 Ry au,        -25.7611 Debye
        Dipole field         -0.0191 Ry au,

        Potential amp.        1.7730 Ry
        Total length         46.3494 bohr

     Starting wfcs are  301 atomic wfcs
  @ DRIVER MODE: Message from server: STATUS
  @ DRIVER MODE: Message from server: POSDATA
  @ DRIVER MODE: Reading and sharing cell
  @ DRIVER MODE: Reading and sharing positions
  @ DRIVER MODE: Received positions

     Self-consistent Calculation

     iteration #  1     ecut=    29.40 Ry     beta= 0.05
     Davidson diagonalization with overlap
     c_bands:  2 eigenvalues not converged
     c_bands:  1 eigenvalues not converged
     c_bands:  1 eigenvalues not converged
     c_bands:  3 eigenvalues not converged
     c_bands:  1 eigenvalues not converged
     c_bands:  3 eigenvalues not converged
     c_bands:  3 eigenvalues not converged
     c_bands:  3 eigenvalues not converged
     c_bands:  1 eigenvalues not converged
     ethr =  1.00E-05,  avg # of iterations = 19.8

[...]

     total energy              =   -2497.68459451 Ry
     estimated scf accuracy    <    5094.10543190 Ry

     iteration #  2     ecut=    29.40 Ry     beta= 0.05
     Davidson diagonalization with overlap
     ethr =  1.00E-02,  avg # of iterations = 25.0

[...]

     iteration # 62     ecut=    29.40 Ry     beta= 0.05
     Davidson diagonalization with overlap
     c_bands:  1 eigenvalues not converged
     ethr =  6.64E-09,  avg # of iterations =  9.9

[...]

     total energy              =   -2953.88238438 Ry
     estimated scf accuracy    <       0.00000007 Ry

     iteration # 74     ecut=    29.40 Ry     beta= 0.05
     Davidson diagonalization with overlap
     ethr =  1.85E-11,  avg # of iterations =  5.0

     negative rho (up, down):  1.666E-02 0.000E+00

     Adding external electric field

     Computed dipole along edir(3) :
        Dipole                1.2969 Ry au,          3.2963 Debye
        Dipole field          0.0024 Ry au,

        Potential amp.       -0.2269 Ry
        Total length         46.3494 bohr

     End of self-consistent calculation

          k = 0.0000 0.0000 0.0000 ( 18029 PWs)   bands (ev):

   -55.4418 -55.4357 -55.4164 -55.4077 -55.3995 -55.2982 -55.2563 -55.2498
   -55.2344 -55.2326 -55.2152 -55.1991 -54.8582 -54.7667 -54.4283 -54.3943
   -31.9918 -31.9257 -31.8173 -31.7932 -31.7528 -31.7485 -31.7330 -31.7231
   -31.6848 -31.6829 -31.6533 -31.6375 -31.6262 -31.6158 -31.5949 -31.5823
   -31.5732 -31.5475 -31.5435 -31.5082 -31.4997 -31.4969 -31.4629 -31.4512
   -31.4448 -31.4425 -31.4344 -31.4336 -31.4333 -31.4076 -31.4074 -31.4018
   -31.3851 -31.3811 -31.3567 -31.3494 -31.3421 -31.1901 -31.0762 -31.0245
   -30.9644 -30.9282 -30.8358 -30.7465 -30.7241 -30.6525 -30.5660 -30.4549
   -19.1093 -16.4580 -16.1994 -15.9380 -15.7543 -15.6251 -15.5978 -15.4239
   -15.2889 -15.1868 -15.1247 -15.0682 -15.0479 -15.0001 -14.9972 -14.9855
   -14.9825 -14.9516 -14.9033 -14.8824 -14.8627 -14.8213 -14.8122 -14.7954
   -14.7462 -14.7071 -14.6127 -14.5809 -14.5546 -14.5144 -14.0307 -12.9307
   -12.8141  -9.0186  -6.9620  -6.6954  -4.2581  -3.5701  -3.4080  -3.3536
    -3.3404  -3.3192  -3.2150  -3.0908  -2.9510  -2.7202  -2.6581  -2.6227
    -2.5896  -2.5518  -2.4364  -2.3851  -2.3742  -2.3085  -2.2607  -2.2527
    -2.2397  -2.2182  -2.2031  -2.1425  -2.1290  -2.0296  -1.9870  -1.9176
    -1.8554  -1.8245  -1.7736  -1.7589  -1.7153  -1.7120  -1.6970  -1.6783
    -1.6642  -1.6488  -1.5910  -1.5291  -1.4513  -1.2664  -1.2339  -1.1176
    -1.0897  -1.0576  -1.0137  -0.9296  -0.9028  -0.8806  -0.8411  -0.7504
    -0.7247  -0.6777  -0.5890  -0.4995  -0.4554  -0.4280  -0.3480  -0.3129
    -0.2837  -0.2180  -0.2106  -0.1991  -0.1221  -0.0686   0.0386   0.0754
     0.1099   0.1252   0.1396   0.2245   0.2630   0.3204   0.3645   0.4172
     0.4534   0.4682   0.5043   0.5254   0.5404   0.5672   0.5792   0.7619
     0.8032   0.8323   0.8628   0.9478   1.0496   1.1159   1.1998   1.2691
     1.5165   1.5941   1.6469   1.7845   2.1661   2.2124   3.6292   3.7577
     3.7760   3.7942   3.8255   3.8882   3.9512   4.1405   4.1627   4.1840
     4.2124

[...]

          k = 0.0380-0.0419 0.0000 ( 17876 PWs)   bands (ev):

[...]

          k =-0.0760-0.0000 0.0000 ( 17886 PWs)   bands (ev):

[...]

          k =-0.0760-0.0839 0.0000 ( 17948 PWs)   bands (ev):

   -55.4253 -55.4240 -55.4193 -55.4162 -55.4143 -55.2893 -55.2651 -55.2359
   -55.2346 -55.2296 -55.2176 -55.2146 -54.8550 -54.7698 -54.4113 -54.4111
   -31.8013 -31.7906 -31.7414 -31.7405 -31.7261 -31.7190 -31.7178 -31.7019
   -31.6868 -31.6457 -31.6382 -31.6329 -31.6231 -31.6046 -31.5688 -31.5585
   -31.5539 -31.5538 -31.5514 -31.5455 -31.5449 -31.5442 -31.5408 -31.5020
   -31.4809 -31.4752 -31.4640 -31.4504 -31.4452 -31.4410 -31.4390 -31.4388
   -31.4321 -31.4288 -31.4098 -31.4044 -31.2514 -31.1920 -31.0694 -31.0423
   -31.0257 -30.9644 -30.7369 -30.7367 -30.6486 -30.6484 -30.6093 -30.6092
   -19.1083 -16.4477 -15.6892 -15.5600 -15.4312 -15.3737 -15.3681 -15.3097
   -15.3056 -15.1922 -15.1825 -15.1538 -15.1291 -15.1123 -15.0839 -15.0644
   -15.0027 -14.9822 -14.9788 -14.9487 -14.9195 -14.9066 -14.9018 -14.8870
   -14.8832 -14.8290 -14.7731 -14.7700 -14.6588 -14.5560 -14.1875 -12.9160
   -12.9157  -9.0281  -6.9512  -6.7094  -4.2256  -3.2140  -2.9734  -2.7897
    -2.6866  -2.6306  -2.5673  -2.5484  -2.3822  -2.3671  -2.3574  -2.3205
    -2.3043  -2.2828  -2.2723  -2.2676  -2.2413  -2.2294  -2.2112  -2.1809
    -2.1476  -2.1286  -2.1205  -2.1140  -2.0977  -2.0789  -2.0560  -2.0347
    -2.0307  -2.0038  -1.9642  -1.9409  -1.8811  -1.7442  -1.7081  -1.6673
    -1.5975  -1.5910  -1.5374  -1.5212  -1.4942  -1.4664  -1.4035  -1.3798
    -1.2319  -1.1672  -1.1511  -1.1351  -1.1208  -0.9995  -0.9586  -0.8894
    -0.8629  -0.7944  -0.7635  -0.7511  -0.7048  -0.6039  -0.5903  -0.5387
    -0.5270  -0.4309  -0.4074  -0.3966  -0.3617  -0.3169  -0.2477  -0.2076
    -0.1927  -0.1830  -0.1499  -0.1429  -0.1026   0.0176   0.0777   0.1390
     0.2102   0.3130   0.4246   0.4373   0.5860   0.6129   0.6268   0.7324
     0.8183   0.8492   0.8692   0.8969   0.8997   1.0237   1.0717   1.0815
     1.0830   1.2338   1.9562   1.9576   2.0319   2.0324   3.7371   3.9372
     3.9585   4.0005   4.0470   4.1787   4.1874   4.2222   4.2232   4.3072
     4.3389

     the Fermi energy is     3.6886 ev

!    total energy              =   -2953.88240245 Ry
     estimated scf accuracy    <       0.00000004 Ry
     smearing contrib. (-TS)   =      -0.03290499 Ry
     internal energy E=F+TS    =   -2953.84949747 Ry

     The total energy is F=E-TS. E is the sum of the following terms:
     one-electron contribution =  -24258.58235615 Ry
     hartree contribution      =   12222.84985749 Ry
     xc contribution           =    -488.85292282 Ry
     ewald contribution        =    9570.73275010 Ry
     electric field correction =       0.00317390 Ry

     convergence has been achieved in  74 iterations

     Forces acting on atoms (cartesian axes, Ry/au):

     atom    1 type  1   force =     0.00020545   -0.00020040    0.09613905
     atom    2 type  1   force =    -0.00011737   -0.00027775   -0.17606296
     atom    3 type  2   force =     0.00002731    0.00002049   -0.02488958
     atom    4 type  2   force =     0.00003363   -0.00160012    0.05415608
     atom    5 type  2   force =    -0.01177401   -0.00148832    0.00428465
     atom    6 type  2   force =     0.01353851   -0.00071042    0.00349094
     atom    7 type  1   force =    -0.00084188    0.00087492   -0.01026751
     atom    8 type  1   force =     0.00025126    0.01223360    0.02352131
     atom    9 type  2   force =    -0.00035938   -0.00008359   -0.00022429
     atom   10 type  2   force =    -0.00088187   -0.00045142   -0.01483445
     atom   11 type  2   force =     0.00042768    0.00008259    0.00018792
     atom   12 type  2   force =    -0.00040717   -0.00007635    0.00003903
     atom   13 type  1   force =    -0.00066409   -0.00007749   -0.00157437
     atom   14 type  1   force =     0.00058618    0.00019136    0.00033246
     atom   15 type  2   force =     0.00057704    0.00040980    0.00009584
     atom   16 type  2   force =    -0.00028199    0.00005530    0.00039080
     atom   17 type  2   force =    -0.00005604   -0.00019234   -0.00059391
     atom   18 type  2   force =     0.00001026   -0.00000799   -0.00029939
     atom   19 type  1   force =     0.00079908   -0.00016929    0.00056640
     atom   20 type  1   force =    -0.00039454   -0.00057775    0.00010236
     atom   21 type  2   force =     0.00006186    0.00004374    0.10333937
     atom   22 type  2   force =     0.00041962    0.00077781   -0.00017162
     atom   23 type  2   force =    -0.07129244   -0.00007774   -0.02764715
     atom   24 type  2   force =     0.07124903    0.00035964   -0.02768455
     atom   25 type  1   force =    -0.00006263   -0.00013953    0.09565537
     atom   26 type  1   force =    -0.00020095   -0.00030779   -0.17601176
     atom   27 type  2   force =     0.00012378   -0.00040147   -0.02389890
     atom   28 type  2   force =     0.00009615   -0.00126571    0.05361999
     atom   29 type  2   force =    -0.01200478    0.00045010    0.00381088
     atom   30 type  2   force =     0.01364987    0.00069310    0.00309225
     atom   31 type  1   force =    -0.00061378    0.00370098   -0.01331107
     atom   32 type  1   force =     0.00020566   -0.01325194    0.02338793
     atom   33 type  2   force =    -0.00007842   -0.00005684   -0.00027871
     atom   34 type  2   force =    -0.00008554    0.00021953   -0.01830754
     atom   35 type  2   force =     0.00034972   -0.00048618    0.00026216
     atom   36 type  2   force =    -0.00031585   -0.00016230    0.00012369
     atom   37 type  1   force =    -0.00083802   -0.00023119   -0.00009893
     atom   38 type  1   force =     0.00047400    0.00008358    0.00066253
     atom   39 type  2   force =    -0.00002040    0.00085626   -0.00001627
     atom   40 type  2   force =    -0.00023131   -0.00017339   -0.00064701
     atom   41 type  2   force =     0.00029520    0.00051061    0.00017929
     atom   42 type  2   force =    -0.00072878    0.00030988    0.00023939
     atom   43 type  1   force =     0.00080422    0.00042213   -0.00003443
     atom   44 type  1   force =    -0.00039046   -0.00095864    0.00040118
     atom   45 type  2   force =     0.00005926    0.00003654    0.10329715
     atom   46 type  2   force =    -0.07127835   -0.00001969   -0.02761769
     atom   47 type  2   force =     0.07122401    0.00040308   -0.02763709
     atom   48 type  3   force =    -0.00032223    0.00104960   -0.00028191
     atom   49 type  4   force =    -0.00004290    0.00086603   -0.00058773
     atom   50 type  5   force =     0.00065605   -0.00003448    0.00097212
     atom   51 type  5   force =     0.00054611    0.00038694    0.00006463
     atom   52 type  5   force =    -0.00010258    0.00012642    0.00029393
     atom   53 type  2   force =    -0.00430301   -0.01705509   -0.00464515
     atom   54 type  5   force =     0.00655599    0.01266358    0.00358100
     atom   55 type  5   force =    -0.00453615    0.00270760    0.00133427

     Total force =     0.368347     Total SCF correction =     0.000427
  @ DRIVER MODE: Message from server: STATUS
  @ DRIVER MODE: Message from server: GETFORCE
  @ DRIVER MODE: Returning v,forces,stress,ensemble

     Writing output data file ./calc.save/
  @ DRIVER MODE: Message from server: EXIT
  @ DRIVE MODE: Exiting

     General routines

     Parallel routines

   This run was terminated on:   2:58:49  16Sep2021

   JOB DONE.