     Program PWSCF v.6.7GPU starts on  9Sep2021 at  9:27:13

     R & G space division:  proc/nbgrp/npool/nimage =      10
     Reading input from /storage/home/hcoda1/3/ntian30/research/carbon/CxH_vib/CH3_calc/ads_slab/CH3NHNH_a/out_0037/pw.inp
Warning: card &CELL ignored
Warning: card   CELL_DYNAMICS='IPI', ignored
Warning: card / ignored

     Current dimensions of program PWSCF are:
     Max number of different atomic species (ntypx) = 10
     Max number of k-points (npk) =  40000
     Max angular momentum in pseudopotentials (lmaxx) =  3
     Presently no symmetry can be used with electric field

     Message from routine cell_base_init:
     DEPRECATED: use true lattice parameter, not A to a.u. conversion factor

     IMPORTANT: XC functional enforced from input :
     Exchange-correlation= BEEF-VDW
                           (   1   4  43  14   2   0   0)
     Any further DFT definition will be discarded
     Please, verify this is what you really want

  @ DRIVER MODE: Connecting to
 qe_1139763_2767401.sched-torque.pace.gatech.edu4bhjr_o2_scratch
  using UNIX socket
  @ DRIVER MODE: Message from server: STATUS
  @ DRIVER MODE: Message from server: INIT
  @ DRIVER MODE: Receiving replica           0          -1
  @ DRIVER MODE: Receiving encoded integer          25
  @ DRIVER MODE:  SCF:  T  FORCE:  T  STRESS:  F  VC:  F  ENSEMBLE:  F
  @ DRIVER MODE:  SCF:  T  FORCE:  T  STRESS:  F  VC:  F  ENSEMBLE:  F

     Using Slab Decomposition

     bravais-lattice index     =            0
     lattice parameter (alat)  =       1.8897  a.u.
     unit-cell volume          =    6658.9804 (a.u.)^3
     number of atoms/cell      =           55
     number of atomic types    =            5
     number of electrons       =       397.00
     number of Kohn-Sham states=          208
     kinetic-energy cutoff     =      29.3995  Ry
     charge density cutoff     =     293.9946  Ry
     scf convergence threshold =      7.3E-08
     mixing beta               =       0.0500
     number of iterations used =            8  plain     mixing
     Exchange-correlation= BEEF-VDW
                           (   1   4  43  14   2   0   0)

     celldm(1)=   1.889726  celldm(2)=   0.000000  celldm(3)=   0.000000
     celldm(4)=   0.000000  celldm(5)=   0.000000  celldm(6)=   0.000000

     crystal axes: (cart. coord. in units of alat)
               a(1) = (   6.579727   0.000000   0.000000 )
               a(2) = (  -0.000775   5.961596   0.000000 )
               a(3) = (   0.000000   0.000000  25.155947 )

     reciprocal axes: (cart. coord. in units 2 pi/alat)
               b(1) = (  0.151982  0.000020  0.000000 )
               b(2) = (  0.000000  0.167740  0.000000 )
               b(3) = (  0.000000  0.000000  0.039752 )

     PseudoPot. # 1 for Ti read from file:
     /storage/coda1/p-amedford6/0/shared/rich_project_chbe-medford/medford-share/data/pseudos_module/espresso/nninc/pbe/van/Ti.UPF
     MD5 check sum: 8e4df49b7f0d34bbd5052bf3f5ea0213
     Pseudo is Ultrasoft, Zval = 12.0
     Generated by new atomic code, or converted to UPF format
     Using radial grid of  851 points,  6 beta functions with:
                l(1) =   0
                l(2) =   0
                l(3) =   1
                l(4) =   1
                l(5) =   2
                l(6) =   2
     Q(r) pseudized with  8 coefficients,  rinner =    1.000   1.000   1.000
                                                       1.000   1.000

     PseudoPot. # 2 for O  read from file:
     /storage/coda1/p-amedford6/0/shared/rich_project_chbe-medford/medford-share/data/pseudos_module/espresso/nninc/pbe/van/O.UPF
     MD5 check sum: 78c19812648e8988a0fe644b0f25305e
     Pseudo is Ultrasoft, Zval =  6.0
     Generated by new atomic code, or converted to UPF format
     Using radial grid of  737 points,  4 beta functions with:
                l(1) =   0
                l(2) =   0
                l(3) =   1
                l(4) =   1
     Q(r) pseudized with  8 coefficients,  rinner =    0.800   0.800   0.800

     PseudoPot. # 3 for N  read from file:
     /storage/coda1/p-amedford6/0/shared/rich_project_chbe-medford/medford-share/data/pseudos_module/espresso/nninc/pbe/van/N.UPF
     MD5 check sum: 90d10febe142ad51ac9d5be1deb811c4
     Pseudo is Ultrasoft, Zval =  5.0
     Generated by new atomic code, or converted to UPF format
     Using radial grid of  729 points,  4 beta functions with:
                l(1) =   0
                l(2) =   0
                l(3) =   1
                l(4) =   1
     Q(r) pseudized with  8 coefficients,  rinner =    0.800   0.800   0.800

     PseudoPot. # 4 for C  read from file:
     /storage/coda1/p-amedford6/0/shared/rich_project_chbe-medford/medford-share/data/pseudos_module/espresso/nninc/pbe/van/C.UPF
     MD5 check sum: 1a69bf6b8db32088f5b2163dbdb77a27
     Pseudo is Ultrasoft, Zval =  4.0
     Generated by new atomic code, or converted to UPF format
     Using radial grid of  721 points,  4 beta functions with:
                l(1) =   0
                l(2) =   0
                l(3) =   1
                l(4) =   1
     Q(r) pseudized with  8 coefficients,  rinner =    0.800   0.800   0.800

     PseudoPot. # 5 for H  read from file:
     /storage/coda1/p-amedford6/0/shared/rich_project_chbe-medford/medford-share/data/pseudos_module/espresso/nninc/pbe/van/H.UPF
     MD5 check sum: b5ee9d7bfd3a09ee7748110bda690ff7
     Pseudo is Ultrasoft, Zval =  1.0
     Generated by new atomic code, or converted to UPF format
     Using radial grid of  615 points,  1 beta functions with:
                l(1) =   0
     Q(r) pseudized with  8 coefficients,  rinner =    0.800

     atomic species   valence    mass     pseudopotential
        Ti1           12.00    47.86700     Ti( 1.00)
        O1             6.00    15.99900     O ( 1.00)
        N1             5.00    14.00700     N ( 1.00)
        C1             4.00    12.01100     C ( 1.00)
        H1             1.00     1.00800     H ( 1.00)

     No symmetry found

   Cartesian axes

     site n.     atom                  positions (alat units)
         1           Ti1 tau(   1) = (   0.0004258   2.9801865   6.0000000  )
         2           Ti1 tau(   2) = (   3.2906075   1.4906267   6.0002472  )
         3           O1  tau(   3) = (   0.0006271   0.0005054   7.9858123  )
         4           O1  tau(   4) = (   3.2906025   0.0005020   7.3038282  )
         5           O1  tau(   5) = (   4.5942328   1.4918067   9.2879030  )
         6           O1  tau(   6) = (   1.9868534   1.4903216   9.2879459  )
         7           Ti1 tau(   7) = (   3.2907910   2.8959150   9.1758416  )
         8           Ti1 tau(   8) = (   0.0015273   1.4827037   9.2680791  )
         9           O1  tau(   9) = (   3.2830128   5.9597860  11.3344455  )
        10           O1  tau(  10) = (   0.0116148   5.9584955  10.6183126  )
        11           O1  tau(  11) = (   1.2885291   1.4855062  12.6376555  )
        12           O1  tau(  12) = (   5.2724004   1.4911608  12.5936499  )
        13           Ti1 tau(  13) = (   0.0410009   3.0319447  12.6084003  )
        14           Ti1 tau(  14) = (   3.3739341   1.4916561  12.4823474  )
        15           O1  tau(  15) = (   6.4862162   0.0153916  14.6455093  )
        16           O1  tau(  16) = (   3.3439542   5.9611638  13.9051029  )
        17           O1  tau(  17) = (   4.4933269   1.5483200  16.1231154  )
        18           O1  tau(  18) = (   1.9964937   1.4536654  15.9127221  )
        19           Ti1 tau(  19) = (   3.1412959   3.0017366  15.7441667  )
        20           Ti1 tau(  20) = (   6.4823597   1.5369342  15.8006069  )
        21           O1  tau(  21) = (   3.2904802   0.0005063   4.7018136  )
        22           O1  tau(  22) = (   6.5709111   0.0522475  17.2082838  )
        23           O1  tau(  23) = (   1.3043587   1.4918075   6.0039043  )
        24           O1  tau(  24) = (   5.2767064   1.4903225   6.0039473  )
        25           Ti1 tau(  25) = (   0.0000382   5.9609847   6.0000000  )
        26           Ti1 tau(  26) = (   3.2902200   4.4714249   6.0002472  )
        27           O1  tau(  27) = (   0.0002396   2.9813036   7.9858123  )
        28           O1  tau(  28) = (   3.2902150   2.9813002   7.3038282  )
        29           O1  tau(  29) = (   4.5938453   4.4726049   9.2879030  )
        30           O1  tau(  30) = (   1.9864658   4.4711199   9.2879459  )
        31           Ti1 tau(  31) = (   3.2891106   5.8743827   9.1763621  )
        32           Ti1 tau(  32) = (   0.0006254   4.4649316   9.2693709  )
        33           O1  tau(  33) = (   3.2833609   2.9822938  11.3349093  )
        34           O1  tau(  34) = (   0.0092240   2.9805883  10.6323155  )
        35           O1  tau(  35) = (   1.2838611   4.4860338  12.6468719  )
        36           O1  tau(  36) = (   5.2760156   4.4607002  12.6015494  )
        37           Ti1 tau(  37) = (   0.0673138   0.0440259  12.5461749  )
        38           Ti1 tau(  38) = (   3.3712377   4.4654930  12.4933830  )
        39           O1  tau(  39) = (   6.5217465   2.9589972  14.6412948  )
        40           O1  tau(  40) = (   3.2809526   2.9956502  13.9333893  )
        41           O1  tau(  41) = (   4.4911989   4.4583117  16.1637052  )
        42           O1  tau(  42) = (   1.9937212   4.5427850  15.9740970  )
        43           Ti1 tau(  43) = (   3.2955853   0.0167752  15.6963065  )
        44           Ti1 tau(  44) = (   6.5082246   4.6715011  16.1069148  )
        45           O1  tau(  45) = (   3.2900926   2.9813045   4.7018136  )
        46           O1  tau(  46) = (   1.3039711   4.4726057   6.0039043  )
        47           O1  tau(  47) = (   5.2763189   4.4711207   6.0039473  )
        48           N1  tau(  48) = (   1.3945086   2.8365607  18.1849301  )
        49           N1  tau(  49) = (   0.1777896   2.9650562  17.4211889  )
        50           C1  tau(  50) = (   1.4118813   3.7128676  19.3556819  )
        51           H1  tau(  51) = (   0.5171711   3.5996102  19.9880000  )
        52           H1  tau(  52) = (   2.2935099   3.4681107  19.9517681  )
        53           H1  tau(  53) = (   1.4703795   4.7520035  19.0319817  )
        54           H1  tau(  54) = (   1.4479882   1.8621926  18.4823179  )
        55           H1  tau(  55) = (   5.9558665   2.8747675  18.0551794  )

     number of k points=    10  Fermi-Dirac smearing, width (Ry)=  0.0073
                       cart. coord. in units 2pi/alat
        k(    1) = (   0.0000000   0.0000000   0.0000000), wk =   0.1250000
        k(    2) = (   0.0000000   0.0419351   0.0000000), wk =   0.2500000
        k(    3) = (   0.0000000  -0.0838702   0.0000000), wk =   0.1250000
        k(    4) = (   0.0379955   0.0000049   0.0000000), wk =   0.2500000
        k(    5) = (   0.0379955   0.0419400   0.0000000), wk =   0.2500000
        k(    6) = (   0.0379955  -0.0838652   0.0000000), wk =   0.2500000
        k(    7) = (   0.0379955  -0.0419301   0.0000000), wk =   0.2500000
        k(    8) = (  -0.0759910  -0.0000099   0.0000000), wk =   0.1250000
        k(    9) = (  -0.0759910   0.0419252   0.0000000), wk =   0.2500000
        k(   10) = (  -0.0759910  -0.0838800   0.0000000), wk =   0.1250000

     Initial potential from superposition of free atoms

     starting charge  380.99914, renormalised to  397.00000

     negative rho (up, down):  1.540E-02 0.000E+00

     %%%%%%%%%%%%%%%%%%%%%%%%%%%%%%%%%%%%%%%%%%%%%%%%%%%%%%%%%%%%%%%%%%%%%%%%
     %                                                                      %
     % You are using vdW-DF, which was implemented by the Thonhauser group. %
     % Please cite the following two papers that made this development      %
     % possible and the two reviews that describe the various versions:     %
     %                                                                      %
     %   T. Thonhauser et al., PRL 115, 136402 (2015).                      %
     %   T. Thonhauser et al., PRB 76, 125112 (2007).                       %
     %   K. Berland et al., Rep. Prog. Phys. 78, 066501 (2015).             %
     %   D.C. Langreth et al., J. Phys.: Condens. Matter 21, 084203 (2009). %
     %                                                                      %
     %                                                                      %
     % If you are calculating the stress with vdW-DF, please also cite:     %
     %                                                                      %
     %   R. Sabatini et al., J. Phys.: Condens. Matter 24, 424209 (2012).   %
     %                                                                      %
     %%%%%%%%%%%%%%%%%%%%%%%%%%%%%%%%%%%%%%%%%%%%%%%%%%%%%%%%%%%%%%%%%%%%%%%%

     Adding external electric field

     Computed dipole along edir(3) :
        Dipole               -9.6180 Ry au,        -24.4465 Debye
        Dipole field         -0.0182 Ry au,

        Potential amp.        1.6825 Ry
        Total length         46.3494 bohr

     Starting wfcs are  301 atomic wfcs
  @ DRIVER MODE: Message from server: STATUS
  @ DRIVER MODE: Message from server: POSDATA
  @ DRIVER MODE: Reading and sharing cell
  @ DRIVER MODE: Reading and sharing positions
  @ DRIVER MODE: Received positions

     Self-consistent Calculation

     iteration #  1     ecut=    29.40 Ry     beta= 0.05
     Davidson diagonalization with overlap
     c_bands:  1 eigenvalues not converged
     c_bands:  1 eigenvalues not converged
     c_bands:  1 eigenvalues not converged
     c_bands:  1 eigenvalues not converged
     c_bands:  1 eigenvalues not converged
     c_bands:  1 eigenvalues not converged
     c_bands:  2 eigenvalues not converged
     ethr =  1.00E-05,  avg # of iterations = 18.8

[...]

     total energy              =   -2533.44832950 Ry
     estimated scf accuracy    <    4540.69028263 Ry

     iteration #  2     ecut=    29.40 Ry     beta= 0.05
     Davidson diagonalization with overlap
     ethr =  1.00E-02,  avg # of iterations = 24.4

[...]

     iteration # 46     ecut=    29.40 Ry     beta= 0.05
     Davidson diagonalization with overlap
     c_bands:  1 eigenvalues not converged
     ethr =  1.15E-06,  avg # of iterations = 14.0

[...]

     total energy              =   -2941.66157017 Ry
     estimated scf accuracy    <       0.00000009 Ry

     iteration # 72     ecut=    29.40 Ry     beta= 0.05
     Davidson diagonalization with overlap
     ethr =  2.35E-11,  avg # of iterations =  8.7

     negative rho (up, down):  1.607E-02 0.000E+00

     Adding external electric field

     Computed dipole along edir(3) :
        Dipole                0.9422 Ry au,          2.3948 Debye
        Dipole field          0.0018 Ry au,

        Potential amp.       -0.1648 Ry
        Total length         46.3494 bohr

     End of self-consistent calculation

          k = 0.0000 0.0000 0.0000 ( 18029 PWs)   bands (ev):

   -55.6864 -55.6698 -55.6524 -55.6332 -55.5925 -55.5382 -55.5313 -55.5012
   -55.4953 -55.4672 -55.4652 -55.4311 -55.2583 -55.0346 -54.6669 -54.6329
   -32.2208 -32.1695 -32.0428 -32.0329 -31.9995 -31.9849 -31.9793 -31.9556
   -31.9305 -31.8989 -31.8966 -31.8903 -31.8473 -31.8387 -31.8251 -31.8235
   -31.8069 -31.7913 -31.7829 -31.7477 -31.7436 -31.7370 -31.7213 -31.7177
   -31.6949 -31.6904 -31.6878 -31.6801 -31.6658 -31.6637 -31.6560 -31.6469
   -31.6413 -31.6317 -31.6183 -31.6087 -31.5774 -31.5086 -31.4648 -31.3009
   -31.2914 -31.2370 -31.0742 -30.9856 -30.9632 -30.8909 -30.8044 -30.6933
   -16.7797 -16.4175 -16.1626 -15.9333 -15.8421 -15.8118 -15.6594 -15.5277
   -15.4183 -15.3366 -15.2517 -15.2327 -15.2252 -15.2145 -15.1885 -15.1827
   -15.1356 -15.1310 -15.1114 -15.0986 -15.0485 -15.0321 -15.0285 -14.9338
   -14.8699 -14.8345 -14.8197 -14.7852 -14.7477 -14.3344 -13.1694 -13.0529
   -11.8059  -8.9817  -5.4289  -4.3694  -3.8435  -3.7889  -3.6448  -3.5940
    -3.5340  -3.4956  -3.3175  -3.2150  -2.9422  -2.8852  -2.8557  -2.8466
    -2.7902  -2.7589  -2.6015  -2.5753  -2.5044  -2.4950  -2.4803  -2.4513
    -2.4426  -2.4358  -2.3970  -2.3759  -2.3476  -2.2432  -2.1033  -2.0939
    -2.0715  -2.0383  -2.0004  -1.9519  -1.9357  -1.9153  -1.8970  -1.8844
    -1.8718  -1.7369  -1.7018  -1.5856  -1.4961  -1.4494  -1.3695  -1.2988
    -1.2680  -1.1581  -1.1183  -1.1056  -1.0917  -1.0808  -0.9813  -0.8756
    -0.8582  -0.8202  -0.7651  -0.7095  -0.6389  -0.5940  -0.5429  -0.4907
    -0.4666  -0.4512  -0.4484  -0.4133  -0.3217  -0.1804  -0.1286  -0.0943
    -0.0722   0.0047   0.0397   0.0959   0.1208   0.1438   0.1796   0.2326
     0.2762   0.2828   0.2961   0.3106   0.3153   0.4895   0.5392   0.5810
     0.6143   0.6602   0.8214   0.8434   0.9653   1.0395   1.2043   1.2807
     1.3552   1.4331   1.5470   1.6124   1.9265   1.9722   3.4443   3.5315
     3.5763   3.5900   3.6854   3.7272   3.8970   3.9273   3.9419   4.0018

[...]

          k = 0.0380-0.0419 0.0000 ( 17876 PWs)   bands (ev):

[...]

          k =-0.0760-0.0000 0.0000 ( 17886 PWs)   bands (ev):

[...]

          k =-0.0760-0.0839 0.0000 ( 17948 PWs)   bands (ev):

   -55.6698 -55.6689 -55.6551 -55.6477 -55.5865 -55.5441 -55.5187 -55.5079
   -55.4847 -55.4832 -55.4511 -55.4454 -55.2572 -55.0356 -54.6499 -54.6498
   -32.0299 -32.0202 -31.9851 -31.9844 -31.9651 -31.9642 -31.9444 -31.9380
   -31.8851 -31.8845 -31.8743 -31.8691 -31.8521 -31.8341 -31.8096 -31.8048
   -31.8005 -31.7968 -31.7901 -31.7901 -31.7887 -31.7883 -31.7847 -31.7450
   -31.7368 -31.7253 -31.7170 -31.7058 -31.6851 -31.6842 -31.6821 -31.6754
   -31.6655 -31.6615 -31.6581 -31.6557 -31.6145 -31.5111 -31.4615 -31.3631
   -31.2935 -31.2631 -30.9760 -30.9758 -30.8870 -30.8868 -30.8477 -30.8476
   -16.7539 -15.8646 -15.8035 -15.6456 -15.6103 -15.5908 -15.5559 -15.4951
   -15.4120 -15.3846 -15.3801 -15.3330 -15.3073 -15.2745 -15.2363 -15.2221
   -15.2147 -15.1961 -15.1837 -15.1498 -15.1404 -15.1287 -15.1215 -15.0461
   -15.0084 -15.0040 -14.9985 -14.8950 -14.7684 -14.5025 -13.1547 -13.1547
   -11.8122  -8.9959  -5.4431  -4.3566  -3.7680  -3.1574  -3.0704  -2.8956
    -2.8400  -2.8112  -2.7953  -2.6292  -2.6185  -2.6035  -2.5570  -2.5360
    -2.5261  -2.5174  -2.5086  -2.4876  -2.4748  -2.4398  -2.4301  -2.3949
    -2.3806  -2.3629  -2.3461  -2.3290  -2.3092  -2.2949  -2.2782  -2.2376
    -2.2178  -2.2072  -2.1868  -2.1429  -1.9326  -1.8824  -1.8358  -1.8319
    -1.8220  -1.8023  -1.7473  -1.7424  -1.7086  -1.6573  -1.5787  -1.4340
    -1.3886  -1.3722  -1.2792  -1.2576  -1.2047  -1.1327  -1.0871  -1.0700
    -1.0347  -0.9710  -0.9345  -0.8974  -0.8309  -0.8063  -0.8008  -0.7069
    -0.6860  -0.6496  -0.6429  -0.5645  -0.5141  -0.4510  -0.4355  -0.4192
    -0.3876  -0.3541  -0.3359  -0.2680  -0.1760  -0.1750  -0.1516  -0.0430
     0.0479   0.2762   0.3388   0.3759   0.4206   0.5144   0.5830   0.6076
     0.6234   0.6450   0.6644   0.7123   0.8396   0.8497   0.8839   0.9967
     1.1034   1.6277   1.7186   1.7195   1.7921   1.7922   3.7457   3.7639
     3.7844   3.8309   3.9501   3.9570   3.9793   3.9815   4.1043   4.1168

     the Fermi energy is     3.4457 ev

!    total energy              =   -2941.66158596 Ry
     estimated scf accuracy    <       0.00000002 Ry
     smearing contrib. (-TS)   =      -0.02151973 Ry
     internal energy E=F+TS    =   -2941.64006623 Ry

     The total energy is F=E-TS. E is the sum of the following terms:
     one-electron contribution =  -24276.06596599 Ry
     hartree contribution      =   12228.48766927 Ry
     xc contribution           =    -486.87404228 Ry
     ewald contribution        =    9592.81059748 Ry
     electric field correction =       0.00167528 Ry

     convergence has been achieved in  72 iterations

     Forces acting on atoms (cartesian axes, Ry/au):

     atom    1 type  1   force =     0.00018410   -0.00011832    0.09635687
     atom    2 type  1   force =    -0.00021742   -0.00063427   -0.17552411
     atom    3 type  2   force =    -0.00004211   -0.00003402   -0.02418818
     atom    4 type  2   force =     0.00005006   -0.00144127    0.05291096
     atom    5 type  2   force =    -0.01181735   -0.00049273    0.00395996
     atom    6 type  2   force =     0.01313261    0.00023522    0.00229614
     atom    7 type  1   force =    -0.00140477    0.00080372   -0.01149394
     atom    8 type  1   force =     0.00053311    0.00921308    0.02522027
     atom    9 type  2   force =    -0.00010984    0.00017531    0.00039095
     atom   10 type  2   force =    -0.00086474    0.00148682   -0.01580250
     atom   11 type  2   force =    -0.00019323   -0.00049887    0.00039449
     atom   12 type  2   force =    -0.00013272   -0.00026208    0.00002563
     atom   13 type  1   force =     0.00054131   -0.00091390    0.00006826
     atom   14 type  1   force =    -0.00008359   -0.00040830    0.00024033
     atom   15 type  2   force =     0.00017828    0.00003811   -0.00031281
     atom   16 type  2   force =     0.00006716    0.00024379    0.00004808
     atom   17 type  2   force =    -0.00049988    0.00034510    0.00047317
     atom   18 type  2   force =     0.00011188    0.00010718    0.00022553
     atom   19 type  1   force =     0.00010611   -0.00064372    0.00025322
     atom   20 type  1   force =     0.00015247    0.00042938    0.00055473
     atom   21 type  2   force =     0.00007397   -0.00008418    0.10321096
     atom   22 type  2   force =    -0.00039963   -0.00019633    0.00034503
     atom   23 type  2   force =    -0.07147656   -0.00018053   -0.02770717
     atom   24 type  2   force =     0.07139677    0.00025120   -0.02770726
     atom   25 type  1   force =     0.00003462   -0.00027215    0.09581253
     atom   26 type  1   force =    -0.00014742   -0.00023390   -0.17569461
     atom   27 type  2   force =     0.00009273   -0.00012345   -0.02329169
     atom   28 type  2   force =     0.00007987   -0.00129286    0.05333432
     atom   29 type  2   force =    -0.01194806   -0.00005644    0.00375668
     atom   30 type  2   force =     0.01320027    0.00043153    0.00213256
     atom   31 type  1   force =    -0.00141934    0.00344619   -0.01082000
     atom   32 type  1   force =     0.00064031   -0.01009615    0.02563004
     atom   33 type  2   force =    -0.00039128    0.00005129    0.00005135
     atom   34 type  2   force =     0.00075067    0.00090028   -0.02307115
     atom   35 type  2   force =    -0.00010981    0.00029156   -0.00002285
     atom   36 type  2   force =    -0.00021987    0.00059502   -0.00028947
     atom   37 type  1   force =    -0.00082659   -0.00102072   -0.00014364
     atom   38 type  1   force =    -0.00003249   -0.00009592   -0.00004289
     atom   39 type  2   force =    -0.00034382    0.00005249    0.00055731
     atom   40 type  2   force =     0.00049025    0.00025507    0.00028527
     atom   41 type  2   force =     0.00004296    0.00051230    0.00025837
     atom   42 type  2   force =     0.00005860    0.00024327   -0.00013945
     atom   43 type  1   force =     0.00020202    0.00015571   -0.00017347
     atom   44 type  1   force =    -0.00030204   -0.00072537    0.00000845
     atom   45 type  2   force =     0.00007054   -0.00008399    0.10323367
     atom   46 type  2   force =    -0.07147357   -0.00016923   -0.02770059
     atom   47 type  2   force =     0.07140010    0.00030438   -0.02771474
     atom   48 type  3   force =    -0.00157120   -0.00074904   -0.00038623
     atom   49 type  3   force =    -0.00032890    0.00101792   -0.00053169
     atom   50 type  4   force =     0.00059848    0.00010163    0.00119325
     atom   51 type  5   force =     0.00114796    0.00041715   -0.00064351
     atom   52 type  5   force =    -0.00029289    0.00071278   -0.00068798
     atom   53 type  5   force =    -0.00019592   -0.00173180    0.00050369
     atom   54 type  5   force =     0.00178613   -0.00006127    0.00053841
     atom   55 type  5   force =    -0.00027830   -0.00019666   -0.00018059

     Total force =     0.367340     Total SCF correction =     0.000359
  @ DRIVER MODE: Message from server: STATUS
  @ DRIVER MODE: Message from server: GETFORCE
  @ DRIVER MODE: Returning v,forces,stress,ensemble

     Writing output data file ./calc.save/
  @ DRIVER MODE: Message from server: EXIT
  @ DRIVE MODE: Exiting

     General routines

     Parallel routines

   This run was terminated on:   9:46:48   9Sep2021

   JOB DONE.