     Program PWSCF v.6.7GPU starts on 26Sep2021 at 19:27:52

     R & G space division:  proc/nbgrp/npool/nimage =       8
     Reading input from /storage/home/hcoda1/3/ntian30/research/carbon/CxH_vib/H2O_calc/ads_slab/CH3OHN2HO_a/out_0048/pw.inp
Warning: card &CELL ignored
Warning: card   CELL_DYNAMICS='IPI', ignored
Warning: card / ignored

     Current dimensions of program PWSCF are:
     Max number of different atomic species (ntypx) = 10
     Max number of k-points (npk) =  40000
     Max angular momentum in pseudopotentials (lmaxx) =  3
     Presently no symmetry can be used with electric field

     Message from routine cell_base_init:
     DEPRECATED: use true lattice parameter, not A to a.u. conversion factor

     IMPORTANT: XC functional enforced from input :
     Exchange-correlation= BEEF-VDW
                           (   1   4  43  14   2   0   0)
     Any further DFT definition will be discarded
     Please, verify this is what you really want

  @ DRIVER MODE: Connecting to
 qe_1139763_2971668.sched-torque.pace.gatech.eduup5zo1ot_scratch
  using UNIX socket
  @ DRIVER MODE: Message from server: STATUS
  @ DRIVER MODE: Message from server: INIT
  @ DRIVER MODE: Receiving replica           0          -1
  @ DRIVER MODE: Receiving encoded integer          25
  @ DRIVER MODE:  SCF:  T  FORCE:  T  STRESS:  F  VC:  F  ENSEMBLE:  F
  @ DRIVER MODE:  SCF:  T  FORCE:  T  STRESS:  F  VC:  F  ENSEMBLE:  F

     Using Slab Decomposition

     bravais-lattice index     =            0
     lattice parameter (alat)  =       1.8897  a.u.
     unit-cell volume          =    6658.9804 (a.u.)^3
     number of atoms/cell      =           57
     number of atomic types    =            5
     number of electrons       =       409.00
     number of Kohn-Sham states=          214
     kinetic-energy cutoff     =      29.3995  Ry
     charge density cutoff     =     293.9946  Ry
     scf convergence threshold =      7.3E-08
     mixing beta               =       0.0500
     number of iterations used =            8  plain     mixing
     Exchange-correlation= BEEF-VDW
                           (   1   4  43  14   2   0   0)

     celldm(1)=   1.889726  celldm(2)=   0.000000  celldm(3)=   0.000000
     celldm(4)=   0.000000  celldm(5)=   0.000000  celldm(6)=   0.000000

     crystal axes: (cart. coord. in units of alat)
               a(1) = (   6.579727   0.000000   0.000000 )
               a(2) = (  -0.000775   5.961596   0.000000 )
               a(3) = (   0.000000   0.000000  25.155947 )

     reciprocal axes: (cart. coord. in units 2 pi/alat)
               b(1) = (  0.151982  0.000020  0.000000 )
               b(2) = (  0.000000  0.167740  0.000000 )
               b(3) = (  0.000000  0.000000  0.039752 )

     PseudoPot. # 1 for Ti read from file:
     /storage/coda1/p-amedford6/0/shared/rich_project_chbe-medford/medford-share/data/pseudos_module/espresso/nninc/pbe/van/Ti.UPF
     MD5 check sum: 8e4df49b7f0d34bbd5052bf3f5ea0213
     Pseudo is Ultrasoft, Zval = 12.0
     Generated by new atomic code, or converted to UPF format
     Using radial grid of  851 points,  6 beta functions with:
                l(1) =   0
                l(2) =   0
                l(3) =   1
                l(4) =   1
                l(5) =   2
                l(6) =   2
     Q(r) pseudized with  8 coefficients,  rinner =    1.000   1.000   1.000
                                                       1.000   1.000

     PseudoPot. # 2 for O  read from file:
     /storage/coda1/p-amedford6/0/shared/rich_project_chbe-medford/medford-share/data/pseudos_module/espresso/nninc/pbe/van/O.UPF
     MD5 check sum: 78c19812648e8988a0fe644b0f25305e
     Pseudo is Ultrasoft, Zval =  6.0
     Generated by new atomic code, or converted to UPF format
     Using radial grid of  737 points,  4 beta functions with:
                l(1) =   0
                l(2) =   0
                l(3) =   1
                l(4) =   1
     Q(r) pseudized with  8 coefficients,  rinner =    0.800   0.800   0.800

     PseudoPot. # 3 for C  read from file:
     /storage/coda1/p-amedford6/0/shared/rich_project_chbe-medford/medford-share/data/pseudos_module/espresso/nninc/pbe/van/C.UPF
     MD5 check sum: 1a69bf6b8db32088f5b2163dbdb77a27
     Pseudo is Ultrasoft, Zval =  4.0
     Generated by new atomic code, or converted to UPF format
     Using radial grid of  721 points,  4 beta functions with:
                l(1) =   0
                l(2) =   0
                l(3) =   1
                l(4) =   1
     Q(r) pseudized with  8 coefficients,  rinner =    0.800   0.800   0.800

     PseudoPot. # 4 for H  read from file:
     /storage/coda1/p-amedford6/0/shared/rich_project_chbe-medford/medford-share/data/pseudos_module/espresso/nninc/pbe/van/H.UPF
     MD5 check sum: b5ee9d7bfd3a09ee7748110bda690ff7
     Pseudo is Ultrasoft, Zval =  1.0
     Generated by new atomic code, or converted to UPF format
     Using radial grid of  615 points,  1 beta functions with:
                l(1) =   0
     Q(r) pseudized with  8 coefficients,  rinner =    0.800

     PseudoPot. # 5 for N  read from file:
     /storage/coda1/p-amedford6/0/shared/rich_project_chbe-medford/medford-share/data/pseudos_module/espresso/nninc/pbe/van/N.UPF
     MD5 check sum: 90d10febe142ad51ac9d5be1deb811c4
     Pseudo is Ultrasoft, Zval =  5.0
     Generated by new atomic code, or converted to UPF format
     Using radial grid of  729 points,  4 beta functions with:
                l(1) =   0
                l(2) =   0
                l(3) =   1
                l(4) =   1
     Q(r) pseudized with  8 coefficients,  rinner =    0.800   0.800   0.800

     atomic species   valence    mass     pseudopotential
        Ti1           12.00    47.86700     Ti( 1.00)
        O1             6.00    15.99900     O ( 1.00)
        C1             4.00    12.01100     C ( 1.00)
        H1             1.00     1.00800     H ( 1.00)
        N1             5.00    14.00700     N ( 1.00)

     No symmetry found

   Cartesian axes

     site n.     atom                  positions (alat units)
         1           Ti1 tau(   1) = (   0.0004258   2.9801865   6.0000000  )
         2           Ti1 tau(   2) = (   3.2906075   1.4906267   6.0002472  )
         3           O1  tau(   3) = (   0.0006271   0.0005054   7.9858123  )
         4           O1  tau(   4) = (   3.2906025   0.0005020   7.3038282  )
         5           O1  tau(   5) = (   4.5942328   1.4918067   9.2879030  )
         6           O1  tau(   6) = (   1.9868534   1.4903216   9.2879459  )
         7           Ti1 tau(   7) = (   3.3371032   3.0268772   9.1887580  )
         8           Ti1 tau(   8) = (   0.0611061   1.5258697   9.2809523  )
         9           O1  tau(   9) = (   3.3143856   0.0188946  11.3581724  )
        10           O1  tau(  10) = (   0.0164151   0.0031400  10.5895864  )
        11           O1  tau(  11) = (   1.3088961   1.4994640  12.6347600  )
        12           O1  tau(  12) = (   5.3347766   1.4946156  12.6347356  )
        13           Ti1 tau(  13) = (   0.0202478   3.0292801  12.5720800  )
        14           Ti1 tau(  14) = (   3.3188568   1.5851219  12.4260843  )
        15           O1  tau(  15) = (   0.0445434   5.9450813  14.6510506  )
        16           O1  tau(  16) = (   3.3207065   5.8849141  14.0104376  )
        17           O1  tau(  17) = (   4.6249962   1.5116716  16.1313945  )
        18           O1  tau(  18) = (   2.0639035   1.5439872  16.0680944  )
        19           Ti1 tau(  19) = (   3.3360141   2.9454253  15.6763505  )
        20           Ti1 tau(  20) = (   0.0686920   1.3314864  15.9334539  )
        21           O1  tau(  21) = (   3.2904802   0.0005063   4.7018136  )
        22           O1  tau(  22) = (   0.0979609   0.0039778  17.1657837  )
        23           O1  tau(  23) = (   1.3043587   1.4918075   6.0039043  )
        24           O1  tau(  24) = (   5.2767064   1.4903225   6.0039473  )
        25           Ti1 tau(  25) = (   0.0000382   5.9609847   6.0000000  )
        26           Ti1 tau(  26) = (   3.2902200   4.4714249   6.0002472  )
        27           O1  tau(  27) = (   0.0002396   2.9813036   7.9858123  )
        28           O1  tau(  28) = (   3.2902150   2.9813002   7.3038282  )
        29           O1  tau(  29) = (   4.5938453   4.4726049   9.2879030  )
        30           O1  tau(  30) = (   1.9864658   4.4711199   9.2879459  )
        31           Ti1 tau(  31) = (   3.3368545   0.0404040   9.1664313  )
        32           Ti1 tau(  32) = (   0.0604674   4.4799263   9.2696248  )
        33           O1  tau(  33) = (   3.3137611   2.9662427  11.3084074  )
        34           O1  tau(  34) = (   0.0134136   2.9850836  10.6046154  )
        35           O1  tau(  35) = (   1.3054726   4.4719986  12.6384794  )
        36           O1  tau(  36) = (   5.3362180   4.4781181  12.6390536  )
        37           Ti1 tau(  37) = (   0.0365240   0.0487139  12.4702884  )
        38           Ti1 tau(  38) = (   3.3180881   4.6653017  12.7087268  )
        39           O1  tau(  39) = (   0.0228105   2.9918545  14.7761892  )
        40           O1  tau(  40) = (   3.3431522   2.9700269  13.9040455  )
        41           O1  tau(  41) = (   4.6265974   4.4152401  16.1544535  )
        42           O1  tau(  42) = (   2.0571238   4.3592187  16.1146037  )
        43           Ti1 tau(  43) = (   3.3848590   5.9294639  16.2700006  )
        44           Ti1 tau(  44) = (   0.0517009   4.5268197  15.8466567  )
        45           O1  tau(  45) = (   3.2900926   2.9813045   4.7018136  )
        46           O1  tau(  46) = (   1.3039711   4.4726057   6.0039043  )
        47           O1  tau(  47) = (   5.2763189   4.4711207   6.0039473  )
        48           C1  tau(  48) = (   5.9450987   3.0517216  18.8599509  )
        49           O1  tau(  49) = (   0.1802289   3.0084098  17.6484507  )
        50           H1  tau(  50) = (   4.9625852   2.6832861  18.5889656  )
        51           H1  tau(  51) = (   1.1163247   3.1442434  17.8758057  )
        52           H1  tau(  52) = (   6.3899442   2.3914015  19.6026461  )
        53           H1  tau(  53) = (   5.8846647   4.0795385  19.2151274  )
        54           N1  tau(  54) = (   5.7598779   3.1323611  22.9045362  )
        55           N1  tau(  55) = (   4.9845974   3.1850264  22.1303839  )
        56           O1  tau(  56) = (   3.1467188   0.0118795  18.1166202  )
        57           H1  tau(  57) = (   2.2164505   0.0865285  18.3868412  )

     number of k points=    10  Fermi-Dirac smearing, width (Ry)=  0.0073
                       cart. coord. in units 2pi/alat
        k(    1) = (   0.0000000   0.0000000   0.0000000), wk =   0.1250000
        k(    2) = (   0.0000000   0.0419351   0.0000000), wk =   0.2500000
        k(    3) = (   0.0000000  -0.0838702   0.0000000), wk =   0.1250000
        k(    4) = (   0.0379955   0.0000049   0.0000000), wk =   0.2500000
        k(    5) = (   0.0379955   0.0419400   0.0000000), wk =   0.2500000
        k(    6) = (   0.0379955  -0.0838652   0.0000000), wk =   0.2500000
        k(    7) = (   0.0379955  -0.0419301   0.0000000), wk =   0.2500000
        k(    8) = (  -0.0759910  -0.0000099   0.0000000), wk =   0.1250000
        k(    9) = (  -0.0759910   0.0419252   0.0000000), wk =   0.2500000
        k(   10) = (  -0.0759910  -0.0838800   0.0000000), wk =   0.1250000

     Initial potential from superposition of free atoms

     starting charge  392.99914, renormalised to  409.00000

     negative rho (up, down):  9.133E-03 0.000E+00

     %%%%%%%%%%%%%%%%%%%%%%%%%%%%%%%%%%%%%%%%%%%%%%%%%%%%%%%%%%%%%%%%%%%%%%%%
     %                                                                      %
     % You are using vdW-DF, which was implemented by the Thonhauser group. %
     % Please cite the following two papers that made this development      %
     % possible and the two reviews that describe the various versions:     %
     %                                                                      %
     %   T. Thonhauser et al., PRL 115, 136402 (2015).                      %
     %   T. Thonhauser et al., PRB 76, 125112 (2007).                       %
     %   K. Berland et al., Rep. Prog. Phys. 78, 066501 (2015).             %
     %   D.C. Langreth et al., J. Phys.: Condens. Matter 21, 084203 (2009). %
     %                                                                      %
     %                                                                      %
     % If you are calculating the stress with vdW-DF, please also cite:     %
     %                                                                      %
     %   R. Sabatini et al., J. Phys.: Condens. Matter 24, 424209 (2012).   %
     %                                                                      %
     %%%%%%%%%%%%%%%%%%%%%%%%%%%%%%%%%%%%%%%%%%%%%%%%%%%%%%%%%%%%%%%%%%%%%%%%

     Adding external electric field

     Computed dipole along edir(3) :
        Dipole              -18.8725 Ry au,        -47.9692 Debye
        Dipole field         -0.0356 Ry au,

        Potential amp.        3.3015 Ry
        Total length         46.3494 bohr

     Starting wfcs are  309 atomic wfcs
  @ DRIVER MODE: Message from server: STATUS
  @ DRIVER MODE: Message from server: POSDATA
  @ DRIVER MODE: Reading and sharing cell
  @ DRIVER MODE: Reading and sharing positions
  @ DRIVER MODE: Received positions

     Self-consistent Calculation

     iteration #  1     ecut=    29.40 Ry     beta= 0.05
     Davidson diagonalization with overlap
     c_bands:  5 eigenvalues not converged
     c_bands:  5 eigenvalues not converged
     c_bands:  1 eigenvalues not converged
     c_bands:  4 eigenvalues not converged
     c_bands:  1 eigenvalues not converged
     c_bands:  4 eigenvalues not converged
     ethr =  1.00E-05,  avg # of iterations = 27.3

[...]

     total energy              =   -2113.12574052 Ry
     estimated scf accuracy    <   10331.21901878 Ry

     iteration #  2     ecut=    29.40 Ry     beta= 0.05
     Davidson diagonalization with overlap
     ethr =  1.00E-02,  avg # of iterations = 29.3

[...]

     iteration # 58     ecut=    29.40 Ry     beta= 0.05
     Davidson diagonalization with overlap
     c_bands:  1 eigenvalues not converged
     ethr =  1.22E-07,  avg # of iterations =  5.2

[...]

     total energy              =   -3006.45805470 Ry
     estimated scf accuracy    <       0.00000008 Ry

     iteration # 87     ecut=    29.40 Ry     beta= 0.05
     Davidson diagonalization with overlap
     ethr =  2.05E-11,  avg # of iterations =  8.1

     negative rho (up, down):  1.066E-02 0.000E+00

     Adding external electric field

     Computed dipole along edir(3) :
        Dipole                1.0492 Ry au,          2.6667 Debye
        Dipole field          0.0020 Ry au,

        Potential amp.       -0.1835 Ry
        Total length         46.3494 bohr

     End of self-consistent calculation

          k = 0.0000 0.0000 0.0000 ( 18029 PWs)   bands (ev):

   -55.3296 -55.2542 -55.2190 -55.1445 -55.1230 -55.0877 -55.0519 -55.0475
   -55.0457 -55.0264 -55.0164 -54.9863 -54.8995 -54.8236 -54.2137 -54.1797
   -31.7322 -31.7235 -31.6358 -31.6240 -31.5831 -31.5697 -31.5450 -31.5434
   -31.5083 -31.4970 -31.4856 -31.4209 -31.4079 -31.4076 -31.3807 -31.3625
   -31.3543 -31.3370 -31.3362 -31.3249 -31.3174 -31.3130 -31.2666 -31.2648
   -31.2628 -31.2561 -31.2533 -31.2403 -31.2337 -31.2154 -31.2085 -31.1979
   -31.1963 -31.1763 -31.1717 -31.1638 -31.1628 -31.1285 -31.0883 -31.0689
   -31.0377 -31.0274 -30.6198 -30.5336 -30.5110 -30.4368 -30.3505 -30.2389
   -21.6158 -19.7126 -16.1362 -15.9060 -15.7268 -15.5248 -15.4680 -15.4016
   -15.2143 -15.1409 -14.9850 -14.8599 -14.8452 -14.7884 -14.7874 -14.7773
   -14.7482 -14.7234 -14.6780 -14.6667 -14.6613 -14.6577 -14.5961 -14.5537
   -14.5512 -14.5240 -14.5032 -14.3762 -14.3291 -14.2746 -14.1044 -14.0828
   -12.7131 -12.5969 -10.5730  -6.6368  -6.4074  -4.7104  -4.6854  -4.6056
    -4.4106  -3.6524  -3.3746  -3.2552  -3.1549  -3.1362  -3.0715  -3.0207
    -2.8057  -2.6996  -2.6364  -2.5237  -2.3966  -2.3604  -2.3085  -2.2783
    -2.1864  -2.1684  -2.1366  -2.1067  -2.0513  -2.0233  -2.0158  -2.0030
    -1.9274  -1.9207  -1.7909  -1.7859  -1.7298  -1.6377  -1.6198  -1.5969
    -1.5897  -1.5555  -1.5530  -1.5106  -1.4869  -1.4629  -1.4344  -1.3593
    -1.3399  -1.2769  -1.2397  -1.0073  -0.8528  -0.8282  -0.7479  -0.7316
    -0.7007  -0.6717  -0.6517  -0.6407  -0.6037  -0.5882  -0.4846  -0.3811
    -0.3725  -0.3128  -0.2752  -0.2703  -0.1347  -0.0898  -0.0156   0.0071
     0.0394   0.0605   0.1447   0.1936   0.2152   0.2818   0.3132   0.4187
     0.4561   0.4754   0.5167   0.5721   0.6326   0.6663   0.7058   0.7092
     0.7419   0.7911   0.8206   0.8552   0.8775   0.9246   1.0274   1.0647
     1.0753   1.2158   1.2269   1.3091   1.4340   1.4857   1.7589   1.8114
     1.8581   2.0038   2.3803   2.4271   3.8698   3.9725   3.9935   4.0148
     4.0826   4.1645   4.3297   4.3530   4.4174   4.5181

[...]

          k = 0.0380-0.0419 0.0000 ( 17876 PWs)   bands (ev):

[...]

          k =-0.0760-0.0000 0.0000 ( 17886 PWs)   bands (ev):

[...]

          k =-0.0760-0.0839 0.0000 ( 17948 PWs)   bands (ev):

   -55.3288 -55.2412 -55.2319 -55.1385 -55.1186 -55.0934 -55.0514 -55.0467
   -55.0380 -55.0298 -55.0174 -54.9956 -54.8958 -54.8272 -54.1969 -54.1964
   -31.6432 -31.5792 -31.5695 -31.5522 -31.5432 -31.5427 -31.5373 -31.5213
   -31.4588 -31.4544 -31.4151 -31.3942 -31.3824 -31.3772 -31.3611 -31.3589
   -31.3552 -31.3534 -31.3464 -31.3404 -31.3355 -31.3334 -31.3181 -31.3160
   -31.2975 -31.2863 -31.2573 -31.2508 -31.2479 -31.2437 -31.2358 -31.2346
   -31.2280 -31.2231 -31.2193 -31.2148 -31.2123 -31.1740 -31.1553 -31.0923
   -31.0749 -31.0314 -30.5239 -30.5236 -30.4336 -30.4321 -30.3939 -30.3929
   -21.6157 -19.7088 -16.1126 -15.5360 -15.3794 -15.2085 -15.1947 -15.1152
   -15.0238 -15.0060 -14.9755 -14.9621 -14.9450 -14.9205 -14.9124 -14.8773
   -14.8143 -14.7724 -14.7493 -14.7410 -14.6940 -14.6888 -14.6853 -14.6225
   -14.6151 -14.5971 -14.5724 -14.5126 -14.5037 -14.4029 -14.3883 -14.2156
   -12.6992 -12.6984 -10.5751  -6.6370  -6.4093  -4.7096  -4.6921  -4.5894
    -4.4029  -3.6178  -3.3650  -2.6844  -2.5998  -2.5373  -2.4323  -2.3539
    -2.3003  -2.2506  -2.2295  -2.1846  -2.1634  -2.0939  -2.0593  -2.0504
    -2.0311  -2.0290  -1.9984  -1.9830  -1.9703  -1.9491  -1.9207  -1.9034
    -1.8929  -1.8719  -1.8520  -1.8262  -1.8141  -1.8042  -1.7893  -1.7734
    -1.6626  -1.6458  -1.6131  -1.4505  -1.4390  -1.3698  -1.3382  -1.3118
    -1.3081  -1.2778  -1.2626  -1.2207  -1.1154  -1.0873  -1.0380  -0.9971
    -0.9037  -0.8877  -0.8368  -0.7860  -0.7401  -0.7115  -0.6810  -0.6657
    -0.6120  -0.4737  -0.4529  -0.4078  -0.2886  -0.2154  -0.1997  -0.1872
    -0.1654  -0.1423  -0.0958  -0.0876  -0.0258  -0.0132   0.0577   0.0616
     0.0907   0.1123   0.2148   0.3369   0.4155   0.4593   0.5042   0.5537
     0.5874   0.6697   0.7460   0.8324   0.9084   0.9380   0.9517   1.0693
     1.1017   1.1543   1.2003   1.2205   1.2788   1.3145   1.3548   1.3879
     2.1725   2.1862   2.2425   2.2481   4.0505   4.3007   4.3607   4.3778
     4.3874   4.4198   4.4408   4.4925   4.5088   4.5326

     the Fermi energy is     3.8800 ev

!    total energy              =   -3006.45805945 Ry
     estimated scf accuracy    <       0.00000005 Ry
     smearing contrib. (-TS)   =      -0.02082473 Ry
     internal energy E=F+TS    =   -3006.43723471 Ry

     The total energy is F=E-TS. E is the sum of the following terms:
     one-electron contribution =  -22317.14527142 Ry
     hartree contribution      =   11258.08903094 Ry
     xc contribution           =    -501.16250147 Ry
     ewald contribution        =    8553.77942998 Ry
     electric field correction =       0.00207727 Ry

     convergence has been achieved in  87 iterations

     Forces acting on atoms (cartesian axes, Ry/au):

     atom    1 type  1   force =    -0.00037543   -0.00016893    0.09497794
     atom    2 type  1   force =    -0.00035115    0.00512413   -0.17482499
     atom    3 type  2   force =     0.00070902    0.00012802   -0.02673840
     atom    4 type  2   force =     0.00129048    0.00083381    0.05204738
     atom    5 type  2   force =    -0.01096472   -0.00256072    0.00077251
     atom    6 type  2   force =     0.01193381   -0.00381081    0.00178328
     atom    7 type  1   force =    -0.00022051    0.00039624    0.00068040
     atom    8 type  1   force =     0.00013743    0.00022135    0.00017499
     atom    9 type  2   force =     0.00025018    0.00075860   -0.00065858
     atom   10 type  2   force =    -0.00038970    0.00015971    0.00014029
     atom   11 type  2   force =     0.00043233   -0.00015532    0.00010712
     atom   12 type  2   force =    -0.00083955   -0.00015534    0.00035991
     atom   13 type  1   force =     0.00042764    0.00034696   -0.00023701
     atom   14 type  1   force =    -0.00033901   -0.00071045    0.00092610
     atom   15 type  2   force =    -0.00014173   -0.00053599   -0.00099117
     atom   16 type  2   force =    -0.00027719    0.00000492   -0.00021441
     atom   17 type  2   force =    -0.00097447    0.00030543   -0.00000167
     atom   18 type  2   force =     0.00047812    0.00068378   -0.00007175
     atom   19 type  1   force =     0.00024337   -0.00082724    0.00018789
     atom   20 type  1   force =    -0.00024950    0.00009024    0.00040716
     atom   21 type  2   force =    -0.00000242    0.00007613    0.10305077
     atom   22 type  2   force =    -0.00002388   -0.00014483    0.00099152
     atom   23 type  2   force =    -0.07196397    0.00014112   -0.02804304
     atom   24 type  2   force =     0.07180196    0.00063821   -0.02814719
     atom   25 type  1   force =    -0.00036548    0.00025891    0.10242286
     atom   26 type  1   force =    -0.00010647   -0.00474618   -0.17506402
     atom   27 type  2   force =     0.00084903    0.00117334   -0.02486058
     atom   28 type  2   force =     0.00119600    0.00025455    0.05168031
     atom   29 type  2   force =    -0.01192468    0.00381523    0.00171662
     atom   30 type  2   force =     0.01376131    0.00146383    0.00244848
     atom   31 type  1   force =    -0.00029345   -0.00015987    0.00081743
     atom   32 type  1   force =     0.00028271    0.00028820    0.00060268
     atom   33 type  2   force =     0.00000669    0.00019483    0.00008991
     atom   34 type  2   force =    -0.00027233   -0.00032188   -0.00057288
     atom   35 type  2   force =    -0.00023954    0.00004846   -0.00047646
     atom   36 type  2   force =    -0.00036961    0.00009341   -0.00009541
     atom   37 type  1   force =    -0.00004991   -0.00034752    0.00003796
     atom   38 type  1   force =    -0.00056894    0.00027835   -0.00000539
     atom   39 type  2   force =    -0.00025505   -0.00024464    0.00078546
     atom   40 type  2   force =    -0.00019743    0.00011164    0.00031332
     atom   41 type  2   force =    -0.00139716   -0.00025923   -0.00004759
     atom   42 type  2   force =     0.00107006   -0.00013079   -0.00049031
     atom   43 type  1   force =    -0.00019864    0.00054894    0.00018458
     atom   44 type  1   force =    -0.00007274    0.00011806    0.00009177
     atom   45 type  2   force =     0.00000331    0.00014072    0.10263950
     atom   46 type  2   force =    -0.07185888   -0.00062857   -0.02798889
     atom   47 type  2   force =     0.07171640   -0.00013839   -0.02806469
     atom   48 type  3   force =    -0.00035616   -0.00013462    0.00005861
     atom   49 type  2   force =    -0.00120017   -0.00079038    0.00019250
     atom   50 type  4   force =    -0.00006578   -0.00044618   -0.00020697
     atom   51 type  4   force =     0.00036224    0.00039500   -0.00067568
     atom   52 type  4   force =    -0.00020375    0.00007803   -0.00042798
     atom   53 type  4   force =    -0.00002220   -0.00039147   -0.00105533
     atom   54 type  5   force =     0.03038127   -0.00214024    0.03055936
     atom   55 type  5   force =    -0.03070438    0.00214178   -0.03055391
     atom   56 type  2   force =     0.00080239   -0.00056163    0.00045876
     atom   57 type  4   force =    -0.00029980   -0.00080071   -0.00119305

     Total force =     0.369932     Total SCF correction =     0.000648
  @ DRIVER MODE: Message from server: STATUS
  @ DRIVER MODE: Message from server: GETFORCE
  @ DRIVER MODE: Returning v,forces,stress,ensemble

     Writing output data file ./calc.save/
  @ DRIVER MODE: Message from server: EXIT
  @ DRIVE MODE: Exiting

     General routines

     Parallel routines

   This run was terminated on:  20: 0:15  26Sep2021

   JOB DONE.