     Program PWSCF v.6.7GPU starts on 16Jul2021 at 16: 2: 5

     R & G space division:  proc/nbgrp/npool/nimage =      16
     Reading input from /storage/home/hcoda1/3/ntian30/research/carbon/15Jul_vib/ads_slab/CH3NNH3_a/out_0044/pw.inp
Warning: card &CELL ignored
Warning: card   CELL_DYNAMICS='IPI', ignored
Warning: card / ignored

     Current dimensions of program PWSCF are:
     Max number of different atomic species (ntypx) = 10
     Max number of k-points (npk) =  40000
     Max angular momentum in pseudopotentials (lmaxx) =  3
     Presently no symmetry can be used with electric field

     Message from routine cell_base_init:
     DEPRECATED: use true lattice parameter, not A to a.u. conversion factor

     IMPORTANT: XC functional enforced from input :
     Exchange-correlation= BEEF-VDW
                           (   1   4  43  14   2   0   0)
     Any further DFT definition will be discarded
     Please, verify this is what you really want

  @ DRIVER MODE: Connecting to
 qe_1139763_2351650.sched-torque.pace.gatech.eduu92y8bj4_scratch
  using UNIX socket
  @ DRIVER MODE: Message from server: STATUS
  @ DRIVER MODE: Message from server: INIT
  @ DRIVER MODE: Receiving replica           0          -1
  @ DRIVER MODE: Receiving encoded integer          25
  @ DRIVER MODE:  SCF:  T  FORCE:  T  STRESS:  F  VC:  F  ENSEMBLE:  F
  @ DRIVER MODE:  SCF:  T  FORCE:  T  STRESS:  F  VC:  F  ENSEMBLE:  F

     Using Slab Decomposition

     bravais-lattice index     =            0
     lattice parameter (alat)  =       1.8897  a.u.
     unit-cell volume          =    6658.9804 (a.u.)^3
     number of atoms/cell      =           56
     number of atomic types    =            5
     number of electrons       =       398.00
     number of Kohn-Sham states=          209
     kinetic-energy cutoff     =      29.3995  Ry
     charge density cutoff     =     293.9946  Ry
     scf convergence threshold =      7.3E-08
     mixing beta               =       0.0500
     number of iterations used =            8  plain     mixing
     Exchange-correlation= BEEF-VDW
                           (   1   4  43  14   2   0   0)

     celldm(1)=   1.889726  celldm(2)=   0.000000  celldm(3)=   0.000000
     celldm(4)=   0.000000  celldm(5)=   0.000000  celldm(6)=   0.000000

     crystal axes: (cart. coord. in units of alat)
               a(1) = (   6.579727   0.000000   0.000000 )
               a(2) = (  -0.000775   5.961596   0.000000 )
               a(3) = (   0.000000   0.000000  25.155947 )

     reciprocal axes: (cart. coord. in units 2 pi/alat)
               b(1) = (  0.151982  0.000020  0.000000 )
               b(2) = (  0.000000  0.167740  0.000000 )
               b(3) = (  0.000000  0.000000  0.039752 )

     PseudoPot. # 1 for Ti read from file:
     /storage/coda1/p-amedford6/0/shared/rich_project_chbe-medford/medford-share/data/pseudos_module/espresso/nninc/pbe/van/Ti.UPF
     MD5 check sum: 8e4df49b7f0d34bbd5052bf3f5ea0213
     Pseudo is Ultrasoft, Zval = 12.0
     Generated by new atomic code, or converted to UPF format
     Using radial grid of  851 points,  6 beta functions with:
                l(1) =   0
                l(2) =   0
                l(3) =   1
                l(4) =   1
                l(5) =   2
                l(6) =   2
     Q(r) pseudized with  8 coefficients,  rinner =    1.000   1.000   1.000
                                                       1.000   1.000

     PseudoPot. # 2 for O  read from file:
     /storage/coda1/p-amedford6/0/shared/rich_project_chbe-medford/medford-share/data/pseudos_module/espresso/nninc/pbe/van/O.UPF
     MD5 check sum: 78c19812648e8988a0fe644b0f25305e
     Pseudo is Ultrasoft, Zval =  6.0
     Generated by new atomic code, or converted to UPF format
     Using radial grid of  737 points,  4 beta functions with:
                l(1) =   0
                l(2) =   0
                l(3) =   1
                l(4) =   1
     Q(r) pseudized with  8 coefficients,  rinner =    0.800   0.800   0.800

     PseudoPot. # 3 for N  read from file:
     /storage/coda1/p-amedford6/0/shared/rich_project_chbe-medford/medford-share/data/pseudos_module/espresso/nninc/pbe/van/N.UPF
     MD5 check sum: 90d10febe142ad51ac9d5be1deb811c4
     Pseudo is Ultrasoft, Zval =  5.0
     Generated by new atomic code, or converted to UPF format
     Using radial grid of  729 points,  4 beta functions with:
                l(1) =   0
                l(2) =   0
                l(3) =   1
                l(4) =   1
     Q(r) pseudized with  8 coefficients,  rinner =    0.800   0.800   0.800

     PseudoPot. # 4 for C  read from file:
     /storage/coda1/p-amedford6/0/shared/rich_project_chbe-medford/medford-share/data/pseudos_module/espresso/nninc/pbe/van/C.UPF
     MD5 check sum: 1a69bf6b8db32088f5b2163dbdb77a27
     Pseudo is Ultrasoft, Zval =  4.0
     Generated by new atomic code, or converted to UPF format
     Using radial grid of  721 points,  4 beta functions with:
                l(1) =   0
                l(2) =   0
                l(3) =   1
                l(4) =   1
     Q(r) pseudized with  8 coefficients,  rinner =    0.800   0.800   0.800

     PseudoPot. # 5 for H  read from file:
     /storage/coda1/p-amedford6/0/shared/rich_project_chbe-medford/medford-share/data/pseudos_module/espresso/nninc/pbe/van/H.UPF
     MD5 check sum: b5ee9d7bfd3a09ee7748110bda690ff7
     Pseudo is Ultrasoft, Zval =  1.0
     Generated by new atomic code, or converted to UPF format
     Using radial grid of  615 points,  1 beta functions with:
                l(1) =   0
     Q(r) pseudized with  8 coefficients,  rinner =    0.800

     atomic species   valence    mass     pseudopotential
        Ti1           12.00    47.86700     Ti( 1.00)
        O1             6.00    15.99900     O ( 1.00)
        N1             5.00    14.00700     N ( 1.00)
        C1             4.00    12.01100     C ( 1.00)
        H1             1.00     1.00800     H ( 1.00)

     Starting magnetic structure
     atomic species   magnetization
        Ti1          0.000
        O1           0.000
        N1           0.000
        C1           0.025
        H1           0.000

     No symmetry found

   Cartesian axes

     site n.     atom                  positions (alat units)
         1           Ti1 tau(   1) = (   0.0004258   2.9801865   6.0000000  )
         2           Ti1 tau(   2) = (   3.2906075   1.4906267   6.0002472  )
         3           O1  tau(   3) = (   0.0006271   0.0005054   7.9858123  )
         4           O1  tau(   4) = (   3.2906025   0.0005020   7.3038282  )
         5           O1  tau(   5) = (   4.5942328   1.4918067   9.2879030  )
         6           O1  tau(   6) = (   1.9868534   1.4903216   9.2879459  )
         7           Ti1 tau(   7) = (   3.2907910   2.8959150   9.1758416  )
         8           Ti1 tau(   8) = (   0.0015273   1.4827037   9.2680791  )
         9           O1  tau(   9) = (   3.3019049   5.9598586  11.2958584  )
        10           O1  tau(  10) = (   0.0116148   5.9584955  10.6183126  )
        11           O1  tau(  11) = (   1.3346742   1.4914638  12.6145280  )
        12           O1  tau(  12) = (   5.3113054   1.4894223  12.6320738  )
        13           Ti1 tau(  13) = (   6.4919192   2.9607050  12.7581921  )
        14           Ti1 tau(  14) = (   3.1808934   1.4809541  12.4628303  )
        15           O1  tau(  15) = (   0.0259758   5.9327586  14.5948705  )
        16           O1  tau(  16) = (   3.3179433   0.0111293  13.8771559  )
        17           O1  tau(  17) = (   4.5450242   1.5254396  16.0425357  )
        18           O1  tau(  18) = (   2.0945915   1.5254857  16.0466093  )
        19           Ti1 tau(  19) = (   3.3175380   3.0118254  15.6854273  )
        20           Ti1 tau(  20) = (   0.0287691   1.6153805  16.0968480  )
        21           O1  tau(  21) = (   3.2904802   0.0005063   4.7018136  )
        22           O1  tau(  22) = (   0.0272082   0.0527987  17.2096484  )
        23           O1  tau(  23) = (   1.3043587   1.4918075   6.0039043  )
        24           O1  tau(  24) = (   5.2767064   1.4903225   6.0039473  )
        25           Ti1 tau(  25) = (   0.0000382   5.9609847   6.0000000  )
        26           Ti1 tau(  26) = (   3.2902200   4.4714249   6.0002472  )
        27           O1  tau(  27) = (   0.0002396   2.9813036   7.9858123  )
        28           O1  tau(  28) = (   3.2902150   2.9813002   7.3038282  )
        29           O1  tau(  29) = (   4.5938453   4.4726049   9.2879030  )
        30           O1  tau(  30) = (   1.9864658   4.4711199   9.2879459  )
        31           Ti1 tau(  31) = (   3.2891106   5.8743827   9.1763621  )
        32           Ti1 tau(  32) = (   0.0006254   4.4649316   9.2693709  )
        33           O1  tau(  33) = (   3.3007599   2.9794320  11.2948048  )
        34           O1  tau(  34) = (   0.0092240   2.9805883  10.6323155  )
        35           O1  tau(  35) = (   1.3367187   4.4652043  12.6121808  )
        36           O1  tau(  36) = (   5.3110114   4.4536366  12.6300246  )
        37           Ti1 tau(  37) = (   6.5175235   5.9394146  12.7678677  )
        38           Ti1 tau(  38) = (   3.1810223   4.4618757  12.4682998  )
        39           O1  tau(  39) = (   0.0141956   2.9656780  14.6533049  )
        40           O1  tau(  40) = (   3.3125561   2.9946134  13.8784269  )
        41           O1  tau(  41) = (   4.5469694   4.5079638  16.0550352  )
        42           O1  tau(  42) = (   2.0896055   4.5089645  16.0567747  )
        43           Ti1 tau(  43) = (   3.3249511   0.0336637  15.6879192  )
        44           Ti1 tau(  44) = (   0.0309337   4.5948497  16.1324869  )
        45           O1  tau(  45) = (   3.2900926   2.9813045   4.7018136  )
        46           O1  tau(  46) = (   1.3039711   4.4726057   6.0039043  )
        47           O1  tau(  47) = (   5.2763189   4.4711207   6.0039473  )
        48           N1  tau(  48) = (   0.0510883   3.0100077  17.3315927  )
        49           C1  tau(  49) = (   0.2149723   3.0659314  18.7643681  )
        50           H1  tau(  50) = (   6.1109748   3.7957518  19.2115106  )
        51           H1  tau(  51) = (   0.0391147   2.0919789  19.2277120  )
        52           H1  tau(  52) = (   1.2341903   3.3897193  19.0223879  )
        53           N1  tau(  53) = (   4.7717085   1.8344328  21.5424420  )
        54           H1  tau(  54) = (   4.4711387   2.7986659  21.4441960  )
        55           H1  tau(  55) = (   4.1940297   1.2822813  20.9257432  )
        56           H1  tau(  56) = (   4.5427024   1.5537098  22.4892962  )

     number of k points=    10  Fermi-Dirac smearing, width (Ry)=  0.0073
                       cart. coord. in units 2pi/alat
        k(    1) = (   0.0000000   0.0000000   0.0000000), wk =   0.0625000
        k(    2) = (   0.0000000   0.0419351   0.0000000), wk =   0.1250000
        k(    3) = (   0.0000000  -0.0838702   0.0000000), wk =   0.0625000
        k(    4) = (   0.0379955   0.0000049   0.0000000), wk =   0.1250000
        k(    5) = (   0.0379955   0.0419400   0.0000000), wk =   0.1250000
[...]
     %                                                                      %
     %   T. Thonhauser et al., PRL 115, 136402 (2015).                      %
     %   T. Thonhauser et al., PRB 76, 125112 (2007).                       %
     %   K. Berland et al., Rep. Prog. Phys. 78, 066501 (2015).             %
     %   D.C. Langreth et al., J. Phys.: Condens. Matter 21, 084203 (2009). %
     %                                                                      %
     %                                                                      %
     % If you are calculating the stress with vdW-DF, please also cite:     %
     %                                                                      %
     %   R. Sabatini et al., J. Phys.: Condens. Matter 24, 424209 (2012).   %
     %                                                                      %
     %%%%%%%%%%%%%%%%%%%%%%%%%%%%%%%%%%%%%%%%%%%%%%%%%%%%%%%%%%%%%%%%%%%%%%%%

     Adding external electric field

     Computed dipole along edir(3) :
        Dipole              -11.2917 Ry au,        -28.7007 Debye
        Dipole field         -0.0213 Ry au,

        Potential amp.        1.9753 Ry
        Total length         46.3494 bohr

[...]

     Starting wfcs are  302 atomic wfcs
  @ DRIVER MODE: Message from server: STATUS
  @ DRIVER MODE: Message from server: POSDATA
  @ DRIVER MODE: Reading and sharing cell
  @ DRIVER MODE: Reading and sharing positions
  @ DRIVER MODE: Received positions

     Self-consistent Calculation

     iteration #  1     ecut=    29.40 Ry     beta= 0.05
     Davidson diagonalization with overlap
     c_bands:  1 eigenvalues not converged
     c_bands:  1 eigenvalues not converged
     c_bands:  2 eigenvalues not converged
     c_bands:  1 eigenvalues not converged
     c_bands:  1 eigenvalues not converged
     c_bands:  1 eigenvalues not converged
     c_bands:  2 eigenvalues not converged
     c_bands:  2 eigenvalues not converged
     c_bands:  1 eigenvalues not converged
     c_bands:  1 eigenvalues not converged
     c_bands:  2 eigenvalues not converged
     c_bands:  1 eigenvalues not converged
     c_bands:  1 eigenvalues not converged
     c_bands:  1 eigenvalues not converged
     c_bands:  2 eigenvalues not converged
     c_bands:  2 eigenvalues not converged
     ethr =  1.00E-05,  avg # of iterations = 19.6

[...]

     total energy              =   -2520.80804316 Ry
     estimated scf accuracy    <    4704.43952421 Ry

     total magnetization       =     0.00 Bohr mag/cell
     absolute magnetization    =     0.01 Bohr mag/cell

[...]

     iteration #  3     ecut=    29.40 Ry     beta= 0.05
     Davidson diagonalization with overlap
     ethr =  1.00E-02,  avg # of iterations = 15.8

[...]

     iteration # 64     ecut=    29.40 Ry     beta= 0.05
     Davidson diagonalization with overlap
     c_bands:  2 eigenvalues not converged
     c_bands:  2 eigenvalues not converged
     c_bands:  2 eigenvalues not converged
     c_bands:  2 eigenvalues not converged
     c_bands:  2 eigenvalues not converged
     ethr =  9.09E-07,  avg # of iterations = 14.1

[...]

     total energy              =   -2942.90775938 Ry
     estimated scf accuracy    <       0.00000009 Ry

[...]

     iteration # 95     ecut=    29.40 Ry     beta= 0.05
     Davidson diagonalization with overlap
     ethr =  1.97E-11,  avg # of iterations =  3.1

     negative rho (up, down):  5.681E-03 5.682E-03

[...]

     Adding external electric field

     Computed dipole along edir(3) :
        Dipole                0.4172 Ry au,          1.0604 Debye
        Dipole field          0.0008 Ry au,

        Potential amp.       -0.0730 Ry
        Total length         46.3494 bohr

     Magnetic moment per site  (integrated on atomic sphere of radius R)
     atom   1 (R=0.735)  charge=  8.0053  magn=  0.0000
     atom   2 (R=0.735)  charge=  8.0011  magn=  0.0001
     atom   3 (R=0.735)  charge=  4.9958  magn= -0.0000
     atom   4 (R=0.735)  charge=  5.0345  magn= -0.0000
     atom   5 (R=0.735)  charge=  4.9982  magn= -0.0000
     atom   6 (R=0.735)  charge=  4.9995  magn= -0.0000
     atom   7 (R=0.735)  charge=  7.9946  magn=  0.0000
     atom   8 (R=0.735)  charge=  7.9823  magn=  0.0000
     atom   9 (R=0.735)  charge=  5.0127  magn=  0.0000
     atom  10 (R=0.735)  charge=  4.9434  magn= -0.0000
     atom  11 (R=0.735)  charge=  4.9999  magn=  0.0000
     atom  12 (R=0.735)  charge=  5.0036  magn=  0.0000
     atom  13 (R=0.735)  charge=  7.9932  magn= -0.0000
     atom  14 (R=0.735)  charge=  8.0007  magn= -0.0000
     atom  15 (R=0.735)  charge=  4.9894  magn= -0.0000
     atom  16 (R=0.735)  charge=  5.0146  magn=  0.0000
     atom  17 (R=0.735)  charge=  4.9901  magn=  0.0000
     atom  18 (R=0.735)  charge=  4.9888  magn=  0.0000
     atom  19 (R=0.735)  charge=  8.0208  magn= -0.0000
     atom  20 (R=0.735)  charge=  8.0242  magn=  0.0000
     atom  21 (R=0.735)  charge=  4.8827  magn= -0.0002
     atom  22 (R=0.735)  charge=  4.9720  magn=  0.0000
     atom  23 (R=0.735)  charge=  4.9884  magn= -0.0000
     atom  24 (R=0.735)  charge=  4.9885  magn= -0.0000
     atom  25 (R=0.735)  charge=  8.0053  magn=  0.0000
     atom  26 (R=0.735)  charge=  8.0011  magn=  0.0001
     atom  27 (R=0.735)  charge=  4.9957  magn=  0.0000
     atom  28 (R=0.735)  charge=  5.0347  magn= -0.0000
     atom  29 (R=0.735)  charge=  4.9989  magn= -0.0000
     atom  30 (R=0.735)  charge=  5.0001  magn= -0.0000
     atom  31 (R=0.735)  charge=  7.9947  magn=  0.0000
     atom  32 (R=0.735)  charge=  7.9826  magn=  0.0000
     atom  33 (R=0.735)  charge=  5.0125  magn=  0.0000
     atom  34 (R=0.735)  charge=  4.9424  magn= -0.0000
     atom  35 (R=0.735)  charge=  5.0005  magn=  0.0000
     atom  36 (R=0.735)  charge=  5.0043  magn=  0.0000
     atom  37 (R=0.735)  charge=  7.9990  magn= -0.0000
     atom  38 (R=0.735)  charge=  8.0004  magn= -0.0000
     atom  39 (R=0.735)  charge=  4.9853  magn= -0.0000
     atom  40 (R=0.735)  charge=  5.0160  magn=  0.0000
     atom  41 (R=0.735)  charge=  4.9884  magn=  0.0000
     atom  42 (R=0.735)  charge=  4.9879  magn=  0.0000
     atom  43 (R=0.735)  charge=  8.0213  magn= -0.0000
     atom  44 (R=0.735)  charge=  8.0216  magn=  0.0000
     atom  45 (R=0.735)  charge=  4.8827  magn= -0.0003
     atom  46 (R=0.735)  charge=  4.9884  magn= -0.0000
     atom  47 (R=0.735)  charge=  4.9885  magn=  0.0000
     atom  48 (R=0.416)  charge=  1.2998  magn= -0.0000
     atom  49 (R=0.451)  charge=  0.8534  magn=  0.0000
     atom  50 (R=0.416)  charge=  0.4332  magn= -0.0000
     atom  51 (R=0.416)  charge=  0.4353  magn= -0.0000
     atom  52 (R=0.416)  charge=  0.4303  magn= -0.0000
     atom  53 (R=0.416)  charge=  1.3170  magn=  0.0000
     atom  54 (R=0.416)  charge=  0.4478  magn= -0.0000
     atom  55 (R=0.416)  charge=  0.4515  magn= -0.0000
     atom  56 (R=0.416)  charge=  0.4497  magn= -0.0000

     End of self-consistent calculation

 ------ SPIN UP ------------

          k = 0.0000 0.0000 0.0000 ( 18029 PWs)   bands (ev):

   -56.6320 -56.5984 -55.7567 -55.7446 -55.7218 -55.7117 -55.6112 -55.5759
   -55.3936 -55.3578 -55.2975 -55.2919 -55.2636 -55.1941 -54.7287 -54.6169
   -33.0599 -32.9067 -32.8785 -32.8078 -32.7167 -32.6859 -32.2272 -32.2212
   -32.1539 -32.0406 -31.9944 -31.9703 -31.9517 -31.9306 -31.8969 -31.8924
   -31.8912 -31.8857 -31.8600 -31.8574 -31.8460 -31.8187 -31.7939 -31.7789
   -31.7659 -31.7475 -31.7380 -31.7133 -31.6897 -31.6358 -31.6243 -31.6117
   -31.5347 -31.5318 -31.5083 -31.4676 -31.4596 -31.4248 -31.4222 -31.3978
   -31.3753 -31.3140 -31.2344 -30.9745 -30.9591 -30.8762 -30.8388 -30.7488
   -16.7969 -16.3649 -16.1343 -15.9949 -15.9292 -15.8730 -15.8303 -15.7046
   -15.6366 -15.6285 -15.5868 -15.5590 -15.4874 -15.3477 -15.2492 -15.1966
   -15.1521 -15.0315 -14.9705 -14.9381 -14.9277 -14.8849 -14.8753 -14.6814
   -14.6583 -14.5645 -14.5434 -14.4226 -14.1880 -13.7955 -13.7144 -13.6854
   -12.8011  -7.4988  -4.3622  -3.8607  -3.7873  -3.7631  -3.6221  -3.5358
    -3.4286  -3.4145  -3.3280  -3.2135  -3.1693  -3.1216  -3.0051  -3.0038
    -2.8555  -2.8109  -2.8079  -2.8055  -2.7565  -2.6973  -2.6735  -2.6420
    -2.6329  -2.6034  -2.4769  -2.3806  -2.3089  -2.2859  -2.2800  -2.2442
    -2.1690  -2.1395  -2.1310  -2.1273  -2.0199  -1.8747  -1.8683  -1.8450
    -1.8032  -1.7978  -1.7553  -1.7421  -1.6243  -1.5338  -1.4313  -1.4151
    -1.3711  -1.3146  -1.3069  -1.2171  -1.1389  -1.0481  -1.0470  -0.9374
    -0.8899  -0.8729  -0.7828  -0.7230  -0.6836  -0.6575  -0.6450  -0.5449
    -0.5223  -0.5122  -0.4281  -0.4163  -0.3673  -0.2782  -0.2555  -0.2466
    -0.1643  -0.1617  -0.0665  -0.0246   0.0154   0.0506   0.1666   0.1839
     0.2822   0.3109   0.3386   0.4513   0.4674   0.5327   0.6073   0.6700
     0.6977   0.7245   0.7534   0.7729   0.8474   0.9593   0.9685   1.0706
     1.1028   1.2772   1.3161   1.4015   1.6017   1.6352   2.3044   2.6426
     2.8021   3.1004   3.2880   3.4011   3.6171   3.6331   3.6381   3.8074
     3.8599

[...]

          k =-0.0760-0.0000 0.0000 ( 17886 PWs)   bands (ev):

[...]

 ------ SPIN DOWN ----------

[...]

          k = 0.0380-0.0419 0.0000 ( 17876 PWs)   bands (ev):

[...]

          k =-0.0760-0.0839 0.0000 ( 17948 PWs)   bands (ev):

   -56.6153 -56.6150 -55.7415 -55.7357 -55.7288 -55.7283 -55.5940 -55.5931
   -55.3799 -55.3714 -55.2887 -55.2801 -55.2800 -55.1972 -54.7258 -54.6197
   -32.8925 -32.8922 -32.8768 -32.8765 -32.7608 -32.7605 -32.0571 -32.0548
   -32.0457 -32.0391 -31.9859 -31.9848 -31.9423 -31.9419 -31.9397 -31.9386
   -31.9309 -31.9280 -31.9258 -31.9242 -31.8465 -31.8444 -31.7955 -31.7926
   -31.7306 -31.7203 -31.6615 -31.6535 -31.6243 -31.6242 -31.6179 -31.5782
   -31.5740 -31.5462 -31.5120 -31.5055 -31.5054 -31.4663 -31.4663 -31.4630
   -31.4396 -31.4001 -31.1145 -30.9942 -30.9586 -30.9280 -30.8413 -30.8041
   -16.1457 -16.1436 -16.1107 -16.1104 -15.8420 -15.8384 -15.7958 -15.7933
   -15.6196 -15.6134 -15.4068 -15.3982 -15.3915 -15.3901 -15.2621 -15.2563
   -15.1907 -15.1803 -15.0911 -15.0820 -15.0254 -15.0190 -14.9765 -14.9555
   -14.6453 -14.6360 -14.5153 -14.4979 -14.3317 -13.7898 -13.7897 -13.7136
   -12.8175  -7.4890  -3.7926  -3.7732  -3.2446  -3.2443  -3.1806  -3.1795
    -3.0582  -3.0541  -2.9752  -2.9745  -2.8766  -2.8753  -2.7614  -2.7326
    -2.7296  -2.7286  -2.7119  -2.6638  -2.5761  -2.5729  -2.5625  -2.5481
    -2.4897  -2.4878  -2.4655  -2.3997  -2.3859  -2.3544  -2.3167  -2.2026
    -2.1923  -2.1804  -2.1485  -2.0852  -2.0780  -2.0651  -2.0227  -1.9901
    -1.9133  -1.8409  -1.8026  -1.6892  -1.6846  -1.6727  -1.6609  -1.5073
    -1.4670  -1.4365  -1.4294  -1.4232  -1.3754  -1.2805  -1.2730  -1.1410
    -1.1394  -1.0653  -0.9837  -0.9625  -0.9341  -0.8055  -0.7614  -0.7269
    -0.7192  -0.6912  -0.6710  -0.6493  -0.6057  -0.4700  -0.4583  -0.4194
    -0.3849  -0.3628  -0.3284  -0.2708  -0.1849  -0.1065  -0.1061  -0.0513
     0.0172   0.0779   0.1650   0.1751   0.1805   0.4615   0.5402   0.6298
     0.7056   0.7717   0.8352   0.8662   0.9215   0.9663   1.1024   1.1056
     1.1248   1.1252   1.1846   1.1884   1.3843   1.6415   2.1940   3.2153
     3.2156   3.2825   3.2829   3.6065   3.6123   3.7205   3.7298   3.8370
     3.8419

     the Fermi energy is     2.4830 ev

!    total energy              =   -2942.90776269 Ry
     estimated scf accuracy    <       0.00000004 Ry
     smearing contrib. (-TS)   =      -0.00487799 Ry
     internal energy E=F+TS    =   -2942.90288470 Ry

     The total energy is F=E-TS. E is the sum of the following terms:
     one-electron contribution =  -23242.43251701 Ry
     hartree contribution      =   11711.41327496 Ry
     xc contribution           =    -487.47674038 Ry
     ewald contribution        =    9075.59276925 Ry
     electric field correction =       0.00032847 Ry

     total magnetization       =    -0.00 Bohr mag/cell
     absolute magnetization    =     0.00 Bohr mag/cell

     convergence has been achieved in  95 iterations

     Forces acting on atoms (cartesian axes, Ry/au):

     atom    1 type  1   force =     0.00003851   -0.00040863    0.12406342
     atom    2 type  1   force =    -0.00010619   -0.00057334   -0.16066502
     atom    3 type  2   force =     0.00023548   -0.00026776   -0.06798286
     atom    4 type  2   force =     0.00001228   -0.00029252    0.02759614
     atom    5 type  2   force =    -0.01615061    0.00175322   -0.00936123
     atom    6 type  2   force =     0.01818356    0.00219153   -0.00898298
     atom    7 type  1   force =     0.00115166   -0.00378358    0.02171178
     atom    8 type  1   force =    -0.00057627   -0.00290628    0.11108181
     atom    9 type  2   force =    -0.00018230    0.00030976   -0.00045280
     atom   10 type  2   force =    -0.00195728    0.00129346   -0.07321656
     atom   11 type  2   force =     0.00022742   -0.00010870    0.00016933
     atom   12 type  2   force =    -0.00026089    0.00022013    0.00020462
     atom   13 type  1   force =    -0.00009455    0.00008796   -0.00043257
     atom   14 type  1   force =    -0.00057932    0.00044877    0.00041204
     atom   15 type  2   force =     0.00027740    0.00000016    0.00016245
     atom   16 type  2   force =    -0.00049043   -0.00036891    0.00056177
     atom   17 type  2   force =    -0.00059879    0.00024212    0.00009007
     atom   18 type  2   force =     0.00002943    0.00024516    0.00008924
     atom   19 type  1   force =     0.00038003   -0.00056285   -0.00000827
     atom   20 type  1   force =    -0.00010388    0.00009157    0.00016176
     atom   21 type  2   force =     0.00004858   -0.00000181    0.09969602
     atom   22 type  2   force =     0.00026607   -0.00004035   -0.00037617
     atom   23 type  2   force =    -0.07915653    0.00000210   -0.03242660
     atom   24 type  2   force =     0.07904232    0.00043983   -0.03244950
     atom   25 type  1   force =     0.00001707   -0.00041092    0.12357738
     atom   26 type  1   force =    -0.00010175   -0.00046808   -0.16079562
     atom   27 type  2   force =     0.00032975   -0.00048292   -0.06703478
     atom   28 type  2   force =     0.00002733   -0.00012057    0.02732323
     atom   29 type  2   force =    -0.01662698    0.00127757   -0.00946506
     atom   30 type  2   force =     0.01855722    0.00165529   -0.00909938
     atom   31 type  1   force =     0.00116638   -0.00138562    0.02113711
     atom   32 type  1   force =    -0.00053069    0.00034904    0.11172740
     atom   33 type  2   force =    -0.00016240   -0.00024836    0.00007019
     atom   34 type  2   force =    -0.00132366    0.00066903   -0.07266758
     atom   35 type  2   force =    -0.00078422   -0.00042965   -0.00002558
     atom   36 type  2   force =     0.00010515   -0.00001755    0.00010789
     atom   37 type  1   force =     0.00006529    0.00063298    0.00021239
     atom   38 type  1   force =    -0.00021158    0.00003214   -0.00016433
     atom   39 type  2   force =     0.00013249   -0.00018538    0.00089866
     atom   40 type  2   force =    -0.00018249   -0.00046322    0.00032329
     atom   41 type  2   force =     0.00007851   -0.00008972    0.00006229
     atom   42 type  2   force =     0.00040449    0.00001913    0.00002049
     atom   43 type  1   force =    -0.00023483   -0.00011753    0.00006258
     atom   44 type  1   force =    -0.00026361    0.00049827    0.00008296
     atom   45 type  2   force =     0.00002407   -0.00003103    0.09972323
     atom   46 type  2   force =    -0.07916222    0.00005486   -0.03242775
     atom   47 type  2   force =     0.07904220    0.00047813   -0.03244219
     atom   48 type  3   force =     0.00089840    0.00073865   -0.00136607
     atom   49 type  4   force =     0.00009540   -0.00047958    0.00005426
     atom   50 type  5   force =    -0.00007819    0.00075469    0.00081110
     atom   51 type  5   force =     0.00027583    0.00050832   -0.00012137
     atom   52 type  5   force =    -0.00028376   -0.00025512    0.00000601
     atom   53 type  3   force =     0.00560247    0.00462560    0.00619731
     atom   54 type  5   force =    -0.00008891   -0.00022832   -0.00087902
     atom   55 type  5   force =    -0.00535643   -0.00454684   -0.00637542
     atom   56 type  5   force =    -0.00106595   -0.00034434    0.00082050

     Total force =     0.424565     Total SCF correction =     0.000530
  @ DRIVER MODE: Message from server: STATUS
  @ DRIVER MODE: Message from server: GETFORCE
  @ DRIVER MODE: Returning v,forces,stress,ensemble

     Writing output data file ./calc.save/
  @ DRIVER MODE: Message from server: EXIT
  @ DRIVE MODE: Exiting

     General routines

     Parallel routines

   This run was terminated on:  16:38:21  16Jul2021

   JOB DONE.