     Program PWSCF v.6.7GPU starts on  8Sep2021 at 21:51:41

     R & G space division:  proc/nbgrp/npool/nimage =      10
     Reading input from /storage/home/hcoda1/3/ntian30/research/carbon/CxH_vib/CH3_calc/ads_slab/CH3N2H_a/out_0000/pw.inp
Warning: card &CELL ignored
Warning: card   CELL_DYNAMICS='IPI', ignored
Warning: card / ignored

     Current dimensions of program PWSCF are:
     Max number of different atomic species (ntypx) = 10
     Max number of k-points (npk) =  40000
     Max angular momentum in pseudopotentials (lmaxx) =  3
     Presently no symmetry can be used with electric field

     Message from routine cell_base_init:
     DEPRECATED: use true lattice parameter, not A to a.u. conversion factor

     IMPORTANT: XC functional enforced from input :
     Exchange-correlation= BEEF-VDW
                           (   1   4  43  14   2   0   0)
     Any further DFT definition will be discarded
     Please, verify this is what you really want

  @ DRIVER MODE: Connecting to
 qe_1139763_2767396.sched-torque.pace.gatech.edu5o7i73j7_scratch
  using UNIX socket
  @ DRIVER MODE: Message from server: STATUS
  @ DRIVER MODE: Message from server: INIT
  @ DRIVER MODE: Receiving replica           0          -1
  @ DRIVER MODE: Receiving encoded integer          25
  @ DRIVER MODE:  SCF:  T  FORCE:  T  STRESS:  F  VC:  F  ENSEMBLE:  F
  @ DRIVER MODE:  SCF:  T  FORCE:  T  STRESS:  F  VC:  F  ENSEMBLE:  F

     Using Slab Decomposition

     bravais-lattice index     =            0
     lattice parameter (alat)  =       1.8897  a.u.
     unit-cell volume          =    6658.9804 (a.u.)^3
     number of atoms/cell      =           54
     number of atomic types    =            5
     number of electrons       =       396.00
     number of Kohn-Sham states=          208
     kinetic-energy cutoff     =      29.3995  Ry
     charge density cutoff     =     293.9946  Ry
     scf convergence threshold =      7.3E-08
     mixing beta               =       0.0500
     number of iterations used =            8  plain     mixing
     Exchange-correlation= BEEF-VDW
                           (   1   4  43  14   2   0   0)

     celldm(1)=   1.889726  celldm(2)=   0.000000  celldm(3)=   0.000000
     celldm(4)=   0.000000  celldm(5)=   0.000000  celldm(6)=   0.000000

     crystal axes: (cart. coord. in units of alat)
               a(1) = (   6.579727   0.000000   0.000000 )
               a(2) = (  -0.000775   5.961596   0.000000 )
               a(3) = (   0.000000   0.000000  25.155947 )

     reciprocal axes: (cart. coord. in units 2 pi/alat)
               b(1) = (  0.151982  0.000020  0.000000 )
               b(2) = (  0.000000  0.167740  0.000000 )
               b(3) = (  0.000000  0.000000  0.039752 )

     PseudoPot. # 1 for Ti read from file:
     /storage/coda1/p-amedford6/0/shared/rich_project_chbe-medford/medford-share/data/pseudos_module/espresso/nninc/pbe/van/Ti.UPF
     MD5 check sum: 8e4df49b7f0d34bbd5052bf3f5ea0213
     Pseudo is Ultrasoft, Zval = 12.0
     Generated by new atomic code, or converted to UPF format
     Using radial grid of  851 points,  6 beta functions with:
                l(1) =   0
                l(2) =   0
                l(3) =   1
                l(4) =   1
                l(5) =   2
                l(6) =   2
     Q(r) pseudized with  8 coefficients,  rinner =    1.000   1.000   1.000
                                                       1.000   1.000

     PseudoPot. # 2 for O  read from file:
     /storage/coda1/p-amedford6/0/shared/rich_project_chbe-medford/medford-share/data/pseudos_module/espresso/nninc/pbe/van/O.UPF
     MD5 check sum: 78c19812648e8988a0fe644b0f25305e
     Pseudo is Ultrasoft, Zval =  6.0
     Generated by new atomic code, or converted to UPF format
     Using radial grid of  737 points,  4 beta functions with:
                l(1) =   0
                l(2) =   0
                l(3) =   1
                l(4) =   1
     Q(r) pseudized with  8 coefficients,  rinner =    0.800   0.800   0.800

     PseudoPot. # 3 for N  read from file:
     /storage/coda1/p-amedford6/0/shared/rich_project_chbe-medford/medford-share/data/pseudos_module/espresso/nninc/pbe/van/N.UPF
     MD5 check sum: 90d10febe142ad51ac9d5be1deb811c4
     Pseudo is Ultrasoft, Zval =  5.0
     Generated by new atomic code, or converted to UPF format
     Using radial grid of  729 points,  4 beta functions with:
                l(1) =   0
                l(2) =   0
                l(3) =   1
                l(4) =   1
     Q(r) pseudized with  8 coefficients,  rinner =    0.800   0.800   0.800

     PseudoPot. # 4 for C  read from file:
     /storage/coda1/p-amedford6/0/shared/rich_project_chbe-medford/medford-share/data/pseudos_module/espresso/nninc/pbe/van/C.UPF
     MD5 check sum: 1a69bf6b8db32088f5b2163dbdb77a27
     Pseudo is Ultrasoft, Zval =  4.0
     Generated by new atomic code, or converted to UPF format
     Using radial grid of  721 points,  4 beta functions with:
                l(1) =   0
                l(2) =   0
                l(3) =   1
                l(4) =   1
     Q(r) pseudized with  8 coefficients,  rinner =    0.800   0.800   0.800

     PseudoPot. # 5 for H  read from file:
     /storage/coda1/p-amedford6/0/shared/rich_project_chbe-medford/medford-share/data/pseudos_module/espresso/nninc/pbe/van/H.UPF
     MD5 check sum: b5ee9d7bfd3a09ee7748110bda690ff7
     Pseudo is Ultrasoft, Zval =  1.0
     Generated by new atomic code, or converted to UPF format
     Using radial grid of  615 points,  1 beta functions with:
                l(1) =   0
     Q(r) pseudized with  8 coefficients,  rinner =    0.800

     atomic species   valence    mass     pseudopotential
        Ti1           12.00    47.86700     Ti( 1.00)
        O1             6.00    15.99900     O ( 1.00)
        N1             5.00    14.00700     N ( 1.00)
        C1             4.00    12.01100     C ( 1.00)
        H1             1.00     1.00800     H ( 1.00)

     No symmetry found

   Cartesian axes

     site n.     atom                  positions (alat units)
         1           Ti1 tau(   1) = (   0.0004258   2.9801865   6.0000000  )
         2           Ti1 tau(   2) = (   3.2906075   1.4906267   6.0002472  )
         3           O1  tau(   3) = (   0.0006271   0.0005054   7.9858123  )
         4           O1  tau(   4) = (   3.2906025   0.0005020   7.3038282  )
         5           O1  tau(   5) = (   4.5942328   1.4918067   9.2879030  )
         6           O1  tau(   6) = (   1.9868534   1.4903216   9.2879459  )
         7           Ti1 tau(   7) = (   3.2907910   2.8959150   9.1758416  )
         8           Ti1 tau(   8) = (   0.0015273   1.4827037   9.2680791  )
         9           O1  tau(   9) = (   3.2896288   0.0042867  11.3205077  )
        10           O1  tau(  10) = (   0.0116148   5.9584955  10.6183126  )
        11           O1  tau(  11) = (   1.2848067   1.4985890  12.6232755  )
        12           O1  tau(  12) = (   5.2688617   1.4893877  12.6055203  )
        13           Ti1 tau(  13) = (   0.0799559   3.0171279  12.6206390  )
        14           Ti1 tau(  14) = (   3.4009582   1.4891986  12.4726338  )
        15           O1  tau(  15) = (   6.5707323   0.0080309  14.6263129  )
        16           O1  tau(  16) = (   3.2902489   0.0120312  13.8979102  )
        17           O1  tau(  17) = (   4.5126121   1.5346005  16.0500440  )
        18           O1  tau(  18) = (   2.0453867   1.5362785  16.0447169  )
        19           Ti1 tau(  19) = (   3.2767562   3.0203775  15.6892921  )
        20           Ti1 tau(  20) = (   6.5596632   1.5778499  15.8310978  )
        21           O1  tau(  21) = (   3.2904802   0.0005063   4.7018136  )
        22           O1  tau(  22) = (   6.5709656   0.0671247  17.2345223  )
        23           O1  tau(  23) = (   1.3043587   1.4918075   6.0039043  )
        24           O1  tau(  24) = (   5.2767064   1.4903225   6.0039473  )
        25           Ti1 tau(  25) = (   0.0000382   5.9609847   6.0000000  )
        26           Ti1 tau(  26) = (   3.2902200   4.4714249   6.0002472  )
        27           O1  tau(  27) = (   0.0002396   2.9813036   7.9858123  )
        28           O1  tau(  28) = (   3.2902150   2.9813002   7.3038282  )
        29           O1  tau(  29) = (   4.5938453   4.4726049   9.2879030  )
        30           O1  tau(  30) = (   1.9864658   4.4711199   9.2879459  )
        31           Ti1 tau(  31) = (   3.2891106   5.8743827   9.1763621  )
        32           Ti1 tau(  32) = (   0.0006254   4.4649316   9.2693709  )
        33           O1  tau(  33) = (   3.2919429   2.9835650  11.3172650  )
        34           O1  tau(  34) = (   0.0092240   2.9805883  10.6323155  )
        35           O1  tau(  35) = (   1.2842535   4.4799506  12.6241420  )
        36           O1  tau(  36) = (   5.2755836   4.4732255  12.6042992  )
        37           Ti1 tau(  37) = (   0.0783641   0.0295629  12.6394962  )
        38           Ti1 tau(  38) = (   3.4022659   4.4693352  12.4708195  )
        39           O1  tau(  39) = (   6.5693815   2.9799975  14.6326336  )
        40           O1  tau(  40) = (   3.2899495   3.0014797  13.8849495  )
        41           O1  tau(  41) = (   4.5062741   4.5069571  16.0893315  )
        42           O1  tau(  42) = (   2.0480812   4.5060041  16.0753496  )
        43           Ti1 tau(  43) = (   3.2742444   0.0367023  15.7020416  )
        44           Ti1 tau(  44) = (   6.5658628   4.6518251  16.1481936  )
        45           O1  tau(  45) = (   3.2900926   2.9813045   4.7018136  )
        46           O1  tau(  46) = (   1.3039711   4.4726057   6.0039043  )
        47           O1  tau(  47) = (   5.2763189   4.4711207   6.0039473  )
        48           N1  tau(  48) = (   6.5201982   2.6597193  18.5868863  )
        49           N1  tau(  49) = (   6.5663212   2.9659568  17.3251533  )
        50           C1  tau(  50) = (   0.1092964   3.6297355  19.6533281  )
        51           H1  tau(  51) = (   6.1365678   4.5355971  19.4091500  )
        52           H1  tau(  52) = (   6.3142024   3.1981282  20.5813133  )
        53           H1  tau(  53) = (   1.1661384   3.8973747  19.7839464  )
        54           H1  tau(  54) = (   6.5756389   1.6632157  18.8047554  )

     number of k points=    10  Fermi-Dirac smearing, width (Ry)=  0.0073
                       cart. coord. in units 2pi/alat
        k(    1) = (   0.0000000   0.0000000   0.0000000), wk =   0.1250000
        k(    2) = (   0.0000000   0.0419351   0.0000000), wk =   0.2500000
        k(    3) = (   0.0000000  -0.0838702   0.0000000), wk =   0.1250000
        k(    4) = (   0.0379955   0.0000049   0.0000000), wk =   0.2500000
        k(    5) = (   0.0379955   0.0419400   0.0000000), wk =   0.2500000
        k(    6) = (   0.0379955  -0.0838652   0.0000000), wk =   0.2500000
        k(    7) = (   0.0379955  -0.0419301   0.0000000), wk =   0.2500000
        k(    8) = (  -0.0759910  -0.0000099   0.0000000), wk =   0.1250000
        k(    9) = (  -0.0759910   0.0419252   0.0000000), wk =   0.2500000
        k(   10) = (  -0.0759910  -0.0838800   0.0000000), wk =   0.1250000

     Initial potential from superposition of free atoms

     starting charge  379.99915, renormalised to  396.00000

     negative rho (up, down):  1.474E-02 0.000E+00

     %%%%%%%%%%%%%%%%%%%%%%%%%%%%%%%%%%%%%%%%%%%%%%%%%%%%%%%%%%%%%%%%%%%%%%%%
     %                                                                      %
     % You are using vdW-DF, which was implemented by the Thonhauser group. %
     % Please cite the following two papers that made this development      %
     % possible and the two reviews that describe the various versions:     %
     %                                                                      %
     %   T. Thonhauser et al., PRL 115, 136402 (2015).                      %
     %   T. Thonhauser et al., PRB 76, 125112 (2007).                       %
     %   K. Berland et al., Rep. Prog. Phys. 78, 066501 (2015).             %
     %   D.C. Langreth et al., J. Phys.: Condens. Matter 21, 084203 (2009). %
     %                                                                      %
     %                                                                      %
     % If you are calculating the stress with vdW-DF, please also cite:     %
     %                                                                      %
     %   R. Sabatini et al., J. Phys.: Condens. Matter 24, 424209 (2012).   %
     %                                                                      %
     %%%%%%%%%%%%%%%%%%%%%%%%%%%%%%%%%%%%%%%%%%%%%%%%%%%%%%%%%%%%%%%%%%%%%%%%

     Adding external electric field

     Computed dipole along edir(3) :
        Dipole               -9.2704 Ry au,        -23.5631 Debye
        Dipole field         -0.0175 Ry au,

        Potential amp.        1.6217 Ry
        Total length         46.3494 bohr

     Starting wfcs are  300 atomic wfcs
  @ DRIVER MODE: Message from server: STATUS
  @ DRIVER MODE: Message from server: POSDATA
  @ DRIVER MODE: Reading and sharing cell
  @ DRIVER MODE: Reading and sharing positions
  @ DRIVER MODE: Received positions

     Self-consistent Calculation

     iteration #  1     ecut=    29.40 Ry     beta= 0.05
     Davidson diagonalization with overlap
     ethr =  1.00E-02,  avg # of iterations =  2.4

[...]

     total energy              =   -2590.97357714 Ry
     estimated scf accuracy    <    3883.53755922 Ry

[...]

     iteration #  4     ecut=    29.40 Ry     beta= 0.05
     Davidson diagonalization with overlap
     c_bands:  3 eigenvalues not converged
     c_bands:  4 eigenvalues not converged
     ethr =  1.00E-02,  avg # of iterations = 17.6

[...]

     iteration # 64     ecut=    29.40 Ry     beta= 0.05
     Davidson diagonalization with overlap
     c_bands:  1 eigenvalues not converged
     ethr =  1.23E-07,  avg # of iterations = 13.3

[...]

     total energy              =   -2940.39771366 Ry
     estimated scf accuracy    <       0.00000009 Ry

     iteration # 87     ecut=    29.40 Ry     beta= 0.05
     Davidson diagonalization with overlap
     ethr =  2.35E-11,  avg # of iterations =  3.9

     negative rho (up, down):  1.568E-02 0.000E+00

     Adding external electric field

     Computed dipole along edir(3) :
        Dipole                1.1313 Ry au,          2.8756 Debye
        Dipole field          0.0021 Ry au,

        Potential amp.       -0.1979 Ry
        Total length         46.3494 bohr

     End of self-consistent calculation

          k = 0.0000 0.0000 0.0000 ( 18029 PWs)   bands (ev):

   -55.6434 -55.6094 -55.5511 -55.5134 -55.4074 -55.3846 -55.3736 -55.3499
   -55.3423 -55.3351 -55.3160 -55.2655 -54.7249 -54.5853 -54.5567 -54.5513
   -32.1179 -32.0946 -31.9377 -31.9246 -31.8941 -31.8640 -31.8456 -31.8393
   -31.7966 -31.7794 -31.7788 -31.7402 -31.7309 -31.7130 -31.7021 -31.6917
   -31.6816 -31.6731 -31.6393 -31.6283 -31.6054 -31.5857 -31.5784 -31.5637
   -31.5512 -31.5444 -31.5378 -31.5362 -31.5307 -31.5135 -31.5039 -31.5029
   -31.4985 -31.4621 -31.4471 -31.3796 -31.2228 -30.9911 -30.9480 -30.9334
   -30.9064 -30.8941 -30.8837 -30.8079 -30.7651 -30.7364 -30.7216 -30.6106
   -18.0011 -16.2775 -16.0498 -15.7723 -15.6712 -15.6479 -15.5271 -15.3948
   -15.2945 -15.1992 -15.1591 -15.1048 -15.0999 -15.0707 -15.0406 -15.0047
   -14.9767 -14.9376 -14.9189 -14.8999 -14.8741 -14.8650 -14.7552 -14.7411
   -14.7169 -14.6256 -14.6153 -14.5418 -14.5162 -14.0857 -13.0876 -12.9718
   -12.0195  -8.9305  -5.7259  -4.4573  -4.1520  -3.6604  -3.5346  -3.5043
    -3.4029  -3.2269  -3.1383  -3.0781  -2.9513  -2.7646  -2.7296  -2.7198
    -2.6996  -2.6418  -2.4439  -2.4184  -2.3867  -2.3472  -2.3373  -2.3349
    -2.3208  -2.2590  -2.1923  -2.1281  -2.0292  -2.0242  -1.9683  -1.9549
    -1.9381  -1.9030  -1.8597  -1.8204  -1.7990  -1.7567  -1.7383  -1.7316
    -1.6897  -1.6077  -1.5053  -1.3481  -1.3303  -1.3006  -1.2522  -1.1975
    -1.0329  -1.0169  -0.9797  -0.9738  -0.9415  -0.8664  -0.7991  -0.7142
    -0.6777  -0.6009  -0.5853  -0.5564  -0.4821  -0.3966  -0.3738  -0.3589
    -0.3513  -0.3357  -0.2775  -0.1627  -0.0678  -0.0378   0.0834   0.0880
     0.1232   0.1673   0.1840   0.2657   0.3017   0.3158   0.3669   0.3674
     0.3791   0.4230   0.4460   0.5087   0.5647   0.6487   0.7219   0.7874
     0.8242   0.9404   1.0114   1.0766   1.1090   1.2381   1.3664   1.3748
     1.4363   1.6320   1.6344   2.0049   2.0492   3.5279   3.5492   3.6418
     3.6852   3.7832   3.8223   3.9665   4.0221   4.0592   4.1728   4.2048

[...]

          k = 0.0380-0.0419 0.0000 ( 17876 PWs)   bands (ev):

[...]

          k =-0.0760-0.0000 0.0000 ( 17886 PWs)   bands (ev):

[...]

          k =-0.0760-0.0839 0.0000 ( 17948 PWs)   bands (ev):

   -55.6265 -55.6262 -55.5380 -55.5263 -55.3905 -55.3902 -55.3755 -55.3513
   -55.3343 -55.3316 -55.3304 -55.2701 -54.7233 -54.5683 -54.5682 -54.5582
   -31.9334 -31.9334 -31.9230 -31.9229 -31.9024 -31.8931 -31.7957 -31.7859
   -31.7620 -31.7493 -31.7473 -31.7469 -31.7024 -31.6995 -31.6866 -31.6833
   -31.6750 -31.6711 -31.6705 -31.6449 -31.6007 -31.5986 -31.5861 -31.5831
   -31.5788 -31.5772 -31.5753 -31.5652 -31.5627 -31.5566 -31.5493 -31.5463
   -31.5387 -31.5285 -31.5025 -31.4678 -31.1320 -30.9684 -30.9344 -30.9215
   -30.8965 -30.8964 -30.8041 -30.8039 -30.7842 -30.7664 -30.7649 -30.7648
   -17.9953 -15.7004 -15.6891 -15.5102 -15.5050 -15.4444 -15.4382 -15.2855
   -15.2846 -15.2659 -15.2576 -15.1348 -15.1310 -15.0990 -15.0953 -15.0530
   -15.0443 -15.0266 -15.0182 -15.0166 -15.0100 -14.9829 -14.9319 -14.8987
   -14.8931 -14.7155 -14.7148 -14.5944 -14.5615 -14.2209 -13.0739 -13.0737
   -12.0204  -8.9404  -5.7178  -4.3957  -4.1547  -2.9902  -2.9782  -2.9676
    -2.7049  -2.6998  -2.6754  -2.6650  -2.4597  -2.4470  -2.4258  -2.4202
    -2.3928  -2.3870  -2.3721  -2.3650  -2.2818  -2.2714  -2.2602  -2.2362
    -2.2328  -2.2281  -2.2118  -2.2043  -2.1944  -2.1609  -2.1250  -2.0959
    -2.0613  -2.0387  -1.9192  -1.8087  -1.7313  -1.7246  -1.6942  -1.6884
    -1.6825  -1.6760  -1.6428  -1.5385  -1.4825  -1.4271  -1.2904  -1.2651
    -1.2479  -1.2017  -1.1133  -1.0326  -0.9696  -0.9521  -0.9049  -0.8618
    -0.8368  -0.7524  -0.7285  -0.7207  -0.6531  -0.6205  -0.5761  -0.5705
    -0.5554  -0.4897  -0.4416  -0.3922  -0.3690  -0.3383  -0.2929  -0.2724
    -0.2095  -0.1573  -0.1101  -0.1046  -0.0564  -0.0481   0.0172   0.1668
     0.2163   0.4697   0.4840   0.5150   0.6396   0.7105   0.7158   0.7440
     0.7760   0.8274   0.8393   0.9727   0.9845   0.9873   1.1524   1.1767
     1.2645   1.8047   1.8050   1.8682   1.8686   3.4305   3.9207   3.9380
     3.9632   3.9782   4.0493   4.0502   4.0586   4.0661   4.2443   4.2655

     the Fermi energy is     3.5051 ev

!    total energy              =   -2940.39771911 Ry
     estimated scf accuracy    <       0.00000004 Ry
     smearing contrib. (-TS)   =      -0.02302282 Ry
     internal energy E=F+TS    =   -2940.37469629 Ry

     The total energy is F=E-TS. E is the sum of the following terms:
     one-electron contribution =  -24109.32611980 Ry
     hartree contribution      =   12145.89094560 Ry
     xc contribution           =    -486.04561401 Ry
     ewald contribution        =    9509.10367652 Ry
     electric field correction =       0.00241540 Ry

     convergence has been achieved in  87 iterations

     Forces acting on atoms (cartesian axes, Ry/au):

     atom    1 type  1   force =     0.00015778   -0.00012596    0.09933352
     atom    2 type  1   force =    -0.00012585   -0.00047522   -0.17360883
     atom    3 type  2   force =    -0.00005140    0.00000145   -0.02879560
     atom    4 type  2   force =     0.00007420   -0.00125016    0.04998289
     atom    5 type  2   force =    -0.01305862    0.00057529    0.00121745
     atom    6 type  2   force =     0.01460675    0.00138292   -0.00010701
     atom    7 type  1   force =    -0.00144448   -0.00059967   -0.00835972
     atom    8 type  1   force =     0.00088337   -0.00412132    0.04513022
     atom    9 type  2   force =    -0.00003391   -0.00066119   -0.00025542
     atom   10 type  2   force =    -0.00129226    0.00227476   -0.02839621
     atom   11 type  2   force =     0.00019465    0.00061582   -0.00002763
     atom   12 type  2   force =     0.00026299    0.00041070    0.00011823
     atom   13 type  1   force =     0.00037276    0.00020996   -0.00056775
     atom   14 type  1   force =     0.00002945    0.00047668    0.00034065
     atom   15 type  2   force =     0.00034099   -0.00009417   -0.00005780
     atom   16 type  2   force =    -0.00040870   -0.00023424   -0.00019160
     atom   17 type  2   force =    -0.00100725    0.00014132   -0.00053219
     atom   18 type  2   force =     0.00088821    0.00019578    0.00023061
     atom   19 type  1   force =     0.00021842   -0.00007185    0.00001665
     atom   20 type  1   force =    -0.00047857   -0.00084974    0.00021769
     atom   21 type  2   force =     0.00009135   -0.00007069    0.10275683
     atom   22 type  2   force =     0.00010624    0.00004340    0.00006519
     atom   23 type  2   force =    -0.07213700   -0.00015812   -0.02832451
     atom   24 type  2   force =     0.07213383    0.00029952   -0.02832084
     atom   25 type  1   force =     0.00012246   -0.00020057    0.09864687
     atom   26 type  1   force =    -0.00010800   -0.00046151   -0.17382630
     atom   27 type  2   force =     0.00001072   -0.00002604   -0.02807769
     atom   28 type  2   force =     0.00011466   -0.00099918    0.04943798
     atom   29 type  2   force =    -0.01337814    0.00005373    0.00127997
     atom   30 type  2   force =     0.01483533    0.00041877   -0.00006375
     atom   31 type  1   force =    -0.00139610    0.00250728   -0.00864394
     atom   32 type  1   force =     0.00106464    0.00237776    0.04545642
     atom   33 type  2   force =    -0.00013240    0.00104544    0.00056525
     atom   34 type  2   force =    -0.00071704    0.00120126   -0.03114063
     atom   35 type  2   force =     0.00068840   -0.00051152   -0.00017376
     atom   36 type  2   force =    -0.00162413   -0.00011107    0.00007200
     atom   37 type  1   force =    -0.00017983   -0.00153410    0.00021314
     atom   38 type  1   force =     0.00078039   -0.00004653    0.00053302
     atom   39 type  2   force =     0.00032628    0.00017915   -0.00057985
     atom   40 type  2   force =    -0.00040350    0.00033269   -0.00004593
     atom   41 type  2   force =     0.00043120   -0.00059090    0.00002260
     atom   42 type  2   force =    -0.00041969   -0.00071629    0.00051627
     atom   43 type  1   force =     0.00035708   -0.00031685   -0.00056734
     atom   44 type  1   force =    -0.00035391   -0.00062897   -0.00022493
     atom   45 type  2   force =     0.00010944   -0.00006821    0.10277949
     atom   46 type  2   force =    -0.07215802   -0.00009858   -0.02831926
     atom   47 type  2   force =     0.07214190    0.00034166   -0.02829747
     atom   48 type  3   force =    -0.00001732   -0.00049019   -0.00098223
     atom   49 type  3   force =    -0.00002940   -0.00045973   -0.00014422
     atom   50 type  4   force =     0.00110779    0.00029147    0.00085893
     atom   51 type  5   force =    -0.00020810   -0.00049880    0.00011188
     atom   52 type  5   force =     0.00033711    0.00013930   -0.00041267
     atom   53 type  5   force =    -0.00106249    0.00050378   -0.00092230
     atom   54 type  5   force =    -0.00056227    0.00045150    0.00006364

     Total force =     0.372217     Total SCF correction =     0.000357
  @ DRIVER MODE: Message from server: STATUS
  @ DRIVER MODE: Message from server: GETFORCE
  @ DRIVER MODE: Returning v,forces,stress,ensemble

     Writing output data file ./calc.save/
  @ DRIVER MODE: Message from server: EXIT
  @ DRIVE MODE: Exiting

     General routines

     Parallel routines

   This run was terminated on:  22:12: 4   8Sep2021

   JOB DONE.