     Program PWSCF v.6.7GPU starts on  2Aug2021 at 17:13:23

     R & G space division:  proc/nbgrp/npool/nimage =      16
     Reading input from /storage/home/hcoda1/3/ntian30/research/carbon/02Aug_vib_paired/ads_slab/CH3NNH3_a/out_0018/pw.inp
Warning: card &CELL ignored
Warning: card   CELL_DYNAMICS='IPI', ignored
Warning: card / ignored

     Current dimensions of program PWSCF are:
     Max number of different atomic species (ntypx) = 10
     Max number of k-points (npk) =  40000
     Max angular momentum in pseudopotentials (lmaxx) =  3
     Presently no symmetry can be used with electric field

     Message from routine cell_base_init:
     DEPRECATED: use true lattice parameter, not A to a.u. conversion factor

     IMPORTANT: XC functional enforced from input :
     Exchange-correlation= BEEF-VDW
                           (   1   4  43  14   2   0   0)
     Any further DFT definition will be discarded
     Please, verify this is what you really want

  @ DRIVER MODE: Connecting to
 qe_1139763_2482544.sched-torque.pace.gatech.eduod2jxi2x_scratch
  using UNIX socket
  @ DRIVER MODE: Message from server: STATUS
  @ DRIVER MODE: Message from server: INIT
  @ DRIVER MODE: Receiving replica           0          -1
  @ DRIVER MODE: Receiving encoded integer          25
  @ DRIVER MODE:  SCF:  T  FORCE:  T  STRESS:  F  VC:  F  ENSEMBLE:  F
  @ DRIVER MODE:  SCF:  T  FORCE:  T  STRESS:  F  VC:  F  ENSEMBLE:  F

     Using Slab Decomposition

     bravais-lattice index     =            0
     lattice parameter (alat)  =       1.8897  a.u.
     unit-cell volume          =    6658.9804 (a.u.)^3
     number of atoms/cell      =           56
     number of atomic types    =            5
     number of electrons       =       398.00
     number of Kohn-Sham states=          209
     kinetic-energy cutoff     =      29.3995  Ry
     charge density cutoff     =     293.9946  Ry
     scf convergence threshold =      7.3E-08
     mixing beta               =       0.0500
     number of iterations used =            8  plain     mixing
     Exchange-correlation= BEEF-VDW
                           (   1   4  43  14   2   0   0)

     celldm(1)=   1.889726  celldm(2)=   0.000000  celldm(3)=   0.000000
     celldm(4)=   0.000000  celldm(5)=   0.000000  celldm(6)=   0.000000

     crystal axes: (cart. coord. in units of alat)
               a(1) = (   6.579727   0.000000   0.000000 )
               a(2) = (  -0.000775   5.961596   0.000000 )
               a(3) = (   0.000000   0.000000  25.155947 )

     reciprocal axes: (cart. coord. in units 2 pi/alat)
               b(1) = (  0.151982  0.000020  0.000000 )
               b(2) = (  0.000000  0.167740  0.000000 )
               b(3) = (  0.000000  0.000000  0.039752 )

     PseudoPot. # 1 for Ti read from file:
     /storage/coda1/p-amedford6/0/shared/rich_project_chbe-medford/medford-share/data/pseudos_module/espresso/nninc/pbe/van/Ti.UPF
     MD5 check sum: 8e4df49b7f0d34bbd5052bf3f5ea0213
     Pseudo is Ultrasoft, Zval = 12.0
     Generated by new atomic code, or converted to UPF format
     Using radial grid of  851 points,  6 beta functions with:
                l(1) =   0
                l(2) =   0
                l(3) =   1
                l(4) =   1
                l(5) =   2
                l(6) =   2
     Q(r) pseudized with  8 coefficients,  rinner =    1.000   1.000   1.000
                                                       1.000   1.000

     PseudoPot. # 2 for O  read from file:
     /storage/coda1/p-amedford6/0/shared/rich_project_chbe-medford/medford-share/data/pseudos_module/espresso/nninc/pbe/van/O.UPF
     MD5 check sum: 78c19812648e8988a0fe644b0f25305e
     Pseudo is Ultrasoft, Zval =  6.0
     Generated by new atomic code, or converted to UPF format
     Using radial grid of  737 points,  4 beta functions with:
                l(1) =   0
                l(2) =   0
                l(3) =   1
                l(4) =   1
     Q(r) pseudized with  8 coefficients,  rinner =    0.800   0.800   0.800

     PseudoPot. # 3 for N  read from file:
     /storage/coda1/p-amedford6/0/shared/rich_project_chbe-medford/medford-share/data/pseudos_module/espresso/nninc/pbe/van/N.UPF
     MD5 check sum: 90d10febe142ad51ac9d5be1deb811c4
     Pseudo is Ultrasoft, Zval =  5.0
     Generated by new atomic code, or converted to UPF format
     Using radial grid of  729 points,  4 beta functions with:
                l(1) =   0
                l(2) =   0
                l(3) =   1
                l(4) =   1
     Q(r) pseudized with  8 coefficients,  rinner =    0.800   0.800   0.800

     PseudoPot. # 4 for C  read from file:
     /storage/coda1/p-amedford6/0/shared/rich_project_chbe-medford/medford-share/data/pseudos_module/espresso/nninc/pbe/van/C.UPF
     MD5 check sum: 1a69bf6b8db32088f5b2163dbdb77a27
     Pseudo is Ultrasoft, Zval =  4.0
     Generated by new atomic code, or converted to UPF format
     Using radial grid of  721 points,  4 beta functions with:
                l(1) =   0
                l(2) =   0
                l(3) =   1
                l(4) =   1
     Q(r) pseudized with  8 coefficients,  rinner =    0.800   0.800   0.800

     PseudoPot. # 5 for H  read from file:
     /storage/coda1/p-amedford6/0/shared/rich_project_chbe-medford/medford-share/data/pseudos_module/espresso/nninc/pbe/van/H.UPF
     MD5 check sum: b5ee9d7bfd3a09ee7748110bda690ff7
     Pseudo is Ultrasoft, Zval =  1.0
     Generated by new atomic code, or converted to UPF format
     Using radial grid of  615 points,  1 beta functions with:
                l(1) =   0
     Q(r) pseudized with  8 coefficients,  rinner =    0.800

     atomic species   valence    mass     pseudopotential
        Ti1           12.00    47.86700     Ti( 1.00)
        O1             6.00    15.99900     O ( 1.00)
        N1             5.00    14.00700     N ( 1.00)
        C1             4.00    12.01100     C ( 1.00)
        H1             1.00     1.00800     H ( 1.00)

     No symmetry found

   Cartesian axes

     site n.     atom                  positions (alat units)
         1           Ti1 tau(   1) = (   0.0004258   2.9801865   6.0000000  )
         2           Ti1 tau(   2) = (   3.2906075   1.4906267   6.0002472  )
         3           O1  tau(   3) = (   0.0006271   0.0005054   7.9858123  )
         4           O1  tau(   4) = (   3.2906025   0.0005020   7.3038282  )
         5           O1  tau(   5) = (   4.5942328   1.4918067   9.2879030  )
         6           O1  tau(   6) = (   1.9868534   1.4903216   9.2879459  )
         7           Ti1 tau(   7) = (   3.2907910   2.8959150   9.1758416  )
         8           Ti1 tau(   8) = (   0.0015273   1.4827037   9.2680791  )
         9           O1  tau(   9) = (   3.2727297   5.9424138  11.2974721  )
        10           O1  tau(  10) = (   0.0116148   5.9584955  10.6183126  )
        11           O1  tau(  11) = (   1.3027692   1.4721713  12.6242268  )
        12           O1  tau(  12) = (   5.2784376   1.4723552  12.6258992  )
        13           Ti1 tau(  13) = (   6.4570204   2.9507206  12.7630554  )
        14           Ti1 tau(  14) = (   3.1467966   1.4649636  12.4688949  )
        15           O1  tau(  15) = (   6.5600513   5.9133837  14.5918744  )
        16           O1  tau(  16) = (   3.2766225   5.9390981  13.8789110  )
        17           O1  tau(  17) = (   4.4915826   1.4834571  16.0540230  )
        18           O1  tau(  18) = (   2.0416982   1.4849982  16.0411193  )
        19           Ti1 tau(  19) = (   3.2679172   2.9642910  15.6858091  )
        20           Ti1 tau(  20) = (   6.5495220   1.5641796  16.1095294  )
        21           O1  tau(  21) = (   3.2904802   0.0005063   4.7018136  )
        22           O1  tau(  22) = (   6.5606002   0.0080969  17.2010096  )
        23           O1  tau(  23) = (   1.3043587   1.4918075   6.0039043  )
        24           O1  tau(  24) = (   5.2767064   1.4903225   6.0039473  )
        25           Ti1 tau(  25) = (   0.0000382   5.9609847   6.0000000  )
        26           Ti1 tau(  26) = (   3.2902200   4.4714249   6.0002472  )
        27           O1  tau(  27) = (   0.0002396   2.9813036   7.9858123  )
        28           O1  tau(  28) = (   3.2902150   2.9813002   7.3038282  )
        29           O1  tau(  29) = (   4.5938453   4.4726049   9.2879030  )
        30           O1  tau(  30) = (   1.9864658   4.4711199   9.2879459  )
        31           Ti1 tau(  31) = (   3.2891106   5.8743827   9.1763621  )
        32           Ti1 tau(  32) = (   0.0006254   4.4649316   9.2693709  )
        33           O1  tau(  33) = (   3.2718307   2.9587034  11.2961003  )
        34           O1  tau(  34) = (   0.0092240   2.9805883  10.6323155  )
        35           O1  tau(  35) = (   1.3028232   4.4416136  12.6207192  )
        36           O1  tau(  36) = (   5.2777600   4.4366566  12.6238879  )
        37           Ti1 tau(  37) = (   6.4830488   5.9304874  12.7660964  )
        38           Ti1 tau(  38) = (   3.1463657   4.4448748  12.4639736  )
        39           O1  tau(  39) = (   6.5417323   2.9404903  14.6589984  )
        40           O1  tau(  40) = (   3.2789452   2.9619718  13.8791424  )
        41           O1  tau(  41) = (   4.4971312   4.4676043  16.0556370  )
        42           O1  tau(  42) = (   2.0400509   4.4648231  16.0515753  )
        43           Ti1 tau(  43) = (   3.2598176   5.9476019  15.6881950  )
        44           Ti1 tau(  44) = (   6.5485469   4.5424454  16.1156095  )
        45           O1  tau(  45) = (   3.2900926   2.9813045   4.7018136  )
        46           O1  tau(  46) = (   1.3039711   4.4726057   6.0039043  )
        47           O1  tau(  47) = (   5.2763189   4.4711207   6.0039473  )
        48           N1  tau(  48) = (   0.0016189   2.9795595  17.3279962  )
        49           C1  tau(  49) = (   0.1681806   3.0735589  18.7581663  )
        50           H1  tau(  50) = (   6.0068595   3.7517258  19.2094632  )
        51           H1  tau(  51) = (   0.0766375   2.0971904  19.2409400  )
        52           H1  tau(  52) = (   1.1565538   3.4901639  19.0026035  )
        53           N1  tau(  53) = (   4.7601180   1.8141088  21.6614004  )
        54           H1  tau(  54) = (   4.4666586   2.7830198  21.5980365  )
        55           H1  tau(  55) = (   4.1231612   1.2775871  21.0809158  )
        56           H1  tau(  56) = (   4.6015807   1.5257772  22.6208530  )

     number of k points=    10  Fermi-Dirac smearing, width (Ry)=  0.0073
                       cart. coord. in units 2pi/alat
        k(    1) = (   0.0000000   0.0000000   0.0000000), wk =   0.1250000
        k(    2) = (   0.0000000   0.0419351   0.0000000), wk =   0.2500000
        k(    3) = (   0.0000000  -0.0838702   0.0000000), wk =   0.1250000
        k(    4) = (   0.0379955   0.0000049   0.0000000), wk =   0.2500000
        k(    5) = (   0.0379955   0.0419400   0.0000000), wk =   0.2500000
        k(    6) = (   0.0379955  -0.0838652   0.0000000), wk =   0.2500000
        k(    7) = (   0.0379955  -0.0419301   0.0000000), wk =   0.2500000
        k(    8) = (  -0.0759910  -0.0000099   0.0000000), wk =   0.1250000
        k(    9) = (  -0.0759910   0.0419252   0.0000000), wk =   0.2500000
        k(   10) = (  -0.0759910  -0.0838800   0.0000000), wk =   0.1250000

     Initial potential from superposition of free atoms

     starting charge  381.99914, renormalised to  398.00000

     negative rho (up, down):  9.479E-03 0.000E+00

     %%%%%%%%%%%%%%%%%%%%%%%%%%%%%%%%%%%%%%%%%%%%%%%%%%%%%%%%%%%%%%%%%%%%%%%%
     %                                                                      %
     % You are using vdW-DF, which was implemented by the Thonhauser group. %
     % Please cite the following two papers that made this development      %
     % possible and the two reviews that describe the various versions:     %
     %                                                                      %
     %   T. Thonhauser et al., PRL 115, 136402 (2015).                      %
     %   T. Thonhauser et al., PRB 76, 125112 (2007).                       %
     %   K. Berland et al., Rep. Prog. Phys. 78, 066501 (2015).             %
     %   D.C. Langreth et al., J. Phys.: Condens. Matter 21, 084203 (2009). %
     %                                                                      %
     %                                                                      %
     % If you are calculating the stress with vdW-DF, please also cite:     %
     %                                                                      %
     %   R. Sabatini et al., J. Phys.: Condens. Matter 24, 424209 (2012).   %
     %                                                                      %
     %%%%%%%%%%%%%%%%%%%%%%%%%%%%%%%%%%%%%%%%%%%%%%%%%%%%%%%%%%%%%%%%%%%%%%%%

     Adding external electric field

     Computed dipole along edir(3) :
        Dipole              -11.3725 Ry au,        -28.9060 Debye
        Dipole field         -0.0215 Ry au,

        Potential amp.        1.9894 Ry
        Total length         46.3494 bohr

     Starting wfcs are  302 atomic wfcs
  @ DRIVER MODE: Message from server: STATUS
  @ DRIVER MODE: Message from server: POSDATA
  @ DRIVER MODE: Reading and sharing cell
  @ DRIVER MODE: Reading and sharing positions
  @ DRIVER MODE: Received positions

     Self-consistent Calculation

     iteration #  1     ecut=    29.40 Ry     beta= 0.05
     Davidson diagonalization with overlap
     c_bands:  1 eigenvalues not converged
     c_bands:  1 eigenvalues not converged
     c_bands:  2 eigenvalues not converged
     c_bands:  1 eigenvalues not converged
     c_bands:  1 eigenvalues not converged
     c_bands:  1 eigenvalues not converged
     c_bands:  1 eigenvalues not converged
     c_bands:  2 eigenvalues not converged
     c_bands:  2 eigenvalues not converged
     ethr =  1.00E-05,  avg # of iterations = 19.6

[...]

     total energy              =   -2520.80697013 Ry
     estimated scf accuracy    <    4706.01448151 Ry

     iteration #  2     ecut=    29.40 Ry     beta= 0.05
     Davidson diagonalization with overlap
     ethr =  1.00E-02,  avg # of iterations = 22.0

[...]

     iteration # 58     ecut=    29.40 Ry     beta= 0.05
     Davidson diagonalization with overlap
     c_bands:  1 eigenvalues not converged
     ethr =  3.95E-07,  avg # of iterations = 11.4

[...]

     total energy              =   -2942.90674672 Ry
     estimated scf accuracy    <       0.00000010 Ry

     iteration # 84     ecut=    29.40 Ry     beta= 0.05
     Davidson diagonalization with overlap
     ethr =  2.52E-11,  avg # of iterations =  4.2

     negative rho (up, down):  1.096E-02 0.000E+00

     Adding external electric field

     Computed dipole along edir(3) :
        Dipole                0.4517 Ry au,          1.1481 Debye
        Dipole field          0.0009 Ry au,

        Potential amp.       -0.0790 Ry
        Total length         46.3494 bohr

     End of self-consistent calculation

          k = 0.0000 0.0000 0.0000 ( 18029 PWs)   bands (ev):

   -56.6149 -56.5813 -55.7340 -55.7255 -55.6986 -55.6932 -55.5885 -55.5527
   -55.3713 -55.3360 -55.2795 -55.2732 -55.2455 -55.1711 -54.7342 -54.6217
   -33.0428 -32.8895 -32.8614 -32.7911 -32.7001 -32.6688 -32.2087 -32.1979
   -32.1314 -32.0204 -31.9755 -31.9473 -31.9333 -31.9085 -31.8759 -31.8733
   -31.8692 -31.8626 -31.8395 -31.8359 -31.8247 -31.7967 -31.7714 -31.7578
   -31.7446 -31.7246 -31.7163 -31.6930 -31.6718 -31.6180 -31.6028 -31.5938
   -31.5153 -31.5101 -31.4905 -31.4486 -31.4380 -31.4070 -31.3999 -31.3756
   -31.3543 -31.2960 -31.2358 -30.9753 -30.9626 -30.8808 -30.8416 -30.7507
   -16.7788 -16.3444 -16.1146 -15.9773 -15.9097 -15.8554 -15.8101 -15.6885
   -15.6160 -15.6096 -15.5693 -15.5386 -15.4681 -15.3274 -15.2292 -15.1756
   -15.1313 -15.0104 -14.9504 -14.9176 -14.9126 -14.8784 -14.8586 -14.6629
   -14.6386 -14.5359 -14.5257 -14.4005 -14.1775 -13.7781 -13.7201 -13.6681
   -12.7926  -7.4913  -4.3446  -3.8396  -3.7982  -3.7686  -3.6021  -3.5152
    -3.4077  -3.3948  -3.3136  -3.1956  -3.1495  -3.1019  -2.9859  -2.9857
    -2.8364  -2.7919  -2.7906  -2.7862  -2.7395  -2.6757  -2.6554  -2.6231
    -2.6122  -2.6092  -2.4554  -2.3578  -2.2898  -2.2691  -2.2586  -2.2229
    -2.1443  -2.1242  -2.1100  -2.1064  -2.0055  -1.8573  -1.8546  -1.8244
    -1.7809  -1.7794  -1.7406  -1.7262  -1.5914  -1.5174  -1.4147  -1.3972
    -1.3591  -1.2947  -1.2883  -1.1908  -1.1159  -1.0536  -1.0277  -0.9189
    -0.8767  -0.8537  -0.7637  -0.7020  -0.6624  -0.6446  -0.6279  -0.5237
    -0.5043  -0.4931  -0.4083  -0.3966  -0.3394  -0.2579  -0.2384  -0.2319
    -0.1439  -0.1386  -0.0461  -0.0047   0.0373   0.0821   0.1780   0.1964
     0.2992   0.3345   0.3562   0.4757   0.4889   0.5517   0.6189   0.6864
     0.7177   0.7419   0.7715   0.7931   0.8665   0.9814   0.9860   1.0883
     1.1274   1.2949   1.3338   1.3818   1.6220   1.6487   2.3184   2.6598
     2.8198   3.1182   3.3092   3.4203   3.6351   3.6502   3.6555   3.8332
     3.8792

[...]

          k = 0.0380-0.0419 0.0000 ( 17876 PWs)   bands (ev):

[...]

          k =-0.0760-0.0000 0.0000 ( 17886 PWs)   bands (ev):

[...]

          k =-0.0760-0.0839 0.0000 ( 17948 PWs)   bands (ev):

   -56.5982 -56.5979 -55.7180 -55.7128 -55.7104 -55.7098 -55.5732 -55.5678
   -55.3564 -55.3508 -55.2701 -55.2625 -55.2624 -55.1741 -54.7313 -54.6245
   -32.8753 -32.8751 -32.8597 -32.8595 -32.7442 -32.7439 -32.0383 -32.0357
   -32.0222 -32.0162 -31.9660 -31.9649 -31.9227 -31.9212 -31.9199 -31.9189
   -31.9079 -31.9053 -31.9038 -31.9015 -31.8253 -31.8208 -31.7745 -31.7691
   -31.7077 -31.7005 -31.6394 -31.6327 -31.6069 -31.6068 -31.5996 -31.5554
   -31.5534 -31.5258 -31.4908 -31.4880 -31.4879 -31.4489 -31.4489 -31.4438
   -31.4169 -31.3777 -31.1144 -30.9956 -30.9623 -30.9305 -30.8441 -30.8094
   -16.1271 -16.1250 -16.0929 -16.0926 -15.8229 -15.8192 -15.7749 -15.7731
   -15.6003 -15.5944 -15.3879 -15.3777 -15.3718 -15.3677 -15.2436 -15.2347
   -15.1713 -15.1605 -15.0710 -15.0675 -15.0049 -14.9987 -14.9605 -14.9408
   -14.6246 -14.6170 -14.4894 -14.4807 -14.3274 -13.7716 -13.7715 -13.7193
   -12.8091  -7.4813  -3.7978  -3.7837  -3.2267  -3.2261  -3.1606  -3.1594
    -3.0382  -3.0335  -2.9571  -2.9566  -2.8572  -2.8529  -2.7506  -2.7133
    -2.7109  -2.7075  -2.6945  -2.6351  -2.5582  -2.5573  -2.5425  -2.5273
    -2.4719  -2.4698  -2.4565  -2.3829  -2.3691  -2.3332  -2.2939  -2.1871
    -2.1736  -2.1568  -2.1311  -2.0718  -2.0564  -2.0453  -1.9978  -1.9714
    -1.8957  -1.8297  -1.7875  -1.6679  -1.6644  -1.6545  -1.6424  -1.4874
    -1.4516  -1.4200  -1.4106  -1.4044  -1.3597  -1.2622  -1.2542  -1.1196
    -1.1170  -1.0471  -0.9654  -0.9420  -0.9200  -0.7857  -0.7451  -0.7045
    -0.6994  -0.6744  -0.6484  -0.6291  -0.6013  -0.4499  -0.4307  -0.3963
    -0.3656  -0.3575  -0.3160  -0.2482  -0.1684  -0.0877  -0.0865  -0.0200
     0.0328   0.0942   0.1824   0.1946   0.1986   0.4813   0.5614   0.6488
     0.7279   0.7919   0.8574   0.8822   0.9428   0.9818   1.1214   1.1243
     1.1429   1.1433   1.2036   1.2119   1.3644   1.6448   2.2050   3.2329
     3.2332   3.3003   3.3007   3.6245   3.6299   3.7389   3.7480   3.8583
     3.8637

     the Fermi energy is     2.4977 ev

!    total energy              =   -2942.90675467 Ry
     estimated scf accuracy    <       0.00000002 Ry
     smearing contrib. (-TS)   =      -0.00477365 Ry
     internal energy E=F+TS    =   -2942.90198102 Ry

     The total energy is F=E-TS. E is the sum of the following terms:
     one-electron contribution =  -23225.01044558 Ry
     hartree contribution      =   11702.77494500 Ry
     xc contribution           =    -487.46524142 Ry
     ewald contribution        =    9066.79837593 Ry
     electric field correction =       0.00038506 Ry

     convergence has been achieved in  84 iterations

     Forces acting on atoms (cartesian axes, Ry/au):

     atom    1 type  1   force =     0.00000753   -0.00043849    0.12430788
     atom    2 type  1   force =    -0.00005842   -0.00054667   -0.16063313
     atom    3 type  2   force =     0.00016437   -0.00030058   -0.06836517
     atom    4 type  2   force =    -0.00005206   -0.00038654    0.02752412
     atom    5 type  2   force =    -0.01678292    0.00112944   -0.00832739
     atom    6 type  2   force =     0.01783407    0.00162862   -0.01022009
     atom    7 type  1   force =     0.00039929   -0.00408543    0.02182497
     atom    8 type  1   force =     0.00019830   -0.00219637    0.11168818
     atom    9 type  2   force =     0.00010309    0.00018584   -0.00031430
     atom   10 type  2   force =    -0.00319997    0.00010882   -0.07307167
     atom   11 type  2   force =    -0.00035161    0.00032821   -0.00008301
     atom   12 type  2   force =     0.00015585    0.00045021   -0.00004048
     atom   13 type  1   force =     0.00012783   -0.00024453   -0.00002138
     atom   14 type  1   force =    -0.00015829    0.00004293   -0.00031354
     atom   15 type  2   force =    -0.00005458   -0.00023408    0.00020214
     atom   16 type  2   force =     0.00032872    0.00076824   -0.00000142
     atom   17 type  2   force =     0.00021665    0.00030818   -0.00029884
     atom   18 type  2   force =    -0.00022194    0.00021390    0.00009655
     atom   19 type  1   force =     0.00050853   -0.00007876   -0.00017531
     atom   20 type  1   force =     0.00028268   -0.00046639   -0.00046399
     atom   21 type  2   force =     0.00010062    0.00008150    0.09967963
     atom   22 type  2   force =     0.00008164    0.00099064    0.00037990
     atom   23 type  2   force =    -0.07916317    0.00008635   -0.03243195
     atom   24 type  2   force =     0.07906918    0.00051402   -0.03242716
     atom   25 type  1   force =     0.00002862   -0.00041210    0.12383384
     atom   26 type  1   force =    -0.00003992   -0.00042023   -0.16075723
     atom   27 type  2   force =     0.00028704   -0.00046799   -0.06735751
     atom   28 type  2   force =    -0.00005430   -0.00020324    0.02725887
     atom   29 type  2   force =    -0.01731287    0.00074347   -0.00825386
     atom   30 type  2   force =     0.01828120    0.00114034   -0.01009051
     atom   31 type  1   force =     0.00033829   -0.00100282    0.02128892
     atom   32 type  1   force =     0.00021272   -0.00027209    0.11224251
     atom   33 type  2   force =     0.00012016    0.00051245   -0.00007999
     atom   34 type  2   force =    -0.00294584   -0.00065419   -0.07292890
     atom   35 type  2   force =    -0.00025708    0.00027479   -0.00010586
     atom   36 type  2   force =     0.00011329    0.00013825   -0.00004137
     atom   37 type  1   force =     0.00013459   -0.00015310    0.00023009
     atom   38 type  1   force =     0.00006921    0.00005043    0.00031814
     atom   39 type  2   force =     0.00022210    0.00036836   -0.00015736
     atom   40 type  2   force =     0.00010013    0.00034471    0.00013988
     atom   41 type  2   force =    -0.00015620    0.00033780    0.00013370
     atom   42 type  2   force =    -0.00004842    0.00059512   -0.00003293
     atom   43 type  1   force =     0.00060316    0.00050866    0.00052362
     atom   44 type  1   force =     0.00010715    0.00045361   -0.00031836
     atom   45 type  2   force =     0.00010500    0.00005070    0.09970267
     atom   46 type  2   force =    -0.07917149    0.00012798   -0.03243394
     atom   47 type  2   force =     0.07907356    0.00056257   -0.03242233
     atom   48 type  3   force =    -0.00024015    0.00096577    0.00088176
     atom   49 type  4   force =    -0.00153841    0.00158653    0.00446057
     atom   50 type  5   force =     0.00307372   -0.00268836   -0.00386230
     atom   51 type  5   force =     0.00009497    0.00009300   -0.00032894
     atom   52 type  5   force =    -0.00060544   -0.00071790    0.00011804
     atom   53 type  3   force =     0.00100140   -0.00023586    0.00035932
     atom   54 type  5   force =    -0.00013226    0.00080877   -0.00090704
     atom   55 type  5   force =     0.00020524    0.00034216    0.00029850
     atom   56 type  5   force =    -0.00120458   -0.00063662   -0.00022655

     Total force =     0.425001     Total SCF correction =     0.000455
  @ DRIVER MODE: Message from server: STATUS
  @ DRIVER MODE: Message from server: GETFORCE
  @ DRIVER MODE: Returning v,forces,stress,ensemble

     Writing output data file ./calc.save/
  @ DRIVER MODE: Message from server: EXIT
  @ DRIVE MODE: Exiting

     General routines

     Parallel routines

   This run was terminated on:  17:32: 0   2Aug2021

   JOB DONE.