     Program PWSCF v.6.7GPU starts on 15Sep2021 at 21:40:40

     R & G space division:  proc/nbgrp/npool/nimage =      10
     Reading input from /storage/home/hcoda1/3/ntian30/research/carbon/CxH_vib/H2O_calc/ads_slab/CH2NHNH2O_a/out_0019/pw.inp
Warning: card &CELL ignored
Warning: card   CELL_DYNAMICS='IPI', ignored
Warning: card / ignored

     Current dimensions of program PWSCF are:
     Max number of different atomic species (ntypx) = 10
     Max number of k-points (npk) =  40000
     Max angular momentum in pseudopotentials (lmaxx) =  3
     Presently no symmetry can be used with electric field

     Message from routine cell_base_init:
     DEPRECATED: use true lattice parameter, not A to a.u. conversion factor

     IMPORTANT: XC functional enforced from input :
     Exchange-correlation= BEEF-VDW
                           (   1   4  43  14   2   0   0)
     Any further DFT definition will be discarded
     Please, verify this is what you really want

  @ DRIVER MODE: Connecting to
 qe_1139763_2852610.sched-torque.pace.gatech.eduvv2beqpl_scratch
  using UNIX socket
  @ DRIVER MODE: Message from server: STATUS
  @ DRIVER MODE: Message from server: INIT
  @ DRIVER MODE: Receiving replica           0          -1
  @ DRIVER MODE: Receiving encoded integer          25
  @ DRIVER MODE:  SCF:  T  FORCE:  T  STRESS:  F  VC:  F  ENSEMBLE:  F
  @ DRIVER MODE:  SCF:  T  FORCE:  T  STRESS:  F  VC:  F  ENSEMBLE:  F

     Using Slab Decomposition

     bravais-lattice index     =            0
     lattice parameter (alat)  =       1.8897  a.u.
     unit-cell volume          =    6658.9804 (a.u.)^3
     number of atoms/cell      =           56
     number of atomic types    =            5
     number of electrons       =       403.00
     number of Kohn-Sham states=          211
     kinetic-energy cutoff     =      29.3995  Ry
     charge density cutoff     =     293.9946  Ry
     scf convergence threshold =      7.3E-08
     mixing beta               =       0.0500
     number of iterations used =            8  plain     mixing
     Exchange-correlation= BEEF-VDW
                           (   1   4  43  14   2   0   0)

     celldm(1)=   1.889726  celldm(2)=   0.000000  celldm(3)=   0.000000
     celldm(4)=   0.000000  celldm(5)=   0.000000  celldm(6)=   0.000000

     crystal axes: (cart. coord. in units of alat)
               a(1) = (   6.579727   0.000000   0.000000 )
               a(2) = (  -0.000775   5.961596   0.000000 )
               a(3) = (   0.000000   0.000000  25.155947 )

     reciprocal axes: (cart. coord. in units 2 pi/alat)
               b(1) = (  0.151982  0.000020  0.000000 )
               b(2) = (  0.000000  0.167740  0.000000 )
               b(3) = (  0.000000  0.000000  0.039752 )

     PseudoPot. # 1 for Ti read from file:
     /storage/coda1/p-amedford6/0/shared/rich_project_chbe-medford/medford-share/data/pseudos_module/espresso/nninc/pbe/van/Ti.UPF
     MD5 check sum: 8e4df49b7f0d34bbd5052bf3f5ea0213
     Pseudo is Ultrasoft, Zval = 12.0
     Generated by new atomic code, or converted to UPF format
     Using radial grid of  851 points,  6 beta functions with:
                l(1) =   0
                l(2) =   0
                l(3) =   1
                l(4) =   1
                l(5) =   2
                l(6) =   2
     Q(r) pseudized with  8 coefficients,  rinner =    1.000   1.000   1.000
                                                       1.000   1.000

     PseudoPot. # 2 for O  read from file:
     /storage/coda1/p-amedford6/0/shared/rich_project_chbe-medford/medford-share/data/pseudos_module/espresso/nninc/pbe/van/O.UPF
     MD5 check sum: 78c19812648e8988a0fe644b0f25305e
     Pseudo is Ultrasoft, Zval =  6.0
     Generated by new atomic code, or converted to UPF format
     Using radial grid of  737 points,  4 beta functions with:
                l(1) =   0
                l(2) =   0
                l(3) =   1
                l(4) =   1
     Q(r) pseudized with  8 coefficients,  rinner =    0.800   0.800   0.800

     PseudoPot. # 3 for H  read from file:
     /storage/coda1/p-amedford6/0/shared/rich_project_chbe-medford/medford-share/data/pseudos_module/espresso/nninc/pbe/van/H.UPF
     MD5 check sum: b5ee9d7bfd3a09ee7748110bda690ff7
     Pseudo is Ultrasoft, Zval =  1.0
     Generated by new atomic code, or converted to UPF format
     Using radial grid of  615 points,  1 beta functions with:
                l(1) =   0
     Q(r) pseudized with  8 coefficients,  rinner =    0.800

     PseudoPot. # 4 for N  read from file:
     /storage/coda1/p-amedford6/0/shared/rich_project_chbe-medford/medford-share/data/pseudos_module/espresso/nninc/pbe/van/N.UPF
     MD5 check sum: 90d10febe142ad51ac9d5be1deb811c4
     Pseudo is Ultrasoft, Zval =  5.0
     Generated by new atomic code, or converted to UPF format
     Using radial grid of  729 points,  4 beta functions with:
                l(1) =   0
                l(2) =   0
                l(3) =   1
                l(4) =   1
     Q(r) pseudized with  8 coefficients,  rinner =    0.800   0.800   0.800

     PseudoPot. # 5 for C  read from file:
     /storage/coda1/p-amedford6/0/shared/rich_project_chbe-medford/medford-share/data/pseudos_module/espresso/nninc/pbe/van/C.UPF
     MD5 check sum: 1a69bf6b8db32088f5b2163dbdb77a27
     Pseudo is Ultrasoft, Zval =  4.0
     Generated by new atomic code, or converted to UPF format
     Using radial grid of  721 points,  4 beta functions with:
                l(1) =   0
                l(2) =   0
                l(3) =   1
                l(4) =   1
     Q(r) pseudized with  8 coefficients,  rinner =    0.800   0.800   0.800

     atomic species   valence    mass     pseudopotential
        Ti1           12.00    47.86700     Ti( 1.00)
        O1             6.00    15.99900     O ( 1.00)
        H1             1.00     1.00800     H ( 1.00)
        N1             5.00    14.00700     N ( 1.00)
        C1             4.00    12.01100     C ( 1.00)

     No symmetry found

   Cartesian axes

     site n.     atom                  positions (alat units)
         1           Ti1 tau(   1) = (   0.0004258   2.9801865   6.0000000  )
         2           Ti1 tau(   2) = (   3.2906075   1.4906267   6.0002472  )
         3           O1  tau(   3) = (   0.0006271   0.0005054   7.9858123  )
         4           O1  tau(   4) = (   3.2906025   0.0005020   7.3038282  )
         5           O1  tau(   5) = (   4.5942328   1.4918067   9.2879030  )
         6           O1  tau(   6) = (   1.9868534   1.4903216   9.2879459  )
         7           Ti1 tau(   7) = (   3.2907910   2.8959150   9.1758416  )
         8           Ti1 tau(   8) = (   0.0015273   1.4827037   9.2680791  )
         9           O1  tau(   9) = (   3.2960012   0.0062018  11.3595187  )
        10           O1  tau(  10) = (   0.0116148   5.9584955  10.6183126  )
        11           O1  tau(  11) = (   1.2731109   1.5057875  12.6314550  )
        12           O1  tau(  12) = (   5.2959999   1.4755877  12.6679080  )
        13           Ti1 tau(  13) = (   0.0553992   2.9538365  12.5526742  )
        14           Ti1 tau(  14) = (   3.3268292   1.5427496  12.5634199  )
        15           O1  tau(  15) = (   0.1371361   5.9015051  14.6217027  )
        16           O1  tau(  16) = (   3.1880369   0.0098958  13.9252199  )
        17           O1  tau(  17) = (   4.6462182   1.4014471  15.8552565  )
        18           O1  tau(  18) = (   2.0822703   1.5558083  16.1249119  )
        19           Ti1 tau(  19) = (   3.3548958   3.0525267  15.8597497  )
        20           Ti1 tau(  20) = (   0.0948755   1.3182250  15.7908873  )
        21           O1  tau(  21) = (   3.2904802   0.0005063   4.7018136  )
        22           O1  tau(  22) = (   0.0722171   0.0319689  17.1393915  )
        23           O1  tau(  23) = (   1.3043587   1.4918075   6.0039043  )
        24           O1  tau(  24) = (   5.2767064   1.4903225   6.0039473  )
        25           Ti1 tau(  25) = (   0.0000382   5.9609847   6.0000000  )
        26           Ti1 tau(  26) = (   3.2902200   4.4714249   6.0002472  )
        27           O1  tau(  27) = (   0.0002396   2.9813036   7.9858123  )
        28           O1  tau(  28) = (   3.2902150   2.9813002   7.3038282  )
        29           O1  tau(  29) = (   4.5938453   4.4726049   9.2879030  )
        30           O1  tau(  30) = (   1.9864658   4.4711199   9.2879459  )
        31           Ti1 tau(  31) = (   3.2891106   5.8743827   9.1763621  )
        32           Ti1 tau(  32) = (   0.0006254   4.4649316   9.2693709  )
        33           O1  tau(  33) = (   3.2982667   2.9897935  11.3544942  )
        34           O1  tau(  34) = (   0.0092240   2.9805883  10.6323155  )
        35           O1  tau(  35) = (   1.2737041   4.4504026  12.6113924  )
        36           O1  tau(  36) = (   5.2903739   4.4874249  12.6576873  )
        37           Ti1 tau(  37) = (   6.5697415   5.9260651  12.4959683  )
        38           Ti1 tau(  38) = (   3.3125242   4.5024033  12.5372123  )
        39           O1  tau(  39) = (   0.0674008   2.9793056  14.8363759  )
        40           O1  tau(  40) = (   3.2999477   2.9756493  13.9369993  )
        41           O1  tau(  41) = (   4.6108370   4.5787535  15.7719701  )
        42           O1  tau(  42) = (   2.0428421   4.3627697  16.1441833  )
        43           Ti1 tau(  43) = (   3.3552955   0.0804576  15.7648105  )
        44           Ti1 tau(  44) = (   6.5672415   4.5273692  15.9765751  )
        45           O1  tau(  45) = (   3.2900926   2.9813045   4.7018136  )
        46           O1  tau(  46) = (   1.3039711   4.4726057   6.0039043  )
        47           O1  tau(  47) = (   5.2763189   4.4711207   6.0039473  )
        48           H1  tau(  48) = (   4.1035413   2.4672077  18.5646977  )
        49           N1  tau(  49) = (   5.6961598   3.2907635  17.7856741  )
        50           C1  tau(  50) = (   6.4968133   2.7471819  18.6454045  )
        51           H1  tau(  51) = (   6.1225458   2.1374441  19.4677963  )
        52           H1  tau(  52) = (   0.9799315   2.9096255  18.5325614  )
        53           N1  tau(  53) = (   4.3409097   3.1788467  17.8642182  )
        54           O1  tau(  54) = (   3.3174094   5.8609012  18.0981057  )
        55           H1  tau(  55) = (   3.6736973   4.9388346  18.2201127  )
        56           H1  tau(  56) = (   2.3597147   5.7972335  18.2603650  )

     number of k points=    10  Fermi-Dirac smearing, width (Ry)=  0.0073
                       cart. coord. in units 2pi/alat
        k(    1) = (   0.0000000   0.0000000   0.0000000), wk =   0.1250000
        k(    2) = (   0.0000000   0.0419351   0.0000000), wk =   0.2500000
        k(    3) = (   0.0000000  -0.0838702   0.0000000), wk =   0.1250000
        k(    4) = (   0.0379955   0.0000049   0.0000000), wk =   0.2500000
        k(    5) = (   0.0379955   0.0419400   0.0000000), wk =   0.2500000
        k(    6) = (   0.0379955  -0.0838652   0.0000000), wk =   0.2500000
        k(    7) = (   0.0379955  -0.0419301   0.0000000), wk =   0.2500000
        k(    8) = (  -0.0759910  -0.0000099   0.0000000), wk =   0.1250000
        k(    9) = (  -0.0759910   0.0419252   0.0000000), wk =   0.2500000
        k(   10) = (  -0.0759910  -0.0838800   0.0000000), wk =   0.1250000

     Initial potential from superposition of free atoms

     starting charge  386.99914, renormalised to  403.00000

     negative rho (up, down):  1.703E-02 0.000E+00

     %%%%%%%%%%%%%%%%%%%%%%%%%%%%%%%%%%%%%%%%%%%%%%%%%%%%%%%%%%%%%%%%%%%%%%%%
     %                                                                      %
     % You are using vdW-DF, which was implemented by the Thonhauser group. %
     % Please cite the following two papers that made this development      %
     % possible and the two reviews that describe the various versions:     %
     %                                                                      %
     %   T. Thonhauser et al., PRL 115, 136402 (2015).                      %
     %   T. Thonhauser et al., PRB 76, 125112 (2007).                       %
     %   K. Berland et al., Rep. Prog. Phys. 78, 066501 (2015).             %
     %   D.C. Langreth et al., J. Phys.: Condens. Matter 21, 084203 (2009). %
     %                                                                      %
     %                                                                      %
     % If you are calculating the stress with vdW-DF, please also cite:     %
     %                                                                      %
     %   R. Sabatini et al., J. Phys.: Condens. Matter 24, 424209 (2012).   %
     %                                                                      %
     %%%%%%%%%%%%%%%%%%%%%%%%%%%%%%%%%%%%%%%%%%%%%%%%%%%%%%%%%%%%%%%%%%%%%%%%

     Adding external electric field

     Computed dipole along edir(3) :
        Dipole              -12.3736 Ry au,        -31.4507 Debye
        Dipole field         -0.0234 Ry au,

        Potential amp.        2.1646 Ry
        Total length         46.3494 bohr

     Starting wfcs are  305 atomic wfcs
  @ DRIVER MODE: Message from server: STATUS
  @ DRIVER MODE: Message from server: POSDATA
  @ DRIVER MODE: Reading and sharing cell
  @ DRIVER MODE: Reading and sharing positions
  @ DRIVER MODE: Received positions

     Self-consistent Calculation

     iteration #  1     ecut=    29.40 Ry     beta= 0.05
     Davidson diagonalization with overlap
     c_bands:  4 eigenvalues not converged
     c_bands:  3 eigenvalues not converged
     c_bands:  3 eigenvalues not converged
     c_bands:  1 eigenvalues not converged
     c_bands:  1 eigenvalues not converged
     c_bands:  4 eigenvalues not converged
     c_bands:  3 eigenvalues not converged
     ethr =  1.00E-05,  avg # of iterations = 27.4

[...]

     total energy              =   -2355.30180443 Ry
     estimated scf accuracy    <    7011.04636979 Ry

     iteration #  2     ecut=    29.40 Ry     beta= 0.05
     Davidson diagonalization with overlap
     ethr =  1.00E-02,  avg # of iterations = 24.6

[...]

     iteration # 38     ecut=    29.40 Ry     beta= 0.05
     Davidson diagonalization with overlap
     c_bands:  1 eigenvalues not converged
     ethr =  2.15E-07,  avg # of iterations =  7.6

[...]

     total energy              =   -2973.97644019 Ry
     estimated scf accuracy    <       0.00000008 Ry

     iteration # 54     ecut=    29.40 Ry     beta= 0.05
     Davidson diagonalization with overlap
     ethr =  1.87E-11,  avg # of iterations =  9.0

     negative rho (up, down):  1.699E-02 0.000E+00

     Adding external electric field

     Computed dipole along edir(3) :
        Dipole                0.9067 Ry au,          2.3046 Debye
        Dipole field          0.0017 Ry au,

        Potential amp.       -0.1586 Ry
        Total length         46.3494 bohr

     End of self-consistent calculation

          k = 0.0000 0.0000 0.0000 ( 18029 PWs)   bands (ev):

   -55.6372 -55.6031 -55.5190 -55.4832 -55.4767 -55.4636 -55.4419 -55.4298
   -55.4245 -55.4073 -55.3904 -55.3898 -55.3562 -55.2390 -54.6232 -54.5891
   -32.1230 -32.0249 -31.9712 -31.9656 -31.9578 -31.9284 -31.9143 -31.8961
   -31.8829 -31.7898 -31.7839 -31.7779 -31.7500 -31.7448 -31.7396 -31.7050
   -31.6946 -31.6816 -31.6766 -31.6686 -31.6618 -31.6602 -31.6443 -31.6416
   -31.6353 -31.6256 -31.6236 -31.6190 -31.6132 -31.6075 -31.6026 -31.5934
   -31.5834 -31.5811 -31.5804 -31.5786 -31.5728 -31.5373 -31.5292 -31.5138
   -31.4398 -31.3675 -31.0301 -30.9417 -30.9193 -30.8471 -30.7607 -30.6493
   -18.4404 -17.7399 -16.3005 -16.1099 -15.8847 -15.7828 -15.7428 -15.5695
   -15.4391 -15.3962 -15.2697 -15.2042 -15.1805 -15.1616 -15.1477 -15.1152
   -15.0919 -15.0681 -15.0663 -15.0470 -15.0225 -14.9999 -14.9718 -14.9540
   -14.9115 -14.7861 -14.7780 -14.7665 -14.7287 -14.6913 -14.2922 -13.1238
   -13.0072 -12.3742  -7.9164  -6.2102  -5.4100  -4.8474  -3.6718  -3.5799
    -3.5474  -3.5241  -3.4465  -3.3276  -3.2301  -3.0358  -2.9268  -2.8968
    -2.8763  -2.7889  -2.7072  -2.6661  -2.5634  -2.5313  -2.5208  -2.4764
    -2.4214  -2.4068  -2.3765  -2.3633  -2.3274  -2.1945  -2.1753  -2.1370
    -2.0255  -2.0090  -2.0010  -1.9589  -1.9551  -1.9247  -1.9145  -1.8964
    -1.8798  -1.8681  -1.8007  -1.7186  -1.6869  -1.6370  -1.5822  -1.5772
    -1.2748  -1.2579  -1.1909  -1.1591  -1.0885  -1.0549  -1.0407  -1.0259
    -0.9944  -0.8941  -0.8047  -0.7858  -0.7225  -0.6614  -0.5624  -0.5478
    -0.4471  -0.3981  -0.3925  -0.3795  -0.3472  -0.2889  -0.2317  -0.1754
    -0.1252  -0.0426   0.0116   0.0205   0.0625   0.1063   0.1359   0.1943
     0.2567   0.2839   0.3170   0.3322   0.3735   0.4337   0.4551   0.4679
     0.5465   0.5868   0.6118   0.7097   0.7191   0.7580   0.8296   1.0143
     1.0600   1.1992   1.3379   1.4012   1.4670   1.5933   1.8683   1.9712
     2.0174   3.4528   3.5867   3.6077   3.6432   3.7151   3.7615   3.9345
     4.0301   4.0521   4.1129

[...]

          k = 0.0380-0.0419 0.0000 ( 17876 PWs)   bands (ev):

[...]

          k =-0.0760-0.0000 0.0000 ( 17886 PWs)   bands (ev):

[...]

          k =-0.0760-0.0839 0.0000 ( 17948 PWs)   bands (ev):

   -55.6202 -55.6200 -55.5043 -55.4976 -55.4614 -55.4574 -55.4466 -55.4463
   -55.4104 -55.4050 -55.4047 -55.3739 -55.3725 -55.2408 -54.6062 -54.6060
   -31.9383 -31.9382 -31.9139 -31.9139 -31.8836 -31.8481 -31.8192 -31.8005
   -31.7899 -31.7748 -31.7656 -31.7530 -31.7487 -31.7399 -31.7396 -31.7325
   -31.7320 -31.7195 -31.7169 -31.7102 -31.6841 -31.6819 -31.6767 -31.6706
   -31.6559 -31.6536 -31.6526 -31.6390 -31.6332 -31.6309 -31.6276 -31.6272
   -31.6233 -31.6205 -31.6202 -31.6157 -31.6141 -31.6028 -31.5874 -31.5366
   -31.4498 -31.4467 -30.9321 -30.9319 -30.8430 -30.8428 -30.8040 -30.8039
   -18.4331 -17.7404 -15.8512 -15.6076 -15.5939 -15.5572 -15.5384 -15.4192
   -15.3741 -15.3701 -15.3493 -15.2942 -15.2586 -15.2216 -15.1901 -15.1725
   -15.1490 -15.1378 -15.0962 -15.0930 -15.0860 -15.0640 -15.0225 -15.0120
   -14.9876 -14.9672 -14.9627 -14.9503 -14.9176 -14.7494 -14.6405 -13.1090
   -13.1088 -12.3901  -7.8762  -6.1952  -5.4693  -4.7693  -3.1464  -3.0665
    -3.0194  -2.8005  -2.7562  -2.7381  -2.7018  -2.6420  -2.5888  -2.5716
    -2.5531  -2.5248  -2.5152  -2.4626  -2.4368  -2.4108  -2.3865  -2.3702
    -2.3611  -2.3477  -2.3216  -2.3023  -2.2802  -2.2700  -2.2470  -2.2361
    -2.2141  -2.2059  -2.1918  -2.1693  -2.0811  -1.9987  -1.8974  -1.8380
    -1.7944  -1.7940  -1.7635  -1.7347  -1.7067  -1.7021  -1.6628  -1.6336
    -1.5623  -1.5031  -1.3195  -1.3058  -1.2612  -1.1767  -1.1754  -1.1283
    -1.1191  -1.0677  -1.0404  -0.9937  -0.9443  -0.9112  -0.8235  -0.6700
    -0.6214  -0.6016  -0.5957  -0.5802  -0.5396  -0.5251  -0.4730  -0.4557
    -0.4391  -0.3733  -0.3424  -0.3383  -0.2876  -0.2695  -0.1572  -0.0590
    -0.0320   0.0220   0.0619   0.1811   0.2932   0.3625   0.4637   0.4781
     0.4966   0.5502   0.6583   0.6681   0.7132   0.7756   0.8410   0.8467
     0.8770   0.9412   0.9531   0.9900   1.7641   1.7658   1.8172   1.8374
     1.8376   3.8613   3.9021   3.9527   3.9589   3.9827   4.0328   4.0401
     4.0711   4.1212   4.1371

     the Fermi energy is     3.4852 ev

!    total energy              =   -2973.97652035 Ry
     estimated scf accuracy    <       0.00000007 Ry
     smearing contrib. (-TS)   =      -0.01978254 Ry
     internal energy E=F+TS    =   -2973.95673781 Ry

     The total energy is F=E-TS. E is the sum of the following terms:
     one-electron contribution =  -24367.64604347 Ry
     hartree contribution      =   12278.37444855 Ry
     xc contribution           =    -494.12955772 Ry
     ewald contribution        =    9609.44286336 Ry
     electric field correction =       0.00155147 Ry

     convergence has been achieved in  54 iterations

     Forces acting on atoms (cartesian axes, Ry/au):

     atom    1 type  1   force =     0.00015844   -0.00031246    0.09443811
     atom    2 type  1   force =    -0.00007666   -0.00077074   -0.17585987
     atom    3 type  2   force =     0.00005895   -0.00019461   -0.02182981
     atom    4 type  2   force =     0.00003771   -0.00134374    0.05333407
     atom    5 type  2   force =    -0.00871529   -0.00018000    0.00366514
     atom    6 type  2   force =     0.01038175    0.00047173    0.00301660
     atom    7 type  1   force =    -0.00044976    0.00082290   -0.00103476
     atom    8 type  1   force =     0.00044802    0.00750218    0.00863671
     atom    9 type  2   force =     0.00046897    0.00015066    0.00005400
     atom   10 type  2   force =    -0.00263054    0.00131828   -0.01724189
     atom   11 type  2   force =    -0.00009175    0.00009287   -0.00039709
     atom   12 type  2   force =     0.00030939    0.00007618   -0.00007591
     atom   13 type  1   force =    -0.00041905   -0.00038058   -0.00020969
     atom   14 type  1   force =     0.00036303    0.00008859    0.00023724
     atom   15 type  2   force =     0.00013123   -0.00004591   -0.00029665
     atom   16 type  2   force =     0.00020471    0.00018530    0.00005917
     atom   17 type  2   force =    -0.00008374   -0.00006729    0.00007423
     atom   18 type  2   force =     0.00002362   -0.00003530   -0.00007957
     atom   19 type  1   force =    -0.00046022    0.00025299   -0.00073948
     atom   20 type  1   force =     0.00014841   -0.00015846    0.00001795
     atom   21 type  2   force =     0.00006604   -0.00000543    0.10325180
     atom   22 type  2   force =    -0.00026108   -0.00043442   -0.00004796
     atom   23 type  2   force =    -0.07156040   -0.00011317   -0.02736273
     atom   24 type  2   force =     0.07149525    0.00037257   -0.02737684
     atom   25 type  1   force =     0.00004229   -0.00021280    0.09442247
     atom   26 type  1   force =    -0.00013242   -0.00029893   -0.17599031
     atom   27 type  2   force =     0.00003683   -0.00019162   -0.02073148
     atom   28 type  2   force =     0.00009334   -0.00112665    0.05372300
     atom   29 type  2   force =    -0.00879902   -0.00002298    0.00343288
     atom   30 type  2   force =     0.01031224    0.00036417    0.00286196
     atom   31 type  1   force =    -0.00032763    0.00466593    0.00190565
     atom   32 type  1   force =     0.00042824   -0.00852807    0.00858730
     atom   33 type  2   force =    -0.00003890    0.00002791   -0.00001244
     atom   34 type  2   force =    -0.00403454   -0.00112281   -0.01183500
     atom   35 type  2   force =     0.00013905    0.00007302    0.00033919
     atom   36 type  2   force =     0.00053377    0.00005468   -0.00021948
     atom   37 type  1   force =     0.00062014   -0.00019023    0.00000132
     atom   38 type  1   force =     0.00022698   -0.00016192   -0.00010271
     atom   39 type  2   force =    -0.00013593   -0.00004197   -0.00020819
     atom   40 type  2   force =     0.00045987    0.00000603    0.00039768
     atom   41 type  2   force =    -0.00018703    0.00046051    0.00004849
     atom   42 type  2   force =     0.00014745    0.00016264   -0.00010371
     atom   43 type  1   force =    -0.00024535   -0.00014669   -0.00011306
     atom   44 type  1   force =     0.00026041    0.00051371    0.00086702
     atom   45 type  2   force =     0.00005351    0.00000084    0.10332477
     atom   46 type  2   force =    -0.07155483   -0.00004332   -0.02735663
     atom   47 type  2   force =     0.07149445    0.00035144   -0.02737915
     atom   48 type  3   force =     0.00045067   -0.00056830   -0.00064268
     atom   49 type  4   force =     0.00053542    0.00058472   -0.00114250
     atom   50 type  5   force =    -0.00357728   -0.00364935    0.00169228
     atom   51 type  3   force =     0.00286128    0.00246713   -0.00160492
     atom   52 type  3   force =    -0.00018247   -0.00076285    0.00073351
     atom   53 type  4   force =     0.00011622    0.00027428    0.00091812
     atom   54 type  2   force =     0.00042168   -0.00059608    0.00078146
     atom   55 type  3   force =    -0.00040173    0.00035598   -0.00049980
     atom   56 type  3   force =     0.00083625    0.00000941   -0.00032785

     Total force =     0.363881     Total SCF correction =     0.000647
  @ DRIVER MODE: Message from server: STATUS
  @ DRIVER MODE: Message from server: GETFORCE
  @ DRIVER MODE: Returning v,forces,stress,ensemble

     Writing output data file ./calc.save/
  @ DRIVER MODE: Message from server: EXIT
  @ DRIVE MODE: Exiting

     General routines

     Parallel routines

   This run was terminated on:  21:56:34  15Sep2021

   JOB DONE.