     Program PWSCF v.6.7GPU starts on  2Aug2021 at 15:32:48

     R & G space division:  proc/nbgrp/npool/nimage =      16
     Reading input from /storage/home/hcoda1/3/ntian30/research/carbon/02Aug_vib_paired/ads_slab/CH3NNH3_a/out_0012/pw.inp
Warning: card &CELL ignored
Warning: card   CELL_DYNAMICS='IPI', ignored
Warning: card / ignored

     Current dimensions of program PWSCF are:
     Max number of different atomic species (ntypx) = 10
     Max number of k-points (npk) =  40000
     Max angular momentum in pseudopotentials (lmaxx) =  3
     Presently no symmetry can be used with electric field

     Message from routine cell_base_init:
     DEPRECATED: use true lattice parameter, not A to a.u. conversion factor

     IMPORTANT: XC functional enforced from input :
     Exchange-correlation= BEEF-VDW
                           (   1   4  43  14   2   0   0)
     Any further DFT definition will be discarded
     Please, verify this is what you really want

  @ DRIVER MODE: Connecting to
 qe_1139763_2482544.sched-torque.pace.gatech.eduuxtebotm_scratch
  using UNIX socket
  @ DRIVER MODE: Message from server: STATUS
  @ DRIVER MODE: Message from server: INIT
  @ DRIVER MODE: Receiving replica           0          -1
  @ DRIVER MODE: Receiving encoded integer          25
  @ DRIVER MODE:  SCF:  T  FORCE:  T  STRESS:  F  VC:  F  ENSEMBLE:  F
  @ DRIVER MODE:  SCF:  T  FORCE:  T  STRESS:  F  VC:  F  ENSEMBLE:  F

     Using Slab Decomposition

     bravais-lattice index     =            0
     lattice parameter (alat)  =       1.8897  a.u.
     unit-cell volume          =    6658.9804 (a.u.)^3
     number of atoms/cell      =           56
     number of atomic types    =            5
     number of electrons       =       398.00
     number of Kohn-Sham states=          209
     kinetic-energy cutoff     =      29.3995  Ry
     charge density cutoff     =     293.9946  Ry
     scf convergence threshold =      7.3E-08
     mixing beta               =       0.0500
     number of iterations used =            8  plain     mixing
     Exchange-correlation= BEEF-VDW
                           (   1   4  43  14   2   0   0)

     celldm(1)=   1.889726  celldm(2)=   0.000000  celldm(3)=   0.000000
     celldm(4)=   0.000000  celldm(5)=   0.000000  celldm(6)=   0.000000

     crystal axes: (cart. coord. in units of alat)
               a(1) = (   6.579727   0.000000   0.000000 )
               a(2) = (  -0.000775   5.961596   0.000000 )
               a(3) = (   0.000000   0.000000  25.155947 )

     reciprocal axes: (cart. coord. in units 2 pi/alat)
               b(1) = (  0.151982  0.000020  0.000000 )
               b(2) = (  0.000000  0.167740  0.000000 )
               b(3) = (  0.000000  0.000000  0.039752 )

     PseudoPot. # 1 for Ti read from file:
     /storage/coda1/p-amedford6/0/shared/rich_project_chbe-medford/medford-share/data/pseudos_module/espresso/nninc/pbe/van/Ti.UPF
     MD5 check sum: 8e4df49b7f0d34bbd5052bf3f5ea0213
     Pseudo is Ultrasoft, Zval = 12.0
     Generated by new atomic code, or converted to UPF format
     Using radial grid of  851 points,  6 beta functions with:
                l(1) =   0
                l(2) =   0
                l(3) =   1
                l(4) =   1
                l(5) =   2
                l(6) =   2
     Q(r) pseudized with  8 coefficients,  rinner =    1.000   1.000   1.000
                                                       1.000   1.000

     PseudoPot. # 2 for O  read from file:
     /storage/coda1/p-amedford6/0/shared/rich_project_chbe-medford/medford-share/data/pseudos_module/espresso/nninc/pbe/van/O.UPF
     MD5 check sum: 78c19812648e8988a0fe644b0f25305e
     Pseudo is Ultrasoft, Zval =  6.0
     Generated by new atomic code, or converted to UPF format
     Using radial grid of  737 points,  4 beta functions with:
                l(1) =   0
                l(2) =   0
                l(3) =   1
                l(4) =   1
     Q(r) pseudized with  8 coefficients,  rinner =    0.800   0.800   0.800

     PseudoPot. # 3 for N  read from file:
     /storage/coda1/p-amedford6/0/shared/rich_project_chbe-medford/medford-share/data/pseudos_module/espresso/nninc/pbe/van/N.UPF
     MD5 check sum: 90d10febe142ad51ac9d5be1deb811c4
     Pseudo is Ultrasoft, Zval =  5.0
     Generated by new atomic code, or converted to UPF format
     Using radial grid of  729 points,  4 beta functions with:
                l(1) =   0
                l(2) =   0
                l(3) =   1
                l(4) =   1
     Q(r) pseudized with  8 coefficients,  rinner =    0.800   0.800   0.800

     PseudoPot. # 4 for C  read from file:
     /storage/coda1/p-amedford6/0/shared/rich_project_chbe-medford/medford-share/data/pseudos_module/espresso/nninc/pbe/van/C.UPF
     MD5 check sum: 1a69bf6b8db32088f5b2163dbdb77a27
     Pseudo is Ultrasoft, Zval =  4.0
     Generated by new atomic code, or converted to UPF format
     Using radial grid of  721 points,  4 beta functions with:
                l(1) =   0
                l(2) =   0
                l(3) =   1
                l(4) =   1
     Q(r) pseudized with  8 coefficients,  rinner =    0.800   0.800   0.800

     PseudoPot. # 5 for H  read from file:
     /storage/coda1/p-amedford6/0/shared/rich_project_chbe-medford/medford-share/data/pseudos_module/espresso/nninc/pbe/van/H.UPF
     MD5 check sum: b5ee9d7bfd3a09ee7748110bda690ff7
     Pseudo is Ultrasoft, Zval =  1.0
     Generated by new atomic code, or converted to UPF format
     Using radial grid of  615 points,  1 beta functions with:
                l(1) =   0
     Q(r) pseudized with  8 coefficients,  rinner =    0.800

     atomic species   valence    mass     pseudopotential
        Ti1           12.00    47.86700     Ti( 1.00)
        O1             6.00    15.99900     O ( 1.00)
        N1             5.00    14.00700     N ( 1.00)
        C1             4.00    12.01100     C ( 1.00)
        H1             1.00     1.00800     H ( 1.00)

     No symmetry found

   Cartesian axes

     site n.     atom                  positions (alat units)
         1           Ti1 tau(   1) = (   0.0004258   2.9801865   6.0000000  )
         2           Ti1 tau(   2) = (   3.2906075   1.4906267   6.0002472  )
         3           O1  tau(   3) = (   0.0006271   0.0005054   7.9858123  )
         4           O1  tau(   4) = (   3.2906025   0.0005020   7.3038282  )
         5           O1  tau(   5) = (   4.5942328   1.4918067   9.2879030  )
         6           O1  tau(   6) = (   1.9868534   1.4903216   9.2879459  )
         7           Ti1 tau(   7) = (   3.2907910   2.8959150   9.1758416  )
         8           Ti1 tau(   8) = (   0.0015273   1.4827037   9.2680791  )
         9           O1  tau(   9) = (   3.2727297   5.9424138  11.2974721  )
        10           O1  tau(  10) = (   0.0116148   5.9584955  10.6183126  )
        11           O1  tau(  11) = (   1.3027692   1.4721713  12.6242268  )
        12           O1  tau(  12) = (   5.2784376   1.4723552  12.6258992  )
        13           Ti1 tau(  13) = (   6.4570204   2.9507206  12.7630554  )
        14           Ti1 tau(  14) = (   3.1467966   1.4649636  12.4688949  )
        15           O1  tau(  15) = (   6.5600513   5.9133837  14.5918744  )
        16           O1  tau(  16) = (   3.2766225   5.9390981  13.8789110  )
        17           O1  tau(  17) = (   4.4915826   1.4834571  16.0540230  )
        18           O1  tau(  18) = (   2.0416982   1.4849982  16.0411193  )
        19           Ti1 tau(  19) = (   3.2679172   2.9642910  15.6858091  )
        20           Ti1 tau(  20) = (   6.5495220   1.5641796  16.1095294  )
        21           O1  tau(  21) = (   3.2904802   0.0005063   4.7018136  )
        22           O1  tau(  22) = (   6.5606002   0.0080969  17.2010096  )
        23           O1  tau(  23) = (   1.3043587   1.4918075   6.0039043  )
        24           O1  tau(  24) = (   5.2767064   1.4903225   6.0039473  )
        25           Ti1 tau(  25) = (   0.0000382   5.9609847   6.0000000  )
        26           Ti1 tau(  26) = (   3.2902200   4.4714249   6.0002472  )
        27           O1  tau(  27) = (   0.0002396   2.9813036   7.9858123  )
        28           O1  tau(  28) = (   3.2902150   2.9813002   7.3038282  )
        29           O1  tau(  29) = (   4.5938453   4.4726049   9.2879030  )
        30           O1  tau(  30) = (   1.9864658   4.4711199   9.2879459  )
        31           Ti1 tau(  31) = (   3.2891106   5.8743827   9.1763621  )
        32           Ti1 tau(  32) = (   0.0006254   4.4649316   9.2693709  )
        33           O1  tau(  33) = (   3.2718307   2.9587034  11.2961003  )
        34           O1  tau(  34) = (   0.0092240   2.9805883  10.6323155  )
        35           O1  tau(  35) = (   1.3028232   4.4416136  12.6207192  )
        36           O1  tau(  36) = (   5.2777600   4.4366566  12.6238879  )
        37           Ti1 tau(  37) = (   6.4830488   5.9304874  12.7660964  )
        38           Ti1 tau(  38) = (   3.1463657   4.4448748  12.4639736  )
        39           O1  tau(  39) = (   6.5417323   2.9404903  14.6589984  )
        40           O1  tau(  40) = (   3.2789452   2.9619718  13.8791424  )
        41           O1  tau(  41) = (   4.4971312   4.4676043  16.0556370  )
        42           O1  tau(  42) = (   2.0400509   4.4648231  16.0515753  )
        43           Ti1 tau(  43) = (   3.2598176   5.9476019  15.6881950  )
        44           Ti1 tau(  44) = (   6.5485469   4.5424454  16.1156095  )
        45           O1  tau(  45) = (   3.2900926   2.9813045   4.7018136  )
        46           O1  tau(  46) = (   1.3039711   4.4726057   6.0039043  )
        47           O1  tau(  47) = (   5.2763189   4.4711207   6.0039473  )
        48           N1  tau(  48) = (   0.0016189   2.9795595  17.3279962  )
        49           C1  tau(  49) = (   0.1681806   3.0735589  18.7681663  )
        50           H1  tau(  50) = (   6.0068595   3.7517258  19.1994632  )
        51           H1  tau(  51) = (   0.0766375   2.0971904  19.2409400  )
        52           H1  tau(  52) = (   1.1565538   3.4901639  19.0026035  )
        53           N1  tau(  53) = (   4.7601180   1.8141088  21.6614004  )
        54           H1  tau(  54) = (   4.4666586   2.7830198  21.5980365  )
        55           H1  tau(  55) = (   4.1231612   1.2775871  21.0809158  )
        56           H1  tau(  56) = (   4.6015807   1.5257772  22.6208530  )

     number of k points=    10  Fermi-Dirac smearing, width (Ry)=  0.0073
                       cart. coord. in units 2pi/alat
        k(    1) = (   0.0000000   0.0000000   0.0000000), wk =   0.1250000
        k(    2) = (   0.0000000   0.0419351   0.0000000), wk =   0.2500000
        k(    3) = (   0.0000000  -0.0838702   0.0000000), wk =   0.1250000
        k(    4) = (   0.0379955   0.0000049   0.0000000), wk =   0.2500000
        k(    5) = (   0.0379955   0.0419400   0.0000000), wk =   0.2500000
        k(    6) = (   0.0379955  -0.0838652   0.0000000), wk =   0.2500000
        k(    7) = (   0.0379955  -0.0419301   0.0000000), wk =   0.2500000
        k(    8) = (  -0.0759910  -0.0000099   0.0000000), wk =   0.1250000
        k(    9) = (  -0.0759910   0.0419252   0.0000000), wk =   0.2500000
        k(   10) = (  -0.0759910  -0.0838800   0.0000000), wk =   0.1250000

     Initial potential from superposition of free atoms

     starting charge  381.99914, renormalised to  398.00000

     negative rho (up, down):  9.478E-03 0.000E+00

     %%%%%%%%%%%%%%%%%%%%%%%%%%%%%%%%%%%%%%%%%%%%%%%%%%%%%%%%%%%%%%%%%%%%%%%%
     %                                                                      %
     % You are using vdW-DF, which was implemented by the Thonhauser group. %
     % Please cite the following two papers that made this development      %
     % possible and the two reviews that describe the various versions:     %
     %                                                                      %
     %   T. Thonhauser et al., PRL 115, 136402 (2015).                      %
     %   T. Thonhauser et al., PRB 76, 125112 (2007).                       %
     %   K. Berland et al., Rep. Prog. Phys. 78, 066501 (2015).             %
     %   D.C. Langreth et al., J. Phys.: Condens. Matter 21, 084203 (2009). %
     %                                                                      %
     %                                                                      %
     % If you are calculating the stress with vdW-DF, please also cite:     %
     %                                                                      %
     %   R. Sabatini et al., J. Phys.: Condens. Matter 24, 424209 (2012).   %
     %                                                                      %
     %%%%%%%%%%%%%%%%%%%%%%%%%%%%%%%%%%%%%%%%%%%%%%%%%%%%%%%%%%%%%%%%%%%%%%%%

     Adding external electric field

     Computed dipole along edir(3) :
        Dipole              -11.3749 Ry au,        -28.9120 Debye
        Dipole field         -0.0215 Ry au,

        Potential amp.        1.9899 Ry
        Total length         46.3494 bohr

     Starting wfcs are  302 atomic wfcs
  @ DRIVER MODE: Message from server: STATUS
  @ DRIVER MODE: Message from server: POSDATA
  @ DRIVER MODE: Reading and sharing cell
  @ DRIVER MODE: Reading and sharing positions
  @ DRIVER MODE: Received positions

     Self-consistent Calculation

     iteration #  1     ecut=    29.40 Ry     beta= 0.05
     Davidson diagonalization with overlap
     c_bands:  1 eigenvalues not converged
     c_bands:  1 eigenvalues not converged
     c_bands:  2 eigenvalues not converged
     c_bands:  1 eigenvalues not converged
     c_bands:  1 eigenvalues not converged
     c_bands:  1 eigenvalues not converged
     c_bands:  1 eigenvalues not converged
     c_bands:  2 eigenvalues not converged
     c_bands:  2 eigenvalues not converged
     ethr =  1.00E-05,  avg # of iterations = 19.6

[...]

     total energy              =   -2520.76134730 Ry
     estimated scf accuracy    <    4706.48560364 Ry

     iteration #  2     ecut=    29.40 Ry     beta= 0.05
     Davidson diagonalization with overlap
     ethr =  1.00E-02,  avg # of iterations = 21.9

[...]

     iteration # 48     ecut=    29.40 Ry     beta= 0.05
     Davidson diagonalization with overlap
     c_bands:  1 eigenvalues not converged
     ethr =  8.07E-07,  avg # of iterations =  8.6

[...]

     total energy              =   -2942.90665873 Ry
     estimated scf accuracy    <       0.00000011 Ry

     iteration # 71     ecut=    29.40 Ry     beta= 0.05
     Davidson diagonalization with overlap
     ethr =  2.17E-11,  avg # of iterations =  5.0

     negative rho (up, down):  1.096E-02 0.000E+00

     Adding external electric field

     Computed dipole along edir(3) :
        Dipole                0.4580 Ry au,          1.1641 Debye
        Dipole field          0.0009 Ry au,

        Potential amp.       -0.0801 Ry
        Total length         46.3494 bohr

     End of self-consistent calculation

          k = 0.0000 0.0000 0.0000 ( 18029 PWs)   bands (ev):

   -56.6110 -56.5774 -55.7289 -55.7204 -55.6935 -55.6881 -55.5820 -55.5462
   -55.3640 -55.3287 -55.2752 -55.2665 -55.2412 -55.1644 -54.7255 -54.6122
   -33.0388 -32.8855 -32.8574 -32.7873 -32.6962 -32.6648 -32.2036 -32.1928
   -32.1250 -32.0153 -31.9702 -31.9422 -31.9282 -31.9034 -31.8708 -31.8682
   -31.8628 -31.8574 -31.8344 -31.8287 -31.8196 -31.7902 -31.7649 -31.7512
   -31.7381 -31.7182 -31.7093 -31.6859 -31.6674 -31.6137 -31.5954 -31.5895
   -31.5087 -31.5028 -31.4861 -31.4419 -31.4307 -31.4027 -31.3932 -31.3688
   -31.3476 -31.2917 -31.2271 -30.9662 -30.9541 -30.8717 -30.8323 -30.7409
   -16.7745 -16.3390 -16.1088 -15.9732 -15.9046 -15.8513 -15.8054 -15.6817
   -15.6105 -15.6048 -15.5651 -15.5324 -15.4624 -15.3223 -15.2241 -15.1696
   -15.1251 -15.0040 -14.9453 -14.9111 -14.9056 -14.8711 -14.8516 -14.6565
   -14.6319 -14.5303 -14.5188 -14.3943 -14.1707 -13.7737 -13.7308 -13.6636
   -12.7278  -7.5174  -4.3404  -3.8343  -3.8089  -3.7792  -3.5962  -3.5097
    -3.4016  -3.3900  -3.3043  -3.1914  -3.1445  -3.0971  -2.9812  -2.9800
    -2.8315  -2.7990  -2.7864  -2.7818  -2.7398  -2.6734  -2.6518  -2.6172
    -2.6120  -2.5981  -2.4536  -2.3527  -2.2854  -2.2635  -2.2524  -2.2176
    -2.1396  -2.1191  -2.1049  -2.1014  -1.9986  -1.8531  -1.8501  -1.8180
    -1.7748  -1.7745  -1.7374  -1.7192  -1.5817  -1.5118  -1.4052  -1.3914
    -1.3518  -1.2896  -1.2838  -1.1815  -1.1103  -1.0431  -1.0229  -0.9143
    -0.8671  -0.8474  -0.7568  -0.6965  -0.6566  -0.6382  -0.6219  -0.5201
    -0.5000  -0.4869  -0.4022  -0.3907  -0.3340  -0.2537  -0.2335  -0.2278
    -0.1385  -0.1328  -0.0420   0.0007   0.0434   0.0881   0.1841   0.2026
     0.3035   0.3404   0.3596   0.4817   0.4954   0.5557   0.6259   0.6921
     0.7225   0.7464   0.7770   0.7981   0.8730   0.9869   0.9906   1.0940
     1.1335   1.2993   1.3383   1.3723   1.6269   1.6443   2.3216   2.6636
     2.8239   3.1223   3.3140   3.4253   3.6394   3.6542   3.6596   3.8394
     3.8845

[...]

          k = 0.0380-0.0419 0.0000 ( 17876 PWs)   bands (ev):

[...]

          k =-0.0760-0.0000 0.0000 ( 17886 PWs)   bands (ev):

[...]

          k =-0.0760-0.0839 0.0000 ( 17948 PWs)   bands (ev):

   -56.5943 -56.5939 -55.7129 -55.7077 -55.7053 -55.7046 -55.5668 -55.5613
   -55.3492 -55.3434 -55.2635 -55.2582 -55.2581 -55.1673 -54.7226 -54.6149
   -32.8714 -32.8711 -32.8557 -32.8554 -32.7403 -32.7400 -32.0332 -32.0306
   -32.0171 -32.0110 -31.9605 -31.9594 -31.9167 -31.9161 -31.9148 -31.9128
   -31.9028 -31.9001 -31.8987 -31.8964 -31.8188 -31.8143 -31.7680 -31.7626
   -31.7008 -31.6933 -31.6322 -31.6253 -31.6026 -31.6025 -31.5931 -31.5482
   -31.5460 -31.5191 -31.4841 -31.4837 -31.4836 -31.4446 -31.4446 -31.4372
   -31.4102 -31.3709 -31.1059 -30.9865 -30.9537 -30.9213 -30.8348 -30.7994
   -16.1227 -16.1207 -16.0887 -16.0884 -15.8184 -15.8146 -15.7694 -15.7676
   -15.5945 -15.5886 -15.3828 -15.3725 -15.3663 -15.3623 -15.2381 -15.2293
   -15.1649 -15.1541 -15.0641 -15.0606 -14.9984 -14.9923 -14.9536 -14.9337
   -14.6178 -14.6106 -14.4835 -14.4744 -14.3208 -13.7671 -13.7671 -13.7300
   -12.7439  -7.5076  -3.8086  -3.7944  -3.2222  -3.2217  -3.1559  -3.1546
    -3.0326  -3.0278  -2.9528  -2.9524  -2.8517  -2.8475  -2.7652  -2.7081
    -2.7062  -2.7032  -2.6924  -2.6574  -2.5521  -2.5477  -2.5362  -2.5223
    -2.4674  -2.4654  -2.4376  -2.3741  -2.3622  -2.3270  -2.2876  -2.1807
    -2.1674  -2.1507  -2.1247  -2.0624  -2.0497  -2.0396  -1.9921  -1.9697
    -1.8872  -1.8118  -1.7805  -1.6623  -1.6592  -1.6477  -1.6359  -1.4816
    -1.4460  -1.4142  -1.4061  -1.3988  -1.3538  -1.2575  -1.2495  -1.1143
    -1.1116  -1.0410  -0.9598  -0.9368  -0.9149  -0.7801  -0.7405  -0.6991
    -0.6938  -0.6684  -0.6421  -0.6235  -0.5958  -0.4435  -0.4248  -0.3907
    -0.3594  -0.3510  -0.3117  -0.2410  -0.1628  -0.0827  -0.0817  -0.0146
     0.0363   0.1006   0.1856   0.1990   0.2030   0.4864   0.5667   0.6542
     0.7343   0.7983   0.8637   0.8876   0.9489   0.9883   1.1263   1.1292
     1.1473   1.1477   1.2093   1.2175   1.3553   1.6416   2.2080   3.2370
     3.2373   3.3045   3.3049   3.6285   3.6340   3.7432   3.7522   3.8641
     3.8697

     the Fermi energy is     2.5010 ev

!    total energy              =   -2942.90668008 Ry
     estimated scf accuracy    <       0.00000005 Ry
     smearing contrib. (-TS)   =      -0.00474467 Ry
     internal energy E=F+TS    =   -2942.90193542 Ry

     The total energy is F=E-TS. E is the sum of the following terms:
     one-electron contribution =  -23223.63742541 Ry
     hartree contribution      =   11702.14366626 Ry
     xc contribution           =    -487.46754170 Ry
     ewald contribution        =    9066.05896962 Ry
     electric field correction =       0.00039582 Ry

     convergence has been achieved in  71 iterations

     Forces acting on atoms (cartesian axes, Ry/au):

     atom    1 type  1   force =     0.00000802   -0.00043880    0.12436959
     atom    2 type  1   force =    -0.00005567   -0.00055315   -0.16060765
     atom    3 type  2   force =     0.00016462   -0.00030133   -0.06843053
     atom    4 type  2   force =    -0.00005323   -0.00038632    0.02748199
     atom    5 type  2   force =    -0.01678193    0.00112904   -0.00834794
     atom    6 type  2   force =     0.01783169    0.00162922   -0.01024131
     atom    7 type  1   force =     0.00039697   -0.00408354    0.02188463
     atom    8 type  1   force =     0.00019766   -0.00219024    0.11175172
     atom    9 type  2   force =     0.00010408    0.00018605   -0.00036400
     atom   10 type  2   force =    -0.00319705    0.00010923   -0.07314372
     atom   11 type  2   force =    -0.00034134    0.00033044   -0.00009928
     atom   12 type  2   force =     0.00013996    0.00044919   -0.00005651
     atom   13 type  1   force =     0.00013685   -0.00024562    0.00010391
     atom   14 type  1   force =    -0.00016079    0.00003469   -0.00025190
     atom   15 type  2   force =    -0.00005235   -0.00023363    0.00004868
     atom   16 type  2   force =     0.00032297    0.00076631   -0.00004744
     atom   17 type  2   force =     0.00012313    0.00027788   -0.00030096
     atom   18 type  2   force =    -0.00011020    0.00016908    0.00008514
     atom   19 type  1   force =     0.00050552   -0.00009271   -0.00021473
     atom   20 type  1   force =     0.00032116    0.00007594    0.00014556
     atom   21 type  2   force =     0.00010050    0.00008183    0.09967529
     atom   22 type  2   force =     0.00007891    0.00091924    0.00061638
     atom   23 type  2   force =    -0.07917449    0.00008472   -0.03244627
     atom   24 type  2   force =     0.07908043    0.00051099   -0.03243960
     atom   25 type  1   force =     0.00002718   -0.00040974    0.12389520
     atom   26 type  1   force =    -0.00003633   -0.00041664   -0.16073015
     atom   27 type  2   force =     0.00028771   -0.00046954   -0.06741955
     atom   28 type  2   force =    -0.00005663   -0.00020270    0.02721869
     atom   29 type  2   force =    -0.01731236    0.00074167   -0.00827341
     atom   30 type  2   force =     0.01827975    0.00114025   -0.01011059
     atom   31 type  1   force =     0.00033505   -0.00100501    0.02134710
     atom   32 type  1   force =     0.00021716   -0.00027415    0.11230662
     atom   33 type  2   force =     0.00012080    0.00051184   -0.00012672
     atom   34 type  2   force =    -0.00294399   -0.00065431   -0.07300144
     atom   35 type  2   force =    -0.00024825    0.00027356   -0.00012132
     atom   36 type  2   force =     0.00009737    0.00013886   -0.00005919
     atom   37 type  1   force =     0.00013800   -0.00015186    0.00038032
     atom   38 type  1   force =     0.00007482    0.00005401    0.00037761
     atom   39 type  2   force =     0.00021705    0.00038861   -0.00025772
     atom   40 type  2   force =     0.00009683    0.00034628    0.00010189
     atom   41 type  2   force =    -0.00025061    0.00037356    0.00014112
     atom   42 type  2   force =     0.00007414    0.00064399   -0.00003994
     atom   43 type  1   force =     0.00059569    0.00052813    0.00045427
     atom   44 type  1   force =     0.00016888   -0.00017650    0.00018269
     atom   45 type  2   force =     0.00010451    0.00004868    0.09969217
     atom   46 type  2   force =    -0.07918395    0.00012899   -0.03244672
     atom   47 type  2   force =     0.07908486    0.00056247   -0.03243526
     atom   48 type  3   force =     0.00097333    0.00065794    0.00677340
     atom   49 type  4   force =     0.00147345    0.00046504   -0.01377977
     atom   50 type  5   force =    -0.00172694    0.00152988    0.00229748
     atom   51 type  5   force =    -0.00061985   -0.00311689    0.00297502
     atom   52 type  5   force =     0.00057144   -0.00015835    0.00196727
     atom   53 type  3   force =     0.00099236   -0.00024585    0.00036531
     atom   54 type  5   force =    -0.00012556    0.00081162   -0.00090959
     atom   55 type  5   force =     0.00020031    0.00034260    0.00029658
     atom   56 type  5   force =    -0.00121162   -0.00063495   -0.00023242

     Total force =     0.425358     Total SCF correction =     0.000395
  @ DRIVER MODE: Message from server: STATUS
  @ DRIVER MODE: Message from server: GETFORCE
  @ DRIVER MODE: Returning v,forces,stress,ensemble

     Writing output data file ./calc.save/
  @ DRIVER MODE: Message from server: EXIT
  @ DRIVE MODE: Exiting

     General routines

     Parallel routines

   This run was terminated on:  15:48:37   2Aug2021

   JOB DONE.