     Program PWSCF v.6.7GPU starts on 18Oct2021 at 16:13:43

     R & G space division:  proc/nbgrp/npool/nimage =       8
     Reading input from /storage/home/hcoda1/3/ntian30/research/carbon/CxH_vib/Thiel_calc/ads_slab/NNH2HH_perslab/out_0010/pw.inp
Warning: card &CELL ignored
Warning: card   CELL_DYNAMICS='IPI', ignored
Warning: card / ignored

     Current dimensions of program PWSCF are:
     Max number of different atomic species (ntypx) = 10
     Max number of k-points (npk) =  40000
     Max angular momentum in pseudopotentials (lmaxx) =  3
     Presently no symmetry can be used with electric field

     Message from routine cell_base_init:
     DEPRECATED: use true lattice parameter, not A to a.u. conversion factor

     IMPORTANT: XC functional enforced from input :
     Exchange-correlation= BEEF-VDW
                           (   1   4  43  14   2   0   0)
     Any further DFT definition will be discarded
     Please, verify this is what you really want

  @ DRIVER MODE: Connecting to
 qe_1139763_3255133.sched-torque.pace.gatech.edurbr80arx_scratch
  using UNIX socket
  @ DRIVER MODE: Message from server: STATUS
  @ DRIVER MODE: Message from server: INIT
  @ DRIVER MODE: Receiving replica           0          -1
  @ DRIVER MODE: Receiving encoded integer          25
  @ DRIVER MODE:  SCF:  T  FORCE:  T  STRESS:  F  VC:  F  ENSEMBLE:  F
  @ DRIVER MODE:  SCF:  T  FORCE:  T  STRESS:  F  VC:  F  ENSEMBLE:  F

     Using Slab Decomposition

     bravais-lattice index     =            0
     lattice parameter (alat)  =       1.8897  a.u.
     unit-cell volume          =    9988.4706 (a.u.)^3
     number of atoms/cell      =           59
     number of atomic types    =            4
     number of electrons       =       440.00
     number of Kohn-Sham states=          230
     kinetic-energy cutoff     =      29.3995  Ry
     charge density cutoff     =     293.9946  Ry
     scf convergence threshold =      7.3E-08
     mixing beta               =       0.0500
     number of iterations used =            8  plain     mixing
     Exchange-correlation= BEEF-VDW
                           (   1   4  43  14   2   0   0)

     celldm(1)=   1.889726  celldm(2)=   0.000000  celldm(3)=   0.000000
     celldm(4)=   0.000000  celldm(5)=   0.000000  celldm(6)=   0.000000

     crystal axes: (cart. coord. in units of alat)
               a(1) = (   6.579727   0.000000   0.000000 )
               a(2) = (  -0.001163   8.942395   0.000000 )
               a(3) = (   0.000000   0.000000  25.155947 )

     reciprocal axes: (cart. coord. in units 2 pi/alat)
               b(1) = (  0.151982  0.000020  0.000000 )
               b(2) = (  0.000000  0.111827  0.000000 )
               b(3) = (  0.000000  0.000000  0.039752 )

     PseudoPot. # 1 for O  read from file:
     /storage/coda1/p-amedford6/0/shared/rich_project_chbe-medford/medford-share/data/pseudos_module/espresso/nninc/pbe/van/O.UPF
     MD5 check sum: 78c19812648e8988a0fe644b0f25305e
     Pseudo is Ultrasoft, Zval =  6.0
     Generated by new atomic code, or converted to UPF format
     Using radial grid of  737 points,  4 beta functions with:
                l(1) =   0
                l(2) =   0
                l(3) =   1
                l(4) =   1
     Q(r) pseudized with  8 coefficients,  rinner =    0.800   0.800   0.800

     PseudoPot. # 2 for Ti read from file:
     /storage/coda1/p-amedford6/0/shared/rich_project_chbe-medford/medford-share/data/pseudos_module/espresso/nninc/pbe/van/Ti.UPF
     MD5 check sum: 8e4df49b7f0d34bbd5052bf3f5ea0213
     Pseudo is Ultrasoft, Zval = 12.0
     Generated by new atomic code, or converted to UPF format
     Using radial grid of  851 points,  6 beta functions with:
                l(1) =   0
                l(2) =   0
                l(3) =   1
                l(4) =   1
                l(5) =   2
                l(6) =   2
     Q(r) pseudized with  8 coefficients,  rinner =    1.000   1.000   1.000
                                                       1.000   1.000

     PseudoPot. # 3 for H  read from file:
     /storage/coda1/p-amedford6/0/shared/rich_project_chbe-medford/medford-share/data/pseudos_module/espresso/nninc/pbe/van/H.UPF
     MD5 check sum: b5ee9d7bfd3a09ee7748110bda690ff7
     Pseudo is Ultrasoft, Zval =  1.0
     Generated by new atomic code, or converted to UPF format
     Using radial grid of  615 points,  1 beta functions with:
                l(1) =   0
     Q(r) pseudized with  8 coefficients,  rinner =    0.800

     PseudoPot. # 4 for N  read from file:
     /storage/coda1/p-amedford6/0/shared/rich_project_chbe-medford/medford-share/data/pseudos_module/espresso/nninc/pbe/van/N.UPF
     MD5 check sum: 90d10febe142ad51ac9d5be1deb811c4
     Pseudo is Ultrasoft, Zval =  5.0
     Generated by new atomic code, or converted to UPF format
     Using radial grid of  729 points,  4 beta functions with:
                l(1) =   0
                l(2) =   0
                l(3) =   1
                l(4) =   1
     Q(r) pseudized with  8 coefficients,  rinner =    0.800   0.800   0.800

     atomic species   valence    mass     pseudopotential
        O1             6.00    15.99900     O ( 1.00)
        Ti1           12.00    47.86700     Ti( 1.00)
        H1             1.00     1.00800     H ( 1.00)
        N1             5.00    14.00700     N ( 1.00)

     No symmetry found

   Cartesian axes

     site n.     atom                  positions (alat units)
         1           O1  tau(   1) = (   0.0007354   0.0005023  10.5931620  )
         2           O1  tau(   2) = (   3.3122003   8.9411730  13.9078397  )
         3           O1  tau(   3) = (   0.0119464   0.1585559  17.3480684  )
         4           O1  tau(   4) = (   0.0006271   0.0005054   7.9858123  )
         5           O1  tau(   5) = (   3.2844644   8.9346379  11.1901754  )
         6           O1  tau(   6) = (   6.5618141   0.0157575  14.6617184  )
         7           O1  tau(   7) = (   1.9868534   1.4903216   9.2879459  )
         8           O1  tau(   8) = (   5.2413352   1.5994427  12.5710249  )
         9           O1  tau(   9) = (   2.0249271   1.5994163  16.0383581  )
        10           Ti1 tau(  10) = (   0.0007404   1.4906270   9.2895810  )
        11           Ti1 tau(  11) = (   3.2875257   1.3541315  12.5031546  )
        12           Ti1 tau(  12) = (   0.1037617   1.4803996  15.8781706  )
        13           O1  tau(  13) = (   4.5942328   1.4918067   9.2879030  )
        14           O1  tau(  14) = (   1.3445879   1.6225681  12.6047105  )
        15           O1  tau(  15) = (   4.5270247   1.5277052  16.0690704  )
        16           Ti1 tau(  16) = (   3.2902859   2.9801868   9.2893338  )
        17           Ti1 tau(  17) = (   6.5717848   2.8351652  12.4611715  )
        18           Ti1 tau(  18) = (   3.3615503   2.9380122  15.7113248  )
        19           O1  tau(  19) = (   0.0003479   2.9813005  10.5931620  )
        20           O1  tau(  20) = (   3.3257229   2.9884659  13.9122956  )
        21           O1  tau(  21) = (   0.0002396   2.9813036   7.9858123  )
        22           O1  tau(  22) = (   3.2846765   2.9682620  11.1924388  )
        23           O1  tau(  23) = (   6.5193973   3.0012958  14.6893217  )
        24           O1  tau(  24) = (   1.9864658   4.4711199   9.2879459  )
        25           O1  tau(  25) = (   5.2358842   4.5821056  12.5715879  )
        26           O1  tau(  26) = (   1.9668816   4.5963109  15.9958849  )
        27           Ti1 tau(  27) = (   0.0003529   4.4714252   9.2895810  )
        28           Ti1 tau(  28) = (   3.2817300   4.3379106  12.5030846  )
        29           Ti1 tau(  29) = (   6.5286400   4.3105241  16.0387364  )
        30           O1  tau(  30) = (   4.5938453   4.4726049   9.2879030  )
        31           O1  tau(  31) = (   1.3350840   4.5883300  12.6034823  )
        32           O1  tau(  32) = (   4.4768606   4.5746599  16.1328061  )
        33           Ti1 tau(  33) = (   3.2898983   5.9609850   9.2893338  )
        34           Ti1 tau(  34) = (   6.5687693   5.8095266  12.4696282  )
        35           Ti1 tau(  35) = (   3.1936624   5.9077503  15.7132784  )
        36           O1  tau(  36) = (  -0.0000397   5.9620987  10.5931620  )
        37           O1  tau(  37) = (   3.2950800   5.9615338  13.9080848  )
        38           O1  tau(  38) = (   6.5705097   6.0321180  17.3127682  )
        39           O1  tau(  39) = (  -0.0001480   5.9621018   7.9858123  )
        40           O1  tau(  40) = (   3.2829949   5.9473389  11.1919414  )
        41           O1  tau(  41) = (   6.5313079   6.0695169  14.6234680  )
        42           O1  tau(  42) = (   1.9860782   7.4519181   9.2879459  )
        43           O1  tau(  43) = (   5.2305909   7.5696458  12.5615615  )
        44           O1  tau(  44) = (   1.9930026   7.5537276  16.0441964  )
        45           Ti1 tau(  45) = (  -0.0000347   7.4522234   9.2895810  )
        46           Ti1 tau(  46) = (   3.2809715   7.3153274  12.5063831  )
        47           Ti1 tau(  47) = (  -0.0000777   7.3827053  15.8005402  )
        48           O1  tau(  48) = (   4.5934577   7.4534031   9.2879030  )
        49           O1  tau(  49) = (   1.3440923   7.5800077  12.5804573  )
        50           O1  tau(  50) = (   4.5564015   7.5743432  16.1458831  )
        51           Ti1 tau(  51) = (   3.2895107   8.9417832   9.2893338  )
        52           Ti1 tau(  52) = (   6.5681474   8.7932977  12.4619754  )
        53           Ti1 tau(  53) = (   3.3227810   8.9003220  15.7121742  )
        54           H1  tau(  54) = (   5.8375475   6.1301351  17.9339333  )
        55           H1  tau(  55) = (   5.7673184   0.1899947  17.8523786  )
        56           H1  tau(  56) = (   0.0490247   3.6154164  19.2291769  )
        57           N1  tau(  57) = (   6.4107751   2.7916545  18.6713363  )
        58           N1  tau(  58) = (   6.5444414   3.0434393  17.3342366  )
        59           H1  tau(  59) = (   0.3957958   1.9971216  18.9670883  )

     number of k points=    10  Fermi-Dirac smearing, width (Ry)=  0.0073
                       cart. coord. in units 2pi/alat
        k(    1) = (   0.0000000   0.0000000   0.0000000), wk =   0.1250000
        k(    2) = (   0.0000000   0.0279567   0.0000000), wk =   0.2500000
        k(    3) = (   0.0000000  -0.0559134   0.0000000), wk =   0.1250000
        k(    4) = (   0.0379955   0.0000049   0.0000000), wk =   0.2500000
        k(    5) = (   0.0379955   0.0279617   0.0000000), wk =   0.2500000
        k(    6) = (   0.0379955  -0.0559085   0.0000000), wk =   0.2500000
        k(    7) = (   0.0379955  -0.0279518   0.0000000), wk =   0.2500000
        k(    8) = (  -0.0759910  -0.0000099   0.0000000), wk =   0.1250000
        k(    9) = (  -0.0759910   0.0279468   0.0000000), wk =   0.2500000
        k(   10) = (  -0.0759910  -0.0559233   0.0000000), wk =   0.1250000

     Initial potential from superposition of free atoms

     starting charge  421.99910, renormalised to  440.00000

     negative rho (up, down):  3.725E-02 0.000E+00

     %%%%%%%%%%%%%%%%%%%%%%%%%%%%%%%%%%%%%%%%%%%%%%%%%%%%%%%%%%%%%%%%%%%%%%%%
     %                                                                      %
     % You are using vdW-DF, which was implemented by the Thonhauser group. %
     % Please cite the following two papers that made this development      %
     % possible and the two reviews that describe the various versions:     %
     %                                                                      %
     %   T. Thonhauser et al., PRL 115, 136402 (2015).                      %
     %   T. Thonhauser et al., PRB 76, 125112 (2007).                       %
     %   K. Berland et al., Rep. Prog. Phys. 78, 066501 (2015).             %
     %   D.C. Langreth et al., J. Phys.: Condens. Matter 21, 084203 (2009). %
     %                                                                      %
     %                                                                      %
     % If you are calculating the stress with vdW-DF, please also cite:     %
     %                                                                      %
     %   R. Sabatini et al., J. Phys.: Condens. Matter 24, 424209 (2012).   %
     %                                                                      %
     %%%%%%%%%%%%%%%%%%%%%%%%%%%%%%%%%%%%%%%%%%%%%%%%%%%%%%%%%%%%%%%%%%%%%%%%

     Adding external electric field

     Computed dipole along edir(3) :
        Dipole               -5.7841 Ry au,        -14.7017 Debye
        Dipole field         -0.0073 Ry au,

        Potential amp.        0.6746 Ry
        Total length         46.3494 bohr

     Starting wfcs are  332 atomic wfcs
  @ DRIVER MODE: Message from server: STATUS
  @ DRIVER MODE: Message from server: POSDATA
  @ DRIVER MODE: Reading and sharing cell
  @ DRIVER MODE: Reading and sharing positions
  @ DRIVER MODE: Received positions

     Self-consistent Calculation

     iteration #  1     ecut=    29.40 Ry     beta= 0.05
     Davidson diagonalization with overlap
     c_bands:  1 eigenvalues not converged
     c_bands:  2 eigenvalues not converged
     c_bands:  4 eigenvalues not converged
     c_bands:  1 eigenvalues not converged
     c_bands:  1 eigenvalues not converged
     c_bands:  5 eigenvalues not converged
     c_bands:  1 eigenvalues not converged
     c_bands:  4 eigenvalues not converged
     c_bands:  4 eigenvalues not converged
     c_bands:  4 eigenvalues not converged
     ethr =  1.00E-05,  avg # of iterations = 20.0

[...]

     total energy              =   -3276.45031237 Ry
     estimated scf accuracy    <     229.07576393 Ry

     iteration #  2     ecut=    29.40 Ry     beta= 0.05
     Davidson diagonalization with overlap
     ethr =  1.00E-02,  avg # of iterations = 15.8

[...]

     iteration # 42     ecut=    29.40 Ry     beta= 0.05
     Davidson diagonalization with overlap
     c_bands:  1 eigenvalues not converged
     ethr =  2.13E-07,  avg # of iterations = 18.4

[...]

     total energy              =   -3293.24439935 Ry
     estimated scf accuracy    <       0.00000008 Ry

     iteration # 63     ecut=    29.40 Ry     beta= 0.05
     Davidson diagonalization with overlap
     ethr =  1.80E-11,  avg # of iterations =  8.8

     negative rho (up, down):  3.572E-02 0.000E+00

     Adding external electric field

     Computed dipole along edir(3) :
        Dipole                1.5611 Ry au,          3.9680 Debye
        Dipole field          0.0020 Ry au,

        Potential amp.       -0.1821 Ry
        Total length         46.3494 bohr

     End of self-consistent calculation

          k = 0.0000 0.0000 0.0000 ( 26871 PWs)   bands (ev):

   -57.7048 -57.6977 -57.6799 -57.6781 -57.6540 -57.6126 -57.5658 -57.5274
   -57.5034 -57.4998 -57.4993 -57.4950 -57.4667 -57.4566 -56.7858 -56.7259
   -56.7017 -56.6983 -34.1018 -34.0874 -34.0854 -34.0836 -34.0592 -34.0412
   -34.0356 -34.0218 -34.0166 -33.9979 -33.9651 -33.9618 -33.9518 -33.9462
   -33.9011 -33.8984 -33.8920 -33.8847 -33.8718 -33.8487 -33.8425 -33.8308
   -33.8273 -33.8216 -33.8014 -33.8001 -33.7979 -33.7809 -33.7655 -33.7434
   -33.7391 -33.7349 -33.7235 -33.7158 -33.7073 -33.6927 -33.6881 -33.6867
   -33.6836 -33.6782 -33.6720 -33.6435 -33.2418 -33.0406 -33.0404 -33.0364
   -33.0247 -33.0217 -32.9948 -32.9804 -32.9521 -32.8893 -32.8855 -32.7517
   -19.1764 -19.0131 -18.8590 -18.5630 -18.1597 -17.9925 -17.9698 -17.9519
   -17.9120 -17.8124 -17.8112 -17.6320 -17.5736 -17.5411 -17.5118 -17.5058
   -17.4348 -17.3968 -17.3814 -17.3631 -17.3568 -17.3508 -17.3336 -17.2895
   -17.2533 -17.1984 -17.1835 -17.1476 -17.1365 -17.1349 -17.1336 -17.0646
   -16.8297 -15.1923 -15.1346 -15.1330 -12.1141  -7.8985  -6.7932  -6.5401
    -6.3360  -5.8917  -5.6748  -5.6225  -5.5412  -5.1849  -5.1710  -5.1030
    -5.0910  -5.0643  -4.9977  -4.9836  -4.9798  -4.9649  -4.8832  -4.8473
    -4.8351  -4.7868  -4.7688  -4.7113  -4.6463  -4.6365  -4.5759  -4.5401
    -4.5048  -4.4992  -4.4938  -4.4852  -4.4691  -4.4353  -4.3612  -4.3106
    -4.1759  -4.1702  -4.1160  -4.0520  -4.0243  -4.0161  -3.9551  -3.8798
    -3.8376  -3.8301  -3.7890  -3.7590  -3.7237  -3.7026  -3.6772  -3.5854
    -3.4938  -3.4586  -3.4539  -3.4135  -3.3996  -3.3465  -3.2320  -3.1783
    -3.1107  -3.0489  -2.9871  -2.9637  -2.9231  -2.8689  -2.8463  -2.7959
    -2.7749  -2.7224  -2.6781  -2.6265  -2.5347  -2.4767  -2.4714  -2.4596
    -2.4033  -2.3875  -2.3733  -2.3505  -2.3254  -2.2705  -2.2376  -2.2059
    -2.1728  -2.1427  -2.0975  -2.0622  -2.0512  -1.9430  -1.9089  -1.8807
    -1.7547  -1.7299  -1.6852  -1.6544  -1.5608  -1.5463  -1.5452  -1.4304
    -1.4148  -1.0969  -1.0010  -0.7466  -0.4755  -0.4303  -0.4295  -0.1656
    -0.1629  -0.0335   0.5242   1.2666   1.5217   1.6680   1.7262   1.7434
     1.7906   1.8753   1.8919   1.9225   1.9406   1.9759

[...]

          k = 0.0380-0.0280 0.0000 ( 26873 PWs)   bands (ev):

[...]

          k =-0.0760-0.0000 0.0000 ( 26902 PWs)   bands (ev):

[...]

          k =-0.0760-0.0559 0.0000 ( 26868 PWs)   bands (ev):

   -57.6970 -57.6969 -57.6952 -57.6705 -57.6553 -57.6119 -57.5658 -57.5207
   -57.5161 -57.4994 -57.4931 -57.4930 -57.4730 -57.4529 -56.7858 -56.7188
   -56.7156 -56.6914 -34.1799 -34.1721 -34.0869 -34.0604 -34.0514 -34.0363
   -34.0311 -34.0291 -33.9974 -33.9872 -33.9537 -33.9307 -33.9037 -33.8961
   -33.8939 -33.8802 -33.8736 -33.8460 -33.8450 -33.8407 -33.8368 -33.8347
   -33.8234 -33.8127 -33.7887 -33.7873 -33.7788 -33.7773 -33.7743 -33.7652
   -33.7560 -33.7494 -33.7347 -33.7331 -33.7210 -33.7186 -33.7155 -33.7101
   -33.6933 -33.6757 -33.6692 -33.6675 -33.2482 -33.1301 -33.0406 -33.0377
   -33.0146 -32.9959 -32.9816 -32.9326 -32.9287 -32.8658 -32.8505 -32.8468
   -19.0963 -19.0884 -18.8454 -18.2567 -18.2397 -17.9265 -17.8844 -17.8358
   -17.8316 -17.8076 -17.7373 -17.7204 -17.6870 -17.6229 -17.5396 -17.5102
   -17.4837 -17.4510 -17.4374 -17.4304 -17.4206 -17.3980 -17.3565 -17.3528
   -17.3021 -17.2553 -17.2208 -17.1704 -17.1401 -17.0901 -17.0646 -17.0374
   -16.8634 -15.1905 -15.1883 -15.0716 -12.1125  -7.9015  -6.7856  -6.5639
    -6.2933  -5.5047  -5.4954  -5.4875  -5.4388  -5.1487  -5.0395  -4.9921
    -4.9881  -4.9613  -4.9040  -4.8889  -4.8765  -4.8607  -4.8494  -4.8132
    -4.8085  -4.7638  -4.7528  -4.7388  -4.6889  -4.6311  -4.6257  -4.6012
    -4.5921  -4.5180  -4.5101  -4.4600  -4.3657  -4.3218  -4.3026  -4.2976
    -4.2594  -4.2261  -4.2188  -4.1477  -3.8994  -3.8902  -3.8673  -3.8492
    -3.8115  -3.7638  -3.7341  -3.7139  -3.6542  -3.5514  -3.4272  -3.3936
    -3.3802  -3.3632  -3.3384  -3.2987  -3.2872  -3.2763  -3.2324  -3.2014
    -3.1988  -3.1560  -3.1136  -3.0240  -2.9904  -2.9330  -2.8872  -2.8451
    -2.8331  -2.8212  -2.8148  -2.7980  -2.7685  -2.7540  -2.7401  -2.7018
    -2.6845  -2.6217  -2.5682  -2.5062  -2.4844  -2.4292  -2.3578  -2.2770
    -2.2536  -2.1910  -2.0982  -2.0410  -2.0003  -1.9681  -1.9490  -1.9285
    -1.8477  -1.8237  -1.7960  -1.7825  -1.5198  -1.5167  -1.3718  -1.3383
    -1.2875  -1.2793  -1.2114  -1.0527  -0.6419  -0.3562  -0.3493  -0.3209
    -0.1653  -0.1651   0.4744   1.4378   1.5027   1.5152   1.6066   1.6135
     1.6280   1.7247   1.7659   1.7694   1.9049   1.9712

     the Fermi energy is     1.3765 ev

!    total energy              =   -3293.24442858 Ry
     estimated scf accuracy    <       0.00000002 Ry
     smearing contrib. (-TS)   =      -0.03194446 Ry
     internal energy E=F+TS    =   -3293.21248412 Ry

     The total energy is F=E-TS. E is the sum of the following terms:
     one-electron contribution =  -34434.99873250 Ry
     hartree contribution      =   17282.65903653 Ry
     xc contribution           =    -542.29400895 Ry
     ewald contribution        =   14401.41815467 Ry
     electric field correction =       0.00306613 Ry

     convergence has been achieved in  63 iterations

     Forces acting on atoms (cartesian axes, Ry/au):

     atom    1 type  1   force =     0.00085094    0.00631299    0.05754496
     atom    2 type  1   force =    -0.00003661   -0.00070622   -0.00480167
     atom    3 type  1   force =    -0.00049179   -0.00119503   -0.00099638
     atom    4 type  1   force =     0.00006932    0.00075050    0.10713422
     atom    5 type  1   force =    -0.00015474   -0.00059339    0.00931427
     atom    6 type  1   force =     0.00137067   -0.00276315    0.00350551
     atom    7 type  1   force =     0.06704523   -0.00000610   -0.02953576
     atom    8 type  1   force =     0.00334736   -0.02853401    0.00244756
     atom    9 type  1   force =     0.01231811   -0.01752723    0.00139272
     atom   10 type  2   force =     0.00006832   -0.00241551   -0.18532713
     atom   11 type  2   force =     0.00015060    0.02112469   -0.00708979
     atom   12 type  2   force =    -0.00523746    0.01496227   -0.00333263
     atom   13 type  1   force =    -0.06725948   -0.00039586   -0.02893358
     atom   14 type  1   force =    -0.00361081   -0.02911954    0.00250315
     atom   15 type  1   force =    -0.00682708   -0.01135536    0.00269440
     atom   16 type  2   force =    -0.00021726   -0.00129006    0.06486807
     atom   17 type  2   force =     0.00030171    0.03525570    0.00392783
     atom   18 type  2   force =    -0.00270731    0.02268201    0.00148047
     atom   19 type  1   force =     0.00074981    0.00409583    0.06081166
     atom   20 type  1   force =     0.00003246   -0.00008085   -0.00396321
     atom   21 type  1   force =     0.00005819   -0.00003022    0.10730724
     atom   22 type  1   force =     0.00002909   -0.00085537    0.00937139
     atom   23 type  1   force =    -0.00005699   -0.00344293    0.00455133
     atom   24 type  1   force =     0.06734332   -0.00050182   -0.02945097
     atom   25 type  1   force =     0.00347954   -0.02947375    0.00311719
     atom   26 type  1   force =     0.00654151   -0.02213770    0.00388656
     atom   27 type  2   force =    -0.00001225    0.00171399   -0.18403550
     atom   28 type  2   force =    -0.00039247    0.02140894   -0.00707916
     atom   29 type  2   force =    -0.00115720    0.02337504   -0.00325536
     atom   30 type  1   force =    -0.06753896   -0.00096321   -0.02876263
     atom   31 type  1   force =    -0.00416293   -0.02931375    0.00228132
     atom   32 type  1   force =    -0.00648816   -0.01861768   -0.00038724
     atom   33 type  2   force =    -0.00033543   -0.00092665    0.06452522
     atom   34 type  2   force =     0.00044322    0.03629639    0.00380968
     atom   35 type  2   force =     0.00236279    0.02414230    0.00262388
     atom   36 type  1   force =     0.00068526    0.00484046    0.05917338
     atom   37 type  1   force =    -0.00015183    0.00147270   -0.00768107
     atom   38 type  1   force =    -0.00035091   -0.00313146    0.00065954
     atom   39 type  1   force =     0.00010726   -0.00015320    0.10689678
     atom   40 type  1   force =     0.00007664   -0.00089492    0.00973133
     atom   41 type  1   force =     0.00078118   -0.00210565    0.00141247
     atom   42 type  1   force =     0.06759284   -0.00030125   -0.02940759
     atom   43 type  1   force =     0.00370646   -0.02888270    0.00185950
     atom   44 type  1   force =     0.00867966   -0.01704029    0.00065740
     atom   45 type  2   force =     0.00022959   -0.00245405   -0.18293815
     atom   46 type  2   force =     0.00024288    0.01986875   -0.00664952
     atom   47 type  2   force =    -0.00027705    0.02225912    0.00193031
     atom   48 type  1   force =    -0.06773859   -0.00079882   -0.02866738
     atom   49 type  1   force =    -0.00361739   -0.02860245    0.00242861
     atom   50 type  1   force =    -0.00830290   -0.01839033   -0.00150375
     atom   51 type  2   force =    -0.00036251   -0.00107701    0.06449727
     atom   52 type  2   force =    -0.00016265    0.03593298    0.00436076
     atom   53 type  2   force =    -0.00162782    0.01454131   -0.00198961
     atom   54 type  3   force =    -0.00068868   -0.00015954    0.00053213
     atom   55 type  3   force =    -0.00054203   -0.00140022    0.00157423
     atom   56 type  3   force =     0.00126495   -0.00142917   -0.00030368
     atom   57 type  4   force =     0.00054393    0.00166303    0.00166527
     atom   58 type  4   force =     0.00038762   -0.00315760   -0.00090673
     atom   59 type  3   force =    -0.00035116   -0.00047495    0.00052091

     Total force =     0.455633     Total SCF correction =     0.000370
  @ DRIVER MODE: Message from server: STATUS
  @ DRIVER MODE: Message from server: GETFORCE
  @ DRIVER MODE: Returning v,forces,stress,ensemble

     Writing output data file ./calc.save/
  @ DRIVER MODE: Message from server: EXIT
  @ DRIVE MODE: Exiting

     General routines

     Parallel routines

   This run was terminated on:  16:47: 7  18Oct2021

   JOB DONE.