     Program PWSCF v.6.7GPU starts on 12Oct2021 at  9:53:33

     R & G space division:  proc/nbgrp/npool/nimage =       8
     Reading input from /storage/home/hcoda1/3/ntian30/research/carbon/ACS_vib/ads_slab/N2/out_0003/pw.inp
Warning: card &CELL ignored
Warning: card   CELL_DYNAMICS='IPI', ignored
Warning: card / ignored

     Current dimensions of program PWSCF are:
     Max number of different atomic species (ntypx) = 10
     Max number of k-points (npk) =  40000
     Max angular momentum in pseudopotentials (lmaxx) =  3
     Presently no symmetry can be used with electric field

     Message from routine cell_base_init:
     DEPRECATED: use true lattice parameter, not A to a.u. conversion factor

     IMPORTANT: XC functional enforced from input :
     Exchange-correlation= BEEF-VDW
                           (   1   4  43  14   2   0   0)
     Any further DFT definition will be discarded
     Please, verify this is what you really want

  @ DRIVER MODE: Connecting to
 qe_1139763_3181313.sched-torque.pace.gatech.edu42dpo6fa_scratch
  using UNIX socket
  @ DRIVER MODE: Message from server: STATUS
  @ DRIVER MODE: Message from server: INIT
  @ DRIVER MODE: Receiving replica           0          -1
  @ DRIVER MODE: Receiving encoded integer          25
  @ DRIVER MODE:  SCF:  T  FORCE:  T  STRESS:  F  VC:  F  ENSEMBLE:  F
  @ DRIVER MODE:  SCF:  T  FORCE:  T  STRESS:  F  VC:  F  ENSEMBLE:  F

     Using Slab Decomposition

     bravais-lattice index     =            0
     lattice parameter (alat)  =       1.8897  a.u.
     unit-cell volume          =    6658.9804 (a.u.)^3
     number of atoms/cell      =           49
     number of atomic types    =            3
     number of electrons       =       388.00
     number of Kohn-Sham states=          204
     kinetic-energy cutoff     =      29.3995  Ry
     charge density cutoff     =     293.9946  Ry
     scf convergence threshold =      7.3E-08
     mixing beta               =       0.0500
     number of iterations used =            8  plain     mixing
     Exchange-correlation= BEEF-VDW
                           (   1   4  43  14   2   0   0)

     celldm(1)=   1.889726  celldm(2)=   0.000000  celldm(3)=   0.000000
     celldm(4)=   0.000000  celldm(5)=   0.000000  celldm(6)=   0.000000

     crystal axes: (cart. coord. in units of alat)
               a(1) = (   6.579727   0.000000   0.000000 )
               a(2) = (  -0.000775   5.961596   0.000000 )
               a(3) = (   0.000000   0.000000  25.155947 )

     reciprocal axes: (cart. coord. in units 2 pi/alat)
               b(1) = (  0.151982  0.000020  0.000000 )
               b(2) = (  0.000000  0.167740  0.000000 )
               b(3) = (  0.000000  0.000000  0.039752 )

     PseudoPot. # 1 for Ti read from file:
     /storage/coda1/p-amedford6/0/shared/rich_project_chbe-medford/medford-share/data/pseudos_module/espresso/nninc/pbe/van/Ti.UPF
     MD5 check sum: 8e4df49b7f0d34bbd5052bf3f5ea0213
     Pseudo is Ultrasoft, Zval = 12.0
     Generated by new atomic code, or converted to UPF format
     Using radial grid of  851 points,  6 beta functions with:
                l(1) =   0
                l(2) =   0
                l(3) =   1
                l(4) =   1
                l(5) =   2
                l(6) =   2
     Q(r) pseudized with  8 coefficients,  rinner =    1.000   1.000   1.000
                                                       1.000   1.000

     PseudoPot. # 2 for O  read from file:
     /storage/coda1/p-amedford6/0/shared/rich_project_chbe-medford/medford-share/data/pseudos_module/espresso/nninc/pbe/van/O.UPF
     MD5 check sum: 78c19812648e8988a0fe644b0f25305e
     Pseudo is Ultrasoft, Zval =  6.0
     Generated by new atomic code, or converted to UPF format
     Using radial grid of  737 points,  4 beta functions with:
                l(1) =   0
                l(2) =   0
                l(3) =   1
                l(4) =   1
     Q(r) pseudized with  8 coefficients,  rinner =    0.800   0.800   0.800

     PseudoPot. # 3 for N  read from file:
     /storage/coda1/p-amedford6/0/shared/rich_project_chbe-medford/medford-share/data/pseudos_module/espresso/nninc/pbe/van/N.UPF
     MD5 check sum: 90d10febe142ad51ac9d5be1deb811c4
     Pseudo is Ultrasoft, Zval =  5.0
     Generated by new atomic code, or converted to UPF format
     Using radial grid of  729 points,  4 beta functions with:
                l(1) =   0
                l(2) =   0
                l(3) =   1
                l(4) =   1
     Q(r) pseudized with  8 coefficients,  rinner =    0.800   0.800   0.800

     atomic species   valence    mass     pseudopotential
        Ti1           12.00    47.86700     Ti( 1.00)
        O1             6.00    15.99900     O ( 1.00)
        N1             5.00    14.00700     N ( 1.00)

     No symmetry found

   Cartesian axes

     site n.     atom                  positions (alat units)
         1           Ti1 tau(   1) = (   0.0004258   2.9801865   6.0000000  )
         2           Ti1 tau(   2) = (   3.2906075   1.4906267   6.0002472  )
         3           O1  tau(   3) = (   0.0006271   0.0005054   7.9858123  )
         4           O1  tau(   4) = (   3.2906025   0.0005020   7.3038282  )
         5           O1  tau(   5) = (   4.5942328   1.4918067   9.2879030  )
         6           O1  tau(   6) = (   1.9868534   1.4903216   9.2879459  )
         7           Ti1 tau(   7) = (   3.2908115   2.9770768   9.1558106  )
         8           Ti1 tau(   8) = (   0.0014744   1.4899521   9.2574773  )
         9           O1  tau(   9) = (   3.2881910   5.9516080  11.3945402  )
        10           O1  tau(  10) = (  -0.0003163   5.9583821  10.6097302  )
        11           O1  tau(  11) = (   1.2852796   1.4845524  12.6702349  )
        12           O1  tau(  12) = (   5.2939406   1.4843235  12.6686536  )
        13           Ti1 tau(  13) = (   6.5787960   2.9666663  12.5005329  )
        14           Ti1 tau(  14) = (   3.2867911   1.4810929  12.5380613  )
        15           O1  tau(  15) = (   6.5784438   5.9555467  14.6881035  )
        16           O1  tau(  16) = (   3.2900815   5.9490801  14.0192640  )
        17           O1  tau(  17) = (   4.5550846   1.4910540  16.1905095  )
        18           O1  tau(  18) = (   2.0267255   1.4911840  16.1885357  )
        19           Ti1 tau(  19) = (   3.2920947   2.9632608  15.7783766  )
        20           Ti1 tau(  20) = (   0.0012713   1.3437142  15.9485351  )
        21           O1  tau(  21) = (   3.2904802   0.0005063   4.7018136  )
        22           O1  tau(  22) = (   0.0010154   5.9436293  17.2207844  )
        23           O1  tau(  23) = (   1.3043587   1.4918075   6.0039043  )
        24           O1  tau(  24) = (   5.2767064   1.4903225   6.0039473  )
        25           Ti1 tau(  25) = (   0.0000382   5.9609847   6.0000000  )
        26           Ti1 tau(  26) = (   3.2902200   4.4714249   6.0002472  )
        27           O1  tau(  27) = (   0.0002396   2.9813036   7.9858123  )
        28           O1  tau(  28) = (   3.2902150   2.9813002   7.3038282  )
        29           O1  tau(  29) = (   4.5938453   4.4726049   9.2879030  )
        30           O1  tau(  30) = (   1.9864658   4.4711199   9.2879459  )
        31           Ti1 tau(  31) = (   3.2904075   5.9576890   9.1543145  )
        32           Ti1 tau(  32) = (   0.0010733   4.4688904   9.2576998  )
        33           O1  tau(  33) = (   3.2885442   2.9721716  11.3880939  )
        34           O1  tau(  34) = (   0.0004144   2.9779705  10.6294865  )
        35           O1  tau(  35) = (   1.2846651   4.4573380  12.6727508  )
        36           O1  tau(  36) = (   5.2936233   4.4572296  12.6712295  )
        37           Ti1 tau(  37) = (   6.5756527   5.9477167  12.4782878  )
        38           Ti1 tau(  38) = (   3.2865705   4.4596354  12.5399379  )
        39           O1  tau(  39) = (   6.5788522   2.9667014  14.9890502  )
        40           O1  tau(  40) = (   3.2903707   2.9673551  13.9858356  )
        41           O1  tau(  41) = (   4.5543970   4.4428783  16.1860255  )
        42           O1  tau(  42) = (   2.0267162   4.4429101  16.1842223  )
        43           Ti1 tau(  43) = (   3.2900514   5.9435888  15.8195923  )
        44           Ti1 tau(  44) = (   0.0007397   4.6011056  15.9424949  )
        45           O1  tau(  45) = (   3.2900926   2.9813045   4.7018136  )
        46           O1  tau(  46) = (   1.3039711   4.4726057   6.0039043  )
        47           O1  tau(  47) = (   5.2763189   4.4711207   6.0039473  )
        48           N1  tau(  48) = (   0.1199037   2.9087272  19.5607373  )
        49           N1  tau(  49) = (   0.0588536   2.9354595  18.4591164  )

     number of k points=    10  Fermi-Dirac smearing, width (Ry)=  0.0073
                       cart. coord. in units 2pi/alat
        k(    1) = (   0.0000000   0.0000000   0.0000000), wk =   0.1250000
        k(    2) = (   0.0000000   0.0419351   0.0000000), wk =   0.2500000
        k(    3) = (   0.0000000  -0.0838702   0.0000000), wk =   0.1250000
        k(    4) = (   0.0379955   0.0000049   0.0000000), wk =   0.2500000
        k(    5) = (   0.0379955   0.0419400   0.0000000), wk =   0.2500000
        k(    6) = (   0.0379955  -0.0838652   0.0000000), wk =   0.2500000
        k(    7) = (   0.0379955  -0.0419301   0.0000000), wk =   0.2500000
        k(    8) = (  -0.0759910  -0.0000099   0.0000000), wk =   0.1250000
        k(    9) = (  -0.0759910   0.0419252   0.0000000), wk =   0.2500000
        k(   10) = (  -0.0759910  -0.0838800   0.0000000), wk =   0.1250000

     Initial potential from superposition of free atoms

     starting charge  371.99923, renormalised to  388.00000

     negative rho (up, down):  1.868E-02 0.000E+00

     %%%%%%%%%%%%%%%%%%%%%%%%%%%%%%%%%%%%%%%%%%%%%%%%%%%%%%%%%%%%%%%%%%%%%%%%
     %                                                                      %
     % You are using vdW-DF, which was implemented by the Thonhauser group. %
     % Please cite the following two papers that made this development      %
     % possible and the two reviews that describe the various versions:     %
     %                                                                      %
     %   T. Thonhauser et al., PRL 115, 136402 (2015).                      %
     %   T. Thonhauser et al., PRB 76, 125112 (2007).                       %
     %   K. Berland et al., Rep. Prog. Phys. 78, 066501 (2015).             %
     %   D.C. Langreth et al., J. Phys.: Condens. Matter 21, 084203 (2009). %
     %                                                                      %
     %                                                                      %
     % If you are calculating the stress with vdW-DF, please also cite:     %
     %                                                                      %
     %   R. Sabatini et al., J. Phys.: Condens. Matter 24, 424209 (2012).   %
     %                                                                      %
     %%%%%%%%%%%%%%%%%%%%%%%%%%%%%%%%%%%%%%%%%%%%%%%%%%%%%%%%%%%%%%%%%%%%%%%%

     Adding external electric field

     Computed dipole along edir(3) :
        Dipole               -5.4531 Ry au,        -13.8604 Debye
        Dipole field         -0.0103 Ry au,

        Potential amp.        0.9539 Ry
        Total length         46.3494 bohr

     Starting wfcs are  292 atomic wfcs
  @ DRIVER MODE: Message from server: STATUS
  @ DRIVER MODE: Message from server: POSDATA
  @ DRIVER MODE: Reading and sharing cell
  @ DRIVER MODE: Reading and sharing positions
  @ DRIVER MODE: Received positions

     Self-consistent Calculation

     iteration #  1     ecut=    29.40 Ry     beta= 0.05
     Davidson diagonalization with overlap
     c_bands:  3 eigenvalues not converged
     c_bands:  2 eigenvalues not converged
     c_bands:  2 eigenvalues not converged
     c_bands:  1 eigenvalues not converged
     c_bands:  3 eigenvalues not converged
     c_bands:  2 eigenvalues not converged
     c_bands:  4 eigenvalues not converged
     c_bands:  1 eigenvalues not converged
     ethr =  1.00E-05,  avg # of iterations = 21.4

[...]

     total energy              =   -2822.48367015 Ry
     estimated scf accuracy    <    1128.78016173 Ry

     iteration #  2     ecut=    29.40 Ry     beta= 0.05
     Davidson diagonalization with overlap
     ethr =  1.00E-02,  avg # of iterations = 17.0

[...]

     iteration # 63     ecut=    29.40 Ry     beta= 0.05
     Davidson diagonalization with overlap
     c_bands:  1 eigenvalues not converged
     c_bands:  1 eigenvalues not converged
     ethr =  9.27E-11,  avg # of iterations = 15.5

[...]

     total energy              =   -2924.04889181 Ry
     estimated scf accuracy    <       0.00000030 Ry

     iteration # 64     ecut=    29.40 Ry     beta= 0.05
     Davidson diagonalization with overlap
     ethr =  7.83E-11,  avg # of iterations =  7.4

     negative rho (up, down):  1.840E-02 0.000E+00

     Adding external electric field

     Computed dipole along edir(3) :
        Dipole                0.7007 Ry au,          1.7810 Debye
        Dipole field          0.0013 Ry au,

        Potential amp.       -0.1226 Ry
        Total length         46.3494 bohr

     End of self-consistent calculation

          k = 0.0000 0.0000 0.0000 ( 18029 PWs)   bands (ev):

   -55.9036 -55.8677 -55.8576 -55.8234 -55.7867 -55.7761 -55.7416 -55.7412
   -55.7295 -55.7074 -55.7051 -55.6841 -55.6677 -55.6502 -54.9685 -54.9344
   -32.4676 -32.4140 -32.3588 -32.2616 -32.2144 -32.2113 -32.2091 -32.1972
   -32.1477 -32.1362 -32.1105 -32.1041 -32.1026 -32.0758 -32.0705 -32.0537
   -32.0397 -32.0374 -32.0317 -32.0182 -32.0095 -32.0058 -32.0028 -32.0011
   -31.9792 -31.9729 -31.9553 -31.9132 -31.9067 -31.8997 -31.8930 -31.8878
   -31.8794 -31.8777 -31.8763 -31.8704 -31.8610 -31.8389 -31.8277 -31.8168
   -31.7988 -31.7452 -31.3813 -31.2769 -31.2555 -31.1974 -31.1110 -31.0001
   -21.8209 -16.7342 -16.5012 -16.3634 -16.2354 -16.1298 -16.0208 -15.9218
   -15.8550 -15.7835 -15.6287 -15.5970 -15.5674 -15.5317 -15.5109 -15.5054
   -15.4956 -15.4605 -15.4386 -15.4144 -15.4127 -15.3962 -15.3824 -15.3498
   -15.2961 -15.2142 -15.1355 -15.0657 -15.0074 -14.6777 -13.4694 -13.3496
    -7.2614  -4.9650  -4.9580  -4.0698  -4.0209  -3.9168  -3.8390  -3.8253
    -3.7313  -3.6694  -3.4648  -3.3886  -3.3517  -3.2011  -3.1583  -3.1014
    -3.0511  -2.9624  -2.8980  -2.8909  -2.8017  -2.7782  -2.7764  -2.7668
    -2.6771  -2.6644  -2.6285  -2.6210  -2.5941  -2.4997  -2.3758  -2.3403
    -2.2854  -2.2843  -2.2622  -2.2486  -2.2236  -2.1838  -2.1609  -2.1518
    -2.1003  -2.0885  -1.9473  -1.8034  -1.7687  -1.6928  -1.6073  -1.5140
    -1.4642  -1.4232  -1.3634  -1.3589  -1.3121  -1.2841  -1.2482  -1.1639
    -1.0737  -1.0331  -0.9377  -0.9210  -0.8486  -0.8116  -0.7579  -0.6986
    -0.6965  -0.6567  -0.5614  -0.5270  -0.4093  -0.3995  -0.3856  -0.3658
    -0.3018  -0.2488  -0.1433  -0.1147  -0.1129  -0.1035   0.0045   0.0325
     0.0345   0.0478   0.0589   0.1223   0.1912   0.2314   0.2741   0.4215
     0.6456   0.6489   0.7089   0.9419   1.0199   1.0576   1.2148   1.6438
     1.6978   3.1918   3.2585   3.2893   3.3222   3.3571   3.3988   3.6877
     3.7035   3.7301   3.7467   3.7669

[...]

          k = 0.0380-0.0419 0.0000 ( 17876 PWs)   bands (ev):

[...]

          k =-0.0760-0.0000 0.0000 ( 17886 PWs)   bands (ev):

[...]

          k =-0.0760-0.0839 0.0000 ( 17948 PWs)   bands (ev):

   -55.8858 -55.8853 -55.8411 -55.8398 -55.7828 -55.7618 -55.7555 -55.7256
   -55.7231 -55.7230 -55.7087 -55.6742 -55.6673 -55.6671 -54.9514 -54.9513
   -32.3391 -32.2717 -32.2708 -32.1774 -32.1742 -32.1729 -32.1573 -32.1340
   -32.1320 -32.1037 -32.1022 -32.0999 -32.0927 -32.0503 -32.0442 -32.0429
   -32.0403 -32.0388 -32.0286 -32.0239 -32.0228 -32.0107 -32.0007 -31.9881
   -31.9834 -31.9833 -31.9809 -31.9789 -31.9592 -31.9583 -31.9553 -31.9477
   -31.9214 -31.9199 -31.9044 -31.8960 -31.8957 -31.8907 -31.8762 -31.8532
   -31.8523 -31.8468 -31.2681 -31.2681 -31.1940 -31.1938 -31.1542 -31.1542
   -21.8208 -16.4113 -16.1046 -16.0644 -15.9500 -15.9449 -15.8638 -15.8482
   -15.7422 -15.6970 -15.6867 -15.6856 -15.6246 -15.6220 -15.6022 -15.5907
   -15.5175 -15.5064 -15.4824 -15.4790 -15.4219 -15.4177 -15.4163 -15.4121
   -15.3744 -15.3739 -15.3382 -15.3351 -15.2157 -15.0487 -13.4506 -13.4505
    -7.2657  -4.9610  -4.9600  -3.9859  -3.4414  -3.3771  -3.3229  -3.1716
    -3.0942  -3.0832  -3.0376  -3.0081  -2.9346  -2.8989  -2.8984  -2.8165
    -2.8068  -2.8014  -2.8000  -2.7324  -2.7191  -2.6891  -2.6731  -2.6210
    -2.6206  -2.5985  -2.5948  -2.5796  -2.5706  -2.5516  -2.5453  -2.5160
    -2.4859  -2.4311  -2.4231  -2.2836  -2.2727  -2.2175  -2.1426  -2.1395
    -2.0575  -2.0428  -2.0065  -1.9752  -1.9100  -1.8947  -1.7255  -1.7047
    -1.7011  -1.6404  -1.5529  -1.5300  -1.4821  -1.4630  -1.4113  -1.3570
    -1.2535  -1.2271  -1.2070  -1.1002  -1.0925  -1.0281  -0.9423  -0.9011
    -0.8992  -0.8946  -0.8711  -0.8510  -0.8490  -0.7471  -0.6965  -0.6489
    -0.6380  -0.6254  -0.4248  -0.3686  -0.3412  -0.2346  -0.1916   0.0045
     0.0122   0.0393   0.1550   0.1558   0.1614   0.2213   0.3479   0.3530
     0.4232   0.4647   0.4927   0.5161   0.5183   1.4067   1.4077   1.5149
     1.5154   3.3525   3.4340   3.4513   3.5083   3.6378   3.6453   3.7002
     3.7388   3.7471   3.7476   3.8337

     the Fermi energy is     3.2561 ev

!    total energy              =   -2924.04891652 Ry
     estimated scf accuracy    <       0.00000007 Ry
     smearing contrib. (-TS)   =      -0.03676909 Ry
     internal energy E=F+TS    =   -2924.01214743 Ry

     The total energy is F=E-TS. E is the sum of the following terms:
     one-electron contribution =  -24117.08702591 Ry
     hartree contribution      =   12140.96991837 Ry
     xc contribution           =    -479.17604603 Ry
     ewald contribution        =    9531.28007964 Ry
     electric field correction =       0.00092650 Ry

     convergence has been achieved in  64 iterations

     Forces acting on atoms (cartesian axes, Ry/au):

     atom    1 type  1   force =     0.00004890    0.00003944    0.09032605
     atom    2 type  1   force =    -0.00002382    0.00037515   -0.18444544
     atom    3 type  2   force =     0.00007446   -0.00046058   -0.02386602
     atom    4 type  2   force =     0.00001924   -0.00009142    0.05159958
     atom    5 type  2   force =    -0.01360654   -0.00063808    0.00575360
     atom    6 type  2   force =     0.01347952   -0.00016149    0.00566008
     atom    7 type  1   force =     0.00011316   -0.00003374    0.00098587
     atom    8 type  1   force =     0.00001599    0.00011353    0.00022512
     atom    9 type  2   force =     0.00006022    0.00011433   -0.00044229
     atom   10 type  2   force =    -0.00000080    0.00007882    0.00076504
     atom   11 type  2   force =    -0.00002133    0.00023036    0.00000223
     atom   12 type  2   force =     0.00000528    0.00023308    0.00008397
     atom   13 type  1   force =     0.00002927    0.00028911   -0.00057664
     atom   14 type  1   force =    -0.00005953    0.00013687   -0.00109875
     atom   15 type  2   force =     0.00008911   -0.00037362   -0.00037938
     atom   16 type  2   force =    -0.00005273    0.00022098   -0.00019215
     atom   17 type  2   force =    -0.00015113   -0.00014808    0.00016015
     atom   18 type  2   force =     0.00023538   -0.00019654    0.00021036
     atom   19 type  1   force =     0.00012502    0.00006932    0.00062882
     atom   20 type  1   force =    -0.00006119    0.00007991    0.00166255
     atom   21 type  2   force =     0.00006924    0.00014455    0.10521876
     atom   22 type  2   force =     0.00001528    0.00011130   -0.00097629
     atom   23 type  2   force =    -0.06754726   -0.00012744   -0.02614958
     atom   24 type  2   force =     0.06747048    0.00031084   -0.02619179
     atom   25 type  1   force =     0.00007134    0.00005086    0.09060988
     atom   26 type  1   force =    -0.00008402   -0.00033274   -0.18439087
     atom   27 type  2   force =     0.00006438   -0.00049206   -0.02267808
     atom   28 type  2   force =     0.00002325   -0.00008712    0.05142669
     atom   29 type  2   force =    -0.01361791   -0.00058238    0.00568670
     atom   30 type  2   force =     0.01348218   -0.00006831    0.00559952
     atom   31 type  1   force =     0.00008367    0.00008500    0.00082358
     atom   32 type  1   force =     0.00001620   -0.00002838    0.00017016
     atom   33 type  2   force =     0.00006861   -0.00006195   -0.00003025
     atom   34 type  2   force =    -0.00000854   -0.00003701   -0.00001946
     atom   35 type  2   force =    -0.00010770   -0.00000075   -0.00004209
     atom   36 type  2   force =     0.00012383   -0.00000355    0.00002491
     atom   37 type  1   force =     0.00007890    0.00011423    0.00089011
     atom   38 type  1   force =    -0.00006052   -0.00015647   -0.00127578
     atom   39 type  2   force =     0.00009874    0.00029670   -0.00002210
     atom   40 type  2   force =     0.00004500    0.00000429    0.00015708
     atom   41 type  2   force =     0.00008850    0.00003888    0.00015990
     atom   42 type  2   force =    -0.00001542    0.00001478    0.00022069
     atom   43 type  1   force =     0.00003325    0.00045029    0.00082174
     atom   44 type  1   force =    -0.00009233   -0.00018542    0.00161733
     atom   45 type  2   force =     0.00006463    0.00013577    0.10517545
     atom   46 type  2   force =    -0.06755515   -0.00018506   -0.02614727
     atom   47 type  2   force =     0.06747584    0.00024555   -0.02619256
     atom   48 type  3   force =    -0.00021349    0.00064214   -0.00094928
     atom   49 type  3   force =    -0.00038946   -0.00017389   -0.00059986

     Total force =     0.367105     Total SCF correction =     0.000864
  @ DRIVER MODE: Message from server: STATUS
  @ DRIVER MODE: Message from server: GETFORCE
  @ DRIVER MODE: Returning v,forces,stress,ensemble

     Writing output data file ./calc.save/
  @ DRIVER MODE: Message from server: EXIT
  @ DRIVE MODE: Exiting

     General routines

     Parallel routines

   This run was terminated on:  10:15:13  12Oct2021

   JOB DONE.