     Program PWSCF v.6.7GPU starts on  2Aug2021 at 13: 3:49

     R & G space division:  proc/nbgrp/npool/nimage =      16
     Reading input from /storage/home/hcoda1/3/ntian30/research/carbon/02Aug_vib_paired/ads_slab/CH3NH_a/out_0004/pw.inp
Warning: card &CELL ignored
Warning: card   CELL_DYNAMICS='IPI', ignored
Warning: card / ignored

     Current dimensions of program PWSCF are:
     Max number of different atomic species (ntypx) = 10
     Max number of k-points (npk) =  40000
     Max angular momentum in pseudopotentials (lmaxx) =  3
     Presently no symmetry can be used with electric field

     Message from routine cell_base_init:
     DEPRECATED: use true lattice parameter, not A to a.u. conversion factor

     IMPORTANT: XC functional enforced from input :
     Exchange-correlation= BEEF-VDW
                           (   1   4  43  14   2   0   0)
     Any further DFT definition will be discarded
     Please, verify this is what you really want

  @ DRIVER MODE: Connecting to
 qe_1139763_2482540.sched-torque.pace.gatech.edu5zo18isk_scratch
  using UNIX socket
  @ DRIVER MODE: Message from server: STATUS
  @ DRIVER MODE: Message from server: INIT
  @ DRIVER MODE: Receiving replica           0          -1
  @ DRIVER MODE: Receiving encoded integer          25
  @ DRIVER MODE:  SCF:  T  FORCE:  T  STRESS:  F  VC:  F  ENSEMBLE:  F
  @ DRIVER MODE:  SCF:  T  FORCE:  T  STRESS:  F  VC:  F  ENSEMBLE:  F

     Using Slab Decomposition

     bravais-lattice index     =            0
     lattice parameter (alat)  =       1.8897  a.u.
     unit-cell volume          =    6658.9804 (a.u.)^3
     number of atoms/cell      =           53
     number of atomic types    =            5
     number of electrons       =       391.00
     number of Kohn-Sham states=          205
     kinetic-energy cutoff     =      29.3995  Ry
     charge density cutoff     =     293.9946  Ry
     scf convergence threshold =      7.3E-08
     mixing beta               =       0.0500
     number of iterations used =            8  plain     mixing
     Exchange-correlation= BEEF-VDW
                           (   1   4  43  14   2   0   0)

     celldm(1)=   1.889726  celldm(2)=   0.000000  celldm(3)=   0.000000
     celldm(4)=   0.000000  celldm(5)=   0.000000  celldm(6)=   0.000000

     crystal axes: (cart. coord. in units of alat)
               a(1) = (   6.579727   0.000000   0.000000 )
               a(2) = (  -0.000775   5.961596   0.000000 )
               a(3) = (   0.000000   0.000000  25.155947 )

     reciprocal axes: (cart. coord. in units 2 pi/alat)
               b(1) = (  0.151982  0.000020  0.000000 )
               b(2) = (  0.000000  0.167740  0.000000 )
               b(3) = (  0.000000  0.000000  0.039752 )

     PseudoPot. # 1 for Ti read from file:
     /storage/coda1/p-amedford6/0/shared/rich_project_chbe-medford/medford-share/data/pseudos_module/espresso/nninc/pbe/van/Ti.UPF
     MD5 check sum: 8e4df49b7f0d34bbd5052bf3f5ea0213
     Pseudo is Ultrasoft, Zval = 12.0
     Generated by new atomic code, or converted to UPF format
     Using radial grid of  851 points,  6 beta functions with:
                l(1) =   0
                l(2) =   0
                l(3) =   1
                l(4) =   1
                l(5) =   2
                l(6) =   2
     Q(r) pseudized with  8 coefficients,  rinner =    1.000   1.000   1.000
                                                       1.000   1.000

     PseudoPot. # 2 for O  read from file:
     /storage/coda1/p-amedford6/0/shared/rich_project_chbe-medford/medford-share/data/pseudos_module/espresso/nninc/pbe/van/O.UPF
     MD5 check sum: 78c19812648e8988a0fe644b0f25305e
     Pseudo is Ultrasoft, Zval =  6.0
     Generated by new atomic code, or converted to UPF format
     Using radial grid of  737 points,  4 beta functions with:
                l(1) =   0
                l(2) =   0
                l(3) =   1
                l(4) =   1
     Q(r) pseudized with  8 coefficients,  rinner =    0.800   0.800   0.800

     PseudoPot. # 3 for H  read from file:
     /storage/coda1/p-amedford6/0/shared/rich_project_chbe-medford/medford-share/data/pseudos_module/espresso/nninc/pbe/van/H.UPF
     MD5 check sum: b5ee9d7bfd3a09ee7748110bda690ff7
     Pseudo is Ultrasoft, Zval =  1.0
     Generated by new atomic code, or converted to UPF format
     Using radial grid of  615 points,  1 beta functions with:
                l(1) =   0
     Q(r) pseudized with  8 coefficients,  rinner =    0.800

     PseudoPot. # 4 for N  read from file:
     /storage/coda1/p-amedford6/0/shared/rich_project_chbe-medford/medford-share/data/pseudos_module/espresso/nninc/pbe/van/N.UPF
     MD5 check sum: 90d10febe142ad51ac9d5be1deb811c4
     Pseudo is Ultrasoft, Zval =  5.0
     Generated by new atomic code, or converted to UPF format
     Using radial grid of  729 points,  4 beta functions with:
                l(1) =   0
                l(2) =   0
                l(3) =   1
                l(4) =   1
     Q(r) pseudized with  8 coefficients,  rinner =    0.800   0.800   0.800

     PseudoPot. # 5 for C  read from file:
     /storage/coda1/p-amedford6/0/shared/rich_project_chbe-medford/medford-share/data/pseudos_module/espresso/nninc/pbe/van/C.UPF
     MD5 check sum: 1a69bf6b8db32088f5b2163dbdb77a27
     Pseudo is Ultrasoft, Zval =  4.0
     Generated by new atomic code, or converted to UPF format
     Using radial grid of  721 points,  4 beta functions with:
                l(1) =   0
                l(2) =   0
                l(3) =   1
                l(4) =   1
     Q(r) pseudized with  8 coefficients,  rinner =    0.800   0.800   0.800

     atomic species   valence    mass     pseudopotential
        Ti1           12.00    47.86700     Ti( 1.00)
        O1             6.00    15.99900     O ( 1.00)
        H1             1.00     1.00800     H ( 1.00)
        N1             5.00    14.00700     N ( 1.00)
        C1             4.00    12.01100     C ( 1.00)

     No symmetry found

   Cartesian axes

     site n.     atom                  positions (alat units)
         1           Ti1 tau(   1) = (   0.0004258   2.9801865   6.0000000  )
         2           Ti1 tau(   2) = (   3.2906075   1.4906267   6.0002472  )
         3           O1  tau(   3) = (   0.0006271   0.0005054   7.9858123  )
         4           O1  tau(   4) = (   3.2906025   0.0005020   7.3038282  )
         5           O1  tau(   5) = (   4.5942328   1.4918067   9.2879030  )
         6           O1  tau(   6) = (   1.9868534   1.4903216   9.2879459  )
         7           Ti1 tau(   7) = (   3.2907910   2.8959150   9.1758416  )
         8           Ti1 tau(   8) = (   0.0015273   1.4827037   9.2680791  )
         9           O1  tau(   9) = (   3.2884659   0.0075485  11.3235732  )
        10           O1  tau(  10) = (   0.0116148   5.9584955  10.6183126  )
        11           O1  tau(  11) = (   1.3171120   1.5008813  12.6157184  )
        12           O1  tau(  12) = (   5.2946386   1.4924346  12.6071097  )
        13           Ti1 tau(  13) = (   6.5241923   2.9548932  12.6217359  )
        14           Ti1 tau(  14) = (   3.2094326   1.4975571  12.4685497  )
        15           O1  tau(  15) = (   6.5712017   0.0435206  14.6415704  )
        16           O1  tau(  16) = (   3.3105969   0.0188825  13.9167609  )
        17           O1  tau(  17) = (   4.5276945   1.5520673  16.0775932  )
        18           O1  tau(  18) = (   2.0451199   1.5488911  16.0433559  )
        19           Ti1 tau(  19) = (   3.3056363   3.0248959  15.6834923  )
        20           Ti1 tau(  20) = (   0.0598299   1.5678558  15.8702049  )
        21           O1  tau(  21) = (   3.2904802   0.0005063   4.7018136  )
        22           O1  tau(  22) = (   0.0261329   0.0581799  17.1997403  )
        23           O1  tau(  23) = (   1.3043587   1.4918075   6.0039043  )
        24           O1  tau(  24) = (   5.2767064   1.4903225   6.0039473  )
        25           Ti1 tau(  25) = (   0.0000382   5.9609847   6.0000000  )
        26           Ti1 tau(  26) = (   3.2902200   4.4714249   6.0002472  )
        27           O1  tau(  27) = (   0.0002396   2.9813036   7.9858123  )
        28           O1  tau(  28) = (   3.2902150   2.9813002   7.3038282  )
        29           O1  tau(  29) = (   4.5938453   4.4726049   9.2879030  )
        30           O1  tau(  30) = (   1.9864658   4.4711199   9.2879459  )
        31           Ti1 tau(  31) = (   3.2891106   5.8743827   9.1763621  )
        32           Ti1 tau(  32) = (   0.0006254   4.4649316   9.2693709  )
        33           O1  tau(  33) = (   3.2900467   2.9919642  11.3219399  )
        34           O1  tau(  34) = (   0.0092240   2.9805883  10.6323155  )
        35           O1  tau(  35) = (   1.3109590   4.4888342  12.6262493  )
        36           O1  tau(  36) = (   5.2962169   4.4808628  12.6191006  )
        37           Ti1 tau(  37) = (   6.5213093   5.9327278  12.5667326  )
        38           Ti1 tau(  38) = (   3.2063601   4.4772876  12.4706241  )
        39           O1  tau(  39) = (   6.5765807   2.9606619  14.6437028  )
        40           O1  tau(  40) = (   3.3047873   3.0036736  13.8926904  )
        41           O1  tau(  41) = (   4.5386289   4.5058657  16.0833063  )
        42           O1  tau(  42) = (   2.0584685   4.5123608  16.0729366  )
        43           Ti1 tau(  43) = (   3.3398093   0.0384087  15.7085799  )
        44           Ti1 tau(  44) = (   0.0478225   4.6849499  16.0879628  )
        45           O1  tau(  45) = (   3.2900926   2.9813045   4.7018136  )
        46           O1  tau(  46) = (   1.3039711   4.4726057   6.0039043  )
        47           O1  tau(  47) = (   5.2763189   4.4711207   6.0039473  )
        48           H1  tau(  48) = (   5.6109407   3.0012845  17.7881963  )
        49           N1  tau(  49) = (   6.5652763   3.0051276  17.4431066  )
        50           C1  tau(  50) = (   0.8863280   2.9891452  18.6126320  )
        51           H1  tau(  51) = (   1.3596840   3.9617220  18.7724638  )
        52           H1  tau(  52) = (   0.3315535   2.7344040  19.5171108  )
        53           H1  tau(  53) = (   1.6705027   2.2407838  18.4910999  )

     number of k points=    10  Fermi-Dirac smearing, width (Ry)=  0.0073
                       cart. coord. in units 2pi/alat
        k(    1) = (   0.0000000   0.0000000   0.0000000), wk =   0.1250000
        k(    2) = (   0.0000000   0.0419351   0.0000000), wk =   0.2500000
        k(    3) = (   0.0000000  -0.0838702   0.0000000), wk =   0.1250000
        k(    4) = (   0.0379955   0.0000049   0.0000000), wk =   0.2500000
        k(    5) = (   0.0379955   0.0419400   0.0000000), wk =   0.2500000
        k(    6) = (   0.0379955  -0.0838652   0.0000000), wk =   0.2500000
        k(    7) = (   0.0379955  -0.0419301   0.0000000), wk =   0.2500000
        k(    8) = (  -0.0759910  -0.0000099   0.0000000), wk =   0.1250000
        k(    9) = (  -0.0759910   0.0419252   0.0000000), wk =   0.2500000
        k(   10) = (  -0.0759910  -0.0838800   0.0000000), wk =   0.1250000

     Initial potential from superposition of free atoms

     starting charge  374.99916, renormalised to  391.00000

     negative rho (up, down):  1.779E-02 0.000E+00

     %%%%%%%%%%%%%%%%%%%%%%%%%%%%%%%%%%%%%%%%%%%%%%%%%%%%%%%%%%%%%%%%%%%%%%%%
     %                                                                      %
     % You are using vdW-DF, which was implemented by the Thonhauser group. %
     % Please cite the following two papers that made this development      %
     % possible and the two reviews that describe the various versions:     %
     %                                                                      %
     %   T. Thonhauser et al., PRL 115, 136402 (2015).                      %
     %   T. Thonhauser et al., PRB 76, 125112 (2007).                       %
     %   K. Berland et al., Rep. Prog. Phys. 78, 066501 (2015).             %
     %   D.C. Langreth et al., J. Phys.: Condens. Matter 21, 084203 (2009). %
     %                                                                      %
     %                                                                      %
     % If you are calculating the stress with vdW-DF, please also cite:     %
     %                                                                      %
     %   R. Sabatini et al., J. Phys.: Condens. Matter 24, 424209 (2012).   %
     %                                                                      %
     %%%%%%%%%%%%%%%%%%%%%%%%%%%%%%%%%%%%%%%%%%%%%%%%%%%%%%%%%%%%%%%%%%%%%%%%

     Adding external electric field

     Computed dipole along edir(3) :
        Dipole               -5.8084 Ry au,        -14.7635 Debye
        Dipole field         -0.0110 Ry au,

        Potential amp.        1.0161 Ry
        Total length         46.3494 bohr

     Starting wfcs are  296 atomic wfcs
  @ DRIVER MODE: Message from server: STATUS
  @ DRIVER MODE: Message from server: POSDATA
  @ DRIVER MODE: Reading and sharing cell
  @ DRIVER MODE: Reading and sharing positions
  @ DRIVER MODE: Received positions

     Self-consistent Calculation

     iteration #  1     ecut=    29.40 Ry     beta= 0.05
     Davidson diagonalization with overlap
     c_bands:  3 eigenvalues not converged
     c_bands:  1 eigenvalues not converged
     c_bands:  1 eigenvalues not converged
     c_bands:  2 eigenvalues not converged
     c_bands:  4 eigenvalues not converged
     c_bands:  2 eigenvalues not converged
     c_bands:  1 eigenvalues not converged
     c_bands:  1 eigenvalues not converged
     c_bands:  2 eigenvalues not converged
     ethr =  1.00E-05,  avg # of iterations = 19.5

[...]

     total energy              =   -2770.90707245 Ry
     estimated scf accuracy    <    1638.71570921 Ry

     iteration #  2     ecut=    29.40 Ry     beta= 0.05
     Davidson diagonalization with overlap
     ethr =  1.00E-02,  avg # of iterations = 18.4

[...]

     iteration # 60     ecut=    29.40 Ry     beta= 0.05
     Davidson diagonalization with overlap
     c_bands:  1 eigenvalues not converged
     c_bands:  1 eigenvalues not converged
     c_bands:  1 eigenvalues not converged
     ethr =  5.43E-11,  avg # of iterations = 15.6

[...]

     total energy              =   -2920.41988237 Ry
     estimated scf accuracy    <       0.00000008 Ry

     iteration # 61     ecut=    29.40 Ry     beta= 0.05
     Davidson diagonalization with overlap
     ethr =  2.06E-11,  avg # of iterations =  8.3

     negative rho (up, down):  1.825E-02 0.000E+00

     Adding external electric field

     Computed dipole along edir(3) :
        Dipole                0.6958 Ry au,          1.7685 Debye
        Dipole field          0.0013 Ry au,

        Potential amp.       -0.1217 Ry
        Total length         46.3494 bohr

     End of self-consistent calculation

          k = 0.0000 0.0000 0.0000 ( 18029 PWs)   bands (ev):

   -55.9821 -55.9737 -55.9480 -55.9375 -55.8857 -55.8250 -55.8202 -55.7872
   -55.7855 -55.7532 -55.7464 -55.7127 -55.5560 -55.2753 -54.9545 -54.9205
   -32.5337 -32.4636 -32.3348 -32.3214 -32.3010 -32.2864 -32.2752 -32.2375
   -32.2236 -32.2211 -32.1967 -32.1898 -32.1569 -32.1342 -32.1254 -32.1186
   -32.1167 -32.0855 -32.0652 -32.0392 -32.0313 -32.0271 -32.0116 -31.9900
   -31.9802 -31.9782 -31.9735 -31.9634 -31.9499 -31.9434 -31.9410 -31.9355
   -31.9234 -31.9174 -31.8997 -31.8940 -31.8591 -31.8208 -31.7249 -31.5498
   -31.5434 -31.4724 -31.3614 -31.2737 -31.2512 -31.1782 -31.0917 -30.9806
   -16.7430 -16.4596 -16.2805 -16.1372 -16.1042 -16.0191 -15.8186 -15.6933
   -15.6805 -15.5774 -15.5396 -15.5164 -15.5089 -15.4822 -15.4787 -15.4200
   -15.4168 -15.4044 -15.3920 -15.3359 -15.3119 -15.2722 -15.1781 -15.1541
   -15.1385 -15.1118 -15.0309 -15.0237 -14.5840 -14.1033 -13.4570 -13.3407
    -8.9350  -4.3707  -4.1138  -3.9369  -3.8981  -3.8845  -3.8360  -3.5843
    -3.5682  -3.3127  -3.1931  -3.1783  -3.1679  -3.1524  -3.1379  -3.1187
    -2.8812  -2.8108  -2.7970  -2.7748  -2.7676  -2.7644  -2.7524  -2.7482
    -2.7059  -2.6460  -2.5284  -2.5150  -2.4093  -2.3620  -2.3392  -2.2915
    -2.2479  -2.2413  -2.2292  -2.2119  -2.1979  -2.1782  -2.1603  -2.0259
    -1.9624  -1.8342  -1.7867  -1.7806  -1.5827  -1.5390  -1.4483  -1.4249
    -1.4088  -1.4011  -1.3688  -1.2887  -1.1974  -1.1402  -1.1267  -1.0740
    -0.9972  -0.9856  -0.8753  -0.8707  -0.8079  -0.7510  -0.7416  -0.7323
    -0.6872  -0.6136  -0.5405  -0.4665  -0.4168  -0.3959  -0.3683  -0.2897
    -0.2596  -0.1635  -0.1444  -0.0975  -0.0947  -0.0456  -0.0036   0.0062
     0.0126   0.0274   0.0451   0.1937   0.3008   0.3572   0.3910   0.4019
     0.5572   0.5931   0.6814   0.7687   0.9943   1.0674   1.1611   1.2603
     1.3232   1.6382   1.6836   3.1610   3.2399   3.2931   3.3015   3.4028
     3.4054   3.6108   3.6232   3.6336   3.7019

[...]

          k = 0.0380-0.0419 0.0000 ( 17876 PWs)   bands (ev):

[...]

          k =-0.0760-0.0000 0.0000 ( 17886 PWs)   bands (ev):

[...]

          k =-0.0760-0.0839 0.0000 ( 17948 PWs)   bands (ev):

   -55.9653 -55.9646 -55.9566 -55.9545 -55.8803 -55.8302 -55.8050 -55.8007
   -55.7708 -55.7690 -55.7303 -55.7290 -55.5550 -55.2762 -54.9375 -54.9374
   -32.3381 -32.3351 -32.2791 -32.2786 -32.2665 -32.2610 -32.2602 -32.2461
   -32.1837 -32.1828 -32.1762 -32.1723 -32.1493 -32.1210 -32.1024 -32.0982
   -32.0876 -32.0848 -32.0843 -32.0840 -32.0821 -32.0702 -32.0678 -32.0364
   -32.0254 -32.0196 -31.9952 -31.9859 -31.9676 -31.9672 -31.9632 -31.9621
   -31.9452 -31.9445 -31.9425 -31.9407 -31.8888 -31.8235 -31.7201 -31.6129
   -31.5455 -31.4979 -31.2640 -31.2639 -31.1743 -31.1741 -31.1350 -31.1350
   -16.1950 -16.1616 -15.9260 -15.9163 -15.9076 -15.8913 -15.7468 -15.6949
   -15.6864 -15.6797 -15.6553 -15.6321 -15.5801 -15.5502 -15.5162 -15.5095
   -15.5028 -15.4976 -15.4412 -15.4347 -15.4124 -15.4050 -15.2915 -15.2873
   -15.2859 -15.2099 -15.1454 -15.0121 -14.7541 -14.1244 -13.4426 -13.4425
    -8.9389  -4.3818  -3.4895  -3.4513  -3.2768  -3.1946  -3.1661  -3.1528
    -3.1315  -3.0521  -2.8924  -2.8778  -2.8594  -2.8464  -2.8063  -2.8011
    -2.7893  -2.7755  -2.7684  -2.7507  -2.7169  -2.6764  -2.6478  -2.6407
    -2.6316  -2.6070  -2.5947  -2.5687  -2.5627  -2.5300  -2.5218  -2.5032
    -2.4792  -2.2178  -2.1989  -2.1816  -2.1124  -2.1055  -2.0708  -2.0626
    -2.0434  -2.0301  -1.9780  -1.8772  -1.7138  -1.6809  -1.6684  -1.6512
    -1.5863  -1.5650  -1.4168  -1.3886  -1.3715  -1.3316  -1.2829  -1.2532
    -1.2162  -1.1764  -1.1394  -1.0788  -1.0708  -0.9918  -0.9415  -0.9409
    -0.9137  -0.8442  -0.7653  -0.7479  -0.7362  -0.6951  -0.6816  -0.5999
    -0.5771  -0.4789  -0.4660  -0.3968  -0.3653  -0.2981  -0.0933   0.0030
     0.0618   0.0859   0.1389   0.2361   0.2907   0.3038   0.3376   0.3426
     0.4024   0.4430   0.5575   0.5652   0.6335   0.7371   1.2718   1.4318
     1.4324   1.5034   1.5035   3.4227   3.4285   3.4779   3.5088   3.6605
     3.6649   3.6877   3.6888   3.8109   3.8282

     the Fermi energy is     3.1540 ev

!    total energy              =   -2920.41991967 Ry
     estimated scf accuracy    <       0.00000004 Ry
     smearing contrib. (-TS)   =      -0.02203361 Ry
     internal energy E=F+TS    =   -2920.39788606 Ry

     The total energy is F=E-TS. E is the sum of the following terms:
     one-electron contribution =  -24727.71068031 Ry
     hartree contribution      =   12448.52060738 Ry
     xc contribution           =    -480.87554563 Ry
     ewald contribution        =    9839.66681890 Ry
     electric field correction =       0.00091361 Ry

     convergence has been achieved in  61 iterations

     Forces acting on atoms (cartesian axes, Ry/au):

     atom    1 type  1   force =     0.00011750   -0.00017720    0.09686894
     atom    2 type  1   force =     0.00004714   -0.00047214   -0.17503930
     atom    3 type  2   force =     0.00012778    0.00000919   -0.02534672
     atom    4 type  2   force =    -0.00003621   -0.00127949    0.05234493
     atom    5 type  2   force =    -0.01221664   -0.00000720    0.00299094
     atom    6 type  2   force =     0.01365367    0.00058671    0.00232427
     atom    7 type  1   force =     0.00056940    0.00034395   -0.01303021
     atom    8 type  1   force =     0.00045836    0.00731200    0.03072454
     atom    9 type  2   force =     0.00056058    0.00003608   -0.00020932
     atom   10 type  2   force =    -0.00267672    0.00211383   -0.01738756
     atom   11 type  2   force =    -0.00014149    0.00007436   -0.00003007
     atom   12 type  2   force =     0.00046623    0.00033490    0.00018003
     atom   13 type  1   force =    -0.00009192   -0.00054367   -0.00017286
     atom   14 type  1   force =    -0.00043152    0.00003057    0.00079465
     atom   15 type  2   force =     0.00000012   -0.00071632    0.00080203
     atom   16 type  2   force =     0.00025694    0.00062659   -0.00047744
     atom   17 type  2   force =     0.00058017    0.00006757    0.00056778
     atom   18 type  2   force =    -0.00014044   -0.00007534    0.00006153
     atom   19 type  1   force =     0.00000727    0.00036644   -0.00027437
     atom   20 type  1   force =    -0.00042474   -0.00047751    0.00033022
     atom   21 type  2   force =     0.00006231   -0.00002721    0.10310275
     atom   22 type  2   force =     0.00013454   -0.00099383    0.00102180
     atom   23 type  2   force =    -0.07164176   -0.00015234   -0.02781686
     atom   24 type  2   force =     0.07153624    0.00034469   -0.02787324
     atom   25 type  1   force =     0.00008036   -0.00013630    0.09658841
     atom   26 type  1   force =     0.00009454   -0.00019592   -0.17516532
     atom   27 type  2   force =     0.00011549   -0.00011242   -0.02440764
     atom   28 type  2   force =     0.00004448   -0.00103851    0.05226187
     atom   29 type  2   force =    -0.01241486    0.00063680    0.00278219
     atom   30 type  2   force =     0.01372257    0.00098087    0.00212729
     atom   31 type  1   force =     0.00045669    0.00315994   -0.01358718
     atom   32 type  1   force =     0.00031898   -0.00952665    0.03109953
     atom   33 type  2   force =    -0.00006988    0.00030957   -0.00059940
     atom   34 type  2   force =    -0.00206520    0.00182222   -0.02538893
     atom   35 type  2   force =    -0.00018878   -0.00028940    0.00037500
     atom   36 type  2   force =     0.00025798   -0.00078258    0.00040327
     atom   37 type  1   force =     0.00005112    0.00026800    0.00101530
     atom   38 type  1   force =    -0.00021381    0.00039008    0.00075739
     atom   39 type  2   force =    -0.00007913   -0.00016611   -0.00064101
     atom   40 type  2   force =     0.00042135    0.00007657    0.00058714
     atom   41 type  2   force =     0.00035120   -0.00027439    0.00004851
     atom   42 type  2   force =    -0.00046163   -0.00038329   -0.00035707
     atom   43 type  1   force =    -0.00077920   -0.00011743    0.00041993
     atom   44 type  1   force =    -0.00012310   -0.00058459    0.00030062
     atom   45 type  2   force =     0.00004096   -0.00004914    0.10311977
     atom   46 type  2   force =    -0.07163509   -0.00007146   -0.02781124
     atom   47 type  2   force =     0.07155334    0.00034825   -0.02788352
     atom   48 type  3   force =    -0.00019491   -0.00096756    0.00006702
     atom   49 type  4   force =     0.00002068    0.00027368   -0.00057024
     atom   50 type  5   force =     0.00042442   -0.00057094    0.00050249
     atom   51 type  3   force =    -0.00080660    0.00031203    0.00032329
     atom   52 type  3   force =     0.00019760   -0.00064738   -0.00040297
     atom   53 type  3   force =     0.00010360    0.00001140   -0.00042096

     Total force =     0.368409     Total SCF correction =     0.000557
  @ DRIVER MODE: Message from server: STATUS
  @ DRIVER MODE: Message from server: GETFORCE
  @ DRIVER MODE: Returning v,forces,stress,ensemble

     Writing output data file ./calc.save/
  @ DRIVER MODE: Message from server: EXIT
  @ DRIVE MODE: Exiting

     General routines

     Parallel routines

   This run was terminated on:  13:17:51   2Aug2021

   JOB DONE.