     Program PWSCF v.6.7GPU starts on 23Sep2021 at 14:20: 9

     R & G space division:  proc/nbgrp/npool/nimage =       8
     Reading input from /storage/home/hcoda1/3/ntian30/research/carbon/CxH_vib/H2O_calc/ads_slab/CH2N2HO_b/out_0009/pw.inp
Warning: card &CELL ignored
Warning: card   CELL_DYNAMICS='IPI', ignored
Warning: card / ignored

     Current dimensions of program PWSCF are:
     Max number of different atomic species (ntypx) = 10
     Max number of k-points (npk) =  40000
     Max angular momentum in pseudopotentials (lmaxx) =  3
     Presently no symmetry can be used with electric field

     Message from routine cell_base_init:
     DEPRECATED: use true lattice parameter, not A to a.u. conversion factor

     IMPORTANT: XC functional enforced from input :
     Exchange-correlation= BEEF-VDW
                           (   1   4  43  14   2   0   0)
     Any further DFT definition will be discarded
     Please, verify this is what you really want

  @ DRIVER MODE: Connecting to
 qe_1139763_2947312.sched-torque.pace.gatech.edu9zwx9kze_scratch
  using UNIX socket
  @ DRIVER MODE: Message from server: STATUS
  @ DRIVER MODE: Message from server: INIT
  @ DRIVER MODE: Receiving replica           0          -1
  @ DRIVER MODE: Receiving encoded integer          25
  @ DRIVER MODE:  SCF:  T  FORCE:  T  STRESS:  F  VC:  F  ENSEMBLE:  F
  @ DRIVER MODE:  SCF:  T  FORCE:  T  STRESS:  F  VC:  F  ENSEMBLE:  F

     Using Slab Decomposition

     bravais-lattice index     =            0
     lattice parameter (alat)  =       1.8897  a.u.
     unit-cell volume          =    6658.9804 (a.u.)^3
     number of atoms/cell      =           54
     number of atomic types    =            5
     number of electrons       =       401.00
     number of Kohn-Sham states=          210
     kinetic-energy cutoff     =      29.3995  Ry
     charge density cutoff     =     293.9946  Ry
     scf convergence threshold =      7.3E-08
     mixing beta               =       0.0500
     number of iterations used =            8  plain     mixing
     Exchange-correlation= BEEF-VDW
                           (   1   4  43  14   2   0   0)

     celldm(1)=   1.889726  celldm(2)=   0.000000  celldm(3)=   0.000000
     celldm(4)=   0.000000  celldm(5)=   0.000000  celldm(6)=   0.000000

     crystal axes: (cart. coord. in units of alat)
               a(1) = (   6.579727   0.000000   0.000000 )
               a(2) = (  -0.000775   5.961596   0.000000 )
               a(3) = (   0.000000   0.000000  25.155947 )

     reciprocal axes: (cart. coord. in units 2 pi/alat)
               b(1) = (  0.151982  0.000020  0.000000 )
               b(2) = (  0.000000  0.167740  0.000000 )
               b(3) = (  0.000000  0.000000  0.039752 )

     PseudoPot. # 1 for Ti read from file:
     /storage/coda1/p-amedford6/0/shared/rich_project_chbe-medford/medford-share/data/pseudos_module/espresso/nninc/pbe/van/Ti.UPF
     MD5 check sum: 8e4df49b7f0d34bbd5052bf3f5ea0213
     Pseudo is Ultrasoft, Zval = 12.0
     Generated by new atomic code, or converted to UPF format
     Using radial grid of  851 points,  6 beta functions with:
                l(1) =   0
                l(2) =   0
                l(3) =   1
                l(4) =   1
                l(5) =   2
                l(6) =   2
     Q(r) pseudized with  8 coefficients,  rinner =    1.000   1.000   1.000
                                                       1.000   1.000

     PseudoPot. # 2 for O  read from file:
     /storage/coda1/p-amedford6/0/shared/rich_project_chbe-medford/medford-share/data/pseudos_module/espresso/nninc/pbe/van/O.UPF
     MD5 check sum: 78c19812648e8988a0fe644b0f25305e
     Pseudo is Ultrasoft, Zval =  6.0
     Generated by new atomic code, or converted to UPF format
     Using radial grid of  737 points,  4 beta functions with:
                l(1) =   0
                l(2) =   0
                l(3) =   1
                l(4) =   1
     Q(r) pseudized with  8 coefficients,  rinner =    0.800   0.800   0.800

     PseudoPot. # 3 for N  read from file:
     /storage/coda1/p-amedford6/0/shared/rich_project_chbe-medford/medford-share/data/pseudos_module/espresso/nninc/pbe/van/N.UPF
     MD5 check sum: 90d10febe142ad51ac9d5be1deb811c4
     Pseudo is Ultrasoft, Zval =  5.0
     Generated by new atomic code, or converted to UPF format
     Using radial grid of  729 points,  4 beta functions with:
                l(1) =   0
                l(2) =   0
                l(3) =   1
                l(4) =   1
     Q(r) pseudized with  8 coefficients,  rinner =    0.800   0.800   0.800

     PseudoPot. # 4 for C  read from file:
     /storage/coda1/p-amedford6/0/shared/rich_project_chbe-medford/medford-share/data/pseudos_module/espresso/nninc/pbe/van/C.UPF
     MD5 check sum: 1a69bf6b8db32088f5b2163dbdb77a27
     Pseudo is Ultrasoft, Zval =  4.0
     Generated by new atomic code, or converted to UPF format
     Using radial grid of  721 points,  4 beta functions with:
                l(1) =   0
                l(2) =   0
                l(3) =   1
                l(4) =   1
     Q(r) pseudized with  8 coefficients,  rinner =    0.800   0.800   0.800

     PseudoPot. # 5 for H  read from file:
     /storage/coda1/p-amedford6/0/shared/rich_project_chbe-medford/medford-share/data/pseudos_module/espresso/nninc/pbe/van/H.UPF
     MD5 check sum: b5ee9d7bfd3a09ee7748110bda690ff7
     Pseudo is Ultrasoft, Zval =  1.0
     Generated by new atomic code, or converted to UPF format
     Using radial grid of  615 points,  1 beta functions with:
                l(1) =   0
     Q(r) pseudized with  8 coefficients,  rinner =    0.800

     atomic species   valence    mass     pseudopotential
        Ti1           12.00    47.86700     Ti( 1.00)
        O1             6.00    15.99900     O ( 1.00)
        N1             5.00    14.00700     N ( 1.00)
        C1             4.00    12.01100     C ( 1.00)
        H1             1.00     1.00800     H ( 1.00)

     No symmetry found

   Cartesian axes

     site n.     atom                  positions (alat units)
         1           Ti1 tau(   1) = (   0.0004258   2.9801865   6.0000000  )
         2           Ti1 tau(   2) = (   3.2906075   1.4906267   6.0002472  )
         3           O1  tau(   3) = (   0.0006271   0.0005054   7.9858123  )
         4           O1  tau(   4) = (   3.2906025   0.0005020   7.3038282  )
         5           O1  tau(   5) = (   4.5942328   1.4918067   9.2879030  )
         6           O1  tau(   6) = (   1.9868534   1.4903216   9.2879459  )
         7           Ti1 tau(   7) = (   3.2907910   2.8959150   9.1758416  )
         8           Ti1 tau(   8) = (   0.0015273   1.4827037   9.2680791  )
         9           O1  tau(   9) = (   3.2935892   5.9488104  11.3374186  )
        10           O1  tau(  10) = (   0.0116148   5.9584955  10.6183126  )
        11           O1  tau(  11) = (   1.2908913   1.5070562  12.6495475  )
        12           O1  tau(  12) = (   5.3136790   1.4931969  12.6373367  )
        13           Ti1 tau(  13) = (   0.0127878   2.8868139  12.6015941  )
        14           Ti1 tau(  14) = (   3.2987545   1.3040885  12.7026746  )
        15           O1  tau(  15) = (   0.0175227   0.0240941  14.6538407  )
        16           O1  tau(  16) = (   3.3064676   0.0741613  13.9771881  )
        17           O1  tau(  17) = (   4.5827780   1.5498142  16.1449436  )
        18           O1  tau(  18) = (   2.0366442   1.5898792  16.0867183  )
        19           Ti1 tau(  19) = (   3.3102262   3.0030951  15.6784192  )
        20           Ti1 tau(  20) = (   0.0574396   1.3488835  16.0050117  )
        21           O1  tau(  21) = (   3.2904802   0.0005063   4.7018136  )
        22           O1  tau(  22) = (   0.0721820   0.0083530  17.1768217  )
        23           O1  tau(  23) = (   1.3043587   1.4918075   6.0039043  )
        24           O1  tau(  24) = (   5.2767064   1.4903225   6.0039473  )
        25           Ti1 tau(  25) = (   0.0000382   5.9609847   6.0000000  )
        26           Ti1 tau(  26) = (   3.2902200   4.4714249   6.0002472  )
        27           O1  tau(  27) = (   0.0002396   2.9813036   7.9858123  )
        28           O1  tau(  28) = (   3.2902150   2.9813002   7.3038282  )
        29           O1  tau(  29) = (   4.5938453   4.4726049   9.2879030  )
        30           O1  tau(  30) = (   1.9864658   4.4711199   9.2879459  )
        31           Ti1 tau(  31) = (   3.2891106   5.8743827   9.1763621  )
        32           Ti1 tau(  32) = (   0.0006254   4.4649316   9.2693709  )
        33           O1  tau(  33) = (   3.2934580   3.0155445  11.2926531  )
        34           O1  tau(  34) = (   0.0092240   2.9805883  10.6323155  )
        35           O1  tau(  35) = (   1.2931599   4.4792858  12.6478595  )
        36           O1  tau(  36) = (   5.3056662   4.4876152  12.6363886  )
        37           Ti1 tau(  37) = (   6.5746511   5.8741161  12.5153022  )
        38           Ti1 tau(  38) = (   3.2863760   4.3878630  12.4273393  )
        39           O1  tau(  39) = (   6.5684735   3.0099032  14.7382625  )
        40           O1  tau(  40) = (   3.3273571   2.9915841  13.8999870  )
        41           O1  tau(  41) = (   4.5754576   4.4629145  16.1269992  )
        42           O1  tau(  42) = (   2.0375947   4.4358961  16.0236521  )
        43           Ti1 tau(  43) = (   3.3857405   0.0156461  16.2930207  )
        44           Ti1 tau(  44) = (   0.0840152   4.5257857  15.8004899  )
        45           O1  tau(  45) = (   3.2900926   2.9813045   4.7018136  )
        46           O1  tau(  46) = (   1.3039711   4.4726057   6.0039043  )
        47           O1  tau(  47) = (   5.2763189   4.4711207   6.0039473  )
        48           N1  tau(  48) = (   6.4876325   3.2951735  18.6921505  )
        49           N1  tau(  49) = (   0.0139976   3.0320413  17.5569154  )
        50           C1  tau(  50) = (   6.3059459   3.6199554  19.9036174  )
        51           H1  tau(  51) = (   5.2963100   3.8231348  20.2372398  )
        52           H1  tau(  52) = (   0.5840524   3.7151184  20.5547593  )
        53           O1  tau(  53) = (   3.1058724   5.9363815  18.1230642  )
        54           H1  tau(  54) = (   2.1709728   0.0855973  18.3648350  )

     number of k points=    10  Fermi-Dirac smearing, width (Ry)=  0.0073
                       cart. coord. in units 2pi/alat
        k(    1) = (   0.0000000   0.0000000   0.0000000), wk =   0.1250000
        k(    2) = (   0.0000000   0.0419351   0.0000000), wk =   0.2500000
        k(    3) = (   0.0000000  -0.0838702   0.0000000), wk =   0.1250000
        k(    4) = (   0.0379955   0.0000049   0.0000000), wk =   0.2500000
        k(    5) = (   0.0379955   0.0419400   0.0000000), wk =   0.2500000
        k(    6) = (   0.0379955  -0.0838652   0.0000000), wk =   0.2500000
        k(    7) = (   0.0379955  -0.0419301   0.0000000), wk =   0.2500000
        k(    8) = (  -0.0759910  -0.0000099   0.0000000), wk =   0.1250000
        k(    9) = (  -0.0759910   0.0419252   0.0000000), wk =   0.2500000
        k(   10) = (  -0.0759910  -0.0838800   0.0000000), wk =   0.1250000

     Initial potential from superposition of free atoms

     starting charge  384.99916, renormalised to  401.00000

     negative rho (up, down):  1.407E-02 0.000E+00

     %%%%%%%%%%%%%%%%%%%%%%%%%%%%%%%%%%%%%%%%%%%%%%%%%%%%%%%%%%%%%%%%%%%%%%%%
     %                                                                      %
     % You are using vdW-DF, which was implemented by the Thonhauser group. %
     % Please cite the following two papers that made this development      %
     % possible and the two reviews that describe the various versions:     %
     %                                                                      %
     %   T. Thonhauser et al., PRL 115, 136402 (2015).                      %
     %   T. Thonhauser et al., PRB 76, 125112 (2007).                       %
     %   K. Berland et al., Rep. Prog. Phys. 78, 066501 (2015).             %
     %   D.C. Langreth et al., J. Phys.: Condens. Matter 21, 084203 (2009). %
     %                                                                      %
     %                                                                      %
     % If you are calculating the stress with vdW-DF, please also cite:     %
     %                                                                      %
     %   R. Sabatini et al., J. Phys.: Condens. Matter 24, 424209 (2012).   %
     %                                                                      %
     %%%%%%%%%%%%%%%%%%%%%%%%%%%%%%%%%%%%%%%%%%%%%%%%%%%%%%%%%%%%%%%%%%%%%%%%

     Adding external electric field

     Computed dipole along edir(3) :
        Dipole              -11.8206 Ry au,        -30.0448 Debye
        Dipole field         -0.0223 Ry au,

        Potential amp.        2.0678 Ry
        Total length         46.3494 bohr

     Starting wfcs are  303 atomic wfcs
  @ DRIVER MODE: Message from server: STATUS
  @ DRIVER MODE: Message from server: POSDATA
  @ DRIVER MODE: Reading and sharing cell
  @ DRIVER MODE: Reading and sharing positions
  @ DRIVER MODE: Received positions

     Self-consistent Calculation

     iteration #  1     ecut=    29.40 Ry     beta= 0.05
     Davidson diagonalization with overlap
     c_bands:  3 eigenvalues not converged
     c_bands:  4 eigenvalues not converged
     c_bands:  1 eigenvalues not converged
     c_bands:  4 eigenvalues not converged
     c_bands:  4 eigenvalues not converged
     c_bands:  1 eigenvalues not converged
     c_bands:  2 eigenvalues not converged
     ethr =  1.00E-05,  avg # of iterations = 22.9

[...]

     total energy              =   -2411.67146695 Ry
     estimated scf accuracy    <    6295.62255392 Ry

     iteration #  2     ecut=    29.40 Ry     beta= 0.05
     Davidson diagonalization with overlap
     ethr =  1.00E-02,  avg # of iterations = 22.9

[...]

     iteration # 46     ecut=    29.40 Ry     beta= 0.05
     Davidson diagonalization with overlap
     c_bands:  1 eigenvalues not converged
     ethr =  1.03E-06,  avg # of iterations = 11.8

[...]

     total energy              =   -2971.49157445 Ry
     estimated scf accuracy    <       0.00000011 Ry

     iteration # 72     ecut=    29.40 Ry     beta= 0.05
     Davidson diagonalization with overlap
     ethr =  1.93E-11,  avg # of iterations =  6.5

     negative rho (up, down):  1.460E-02 0.000E+00

     Adding external electric field

     Computed dipole along edir(3) :
        Dipole                1.0638 Ry au,          2.7040 Debye
        Dipole field          0.0020 Ry au,

        Potential amp.       -0.1861 Ry
        Total length         46.3494 bohr

     End of self-consistent calculation

          k = 0.0000 0.0000 0.0000 ( 18029 PWs)   bands (ev):

   -55.6952 -55.6612 -55.4797 -55.4736 -55.4458 -55.3365 -55.3179 -55.2846
   -55.2826 -55.2251 -55.1820 -55.0916 -55.0880 -54.9815 -54.6027 -54.5687
   -32.1690 -31.9905 -31.9885 -31.9323 -31.8479 -31.8198 -31.8131 -31.7916
   -31.7915 -31.7553 -31.7537 -31.7472 -31.7163 -31.6989 -31.6817 -31.6535
   -31.6477 -31.6144 -31.5873 -31.5793 -31.5771 -31.5541 -31.5450 -31.5404
   -31.4968 -31.4882 -31.4841 -31.4721 -31.4592 -31.4439 -31.4431 -31.4261
   -31.4240 -31.3662 -31.3654 -31.3623 -31.2906 -31.2833 -31.2572 -31.2309
   -31.2058 -31.1924 -31.0056 -30.9271 -30.9042 -30.8236 -30.7377 -30.6258
   -20.6995 -16.2517 -16.1741 -15.9678 -15.7910 -15.6380 -15.5863 -15.4467
   -15.3769 -15.2748 -15.1970 -15.0973 -15.0774 -15.0361 -14.9997 -14.9969
   -14.9671 -14.9369 -14.9365 -14.9114 -14.8976 -14.8488 -14.7909 -14.7718
   -14.7278 -14.6999 -14.6448 -14.6316 -14.6206 -14.5169 -14.2479 -14.2315
   -13.1007 -12.9856  -7.4020  -6.0775  -5.6674  -5.0206  -3.7605  -3.5829
    -3.5078  -3.3577  -3.2797  -3.1995  -3.0593  -2.9871  -2.9107  -2.7498
    -2.6645  -2.6352  -2.5853  -2.5305  -2.4651  -2.4387  -2.3974  -2.3745
    -2.2939  -2.2526  -2.2310  -2.2090  -2.1556  -2.1272  -2.0900  -2.0056
    -1.9790  -1.9427  -1.8697  -1.8595  -1.8354  -1.8240  -1.7844  -1.7654
    -1.7532  -1.7312  -1.5970  -1.5897  -1.5105  -1.4717  -1.3242  -1.2034
    -1.1369  -1.0694  -1.0537  -0.9720  -0.9346  -0.8538  -0.8334  -0.8050
    -0.7667  -0.7022  -0.6365  -0.6153  -0.5685  -0.5326  -0.3983  -0.3750
    -0.3276  -0.3216  -0.3017  -0.2339  -0.1656  -0.0857  -0.0712  -0.0066
     0.0132   0.0958   0.1780   0.1846   0.2361   0.2579   0.3124   0.3345
     0.3540   0.3872   0.4177   0.4859   0.5485   0.5968   0.6021   0.6354
     0.7030   0.7692   0.8099   0.8431   0.9945   1.0241   1.0412   1.1273
     1.1380   1.2463   1.4023   1.4234   1.6276   1.6305   1.9835   2.0259
     3.4516   3.5816   3.6155   3.6885   3.7752   3.9049   3.9130   4.0404
     4.1584   4.1645

[...]

          k = 0.0380-0.0419 0.0000 ( 17876 PWs)   bands (ev):

[...]

          k =-0.0760-0.0000 0.0000 ( 17886 PWs)   bands (ev):

[...]

          k =-0.0760-0.0839 0.0000 ( 17948 PWs)   bands (ev):

   -55.6786 -55.6776 -55.4727 -55.4640 -55.4613 -55.3303 -55.3042 -55.2962
   -55.2909 -55.2257 -55.1787 -55.0948 -55.0855 -54.9840 -54.5862 -54.5850
   -31.9848 -31.9843 -31.9747 -31.9739 -31.7992 -31.7980 -31.7853 -31.7797
   -31.7413 -31.7208 -31.6983 -31.6879 -31.6868 -31.6692 -31.6565 -31.6523
   -31.6330 -31.6195 -31.6194 -31.6109 -31.5964 -31.5545 -31.5497 -31.5264
   -31.5252 -31.5179 -31.5156 -31.5154 -31.5072 -31.4884 -31.4664 -31.4570
   -31.4290 -31.3870 -31.3766 -31.3545 -31.3388 -31.3271 -31.2939 -31.2874
   -31.2372 -31.1959 -30.9174 -30.9166 -30.8196 -30.8183 -30.7812 -30.7803
   -20.6984 -16.2256 -15.6186 -15.5527 -15.5302 -15.5204 -15.4081 -15.3756
   -15.2431 -15.2419 -15.2187 -15.1601 -15.1491 -15.1189 -15.1079 -15.0827
   -15.0510 -15.0266 -15.0037 -14.9731 -14.9630 -14.9199 -14.8940 -14.8899
   -14.8769 -14.8270 -14.7408 -14.6539 -14.6303 -14.5773 -14.4903 -14.3672
   -13.0882 -13.0875  -7.4026  -6.0810  -5.6699  -4.9982  -3.7336  -3.0938
    -2.8981  -2.7497  -2.7251  -2.5962  -2.5771  -2.4836  -2.4754  -2.4317
    -2.4178  -2.3773  -2.3513  -2.3344  -2.2923  -2.2743  -2.2596  -2.2544
    -2.2369  -2.2064  -2.1980  -2.1937  -2.1850  -2.1538  -2.1244  -2.1112
    -2.0936  -2.0491  -2.0204  -1.9194  -1.8174  -1.7919  -1.7192  -1.7166
    -1.7138  -1.7016  -1.6786  -1.6542  -1.5695  -1.4794  -1.4413  -1.3847
    -1.2100  -1.1957  -1.1739  -1.1515  -1.0960  -1.0458  -1.0192  -0.9673
    -0.9561  -0.9304  -0.8557  -0.7944  -0.7220  -0.7022  -0.6327  -0.5861
    -0.5687  -0.4769  -0.4627  -0.4305  -0.3906  -0.3761  -0.3461  -0.2937
    -0.2782  -0.2600  -0.2295  -0.1906  -0.1564   0.0125   0.1476   0.2102
     0.2281   0.2664   0.3190   0.3859   0.4093   0.5918   0.6042   0.6080
     0.6487   0.7055   0.7316   0.7495   0.8455   0.9583   0.9828   1.0205
     1.0463   1.0655   1.1475   1.2059   1.7944   1.8026   1.8455   1.8462
     3.4531   3.9885   4.0076   4.0089   4.0100   4.1055   4.1298   4.1383
     4.2026   4.2677

     the Fermi energy is     3.4457 ev

!    total energy              =   -2971.49158991 Ry
     estimated scf accuracy    <       0.00000003 Ry
     smearing contrib. (-TS)   =      -0.01886059 Ry
     internal energy E=F+TS    =   -2971.47272932 Ry

     The total energy is F=E-TS. E is the sum of the following terms:
     one-electron contribution =  -23618.14004639 Ry
     hartree contribution      =   11902.91472229 Ry
     xc contribution           =    -492.36355031 Ry
     ewald contribution        =    9236.11400934 Ry
     electric field correction =       0.00213575 Ry

     convergence has been achieved in  72 iterations

     Forces acting on atoms (cartesian axes, Ry/au):

     atom    1 type  1   force =     0.00001368   -0.00040069    0.09768027
     atom    2 type  1   force =    -0.00003811    0.00022257   -0.17208749
     atom    3 type  2   force =     0.00005174   -0.00005024   -0.02537967
     atom    4 type  2   force =     0.00001600   -0.00144528    0.04758540
     atom    5 type  2   force =    -0.00616020   -0.00239950   -0.00086140
     atom    6 type  2   force =     0.00778272   -0.00181707   -0.00152649
     atom    7 type  1   force =    -0.00008672   -0.00483301    0.01891669
     atom    8 type  1   force =     0.00022564    0.01222343    0.02702845
     atom    9 type  2   force =    -0.00010465   -0.00017542   -0.00017524
     atom   10 type  2   force =    -0.00111787    0.00132391   -0.02511732
     atom   11 type  2   force =     0.00012837   -0.00003015    0.00005026
     atom   12 type  2   force =     0.00007636   -0.00003707   -0.00002458
     atom   13 type  1   force =     0.00034819   -0.00022566   -0.00003914
     atom   14 type  1   force =     0.00005624   -0.00013423   -0.00007041
     atom   15 type  2   force =    -0.00030456   -0.00075675   -0.00050181
     atom   16 type  2   force =    -0.00003201   -0.00010202   -0.00056245
     atom   17 type  2   force =    -0.00037387   -0.00012481   -0.00019419
     atom   18 type  2   force =     0.00027589   -0.00022405   -0.00022193
     atom   19 type  1   force =    -0.00017150   -0.00012667   -0.00023358
     atom   20 type  1   force =    -0.00015526   -0.00003312    0.00061324
     atom   21 type  2   force =     0.00005667    0.00008735    0.10221821
     atom   22 type  2   force =     0.00009634   -0.00076788   -0.00038452
     atom   23 type  2   force =    -0.07353724   -0.00016052   -0.02809855
     atom   24 type  2   force =     0.07345441    0.00028311   -0.02817219
     atom   25 type  1   force =     0.00013936   -0.00033155    0.09747977
     atom   26 type  1   force =    -0.00003434   -0.00130763   -0.17221909
     atom   27 type  2   force =     0.00009475   -0.00030547   -0.02401203
     atom   28 type  2   force =     0.00004209    0.00031274    0.04321196
     atom   29 type  2   force =    -0.00505029    0.00403336   -0.00278853
     atom   30 type  2   force =     0.00656046    0.00442312   -0.00334494
     atom   31 type  1   force =     0.00001239    0.00579810    0.00695885
     atom   32 type  1   force =     0.00029364   -0.01519355    0.02662780
     atom   33 type  2   force =     0.00038325   -0.00005331    0.00003503
     atom   34 type  2   force =    -0.00138558    0.00100231   -0.02685172
     atom   35 type  2   force =     0.00037526    0.00005646    0.00001022
     atom   36 type  2   force =    -0.00028298   -0.00005598   -0.00010967
     atom   37 type  1   force =     0.00009037   -0.00055096    0.00004655
     atom   38 type  1   force =     0.00024735    0.00013339    0.00019689
     atom   39 type  2   force =    -0.00012591   -0.00010709   -0.00022948
     atom   40 type  2   force =     0.00005664    0.00003396   -0.00023854
     atom   41 type  2   force =    -0.00006891    0.00006689   -0.00018378
     atom   42 type  2   force =    -0.00041930   -0.00011658    0.00002239
     atom   43 type  1   force =    -0.00010071    0.00031502   -0.00051295
     atom   44 type  1   force =    -0.00025810    0.00043086    0.00039253
     atom   45 type  2   force =     0.00004918   -0.00008263    0.10201809
     atom   46 type  2   force =    -0.07357251   -0.00007697   -0.02813353
     atom   47 type  2   force =     0.07347838    0.00036166   -0.02818184
     atom   48 type  3   force =    -0.00006289   -0.00328475   -0.00615777
     atom   49 type  3   force =    -0.00074690    0.00396382    0.00677903
     atom   50 type  4   force =    -0.00026868   -0.00007605   -0.00092501
     atom   51 type  5   force =    -0.00005616    0.00007735    0.00018641
     atom   52 type  5   force =    -0.00011351    0.00018185    0.00003538
     atom   53 type  2   force =     0.00038666    0.00070813   -0.00034656
     atom   54 type  5   force =    -0.00016327   -0.00065272   -0.00020702

     Total force =     0.365114     Total SCF correction =     0.000548
  @ DRIVER MODE: Message from server: STATUS
  @ DRIVER MODE: Message from server: GETFORCE
  @ DRIVER MODE: Returning v,forces,stress,ensemble

     Writing output data file ./calc.save/
  @ DRIVER MODE: Message from server: EXIT
  @ DRIVE MODE: Exiting

     General routines

     Parallel routines

   This run was terminated on:  14:43:39  23Sep2021

   JOB DONE.