     Program PWSCF v.6.7GPU starts on 16Sep2021 at  0:32: 2

     R & G space division:  proc/nbgrp/npool/nimage =      10
     Reading input from /storage/home/hcoda1/3/ntian30/research/carbon/CxH_vib/H2O_calc/ads_slab/CH3NH2NHH2O_c/out_0025/pw.inp
Warning: card &CELL ignored
Warning: card   CELL_DYNAMICS='IPI', ignored
Warning: card / ignored

     Current dimensions of program PWSCF are:
     Max number of different atomic species (ntypx) = 10
     Max number of k-points (npk) =  40000
     Max angular momentum in pseudopotentials (lmaxx) =  3
     Presently no symmetry can be used with electric field

     Message from routine cell_base_init:
     DEPRECATED: use true lattice parameter, not A to a.u. conversion factor

     IMPORTANT: XC functional enforced from input :
     Exchange-correlation= BEEF-VDW
                           (   1   4  43  14   2   0   0)
     Any further DFT definition will be discarded
     Please, verify this is what you really want

  @ DRIVER MODE: Connecting to
 qe_1139763_2852614.sched-torque.pace.gatech.edut9l4ndbn_scratch
  using UNIX socket
  @ DRIVER MODE: Message from server: STATUS
  @ DRIVER MODE: Message from server: INIT
  @ DRIVER MODE: Receiving replica           0          -1
  @ DRIVER MODE: Receiving encoded integer          25
  @ DRIVER MODE:  SCF:  T  FORCE:  T  STRESS:  F  VC:  F  ENSEMBLE:  F
  @ DRIVER MODE:  SCF:  T  FORCE:  T  STRESS:  F  VC:  F  ENSEMBLE:  F

     Using Slab Decomposition

     bravais-lattice index     =            0
     lattice parameter (alat)  =       1.8897  a.u.
     unit-cell volume          =    6658.9804 (a.u.)^3
     number of atoms/cell      =           59
     number of atomic types    =            5
     number of electrons       =       406.00
     number of Kohn-Sham states=          213
     kinetic-energy cutoff     =      29.3995  Ry
     charge density cutoff     =     293.9946  Ry
     scf convergence threshold =      7.3E-08
     mixing beta               =       0.0500
     number of iterations used =            8  plain     mixing
     Exchange-correlation= BEEF-VDW
                           (   1   4  43  14   2   0   0)

     celldm(1)=   1.889726  celldm(2)=   0.000000  celldm(3)=   0.000000
     celldm(4)=   0.000000  celldm(5)=   0.000000  celldm(6)=   0.000000

     crystal axes: (cart. coord. in units of alat)
               a(1) = (   6.579727   0.000000   0.000000 )
               a(2) = (  -0.000775   5.961596   0.000000 )
               a(3) = (   0.000000   0.000000  25.155947 )

     reciprocal axes: (cart. coord. in units 2 pi/alat)
               b(1) = (  0.151982  0.000020  0.000000 )
               b(2) = (  0.000000  0.167740  0.000000 )
               b(3) = (  0.000000  0.000000  0.039752 )

     PseudoPot. # 1 for Ti read from file:
     /storage/coda1/p-amedford6/0/shared/rich_project_chbe-medford/medford-share/data/pseudos_module/espresso/nninc/pbe/van/Ti.UPF
     MD5 check sum: 8e4df49b7f0d34bbd5052bf3f5ea0213
     Pseudo is Ultrasoft, Zval = 12.0
     Generated by new atomic code, or converted to UPF format
     Using radial grid of  851 points,  6 beta functions with:
                l(1) =   0
                l(2) =   0
                l(3) =   1
                l(4) =   1
                l(5) =   2
                l(6) =   2
     Q(r) pseudized with  8 coefficients,  rinner =    1.000   1.000   1.000
                                                       1.000   1.000

     PseudoPot. # 2 for O  read from file:
     /storage/coda1/p-amedford6/0/shared/rich_project_chbe-medford/medford-share/data/pseudos_module/espresso/nninc/pbe/van/O.UPF
     MD5 check sum: 78c19812648e8988a0fe644b0f25305e
     Pseudo is Ultrasoft, Zval =  6.0
     Generated by new atomic code, or converted to UPF format
     Using radial grid of  737 points,  4 beta functions with:
                l(1) =   0
                l(2) =   0
                l(3) =   1
                l(4) =   1
     Q(r) pseudized with  8 coefficients,  rinner =    0.800   0.800   0.800

     PseudoPot. # 3 for N  read from file:
     /storage/coda1/p-amedford6/0/shared/rich_project_chbe-medford/medford-share/data/pseudos_module/espresso/nninc/pbe/van/N.UPF
     MD5 check sum: 90d10febe142ad51ac9d5be1deb811c4
     Pseudo is Ultrasoft, Zval =  5.0
     Generated by new atomic code, or converted to UPF format
     Using radial grid of  729 points,  4 beta functions with:
                l(1) =   0
                l(2) =   0
                l(3) =   1
                l(4) =   1
     Q(r) pseudized with  8 coefficients,  rinner =    0.800   0.800   0.800

     PseudoPot. # 4 for C  read from file:
     /storage/coda1/p-amedford6/0/shared/rich_project_chbe-medford/medford-share/data/pseudos_module/espresso/nninc/pbe/van/C.UPF
     MD5 check sum: 1a69bf6b8db32088f5b2163dbdb77a27
     Pseudo is Ultrasoft, Zval =  4.0
     Generated by new atomic code, or converted to UPF format
     Using radial grid of  721 points,  4 beta functions with:
                l(1) =   0
                l(2) =   0
                l(3) =   1
                l(4) =   1
     Q(r) pseudized with  8 coefficients,  rinner =    0.800   0.800   0.800

     PseudoPot. # 5 for H  read from file:
     /storage/coda1/p-amedford6/0/shared/rich_project_chbe-medford/medford-share/data/pseudos_module/espresso/nninc/pbe/van/H.UPF
     MD5 check sum: b5ee9d7bfd3a09ee7748110bda690ff7
     Pseudo is Ultrasoft, Zval =  1.0
     Generated by new atomic code, or converted to UPF format
     Using radial grid of  615 points,  1 beta functions with:
                l(1) =   0
     Q(r) pseudized with  8 coefficients,  rinner =    0.800

     atomic species   valence    mass     pseudopotential
        Ti1           12.00    47.86700     Ti( 1.00)
        O1             6.00    15.99900     O ( 1.00)
        N1             5.00    14.00700     N ( 1.00)
        C1             4.00    12.01100     C ( 1.00)
        H1             1.00     1.00800     H ( 1.00)

     No symmetry found

   Cartesian axes

     site n.     atom                  positions (alat units)
         1           Ti1 tau(   1) = (   0.0004258   2.9801865   6.0000000  )
         2           Ti1 tau(   2) = (   3.2906075   1.4906267   6.0002472  )
         3           O1  tau(   3) = (   0.0006271   0.0005054   7.9858123  )
         4           O1  tau(   4) = (   3.2906025   0.0005020   7.3038282  )
         5           O1  tau(   5) = (   4.5942328   1.4918067   9.2879030  )
         6           O1  tau(   6) = (   1.9868534   1.4903216   9.2879459  )
         7           Ti1 tau(   7) = (   3.2907910   2.8959150   9.1758416  )
         8           Ti1 tau(   8) = (   0.0015273   1.4827037   9.2680791  )
         9           O1  tau(   9) = (   3.2795193   0.0050042  11.3600746  )
        10           O1  tau(  10) = (   0.0116148   5.9584955  10.6183126  )
        11           O1  tau(  11) = (   1.2764768   1.4833402  12.6625751  )
        12           O1  tau(  12) = (   5.2691860   1.4824858  12.6730715  )
        13           Ti1 tau(  13) = (   6.5785005   2.9712200  12.5432933  )
        14           Ti1 tau(  14) = (   3.2815129   1.4861921  12.5133659  )
        15           O1  tau(  15) = (   0.0084525   5.9333602  14.7514412  )
        16           O1  tau(  16) = (   3.2474592   5.9449689  14.0025778  )
        17           O1  tau(  17) = (   4.5272503   1.5270814  16.0535473  )
        18           O1  tau(  18) = (   2.0088677   1.5398698  16.1918835  )
        19           Ti1 tau(  19) = (   3.2695027   3.0127370  15.7044713  )
        20           Ti1 tau(  20) = (   6.4897317   1.5391078  15.7731133  )
        21           O1  tau(  21) = (   3.2904802   0.0005063   4.7018136  )
        22           O1  tau(  22) = (   6.4943121   0.0104379  17.3746616  )
        23           O1  tau(  23) = (   1.3043587   1.4918075   6.0039043  )
        24           O1  tau(  24) = (   5.2767064   1.4903225   6.0039473  )
        25           Ti1 tau(  25) = (   0.0000382   5.9609847   6.0000000  )
        26           Ti1 tau(  26) = (   3.2902200   4.4714249   6.0002472  )
        27           O1  tau(  27) = (   0.0002396   2.9813036   7.9858123  )
        28           O1  tau(  28) = (   3.2902150   2.9813002   7.3038282  )
        29           O1  tau(  29) = (   4.5938453   4.4726049   9.2879030  )
        30           O1  tau(  30) = (   1.9864658   4.4711199   9.2879459  )
        31           Ti1 tau(  31) = (   3.2891106   5.8743827   9.1763621  )
        32           Ti1 tau(  32) = (   0.0006254   4.4649316   9.2693709  )
        33           O1  tau(  33) = (   3.2806081   2.9711243  11.3509633  )
        34           O1  tau(  34) = (   0.0092240   2.9805883  10.6323155  )
        35           O1  tau(  35) = (   1.2760424   4.4718827  12.6381679  )
        36           O1  tau(  36) = (   5.2690016   4.4731519  12.6446470  )
        37           Ti1 tau(  37) = (   6.5708669   5.9382087  12.5160675  )
        38           Ti1 tau(  38) = (   3.2845625   4.4656782  12.4980923  )
        39           O1  tau(  39) = (   6.5779858   3.0049062  14.7590937  )
        40           O1  tau(  40) = (   3.2501146   3.0001303  13.9242794  )
        41           O1  tau(  41) = (   4.5300198   4.4412671  16.1793791  )
        42           O1  tau(  42) = (   2.0030354   4.4482434  16.2507355  )
        43           Ti1 tau(  43) = (   3.2558399   0.0045369  15.7947069  )
        44           Ti1 tau(  44) = (   0.0024851   4.6597080  16.1671864  )
        45           O1  tau(  45) = (   3.2900926   2.9813045   4.7018136  )
        46           O1  tau(  46) = (   1.3039711   4.4726057   6.0039043  )
        47           O1  tau(  47) = (   5.2763189   4.4711207   6.0039473  )
        48           N1  tau(  48) = (   0.8610865   2.3037131  18.4629187  )
        49           N1  tau(  49) = (   6.4642385   2.8627238  17.5618644  )
        50           C1  tau(  50) = (   1.1134797   3.0572184  19.7121060  )
        51           H1  tau(  51) = (   0.2160447   3.0254214  20.3281890  )
        52           H1  tau(  52) = (   1.9367850   2.5864873  20.2353232  )
        53           H1  tau(  53) = (   1.3463996   4.0866186  19.4485780  )
        54           H1  tau(  54) = (   0.5832711   1.3114681  18.6183785  )
        55           H1  tau(  55) = (   5.5643591   2.7461405  18.0238738  )
        56           H1  tau(  56) = (   1.7079168   2.1891883  17.8702682  )
        57           O1  tau(  57) = (   4.0734316   0.3075885  18.7765601  )
        58           H1  tau(  58) = (   4.9241673   0.1787741  18.2816895  )
        59           H1  tau(  59) = (   3.8734322   5.3936830  19.1372508  )

     number of k points=    10  Fermi-Dirac smearing, width (Ry)=  0.0073
                       cart. coord. in units 2pi/alat
        k(    1) = (   0.0000000   0.0000000   0.0000000), wk =   0.1250000
        k(    2) = (   0.0000000   0.0419351   0.0000000), wk =   0.2500000
        k(    3) = (   0.0000000  -0.0838702   0.0000000), wk =   0.1250000
        k(    4) = (   0.0379955   0.0000049   0.0000000), wk =   0.2500000
        k(    5) = (   0.0379955   0.0419400   0.0000000), wk =   0.2500000
        k(    6) = (   0.0379955  -0.0838652   0.0000000), wk =   0.2500000
        k(    7) = (   0.0379955  -0.0419301   0.0000000), wk =   0.2500000
        k(    8) = (  -0.0759910  -0.0000099   0.0000000), wk =   0.1250000
        k(    9) = (  -0.0759910   0.0419252   0.0000000), wk =   0.2500000
        k(   10) = (  -0.0759910  -0.0838800   0.0000000), wk =   0.1250000

     Initial potential from superposition of free atoms

     starting charge  389.99912, renormalised to  406.00000

     negative rho (up, down):  1.393E-02 0.000E+00

     %%%%%%%%%%%%%%%%%%%%%%%%%%%%%%%%%%%%%%%%%%%%%%%%%%%%%%%%%%%%%%%%%%%%%%%%
     %                                                                      %
     % You are using vdW-DF, which was implemented by the Thonhauser group. %
     % Please cite the following two papers that made this development      %
     % possible and the two reviews that describe the various versions:     %
     %                                                                      %
     %   T. Thonhauser et al., PRL 115, 136402 (2015).                      %
     %   T. Thonhauser et al., PRB 76, 125112 (2007).                       %
     %   K. Berland et al., Rep. Prog. Phys. 78, 066501 (2015).             %
     %   D.C. Langreth et al., J. Phys.: Condens. Matter 21, 084203 (2009). %
     %                                                                      %
     %                                                                      %
     % If you are calculating the stress with vdW-DF, please also cite:     %
     %                                                                      %
     %   R. Sabatini et al., J. Phys.: Condens. Matter 24, 424209 (2012).   %
     %                                                                      %
     %%%%%%%%%%%%%%%%%%%%%%%%%%%%%%%%%%%%%%%%%%%%%%%%%%%%%%%%%%%%%%%%%%%%%%%%

     Adding external electric field

     Computed dipole along edir(3) :
        Dipole              -15.6809 Ry au,        -39.8568 Debye
        Dipole field         -0.0296 Ry au,

        Potential amp.        2.7431 Ry
        Total length         46.3494 bohr

     Starting wfcs are  308 atomic wfcs
  @ DRIVER MODE: Message from server: STATUS
  @ DRIVER MODE: Message from server: POSDATA
  @ DRIVER MODE: Reading and sharing cell
  @ DRIVER MODE: Reading and sharing positions
  @ DRIVER MODE: Received positions

     Self-consistent Calculation

     iteration #  1     ecut=    29.40 Ry     beta= 0.05
     Davidson diagonalization with overlap
     c_bands:  2 eigenvalues not converged
     c_bands:  5 eigenvalues not converged
     c_bands:  2 eigenvalues not converged
     c_bands:  4 eigenvalues not converged
     c_bands:  4 eigenvalues not converged
     c_bands:  5 eigenvalues not converged
     c_bands:  5 eigenvalues not converged
     c_bands:  1 eigenvalues not converged
     ethr =  1.00E-05,  avg # of iterations = 22.5

[...]

     total energy              =   -2140.11453032 Ry
     estimated scf accuracy    <    9575.51666068 Ry

     iteration #  2     ecut=    29.40 Ry     beta= 0.05
     Davidson diagonalization with overlap
     ethr =  1.00E-02,  avg # of iterations = 31.8

[...]

     iteration # 63     ecut=    29.40 Ry     beta= 0.05
     Davidson diagonalization with overlap
     c_bands:  1 eigenvalues not converged
     ethr =  1.87E-10,  avg # of iterations = 11.4

[...]

     total energy              =   -2977.68485020 Ry
     estimated scf accuracy    <       0.00000010 Ry

     iteration # 66     ecut=    29.40 Ry     beta= 0.05
     Davidson diagonalization with overlap
     ethr =  2.45E-11,  avg # of iterations =  5.4

     negative rho (up, down):  1.242E-02 0.000E+00

     Adding external electric field

     Computed dipole along edir(3) :
        Dipole                1.6081 Ry au,          4.0874 Debye
        Dipole field          0.0030 Ry au,

        Potential amp.       -0.2813 Ry
        Total length         46.3494 bohr

     End of self-consistent calculation

          k = 0.0000 0.0000 0.0000 ( 18029 PWs)   bands (ev):

   -54.9536 -54.9168 -54.9142 -54.8827 -54.8433 -54.8334 -54.7932 -54.7617
   -54.7569 -54.7462 -54.7266 -54.7213 -54.7130 -54.6589 -53.9325 -53.8984
   -31.5256 -31.4068 -31.3199 -31.2812 -31.2642 -31.2511 -31.2484 -31.2432
   -31.2088 -31.2068 -31.1624 -31.1620 -31.1565 -31.1263 -31.1077 -31.0877
   -31.0772 -31.0714 -31.0697 -31.0628 -31.0283 -31.0241 -31.0176 -31.0119
   -30.9922 -30.9736 -30.9636 -30.9625 -30.9549 -30.9549 -30.9444 -30.9360
   -30.9198 -30.9196 -30.9110 -30.9091 -30.8836 -30.8771 -30.8751 -30.8743
   -30.8556 -30.8551 -30.3412 -30.2486 -30.2265 -30.1577 -30.0709 -29.9600
   -18.9620 -18.2087 -15.7887 -15.5210 -15.3957 -15.1956 -15.1423 -15.0376
   -14.8776 -14.8168 -14.7519 -14.7271 -14.7213 -14.6945 -14.6218 -14.5663
   -14.5373 -14.4849 -14.4842 -14.4482 -14.4410 -14.4362 -14.3816 -14.3777
   -14.3412 -14.3274 -14.3198 -14.1768 -14.0981 -14.0506 -14.0394 -13.2037
   -12.4351 -12.3180 -10.9923  -7.5864  -6.4105  -5.9732  -5.7589  -4.0302
    -3.8451  -3.1327  -2.9620  -2.9500  -2.8722  -2.8484  -2.6778  -2.6178
    -2.5097  -2.3936  -2.3175  -2.2200  -2.1761  -2.1581  -2.1442  -2.0307
    -1.9452  -1.9078  -1.8685  -1.8299  -1.8128  -1.7674  -1.7463  -1.7363
    -1.7036  -1.6784  -1.5250  -1.4506  -1.4141  -1.3799  -1.3398  -1.2826
    -1.2611  -1.2446  -1.2390  -1.2312  -1.2149  -1.1906  -1.1547  -1.1229
    -1.0549  -0.9709  -0.9614  -0.8500  -0.7659  -0.6335  -0.5801  -0.5222
    -0.4918  -0.4254  -0.3838  -0.3357  -0.3000  -0.2936  -0.2471  -0.1598
    -0.1470  -0.0892  -0.0708   0.0140   0.0599   0.0658   0.0769   0.2534
     0.2637   0.2816   0.3844   0.4654   0.5042   0.5208   0.5783   0.6408
     0.6432   0.6815   0.7034   0.7340   0.8170   0.9206   0.9456   0.9840
     0.9983   1.0238   1.0408   1.0678   1.1070   1.1882   1.1943   1.2715
     1.3640   1.3751   1.6380   1.6700   2.0007   2.0278   2.0901   2.2758
     2.6647   2.7121   4.1485   4.2105   4.2558   4.2814   4.2995   4.3808
     4.4003   4.6163   4.6426   4.6437   4.6529

[...]

          k = 0.0380-0.0419 0.0000 ( 17876 PWs)   bands (ev):

[...]

          k =-0.0760-0.0000 0.0000 ( 17886 PWs)   bands (ev):

[...]

          k =-0.0760-0.0839 0.0000 ( 17948 PWs)   bands (ev):

   -54.9417 -54.9259 -54.8997 -54.8996 -54.8408 -54.8238 -54.8027 -54.7545
   -54.7464 -54.7409 -54.7314 -54.7284 -54.7236 -54.6613 -53.9155 -53.9153
   -31.3344 -31.3229 -31.2569 -31.2220 -31.2218 -31.2159 -31.1923 -31.1922
   -31.1670 -31.1648 -31.1557 -31.1520 -31.1440 -31.0939 -31.0805 -31.0797
   -31.0755 -31.0741 -31.0710 -31.0682 -31.0410 -31.0310 -31.0287 -31.0222
   -31.0214 -31.0189 -31.0189 -31.0181 -30.9973 -30.9800 -30.9739 -30.9667
   -30.9607 -30.9550 -30.9533 -30.9492 -30.9488 -30.9217 -30.9148 -30.9117
   -30.9071 -30.8968 -30.2393 -30.2391 -30.1538 -30.1536 -30.1144 -30.1143
   -18.9570 -18.2092 -15.2794 -15.1526 -15.0536 -14.9980 -14.9513 -14.9356
   -14.9180 -14.8647 -14.8346 -14.7748 -14.7511 -14.7027 -14.6586 -14.6546
   -14.6269 -14.5474 -14.5322 -14.5197 -14.5123 -14.4614 -14.4474 -14.4245
   -14.4018 -14.3978 -14.3794 -14.3069 -14.2972 -14.2930 -14.2540 -13.2129
   -12.4196 -12.4194 -10.9929  -7.5975  -6.4012  -5.9725  -5.7438  -4.0093
    -3.8378  -2.5618  -2.5398  -2.4044  -2.3910  -2.2789  -2.1869  -2.1366
    -2.1309  -1.9919  -1.9591  -1.9432  -1.9279  -1.9155  -1.8669  -1.8435
    -1.8076  -1.7902  -1.7806  -1.7707  -1.7551  -1.7346  -1.6825  -1.6785
    -1.6679  -1.6535  -1.6094  -1.5937  -1.5628  -1.5520  -1.5236  -1.5010
    -1.4344  -1.3397  -1.2922  -1.2490  -1.1944  -1.1419  -1.1359  -1.0572
    -1.0393  -1.0076  -0.9766  -0.9519  -0.8564  -0.7828  -0.6883  -0.6859
    -0.6822  -0.5626  -0.5223  -0.5048  -0.4921  -0.4620  -0.3776  -0.3675
    -0.3079  -0.2335  -0.2071  -0.2023  -0.1764  -0.0572  -0.0316   0.0283
     0.0587   0.0913   0.0935   0.1726   0.1858   0.2449   0.2595   0.2728
     0.3177   0.3354   0.4337   0.5236   0.5591   0.6623   0.7552   0.7844
     0.8796   0.9374   1.0419   1.0624   1.0862   1.1827   1.1909   1.2258
     1.3549   1.3618   1.4778   1.5174   1.5275   1.5300   2.4481   2.4496
     2.5322   2.5323   4.2749   4.3978   4.4133   4.4594   4.5140   4.6551
     4.6788   4.7258   4.7278   4.8021   4.8101

     the Fermi energy is     4.2007 ev

!    total energy              =   -2977.68487751 Ry
     estimated scf accuracy    <       0.00000003 Ry
     smearing contrib. (-TS)   =      -0.03700465 Ry
     internal energy E=F+TS    =   -2977.64787286 Ry

     The total energy is F=E-TS. E is the sum of the following terms:
     one-electron contribution =  -23305.80538075 Ry
     hartree contribution      =   11753.89817875 Ry
     xc contribution           =    -496.61377820 Ry
     ewald contribution        =    9070.86822726 Ry
     electric field correction =       0.00488007 Ry

     convergence has been achieved in  66 iterations

     Forces acting on atoms (cartesian axes, Ry/au):

     atom    1 type  1   force =     0.00008917   -0.00025460    0.09413946
     atom    2 type  1   force =    -0.00008625   -0.00045686   -0.17747307
     atom    3 type  2   force =     0.00006188   -0.00032826   -0.02122650
     atom    4 type  2   force =     0.00003730   -0.00179284    0.05730709
     atom    5 type  2   force =    -0.01080157   -0.00101151    0.00668577
     atom    6 type  2   force =     0.01199783   -0.00032897    0.00503838
     atom    7 type  1   force =    -0.00060415    0.00105526   -0.01461062
     atom    8 type  1   force =     0.00086211    0.00330550    0.00460802
     atom    9 type  2   force =     0.00000923   -0.00005173    0.00015278
     atom   10 type  2   force =    -0.00368839    0.00210872   -0.00165016
     atom   11 type  2   force =    -0.00017409    0.00061691   -0.00010217
     atom   12 type  2   force =     0.00018856    0.00028215   -0.00021825
     atom   13 type  1   force =    -0.00019580   -0.00026884    0.00010329
     atom   14 type  1   force =     0.00025006   -0.00021909   -0.00038024
     atom   15 type  2   force =     0.00020417    0.00035643   -0.00009113
     atom   16 type  2   force =    -0.00012103    0.00025211   -0.00019942
     atom   17 type  2   force =    -0.00009706   -0.00028797    0.00031768
     atom   18 type  2   force =     0.00017844    0.00004246   -0.00002216
     atom   19 type  1   force =     0.00000325    0.00021368   -0.00042352
     atom   20 type  1   force =     0.00041122   -0.00001735   -0.00004432
     atom   21 type  2   force =     0.00011852   -0.00008143    0.10376440
     atom   22 type  2   force =     0.00056485   -0.00030273   -0.00068283
     atom   23 type  2   force =    -0.07066649   -0.00014834   -0.02713100
     atom   24 type  2   force =     0.07063092    0.00031802   -0.02713971
     atom   25 type  1   force =     0.00010919   -0.00016655    0.09374630
     atom   26 type  1   force =    -0.00006678   -0.00053296   -0.17769631
     atom   27 type  2   force =     0.00006836   -0.00005404   -0.02032675
     atom   28 type  2   force =     0.00006536   -0.00146046    0.05630704
     atom   29 type  2   force =    -0.01130762   -0.00038953    0.00736759
     atom   30 type  2   force =     0.01242092    0.00000685    0.00575783
     atom   31 type  1   force =    -0.00074774    0.00573336   -0.01564797
     atom   32 type  1   force =     0.00081424   -0.00459349    0.00434878
     atom   33 type  2   force =     0.00002008    0.00015194    0.00030517
     atom   34 type  2   force =    -0.00321246   -0.00103072   -0.00520089
     atom   35 type  2   force =    -0.00011587   -0.00039452    0.00007458
     atom   36 type  2   force =     0.00021196   -0.00006533   -0.00010073
     atom   37 type  1   force =    -0.00012404    0.00044009   -0.00011984
     atom   38 type  1   force =     0.00008955    0.00015427   -0.00013116
     atom   39 type  2   force =    -0.00045567   -0.00031970   -0.00015704
     atom   40 type  2   force =     0.00012824   -0.00008248    0.00027032
     atom   41 type  2   force =    -0.00003773    0.00022113   -0.00016824
     atom   42 type  2   force =     0.00045625    0.00008950   -0.00028943
     atom   43 type  1   force =    -0.00015827   -0.00000879   -0.00010997
     atom   44 type  1   force =     0.00034345    0.00035788    0.00028519
     atom   45 type  2   force =     0.00010507   -0.00006493    0.10374374
     atom   46 type  2   force =    -0.07066176   -0.00007027   -0.02711693
     atom   47 type  2   force =     0.07063644    0.00033130   -0.02713628
     atom   48 type  3   force =     0.00039723   -0.00065035    0.00099645
     atom   49 type  3   force =    -0.00015961   -0.00047503    0.00042170
     atom   50 type  4   force =    -0.00725708    0.00369257   -0.00381974
     atom   51 type  5   force =    -0.00002854    0.00121291   -0.00077125
     atom   52 type  5   force =     0.00798125   -0.00329885    0.00422836
     atom   53 type  5   force =     0.00041795   -0.00064020   -0.00031451
     atom   54 type  5   force =     0.00040705   -0.00013350    0.00018358
     atom   55 type  5   force =     0.00035778   -0.00057299   -0.00011243
     atom   56 type  5   force =     0.00021847   -0.00015930    0.00038860
     atom   57 type  2   force =    -0.00082268    0.00078155    0.00148955
     atom   58 type  5   force =     0.00034069   -0.00063267   -0.00105125
     atom   59 type  5   force =     0.00039369   -0.00037748   -0.00036578

     Total force =     0.366066     Total SCF correction =     0.000563
  @ DRIVER MODE: Message from server: STATUS
  @ DRIVER MODE: Message from server: GETFORCE
  @ DRIVER MODE: Returning v,forces,stress,ensemble

     Writing output data file ./calc.save/
  @ DRIVER MODE: Message from server: EXIT
  @ DRIVE MODE: Exiting

     General routines

     Parallel routines

   This run was terminated on:   0:51:35  16Sep2021

   JOB DONE.