     Program PWSCF v.6.7GPU starts on 27Sep2021 at 12:29:21

     R & G space division:  proc/nbgrp/npool/nimage =       8
     Reading input from /storage/home/hcoda1/3/ntian30/research/carbon/CxH_vib/CH_calc/ads_slab/CHONHNH_a/out_0037/pw.inp
Warning: card &CELL ignored
Warning: card   CELL_DYNAMICS='IPI', ignored
Warning: card / ignored

     Current dimensions of program PWSCF are:
     Max number of different atomic species (ntypx) = 10
     Max number of k-points (npk) =  40000
     Max angular momentum in pseudopotentials (lmaxx) =  3
     Presently no symmetry can be used with electric field

     Message from routine cell_base_init:
     DEPRECATED: use true lattice parameter, not A to a.u. conversion factor

     IMPORTANT: XC functional enforced from input :
     Exchange-correlation= BEEF-VDW
                           (   1   4  43  14   2   0   0)
     Any further DFT definition will be discarded
     Please, verify this is what you really want

  @ DRIVER MODE: Connecting to
 qe_1139763_2982671.sched-torque.pace.gatech.edui3ryyl52_scratch
  using UNIX socket
  @ DRIVER MODE: Message from server: STATUS
  @ DRIVER MODE: Message from server: INIT
  @ DRIVER MODE: Receiving replica           0          -1
  @ DRIVER MODE: Receiving encoded integer          25
  @ DRIVER MODE:  SCF:  T  FORCE:  T  STRESS:  F  VC:  F  ENSEMBLE:  F
  @ DRIVER MODE:  SCF:  T  FORCE:  T  STRESS:  F  VC:  F  ENSEMBLE:  F

     Using Slab Decomposition

     bravais-lattice index     =            0
     lattice parameter (alat)  =       1.8897  a.u.
     unit-cell volume          =    6658.9804 (a.u.)^3
     number of atoms/cell      =           54
     number of atomic types    =            5
     number of electrons       =       401.00
     number of Kohn-Sham states=          210
     kinetic-energy cutoff     =      29.3995  Ry
     charge density cutoff     =     293.9946  Ry
     scf convergence threshold =      7.3E-08
     mixing beta               =       0.0500
     number of iterations used =            8  plain     mixing
     Exchange-correlation= BEEF-VDW
                           (   1   4  43  14   2   0   0)

     celldm(1)=   1.889726  celldm(2)=   0.000000  celldm(3)=   0.000000
     celldm(4)=   0.000000  celldm(5)=   0.000000  celldm(6)=   0.000000

     crystal axes: (cart. coord. in units of alat)
               a(1) = (   6.579727   0.000000   0.000000 )
               a(2) = (  -0.000775   5.961596   0.000000 )
               a(3) = (   0.000000   0.000000  25.155947 )

     reciprocal axes: (cart. coord. in units 2 pi/alat)
               b(1) = (  0.151982  0.000020  0.000000 )
               b(2) = (  0.000000  0.167740  0.000000 )
               b(3) = (  0.000000  0.000000  0.039752 )

     PseudoPot. # 1 for O  read from file:
     /storage/coda1/p-amedford6/0/shared/rich_project_chbe-medford/medford-share/data/pseudos_module/espresso/nninc/pbe/van/O.UPF
     MD5 check sum: 78c19812648e8988a0fe644b0f25305e
     Pseudo is Ultrasoft, Zval =  6.0
     Generated by new atomic code, or converted to UPF format
     Using radial grid of  737 points,  4 beta functions with:
                l(1) =   0
                l(2) =   0
                l(3) =   1
                l(4) =   1
     Q(r) pseudized with  8 coefficients,  rinner =    0.800   0.800   0.800

     PseudoPot. # 2 for Ti read from file:
     /storage/coda1/p-amedford6/0/shared/rich_project_chbe-medford/medford-share/data/pseudos_module/espresso/nninc/pbe/van/Ti.UPF
     MD5 check sum: 8e4df49b7f0d34bbd5052bf3f5ea0213
     Pseudo is Ultrasoft, Zval = 12.0
     Generated by new atomic code, or converted to UPF format
     Using radial grid of  851 points,  6 beta functions with:
                l(1) =   0
                l(2) =   0
                l(3) =   1
                l(4) =   1
                l(5) =   2
                l(6) =   2
     Q(r) pseudized with  8 coefficients,  rinner =    1.000   1.000   1.000
                                                       1.000   1.000

     PseudoPot. # 3 for N  read from file:
     /storage/coda1/p-amedford6/0/shared/rich_project_chbe-medford/medford-share/data/pseudos_module/espresso/nninc/pbe/van/N.UPF
     MD5 check sum: 90d10febe142ad51ac9d5be1deb811c4
     Pseudo is Ultrasoft, Zval =  5.0
     Generated by new atomic code, or converted to UPF format
     Using radial grid of  729 points,  4 beta functions with:
                l(1) =   0
                l(2) =   0
                l(3) =   1
                l(4) =   1
     Q(r) pseudized with  8 coefficients,  rinner =    0.800   0.800   0.800

     PseudoPot. # 4 for C  read from file:
     /storage/coda1/p-amedford6/0/shared/rich_project_chbe-medford/medford-share/data/pseudos_module/espresso/nninc/pbe/van/C.UPF
     MD5 check sum: 1a69bf6b8db32088f5b2163dbdb77a27
     Pseudo is Ultrasoft, Zval =  4.0
     Generated by new atomic code, or converted to UPF format
     Using radial grid of  721 points,  4 beta functions with:
                l(1) =   0
                l(2) =   0
                l(3) =   1
                l(4) =   1
     Q(r) pseudized with  8 coefficients,  rinner =    0.800   0.800   0.800

     PseudoPot. # 5 for H  read from file:
     /storage/coda1/p-amedford6/0/shared/rich_project_chbe-medford/medford-share/data/pseudos_module/espresso/nninc/pbe/van/H.UPF
     MD5 check sum: b5ee9d7bfd3a09ee7748110bda690ff7
     Pseudo is Ultrasoft, Zval =  1.0
     Generated by new atomic code, or converted to UPF format
     Using radial grid of  615 points,  1 beta functions with:
                l(1) =   0
     Q(r) pseudized with  8 coefficients,  rinner =    0.800

     atomic species   valence    mass     pseudopotential
        O1             6.00    15.99900     O ( 1.00)
        Ti1           12.00    47.86700     Ti( 1.00)
        N1             5.00    14.00700     N ( 1.00)
        C1             4.00    12.01100     C ( 1.00)
        H1             1.00     1.00800     H ( 1.00)

     No symmetry found

   Cartesian axes

     site n.     atom                  positions (alat units)
         1           O1  tau(   1) = (   3.2904802   0.0005063   4.7018136  )
         2           O1  tau(   2) = (   3.2900926   2.9813045   4.7018136  )
         3           Ti1 tau(   3) = (   0.0004258   2.9801865   6.0000000  )
         4           Ti1 tau(   4) = (   0.0000382   5.9609847   6.0000000  )
         5           Ti1 tau(   5) = (   3.2906075   1.4906267   6.0002472  )
         6           Ti1 tau(   6) = (   3.2902200   4.4714249   6.0002472  )
         7           O1  tau(   7) = (   1.3043587   1.4918075   6.0039043  )
         8           O1  tau(   8) = (   1.3039711   4.4726057   6.0039043  )
         9           O1  tau(   9) = (   5.2767064   1.4903225   6.0039473  )
        10           O1  tau(  10) = (   5.2763189   4.4711207   6.0039473  )
        11           O1  tau(  11) = (   3.2906025   0.0005020   7.3038282  )
        12           O1  tau(  12) = (   3.2902150   2.9813002   7.3038282  )
        13           O1  tau(  13) = (   0.0006271   0.0005054   7.9858123  )
        14           O1  tau(  14) = (   0.0002396   2.9813036   7.9858123  )
        15           Ti1 tau(  15) = (   3.2907910   2.8959150   9.1758416  )
        16           Ti1 tau(  16) = (   3.2891106   5.8743827   9.1763621  )
        17           Ti1 tau(  17) = (   0.0015273   1.4827037   9.2680791  )
        18           Ti1 tau(  18) = (   0.0006254   4.4649316   9.2693709  )
        19           O1  tau(  19) = (   4.5942328   1.4918067   9.2879030  )
        20           O1  tau(  20) = (   4.5938453   4.4726049   9.2879030  )
        21           O1  tau(  21) = (   1.9868534   1.4903216   9.2879459  )
        22           O1  tau(  22) = (   1.9864658   4.4711199   9.2879459  )
        23           O1  tau(  23) = (   0.0116148   5.9584955  10.6183126  )
        24           O1  tau(  24) = (   0.0092240   2.9805883  10.6323155  )
        25           O1  tau(  25) = (   3.2531556   2.9620241  11.3322950  )
        26           O1  tau(  26) = (   3.2474763   5.9435521  11.3438280  )
        27           Ti1 tau(  27) = (   3.3237694   4.3814390  12.5572636  )
        28           Ti1 tau(  28) = (   0.0094504   0.0092305  12.5172013  )
        29           Ti1 tau(  29) = (   3.3224445   1.4452456  12.4745429  )
        30           Ti1 tau(  30) = (   0.0090234   2.9988230  12.5821063  )
        31           O1  tau(  31) = (   5.2496676   1.4726344  12.6006421  )
        32           O1  tau(  32) = (   5.2531746   4.4496067  12.6010712  )
        33           O1  tau(  33) = (   1.2410339   1.4659728  12.6671891  )
        34           O1  tau(  34) = (   1.2387123   4.4686174  12.6665250  )
        35           O1  tau(  35) = (   3.3067986   5.9564546  13.9007842  )
        36           O1  tau(  36) = (   3.2420318   3.0005841  13.9279729  )
        37           O1  tau(  37) = (   6.4209026   5.9439257  14.7021623  )
        38           O1  tau(  38) = (   6.4587925   2.9577525  14.6988961  )
        39           Ti1 tau(  39) = (   3.2423495   0.0283394  15.6829305  )
        40           Ti1 tau(  40) = (   6.4236859   1.5154006  15.7784978  )
        41           Ti1 tau(  41) = (   3.0799157   3.0146384  15.8599260  )
        42           O1  tau(  42) = (   1.9357555   1.4358950  15.9107064  )
        43           O1  tau(  43) = (   1.9271111   4.5447382  15.9660097  )
        44           Ti1 tau(  44) = (   6.4519450   4.6669281  16.1370820  )
        45           O1  tau(  45) = (   4.4443926   1.5071054  16.1134243  )
        46           O1  tau(  46) = (   4.4397279   4.4733020  16.1527106  )
        47           O1  tau(  47) = (   6.5167551   0.0277669  17.2715591  )
        48           N1  tau(  48) = (   0.3759035   2.6095042  18.6336219  )
        49           C1  tau(  49) = (   2.8136782   2.9081565  18.1516972  )
        50           H1  tau(  50) = (   0.1656462   1.5987175  18.7006542  )
        51           N1  tau(  51) = (   1.8163940   2.6652851  18.9293397  )
        52           H1  tau(  52) = (   3.7261332   2.9868749  18.7514029  )
        53           H1  tau(  53) = (   1.8928842   2.5952305  19.9427491  )
        54           O1  tau(  54) = (   0.0882553   2.9165792  17.3165359  )

     number of k points=    10  Fermi-Dirac smearing, width (Ry)=  0.0073
                       cart. coord. in units 2pi/alat
        k(    1) = (   0.0000000   0.0000000   0.0000000), wk =   0.1250000
        k(    2) = (   0.0000000   0.0419351   0.0000000), wk =   0.2500000
        k(    3) = (   0.0000000  -0.0838702   0.0000000), wk =   0.1250000
        k(    4) = (   0.0379955   0.0000049   0.0000000), wk =   0.2500000
        k(    5) = (   0.0379955   0.0419400   0.0000000), wk =   0.2500000
        k(    6) = (   0.0379955  -0.0838652   0.0000000), wk =   0.2500000
        k(    7) = (   0.0379955  -0.0419301   0.0000000), wk =   0.2500000
        k(    8) = (  -0.0759910  -0.0000099   0.0000000), wk =   0.1250000
        k(    9) = (  -0.0759910   0.0419252   0.0000000), wk =   0.2500000
        k(   10) = (  -0.0759910  -0.0838800   0.0000000), wk =   0.1250000

     Initial potential from superposition of free atoms

     starting charge  384.99916, renormalised to  401.00000

     negative rho (up, down):  1.631E-02 0.000E+00

     %%%%%%%%%%%%%%%%%%%%%%%%%%%%%%%%%%%%%%%%%%%%%%%%%%%%%%%%%%%%%%%%%%%%%%%%
     %                                                                      %
     % You are using vdW-DF, which was implemented by the Thonhauser group. %
     % Please cite the following two papers that made this development      %
     % possible and the two reviews that describe the various versions:     %
     %                                                                      %
     %   T. Thonhauser et al., PRL 115, 136402 (2015).                      %
     %   T. Thonhauser et al., PRB 76, 125112 (2007).                       %
     %   K. Berland et al., Rep. Prog. Phys. 78, 066501 (2015).             %
     %   D.C. Langreth et al., J. Phys.: Condens. Matter 21, 084203 (2009). %
     %                                                                      %
     %                                                                      %
     % If you are calculating the stress with vdW-DF, please also cite:     %
     %                                                                      %
     %   R. Sabatini et al., J. Phys.: Condens. Matter 24, 424209 (2012).   %
     %                                                                      %
     %%%%%%%%%%%%%%%%%%%%%%%%%%%%%%%%%%%%%%%%%%%%%%%%%%%%%%%%%%%%%%%%%%%%%%%%

     Adding external electric field

     Computed dipole along edir(3) :
        Dipole              -11.6315 Ry au,        -29.5642 Debye
        Dipole field         -0.0220 Ry au,

        Potential amp.        2.0347 Ry
        Total length         46.3494 bohr

     Starting wfcs are  303 atomic wfcs
  @ DRIVER MODE: Message from server: STATUS
  @ DRIVER MODE: Message from server: POSDATA
  @ DRIVER MODE: Reading and sharing cell
  @ DRIVER MODE: Reading and sharing positions
  @ DRIVER MODE: Received positions

     Self-consistent Calculation

     iteration #  1     ecut=    29.40 Ry     beta= 0.05
     Davidson diagonalization with overlap
     c_bands:  3 eigenvalues not converged
     c_bands:  3 eigenvalues not converged
     c_bands:  5 eigenvalues not converged
     c_bands:  4 eigenvalues not converged
     c_bands:  4 eigenvalues not converged
     c_bands:  3 eigenvalues not converged
     c_bands:  1 eigenvalues not converged
     c_bands:  3 eigenvalues not converged
     ethr =  1.00E-05,  avg # of iterations = 22.1

[...]

     total energy              =   -2394.33266411 Ry
     estimated scf accuracy    <    6494.78239929 Ry

     iteration #  2     ecut=    29.40 Ry     beta= 0.05
     Davidson diagonalization with overlap
     ethr =  1.00E-02,  avg # of iterations = 24.4

[...]

     iteration # 43     ecut=    29.40 Ry     beta= 0.05
     Davidson diagonalization with overlap
     c_bands:  1 eigenvalues not converged
     ethr =  1.03E-06,  avg # of iterations = 13.7

[...]

     total energy              =   -2971.36034137 Ry
     estimated scf accuracy    <       0.00000011 Ry

     iteration # 67     ecut=    29.40 Ry     beta= 0.05
     Davidson diagonalization with overlap
     ethr =  2.76E-11,  avg # of iterations =  5.0

     negative rho (up, down):  1.695E-02 0.000E+00

     Adding external electric field

     Computed dipole along edir(3) :
        Dipole                1.3755 Ry au,          3.4961 Debye
        Dipole field          0.0026 Ry au,

        Potential amp.       -0.2406 Ry
        Total length         46.3494 bohr

     End of self-consistent calculation

          k = 0.0000 0.0000 0.0000 ( 18029 PWs)   bands (ev):

   -55.3633 -55.3292 -55.2835 -55.2389 -55.2335 -55.2234 -55.1957 -55.1842
   -55.1502 -55.1422 -55.1296 -55.1070 -55.0326 -54.9927 -54.3429 -54.3089
   -31.8477 -31.8081 -31.7316 -31.6845 -31.6794 -31.6550 -31.6324 -31.6085
   -31.5978 -31.5686 -31.5402 -31.5156 -31.5022 -31.4955 -31.4696 -31.4663
   -31.4621 -31.4485 -31.4367 -31.4205 -31.4017 -31.3984 -31.3934 -31.3819
   -31.3777 -31.3768 -31.3728 -31.3639 -31.3414 -31.3401 -31.3336 -31.3240
   -31.3210 -31.3146 -31.2966 -31.2933 -31.2861 -31.2550 -31.2336 -31.2226
   -31.2073 -31.1773 -30.7497 -30.6619 -30.6395 -30.5668 -30.4803 -30.3689
   -20.1736 -17.3528 -16.0540 -15.8420 -15.6375 -15.5289 -15.4804 -15.2481
   -15.1305 -15.1004 -15.0134 -14.9432 -14.9276 -14.9032 -14.8923 -14.8733
   -14.8144 -14.8011 -14.7903 -14.7874 -14.7590 -14.7380 -14.7148 -14.7024
   -14.5813 -14.5682 -14.5390 -14.5071 -14.4848 -14.4240 -14.1644 -12.8435
   -12.7431 -12.7270  -9.0657  -7.2310  -5.7062  -4.9637  -3.4261  -3.3130
    -3.2828  -3.2698  -3.1817  -3.1439  -3.0215  -2.8054  -2.6578  -2.5574
    -2.5324  -2.4522  -2.3818  -2.3585  -2.3149  -2.2594  -2.2064  -2.1590
    -2.1343  -2.1093  -2.1020  -2.0960  -2.0045  -1.9832  -1.9434  -1.8923
    -1.8561  -1.7595  -1.7425  -1.6861  -1.6782  -1.6368  -1.6265  -1.6171
    -1.6079  -1.5898  -1.5065  -1.4903  -1.4428  -1.3661  -1.1766  -1.1241
    -1.0260  -0.9715  -0.8692  -0.8439  -0.8013  -0.7708  -0.7645  -0.7562
    -0.7105  -0.6150  -0.5733  -0.5211  -0.4602  -0.3821  -0.3123  -0.2724
    -0.1624  -0.1488  -0.1222  -0.1144  -0.0819   0.0601   0.1176   0.1690
     0.1932   0.2305   0.2960   0.3574   0.3713   0.4176   0.4417   0.5068
     0.5432   0.5627   0.5827   0.6103   0.6240   0.6529   0.6685   0.7174
     0.8429   0.8535   0.9017   0.9449   1.0039   1.1219   1.1287   1.2902
     1.3751   1.5569   1.6191   1.6813   1.7430   1.8728   2.2510   2.2967
     3.7425   3.8575   3.8896   3.9179   4.0014   4.0406   4.2109   4.2762
     4.2988   4.3382

[...]

          k = 0.0380-0.0419 0.0000 ( 17876 PWs)   bands (ev):

[...]

          k =-0.0760-0.0000 0.0000 ( 17886 PWs)   bands (ev):

[...]

          k =-0.0760-0.0839 0.0000 ( 17948 PWs)   bands (ev):

   -55.3463 -55.3460 -55.2775 -55.2308 -55.2304 -55.2290 -55.2042 -55.1673
   -55.1667 -55.1323 -55.1299 -55.1194 -55.0248 -55.0005 -54.3259 -54.3258
   -31.6631 -31.6629 -31.6494 -31.6406 -31.6403 -31.5905 -31.5674 -31.5489
   -31.5411 -31.5254 -31.5038 -31.4950 -31.4915 -31.4851 -31.4795 -31.4717
   -31.4658 -31.4657 -31.4629 -31.4591 -31.4556 -31.4389 -31.4374 -31.4299
   -31.4209 -31.4154 -31.4036 -31.3842 -31.3710 -31.3689 -31.3568 -31.3460
   -31.3458 -31.3430 -31.3411 -31.3403 -31.3371 -31.3298 -31.2610 -31.2475
   -31.2296 -31.2090 -30.6522 -30.6522 -30.5626 -30.5624 -30.5237 -30.5235
   -20.1685 -17.3502 -15.4859 -15.3735 -15.3695 -15.3030 -15.2485 -15.1775
   -15.1284 -15.0972 -15.0588 -15.0403 -15.0132 -14.9720 -14.9323 -14.9204
   -14.8958 -14.8868 -14.8655 -14.8216 -14.8129 -14.8046 -14.7985 -14.7720
   -14.7318 -14.7052 -14.6833 -14.6788 -14.6490 -14.5109 -14.3644 -12.8288
   -12.8288 -12.7476  -9.0592  -7.1737  -5.7173  -4.9849  -3.3153  -2.7509
    -2.6598  -2.5738  -2.5029  -2.4312  -2.3934  -2.3698  -2.3114  -2.3066
    -2.2781  -2.2171  -2.1979  -2.1823  -2.1668  -2.1368  -2.1285  -2.1062
    -2.0958  -2.0892  -2.0475  -2.0448  -2.0198  -2.0179  -1.9926  -1.9847
    -1.9551  -1.9265  -1.9053  -1.8670  -1.8216  -1.7218  -1.6365  -1.5654
    -1.5116  -1.5004  -1.4908  -1.4365  -1.4192  -1.3879  -1.3592  -1.3247
    -1.1899  -1.0511  -1.0403  -1.0059  -0.9418  -0.9098  -0.8723  -0.8491
    -0.7742  -0.7585  -0.7244  -0.6973  -0.6284  -0.5364  -0.4917  -0.4512
    -0.4206  -0.3650  -0.3374  -0.3177  -0.3003  -0.2866  -0.2515  -0.1875
    -0.1409  -0.1171  -0.0851  -0.0588  -0.0368  -0.0123   0.1602   0.1781
     0.2768   0.3450   0.4037   0.5388   0.6398   0.6787   0.7209   0.7802
     0.8471   0.8996   0.9334   0.9503   0.9687   1.0327   1.0879   1.1552
     1.1707   1.2034   1.2818   1.4437   2.0448   2.0472   2.1167   2.1169
     4.1138   4.1622   4.1867   4.1969   4.2644   4.2888   4.3057   4.3092
     4.4140   4.4299

     the Fermi energy is     3.7628 ev

!    total energy              =   -2971.36036715 Ry
     estimated scf accuracy    <       0.00000005 Ry
     smearing contrib. (-TS)   =      -0.02057610 Ry
     internal energy E=F+TS    =   -2971.33979105 Ry

     The total energy is F=E-TS. E is the sum of the following terms:
     one-electron contribution =  -24168.71265947 Ry
     hartree contribution      =   12180.01086447 Ry
     xc contribution           =    -492.42732632 Ry
     ewald contribution        =    9509.78575987 Ry
     electric field correction =       0.00357040 Ry

     convergence has been achieved in  67 iterations

     Forces acting on atoms (cartesian axes, Ry/au):

     atom    1 type  1   force =     0.00007387   -0.00011988    0.10312562
     atom    2 type  1   force =     0.00007566   -0.00010300    0.10315851
     atom    3 type  2   force =     0.00002406   -0.00019768    0.09530697
     atom    4 type  2   force =     0.00007629   -0.00048614    0.09488061
     atom    5 type  2   force =    -0.00020791   -0.00070979   -0.17563835
     atom    6 type  2   force =    -0.00004780   -0.00023550   -0.17576485
     atom    7 type  1   force =    -0.07171396   -0.00018466   -0.02759384
     atom    8 type  1   force =    -0.07169509   -0.00021223   -0.02752131
     atom    9 type  1   force =     0.07158272    0.00026123   -0.02759626
     atom   10 type  1   force =     0.07154971    0.00026031   -0.02757193
     atom   11 type  1   force =    -0.00007811   -0.00143827    0.05242147
     atom   12 type  1   force =    -0.00000247   -0.00150050    0.05288458
     atom   13 type  1   force =    -0.00013155   -0.00018052   -0.02269190
     atom   14 type  1   force =    -0.00005797   -0.00028527   -0.02181867
     atom   15 type  2   force =    -0.00222133    0.00205947   -0.00873409
     atom   16 type  2   force =    -0.00226935    0.00206886   -0.00151250
     atom   17 type  2   force =     0.00140102    0.00932736    0.01493163
     atom   18 type  2   force =     0.00155202   -0.01042560    0.01570478
     atom   19 type  1   force =    -0.01011410   -0.00094302    0.00484652
     atom   20 type  1   force =    -0.01049155   -0.00075556    0.00459420
     atom   21 type  1   force =     0.01028596   -0.00001021    0.00094223
     atom   22 type  1   force =     0.01056290   -0.00053586    0.00075967
     atom   23 type  1   force =    -0.00214255    0.00036875   -0.01186854
     atom   24 type  1   force =    -0.00061596   -0.00078200   -0.01487279
     atom   25 type  1   force =     0.00002295    0.00040302   -0.00000150
     atom   26 type  1   force =     0.00010370   -0.00025965   -0.00044904
     atom   27 type  2   force =     0.00053903   -0.00011481   -0.00072861
     atom   28 type  2   force =    -0.00021817   -0.00021018    0.00001483
     atom   29 type  2   force =     0.00021957    0.00076922    0.00011955
     atom   30 type  2   force =    -0.00031662   -0.00027106    0.00004569
     atom   31 type  1   force =     0.00022613    0.00057272    0.00024120
     atom   32 type  1   force =    -0.00064996    0.00046577    0.00003150
     atom   33 type  1   force =     0.00044988    0.00052528    0.00010456
     atom   34 type  1   force =     0.00072138    0.00022957   -0.00016340
     atom   35 type  1   force =    -0.00011915   -0.00034553    0.00000686
     atom   36 type  1   force =     0.00079467    0.00057324   -0.00067851
     atom   37 type  1   force =     0.00034233    0.00017521    0.00015458
     atom   38 type  1   force =     0.00057668    0.00066329    0.00052996
     atom   39 type  2   force =     0.00069633   -0.00023925   -0.00027027
     atom   40 type  2   force =    -0.00045520   -0.00042009   -0.00031368
     atom   41 type  2   force =     0.00092768    0.00021092    0.00006872
     atom   42 type  1   force =    -0.00005823    0.00048127    0.00038872
     atom   43 type  1   force =     0.00006121   -0.00009241    0.00044857
     atom   44 type  2   force =    -0.00042387    0.00079276   -0.00047816
     atom   45 type  1   force =    -0.00026656   -0.00024886   -0.00073507
     atom   46 type  1   force =    -0.00017554    0.00084864    0.00002523
     atom   47 type  1   force =    -0.00023661    0.00033142    0.00002405
     atom   48 type  3   force =    -0.00282255   -0.00123780    0.00029068
     atom   49 type  4   force =     0.00015900   -0.00051345    0.00018856
     atom   50 type  5   force =     0.00062379    0.00106465   -0.00048366
     atom   51 type  3   force =    -0.00023677    0.00070386   -0.00307346
     atom   52 type  5   force =     0.00142481   -0.00002794    0.00077934
     atom   53 type  5   force =    -0.00063740   -0.00006965    0.00107269
     atom   54 type  1   force =     0.00333300   -0.00000043    0.00246830

     Total force =     0.364528     Total SCF correction =     0.000808
  @ DRIVER MODE: Message from server: STATUS
  @ DRIVER MODE: Message from server: GETFORCE
  @ DRIVER MODE: Returning v,forces,stress,ensemble

     Writing output data file ./calc.save/
  @ DRIVER MODE: Message from server: EXIT
  @ DRIVE MODE: Exiting

     General routines

     Parallel routines

   This run was terminated on:  13: 9:55  27Sep2021

   JOB DONE.