     Program PWSCF v.6.7GPU starts on 10Sep2021 at 19:36: 5

     R & G space division:  proc/nbgrp/npool/nimage =      10
     Reading input from /storage/home/hcoda1/3/ntian30/research/carbon/CxH_vib/CH2_calc/ads_slab/CH2OH_f/out_0006/pw.inp
Warning: card &CELL ignored
Warning: card   CELL_DYNAMICS='IPI', ignored
Warning: card / ignored

     Current dimensions of program PWSCF are:
     Max number of different atomic species (ntypx) = 10
     Max number of k-points (npk) =  40000
     Max angular momentum in pseudopotentials (lmaxx) =  3
     Presently no symmetry can be used with electric field

     Message from routine cell_base_init:
     DEPRECATED: use true lattice parameter, not A to a.u. conversion factor

     IMPORTANT: XC functional enforced from input :
     Exchange-correlation= BEEF-VDW
                           (   1   4  43  14   2   0   0)
     Any further DFT definition will be discarded
     Please, verify this is what you really want

  @ DRIVER MODE: Connecting to
 qe_1139763_2792042.sched-torque.pace.gatech.edumpbeex88_scratch
  using UNIX socket
  @ DRIVER MODE: Message from server: STATUS
  @ DRIVER MODE: Message from server: INIT
  @ DRIVER MODE: Receiving replica           0          -1
  @ DRIVER MODE: Receiving encoded integer          25
  @ DRIVER MODE:  SCF:  T  FORCE:  T  STRESS:  F  VC:  F  ENSEMBLE:  F
  @ DRIVER MODE:  SCF:  T  FORCE:  T  STRESS:  F  VC:  F  ENSEMBLE:  F

     Using Slab Decomposition

     bravais-lattice index     =            0
     lattice parameter (alat)  =       1.8897  a.u.
     unit-cell volume          =    6658.9804 (a.u.)^3
     number of atoms/cell      =           52
     number of atomic types    =            4
     number of electrons       =       391.00
     number of Kohn-Sham states=          205
     kinetic-energy cutoff     =      29.3995  Ry
     charge density cutoff     =     293.9946  Ry
     scf convergence threshold =      7.3E-08
     mixing beta               =       0.0500
     number of iterations used =            8  plain     mixing
     Exchange-correlation= BEEF-VDW
                           (   1   4  43  14   2   0   0)

     celldm(1)=   1.889726  celldm(2)=   0.000000  celldm(3)=   0.000000
     celldm(4)=   0.000000  celldm(5)=   0.000000  celldm(6)=   0.000000

     crystal axes: (cart. coord. in units of alat)
               a(1) = (   6.579727   0.000000   0.000000 )
               a(2) = (  -0.000775   5.961596   0.000000 )
               a(3) = (   0.000000   0.000000  25.155947 )

     reciprocal axes: (cart. coord. in units 2 pi/alat)
               b(1) = (  0.151982  0.000020  0.000000 )
               b(2) = (  0.000000  0.167740  0.000000 )
               b(3) = (  0.000000  0.000000  0.039752 )

     PseudoPot. # 1 for O  read from file:
     /storage/coda1/p-amedford6/0/shared/rich_project_chbe-medford/medford-share/data/pseudos_module/espresso/nninc/pbe/van/O.UPF
     MD5 check sum: 78c19812648e8988a0fe644b0f25305e
     Pseudo is Ultrasoft, Zval =  6.0
     Generated by new atomic code, or converted to UPF format
     Using radial grid of  737 points,  4 beta functions with:
                l(1) =   0
                l(2) =   0
                l(3) =   1
                l(4) =   1
     Q(r) pseudized with  8 coefficients,  rinner =    0.800   0.800   0.800

     PseudoPot. # 2 for Ti read from file:
     /storage/coda1/p-amedford6/0/shared/rich_project_chbe-medford/medford-share/data/pseudos_module/espresso/nninc/pbe/van/Ti.UPF
     MD5 check sum: 8e4df49b7f0d34bbd5052bf3f5ea0213
     Pseudo is Ultrasoft, Zval = 12.0
     Generated by new atomic code, or converted to UPF format
     Using radial grid of  851 points,  6 beta functions with:
                l(1) =   0
                l(2) =   0
                l(3) =   1
                l(4) =   1
                l(5) =   2
                l(6) =   2
     Q(r) pseudized with  8 coefficients,  rinner =    1.000   1.000   1.000
                                                       1.000   1.000

     PseudoPot. # 3 for H  read from file:
     /storage/coda1/p-amedford6/0/shared/rich_project_chbe-medford/medford-share/data/pseudos_module/espresso/nninc/pbe/van/H.UPF
     MD5 check sum: b5ee9d7bfd3a09ee7748110bda690ff7
     Pseudo is Ultrasoft, Zval =  1.0
     Generated by new atomic code, or converted to UPF format
     Using radial grid of  615 points,  1 beta functions with:
                l(1) =   0
     Q(r) pseudized with  8 coefficients,  rinner =    0.800

     PseudoPot. # 4 for C  read from file:
     /storage/coda1/p-amedford6/0/shared/rich_project_chbe-medford/medford-share/data/pseudos_module/espresso/nninc/pbe/van/C.UPF
     MD5 check sum: 1a69bf6b8db32088f5b2163dbdb77a27
     Pseudo is Ultrasoft, Zval =  4.0
     Generated by new atomic code, or converted to UPF format
     Using radial grid of  721 points,  4 beta functions with:
                l(1) =   0
                l(2) =   0
                l(3) =   1
                l(4) =   1
     Q(r) pseudized with  8 coefficients,  rinner =    0.800   0.800   0.800

     atomic species   valence    mass     pseudopotential
        O1             6.00    15.99900     O ( 1.00)
        Ti1           12.00    47.86700     Ti( 1.00)
        H1             1.00     1.00800     H ( 1.00)
        C1             4.00    12.01100     C ( 1.00)

     No symmetry found

   Cartesian axes

     site n.     atom                  positions (alat units)
         1           O1  tau(   1) = (   3.2904802   0.0005063   4.7018136  )
         2           O1  tau(   2) = (   3.2900926   2.9813045   4.7018136  )
         3           Ti1 tau(   3) = (   0.0004258   2.9801865   6.0000000  )
         4           Ti1 tau(   4) = (   0.0000382   5.9609847   6.0000000  )
         5           Ti1 tau(   5) = (   3.2906075   1.4906267   6.0002472  )
         6           Ti1 tau(   6) = (   3.2902200   4.4714249   6.0002472  )
         7           O1  tau(   7) = (   1.3043587   1.4918075   6.0039043  )
         8           O1  tau(   8) = (   1.3039711   4.4726057   6.0039043  )
         9           O1  tau(   9) = (   5.2767064   1.4903225   6.0039473  )
        10           O1  tau(  10) = (   5.2763189   4.4711207   6.0039473  )
        11           O1  tau(  11) = (   3.2906025   0.0005020   7.3038282  )
        12           O1  tau(  12) = (   3.2902150   2.9813002   7.3038282  )
        13           O1  tau(  13) = (   0.0006271   0.0005054   7.9858123  )
        14           O1  tau(  14) = (   0.0002396   2.9813036   7.9858123  )
        15           Ti1 tau(  15) = (   3.3208325   5.9232416   9.1783542  )
        16           Ti1 tau(  16) = (   3.3324863   2.9377666   9.1648094  )
        17           Ti1 tau(  17) = (   0.0524917   1.4788520   9.2606301  )
        18           Ti1 tau(  18) = (   0.0483789   4.4105323   9.3105966  )
        19           O1  tau(  19) = (   4.5942328   1.4918067   9.2879030  )
        20           O1  tau(  20) = (   4.5938453   4.4726049   9.2879030  )
        21           O1  tau(  21) = (   1.9868534   1.4903216   9.2879459  )
        22           O1  tau(  22) = (   1.9864658   4.4711199   9.2879459  )
        23           O1  tau(  23) = (   6.5712937   0.0017758  10.5841540  )
        24           O1  tau(  24) = (   0.0002036   2.9871675  10.5944109  )
        25           O1  tau(  25) = (   3.2216619   2.9970402  11.3379169  )
        26           O1  tau(  26) = (   3.2239595   0.0054171  11.3328765  )
        27           Ti1 tau(  27) = (   6.5319223   0.0329622  12.4533321  )
        28           Ti1 tau(  28) = (   3.1914638   1.6317768  12.6145244  )
        29           Ti1 tau(  29) = (   3.1843358   4.5420783  12.4476223  )
        30           Ti1 tau(  30) = (   6.4449355   3.0101977  12.6586491  )
        31           O1  tau(  31) = (   5.2440064   1.5124744  12.5792363  )
        32           O1  tau(  32) = (   5.2402295   4.4617308  12.5795526  )
        33           O1  tau(  33) = (   1.2196697   1.4730338  12.6667888  )
        34           O1  tau(  34) = (   1.2190574   4.4979232  12.6669875  )
        35           O1  tau(  35) = (   3.2067865   2.9341989  13.9395670  )
        36           O1  tau(  36) = (   3.3440650   5.9513154  13.9008253  )
        37           O1  tau(  37) = (   6.3267833   5.9539684  14.6370341  )
        38           O1  tau(  38) = (   6.3913104   2.9714873  14.7475579  )
        39           Ti1 tau(  39) = (   3.1260420   2.9476348  15.9752747  )
        40           Ti1 tau(  40) = (   3.1986908   5.9292636  15.6746755  )
        41           Ti1 tau(  41) = (   6.4744102   1.3498976  15.9078779  )
        42           Ti1 tau(  42) = (   6.4721656   4.5656371  15.8700466  )
        43           O1  tau(  43) = (   1.8677001   4.5604514  15.8157410  )
        44           O1  tau(  44) = (   1.8686447   1.3618557  15.8396546  )
        45           O1  tau(  45) = (   4.4008848   1.5192286  16.2292034  )
        46           O1  tau(  46) = (   4.3978686   4.4066597  16.2143399  )
        47           O1  tau(  47) = (   6.4830960   5.9408203  17.1431429  )
        48           O1  tau(  48) = (   0.4828407   2.9769521  17.5017737  )
        49           H1  tau(  49) = (   6.5026766   3.0145448  18.2851392  )
        50           C1  tau(  50) = (   1.9555054   2.9805414  17.9097346  )
        51           H1  tau(  51) = (   2.0761010   2.0893267  18.5304525  )
        52           H1  tau(  52) = (   2.0801140   3.8867162  18.5073456  )

     number of k points=    10  Fermi-Dirac smearing, width (Ry)=  0.0073
                       cart. coord. in units 2pi/alat
        k(    1) = (   0.0000000   0.0000000   0.0000000), wk =   0.1250000
        k(    2) = (   0.0000000   0.0419351   0.0000000), wk =   0.2500000
        k(    3) = (   0.0000000  -0.0838702   0.0000000), wk =   0.1250000
        k(    4) = (   0.0379955   0.0000049   0.0000000), wk =   0.2500000
        k(    5) = (   0.0379955   0.0419400   0.0000000), wk =   0.2500000
        k(    6) = (   0.0379955  -0.0838652   0.0000000), wk =   0.2500000
        k(    7) = (   0.0379955  -0.0419301   0.0000000), wk =   0.2500000
        k(    8) = (  -0.0759910  -0.0000099   0.0000000), wk =   0.1250000
        k(    9) = (  -0.0759910   0.0419252   0.0000000), wk =   0.2500000
        k(   10) = (  -0.0759910  -0.0838800   0.0000000), wk =   0.1250000

     Initial potential from superposition of free atoms

     starting charge  374.99918, renormalised to  391.00000

     negative rho (up, down):  1.929E-02 0.000E+00

     %%%%%%%%%%%%%%%%%%%%%%%%%%%%%%%%%%%%%%%%%%%%%%%%%%%%%%%%%%%%%%%%%%%%%%%%
     %                                                                      %
     % You are using vdW-DF, which was implemented by the Thonhauser group. %
     % Please cite the following two papers that made this development      %
     % possible and the two reviews that describe the various versions:     %
     %                                                                      %
     %   T. Thonhauser et al., PRL 115, 136402 (2015).                      %
     %   T. Thonhauser et al., PRB 76, 125112 (2007).                       %
     %   K. Berland et al., Rep. Prog. Phys. 78, 066501 (2015).             %
     %   D.C. Langreth et al., J. Phys.: Condens. Matter 21, 084203 (2009). %
     %                                                                      %
     %                                                                      %
     % If you are calculating the stress with vdW-DF, please also cite:     %
     %                                                                      %
     %   R. Sabatini et al., J. Phys.: Condens. Matter 24, 424209 (2012).   %
     %                                                                      %
     %%%%%%%%%%%%%%%%%%%%%%%%%%%%%%%%%%%%%%%%%%%%%%%%%%%%%%%%%%%%%%%%%%%%%%%%

     Adding external electric field

     Computed dipole along edir(3) :
        Dipole               -5.2542 Ry au,        -13.3549 Debye
        Dipole field         -0.0099 Ry au,

        Potential amp.        0.9191 Ry
        Total length         46.3494 bohr

     Starting wfcs are  295 atomic wfcs
  @ DRIVER MODE: Message from server: STATUS
  @ DRIVER MODE: Message from server: POSDATA
  @ DRIVER MODE: Reading and sharing cell
  @ DRIVER MODE: Reading and sharing positions
  @ DRIVER MODE: Received positions

     Self-consistent Calculation

     iteration #  1     ecut=    29.40 Ry     beta= 0.05
     Davidson diagonalization with overlap
     c_bands:  1 eigenvalues not converged
     c_bands:  4 eigenvalues not converged
     c_bands:  3 eigenvalues not converged
     c_bands:  2 eigenvalues not converged
     c_bands:  4 eigenvalues not converged
     c_bands:  1 eigenvalues not converged
     c_bands:  1 eigenvalues not converged
     c_bands:  3 eigenvalues not converged
     ethr =  1.00E-05,  avg # of iterations = 19.6

[...]

     total energy              =   -2799.88411127 Ry
     estimated scf accuracy    <    1444.68205076 Ry

     iteration #  2     ecut=    29.40 Ry     beta= 0.05
     Davidson diagonalization with overlap
     ethr =  1.00E-02,  avg # of iterations = 17.0

[...]

     iteration # 49     ecut=    29.40 Ry     beta= 0.05
     Davidson diagonalization with overlap
     c_bands:  1 eigenvalues not converged
     c_bands:  1 eigenvalues not converged
     ethr =  2.88E-07,  avg # of iterations =  5.0

[...]

     total energy              =   -2931.32912623 Ry
     estimated scf accuracy    <       0.00000018 Ry

     iteration # 70     ecut=    29.40 Ry     beta= 0.05
     Davidson diagonalization with overlap
     ethr =  4.63E-11,  avg # of iterations = 11.5

     negative rho (up, down):  1.889E-02 0.000E+00

     Adding external electric field

     Computed dipole along edir(3) :
        Dipole                0.9488 Ry au,          2.4115 Debye
        Dipole field          0.0018 Ry au,

        Potential amp.       -0.1660 Ry
        Total length         46.3494 bohr

     End of self-consistent calculation

          k = 0.0000 0.0000 0.0000 ( 18029 PWs)   bands (ev):

   -55.8534 -55.8158 -55.7615 -55.7497 -55.6963 -55.6879 -55.6726 -55.6682
   -55.6380 -55.6190 -55.6173 -55.5916 -55.5849 -55.5667 -54.8285 -54.7944
   -32.3635 -32.3278 -32.2370 -32.2076 -32.1623 -32.1373 -32.1244 -32.1005
   -32.0919 -32.0641 -32.0387 -32.0164 -32.0081 -31.9951 -31.9687 -31.9606
   -31.9498 -31.9381 -31.9197 -31.9173 -31.9127 -31.9075 -31.8791 -31.8607
   -31.8556 -31.8525 -31.8511 -31.8411 -31.8346 -31.8244 -31.8167 -31.8143
   -31.8040 -31.7916 -31.7881 -31.7876 -31.7742 -31.7685 -31.7504 -31.7398
   -31.7207 -31.6457 -31.2358 -31.1462 -31.1237 -31.0526 -30.9663 -30.8549
   -19.5755 -16.5574 -16.3414 -16.1545 -16.0560 -16.0050 -15.8370 -15.7541
   -15.5440 -15.4915 -15.4791 -15.4536 -15.3976 -15.3810 -15.3748 -15.3560
   -15.3436 -15.3193 -15.2598 -15.2510 -15.2428 -15.2079 -15.1504 -15.1198
   -14.9932 -14.9844 -14.9688 -14.9498 -14.8663 -14.7359 -13.3286 -13.2117
    -9.6353  -6.4484  -4.1958  -3.9872  -3.8649  -3.7713  -3.7547  -3.7351
    -3.5710  -3.4990  -3.2743  -3.1424  -3.0924  -3.0242  -2.9834  -2.9220
    -2.8295  -2.7667  -2.7251  -2.6849  -2.6510  -2.6495  -2.6341  -2.5802
    -2.5502  -2.5044  -2.4047  -2.4015  -2.3493  -2.2928  -2.2527  -2.2108
    -2.1692  -2.1542  -2.1334  -2.0968  -2.0636  -2.0539  -2.0213  -1.9911
    -1.9343  -1.8520  -1.8229  -1.5611  -1.4700  -1.3842  -1.3704  -1.3033
    -1.2798  -1.2506  -1.2354  -1.1922  -1.1726  -1.0975  -1.0881  -1.0162
    -0.9740  -0.8932  -0.8328  -0.7565  -0.6931  -0.6342  -0.6128  -0.5830
    -0.5675  -0.5575  -0.3948  -0.3852  -0.3579  -0.2472  -0.2309  -0.1670
    -0.1430  -0.0810  -0.0570   0.0073   0.0653   0.0870   0.1086   0.1450
     0.1553   0.1675   0.2099   0.2915   0.3818   0.3955   0.4128   0.4760
     0.6415   0.7155   0.8188   0.8831   1.1212   1.1963   1.2344   1.2835
     1.3827   1.7702   1.8232   3.2944   3.3640   3.4121   3.4221   3.4611
     3.5429   3.7337   3.7411   3.7991   3.8915

[...]

          k = 0.0380-0.0419 0.0000 ( 17876 PWs)   bands (ev):

[...]

          k =-0.0760-0.0000 0.0000 ( 17886 PWs)   bands (ev):

[...]

          k =-0.0760-0.0839 0.0000 ( 17948 PWs)   bands (ev):

   -55.8426 -55.8265 -55.7572 -55.7431 -55.7027 -55.6917 -55.6691 -55.6629
   -55.6299 -55.6244 -55.6027 -55.6009 -55.5992 -55.5692 -54.8115 -54.8112
   -32.2866 -32.1514 -32.1399 -32.1357 -32.1122 -32.0878 -32.0828 -32.0555
   -32.0240 -32.0071 -31.9970 -31.9930 -31.9802 -31.9705 -31.9687 -31.9638
   -31.9627 -31.9548 -31.9523 -31.9367 -31.9344 -31.9266 -31.9036 -31.9002
   -31.8961 -31.8892 -31.8875 -31.8773 -31.8692 -31.8632 -31.8492 -31.8467
   -31.8373 -31.8285 -31.8265 -31.8168 -31.8137 -31.8115 -31.8097 -31.7977
   -31.7939 -31.6472 -31.1366 -31.1362 -31.0492 -31.0482 -31.0097 -31.0090
   -19.5699 -16.1476 -15.9619 -15.8081 -15.7944 -15.7886 -15.6369 -15.6333
   -15.6082 -15.5715 -15.5387 -15.5209 -15.4828 -15.4784 -15.4355 -15.3842
   -15.3779 -15.3657 -15.3392 -15.2881 -15.2758 -15.2609 -15.1845 -15.1732
   -15.1647 -15.1385 -15.1357 -15.1041 -15.1033 -15.0279 -13.3153 -13.3116
    -9.6357  -6.4320  -4.2020  -3.8439  -3.2870  -3.2132  -3.0209  -3.0058
    -2.9314  -2.8964  -2.8704  -2.8301  -2.7802  -2.7731  -2.7585  -2.6840
    -2.6603  -2.6557  -2.6109  -2.5980  -2.5878  -2.5712  -2.5575  -2.5208
    -2.4970  -2.4729  -2.4497  -2.4345  -2.4127  -2.4040  -2.3993  -2.3540
    -2.3314  -2.2126  -2.1219  -2.0591  -2.0108  -1.9719  -1.9452  -1.9266
    -1.9089  -1.8949  -1.8816  -1.8417  -1.7727  -1.6082  -1.5283  -1.5235
    -1.4593  -1.4402  -1.3890  -1.3691  -1.2940  -1.2596  -1.2059  -1.2021
    -1.1862  -1.0844  -1.0600  -0.9674  -0.9334  -0.8286  -0.8053  -0.7919
    -0.7729  -0.7308  -0.7089  -0.6456  -0.6230  -0.5848  -0.5574  -0.5066
    -0.4613  -0.4442  -0.3467  -0.3058  -0.2521  -0.2048  -0.1365  -0.0287
     0.1499   0.1723   0.2072   0.3119   0.3510   0.4219   0.4787   0.4974
     0.5612   0.5977   0.6417   0.6906   0.7538   0.7904   1.2478   1.5579
     1.5664   1.6310   1.6425   3.5974   3.6460   3.7657   3.7785   3.8084
     3.8189   3.8327   3.8473   3.8967   3.9533

     the Fermi energy is     3.2879 ev

!    total energy              =   -2931.32914309 Ry
     estimated scf accuracy    <       0.00000006 Ry
     smearing contrib. (-TS)   =      -0.02172335 Ry
     internal energy E=F+TS    =   -2931.30741974 Ry

     The total energy is F=E-TS. E is the sum of the following terms:
     one-electron contribution =  -24941.23213814 Ry
     hartree contribution      =   12556.98503003 Ry
     xc contribution           =    -482.04836509 Ry
     ewald contribution        =    9934.98635476 Ry
     electric field correction =       0.00169870 Ry

     convergence has been achieved in  70 iterations

     Forces acting on atoms (cartesian axes, Ry/au):

     atom    1 type  1   force =    -0.00001276    0.00009979    0.10307416
     atom    2 type  1   force =     0.00000500    0.00011302    0.10338474
     atom    3 type  2   force =    -0.00029342    0.00099208    0.09591960
     atom    4 type  2   force =    -0.00014891   -0.00100371    0.10944553
     atom    5 type  2   force =    -0.00014892   -0.00320320   -0.17643262
     atom    6 type  2   force =    -0.00014186    0.00268490   -0.17603755
     atom    7 type  1   force =    -0.07086505    0.00113410   -0.02853647
     atom    8 type  1   force =    -0.07121244   -0.00152268   -0.02856442
     atom    9 type  1   force =     0.07070933    0.00155018   -0.02856649
     atom   10 type  1   force =     0.07093033   -0.00114671   -0.02861184
     atom   11 type  1   force =     0.00048521   -0.00020842    0.05106831
     atom   12 type  1   force =     0.00072101   -0.00041997    0.05034368
     atom   13 type  1   force =     0.00061237    0.00264336   -0.02980022
     atom   14 type  1   force =     0.00055674   -0.00111742   -0.02627468
     atom   15 type  2   force =     0.00018742   -0.00145976   -0.00050224
     atom   16 type  2   force =    -0.00011080    0.00157386   -0.00009263
     atom   17 type  2   force =    -0.00008248   -0.00003973    0.00028767
     atom   18 type  2   force =     0.00008692    0.00060954    0.00039514
     atom   19 type  1   force =    -0.01648016    0.00012905    0.00405791
     atom   20 type  1   force =    -0.01693205   -0.00138385    0.00405931
     atom   21 type  1   force =     0.01272112    0.00185706    0.00030336
     atom   22 type  1   force =     0.01236979    0.00142219    0.00047046
     atom   23 type  1   force =     0.00020043   -0.00009784   -0.00056092
     atom   24 type  1   force =     0.00017529   -0.00040955   -0.00041410
     atom   25 type  1   force =     0.00035283   -0.00003535   -0.00000203
     atom   26 type  1   force =     0.00006466   -0.00044208   -0.00066682
     atom   27 type  2   force =    -0.00000153   -0.00060146   -0.00033530
     atom   28 type  2   force =     0.00016575    0.00007554   -0.00029334
     atom   29 type  2   force =    -0.00012091   -0.00111169    0.00031811
     atom   30 type  2   force =     0.00037357    0.00034428    0.00010435
     atom   31 type  1   force =     0.00014958    0.00005986   -0.00005045
     atom   32 type  1   force =    -0.00009663   -0.00034882    0.00041137
     atom   33 type  1   force =     0.00022324   -0.00016885   -0.00011885
     atom   34 type  1   force =     0.00049273   -0.00037808    0.00026309
     atom   35 type  1   force =    -0.00012515    0.00014659    0.00175689
     atom   36 type  1   force =     0.00034613    0.00014125    0.00032040
     atom   37 type  1   force =     0.00012811   -0.00001719    0.00008998
     atom   38 type  1   force =     0.00052047   -0.00038916    0.00054292
     atom   39 type  2   force =     0.00007432    0.00132964   -0.00059128
     atom   40 type  2   force =     0.00044421   -0.00027017    0.00018040
     atom   41 type  2   force =     0.00013315   -0.00076152    0.00083311
     atom   42 type  2   force =     0.00027337    0.00054095    0.00039903
     atom   43 type  1   force =     0.00071331    0.00003812    0.00006550
     atom   44 type  1   force =     0.00038790   -0.00004664    0.00007478
     atom   45 type  1   force =     0.00017365   -0.00004319   -0.00000451
     atom   46 type  1   force =     0.00044959   -0.00025310    0.00017136
     atom   47 type  1   force =     0.00050729    0.00041551   -0.00066136
     atom   48 type  1   force =     0.00705383   -0.00077162   -0.01803155
     atom   49 type  3   force =    -0.00748065    0.00015966    0.01383978
     atom   50 type  4   force =    -0.00118875   -0.00052382    0.00260947
     atom   51 type  3   force =     0.00140840    0.00004569    0.00027085
     atom   52 type  3   force =     0.00124539    0.00006936    0.00008844

     Total force =     0.369222     Total SCF correction =     0.000745
  @ DRIVER MODE: Message from server: STATUS
  @ DRIVER MODE: Message from server: GETFORCE
  @ DRIVER MODE: Returning v,forces,stress,ensemble

     Writing output data file ./calc.save/
  @ DRIVER MODE: Message from server: EXIT
  @ DRIVE MODE: Exiting

     General routines

     Parallel routines

   This run was terminated on:  19:53:50  10Sep2021

   JOB DONE.