     Program PWSCF v.6.7GPU starts on 24Aug2021 at  3:39:12

     R & G space division:  proc/nbgrp/npool/nimage =       6
     Reading input from /storage/home/hcoda1/3/ntian30/research/carbon/CH_vib/ads_slab/CHN2H_a/out_0028/pw.inp
Warning: card &CELL ignored
Warning: card   CELL_DYNAMICS='IPI', ignored
Warning: card / ignored

     Current dimensions of program PWSCF are:
     Max number of different atomic species (ntypx) = 10
     Max number of k-points (npk) =  40000
     Max angular momentum in pseudopotentials (lmaxx) =  3
     Presently no symmetry can be used with electric field

     Message from routine cell_base_init:
     DEPRECATED: use true lattice parameter, not A to a.u. conversion factor

     IMPORTANT: XC functional enforced from input :
     Exchange-correlation= BEEF-VDW
                           (   1   4  43  14   2   0   0)
     Any further DFT definition will be discarded
     Please, verify this is what you really want

  @ DRIVER MODE: Connecting to
 qe_1139763_2632792.sched-torque.pace.gatech.eduoo47bltv_scratch
  using UNIX socket
  @ DRIVER MODE: Message from server: STATUS
  @ DRIVER MODE: Message from server: INIT
  @ DRIVER MODE: Receiving replica           0          -1
  @ DRIVER MODE: Receiving encoded integer          25
  @ DRIVER MODE:  SCF:  T  FORCE:  T  STRESS:  F  VC:  F  ENSEMBLE:  F
  @ DRIVER MODE:  SCF:  T  FORCE:  T  STRESS:  F  VC:  F  ENSEMBLE:  F

     Using Slab Decomposition

     bravais-lattice index     =            0
     lattice parameter (alat)  =       1.8897  a.u.
     unit-cell volume          =    6658.9804 (a.u.)^3
     number of atoms/cell      =           52
     number of atomic types    =            5
     number of electrons       =       394.00
     number of Kohn-Sham states=          207
     kinetic-energy cutoff     =      29.3995  Ry
     charge density cutoff     =     293.9946  Ry
     scf convergence threshold =      7.3E-08
     mixing beta               =       0.0500
     number of iterations used =            8  plain     mixing
     Exchange-correlation= BEEF-VDW
                           (   1   4  43  14   2   0   0)

     celldm(1)=   1.889726  celldm(2)=   0.000000  celldm(3)=   0.000000
     celldm(4)=   0.000000  celldm(5)=   0.000000  celldm(6)=   0.000000

     crystal axes: (cart. coord. in units of alat)
               a(1) = (   6.579727   0.000000   0.000000 )
               a(2) = (  -0.000775   5.961596   0.000000 )
               a(3) = (   0.000000   0.000000  25.155947 )

     reciprocal axes: (cart. coord. in units 2 pi/alat)
               b(1) = (  0.151982  0.000020  0.000000 )
               b(2) = (  0.000000  0.167740  0.000000 )
               b(3) = (  0.000000  0.000000  0.039752 )

     PseudoPot. # 1 for Ti read from file:
     /storage/coda1/p-amedford6/0/shared/rich_project_chbe-medford/medford-share/data/pseudos_module/espresso/nninc/pbe/van/Ti.UPF
     MD5 check sum: 8e4df49b7f0d34bbd5052bf3f5ea0213
     Pseudo is Ultrasoft, Zval = 12.0
     Generated by new atomic code, or converted to UPF format
     Using radial grid of  851 points,  6 beta functions with:
                l(1) =   0
                l(2) =   0
                l(3) =   1
                l(4) =   1
                l(5) =   2
                l(6) =   2
     Q(r) pseudized with  8 coefficients,  rinner =    1.000   1.000   1.000
                                                       1.000   1.000

     PseudoPot. # 2 for O  read from file:
     /storage/coda1/p-amedford6/0/shared/rich_project_chbe-medford/medford-share/data/pseudos_module/espresso/nninc/pbe/van/O.UPF
     MD5 check sum: 78c19812648e8988a0fe644b0f25305e
     Pseudo is Ultrasoft, Zval =  6.0
     Generated by new atomic code, or converted to UPF format
     Using radial grid of  737 points,  4 beta functions with:
                l(1) =   0
                l(2) =   0
                l(3) =   1
                l(4) =   1
     Q(r) pseudized with  8 coefficients,  rinner =    0.800   0.800   0.800

     PseudoPot. # 3 for N  read from file:
     /storage/coda1/p-amedford6/0/shared/rich_project_chbe-medford/medford-share/data/pseudos_module/espresso/nninc/pbe/van/N.UPF
     MD5 check sum: 90d10febe142ad51ac9d5be1deb811c4
     Pseudo is Ultrasoft, Zval =  5.0
     Generated by new atomic code, or converted to UPF format
     Using radial grid of  729 points,  4 beta functions with:
                l(1) =   0
                l(2) =   0
                l(3) =   1
                l(4) =   1
     Q(r) pseudized with  8 coefficients,  rinner =    0.800   0.800   0.800

     PseudoPot. # 4 for C  read from file:
     /storage/coda1/p-amedford6/0/shared/rich_project_chbe-medford/medford-share/data/pseudos_module/espresso/nninc/pbe/van/C.UPF
     MD5 check sum: 1a69bf6b8db32088f5b2163dbdb77a27
     Pseudo is Ultrasoft, Zval =  4.0
     Generated by new atomic code, or converted to UPF format
     Using radial grid of  721 points,  4 beta functions with:
                l(1) =   0
                l(2) =   0
                l(3) =   1
                l(4) =   1
     Q(r) pseudized with  8 coefficients,  rinner =    0.800   0.800   0.800

     PseudoPot. # 5 for H  read from file:
     /storage/coda1/p-amedford6/0/shared/rich_project_chbe-medford/medford-share/data/pseudos_module/espresso/nninc/pbe/van/H.UPF
     MD5 check sum: b5ee9d7bfd3a09ee7748110bda690ff7
     Pseudo is Ultrasoft, Zval =  1.0
     Generated by new atomic code, or converted to UPF format
     Using radial grid of  615 points,  1 beta functions with:
                l(1) =   0
     Q(r) pseudized with  8 coefficients,  rinner =    0.800

     atomic species   valence    mass     pseudopotential
        Ti1           12.00    47.86700     Ti( 1.00)
        O1             6.00    15.99900     O ( 1.00)
        N1             5.00    14.00700     N ( 1.00)
        C1             4.00    12.01100     C ( 1.00)
        H1             1.00     1.00800     H ( 1.00)

     No symmetry found

   Cartesian axes

     site n.     atom                  positions (alat units)
         1           Ti1 tau(   1) = (   0.0004258   2.9801865   6.0000000  )
         2           Ti1 tau(   2) = (   3.2906075   1.4906267   6.0002472  )
         3           O1  tau(   3) = (   0.0006271   0.0005054   7.9858123  )
         4           O1  tau(   4) = (   3.2906025   0.0005020   7.3038282  )
         5           O1  tau(   5) = (   4.5942328   1.4918067   9.2879030  )
         6           O1  tau(   6) = (   1.9868534   1.4903216   9.2879459  )
         7           Ti1 tau(   7) = (   3.2907910   2.8959150   9.1758416  )
         8           Ti1 tau(   8) = (   0.0015273   1.4827037   9.2680791  )
         9           O1  tau(   9) = (   3.3079035   5.9465650  11.3667630  )
        10           O1  tau(  10) = (   0.0116148   5.9584955  10.6183126  )
        11           O1  tau(  11) = (   1.3159687   1.4802111  12.6598234  )
        12           O1  tau(  12) = (   5.3141237   1.4785834  12.6569702  )
        13           Ti1 tau(  13) = (   0.0356438   2.9569522  12.5500042  )
        14           Ti1 tau(  14) = (   3.3321116   1.4682926  12.5176941  )
        15           O1  tau(  15) = (   0.0287262   5.9365737  14.6848071  )
        16           O1  tau(  16) = (   3.3260766   5.9477468  13.9918032  )
        17           O1  tau(  17) = (   4.5788076   1.5006004  16.1778977  )
        18           O1  tau(  18) = (   2.0653823   1.4932191  16.1519216  )
        19           Ti1 tau(  19) = (   3.3252840   2.9629899  15.7366588  )
        20           Ti1 tau(  20) = (   0.0567170   1.3280226  15.9864722  )
        21           O1  tau(  21) = (   3.2904802   0.0005063   4.7018136  )
        22           O1  tau(  22) = (   0.0395201   5.9563027  17.2132275  )
        23           O1  tau(  23) = (   1.3043587   1.4918075   6.0039043  )
        24           O1  tau(  24) = (   5.2767064   1.4903225   6.0039473  )
        25           Ti1 tau(  25) = (   0.0000382   5.9609847   6.0000000  )
        26           Ti1 tau(  26) = (   3.2902200   4.4714249   6.0002472  )
        27           O1  tau(  27) = (   0.0002396   2.9813036   7.9858123  )
        28           O1  tau(  28) = (   3.2902150   2.9813002   7.3038282  )
        29           O1  tau(  29) = (   4.5938453   4.4726049   9.2879030  )
        30           O1  tau(  30) = (   1.9864658   4.4711199   9.2879459  )
        31           Ti1 tau(  31) = (   3.2891106   5.8743827   9.1763621  )
        32           Ti1 tau(  32) = (   0.0006254   4.4649316   9.2693709  )
        33           O1  tau(  33) = (   3.3109971   2.9638951  11.3609806  )
        34           O1  tau(  34) = (   0.0092240   2.9805883  10.6323155  )
        35           O1  tau(  35) = (   1.3172493   4.4579999  12.6547637  )
        36           O1  tau(  36) = (   5.3123203   4.4599931  12.6537913  )
        37           Ti1 tau(  37) = (   0.0349292   5.9384232  12.5038109  )
        38           Ti1 tau(  38) = (   3.3308216   4.4462378  12.5132791  )
        39           O1  tau(  39) = (   0.0262156   2.9786664  14.8481040  )
        40           O1  tau(  40) = (   3.3240488   2.9673873  13.9486158  )
        41           O1  tau(  41) = (   4.5778164   4.4375445  16.1741249  )
        42           O1  tau(  42) = (   2.0647505   4.4412733  16.1578575  )
        43           Ti1 tau(  43) = (   3.3314326   5.9455663  15.7867969  )
        44           Ti1 tau(  44) = (   0.0345939   4.5236910  15.9072353  )
        45           O1  tau(  45) = (   3.2900926   2.9813045   4.7018136  )
        46           O1  tau(  46) = (   1.3039711   4.4726057   6.0039043  )
        47           O1  tau(  47) = (   5.2763189   4.4711207   6.0039473  )
        48           N1  tau(  48) = (   0.8843530   3.1395628  18.6524426  )
        49           C1  tau(  49) = (   1.8908588   3.1194352  19.2834450  )
        50           H1  tau(  50) = (   2.4245030   3.8971110  19.8100181  )
        51           N1  tau(  51) = (   6.5588057   2.9807634  17.7841789  )
        52           H1  tau(  52) = (   5.6432114   2.8991999  18.2270943  )

     number of k points=    10  Fermi-Dirac smearing, width (Ry)=  0.0073
                       cart. coord. in units 2pi/alat
        k(    1) = (   0.0000000   0.0000000   0.0000000), wk =   0.1250000
        k(    2) = (   0.0000000   0.0419351   0.0000000), wk =   0.2500000
        k(    3) = (   0.0000000  -0.0838702   0.0000000), wk =   0.1250000
        k(    4) = (   0.0379955   0.0000049   0.0000000), wk =   0.2500000
        k(    5) = (   0.0379955   0.0419400   0.0000000), wk =   0.2500000
        k(    6) = (   0.0379955  -0.0838652   0.0000000), wk =   0.2500000
        k(    7) = (   0.0379955  -0.0419301   0.0000000), wk =   0.2500000
        k(    8) = (  -0.0759910  -0.0000099   0.0000000), wk =   0.1250000
        k(    9) = (  -0.0759910   0.0419252   0.0000000), wk =   0.2500000
        k(   10) = (  -0.0759910  -0.0838800   0.0000000), wk =   0.1250000

     Initial potential from superposition of free atoms

     starting charge  377.99917, renormalised to  394.00000

     negative rho (up, down):  1.653E-02 0.000E+00

     %%%%%%%%%%%%%%%%%%%%%%%%%%%%%%%%%%%%%%%%%%%%%%%%%%%%%%%%%%%%%%%%%%%%%%%%
     %                                                                      %
     % You are using vdW-DF, which was implemented by the Thonhauser group. %
     % Please cite the following two papers that made this development      %
     % possible and the two reviews that describe the various versions:     %
     %                                                                      %
     %   T. Thonhauser et al., PRL 115, 136402 (2015).                      %
     %   T. Thonhauser et al., PRB 76, 125112 (2007).                       %
     %   K. Berland et al., Rep. Prog. Phys. 78, 066501 (2015).             %
     %   D.C. Langreth et al., J. Phys.: Condens. Matter 21, 084203 (2009). %
     %                                                                      %
     %                                                                      %
     % If you are calculating the stress with vdW-DF, please also cite:     %
     %                                                                      %
     %   R. Sabatini et al., J. Phys.: Condens. Matter 24, 424209 (2012).   %
     %                                                                      %
     %%%%%%%%%%%%%%%%%%%%%%%%%%%%%%%%%%%%%%%%%%%%%%%%%%%%%%%%%%%%%%%%%%%%%%%%

     Adding external electric field

     Computed dipole along edir(3) :
        Dipole               -8.4995 Ry au,        -21.6035 Debye
        Dipole field         -0.0160 Ry au,

        Potential amp.        1.4869 Ry
        Total length         46.3494 bohr

     Starting wfcs are  298 atomic wfcs
  @ DRIVER MODE: Message from server: STATUS
  @ DRIVER MODE: Message from server: POSDATA
  @ DRIVER MODE: Reading and sharing cell
  @ DRIVER MODE: Reading and sharing positions
  @ DRIVER MODE: Received positions

     Self-consistent Calculation

     iteration #  1     ecut=    29.40 Ry     beta= 0.05
     Davidson diagonalization with overlap
     c_bands:  1 eigenvalues not converged
     c_bands:  1 eigenvalues not converged
     c_bands:  2 eigenvalues not converged
     c_bands:  2 eigenvalues not converged
     c_bands:  2 eigenvalues not converged
     c_bands:  1 eigenvalues not converged
     ethr =  1.00E-05,  avg # of iterations = 19.0

[...]

     total energy              =   -2624.26689591 Ry
     estimated scf accuracy    <    3488.43699371 Ry

[...]

     iteration #  3     ecut=    29.40 Ry     beta= 0.05
     Davidson diagonalization with overlap
     ethr =  1.00E-02,  avg # of iterations = 14.3

[...]

     iteration # 69     ecut=    29.40 Ry     beta= 0.05
     Davidson diagonalization with overlap
     c_bands:  1 eigenvalues not converged
     ethr =  4.97E-11,  avg # of iterations = 13.6

[...]

     total energy              =   -2937.80858309 Ry
     estimated scf accuracy    <       0.00000008 Ry

     iteration # 71     ecut=    29.40 Ry     beta= 0.05
     Davidson diagonalization with overlap
     ethr =  2.11E-11,  avg # of iterations = 12.0

     negative rho (up, down):  1.629E-02 0.000E+00

     Adding external electric field

     Computed dipole along edir(3) :
        Dipole                1.2908 Ry au,          3.2809 Debye
        Dipole field          0.0024 Ry au,

        Potential amp.       -0.2258 Ry
        Total length         46.3494 bohr

     End of self-consistent calculation

          k = 0.0000 0.0000 0.0000 ( 18029 PWs)   bands (ev):

   -55.4361 -55.4001 -55.3999 -55.3658 -55.3295 -55.3136 -55.2707 -55.2490
   -55.2449 -55.2340 -55.2264 -55.2145 -55.1930 -55.1664 -54.4179 -54.3838
   -32.0051 -31.8905 -31.8299 -31.7994 -31.7554 -31.7477 -31.7383 -31.7293
   -31.6895 -31.6827 -31.6452 -31.6444 -31.6370 -31.6099 -31.5905 -31.5722
   -31.5679 -31.5617 -31.5533 -31.5477 -31.5131 -31.5120 -31.5023 -31.4938
   -31.4793 -31.4570 -31.4512 -31.4494 -31.4446 -31.4405 -31.4374 -31.4231
   -31.4151 -31.4088 -31.4032 -31.3982 -31.3766 -31.3636 -31.3617 -31.3557
   -31.3351 -31.2735 -30.8268 -30.7339 -30.7117 -30.6432 -30.5565 -30.4456
   -20.2331 -16.2506 -15.9783 -15.8344 -15.7109 -15.6264 -15.4995 -15.4611
   -15.3450 -15.3407 -15.2281 -15.1526 -15.0854 -15.0832 -15.0660 -15.0386
   -14.9877 -14.9712 -14.9688 -14.9264 -14.9241 -14.8823 -14.8628 -14.8287
   -14.8110 -14.7919 -14.7743 -14.6520 -14.5827 -14.5239 -14.1626 -12.9208
   -12.8035  -8.8168  -7.1514  -5.4324  -4.7221  -3.5957  -3.4358  -3.3489
    -3.3326  -3.3301  -3.1640  -3.0360  -2.8086  -2.7716  -2.6971  -2.6428
    -2.6248  -2.6030  -2.4254  -2.4009  -2.3412  -2.3140  -2.2764  -2.2464
    -2.2214  -2.2021  -2.1939  -2.1754  -2.1618  -2.0009  -1.9022  -1.8713
    -1.8358  -1.8217  -1.7622  -1.7292  -1.7234  -1.7214  -1.7124  -1.6691
    -1.6496  -1.6016  -1.5003  -1.4706  -1.4452  -1.3193  -1.3014  -1.1540
    -1.0687  -0.9840  -0.9767  -0.9100  -0.9043  -0.8709  -0.8199  -0.7952
    -0.7714  -0.6378  -0.5672  -0.5094  -0.4950  -0.4505  -0.4051  -0.3691
    -0.2760  -0.2117  -0.2039  -0.1920  -0.0270  -0.0125   0.0342   0.0836
     0.1084   0.1568   0.1824   0.2515   0.2854   0.3310   0.3612   0.4578
     0.4980   0.5179   0.5318   0.5512   0.5636   0.6240   0.6907   0.7092
     0.7575   0.8146   0.9255   1.1231   1.1849   1.1981   1.5142   1.5483
     1.6045   1.7897   2.1795   2.2272   3.6640   3.7355   3.7993   3.8143
     3.8232   3.8996   4.0755   4.1472   4.1628   4.1695   4.1809

[...]

          k = 0.0380-0.0419 0.0000 ( 17876 PWs)   bands (ev):

[...]

          k =-0.0760-0.0000 0.0000 ( 17886 PWs)   bands (ev):

[...]

          k =-0.0760-0.0839 0.0000 ( 17948 PWs)   bands (ev):

   -55.4191 -55.4168 -55.3829 -55.3827 -55.3262 -55.3050 -55.2792 -55.2405
   -55.2372 -55.2327 -55.2301 -55.2101 -55.2097 -55.1705 -54.4009 -54.4007
   -31.8100 -31.8072 -31.7484 -31.7286 -31.7058 -31.7054 -31.6937 -31.6750
   -31.6747 -31.6465 -31.6373 -31.6319 -31.6287 -31.5883 -31.5666 -31.5633
   -31.5632 -31.5553 -31.5548 -31.5442 -31.5315 -31.5221 -31.5118 -31.5080
   -31.5037 -31.5023 -31.5023 -31.4973 -31.4736 -31.4658 -31.4650 -31.4629
   -31.4464 -31.4438 -31.4434 -31.4344 -31.4330 -31.4281 -31.3902 -31.3896
   -31.3844 -31.3649 -30.7245 -30.7243 -30.6394 -30.6392 -30.6000 -30.5998
   -20.2318 -15.7060 -15.6858 -15.6270 -15.4210 -15.4188 -15.4064 -15.3922
   -15.3728 -15.2334 -15.2146 -15.1983 -15.1805 -15.1384 -15.1351 -15.1195
   -15.1089 -15.0095 -15.0073 -15.0052 -15.0038 -14.9415 -14.9336 -14.9197
   -14.8852 -14.8821 -14.8530 -14.7831 -14.7802 -14.6475 -14.4831 -12.9052
   -12.9050  -8.8021  -7.1711  -5.4308  -4.7053  -2.9612  -2.8909  -2.8478
    -2.6382  -2.6156  -2.6008  -2.5178  -2.4686  -2.4066  -2.3991  -2.3929
    -2.3334  -2.2983  -2.2847  -2.2665  -2.2584  -2.2413  -2.2195  -2.2084
    -2.1627  -2.1512  -2.1417  -2.1067  -2.0933  -2.0750  -2.0512  -2.0342
    -2.0164  -2.0111  -1.9916  -1.8310  -1.7796  -1.7330  -1.6823  -1.6721
    -1.6280  -1.6204  -1.5263  -1.4917  -1.4630  -1.4352  -1.4268  -1.2354
    -1.2202  -1.1675  -1.1630  -1.1393  -0.9835  -0.9633  -0.9472  -0.9304
    -0.8848  -0.8027  -0.7960  -0.7584  -0.6506  -0.6211  -0.6148  -0.5642
    -0.4431  -0.4212  -0.3986  -0.3929  -0.3870  -0.2937  -0.2764  -0.2680
    -0.2356  -0.2023  -0.1516  -0.1451  -0.0923   0.0901   0.1348   0.2002
     0.2793   0.4488   0.4877   0.5144   0.5557   0.6171   0.6899   0.7064
     0.7707   0.8645   0.8792   0.9093   0.9816   1.0345   1.0423   1.0667
     1.9625   1.9633   2.0471   2.0472   3.8334   3.8461   3.9081   3.9448
     3.9939   4.0848   4.1830   4.1993   4.2430   4.2446   4.3265

     the Fermi energy is     3.7179 ev

!    total energy              =   -2937.80859751 Ry
     estimated scf accuracy    <       0.00000005 Ry
     smearing contrib. (-TS)   =      -0.03813530 Ry
     internal energy E=F+TS    =   -2937.77046221 Ry

     The total energy is F=E-TS. E is the sum of the following terms:
     one-electron contribution =  -24092.27477139 Ry
     hartree contribution      =   12136.19151836 Ry
     xc contribution           =    -484.38603880 Ry
     ewald contribution        =    9502.69568522 Ry
     electric field correction =       0.00314439 Ry

     convergence has been achieved in  71 iterations

     Forces acting on atoms (cartesian axes, Ry/au):

     atom    1 type  1   force =     0.00006449   -0.00011484    0.09407994
     atom    2 type  1   force =    -0.00016497   -0.00022283   -0.17762393
     atom    3 type  2   force =     0.00011289   -0.00020660   -0.02136531
     atom    4 type  2   force =     0.00002596   -0.00184010    0.05754128
     atom    5 type  2   force =    -0.01069418   -0.00139396    0.00631965
     atom    6 type  2   force =     0.01276345   -0.00074724    0.00660390
     atom    7 type  1   force =     0.00011479    0.00197067   -0.01405388
     atom    8 type  1   force =    -0.00046941    0.00582537    0.00396218
     atom    9 type  2   force =     0.00036291    0.00022557   -0.00008858
     atom   10 type  2   force =    -0.00024100    0.00021648   -0.00512405
     atom   11 type  2   force =     0.00003602   -0.00014921   -0.00045585
     atom   12 type  2   force =    -0.00027495    0.00001100    0.00007976
     atom   13 type  1   force =    -0.00025762    0.00001149   -0.00029603
     atom   14 type  1   force =    -0.00008731    0.00015862   -0.00015829
     atom   15 type  2   force =    -0.00049611   -0.00043108   -0.00018240
     atom   16 type  2   force =    -0.00018447    0.00018600    0.00004062
     atom   17 type  2   force =    -0.00006949   -0.00020442   -0.00022037
     atom   18 type  2   force =    -0.00044549   -0.00012314   -0.00047493
     atom   19 type  1   force =    -0.00019285    0.00004021   -0.00021742
     atom   20 type  1   force =    -0.00043094   -0.00000838    0.00086804
     atom   21 type  2   force =     0.00001883    0.00002301    0.10382405
     atom   22 type  2   force =     0.00003226    0.00000651   -0.00015134
     atom   23 type  2   force =    -0.07064823   -0.00006690   -0.02703681
     atom   24 type  2   force =     0.07054173    0.00037436   -0.02708707
     atom   25 type  1   force =     0.00001473   -0.00008556    0.09369565
     atom   26 type  1   force =    -0.00013503   -0.00016893   -0.17768404
     atom   27 type  2   force =     0.00013559   -0.00023949   -0.02037536
     atom   28 type  2   force =     0.00006773   -0.00155383    0.05700829
     atom   29 type  2   force =    -0.01103671   -0.00053490    0.00634658
     atom   30 type  2   force =     0.01295881   -0.00027227    0.00663891
     atom   31 type  1   force =     0.00029702    0.00520269   -0.01483421
     atom   32 type  1   force =    -0.00040178   -0.00657232    0.00412562
     atom   33 type  2   force =     0.00015868    0.00008464   -0.00031816
     atom   34 type  2   force =     0.00036093   -0.00102250   -0.00202901
     atom   35 type  2   force =    -0.00032277    0.00014909   -0.00022083
     atom   36 type  2   force =    -0.00003341   -0.00000428    0.00010608
     atom   37 type  1   force =    -0.00007464    0.00024624   -0.00014327
     atom   38 type  1   force =     0.00006251    0.00024312    0.00021176
     atom   39 type  2   force =    -0.00006267    0.00020682    0.00007028
     atom   40 type  2   force =    -0.00029944    0.00010036   -0.00021825
     atom   41 type  2   force =    -0.00014688   -0.00009095    0.00015721
     atom   42 type  2   force =    -0.00023452    0.00015715   -0.00020103
     atom   43 type  1   force =    -0.00014054    0.00021151   -0.00010675
     atom   44 type  1   force =     0.00003380   -0.00033389   -0.00018335
     atom   45 type  2   force =     0.00001094   -0.00000488    0.10383544
     atom   46 type  2   force =    -0.07065788   -0.00004998   -0.02704872
     atom   47 type  2   force =     0.07053471    0.00038936   -0.02708597
     atom   48 type  3   force =     0.00112004    0.00027498    0.00079111
     atom   49 type  4   force =    -0.00140138    0.00024501   -0.00020700
     atom   50 type  5   force =     0.00009690   -0.00007778   -0.00037097
     atom   51 type  3   force =     0.00114978    0.00005888   -0.00127350
     atom   52 type  5   force =    -0.00147084   -0.00009885    0.00053036

     Total force =     0.366004     Total SCF correction =     0.000505
  @ DRIVER MODE: Message from server: STATUS
  @ DRIVER MODE: Message from server: GETFORCE
  @ DRIVER MODE: Returning v,forces,stress,ensemble

     Writing output data file ./calc.save/
  @ DRIVER MODE: Message from server: EXIT
  @ DRIVE MODE: Exiting

     General routines

     Parallel routines

   This run was terminated on:   4:10:31  24Aug2021

   JOB DONE.