     Program PWSCF v.6.7GPU starts on  5Oct2021 at 15: 8:30

     R & G space division:  proc/nbgrp/npool/nimage =       8
     Reading input from /storage/home/hcoda1/3/ntian30/research/carbon/CxH_vib/pristine/ads_slab/OH_a/out_0004/pw.inp
Warning: card &CELL ignored
Warning: card   CELL_DYNAMICS='IPI', ignored
Warning: card / ignored

     Current dimensions of program PWSCF are:
     Max number of different atomic species (ntypx) = 10
     Max number of k-points (npk) =  40000
     Max angular momentum in pseudopotentials (lmaxx) =  3
     Presently no symmetry can be used with electric field

     Message from routine cell_base_init:
     DEPRECATED: use true lattice parameter, not A to a.u. conversion factor

     IMPORTANT: XC functional enforced from input :
     Exchange-correlation= BEEF-VDW
                           (   1   4  43  14   2   0   0)
     Any further DFT definition will be discarded
     Please, verify this is what you really want

  @ DRIVER MODE: Connecting to
 qe_1139763_3092461.sched-torque.pace.gatech.edu61m_k7dk_scratch
  using UNIX socket
  @ DRIVER MODE: Message from server: STATUS
  @ DRIVER MODE: Message from server: INIT
  @ DRIVER MODE: Receiving replica           0          -1
  @ DRIVER MODE: Receiving encoded integer          25
  @ DRIVER MODE:  SCF:  T  FORCE:  T  STRESS:  F  VC:  F  ENSEMBLE:  F
  @ DRIVER MODE:  SCF:  T  FORCE:  T  STRESS:  F  VC:  F  ENSEMBLE:  F

     Using Slab Decomposition

     bravais-lattice index     =            0
     lattice parameter (alat)  =       1.8897  a.u.
     unit-cell volume          =    6658.9804 (a.u.)^3
     number of atoms/cell      =           49
     number of atomic types    =            3
     number of electrons       =       385.00
     number of Kohn-Sham states=          202
     kinetic-energy cutoff     =      29.3995  Ry
     charge density cutoff     =     293.9946  Ry
     scf convergence threshold =      7.3E-08
     mixing beta               =       0.0500
     number of iterations used =            8  plain     mixing
     Exchange-correlation= BEEF-VDW
                           (   1   4  43  14   2   0   0)

     celldm(1)=   1.889726  celldm(2)=   0.000000  celldm(3)=   0.000000
     celldm(4)=   0.000000  celldm(5)=   0.000000  celldm(6)=   0.000000

     crystal axes: (cart. coord. in units of alat)
               a(1) = (   6.579727   0.000000   0.000000 )
               a(2) = (  -0.000775   5.961596   0.000000 )
               a(3) = (   0.000000   0.000000  25.155947 )

     reciprocal axes: (cart. coord. in units 2 pi/alat)
               b(1) = (  0.151982  0.000020  0.000000 )
               b(2) = (  0.000000  0.167740  0.000000 )
               b(3) = (  0.000000  0.000000  0.039752 )

     PseudoPot. # 1 for H  read from file:
     /storage/coda1/p-amedford6/0/shared/rich_project_chbe-medford/medford-share/data/pseudos_module/espresso/nninc/pbe/van/H.UPF
     MD5 check sum: b5ee9d7bfd3a09ee7748110bda690ff7
     Pseudo is Ultrasoft, Zval =  1.0
     Generated by new atomic code, or converted to UPF format
     Using radial grid of  615 points,  1 beta functions with:
                l(1) =   0
     Q(r) pseudized with  8 coefficients,  rinner =    0.800

     PseudoPot. # 2 for O  read from file:
     /storage/coda1/p-amedford6/0/shared/rich_project_chbe-medford/medford-share/data/pseudos_module/espresso/nninc/pbe/van/O.UPF
     MD5 check sum: 78c19812648e8988a0fe644b0f25305e
     Pseudo is Ultrasoft, Zval =  6.0
     Generated by new atomic code, or converted to UPF format
     Using radial grid of  737 points,  4 beta functions with:
                l(1) =   0
                l(2) =   0
                l(3) =   1
                l(4) =   1
     Q(r) pseudized with  8 coefficients,  rinner =    0.800   0.800   0.800

     PseudoPot. # 3 for Ti read from file:
     /storage/coda1/p-amedford6/0/shared/rich_project_chbe-medford/medford-share/data/pseudos_module/espresso/nninc/pbe/van/Ti.UPF
     MD5 check sum: 8e4df49b7f0d34bbd5052bf3f5ea0213
     Pseudo is Ultrasoft, Zval = 12.0
     Generated by new atomic code, or converted to UPF format
     Using radial grid of  851 points,  6 beta functions with:
                l(1) =   0
                l(2) =   0
                l(3) =   1
                l(4) =   1
                l(5) =   2
                l(6) =   2
     Q(r) pseudized with  8 coefficients,  rinner =    1.000   1.000   1.000
                                                       1.000   1.000

     atomic species   valence    mass     pseudopotential
        H1             1.00     1.00800     H ( 1.00)
        O1             6.00    15.99900     O ( 1.00)
        Ti1           12.00    47.86700     Ti( 1.00)

     No symmetry found

   Cartesian axes

     site n.     atom                  positions (alat units)
         1           H1  tau(   1) = (   6.1285627   2.9271563  18.1978583  )
         2           O1  tau(   2) = (   0.0006271   0.0005054   7.9858123  )
         3           O1  tau(   3) = (   3.2906025   0.0005020   7.3038282  )
         4           O1  tau(   4) = (   4.5942328   1.4918067   9.2879030  )
         5           O1  tau(   5) = (   1.9868534   1.4903216   9.2879459  )
         6           O1  tau(   6) = (   3.2706409   0.0174512  11.3459279  )
         7           O1  tau(   7) = (   6.5740518   0.0106632  10.6119017  )
         8           O1  tau(   8) = (   1.2784420   1.5051768  12.6495664  )
         9           O1  tau(   9) = (   5.2777641   1.5057411  12.6372187  )
        10           O1  tau(  10) = (   6.5277286   0.0194253  14.7314476  )
        11           O1  tau(  11) = (   3.2772156   0.0218198  13.9356907  )
        12           O1  tau(  12) = (   4.4925954   1.5252930  16.1022717  )
        13           O1  tau(  13) = (   2.0005661   1.5201685  16.0636378  )
        14           O1  tau(  14) = (   3.2904802   0.0005063   4.7018136  )
        15           O1  tau(  15) = (   6.5406378   0.0426308  17.2527531  )
        16           O1  tau(  16) = (   1.3043587   1.4918075   6.0039043  )
        17           O1  tau(  17) = (   5.2767064   1.4903225   6.0039473  )
        18           O1  tau(  18) = (   0.0002396   2.9813036   7.9858123  )
        19           O1  tau(  19) = (   3.2902150   2.9813002   7.3038282  )
        20           O1  tau(  20) = (   4.5938453   4.4726049   9.2879030  )
        21           O1  tau(  21) = (   1.9864658   4.4711199   9.2879459  )
        22           O1  tau(  22) = (   3.2713702   3.0002330  11.3479749  )
        23           O1  tau(  23) = (   0.0000412   2.9948241  10.5696328  )
        24           O1  tau(  24) = (   1.2752127   4.4878296  12.6567543  )
        25           O1  tau(  25) = (   5.2773950   4.4893484  12.6450210  )
        26           O1  tau(  26) = (   6.5457704   2.9801347  14.7053517  )
        27           O1  tau(  27) = (   3.2760166   3.0039015  13.9301991  )
        28           O1  tau(  28) = (   4.4930617   4.4968681  16.1151247  )
        29           O1  tau(  29) = (   1.9976114   4.4995801  16.0783546  )
        30           O1  tau(  30) = (   3.2900926   2.9813045   4.7018136  )
        31           O1  tau(  31) = (   1.3039711   4.4726057   6.0039043  )
        32           O1  tau(  32) = (   5.2763189   4.4711207   6.0039473  )
        33           O1  tau(  33) = (   6.5611248   2.9942543  17.3379038  )
        34           Ti1 tau(  34) = (   0.0004258   2.9801865   6.0000000  )
        35           Ti1 tau(  35) = (   3.2906075   1.4906267   6.0002472  )
        36           Ti1 tau(  36) = (   3.3318975   3.0330250   9.1579500  )
        37           Ti1 tau(  37) = (   0.0205117   1.6124020   9.3622821  )
        38           Ti1 tau(  38) = (   6.5366237   3.0123281  12.8261813  )
        39           Ti1 tau(  39) = (   3.2219039   1.5139177  12.4898250  )
        40           Ti1 tau(  40) = (   3.2511232   3.0127314  15.7226336  )
        41           Ti1 tau(  41) = (   6.5498889   1.4452159  15.9768866  )
        42           Ti1 tau(  42) = (   0.0000382   5.9609847   6.0000000  )
        43           Ti1 tau(  43) = (   3.2902200   4.4714249   6.0002472  )
        44           Ti1 tau(  44) = (   3.2860949   0.0564500   9.1526048  )
        45           Ti1 tau(  45) = (   0.0290565   4.5316589   9.2718247  )
        46           Ti1 tau(  46) = (   6.5192412   0.0260524  12.5185800  )
        47           Ti1 tau(  47) = (   3.2223028   4.4950945  12.4895861  )
        48           Ti1 tau(  48) = (   3.2594166   0.0414875  15.7269021  )
        49           Ti1 tau(  49) = (   6.5484344   4.6157387  16.1276880  )

     number of k points=    10  Fermi-Dirac smearing, width (Ry)=  0.0073
                       cart. coord. in units 2pi/alat
        k(    1) = (   0.0000000   0.0000000   0.0000000), wk =   0.1250000
        k(    2) = (   0.0000000   0.0419351   0.0000000), wk =   0.2500000
        k(    3) = (   0.0000000  -0.0838702   0.0000000), wk =   0.1250000
        k(    4) = (   0.0379955   0.0000049   0.0000000), wk =   0.2500000
        k(    5) = (   0.0379955   0.0419400   0.0000000), wk =   0.2500000
        k(    6) = (   0.0379955  -0.0838652   0.0000000), wk =   0.2500000
        k(    7) = (   0.0379955  -0.0419301   0.0000000), wk =   0.2500000
        k(    8) = (  -0.0759910  -0.0000099   0.0000000), wk =   0.1250000
        k(    9) = (  -0.0759910   0.0419252   0.0000000), wk =   0.2500000
        k(   10) = (  -0.0759910  -0.0838800   0.0000000), wk =   0.1250000

     Initial potential from superposition of free atoms

     starting charge  368.99924, renormalised to  385.00000

     negative rho (up, down):  2.280E-02 0.000E+00

     %%%%%%%%%%%%%%%%%%%%%%%%%%%%%%%%%%%%%%%%%%%%%%%%%%%%%%%%%%%%%%%%%%%%%%%%
     %                                                                      %
     % You are using vdW-DF, which was implemented by the Thonhauser group. %
     % Please cite the following two papers that made this development      %
     % possible and the two reviews that describe the various versions:     %
     %                                                                      %
     %   T. Thonhauser et al., PRL 115, 136402 (2015).                      %
     %   T. Thonhauser et al., PRB 76, 125112 (2007).                       %
     %   K. Berland et al., Rep. Prog. Phys. 78, 066501 (2015).             %
     %   D.C. Langreth et al., J. Phys.: Condens. Matter 21, 084203 (2009). %
     %                                                                      %
     %                                                                      %
     % If you are calculating the stress with vdW-DF, please also cite:     %
     %                                                                      %
     %   R. Sabatini et al., J. Phys.: Condens. Matter 24, 424209 (2012).   %
     %                                                                      %
     %%%%%%%%%%%%%%%%%%%%%%%%%%%%%%%%%%%%%%%%%%%%%%%%%%%%%%%%%%%%%%%%%%%%%%%%

     Adding external electric field

     Computed dipole along edir(3) :
        Dipole               -1.6872 Ry au,         -4.2885 Debye
        Dipole field         -0.0032 Ry au,

        Potential amp.        0.2952 Ry
        Total length         46.3494 bohr

     Starting wfcs are  289 atomic wfcs
  @ DRIVER MODE: Message from server: STATUS
  @ DRIVER MODE: Message from server: POSDATA
  @ DRIVER MODE: Reading and sharing cell
  @ DRIVER MODE: Reading and sharing positions
  @ DRIVER MODE: Received positions

     Self-consistent Calculation

     iteration #  1     ecut=    29.40 Ry     beta= 0.05
     Davidson diagonalization with overlap
     c_bands:  2 eigenvalues not converged
     c_bands:  1 eigenvalues not converged
     c_bands:  2 eigenvalues not converged
     c_bands:  1 eigenvalues not converged
     c_bands:  1 eigenvalues not converged
     ethr =  1.00E-05,  avg # of iterations = 18.2

[...]

     total energy              =   -2919.00154797 Ry
     estimated scf accuracy    <      12.34872872 Ry

     iteration #  2     ecut=    29.40 Ry     beta= 0.05
     Davidson diagonalization with overlap
     ethr =  3.21E-03,  avg # of iterations =  1.0

[...]

     iteration # 40     ecut=    29.40 Ry     beta= 0.05
     Davidson diagonalization with overlap
     c_bands:  2 eigenvalues not converged
     ethr =  3.77E-07,  avg # of iterations = 11.5

[...]

     total energy              =   -2917.56705558 Ry
     estimated scf accuracy    <       0.00000009 Ry

     iteration # 62     ecut=    29.40 Ry     beta= 0.05
     Davidson diagonalization with overlap
     ethr =  2.42E-11,  avg # of iterations = 11.3

     negative rho (up, down):  2.171E-02 0.000E+00

     Adding external electric field

     Computed dipole along edir(3) :
        Dipole                0.7001 Ry au,          1.7795 Debye
        Dipole field          0.0013 Ry au,

        Potential amp.       -0.1225 Ry
        Total length         46.3494 bohr

     End of self-consistent calculation

          k = 0.0000 0.0000 0.0000 ( 18029 PWs)   bands (ev):

   -56.1500 -56.1391 -56.1126 -56.1029 -56.0643 -56.0347 -56.0111 -55.9781
   -55.9762 -55.9546 -55.9264 -55.9027 -55.8691 -55.8013 -55.1635 -55.1295
   -32.7023 -32.6179 -32.5891 -32.4973 -32.4715 -32.4517 -32.4430 -32.4195
   -32.3824 -32.3770 -32.3597 -32.3533 -32.3485 -32.3199 -32.3103 -32.3099
   -32.3080 -32.2827 -32.2755 -32.2479 -32.2399 -32.2156 -32.2145 -32.2117
   -32.1921 -32.1888 -32.1644 -32.1618 -32.1569 -32.1518 -32.1430 -32.1418
   -32.1273 -32.1271 -32.1172 -32.0825 -32.0818 -32.0476 -32.0246 -32.0086
   -31.9911 -31.9876 -31.5733 -31.4762 -31.4539 -31.3901 -31.3041 -31.1928
   -17.5083 -16.8854 -16.5953 -16.4273 -16.3005 -16.2697 -16.1627 -15.9831
   -15.8394 -15.8231 -15.7560 -15.7169 -15.7104 -15.6803 -15.6715 -15.6610
   -15.6518 -15.6148 -15.5807 -15.5707 -15.5531 -15.5280 -15.4869 -15.4291
   -15.3465 -15.3042 -15.2683 -15.2295 -15.1505 -15.1292 -13.6642 -13.5459
    -5.4501  -4.2468  -4.0725  -4.0571  -4.0385  -3.9561  -3.7076  -3.7010
    -3.3982  -3.3214  -3.2884  -3.2840  -3.2760  -3.0972  -3.0273  -2.9822
    -2.9779  -2.9618  -2.9565  -2.9307  -2.8977  -2.8866  -2.8557  -2.8448
    -2.7158  -2.6900  -2.5639  -2.5477  -2.5331  -2.4725  -2.4511  -2.4166
    -2.4011  -2.3923  -2.3724  -2.3548  -2.3187  -2.2326  -2.2168  -2.0884
    -1.9741  -1.9399  -1.8503  -1.7136  -1.6205  -1.5969  -1.5794  -1.5513
    -1.5327  -1.4914  -1.4639  -1.3986  -1.3488  -1.3436  -1.2422  -1.1623
    -1.1276  -1.0531  -1.0221  -1.0025  -0.8942  -0.8738  -0.8610  -0.6852
    -0.6303  -0.6194  -0.6101  -0.4857  -0.4446  -0.4106  -0.3978  -0.3694
    -0.3386  -0.2926  -0.2467  -0.1934  -0.1668  -0.1514  -0.1447  -0.1273
    -0.0981   0.0187   0.0343   0.0543   0.1586   0.1786   0.3708   0.3740
     0.4969   0.6011   0.7646   0.8610   0.9322   1.0314   1.4496   1.5098
     3.0381   3.0724   3.1016   3.1229   3.1872   3.3072   3.4199   3.4775
     3.4962   3.5177

[...]

          k = 0.0380-0.0419 0.0000 ( 17876 PWs)   bands (ev):

[...]

          k =-0.0760-0.0000 0.0000 ( 17886 PWs)   bands (ev):

[...]

          k =-0.0760-0.0839 0.0000 ( 17948 PWs)   bands (ev):

   -56.1391 -56.1234 -56.1214 -56.1204 -56.0614 -56.0296 -55.9970 -55.9902
   -55.9831 -55.9573 -55.9236 -55.8864 -55.8855 -55.8037 -55.1470 -55.1459
   -32.5062 -32.5022 -32.4922 -32.4423 -32.4318 -32.4259 -32.4082 -32.4069
   -32.4014 -32.3626 -32.3420 -32.3326 -32.3308 -32.3012 -32.2943 -32.2782
   -32.2711 -32.2700 -32.2649 -32.2574 -32.2547 -32.2429 -32.2400 -32.2370
   -32.2315 -32.2106 -32.2054 -32.1977 -32.1927 -32.1915 -32.1845 -32.1642
   -32.1508 -32.1449 -32.1429 -32.1382 -32.1215 -32.1053 -32.0929 -32.0841
   -32.0320 -31.9968 -31.4672 -31.4659 -31.3868 -31.3859 -31.3476 -31.3467
   -17.4531 -16.3259 -16.3124 -16.0840 -16.0701 -16.0634 -16.0026 -15.9194
   -15.8895 -15.8753 -15.8637 -15.8246 -15.7911 -15.7745 -15.7253 -15.6904
   -15.6708 -15.6551 -15.6538 -15.5998 -15.5943 -15.5534 -15.5320 -15.5101
   -15.5006 -15.4798 -15.4749 -15.4126 -15.3755 -15.3036 -13.6483 -13.6460
    -5.3792  -3.6170  -3.6010  -3.3496  -3.2910  -3.2825  -3.2064  -3.1360
    -3.0767  -3.0331  -3.0065  -2.9914  -2.9834  -2.9779  -2.9657  -2.9498
    -2.9353  -2.9177  -2.8997  -2.8520  -2.8181  -2.8010  -2.7828  -2.7719
    -2.7617  -2.7258  -2.7066  -2.6962  -2.6785  -2.6757  -2.5994  -2.4532
    -2.4007  -2.3133  -2.2949  -2.2841  -2.2382  -2.2152  -2.1984  -2.1839
    -2.1395  -2.1089  -1.9537  -1.8806  -1.8584  -1.8430  -1.8118  -1.7480
    -1.6714  -1.6344  -1.5614  -1.5559  -1.5142  -1.4512  -1.3789  -1.3561
    -1.3124  -1.2573  -1.2179  -1.1608  -1.1275  -1.1075  -1.0999  -1.0460
    -0.9933  -0.9519  -0.8956  -0.8717  -0.8093  -0.7669  -0.7265  -0.6740
    -0.6442  -0.6062  -0.5003  -0.3857  -0.2597  -0.2167  -0.1252  -0.1028
    -0.0835  -0.0510   0.0639   0.0941   0.1329   0.1598   0.2438   0.2998
     0.3697   0.3896   0.4157   0.4760   1.2211   1.2224   1.3118   1.3230
     3.2406   3.2736   3.2943   3.3434   3.4963   3.5007   3.5197   3.5279
     3.5864   3.6589

     the Fermi energy is     3.0051 ev

!    total energy              =   -2917.56708378 Ry
     estimated scf accuracy    <       0.00000003 Ry
     smearing contrib. (-TS)   =      -0.02328566 Ry
     internal energy E=F+TS    =   -2917.54379812 Ry

     The total energy is F=E-TS. E is the sum of the following terms:
     one-electron contribution =  -25019.06011046 Ry
     hartree contribution      =   12589.96724084 Ry
     xc contribution           =    -476.91322469 Ry
     ewald contribution        =    9988.46137123 Ry
     electric field correction =       0.00092496 Ry

     convergence has been achieved in  62 iterations

     Forces acting on atoms (cartesian axes, Ry/au):

     atom    1 type  1   force =    -0.00079548    0.00098511   -0.00008042
     atom    2 type  2   force =     0.00032984   -0.00693077   -0.03315688
     atom    3 type  2   force =     0.00004159    0.00054627    0.04515292
     atom    4 type  2   force =    -0.02017343    0.00057895    0.00447294
     atom    5 type  2   force =     0.01812187   -0.00155837    0.00405767
     atom    6 type  2   force =     0.00016568   -0.00001455    0.00069534
     atom    7 type  2   force =     0.00000322   -0.00006600   -0.00050220
     atom    8 type  2   force =     0.00010531   -0.00030040    0.00005976
     atom    9 type  2   force =    -0.00024929   -0.00003019    0.00000955
     atom   10 type  2   force =     0.00004719    0.00119944    0.00103327
     atom   11 type  2   force =     0.00025168    0.00041529   -0.00140230
     atom   12 type  2   force =     0.00064631    0.00039305    0.00065325
     atom   13 type  2   force =    -0.00068361   -0.00003495    0.00059255
     atom   14 type  2   force =     0.00004872    0.00006360    0.10423745
     atom   15 type  2   force =    -0.00009393    0.00032500    0.00107749
     atom   16 type  2   force =    -0.06898721    0.00075604   -0.02957367
     atom   17 type  2   force =     0.06874979    0.00130464   -0.02957763
     atom   18 type  2   force =     0.00035842    0.00396558   -0.02777700
     atom   19 type  2   force =     0.00080253    0.00084981    0.04710183
     atom   20 type  2   force =    -0.01785383    0.00131438    0.00376943
     atom   21 type  2   force =     0.01744486    0.00215169    0.00323604
     atom   22 type  2   force =     0.00014365    0.00006250    0.00026818
     atom   23 type  2   force =    -0.00004143    0.00025036   -0.00025375
     atom   24 type  2   force =     0.00041714   -0.00008579   -0.00014893
     atom   25 type  2   force =    -0.00000857   -0.00014597   -0.00020439
     atom   26 type  2   force =    -0.00015902   -0.00038804   -0.00028170
     atom   27 type  2   force =     0.00004410   -0.00023729   -0.00035344
     atom   28 type  2   force =    -0.00060049   -0.00044606    0.00037473
     atom   29 type  2   force =     0.00076031    0.00010469    0.00017765
     atom   30 type  2   force =     0.00004756    0.00004190    0.10428401
     atom   31 type  2   force =    -0.06855668   -0.00139735   -0.02962631
     atom   32 type  2   force =     0.06843076   -0.00101329   -0.02961706
     atom   33 type  2   force =     0.00040296    0.00117759   -0.00056981
     atom   34 type  3   force =     0.00000881   -0.00164187    0.10540990
     atom   35 type  3   force =    -0.00015878    0.00085496   -0.17982232
     atom   36 type  3   force =    -0.00025919    0.00004263    0.00011076
     atom   37 type  3   force =     0.00011340   -0.00055220    0.00009960
     atom   38 type  3   force =    -0.00014101    0.00030245    0.00001342
     atom   39 type  3   force =     0.00002086    0.00024755   -0.00020849
     atom   40 type  3   force =    -0.00013485    0.00596252   -0.00044455
     atom   41 type  3   force =     0.00023451   -0.00132788   -0.00079421
     atom   42 type  3   force =    -0.00003374    0.00127182    0.11802479
     atom   43 type  3   force =     0.00000849   -0.00036558   -0.17998908
     atom   44 type  3   force =     0.00030123    0.00004078    0.00024496
     atom   45 type  3   force =     0.00002192    0.00062897   -0.00024700
     atom   46 type  3   force =     0.00027127    0.00023608    0.00100317
     atom   47 type  3   force =     0.00001801   -0.00033220    0.00020556
     atom   48 type  3   force =     0.00032783   -0.00834171   -0.00046729
     atom   49 type  3   force =     0.00024072   -0.00086322   -0.00126782

     Total force =     0.376361     Total SCF correction =     0.000531
  @ DRIVER MODE: Message from server: STATUS
  @ DRIVER MODE: Message from server: GETFORCE
  @ DRIVER MODE: Returning v,forces,stress,ensemble

     Writing output data file ./calc.save/
  @ DRIVER MODE: Message from server: EXIT
  @ DRIVE MODE: Exiting

     General routines

     Parallel routines

   This run was terminated on:  15:32: 3   5Oct2021

   JOB DONE.