     Program PWSCF v.6.7GPU starts on  3Aug2021 at  2: 9: 9

     R & G space division:  proc/nbgrp/npool/nimage =      16
     Reading input from /storage/home/hcoda1/3/ntian30/research/carbon/02Aug_vib_paired/ads_slab/CH3NNH3_a/out_0051/pw.inp
Warning: card &CELL ignored
Warning: card   CELL_DYNAMICS='IPI', ignored
Warning: card / ignored

     Current dimensions of program PWSCF are:
     Max number of different atomic species (ntypx) = 10
     Max number of k-points (npk) =  40000
     Max angular momentum in pseudopotentials (lmaxx) =  3
     Presently no symmetry can be used with electric field

     Message from routine cell_base_init:
     DEPRECATED: use true lattice parameter, not A to a.u. conversion factor

     IMPORTANT: XC functional enforced from input :
     Exchange-correlation= BEEF-VDW
                           (   1   4  43  14   2   0   0)
     Any further DFT definition will be discarded
     Please, verify this is what you really want

  @ DRIVER MODE: Connecting to
 qe_1139763_2482544.sched-torque.pace.gatech.edukfoz6jsd_scratch
  using UNIX socket
  @ DRIVER MODE: Message from server: STATUS
  @ DRIVER MODE: Message from server: INIT
  @ DRIVER MODE: Receiving replica           0          -1
  @ DRIVER MODE: Receiving encoded integer          25
  @ DRIVER MODE:  SCF:  T  FORCE:  T  STRESS:  F  VC:  F  ENSEMBLE:  F
  @ DRIVER MODE:  SCF:  T  FORCE:  T  STRESS:  F  VC:  F  ENSEMBLE:  F

     Using Slab Decomposition

     bravais-lattice index     =            0
     lattice parameter (alat)  =       1.8897  a.u.
     unit-cell volume          =    6658.9804 (a.u.)^3
     number of atoms/cell      =           56
     number of atomic types    =            5
     number of electrons       =       398.00
     number of Kohn-Sham states=          209
     kinetic-energy cutoff     =      29.3995  Ry
     charge density cutoff     =     293.9946  Ry
     scf convergence threshold =      7.3E-08
     mixing beta               =       0.0500
     number of iterations used =            8  plain     mixing
     Exchange-correlation= BEEF-VDW
                           (   1   4  43  14   2   0   0)

     celldm(1)=   1.889726  celldm(2)=   0.000000  celldm(3)=   0.000000
     celldm(4)=   0.000000  celldm(5)=   0.000000  celldm(6)=   0.000000

     crystal axes: (cart. coord. in units of alat)
               a(1) = (   6.579727   0.000000   0.000000 )
               a(2) = (  -0.000775   5.961596   0.000000 )
               a(3) = (   0.000000   0.000000  25.155947 )

     reciprocal axes: (cart. coord. in units 2 pi/alat)
               b(1) = (  0.151982  0.000020  0.000000 )
               b(2) = (  0.000000  0.167740  0.000000 )
               b(3) = (  0.000000  0.000000  0.039752 )

     PseudoPot. # 1 for Ti read from file:
     /storage/coda1/p-amedford6/0/shared/rich_project_chbe-medford/medford-share/data/pseudos_module/espresso/nninc/pbe/van/Ti.UPF
     MD5 check sum: 8e4df49b7f0d34bbd5052bf3f5ea0213
     Pseudo is Ultrasoft, Zval = 12.0
     Generated by new atomic code, or converted to UPF format
     Using radial grid of  851 points,  6 beta functions with:
                l(1) =   0
                l(2) =   0
                l(3) =   1
                l(4) =   1
                l(5) =   2
                l(6) =   2
     Q(r) pseudized with  8 coefficients,  rinner =    1.000   1.000   1.000
                                                       1.000   1.000

     PseudoPot. # 2 for O  read from file:
     /storage/coda1/p-amedford6/0/shared/rich_project_chbe-medford/medford-share/data/pseudos_module/espresso/nninc/pbe/van/O.UPF
     MD5 check sum: 78c19812648e8988a0fe644b0f25305e
     Pseudo is Ultrasoft, Zval =  6.0
     Generated by new atomic code, or converted to UPF format
     Using radial grid of  737 points,  4 beta functions with:
                l(1) =   0
                l(2) =   0
                l(3) =   1
                l(4) =   1
     Q(r) pseudized with  8 coefficients,  rinner =    0.800   0.800   0.800

     PseudoPot. # 3 for N  read from file:
     /storage/coda1/p-amedford6/0/shared/rich_project_chbe-medford/medford-share/data/pseudos_module/espresso/nninc/pbe/van/N.UPF
     MD5 check sum: 90d10febe142ad51ac9d5be1deb811c4
     Pseudo is Ultrasoft, Zval =  5.0
     Generated by new atomic code, or converted to UPF format
     Using radial grid of  729 points,  4 beta functions with:
                l(1) =   0
                l(2) =   0
                l(3) =   1
                l(4) =   1
     Q(r) pseudized with  8 coefficients,  rinner =    0.800   0.800   0.800

     PseudoPot. # 4 for C  read from file:
     /storage/coda1/p-amedford6/0/shared/rich_project_chbe-medford/medford-share/data/pseudos_module/espresso/nninc/pbe/van/C.UPF
     MD5 check sum: 1a69bf6b8db32088f5b2163dbdb77a27
     Pseudo is Ultrasoft, Zval =  4.0
     Generated by new atomic code, or converted to UPF format
     Using radial grid of  721 points,  4 beta functions with:
                l(1) =   0
                l(2) =   0
                l(3) =   1
                l(4) =   1
     Q(r) pseudized with  8 coefficients,  rinner =    0.800   0.800   0.800

     PseudoPot. # 5 for H  read from file:
     /storage/coda1/p-amedford6/0/shared/rich_project_chbe-medford/medford-share/data/pseudos_module/espresso/nninc/pbe/van/H.UPF
     MD5 check sum: b5ee9d7bfd3a09ee7748110bda690ff7
     Pseudo is Ultrasoft, Zval =  1.0
     Generated by new atomic code, or converted to UPF format
     Using radial grid of  615 points,  1 beta functions with:
                l(1) =   0
     Q(r) pseudized with  8 coefficients,  rinner =    0.800

     atomic species   valence    mass     pseudopotential
        Ti1           12.00    47.86700     Ti( 1.00)
        O1             6.00    15.99900     O ( 1.00)
        N1             5.00    14.00700     N ( 1.00)
        C1             4.00    12.01100     C ( 1.00)
        H1             1.00     1.00800     H ( 1.00)

     No symmetry found

   Cartesian axes

     site n.     atom                  positions (alat units)
         1           Ti1 tau(   1) = (   0.0004258   2.9801865   6.0000000  )
         2           Ti1 tau(   2) = (   3.2906075   1.4906267   6.0002472  )
         3           O1  tau(   3) = (   0.0006271   0.0005054   7.9858123  )
         4           O1  tau(   4) = (   3.2906025   0.0005020   7.3038282  )
         5           O1  tau(   5) = (   4.5942328   1.4918067   9.2879030  )
         6           O1  tau(   6) = (   1.9868534   1.4903216   9.2879459  )
         7           Ti1 tau(   7) = (   3.2907910   2.8959150   9.1758416  )
         8           Ti1 tau(   8) = (   0.0015273   1.4827037   9.2680791  )
         9           O1  tau(   9) = (   3.2727297   5.9424138  11.2974721  )
        10           O1  tau(  10) = (   0.0116148   5.9584955  10.6183126  )
        11           O1  tau(  11) = (   1.3027692   1.4721713  12.6242268  )
        12           O1  tau(  12) = (   5.2784376   1.4723552  12.6258992  )
        13           Ti1 tau(  13) = (   6.4570204   2.9507206  12.7630554  )
        14           Ti1 tau(  14) = (   3.1467966   1.4649636  12.4688949  )
        15           O1  tau(  15) = (   6.5600513   5.9133837  14.5918744  )
        16           O1  tau(  16) = (   3.2766225   5.9390981  13.8789110  )
        17           O1  tau(  17) = (   4.4915826   1.4834571  16.0540230  )
        18           O1  tau(  18) = (   2.0416982   1.4849982  16.0411193  )
        19           Ti1 tau(  19) = (   3.2679172   2.9642910  15.6858091  )
        20           Ti1 tau(  20) = (   6.5495220   1.5641796  16.1095294  )
        21           O1  tau(  21) = (   3.2904802   0.0005063   4.7018136  )
        22           O1  tau(  22) = (   6.5606002   0.0080969  17.2010096  )
        23           O1  tau(  23) = (   1.3043587   1.4918075   6.0039043  )
        24           O1  tau(  24) = (   5.2767064   1.4903225   6.0039473  )
        25           Ti1 tau(  25) = (   0.0000382   5.9609847   6.0000000  )
        26           Ti1 tau(  26) = (   3.2902200   4.4714249   6.0002472  )
        27           O1  tau(  27) = (   0.0002396   2.9813036   7.9858123  )
        28           O1  tau(  28) = (   3.2902150   2.9813002   7.3038282  )
        29           O1  tau(  29) = (   4.5938453   4.4726049   9.2879030  )
        30           O1  tau(  30) = (   1.9864658   4.4711199   9.2879459  )
        31           Ti1 tau(  31) = (   3.2891106   5.8743827   9.1763621  )
        32           Ti1 tau(  32) = (   0.0006254   4.4649316   9.2693709  )
        33           O1  tau(  33) = (   3.2718307   2.9587034  11.2961003  )
        34           O1  tau(  34) = (   0.0092240   2.9805883  10.6323155  )
        35           O1  tau(  35) = (   1.3028232   4.4416136  12.6207192  )
        36           O1  tau(  36) = (   5.2777600   4.4366566  12.6238879  )
        37           Ti1 tau(  37) = (   6.4830488   5.9304874  12.7660964  )
        38           Ti1 tau(  38) = (   3.1463657   4.4448748  12.4639736  )
        39           O1  tau(  39) = (   6.5417323   2.9404903  14.6589984  )
        40           O1  tau(  40) = (   3.2789452   2.9619718  13.8791424  )
        41           O1  tau(  41) = (   4.4971312   4.4676043  16.0556370  )
        42           O1  tau(  42) = (   2.0400509   4.4648231  16.0515753  )
        43           Ti1 tau(  43) = (   3.2598176   5.9476019  15.6881950  )
        44           Ti1 tau(  44) = (   6.5485469   4.5424454  16.1156095  )
        45           O1  tau(  45) = (   3.2900926   2.9813045   4.7018136  )
        46           O1  tau(  46) = (   1.3039711   4.4726057   6.0039043  )
        47           O1  tau(  47) = (   5.2763189   4.4711207   6.0039473  )
        48           N1  tau(  48) = (   0.0016189   2.9795595  17.3279962  )
        49           C1  tau(  49) = (   0.1681806   3.0735589  18.7581663  )
        50           H1  tau(  50) = (   6.0068595   3.7517258  19.1994632  )
        51           H1  tau(  51) = (   0.0766375   2.0971904  19.2409400  )
        52           H1  tau(  52) = (   1.1565538   3.4901639  19.0026035  )
        53           N1  tau(  53) = (   4.7601180   1.8141088  21.6614004  )
        54           H1  tau(  54) = (   4.4666586   2.7830198  21.5980365  )
        55           H1  tau(  55) = (   4.1231612   1.2775871  21.0809158  )
        56           H1  tau(  56) = (   4.6015807   1.5157772  22.6208530  )

     number of k points=    10  Fermi-Dirac smearing, width (Ry)=  0.0073
                       cart. coord. in units 2pi/alat
        k(    1) = (   0.0000000   0.0000000   0.0000000), wk =   0.1250000
        k(    2) = (   0.0000000   0.0419351   0.0000000), wk =   0.2500000
        k(    3) = (   0.0000000  -0.0838702   0.0000000), wk =   0.1250000
        k(    4) = (   0.0379955   0.0000049   0.0000000), wk =   0.2500000
        k(    5) = (   0.0379955   0.0419400   0.0000000), wk =   0.2500000
        k(    6) = (   0.0379955  -0.0838652   0.0000000), wk =   0.2500000
        k(    7) = (   0.0379955  -0.0419301   0.0000000), wk =   0.2500000
        k(    8) = (  -0.0759910  -0.0000099   0.0000000), wk =   0.1250000
        k(    9) = (  -0.0759910   0.0419252   0.0000000), wk =   0.2500000
        k(   10) = (  -0.0759910  -0.0838800   0.0000000), wk =   0.1250000

     Initial potential from superposition of free atoms

     starting charge  381.99914, renormalised to  398.00000

     negative rho (up, down):  9.478E-03 0.000E+00

     %%%%%%%%%%%%%%%%%%%%%%%%%%%%%%%%%%%%%%%%%%%%%%%%%%%%%%%%%%%%%%%%%%%%%%%%
     %                                                                      %
     % You are using vdW-DF, which was implemented by the Thonhauser group. %
     % Please cite the following two papers that made this development      %
     % possible and the two reviews that describe the various versions:     %
     %                                                                      %
     %   T. Thonhauser et al., PRL 115, 136402 (2015).                      %
     %   T. Thonhauser et al., PRB 76, 125112 (2007).                       %
     %   K. Berland et al., Rep. Prog. Phys. 78, 066501 (2015).             %
     %   D.C. Langreth et al., J. Phys.: Condens. Matter 21, 084203 (2009). %
     %                                                                      %
     %                                                                      %
     % If you are calculating the stress with vdW-DF, please also cite:     %
     %                                                                      %
     %   R. Sabatini et al., J. Phys.: Condens. Matter 24, 424209 (2012).   %
     %                                                                      %
     %%%%%%%%%%%%%%%%%%%%%%%%%%%%%%%%%%%%%%%%%%%%%%%%%%%%%%%%%%%%%%%%%%%%%%%%

     Adding external electric field

     Computed dipole along edir(3) :
        Dipole              -11.3717 Ry au,        -28.9040 Debye
        Dipole field         -0.0215 Ry au,

        Potential amp.        1.9893 Ry
        Total length         46.3494 bohr

     Starting wfcs are  302 atomic wfcs
  @ DRIVER MODE: Message from server: STATUS
  @ DRIVER MODE: Message from server: POSDATA
  @ DRIVER MODE: Reading and sharing cell
  @ DRIVER MODE: Reading and sharing positions
  @ DRIVER MODE: Received positions

     Self-consistent Calculation

     iteration #  1     ecut=    29.40 Ry     beta= 0.05
     Davidson diagonalization with overlap
     c_bands:  1 eigenvalues not converged
     c_bands:  1 eigenvalues not converged
     c_bands:  2 eigenvalues not converged
     c_bands:  1 eigenvalues not converged
     c_bands:  1 eigenvalues not converged
     c_bands:  1 eigenvalues not converged
     c_bands:  1 eigenvalues not converged
     c_bands:  2 eigenvalues not converged
     c_bands:  2 eigenvalues not converged
     ethr =  1.00E-05,  avg # of iterations = 19.6

[...]

     total energy              =   -2520.81467516 Ry
     estimated scf accuracy    <    4705.90785559 Ry

     iteration #  2     ecut=    29.40 Ry     beta= 0.05
     Davidson diagonalization with overlap
     ethr =  1.00E-02,  avg # of iterations = 22.0

[...]

     iteration # 38     ecut=    29.40 Ry     beta= 0.05
     Davidson diagonalization with overlap
     c_bands:  2 eigenvalues not converged
     c_bands:  1 eigenvalues not converged
     ethr =  1.92E-06,  avg # of iterations = 16.0

[...]

     total energy              =   -2942.90673009 Ry
     estimated scf accuracy    <       0.00000009 Ry

     iteration # 63     ecut=    29.40 Ry     beta= 0.05
     Davidson diagonalization with overlap
     ethr =  2.35E-11,  avg # of iterations =  5.5

     negative rho (up, down):  1.095E-02 0.000E+00

     Adding external electric field

     Computed dipole along edir(3) :
        Dipole                0.4525 Ry au,          1.1502 Debye
        Dipole field          0.0009 Ry au,

        Potential amp.       -0.0792 Ry
        Total length         46.3494 bohr

     End of self-consistent calculation

          k = 0.0000 0.0000 0.0000 ( 18029 PWs)   bands (ev):

   -56.6138 -56.5802 -55.7331 -55.7245 -55.6977 -55.6922 -55.5879 -55.5522
   -55.3707 -55.3354 -55.2783 -55.2721 -55.2444 -55.1700 -54.7332 -54.6201
   -33.0417 -32.8883 -32.8602 -32.7900 -32.6989 -32.6677 -32.2077 -32.1970
   -32.1308 -32.0195 -31.9745 -31.9464 -31.9323 -31.9076 -31.8750 -31.8724
   -31.8686 -31.8617 -31.8386 -31.8354 -31.8238 -31.7960 -31.7708 -31.7569
   -31.7438 -31.7241 -31.7158 -31.6925 -31.6706 -31.6168 -31.6022 -31.5927
   -31.5143 -31.5095 -31.4893 -31.4476 -31.4375 -31.4058 -31.3988 -31.3745
   -31.3532 -31.2949 -31.2346 -30.9742 -30.9616 -30.8795 -30.8400 -30.7490
   -16.7779 -16.3436 -16.1139 -15.9764 -15.9088 -15.8545 -15.8092 -15.6881
   -15.6152 -15.6086 -15.5683 -15.5379 -15.4674 -15.3266 -15.2284 -15.1751
   -15.1308 -15.0096 -14.9495 -14.9168 -14.9121 -14.8777 -14.8581 -14.6621
   -14.6377 -14.5351 -14.5253 -14.3996 -14.1770 -13.7769 -13.7095 -13.6668
   -12.7973  -7.4936  -4.3436  -3.8387  -3.8012  -3.7594  -3.6014  -3.5143
    -3.4068  -3.3939  -3.3129  -3.1946  -3.1487  -3.1009  -2.9850  -2.9849
    -2.8354  -2.7954  -2.7896  -2.7857  -2.7406  -2.6773  -2.6615  -2.6227
    -2.6172  -2.6078  -2.4571  -2.3569  -2.2897  -2.2683  -2.2580  -2.2221
    -2.1439  -2.1238  -2.1091  -2.1055  -2.0050  -1.8563  -1.8546  -1.8235
    -1.7802  -1.7782  -1.7405  -1.7257  -1.5903  -1.5167  -1.4137  -1.3965
    -1.3579  -1.2937  -1.2874  -1.1894  -1.1151  -1.0524  -1.0269  -0.9179
    -0.8754  -0.8529  -0.7632  -0.7012  -0.6616  -0.6440  -0.6272  -0.5234
    -0.5034  -0.4923  -0.4076  -0.3958  -0.3386  -0.2570  -0.2375  -0.2313
    -0.1432  -0.1379  -0.0458  -0.0039   0.0379   0.0828   0.1787   0.1970
     0.2999   0.3353   0.3568   0.4765   0.4895   0.5524   0.6196   0.6872
     0.7185   0.7432   0.7723   0.7941   0.8673   0.9822   0.9872   1.0889
     1.1282   1.2961   1.3350   1.3836   1.6227   1.6492   2.3196   2.6608
     2.8208   3.1193   3.3101   3.4212   3.6362   3.6513   3.6566   3.8336
     3.8802

[...]

          k = 0.0380-0.0419 0.0000 ( 17876 PWs)   bands (ev):

[...]

          k =-0.0760-0.0000 0.0000 ( 17886 PWs)   bands (ev):

[...]

          k =-0.0760-0.0839 0.0000 ( 17948 PWs)   bands (ev):

   -56.5971 -56.5967 -55.7171 -55.7119 -55.7095 -55.7088 -55.5727 -55.5672
   -55.3558 -55.3502 -55.2691 -55.2613 -55.2612 -55.1730 -54.7303 -54.6228
   -32.8742 -32.8739 -32.8586 -32.8584 -32.7430 -32.7428 -32.0373 -32.0348
   -32.0213 -32.0153 -31.9652 -31.9641 -31.9220 -31.9203 -31.9190 -31.9182
   -31.9070 -31.9044 -31.9029 -31.9007 -31.8247 -31.8202 -31.7739 -31.7685
   -31.7072 -31.6999 -31.6389 -31.6322 -31.6057 -31.6056 -31.5986 -31.5548
   -31.5528 -31.5247 -31.4897 -31.4869 -31.4867 -31.4478 -31.4477 -31.4428
   -31.4158 -31.3766 -31.1134 -30.9942 -30.9613 -30.9294 -30.8425 -30.8077
   -16.1262 -16.1241 -16.0920 -16.0917 -15.8220 -15.8183 -15.7741 -15.7724
   -15.5997 -15.5938 -15.3871 -15.3769 -15.3710 -15.3669 -15.2428 -15.2340
   -15.1705 -15.1597 -15.0705 -15.0671 -15.0041 -14.9980 -14.9600 -14.9403
   -14.6237 -14.6162 -14.4886 -14.4798 -14.3269 -13.7703 -13.7703 -13.7087
   -12.8138  -7.4837  -3.8119  -3.7634  -3.2257  -3.2252  -3.1597  -3.1584
    -3.0376  -3.0328  -2.9561  -2.9556  -2.8563  -2.8521  -2.7561  -2.7125
    -2.7103  -2.7076  -2.6947  -2.6522  -2.5567  -2.5563  -2.5416  -2.5264
    -2.4709  -2.4688  -2.4543  -2.3819  -2.3683  -2.3324  -2.2930  -2.1865
    -2.1729  -2.1563  -2.1306  -2.0704  -2.0558  -2.0445  -1.9969  -1.9725
    -1.8945  -1.8280  -1.7867  -1.6670  -1.6634  -1.6536  -1.6415  -1.4864
    -1.4506  -1.4193  -1.4097  -1.4036  -1.3592  -1.2612  -1.2532  -1.1188
    -1.1162  -1.0464  -0.9645  -0.9414  -0.9192  -0.7849  -0.7446  -0.7037
    -0.6987  -0.6737  -0.6478  -0.6284  -0.6007  -0.4492  -0.4299  -0.3957
    -0.3649  -0.3568  -0.3156  -0.2473  -0.1675  -0.0866  -0.0854  -0.0191
     0.0330   0.0949   0.1829   0.1953   0.1993   0.4821   0.5623   0.6494
     0.7285   0.7925   0.8582   0.8828   0.9434   0.9824   1.1226   1.1254
     1.1441   1.1446   1.2045   1.2128   1.3662   1.6454   2.2063   3.2339
     3.2342   3.3014   3.3018   3.6255   3.6309   3.7399   3.7490   3.8589
     3.8642

     the Fermi energy is     2.4989 ev

!    total energy              =   -2942.90677601 Ry
     estimated scf accuracy    <       0.00000006 Ry
     smearing contrib. (-TS)   =      -0.00477693 Ry
     internal energy E=F+TS    =   -2942.90199908 Ry

     The total energy is F=E-TS. E is the sum of the following terms:
     one-electron contribution =  -23225.47324087 Ry
     hartree contribution      =   11703.02243213 Ry
     xc contribution           =    -487.46576128 Ry
     ewald contribution        =    9067.01418452 Ry
     electric field correction =       0.00038643 Ry

     convergence has been achieved in  63 iterations

     Forces acting on atoms (cartesian axes, Ry/au):

     atom    1 type  1   force =     0.00000771   -0.00044062    0.12429896
     atom    2 type  1   force =    -0.00005832   -0.00055696   -0.16064303
     atom    3 type  2   force =     0.00016459   -0.00030144   -0.06835434
     atom    4 type  2   force =    -0.00005489   -0.00038802    0.02752577
     atom    5 type  2   force =    -0.01678402    0.00112613   -0.00832907
     atom    6 type  2   force =     0.01783307    0.00162658   -0.01022522
     atom    7 type  1   force =     0.00039666   -0.00407469    0.02179924
     atom    8 type  1   force =     0.00020044   -0.00219401    0.11167060
     atom    9 type  2   force =     0.00010389    0.00018629   -0.00032155
     atom   10 type  2   force =    -0.00319665    0.00010732   -0.07306585
     atom   11 type  2   force =    -0.00037207    0.00033238   -0.00007221
     atom   12 type  2   force =     0.00016320    0.00044941   -0.00003090
     atom   13 type  1   force =     0.00014889   -0.00024400   -0.00001137
     atom   14 type  1   force =    -0.00016397    0.00003694   -0.00032967
     atom   15 type  2   force =    -0.00004551   -0.00024653    0.00020033
     atom   16 type  2   force =     0.00032551    0.00076773    0.00001547
     atom   17 type  2   force =     0.00019391    0.00030686   -0.00026957
     atom   18 type  2   force =    -0.00020277    0.00020881    0.00013074
     atom   19 type  1   force =     0.00051162   -0.00008091   -0.00016587
     atom   20 type  1   force =     0.00025805   -0.00038102   -0.00047651
     atom   21 type  2   force =     0.00009980    0.00007898    0.09968916
     atom   22 type  2   force =     0.00007742    0.00094989    0.00046195
     atom   23 type  2   force =    -0.07916177    0.00008492   -0.03246217
     atom   24 type  2   force =     0.07906678    0.00051167   -0.03245707
     atom   25 type  1   force =     0.00002521   -0.00042000    0.12381174
     atom   26 type  1   force =    -0.00003645   -0.00042394   -0.16075912
     atom   27 type  2   force =     0.00028670   -0.00046914   -0.06734350
     atom   28 type  2   force =    -0.00005703   -0.00020362    0.02726160
     atom   29 type  2   force =    -0.01731441    0.00074014   -0.00825585
     atom   30 type  2   force =     0.01828068    0.00113773   -0.01009550
     atom   31 type  1   force =     0.00033608   -0.00099452    0.02126952
     atom   32 type  1   force =     0.00021767   -0.00027497    0.11222312
     atom   33 type  2   force =     0.00012137    0.00051199   -0.00008796
     atom   34 type  2   force =    -0.00294458   -0.00065560   -0.07291996
     atom   35 type  2   force =    -0.00027678    0.00027511   -0.00009653
     atom   36 type  2   force =     0.00012081    0.00013967   -0.00003493
     atom   37 type  1   force =     0.00014293   -0.00015107    0.00024667
     atom   38 type  1   force =     0.00006784    0.00005275    0.00029122
     atom   39 type  2   force =     0.00021473    0.00037781   -0.00014607
     atom   40 type  2   force =     0.00009836    0.00034600    0.00015805
     atom   41 type  2   force =    -0.00015699    0.00033603    0.00017880
     atom   42 type  2   force =    -0.00003551    0.00060678   -0.00000317
     atom   43 type  1   force =     0.00060417    0.00052766    0.00051704
     atom   44 type  1   force =     0.00014429    0.00034666   -0.00038873
     atom   45 type  2   force =     0.00010301    0.00005067    0.09971231
     atom   46 type  2   force =    -0.07917192    0.00012864   -0.03246322
     atom   47 type  2   force =     0.07906923    0.00056128   -0.03244991
     atom   48 type  3   force =     0.00042745    0.00030122   -0.00024462
     atom   49 type  4   force =     0.00073126   -0.00038619    0.00177705
     atom   50 type  5   force =     0.00055519   -0.00035610   -0.00036665
     atom   51 type  5   force =    -0.00022201    0.00035047   -0.00011284
     atom   52 type  5   force =    -0.00071844   -0.00059255    0.00023998
     atom   53 type  3   force =     0.00028049   -0.00344947    0.00372121
     atom   54 type  5   force =    -0.00038768    0.00038132    0.00059597
     atom   55 type  5   force =     0.00035049    0.00060167   -0.00054711
     atom   56 type  5   force =    -0.00036772    0.00273786   -0.00426642

     Total force =     0.424984     Total SCF correction =     0.000877
  @ DRIVER MODE: Message from server: STATUS
  @ DRIVER MODE: Message from server: GETFORCE
  @ DRIVER MODE: Returning v,forces,stress,ensemble

     Writing output data file ./calc.save/
  @ DRIVER MODE: Message from server: EXIT
  @ DRIVE MODE: Exiting

     General routines

     Parallel routines

   This run was terminated on:   2:24:34   3Aug2021

   JOB DONE.