     Program PWSCF v.6.7GPU starts on 10Sep2021 at  5:20:44

     R & G space division:  proc/nbgrp/npool/nimage =      10
     Reading input from /storage/home/hcoda1/3/ntian30/research/carbon/CxH_vib/CH3_calc/ads_slab/CH3N2H2O_g/out_0026/pw.inp
Warning: card &CELL ignored
Warning: card   CELL_DYNAMICS='IPI', ignored
Warning: card / ignored

     Current dimensions of program PWSCF are:
     Max number of different atomic species (ntypx) = 10
     Max number of k-points (npk) =  40000
     Max angular momentum in pseudopotentials (lmaxx) =  3
     Presently no symmetry can be used with electric field

     Message from routine cell_base_init:
     DEPRECATED: use true lattice parameter, not A to a.u. conversion factor

     IMPORTANT: XC functional enforced from input :
     Exchange-correlation= BEEF-VDW
                           (   1   4  43  14   2   0   0)
     Any further DFT definition will be discarded
     Please, verify this is what you really want

  @ DRIVER MODE: Connecting to
 qe_1139763_2779714.sched-torque.pace.gatech.eduwh2vayyq_scratch
  using UNIX socket
  @ DRIVER MODE: Message from server: STATUS
  @ DRIVER MODE: Message from server: INIT
  @ DRIVER MODE: Receiving replica           0          -1
  @ DRIVER MODE: Receiving encoded integer          25
  @ DRIVER MODE:  SCF:  T  FORCE:  T  STRESS:  F  VC:  F  ENSEMBLE:  F
  @ DRIVER MODE:  SCF:  T  FORCE:  T  STRESS:  F  VC:  F  ENSEMBLE:  F

     Using Slab Decomposition

     bravais-lattice index     =            0
     lattice parameter (alat)  =       1.8897  a.u.
     unit-cell volume          =    6658.9804 (a.u.)^3
     number of atoms/cell      =           56
     number of atomic types    =            5
     number of electrons       =       403.00
     number of Kohn-Sham states=          211
     kinetic-energy cutoff     =      29.3995  Ry
     charge density cutoff     =     293.9946  Ry
     scf convergence threshold =      7.3E-08
     mixing beta               =       0.0500
     number of iterations used =            8  plain     mixing
     Exchange-correlation= BEEF-VDW
                           (   1   4  43  14   2   0   0)

     celldm(1)=   1.889726  celldm(2)=   0.000000  celldm(3)=   0.000000
     celldm(4)=   0.000000  celldm(5)=   0.000000  celldm(6)=   0.000000

     crystal axes: (cart. coord. in units of alat)
               a(1) = (   6.579727   0.000000   0.000000 )
               a(2) = (  -0.000775   5.961596   0.000000 )
               a(3) = (   0.000000   0.000000  25.155947 )

     reciprocal axes: (cart. coord. in units 2 pi/alat)
               b(1) = (  0.151982  0.000020  0.000000 )
               b(2) = (  0.000000  0.167740  0.000000 )
               b(3) = (  0.000000  0.000000  0.039752 )

     PseudoPot. # 1 for Ti read from file:
     /storage/coda1/p-amedford6/0/shared/rich_project_chbe-medford/medford-share/data/pseudos_module/espresso/nninc/pbe/van/Ti.UPF
     MD5 check sum: 8e4df49b7f0d34bbd5052bf3f5ea0213
     Pseudo is Ultrasoft, Zval = 12.0
     Generated by new atomic code, or converted to UPF format
     Using radial grid of  851 points,  6 beta functions with:
                l(1) =   0
                l(2) =   0
                l(3) =   1
                l(4) =   1
                l(5) =   2
                l(6) =   2
     Q(r) pseudized with  8 coefficients,  rinner =    1.000   1.000   1.000
                                                       1.000   1.000

     PseudoPot. # 2 for O  read from file:
     /storage/coda1/p-amedford6/0/shared/rich_project_chbe-medford/medford-share/data/pseudos_module/espresso/nninc/pbe/van/O.UPF
     MD5 check sum: 78c19812648e8988a0fe644b0f25305e
     Pseudo is Ultrasoft, Zval =  6.0
     Generated by new atomic code, or converted to UPF format
     Using radial grid of  737 points,  4 beta functions with:
                l(1) =   0
                l(2) =   0
                l(3) =   1
                l(4) =   1
     Q(r) pseudized with  8 coefficients,  rinner =    0.800   0.800   0.800

     PseudoPot. # 3 for N  read from file:
     /storage/coda1/p-amedford6/0/shared/rich_project_chbe-medford/medford-share/data/pseudos_module/espresso/nninc/pbe/van/N.UPF
     MD5 check sum: 90d10febe142ad51ac9d5be1deb811c4
     Pseudo is Ultrasoft, Zval =  5.0
     Generated by new atomic code, or converted to UPF format
     Using radial grid of  729 points,  4 beta functions with:
                l(1) =   0
                l(2) =   0
                l(3) =   1
                l(4) =   1
     Q(r) pseudized with  8 coefficients,  rinner =    0.800   0.800   0.800

     PseudoPot. # 4 for C  read from file:
     /storage/coda1/p-amedford6/0/shared/rich_project_chbe-medford/medford-share/data/pseudos_module/espresso/nninc/pbe/van/C.UPF
     MD5 check sum: 1a69bf6b8db32088f5b2163dbdb77a27
     Pseudo is Ultrasoft, Zval =  4.0
     Generated by new atomic code, or converted to UPF format
     Using radial grid of  721 points,  4 beta functions with:
                l(1) =   0
                l(2) =   0
                l(3) =   1
                l(4) =   1
     Q(r) pseudized with  8 coefficients,  rinner =    0.800   0.800   0.800

     PseudoPot. # 5 for H  read from file:
     /storage/coda1/p-amedford6/0/shared/rich_project_chbe-medford/medford-share/data/pseudos_module/espresso/nninc/pbe/van/H.UPF
     MD5 check sum: b5ee9d7bfd3a09ee7748110bda690ff7
     Pseudo is Ultrasoft, Zval =  1.0
     Generated by new atomic code, or converted to UPF format
     Using radial grid of  615 points,  1 beta functions with:
                l(1) =   0
     Q(r) pseudized with  8 coefficients,  rinner =    0.800

     atomic species   valence    mass     pseudopotential
        Ti1           12.00    47.86700     Ti( 1.00)
        O1             6.00    15.99900     O ( 1.00)
        N1             5.00    14.00700     N ( 1.00)
        C1             4.00    12.01100     C ( 1.00)
        H1             1.00     1.00800     H ( 1.00)

     No symmetry found

   Cartesian axes

     site n.     atom                  positions (alat units)
         1           Ti1 tau(   1) = (   0.0004258   2.9801865   6.0000000  )
         2           Ti1 tau(   2) = (   3.2906075   1.4906267   6.0002472  )
         3           O1  tau(   3) = (   0.0006271   0.0005054   7.9858123  )
         4           O1  tau(   4) = (   3.2906025   0.0005020   7.3038282  )
         5           O1  tau(   5) = (   4.5942328   1.4918067   9.2879030  )
         6           O1  tau(   6) = (   1.9868534   1.4903216   9.2879459  )
         7           Ti1 tau(   7) = (   3.2907910   2.8959150   9.1758416  )
         8           Ti1 tau(   8) = (   0.0015273   1.4827037   9.2680791  )
         9           O1  tau(   9) = (   3.3002115   5.9463602  11.3460011  )
        10           O1  tau(  10) = (   0.0116148   5.9584955  10.6183126  )
        11           O1  tau(  11) = (   1.3192008   1.4768417  12.6238339  )
        12           O1  tau(  12) = (   5.3062067   1.4698383  12.6193417  )
        13           Ti1 tau(  13) = (   6.5330844   2.9444840  12.6148558  )
        14           Ti1 tau(  14) = (   3.2222230   1.4676475  12.5013840  )
        15           O1  tau(  15) = (   0.0064324   5.9471174  14.6352917  )
        16           O1  tau(  16) = (   3.3028336   5.9445487  13.9678148  )
        17           O1  tau(  17) = (   4.5628415   1.5226527  16.0793330  )
        18           O1  tau(  18) = (   2.0474444   1.5206590  16.0184434  )
        19           Ti1 tau(  19) = (   3.3141275   2.9607752  15.6908890  )
        20           Ti1 tau(  20) = (   6.5660065   1.5097775  15.7997320  )
        21           O1  tau(  21) = (   3.2904802   0.0005063   4.7018136  )
        22           O1  tau(  22) = (   0.0269361   0.0086655  17.1987262  )
        23           O1  tau(  23) = (   1.3043587   1.4918075   6.0039043  )
        24           O1  tau(  24) = (   5.2767064   1.4903225   6.0039473  )
        25           Ti1 tau(  25) = (   0.0000382   5.9609847   6.0000000  )
        26           Ti1 tau(  26) = (   3.2902200   4.4714249   6.0002472  )
        27           O1  tau(  27) = (   0.0002396   2.9813036   7.9858123  )
        28           O1  tau(  28) = (   3.2902150   2.9813002   7.3038282  )
        29           O1  tau(  29) = (   4.5938453   4.4726049   9.2879030  )
        30           O1  tau(  30) = (   1.9864658   4.4711199   9.2879459  )
        31           Ti1 tau(  31) = (   3.2891106   5.8743827   9.1763621  )
        32           Ti1 tau(  32) = (   0.0006254   4.4649316   9.2693709  )
        33           O1  tau(  33) = (   3.2944391   2.9688829  11.3444728  )
        34           O1  tau(  34) = (   0.0092240   2.9805883  10.6323155  )
        35           O1  tau(  35) = (   1.3142520   4.4635248  12.6275686  )
        36           O1  tau(  36) = (   5.3078217   4.4601700  12.6226734  )
        37           Ti1 tau(  37) = (   6.5374036   5.9186568  12.5467527  )
        38           Ti1 tau(  38) = (   3.2213306   4.4595164  12.5065882  )
        39           O1  tau(  39) = (   6.5756885   2.9534048  14.6511233  )
        40           O1  tau(  40) = (   3.3206316   2.9687378  13.8980937  )
        41           O1  tau(  41) = (   4.5543359   4.4428353  16.0905846  )
        42           O1  tau(  42) = (   2.0427057   4.4323087  16.0570365  )
        43           Ti1 tau(  43) = (   3.2570595   5.9269474  15.8069103  )
        44           Ti1 tau(  44) = (   6.5609319   4.6488967  16.0725391  )
        45           O1  tau(  45) = (   3.2900926   2.9813045   4.7018136  )
        46           O1  tau(  46) = (   1.3039711   4.4726057   6.0039043  )
        47           O1  tau(  47) = (   5.2763189   4.4711207   6.0039473  )
        48           N1  tau(  48) = (   0.2492319   2.6641403  18.6309932  )
        49           N1  tau(  49) = (   0.0782707   2.8835230  17.4382120  )
        50           C1  tau(  50) = (   0.2622466   3.8234900  19.5663878  )
        51           H1  tau(  51) = (   6.1755609   4.6233469  19.2444151  )
        52           H1  tau(  52) = (   0.0056772   3.4477461  20.5519103  )
        53           H1  tau(  53) = (   1.2857956   4.2073973  19.6006198  )
        54           O1  tau(  54) = (   3.1761146   0.0362278  18.2233714  )
        55           H1  tau(  55) = (   3.9097821   0.6076051  18.5038283  )
        56           H1  tau(  56) = (   2.3516031   0.5117379  18.4309238  )

     number of k points=    10  Fermi-Dirac smearing, width (Ry)=  0.0073
                       cart. coord. in units 2pi/alat
        k(    1) = (   0.0000000   0.0000000   0.0000000), wk =   0.1250000
        k(    2) = (   0.0000000   0.0419351   0.0000000), wk =   0.2500000
        k(    3) = (   0.0000000  -0.0838702   0.0000000), wk =   0.1250000
        k(    4) = (   0.0379955   0.0000049   0.0000000), wk =   0.2500000
        k(    5) = (   0.0379955   0.0419400   0.0000000), wk =   0.2500000
        k(    6) = (   0.0379955  -0.0838652   0.0000000), wk =   0.2500000
        k(    7) = (   0.0379955  -0.0419301   0.0000000), wk =   0.2500000
        k(    8) = (  -0.0759910  -0.0000099   0.0000000), wk =   0.1250000
        k(    9) = (  -0.0759910   0.0419252   0.0000000), wk =   0.2500000
        k(   10) = (  -0.0759910  -0.0838800   0.0000000), wk =   0.1250000

     Initial potential from superposition of free atoms

     starting charge  386.99914, renormalised to  403.00000

     negative rho (up, down):  1.449E-02 0.000E+00

     %%%%%%%%%%%%%%%%%%%%%%%%%%%%%%%%%%%%%%%%%%%%%%%%%%%%%%%%%%%%%%%%%%%%%%%%
     %                                                                      %
     % You are using vdW-DF, which was implemented by the Thonhauser group. %
     % Please cite the following two papers that made this development      %
     % possible and the two reviews that describe the various versions:     %
     %                                                                      %
     %   T. Thonhauser et al., PRL 115, 136402 (2015).                      %
     %   T. Thonhauser et al., PRB 76, 125112 (2007).                       %
     %   K. Berland et al., Rep. Prog. Phys. 78, 066501 (2015).             %
     %   D.C. Langreth et al., J. Phys.: Condens. Matter 21, 084203 (2009). %
     %                                                                      %
     %                                                                      %
     % If you are calculating the stress with vdW-DF, please also cite:     %
     %                                                                      %
     %   R. Sabatini et al., J. Phys.: Condens. Matter 24, 424209 (2012).   %
     %                                                                      %
     %%%%%%%%%%%%%%%%%%%%%%%%%%%%%%%%%%%%%%%%%%%%%%%%%%%%%%%%%%%%%%%%%%%%%%%%

     Adding external electric field

     Computed dipole along edir(3) :
        Dipole              -13.2089 Ry au,        -33.5737 Debye
        Dipole field         -0.0249 Ry au,

        Potential amp.        2.3107 Ry
        Total length         46.3494 bohr

     Starting wfcs are  305 atomic wfcs
  @ DRIVER MODE: Message from server: STATUS
  @ DRIVER MODE: Message from server: POSDATA
  @ DRIVER MODE: Reading and sharing cell
  @ DRIVER MODE: Reading and sharing positions
  @ DRIVER MODE: Received positions

     Self-consistent Calculation

     iteration #  1     ecut=    29.40 Ry     beta= 0.05
     Davidson diagonalization with overlap
     c_bands:  4 eigenvalues not converged
     c_bands:  2 eigenvalues not converged
     c_bands:  2 eigenvalues not converged
     c_bands:  5 eigenvalues not converged
     c_bands:  1 eigenvalues not converged
     c_bands:  1 eigenvalues not converged
     c_bands:  4 eigenvalues not converged
     c_bands:  1 eigenvalues not converged
     c_bands:  1 eigenvalues not converged
     ethr =  1.00E-05,  avg # of iterations = 28.0

[...]

     total energy              =   -2367.56629423 Ry
     estimated scf accuracy    <    6916.07156135 Ry

     iteration #  2     ecut=    29.40 Ry     beta= 0.05
     Davidson diagonalization with overlap
     ethr =  1.00E-02,  avg # of iterations = 23.3

[...]

     iteration # 67     ecut=    29.40 Ry     beta= 0.05
     Davidson diagonalization with overlap
     c_bands:  1 eigenvalues not converged
     ethr =  3.25E-11,  avg # of iterations = 12.7

[...]

     total energy              =   -2974.00271683 Ry
     estimated scf accuracy    <       0.00000008 Ry

     iteration # 69     ecut=    29.40 Ry     beta= 0.05
     Davidson diagonalization with overlap
     ethr =  2.03E-11,  avg # of iterations = 11.9

     negative rho (up, down):  1.477E-02 0.000E+00

     Adding external electric field

     Computed dipole along edir(3) :
        Dipole                0.8914 Ry au,          2.2656 Debye
        Dipole field          0.0017 Ry au,

        Potential amp.       -0.1559 Ry
        Total length         46.3494 bohr

     End of self-consistent calculation

          k = 0.0000 0.0000 0.0000 ( 18029 PWs)   bands (ev):

   -55.6189 -55.5848 -55.5770 -55.5603 -55.5403 -55.4471 -55.4289 -55.4079
   -55.3949 -55.3939 -55.3656 -55.3602 -55.0030 -54.8631 -54.5976 -54.5635
   -32.1191 -32.1013 -31.9618 -31.9446 -31.9277 -31.9119 -31.8834 -31.8778
   -31.8619 -31.8082 -31.8019 -31.7839 -31.7712 -31.7553 -31.7393 -31.7302
   -31.7232 -31.7103 -31.7044 -31.6761 -31.6673 -31.6499 -31.6212 -31.6172
   -31.6014 -31.5987 -31.5982 -31.5929 -31.5688 -31.5642 -31.5612 -31.5563
   -31.5466 -31.5421 -31.5355 -31.5089 -31.5056 -31.2730 -31.1988 -31.1234
   -31.1062 -31.0720 -31.0048 -30.9162 -30.8938 -30.8214 -30.7349 -30.6240
   -18.8634 -18.3054 -16.3109 -16.0824 -15.8528 -15.7650 -15.7164 -15.5168
   -15.4149 -15.3424 -15.2199 -15.1571 -15.1452 -15.1308 -15.1121 -15.1100
   -15.0576 -15.0508 -15.0467 -15.0389 -15.0057 -14.9651 -14.9502 -14.9398
   -14.8459 -14.7725 -14.7553 -14.7314 -14.6861 -14.6695 -14.1965 -13.1002
   -12.9837 -11.2589  -6.8743  -6.6377  -4.1998  -3.8373  -3.8061  -3.6836
    -3.5561  -3.5229  -3.4412  -3.3676  -3.2311  -3.1983  -3.0365  -2.8466
    -2.7858  -2.7597  -2.7068  -2.6402  -2.5264  -2.4675  -2.4226  -2.4155
    -2.3982  -2.3903  -2.3670  -2.3542  -2.2529  -2.2314  -2.1522  -2.1488
    -2.0975  -1.9803  -1.9655  -1.9311  -1.9185  -1.8952  -1.8725  -1.8524
    -1.8420  -1.8180  -1.7674  -1.6971  -1.6352  -1.5952  -1.5054  -1.4413
    -1.3972  -1.3501  -1.2288  -1.1357  -1.1014  -1.0603  -1.0530  -1.0398
    -1.0108  -0.9931  -0.8801  -0.7662  -0.7495  -0.6838  -0.6240  -0.5429
    -0.5163  -0.4366  -0.3826  -0.3642  -0.3606  -0.3149  -0.2850  -0.2259
    -0.0923  -0.0407  -0.0068   0.0023   0.0614   0.1049   0.1335   0.2208
     0.2271   0.2724   0.3106   0.3430   0.3562   0.3713   0.3898   0.4193
     0.4340   0.6256   0.6617   0.7006   0.7385   0.7813   0.9197   0.9440
     1.0422   1.1515   1.3506   1.4243   1.5293   1.6165   1.9958   2.0416
     2.7453   3.5163   3.6036   3.6485   3.6774   3.7612   3.7752   3.9711
     3.9871   4.0254   4.0955

[...]

          k = 0.0380-0.0419 0.0000 ( 17876 PWs)   bands (ev):

[...]

          k =-0.0760-0.0000 0.0000 ( 17886 PWs)   bands (ev):

[...]

          k =-0.0760-0.0839 0.0000 ( 17948 PWs)   bands (ev):

   -55.6022 -55.6014 -55.5628 -55.5587 -55.5543 -55.4368 -55.4184 -55.4124
   -55.4107 -55.3788 -55.3755 -55.3670 -55.0010 -54.8649 -54.5806 -54.5804
   -31.9327 -31.9168 -31.9165 -31.9163 -31.8976 -31.8968 -31.8473 -31.8411
   -31.8199 -31.7947 -31.7825 -31.7734 -31.7694 -31.7312 -31.7266 -31.7251
   -31.7218 -31.7209 -31.7183 -31.7158 -31.7132 -31.7074 -31.6713 -31.6540
   -31.6354 -31.6312 -31.6238 -31.6118 -31.6114 -31.6085 -31.6029 -31.5934
   -31.5900 -31.5792 -31.5784 -31.5699 -31.4201 -31.2749 -31.2149 -31.1621
   -31.1245 -31.0985 -30.9066 -30.9064 -30.8177 -30.8174 -30.7783 -30.7782
   -18.8623 -18.3017 -15.7693 -15.6589 -15.5683 -15.5341 -15.4766 -15.4075
   -15.3997 -15.3130 -15.2970 -15.2940 -15.2282 -15.2076 -15.1702 -15.1633
   -15.1406 -15.1248 -15.1183 -15.0687 -15.0568 -15.0539 -15.0471 -15.0422
   -14.9662 -14.9355 -14.9317 -14.9229 -14.7952 -14.6707 -14.3682 -13.0856
   -13.0854 -11.2565  -6.9015  -6.6149  -4.1258  -3.8674  -3.7712  -3.2152
    -3.0518  -2.8383  -2.8194  -2.7235  -2.7116  -2.6771  -2.5464  -2.5055
    -2.4648  -2.4484  -2.4292  -2.4278  -2.4106  -2.4050  -2.3834  -2.3573
    -2.3339  -2.3136  -2.2848  -2.2812  -2.2684  -2.2553  -2.2321  -2.2199
    -2.2036  -2.1730  -2.1471  -2.1311  -2.0642  -1.9926  -1.8318  -1.7934
    -1.7542  -1.7479  -1.7312  -1.7004  -1.6848  -1.6670  -1.6193  -1.5830
    -1.5057  -1.3561  -1.3375  -1.3137  -1.2924  -1.2821  -1.2100  -1.1017
    -1.0826  -1.0115  -1.0031  -0.8969  -0.8885  -0.8034  -0.7952  -0.7850
    -0.7101  -0.6831  -0.6681  -0.5794  -0.5773  -0.5538  -0.5039  -0.4768
    -0.4120  -0.3697  -0.3391  -0.3357  -0.2898  -0.2676  -0.2235  -0.1568
    -0.1037  -0.0675   0.0289   0.1332   0.2337   0.3492   0.4641   0.4781
     0.5603   0.5937   0.6784   0.6942   0.7026   0.7748   0.7797   0.8784
     0.9232   0.9378   0.9782   1.1008   1.7876   1.7890   1.8612   1.8614
     2.7697   3.7339   3.8537   3.8959   3.9137   3.9880   4.0306   4.0499
     4.0524   4.0866   4.1924

     the Fermi energy is     3.5151 ev

!    total energy              =   -2974.00273891 Ry
     estimated scf accuracy    <       0.00000006 Ry
     smearing contrib. (-TS)   =      -0.02182627 Ry
     internal energy E=F+TS    =   -2973.98091263 Ry

     The total energy is F=E-TS. E is the sum of the following terms:
     one-electron contribution =  -23848.01389712 Ry
     hartree contribution      =   12018.42679046 Ry
     xc contribution           =    -494.03063157 Ry
     ewald contribution        =    9349.63532619 Ry
     electric field correction =       0.00149940 Ry

     convergence has been achieved in  69 iterations

     Forces acting on atoms (cartesian axes, Ry/au):

     atom    1 type  1   force =     0.00003530   -0.00024074    0.09648929
     atom    2 type  1   force =     0.00005531   -0.00043809   -0.17542284
     atom    3 type  2   force =     0.00011488   -0.00009730   -0.02476281
     atom    4 type  2   force =     0.00004240   -0.00157856    0.05348867
     atom    5 type  2   force =    -0.01196980   -0.00100561    0.00307552
     atom    6 type  2   force =     0.01371277   -0.00064873    0.00291312
     atom    7 type  1   force =     0.00074607    0.00068430   -0.00682723
     atom    8 type  1   force =     0.00021803    0.00948411    0.02713038
     atom    9 type  2   force =    -0.00014359   -0.00006244   -0.00006755
     atom   10 type  2   force =    -0.00204862    0.00048292   -0.01821248
     atom   11 type  2   force =    -0.00057605    0.00032625    0.00012111
     atom   12 type  2   force =     0.00068353    0.00012493    0.00031232
     atom   13 type  1   force =    -0.00015713   -0.00009348   -0.00014512
     atom   14 type  1   force =    -0.00040263   -0.00015160    0.00026789
     atom   15 type  2   force =     0.00002929   -0.00059555    0.00069413
     atom   16 type  2   force =    -0.00025820   -0.00007183   -0.00037246
     atom   17 type  2   force =    -0.00022894    0.00016996   -0.00029078
     atom   18 type  2   force =     0.00000064    0.00019155   -0.00028782
     atom   19 type  1   force =    -0.00031429    0.00016953   -0.00005852
     atom   20 type  1   force =    -0.00045938    0.00000958    0.00034071
     atom   21 type  2   force =     0.00008472    0.00001533    0.10325367
     atom   22 type  2   force =     0.00013120    0.00039882    0.00007835
     atom   23 type  2   force =    -0.07145431   -0.00009634   -0.02773180
     atom   24 type  2   force =     0.07141016    0.00035780   -0.02780399
     atom   25 type  1   force =     0.00017941   -0.00033697    0.09616382
     atom   26 type  1   force =     0.00000586   -0.00037640   -0.17575036
     atom   27 type  2   force =     0.00020969   -0.00020464   -0.02375248
     atom   28 type  2   force =     0.00002488   -0.00128282    0.05295370
     atom   29 type  2   force =    -0.01220944    0.00024273    0.00290412
     atom   30 type  2   force =     0.01387189    0.00082148    0.00272152
     atom   31 type  1   force =     0.00041808    0.00343873   -0.00985522
     atom   32 type  1   force =     0.00036434   -0.01131511    0.02754257
     atom   33 type  2   force =     0.00010420    0.00014505   -0.00001373
     atom   34 type  2   force =    -0.00188314   -0.00044812   -0.02415731
     atom   35 type  2   force =     0.00041060    0.00003261   -0.00027070
     atom   36 type  2   force =    -0.00029834   -0.00006014    0.00007815
     atom   37 type  1   force =    -0.00030709   -0.00013289    0.00010306
     atom   38 type  1   force =    -0.00078988    0.00013837   -0.00048019
     atom   39 type  2   force =     0.00009413   -0.00031928   -0.00021930
     atom   40 type  2   force =     0.00020121    0.00034299    0.00045357
     atom   41 type  2   force =     0.00023679    0.00010968   -0.00031370
     atom   42 type  2   force =    -0.00043642   -0.00007871   -0.00032806
     atom   43 type  1   force =     0.00031622    0.00079505    0.00032852
     atom   44 type  1   force =    -0.00010096    0.00108352   -0.00070775
     atom   45 type  2   force =     0.00008552   -0.00002669    0.10323983
     atom   46 type  2   force =    -0.07146034   -0.00002003   -0.02774396
     atom   47 type  2   force =     0.07141787    0.00040925   -0.02780138
     atom   48 type  3   force =    -0.00034810    0.00013711   -0.00138119
     atom   49 type  3   force =    -0.00014877   -0.00039313    0.00132744
     atom   50 type  4   force =     0.00247227    0.00123579   -0.00185833
     atom   51 type  5   force =     0.00088754   -0.00093407    0.00038855
     atom   52 type  5   force =    -0.00247092   -0.00080454    0.00224776
     atom   53 type  5   force =     0.00020724   -0.00029106   -0.00088026
     atom   54 type  2   force =     0.00016705    0.00056874   -0.00076512
     atom   55 type  5   force =    -0.00008048   -0.00008085   -0.00003938
     atom   56 type  5   force =    -0.00039228    0.00026956   -0.00031593

     Total force =     0.368000     Total SCF correction =     0.000801
  @ DRIVER MODE: Message from server: STATUS
  @ DRIVER MODE: Message from server: GETFORCE
  @ DRIVER MODE: Returning v,forces,stress,ensemble

     Writing output data file ./calc.save/
  @ DRIVER MODE: Message from server: EXIT
  @ DRIVE MODE: Exiting

     General routines

     Parallel routines

   This run was terminated on:   5:40:23  10Sep2021

   JOB DONE.