     Program PWSCF v.6.7GPU starts on 23Sep2021 at  3:11:38

     R & G space division:  proc/nbgrp/npool/nimage =      10
     Reading input from /storage/home/hcoda1/3/ntian30/research/carbon/CxH_vib/H2O_calc/ads_slab/CH3NHHH2O_a/out_0035/pw.inp
Warning: card &CELL ignored
Warning: card   CELL_DYNAMICS='IPI', ignored
Warning: card / ignored

     Current dimensions of program PWSCF are:
     Max number of different atomic species (ntypx) = 10
     Max number of k-points (npk) =  40000
     Max angular momentum in pseudopotentials (lmaxx) =  3
     Presently no symmetry can be used with electric field

     Message from routine cell_base_init:
     DEPRECATED: use true lattice parameter, not A to a.u. conversion factor

     IMPORTANT: XC functional enforced from input :
     Exchange-correlation= BEEF-VDW
                           (   1   4  43  14   2   0   0)
     Any further DFT definition will be discarded
     Please, verify this is what you really want

  @ DRIVER MODE: Connecting to
 qe_1139763_2937309.sched-torque.pace.gatech.eduakzdt_vp_scratch
  using UNIX socket
  @ DRIVER MODE: Message from server: STATUS
  @ DRIVER MODE: Message from server: INIT
  @ DRIVER MODE: Receiving replica           0          -1
  @ DRIVER MODE: Receiving encoded integer          25
  @ DRIVER MODE:  SCF:  T  FORCE:  T  STRESS:  F  VC:  F  ENSEMBLE:  F
  @ DRIVER MODE:  SCF:  T  FORCE:  T  STRESS:  F  VC:  F  ENSEMBLE:  F

     Using Slab Decomposition

     bravais-lattice index     =            0
     lattice parameter (alat)  =       1.8897  a.u.
     unit-cell volume          =    6658.9804 (a.u.)^3
     number of atoms/cell      =           57
     number of atomic types    =            5
     number of electrons       =       400.00
     number of Kohn-Sham states=          210
     kinetic-energy cutoff     =      29.3995  Ry
     charge density cutoff     =     293.9946  Ry
     scf convergence threshold =      7.3E-08
     mixing beta               =       0.0500
     number of iterations used =            8  plain     mixing
     Exchange-correlation= BEEF-VDW
                           (   1   4  43  14   2   0   0)

     celldm(1)=   1.889726  celldm(2)=   0.000000  celldm(3)=   0.000000
     celldm(4)=   0.000000  celldm(5)=   0.000000  celldm(6)=   0.000000

     crystal axes: (cart. coord. in units of alat)
               a(1) = (   6.579727   0.000000   0.000000 )
               a(2) = (  -0.000775   5.961596   0.000000 )
               a(3) = (   0.000000   0.000000  25.155947 )

     reciprocal axes: (cart. coord. in units 2 pi/alat)
               b(1) = (  0.151982  0.000020  0.000000 )
               b(2) = (  0.000000  0.167740  0.000000 )
               b(3) = (  0.000000  0.000000  0.039752 )

     PseudoPot. # 1 for Ti read from file:
     /storage/coda1/p-amedford6/0/shared/rich_project_chbe-medford/medford-share/data/pseudos_module/espresso/nninc/pbe/van/Ti.UPF
     MD5 check sum: 8e4df49b7f0d34bbd5052bf3f5ea0213
     Pseudo is Ultrasoft, Zval = 12.0
     Generated by new atomic code, or converted to UPF format
     Using radial grid of  851 points,  6 beta functions with:
                l(1) =   0
                l(2) =   0
                l(3) =   1
                l(4) =   1
                l(5) =   2
                l(6) =   2
     Q(r) pseudized with  8 coefficients,  rinner =    1.000   1.000   1.000
                                                       1.000   1.000

     PseudoPot. # 2 for O  read from file:
     /storage/coda1/p-amedford6/0/shared/rich_project_chbe-medford/medford-share/data/pseudos_module/espresso/nninc/pbe/van/O.UPF
     MD5 check sum: 78c19812648e8988a0fe644b0f25305e
     Pseudo is Ultrasoft, Zval =  6.0
     Generated by new atomic code, or converted to UPF format
     Using radial grid of  737 points,  4 beta functions with:
                l(1) =   0
                l(2) =   0
                l(3) =   1
                l(4) =   1
     Q(r) pseudized with  8 coefficients,  rinner =    0.800   0.800   0.800

     PseudoPot. # 3 for N  read from file:
     /storage/coda1/p-amedford6/0/shared/rich_project_chbe-medford/medford-share/data/pseudos_module/espresso/nninc/pbe/van/N.UPF
     MD5 check sum: 90d10febe142ad51ac9d5be1deb811c4
     Pseudo is Ultrasoft, Zval =  5.0
     Generated by new atomic code, or converted to UPF format
     Using radial grid of  729 points,  4 beta functions with:
                l(1) =   0
                l(2) =   0
                l(3) =   1
                l(4) =   1
     Q(r) pseudized with  8 coefficients,  rinner =    0.800   0.800   0.800

     PseudoPot. # 4 for C  read from file:
     /storage/coda1/p-amedford6/0/shared/rich_project_chbe-medford/medford-share/data/pseudos_module/espresso/nninc/pbe/van/C.UPF
     MD5 check sum: 1a69bf6b8db32088f5b2163dbdb77a27
     Pseudo is Ultrasoft, Zval =  4.0
     Generated by new atomic code, or converted to UPF format
     Using radial grid of  721 points,  4 beta functions with:
                l(1) =   0
                l(2) =   0
                l(3) =   1
                l(4) =   1
     Q(r) pseudized with  8 coefficients,  rinner =    0.800   0.800   0.800

     PseudoPot. # 5 for H  read from file:
     /storage/coda1/p-amedford6/0/shared/rich_project_chbe-medford/medford-share/data/pseudos_module/espresso/nninc/pbe/van/H.UPF
     MD5 check sum: b5ee9d7bfd3a09ee7748110bda690ff7
     Pseudo is Ultrasoft, Zval =  1.0
     Generated by new atomic code, or converted to UPF format
     Using radial grid of  615 points,  1 beta functions with:
                l(1) =   0
     Q(r) pseudized with  8 coefficients,  rinner =    0.800

     atomic species   valence    mass     pseudopotential
        Ti1           12.00    47.86700     Ti( 1.00)
        O1             6.00    15.99900     O ( 1.00)
        N1             5.00    14.00700     N ( 1.00)
        C1             4.00    12.01100     C ( 1.00)
        H1             1.00     1.00800     H ( 1.00)

     No symmetry found

   Cartesian axes

     site n.     atom                  positions (alat units)
         1           Ti1 tau(   1) = (   0.0004258   2.9801865   6.0000000  )
         2           Ti1 tau(   2) = (   3.2906075   1.4906267   6.0002472  )
         3           O1  tau(   3) = (   0.0006271   0.0005054   7.9858123  )
         4           O1  tau(   4) = (   3.2906025   0.0005020   7.3038282  )
         5           O1  tau(   5) = (   4.5942328   1.4918067   9.2879030  )
         6           O1  tau(   6) = (   1.9868534   1.4903216   9.2879459  )
         7           Ti1 tau(   7) = (   3.2907910   2.8959150   9.1758416  )
         8           Ti1 tau(   8) = (   0.0015273   1.4827037   9.2680791  )
         9           O1  tau(   9) = (   3.2912042   0.0294118  11.3810798  )
        10           O1  tau(  10) = (   0.0116148   5.9584955  10.6183126  )
        11           O1  tau(  11) = (   1.2906363   1.5151137  12.6946382  )
        12           O1  tau(  12) = (   5.2977377   1.5118052  12.6897239  )
        13           Ti1 tau(  13) = (   0.0154927   3.0055723  12.5114375  )
        14           Ti1 tau(  14) = (   3.3120461   1.5076926  12.5412499  )
        15           O1  tau(  15) = (   0.0087391   5.9056098  14.6936070  )
        16           O1  tau(  16) = (   3.3000944   0.0090435  14.0218108  )
        17           O1  tau(  17) = (   4.5606481   1.5918460  16.0876707  )
        18           O1  tau(  18) = (   2.0070218   1.5857768  16.0794533  )
        19           Ti1 tau(  19) = (   3.2835068   3.0412122  15.7371975  )
        20           Ti1 tau(  20) = (   0.0166266   1.3536260  15.8406240  )
        21           O1  tau(  21) = (   3.2904802   0.0005063   4.7018136  )
        22           O1  tau(  22) = (   6.5628702   0.1917167  17.2472498  )
        23           O1  tau(  23) = (   1.3043587   1.4918075   6.0039043  )
        24           O1  tau(  24) = (   5.2767064   1.4903225   6.0039473  )
        25           Ti1 tau(  25) = (   0.0000382   5.9609847   6.0000000  )
        26           Ti1 tau(  26) = (   3.2902200   4.4714249   6.0002472  )
        27           O1  tau(  27) = (   0.0002396   2.9813036   7.9858123  )
        28           O1  tau(  28) = (   3.2902150   2.9813002   7.3038282  )
        29           O1  tau(  29) = (   4.5938453   4.4726049   9.2879030  )
        30           O1  tau(  30) = (   1.9864658   4.4711199   9.2879459  )
        31           Ti1 tau(  31) = (   3.2891106   5.8743827   9.1763621  )
        32           Ti1 tau(  32) = (   0.0006254   4.4649316   9.2693709  )
        33           O1  tau(  33) = (   3.2975917   2.9887808  11.3748511  )
        34           O1  tau(  34) = (   0.0092240   2.9805883  10.6323155  )
        35           O1  tau(  35) = (   1.2927870   4.4849180  12.6503915  )
        36           O1  tau(  36) = (   5.2959677   4.4879952  12.6460094  )
        37           Ti1 tau(  37) = (   0.0189062   0.0134437  12.4995343  )
        38           Ti1 tau(  38) = (   3.3131396   4.4925875  12.5257625  )
        39           O1  tau(  39) = (   6.5658147   3.0796170  14.9398047  )
        40           O1  tau(  40) = (   3.2912769   3.0351834  13.9531456  )
        41           O1  tau(  41) = (   4.5372935   4.5058929  16.2491503  )
        42           O1  tau(  42) = (   2.0060561   4.4992570  16.2466123  )
        43           Ti1 tau(  43) = (   3.3106529   0.0781036  15.8389635  )
        44           Ti1 tau(  44) = (   0.0259428   4.5566345  16.0434284  )
        45           O1  tau(  45) = (   3.2900926   2.9813045   4.7018136  )
        46           O1  tau(  46) = (   1.3039711   4.4726057   6.0039043  )
        47           O1  tau(  47) = (   5.2763189   4.4711207   6.0039473  )
        48           N1  tau(  48) = (   6.3514164   3.3085518  18.1544664  )
        49           C1  tau(  49) = (   0.8695967   3.1501053  19.1301808  )
        50           H1  tau(  50) = (   1.3785670   4.1052268  19.2416751  )
        51           H1  tau(  51) = (   0.5086663   2.8389580  20.1145987  )
        52           H1  tau(  52) = (   1.5779067   2.4119510  18.7640910  )
        53           H1  tau(  53) = (   5.7211048   4.0382881  18.4629098  )
        54           H1  tau(  54) = (   5.7931489   2.4557210  18.1309407  )
        55           O1  tau(  55) = (   3.2817172   0.3149129  18.3340421  )
        56           H1  tau(  56) = (   4.0380937   5.6864266  18.4726034  )
        57           H1  tau(  57) = (   2.4816286   5.7371253  18.4434621  )

     number of k points=    10  Fermi-Dirac smearing, width (Ry)=  0.0073
                       cart. coord. in units 2pi/alat
        k(    1) = (   0.0000000   0.0000000   0.0000000), wk =   0.1250000
        k(    2) = (   0.0000000   0.0419351   0.0000000), wk =   0.2500000
        k(    3) = (   0.0000000  -0.0838702   0.0000000), wk =   0.1250000
        k(    4) = (   0.0379955   0.0000049   0.0000000), wk =   0.2500000
        k(    5) = (   0.0379955   0.0419400   0.0000000), wk =   0.2500000
        k(    6) = (   0.0379955  -0.0838652   0.0000000), wk =   0.2500000
        k(    7) = (   0.0379955  -0.0419301   0.0000000), wk =   0.2500000
        k(    8) = (  -0.0759910  -0.0000099   0.0000000), wk =   0.1250000
        k(    9) = (  -0.0759910   0.0419252   0.0000000), wk =   0.2500000
        k(   10) = (  -0.0759910  -0.0838800   0.0000000), wk =   0.1250000

     Initial potential from superposition of free atoms

     starting charge  383.99913, renormalised to  400.00000

     negative rho (up, down):  1.554E-02 0.000E+00

     %%%%%%%%%%%%%%%%%%%%%%%%%%%%%%%%%%%%%%%%%%%%%%%%%%%%%%%%%%%%%%%%%%%%%%%%
     %                                                                      %
     % You are using vdW-DF, which was implemented by the Thonhauser group. %
     % Please cite the following two papers that made this development      %
     % possible and the two reviews that describe the various versions:     %
     %                                                                      %
     %   T. Thonhauser et al., PRL 115, 136402 (2015).                      %
     %   T. Thonhauser et al., PRB 76, 125112 (2007).                       %
     %   K. Berland et al., Rep. Prog. Phys. 78, 066501 (2015).             %
     %   D.C. Langreth et al., J. Phys.: Condens. Matter 21, 084203 (2009). %
     %                                                                      %
     %                                                                      %
     % If you are calculating the stress with vdW-DF, please also cite:     %
     %                                                                      %
     %   R. Sabatini et al., J. Phys.: Condens. Matter 24, 424209 (2012).   %
     %                                                                      %
     %%%%%%%%%%%%%%%%%%%%%%%%%%%%%%%%%%%%%%%%%%%%%%%%%%%%%%%%%%%%%%%%%%%%%%%%

     Adding external electric field

     Computed dipole along edir(3) :
        Dipole              -12.0850 Ry au,        -30.7169 Debye
        Dipole field         -0.0228 Ry au,

        Potential amp.        2.1141 Ry
        Total length         46.3494 bohr

     Starting wfcs are  303 atomic wfcs
  @ DRIVER MODE: Message from server: STATUS
  @ DRIVER MODE: Message from server: POSDATA
  @ DRIVER MODE: Reading and sharing cell
  @ DRIVER MODE: Reading and sharing positions
  @ DRIVER MODE: Received positions

     Self-consistent Calculation

     iteration #  1     ecut=    29.40 Ry     beta= 0.05
     Davidson diagonalization with overlap
     c_bands:  2 eigenvalues not converged
     c_bands:  2 eigenvalues not converged
     c_bands:  3 eigenvalues not converged
     c_bands:  4 eigenvalues not converged
     c_bands:  2 eigenvalues not converged
     c_bands:  1 eigenvalues not converged
     c_bands:  4 eigenvalues not converged
     c_bands:  4 eigenvalues not converged
     c_bands:  5 eigenvalues not converged
     ethr =  1.00E-05,  avg # of iterations = 22.0

[...]

     total energy              =   -2385.12836804 Ry
     estimated scf accuracy    <    6447.23734054 Ry

     iteration #  2     ecut=    29.40 Ry     beta= 0.05
     Davidson diagonalization with overlap
     ethr =  1.00E-02,  avg # of iterations = 26.1

[...]

     iteration # 77     ecut=    29.40 Ry     beta= 0.05
     Davidson diagonalization with overlap
     c_bands:  1 eigenvalues not converged
     ethr =  7.94E-11,  avg # of iterations = 12.9

[...]

     total energy              =   -2956.45486211 Ry
     estimated scf accuracy    <       0.00000008 Ry

     iteration # 78     ecut=    29.40 Ry     beta= 0.05
     Davidson diagonalization with overlap
     ethr =  1.97E-11,  avg # of iterations = 13.3

     negative rho (up, down):  1.589E-02 0.000E+00

     Adding external electric field

     Computed dipole along edir(3) :
        Dipole                1.4011 Ry au,          3.5611 Debye
        Dipole field          0.0026 Ry au,

        Potential amp.       -0.2451 Ry
        Total length         46.3494 bohr

     End of self-consistent calculation

          k = 0.0000 0.0000 0.0000 ( 18029 PWs)   bands (ev):

   -55.2173 -55.1800 -55.1747 -55.1485 -55.1405 -55.1201 -55.0986 -55.0636
   -55.0433 -55.0086 -55.0053 -54.9961 -54.9717 -54.9361 -54.2046 -54.1705
   -31.7806 -31.6907 -31.6671 -31.5873 -31.5322 -31.5270 -31.5184 -31.5108
   -31.4636 -31.4400 -31.4283 -31.4195 -31.4150 -31.4131 -31.3892 -31.3860
   -31.3637 -31.3626 -31.3551 -31.3398 -31.3272 -31.3193 -31.3039 -31.2946
   -31.2884 -31.2759 -31.2736 -31.2446 -31.2319 -31.2295 -31.2241 -31.2040
   -31.2012 -31.1935 -31.1894 -31.1724 -31.1565 -31.1421 -31.1345 -31.1333
   -31.1164 -31.1140 -30.6140 -30.5196 -30.4976 -30.4303 -30.3436 -30.2327
   -19.2344 -16.1585 -16.0262 -15.7773 -15.6355 -15.5412 -15.4210 -15.3056
   -15.2410 -15.1270 -15.0688 -14.9336 -14.9183 -14.9064 -14.8819 -14.8484
   -14.8097 -14.7619 -14.7607 -14.7371 -14.7165 -14.7078 -14.6660 -14.6587
   -14.6190 -14.5977 -14.5972 -14.4615 -14.3801 -14.3097 -14.1245 -12.7071
   -12.5896 -10.2820  -7.0286  -6.2797  -4.8307  -3.9444  -3.4039  -3.3440
    -3.2391  -3.1501  -3.1272  -3.1147  -2.9778  -2.8858  -2.7482  -2.6681
    -2.6358  -2.4995  -2.4261  -2.4148  -2.3822  -2.2670  -2.2147  -2.1881
    -2.1554  -2.0839  -2.0356  -2.0250  -2.0071  -1.9764  -1.9615  -1.9271
    -1.8734  -1.7884  -1.7571  -1.6544  -1.6166  -1.5867  -1.5769  -1.5522
    -1.5349  -1.5106  -1.5042  -1.4439  -1.4403  -1.4105  -1.3639  -1.2495
    -1.0867  -1.0237  -0.9519  -0.8594  -0.8114  -0.7980  -0.7271  -0.7172
    -0.7045  -0.6008  -0.5623  -0.5540  -0.4585  -0.4268  -0.3885  -0.3158
    -0.2450  -0.2164  -0.2034  -0.0880  -0.0233  -0.0049   0.0148   0.0219
     0.1117   0.1848   0.2323   0.2839   0.3248   0.3320   0.3983   0.4300
     0.4977   0.5496   0.5674   0.6549   0.6999   0.7124   0.7185   0.7518
     0.7638   0.8254   0.8618   0.8862   0.9728   1.0880   1.2401   1.3818
     1.3898   1.7228   1.7237   1.8182   2.0020   2.3945   2.4428   3.8756
     3.9484   4.0075   4.0211   4.0265   4.1117   4.3581   4.3802   4.3860
     4.3961   4.4247

[...]

          k = 0.0380-0.0419 0.0000 ( 17876 PWs)   bands (ev):

[...]

          k =-0.0760-0.0000 0.0000 ( 17886 PWs)   bands (ev):

[...]

          k =-0.0760-0.0839 0.0000 ( 17948 PWs)   bands (ev):

   -55.2036 -55.1934 -55.1576 -55.1574 -55.1468 -55.1179 -55.0844 -55.0778
   -55.0287 -55.0227 -54.9983 -54.9889 -54.9883 -54.9376 -54.1877 -54.1873
   -31.6093 -31.5894 -31.5806 -31.4822 -31.4821 -31.4783 -31.4707 -31.4489
   -31.4489 -31.4290 -31.4212 -31.4145 -31.4071 -31.3926 -31.3751 -31.3604
   -31.3576 -31.3553 -31.3533 -31.3511 -31.3438 -31.3412 -31.3240 -31.3182
   -31.2976 -31.2972 -31.2786 -31.2774 -31.2772 -31.2750 -31.2701 -31.2619
   -31.2543 -31.2416 -31.2358 -31.2214 -31.2182 -31.2004 -31.1737 -31.1694
   -31.1684 -31.1477 -30.5104 -30.5101 -30.4267 -30.4264 -30.3871 -30.3868
   -19.2336 -16.1126 -15.5995 -15.4857 -15.3598 -15.2500 -15.2292 -15.1827
   -15.1340 -15.0835 -15.0317 -15.0032 -14.9823 -14.9736 -14.9311 -14.9203
   -14.9012 -14.8356 -14.8201 -14.8091 -14.7852 -14.7378 -14.7295 -14.7218
   -14.7178 -14.6718 -14.6678 -14.6198 -14.5764 -14.5725 -14.3934 -12.6912
   -12.6910 -10.2837  -7.0552  -6.2123  -4.8310  -3.9607  -3.2416  -2.9846
    -2.7512  -2.6992  -2.6108  -2.4672  -2.4234  -2.3785  -2.3474  -2.2858
    -2.2352  -2.2203  -2.2084  -2.1321  -2.1052  -2.0971  -2.0642  -2.0525
    -2.0424  -2.0043  -1.9836  -1.9583  -1.9499  -1.9394  -1.9366  -1.9267
    -1.8688  -1.8561  -1.8456  -1.8418  -1.7831  -1.7717  -1.7571  -1.7427
    -1.5984  -1.5802  -1.4293  -1.4259  -1.4034  -1.3509  -1.3393  -1.2984
    -1.2554  -1.2461  -1.2194  -0.9752  -0.9662  -0.9629  -0.9305  -0.8977
    -0.8602  -0.7982  -0.7692  -0.6993  -0.6912  -0.5751  -0.5589  -0.4421
    -0.4352  -0.4226  -0.3359  -0.2908  -0.2414  -0.2024  -0.1863  -0.1758
    -0.1592  -0.1226  -0.1203  -0.0230   0.0132   0.0440   0.0574   0.0968
     0.2734   0.3022   0.3179   0.4620   0.4694   0.6287   0.6799   0.7082
     0.7985   0.8586   0.8933   0.9372   1.0730   1.0863   1.1037   1.1584
     1.1816   1.2309   1.2440   2.1743   2.1757   2.2628   2.2628   4.0208
     4.1301   4.1393   4.1971   4.3084   4.3175   4.3909   4.4220   4.4595
     4.4632   4.5272

     the Fermi energy is     3.9380 ev

!    total energy              =   -2956.45487456 Ry
     estimated scf accuracy    <       0.00000005 Ry
     smearing contrib. (-TS)   =      -0.03685021 Ry
     internal energy E=F+TS    =   -2956.41802435 Ry

     The total energy is F=E-TS. E is the sum of the following terms:
     one-electron contribution =  -23694.11074498 Ry
     hartree contribution      =   11942.54469966 Ry
     xc contribution           =    -490.61559730 Ry
     ewald contribution        =    9285.75991389 Ry
     electric field correction =       0.00370438 Ry

     convergence has been achieved in  78 iterations

     Forces acting on atoms (cartesian axes, Ry/au):

     atom    1 type  1   force =    -0.00000378   -0.00026804    0.09335863
     atom    2 type  1   force =    -0.00007337   -0.00035569   -0.17815133
     atom    3 type  2   force =     0.00004504   -0.00030542   -0.02035867
     atom    4 type  2   force =    -0.00003543   -0.00185098    0.05914107
     atom    5 type  2   force =    -0.01020837   -0.00060873    0.00750968
     atom    6 type  2   force =     0.01173502    0.00022003    0.00683895
     atom    7 type  1   force =    -0.00030682    0.00186709   -0.01239185
     atom    8 type  1   force =     0.00016408    0.00084481   -0.00451022
     atom    9 type  2   force =     0.00038525   -0.00015602   -0.00080708
     atom   10 type  2   force =    -0.00141661    0.00414611   -0.00107053
     atom   11 type  2   force =    -0.00086597   -0.00030647    0.00020092
     atom   12 type  2   force =     0.00087843   -0.00005983    0.00006169
     atom   13 type  1   force =    -0.00012679   -0.00021947    0.00010649
     atom   14 type  1   force =    -0.00004828   -0.00010338    0.00003385
     atom   15 type  2   force =    -0.00067386   -0.00004052   -0.00008324
     atom   16 type  2   force =    -0.00010427    0.00022114   -0.00040884
     atom   17 type  2   force =     0.00029130   -0.00071797   -0.00002033
     atom   18 type  2   force =     0.00081913   -0.00065218   -0.00029003
     atom   19 type  1   force =    -0.00087093    0.00008064    0.00145034
     atom   20 type  1   force =     0.00078755   -0.00058072    0.00049279
     atom   21 type  2   force =     0.00002005   -0.00011007    0.10400914
     atom   22 type  2   force =     0.00005811   -0.00078645    0.00037056
     atom   23 type  2   force =    -0.07041059   -0.00020889   -0.02692002
     atom   24 type  2   force =     0.07024668    0.00023199   -0.02697231
     atom   25 type  1   force =    -0.00004845   -0.00021393    0.09287755
     atom   26 type  1   force =    -0.00020256   -0.00053493   -0.17841854
     atom   27 type  2   force =     0.00007107   -0.00014030   -0.01934022
     atom   28 type  2   force =     0.00005450   -0.00157467    0.05814866
     atom   29 type  2   force =    -0.01090928   -0.00007151    0.00843083
     atom   30 type  2   force =     0.01231535    0.00011784    0.00771542
     atom   31 type  1   force =    -0.00029558    0.00668578   -0.01506019
     atom   32 type  1   force =     0.00011278   -0.00074041   -0.00471093
     atom   33 type  2   force =    -0.00022116    0.00035274   -0.00052482
     atom   34 type  2   force =    -0.00111138   -0.00023274   -0.00038230
     atom   35 type  2   force =    -0.00019289   -0.00011681   -0.00015123
     atom   36 type  2   force =     0.00027184   -0.00036114   -0.00024998
     atom   37 type  1   force =     0.00023550   -0.00018180    0.00021694
     atom   38 type  1   force =    -0.00011464    0.00068016    0.00063407
     atom   39 type  2   force =     0.00012310   -0.00111688    0.00096036
     atom   40 type  2   force =     0.00026559    0.00100256   -0.00061313
     atom   41 type  2   force =    -0.00010167    0.00016586   -0.00015051
     atom   42 type  2   force =     0.00120102    0.00020004   -0.00048909
     atom   43 type  1   force =    -0.00120124    0.00010723    0.00035826
     atom   44 type  1   force =     0.00059689   -0.00122087    0.00071262
     atom   45 type  2   force =     0.00001401   -0.00011413    0.10397188
     atom   46 type  2   force =    -0.07037913   -0.00012729   -0.02688662
     atom   47 type  2   force =     0.07023255    0.00028419   -0.02695462
     atom   48 type  3   force =     0.00366002   -0.00433286   -0.00320647
     atom   49 type  4   force =    -0.00075659    0.00068635    0.00015565
     atom   50 type  5   force =    -0.00014400   -0.00077311    0.00017665
     atom   51 type  5   force =    -0.00003633   -0.00054019   -0.00059351
     atom   52 type  5   force =    -0.00014345    0.00007603   -0.00056263
     atom   53 type  5   force =    -0.00234973    0.00371167    0.00221039
     atom   54 type  5   force =     0.00015199   -0.00009306   -0.00074917
     atom   55 type  2   force =     0.00033938   -0.00081729    0.00056578
     atom   56 type  5   force =    -0.00075886   -0.00015923    0.00021778
     atom   57 type  5   force =    -0.00096423   -0.00088826    0.00010145

     Total force =     0.366375     Total SCF correction =     0.000601
  @ DRIVER MODE: Message from server: STATUS
  @ DRIVER MODE: Message from server: GETFORCE
  @ DRIVER MODE: Returning v,forces,stress,ensemble

     Writing output data file ./calc.save/
  @ DRIVER MODE: Message from server: EXIT
  @ DRIVE MODE: Exiting

     General routines

     Parallel routines

   This run was terminated on:   3:32:38  23Sep2021

   JOB DONE.