     Program PWSCF v.6.7GPU starts on 16Sep2021 at  7:26:51

     R & G space division:  proc/nbgrp/npool/nimage =      10
     Reading input from /storage/home/hcoda1/3/ntian30/research/carbon/CxH_vib/H2O_calc/ads_slab/CH2NHH2O_a/out_0047/pw.inp
Warning: card &CELL ignored
Warning: card   CELL_DYNAMICS='IPI', ignored
Warning: card / ignored

     Current dimensions of program PWSCF are:
     Max number of different atomic species (ntypx) = 10
     Max number of k-points (npk) =  40000
     Max angular momentum in pseudopotentials (lmaxx) =  3
     Presently no symmetry can be used with electric field

     Message from routine cell_base_init:
     DEPRECATED: use true lattice parameter, not A to a.u. conversion factor

     IMPORTANT: XC functional enforced from input :
     Exchange-correlation= BEEF-VDW
                           (   1   4  43  14   2   0   0)
     Any further DFT definition will be discarded
     Please, verify this is what you really want

  @ DRIVER MODE: Connecting to
 qe_1139763_2852608.sched-torque.pace.gatech.edudfzrlwzf_scratch
  using UNIX socket
  @ DRIVER MODE: Message from server: STATUS
  @ DRIVER MODE: Message from server: INIT
  @ DRIVER MODE: Receiving replica           0          -1
  @ DRIVER MODE: Receiving encoded integer          25
  @ DRIVER MODE:  SCF:  T  FORCE:  T  STRESS:  F  VC:  F  ENSEMBLE:  F
  @ DRIVER MODE:  SCF:  T  FORCE:  T  STRESS:  F  VC:  F  ENSEMBLE:  F

     Using Slab Decomposition

     bravais-lattice index     =            0
     lattice parameter (alat)  =       1.8897  a.u.
     unit-cell volume          =    6658.9804 (a.u.)^3
     number of atoms/cell      =           55
     number of atomic types    =            5
     number of electrons       =       398.00
     number of Kohn-Sham states=          209
     kinetic-energy cutoff     =      29.3995  Ry
     charge density cutoff     =     293.9946  Ry
     scf convergence threshold =      7.3E-08
     mixing beta               =       0.0500
     number of iterations used =            8  plain     mixing
     Exchange-correlation= BEEF-VDW
                           (   1   4  43  14   2   0   0)

     celldm(1)=   1.889726  celldm(2)=   0.000000  celldm(3)=   0.000000
     celldm(4)=   0.000000  celldm(5)=   0.000000  celldm(6)=   0.000000

     crystal axes: (cart. coord. in units of alat)
               a(1) = (   6.579727   0.000000   0.000000 )
               a(2) = (  -0.000775   5.961596   0.000000 )
               a(3) = (   0.000000   0.000000  25.155947 )

     reciprocal axes: (cart. coord. in units 2 pi/alat)
               b(1) = (  0.151982  0.000020  0.000000 )
               b(2) = (  0.000000  0.167740  0.000000 )
               b(3) = (  0.000000  0.000000  0.039752 )

     PseudoPot. # 1 for Ti read from file:
     /storage/coda1/p-amedford6/0/shared/rich_project_chbe-medford/medford-share/data/pseudos_module/espresso/nninc/pbe/van/Ti.UPF
     MD5 check sum: 8e4df49b7f0d34bbd5052bf3f5ea0213
     Pseudo is Ultrasoft, Zval = 12.0
     Generated by new atomic code, or converted to UPF format
     Using radial grid of  851 points,  6 beta functions with:
                l(1) =   0
                l(2) =   0
                l(3) =   1
                l(4) =   1
                l(5) =   2
                l(6) =   2
     Q(r) pseudized with  8 coefficients,  rinner =    1.000   1.000   1.000
                                                       1.000   1.000

     PseudoPot. # 2 for O  read from file:
     /storage/coda1/p-amedford6/0/shared/rich_project_chbe-medford/medford-share/data/pseudos_module/espresso/nninc/pbe/van/O.UPF
     MD5 check sum: 78c19812648e8988a0fe644b0f25305e
     Pseudo is Ultrasoft, Zval =  6.0
     Generated by new atomic code, or converted to UPF format
     Using radial grid of  737 points,  4 beta functions with:
                l(1) =   0
                l(2) =   0
                l(3) =   1
                l(4) =   1
     Q(r) pseudized with  8 coefficients,  rinner =    0.800   0.800   0.800

     PseudoPot. # 3 for N  read from file:
     /storage/coda1/p-amedford6/0/shared/rich_project_chbe-medford/medford-share/data/pseudos_module/espresso/nninc/pbe/van/N.UPF
     MD5 check sum: 90d10febe142ad51ac9d5be1deb811c4
     Pseudo is Ultrasoft, Zval =  5.0
     Generated by new atomic code, or converted to UPF format
     Using radial grid of  729 points,  4 beta functions with:
                l(1) =   0
                l(2) =   0
                l(3) =   1
                l(4) =   1
     Q(r) pseudized with  8 coefficients,  rinner =    0.800   0.800   0.800

     PseudoPot. # 4 for C  read from file:
     /storage/coda1/p-amedford6/0/shared/rich_project_chbe-medford/medford-share/data/pseudos_module/espresso/nninc/pbe/van/C.UPF
     MD5 check sum: 1a69bf6b8db32088f5b2163dbdb77a27
     Pseudo is Ultrasoft, Zval =  4.0
     Generated by new atomic code, or converted to UPF format
     Using radial grid of  721 points,  4 beta functions with:
                l(1) =   0
                l(2) =   0
                l(3) =   1
                l(4) =   1
     Q(r) pseudized with  8 coefficients,  rinner =    0.800   0.800   0.800

     PseudoPot. # 5 for H  read from file:
     /storage/coda1/p-amedford6/0/shared/rich_project_chbe-medford/medford-share/data/pseudos_module/espresso/nninc/pbe/van/H.UPF
     MD5 check sum: b5ee9d7bfd3a09ee7748110bda690ff7
     Pseudo is Ultrasoft, Zval =  1.0
     Generated by new atomic code, or converted to UPF format
     Using radial grid of  615 points,  1 beta functions with:
                l(1) =   0
     Q(r) pseudized with  8 coefficients,  rinner =    0.800

     atomic species   valence    mass     pseudopotential
        Ti1           12.00    47.86700     Ti( 1.00)
        O1             6.00    15.99900     O ( 1.00)
        N1             5.00    14.00700     N ( 1.00)
        C1             4.00    12.01100     C ( 1.00)
        H1             1.00     1.00800     H ( 1.00)

     No symmetry found

   Cartesian axes

     site n.     atom                  positions (alat units)
         1           Ti1 tau(   1) = (   0.0004258   2.9801865   6.0000000  )
         2           Ti1 tau(   2) = (   3.2906075   1.4906267   6.0002472  )
         3           O1  tau(   3) = (   0.0006271   0.0005054   7.9858123  )
         4           O1  tau(   4) = (   3.2906025   0.0005020   7.3038282  )
         5           O1  tau(   5) = (   4.5942328   1.4918067   9.2879030  )
         6           O1  tau(   6) = (   1.9868534   1.4903216   9.2879459  )
         7           Ti1 tau(   7) = (   3.2907910   2.8959150   9.1758416  )
         8           Ti1 tau(   8) = (   0.0015273   1.4827037   9.2680791  )
         9           O1  tau(   9) = (   3.2898722   0.0008919  11.3582996  )
        10           O1  tau(  10) = (   0.0116148   5.9584955  10.6183126  )
        11           O1  tau(  11) = (   1.2941175   1.4997011  12.6415926  )
        12           O1  tau(  12) = (   5.2900041   1.4988670  12.6311679  )
        13           Ti1 tau(  13) = (   0.0286627   2.9677426  12.5549903  )
        14           Ti1 tau(  14) = (   3.3305619   1.4761135  12.5169476  )
        15           O1  tau(  15) = (   0.0011522   0.0488603  14.6479508  )
        16           O1  tau(  16) = (   3.3026717   0.0283160  13.9913086  )
        17           O1  tau(  17) = (   4.5493611   1.5432082  16.1208237  )
        18           O1  tau(  18) = (   2.0202358   1.5417912  16.1150647  )
        19           Ti1 tau(  19) = (   3.2887705   3.0075965  15.7001020  )
        20           Ti1 tau(  20) = (   0.0091052   1.4341126  16.0176487  )
        21           O1  tau(  21) = (   3.2904802   0.0005063   4.7018136  )
        22           O1  tau(  22) = (   6.5755782   5.8726442  17.1894482  )
        23           O1  tau(  23) = (   1.3043587   1.4918075   6.0039043  )
        24           O1  tau(  24) = (   5.2767064   1.4903225   6.0039473  )
        25           Ti1 tau(  25) = (   0.0000382   5.9609847   6.0000000  )
        26           Ti1 tau(  26) = (   3.2902200   4.4714249   6.0002472  )
        27           O1  tau(  27) = (   0.0002396   2.9813036   7.9858123  )
        28           O1  tau(  28) = (   3.2902150   2.9813002   7.3038282  )
        29           O1  tau(  29) = (   4.5938453   4.4726049   9.2879030  )
        30           O1  tau(  30) = (   1.9864658   4.4711199   9.2879459  )
        31           Ti1 tau(  31) = (   3.2891106   5.8743827   9.1763621  )
        32           Ti1 tau(  32) = (   0.0006254   4.4649316   9.2693709  )
        33           O1  tau(  33) = (   3.2934734   2.9861727  11.3537610  )
        34           O1  tau(  34) = (   0.0092240   2.9805883  10.6323155  )
        35           O1  tau(  35) = (   1.2909626   4.4766429  12.6619247  )
        36           O1  tau(  36) = (   5.2900193   4.4803912  12.6490267  )
        37           Ti1 tau(  37) = (   0.0281377   5.9553508  12.5047683  )
        38           Ti1 tau(  38) = (   3.3302429   4.4653876  12.5079491  )
        39           O1  tau(  39) = (   6.5693844   2.9599090  14.8264494  )
        40           O1  tau(  40) = (   3.2969629   2.9925989  13.9157470  )
        41           O1  tau(  41) = (   4.5484520   4.4472025  16.1223275  )
        42           O1  tau(  42) = (   2.0280084   4.4594140  16.0867804  )
        43           Ti1 tau(  43) = (   3.2969344   0.0408593  15.8189202  )
        44           Ti1 tau(  44) = (   0.0203989   4.6198729  15.8219907  )
        45           O1  tau(  45) = (   3.2900926   2.9813045   4.7018136  )
        46           O1  tau(  46) = (   1.3039711   4.4726057   6.0039043  )
        47           O1  tau(  47) = (   5.2763189   4.4711207   6.0039473  )
        48           N1  tau(  48) = (   6.4956655   2.7544209  17.8339637  )
        49           C1  tau(  49) = (   0.7364952   2.7663736  18.8366375  )
        50           H1  tau(  50) = (   0.4484493   3.1383336  19.8159577  )
        51           H1  tau(  51) = (   1.7396475   2.3816028  18.7013769  )
        52           H1  tau(  52) = (   5.5670006   3.0916272  18.0761613  )
        53           O1  tau(  53) = (   3.3072362   0.1002980  18.2711691  )
        54           H1  tau(  54) = (   4.1501014   5.6086691  18.4387546  )
        55           H1  tau(  55) = (   2.5909652   5.4478326  18.4968232  )

     number of k points=    10  Fermi-Dirac smearing, width (Ry)=  0.0073
                       cart. coord. in units 2pi/alat
        k(    1) = (   0.0000000   0.0000000   0.0000000), wk =   0.1250000
        k(    2) = (   0.0000000   0.0419351   0.0000000), wk =   0.2500000
        k(    3) = (   0.0000000  -0.0838702   0.0000000), wk =   0.1250000
        k(    4) = (   0.0379955   0.0000049   0.0000000), wk =   0.2500000
        k(    5) = (   0.0379955   0.0419400   0.0000000), wk =   0.2500000
        k(    6) = (   0.0379955  -0.0838652   0.0000000), wk =   0.2500000
        k(    7) = (   0.0379955  -0.0419301   0.0000000), wk =   0.2500000
        k(    8) = (  -0.0759910  -0.0000099   0.0000000), wk =   0.1250000
        k(    9) = (  -0.0759910   0.0419252   0.0000000), wk =   0.2500000
        k(   10) = (  -0.0759910  -0.0838800   0.0000000), wk =   0.1250000

     Initial potential from superposition of free atoms

     starting charge  381.99915, renormalised to  398.00000

     negative rho (up, down):  1.644E-02 0.000E+00

     %%%%%%%%%%%%%%%%%%%%%%%%%%%%%%%%%%%%%%%%%%%%%%%%%%%%%%%%%%%%%%%%%%%%%%%%
     %                                                                      %
     % You are using vdW-DF, which was implemented by the Thonhauser group. %
     % Please cite the following two papers that made this development      %
     % possible and the two reviews that describe the various versions:     %
     %                                                                      %
     %   T. Thonhauser et al., PRL 115, 136402 (2015).                      %
     %   T. Thonhauser et al., PRB 76, 125112 (2007).                       %
     %   K. Berland et al., Rep. Prog. Phys. 78, 066501 (2015).             %
     %   D.C. Langreth et al., J. Phys.: Condens. Matter 21, 084203 (2009). %
     %                                                                      %
     %                                                                      %
     % If you are calculating the stress with vdW-DF, please also cite:     %
     %                                                                      %
     %   R. Sabatini et al., J. Phys.: Condens. Matter 24, 424209 (2012).   %
     %                                                                      %
     %%%%%%%%%%%%%%%%%%%%%%%%%%%%%%%%%%%%%%%%%%%%%%%%%%%%%%%%%%%%%%%%%%%%%%%%

     Adding external electric field

     Computed dipole along edir(3) :
        Dipole              -10.3999 Ry au,        -26.4340 Debye
        Dipole field         -0.0196 Ry au,

        Potential amp.        1.8193 Ry
        Total length         46.3494 bohr

     Starting wfcs are  301 atomic wfcs
  @ DRIVER MODE: Message from server: STATUS
  @ DRIVER MODE: Message from server: POSDATA
  @ DRIVER MODE: Reading and sharing cell
  @ DRIVER MODE: Reading and sharing positions
  @ DRIVER MODE: Received positions

     Self-consistent Calculation

     iteration #  1     ecut=    29.40 Ry     beta= 0.05
     Davidson diagonalization with overlap
     c_bands:  3 eigenvalues not converged
     c_bands:  3 eigenvalues not converged
     c_bands:  1 eigenvalues not converged
     c_bands:  4 eigenvalues not converged
     c_bands:  4 eigenvalues not converged
     c_bands:  4 eigenvalues not converged
     c_bands:  2 eigenvalues not converged
     c_bands:  3 eigenvalues not converged
     c_bands:  2 eigenvalues not converged
     ethr =  1.00E-05,  avg # of iterations = 19.9

[...]

     total energy              =   -2485.31624460 Ry
     estimated scf accuracy    <    5245.65621113 Ry

     iteration #  2     ecut=    29.40 Ry     beta= 0.05
     Davidson diagonalization with overlap
     ethr =  1.00E-02,  avg # of iterations = 24.2

[...]

     iteration # 62     ecut=    29.40 Ry     beta= 0.05
     Davidson diagonalization with overlap
     c_bands:  1 eigenvalues not converged
     ethr =  2.53E-10,  avg # of iterations =  8.7

[...]

     total energy              =   -2953.94960872 Ry
     estimated scf accuracy    <       0.00000033 Ry

     iteration # 68     ecut=    29.40 Ry     beta= 0.05
     Davidson diagonalization with overlap
     ethr =  5.62E-11,  avg # of iterations =  8.4

     negative rho (up, down):  1.569E-02 0.000E+00

     Adding external electric field

     Computed dipole along edir(3) :
        Dipole                1.2801 Ry au,          3.2537 Debye
        Dipole field          0.0024 Ry au,

        Potential amp.       -0.2239 Ry
        Total length         46.3494 bohr

     End of self-consistent calculation

          k = 0.0000 0.0000 0.0000 ( 18029 PWs)   bands (ev):

   -55.3927 -55.3730 -55.3567 -55.3400 -55.3389 -55.2729 -55.2283 -55.2081
   -55.1982 -55.1892 -55.1725 -55.1657 -55.1232 -54.9953 -54.3830 -54.3489
   -31.9531 -31.8621 -31.7607 -31.7464 -31.7010 -31.6982 -31.6966 -31.6630
   -31.6569 -31.6235 -31.6176 -31.6065 -31.5868 -31.5697 -31.5692 -31.5348
   -31.5321 -31.5258 -31.5113 -31.5084 -31.4837 -31.4563 -31.4533 -31.4361
   -31.4301 -31.4071 -31.4060 -31.4028 -31.4011 -31.3945 -31.3750 -31.3684
   -31.3624 -31.3579 -31.3484 -31.3319 -31.3293 -31.3228 -31.3055 -31.2950
   -31.2220 -31.1090 -30.7914 -30.6996 -30.6774 -30.6080 -30.5213 -30.4103
   -19.1761 -16.2534 -16.1587 -15.9151 -15.7347 -15.6456 -15.5835 -15.3943
   -15.3531 -15.2620 -15.1792 -15.0876 -15.0341 -14.9896 -14.9798 -14.9587
   -14.9327 -14.9228 -14.8849 -14.8706 -14.8687 -14.8218 -14.8197 -14.7808
   -14.7719 -14.7280 -14.7069 -14.5972 -14.5412 -14.4870 -14.0604 -12.8853
   -12.7683  -9.0962  -6.9999  -5.9835  -4.4648  -3.5502  -3.3976  -3.3896
    -3.3029  -3.2965  -3.2273  -3.1182  -2.9278  -2.7749  -2.6889  -2.6453
    -2.5938  -2.5696  -2.5113  -2.4570  -2.3620  -2.2910  -2.2606  -2.2277
    -2.2101  -2.1910  -2.1674  -2.1445  -2.1036  -2.0793  -2.0428  -1.9404
    -1.8556  -1.8010  -1.7859  -1.7155  -1.6928  -1.6868  -1.6791  -1.6689
    -1.6650  -1.6567  -1.6037  -1.5811  -1.5384  -1.4107  -1.3405  -1.2353
    -1.1231  -1.0724  -1.0318  -1.0132  -0.9257  -0.9200  -0.8650  -0.7885
    -0.7559  -0.7149  -0.7024  -0.5750  -0.4930  -0.4816  -0.4311  -0.3572
    -0.2994  -0.2588  -0.2021  -0.1776  -0.1552  -0.1382   0.0012   0.0341
     0.0779   0.1058   0.1341   0.2094   0.2463   0.3083   0.3560   0.3631
     0.4112   0.4979   0.5113   0.5613   0.5656   0.6103   0.6290   0.7248
     0.7597   0.7684   0.8342   0.8677   1.0106   1.2269   1.2336   1.2814
     1.5546   1.6164   1.6397   1.8266   2.2138   2.2611   3.7008   3.7917
     3.8308   3.8493   3.8619   3.9366   4.0757   4.1914   4.1958   4.2255
     4.2388

[...]

          k = 0.0380-0.0419 0.0000 ( 17876 PWs)   bands (ev):

[...]

          k =-0.0760-0.0000 0.0000 ( 17886 PWs)   bands (ev):

[...]

          k =-0.0760-0.0839 0.0000 ( 17948 PWs)   bands (ev):

   -55.3765 -55.3727 -55.3560 -55.3557 -55.3380 -55.2649 -55.2363 -55.1921
   -55.1910 -55.1870 -55.1829 -55.1822 -55.1208 -54.9976 -54.3660 -54.3658
   -31.7629 -31.7519 -31.6774 -31.6772 -31.6604 -31.6495 -31.6486 -31.6483
   -31.6210 -31.6093 -31.5909 -31.5868 -31.5797 -31.5606 -31.5411 -31.5266
   -31.5251 -31.5223 -31.5177 -31.5129 -31.5072 -31.4945 -31.4756 -31.4751
   -31.4689 -31.4674 -31.4656 -31.4353 -31.4244 -31.4168 -31.4064 -31.4024
   -31.4017 -31.4014 -31.3898 -31.3844 -31.3623 -31.3606 -31.3404 -31.2910
   -31.2254 -31.1948 -30.6901 -30.6900 -30.6041 -30.6039 -30.5647 -30.5646
   -19.1753 -16.1960 -15.6520 -15.5929 -15.5222 -15.3674 -15.3613 -15.3364
   -15.2747 -15.1763 -15.1630 -15.1307 -15.1228 -15.0882 -15.0767 -15.0568
   -15.0356 -14.9624 -14.9542 -14.9496 -14.9269 -14.8955 -14.8808 -14.8719
   -14.8499 -14.8453 -14.7898 -14.7428 -14.7398 -14.5491 -14.3559 -12.8699
   -12.8698  -9.1014  -6.9981  -5.9820  -4.4467  -3.3235  -2.9273  -2.7969
    -2.7456  -2.5953  -2.5680  -2.5206  -2.4634  -2.4032  -2.3761  -2.3571
    -2.3095  -2.3034  -2.2555  -2.2419  -2.2212  -2.2202  -2.2110  -2.1646
    -2.1483  -2.1397  -2.1215  -2.1062  -2.0952  -2.0761  -2.0483  -2.0384
    -2.0047  -1.9739  -1.9602  -1.9380  -1.8839  -1.7688  -1.7394  -1.6951
    -1.5837  -1.5759  -1.5703  -1.5287  -1.4819  -1.4771  -1.4480  -1.4186
    -1.3503  -1.3222  -1.1309  -1.1185  -1.1053  -1.0398  -1.0129  -0.9155
    -0.8968  -0.8297  -0.8126  -0.7973  -0.7112  -0.6799  -0.5744  -0.5660
    -0.5496  -0.5150  -0.4078  -0.3604  -0.3523  -0.3476  -0.3267  -0.2437
    -0.2282  -0.2103  -0.1762  -0.1481  -0.1148  -0.1013  -0.0178   0.1522
     0.1618   0.2495   0.3493   0.4435   0.5645   0.6346   0.6441   0.6988
     0.7421   0.8234   0.8669   0.9051   0.9243   1.0354   1.0668   1.0838
     1.0903   1.1456   1.9989   2.0002   2.0810   2.0812   3.7817   3.9309
     4.0002   4.0174   4.0574   4.1831   4.2223   4.2744   4.2762   4.2808
     4.3680

     the Fermi energy is     3.7466 ev

!    total energy              =   -2953.94963313 Ry
     estimated scf accuracy    <       0.00000007 Ry
     smearing contrib. (-TS)   =      -0.03632856 Ry
     internal energy E=F+TS    =   -2953.91330457 Ry

     The total energy is F=E-TS. E is the sum of the following terms:
     one-electron contribution =  -24166.22568689 Ry
     hartree contribution      =   12176.48597122 Ry
     xc contribution           =    -488.89647782 Ry
     ewald contribution        =    9524.71979661 Ry
     electric field correction =       0.00309231 Ry

     convergence has been achieved in  68 iterations

     Forces acting on atoms (cartesian axes, Ry/au):

     atom    1 type  1   force =     0.00006148   -0.00021148    0.09434440
     atom    2 type  1   force =    -0.00029343   -0.00033243   -0.17715002
     atom    3 type  2   force =     0.00001605   -0.00013606   -0.02177140
     atom    4 type  2   force =    -0.00002176   -0.00175259    0.05661649
     atom    5 type  2   force =    -0.01065510   -0.00110596    0.00626614
     atom    6 type  2   force =     0.01215468   -0.00036038    0.00531303
     atom    7 type  1   force =    -0.00069319    0.00165024   -0.01075634
     atom    8 type  1   force =     0.00018836    0.00660459    0.00669488
     atom    9 type  2   force =     0.00025219   -0.00039778   -0.00051246
     atom   10 type  2   force =    -0.00109471    0.00064651   -0.01009721
     atom   11 type  2   force =    -0.00026477   -0.00016156   -0.00021313
     atom   12 type  2   force =     0.00038045   -0.00023547    0.00002182
     atom   13 type  1   force =     0.00018919   -0.00050922    0.00118821
     atom   14 type  1   force =    -0.00007683    0.00039129    0.00039319
     atom   15 type  2   force =     0.00009090    0.00015811    0.00122163
     atom   16 type  2   force =    -0.00018472   -0.00066817    0.00021676
     atom   17 type  2   force =    -0.00002915   -0.00001939   -0.00027540
     atom   18 type  2   force =    -0.00105904   -0.00000480    0.00051468
     atom   19 type  1   force =     0.00119820   -0.00050196   -0.00056671
     atom   20 type  1   force =    -0.00142011    0.00072844   -0.00061309
     atom   21 type  2   force =     0.00000542   -0.00004639    0.10367740
     atom   22 type  2   force =     0.00001521    0.00049989    0.00068095
     atom   23 type  2   force =    -0.07088056   -0.00013999   -0.02715481
     atom   24 type  2   force =     0.07072547    0.00030127   -0.02722213
     atom   25 type  1   force =     0.00000935   -0.00014155    0.09409879
     atom   26 type  1   force =    -0.00022538   -0.00035955   -0.17731159
     atom   27 type  2   force =     0.00005435   -0.00032053   -0.02069432
     atom   28 type  2   force =     0.00005111   -0.00136391    0.05586343
     atom   29 type  2   force =    -0.01088132    0.00029445    0.00604776
     atom   30 type  2   force =     0.01228411    0.00055366    0.00508587
     atom   31 type  1   force =    -0.00057167    0.00495307   -0.01401863
     atom   32 type  1   force =     0.00030857   -0.00743080    0.00636886
     atom   33 type  2   force =     0.00025190    0.00013165   -0.00018102
     atom   34 type  2   force =    -0.00066598    0.00182517   -0.00593398
     atom   35 type  2   force =    -0.00001866   -0.00024539    0.00003804
     atom   36 type  2   force =     0.00024843   -0.00032072    0.00019684
     atom   37 type  1   force =     0.00021651    0.00091319    0.00048987
     atom   38 type  1   force =    -0.00008570    0.00006247    0.00064640
     atom   39 type  2   force =     0.00035755    0.00029640    0.00009320
     atom   40 type  2   force =    -0.00012611   -0.00036866    0.00059146
     atom   41 type  2   force =    -0.00058336   -0.00030034   -0.00037211
     atom   42 type  2   force =    -0.00027072    0.00015877    0.00053061
     atom   43 type  1   force =     0.00097903   -0.00123905   -0.00081895
     atom   44 type  1   force =    -0.00114963    0.00034985   -0.00160538
     atom   45 type  2   force =     0.00000543   -0.00009639    0.10364739
     atom   46 type  2   force =    -0.07090486   -0.00010230   -0.02715675
     atom   47 type  2   force =     0.07074762    0.00032701   -0.02720774
     atom   48 type  3   force =     0.00130789   -0.00039060    0.00027866
     atom   49 type  4   force =     0.00003731   -0.00037001   -0.00004974
     atom   50 type  5   force =    -0.00005968   -0.00023471   -0.00020930
     atom   51 type  5   force =     0.00037136   -0.00032554   -0.00012564
     atom   52 type  5   force =    -0.00126830    0.00102466    0.00048950
     atom   53 type  2   force =     0.00413951    0.00186764   -0.00066429
     atom   54 type  5   force =    -0.00070676    0.00029452   -0.00004906
     atom   55 type  5   force =    -0.00245614   -0.00383916    0.00111488

     Total force =     0.365676     Total SCF correction =     0.000722
  @ DRIVER MODE: Message from server: STATUS
  @ DRIVER MODE: Message from server: GETFORCE
  @ DRIVER MODE: Returning v,forces,stress,ensemble

     Writing output data file ./calc.save/
  @ DRIVER MODE: Message from server: EXIT
  @ DRIVE MODE: Exiting

     General routines

     Parallel routines

   This run was terminated on:   7:45: 7  16Sep2021

   JOB DONE.