     Program PWSCF v.6.7GPU starts on 15Sep2021 at 16:28:28

     R & G space division:  proc/nbgrp/npool/nimage =      10
     Reading input from /storage/home/hcoda1/3/ntian30/research/carbon/CxH_vib/H2O_calc/ads_slab/CH3NHH2O_a/out_0003/pw.inp
Warning: card &CELL ignored
Warning: card   CELL_DYNAMICS='IPI', ignored
Warning: card / ignored

     Current dimensions of program PWSCF are:
     Max number of different atomic species (ntypx) = 10
     Max number of k-points (npk) =  40000
     Max angular momentum in pseudopotentials (lmaxx) =  3
     Presently no symmetry can be used with electric field

     Message from routine cell_base_init:
     DEPRECATED: use true lattice parameter, not A to a.u. conversion factor

     IMPORTANT: XC functional enforced from input :
     Exchange-correlation= BEEF-VDW
                           (   1   4  43  14   2   0   0)
     Any further DFT definition will be discarded
     Please, verify this is what you really want

  @ DRIVER MODE: Connecting to
 qe_1139763_2852633.sched-torque.pace.gatech.eduvbllejhf_scratch
  using UNIX socket
  @ DRIVER MODE: Message from server: STATUS
  @ DRIVER MODE: Message from server: INIT
  @ DRIVER MODE: Receiving replica           0          -1
  @ DRIVER MODE: Receiving encoded integer          25
  @ DRIVER MODE:  SCF:  T  FORCE:  T  STRESS:  F  VC:  F  ENSEMBLE:  F
  @ DRIVER MODE:  SCF:  T  FORCE:  T  STRESS:  F  VC:  F  ENSEMBLE:  F

     Using Slab Decomposition

     bravais-lattice index     =            0
     lattice parameter (alat)  =       1.8897  a.u.
     unit-cell volume          =    6658.9804 (a.u.)^3
     number of atoms/cell      =           56
     number of atomic types    =            5
     number of electrons       =       399.00
     number of Kohn-Sham states=          209
     kinetic-energy cutoff     =      29.3995  Ry
     charge density cutoff     =     293.9946  Ry
     scf convergence threshold =      7.3E-08
     mixing beta               =       0.0500
     number of iterations used =            8  plain     mixing
     Exchange-correlation= BEEF-VDW
                           (   1   4  43  14   2   0   0)

     celldm(1)=   1.889726  celldm(2)=   0.000000  celldm(3)=   0.000000
     celldm(4)=   0.000000  celldm(5)=   0.000000  celldm(6)=   0.000000

     crystal axes: (cart. coord. in units of alat)
               a(1) = (   6.579727   0.000000   0.000000 )
               a(2) = (  -0.000775   5.961596   0.000000 )
               a(3) = (   0.000000   0.000000  25.155947 )

     reciprocal axes: (cart. coord. in units 2 pi/alat)
               b(1) = (  0.151982  0.000020  0.000000 )
               b(2) = (  0.000000  0.167740  0.000000 )
               b(3) = (  0.000000  0.000000  0.039752 )

     PseudoPot. # 1 for Ti read from file:
     /storage/coda1/p-amedford6/0/shared/rich_project_chbe-medford/medford-share/data/pseudos_module/espresso/nninc/pbe/van/Ti.UPF
     MD5 check sum: 8e4df49b7f0d34bbd5052bf3f5ea0213
     Pseudo is Ultrasoft, Zval = 12.0
     Generated by new atomic code, or converted to UPF format
     Using radial grid of  851 points,  6 beta functions with:
                l(1) =   0
                l(2) =   0
                l(3) =   1
                l(4) =   1
                l(5) =   2
                l(6) =   2
     Q(r) pseudized with  8 coefficients,  rinner =    1.000   1.000   1.000
                                                       1.000   1.000

     PseudoPot. # 2 for O  read from file:
     /storage/coda1/p-amedford6/0/shared/rich_project_chbe-medford/medford-share/data/pseudos_module/espresso/nninc/pbe/van/O.UPF
     MD5 check sum: 78c19812648e8988a0fe644b0f25305e
     Pseudo is Ultrasoft, Zval =  6.0
     Generated by new atomic code, or converted to UPF format
     Using radial grid of  737 points,  4 beta functions with:
                l(1) =   0
                l(2) =   0
                l(3) =   1
                l(4) =   1
     Q(r) pseudized with  8 coefficients,  rinner =    0.800   0.800   0.800

     PseudoPot. # 3 for H  read from file:
     /storage/coda1/p-amedford6/0/shared/rich_project_chbe-medford/medford-share/data/pseudos_module/espresso/nninc/pbe/van/H.UPF
     MD5 check sum: b5ee9d7bfd3a09ee7748110bda690ff7
     Pseudo is Ultrasoft, Zval =  1.0
     Generated by new atomic code, or converted to UPF format
     Using radial grid of  615 points,  1 beta functions with:
                l(1) =   0
     Q(r) pseudized with  8 coefficients,  rinner =    0.800

     PseudoPot. # 4 for N  read from file:
     /storage/coda1/p-amedford6/0/shared/rich_project_chbe-medford/medford-share/data/pseudos_module/espresso/nninc/pbe/van/N.UPF
     MD5 check sum: 90d10febe142ad51ac9d5be1deb811c4
     Pseudo is Ultrasoft, Zval =  5.0
     Generated by new atomic code, or converted to UPF format
     Using radial grid of  729 points,  4 beta functions with:
                l(1) =   0
                l(2) =   0
                l(3) =   1
                l(4) =   1
     Q(r) pseudized with  8 coefficients,  rinner =    0.800   0.800   0.800

     PseudoPot. # 5 for C  read from file:
     /storage/coda1/p-amedford6/0/shared/rich_project_chbe-medford/medford-share/data/pseudos_module/espresso/nninc/pbe/van/C.UPF
     MD5 check sum: 1a69bf6b8db32088f5b2163dbdb77a27
     Pseudo is Ultrasoft, Zval =  4.0
     Generated by new atomic code, or converted to UPF format
     Using radial grid of  721 points,  4 beta functions with:
                l(1) =   0
                l(2) =   0
                l(3) =   1
                l(4) =   1
     Q(r) pseudized with  8 coefficients,  rinner =    0.800   0.800   0.800

     atomic species   valence    mass     pseudopotential
        Ti1           12.00    47.86700     Ti( 1.00)
        O1             6.00    15.99900     O ( 1.00)
        H1             1.00     1.00800     H ( 1.00)
        N1             5.00    14.00700     N ( 1.00)
        C1             4.00    12.01100     C ( 1.00)

     No symmetry found

   Cartesian axes

     site n.     atom                  positions (alat units)
         1           Ti1 tau(   1) = (   0.0004258   2.9801865   6.0000000  )
         2           Ti1 tau(   2) = (   3.2906075   1.4906267   6.0002472  )
         3           O1  tau(   3) = (   0.0006271   0.0005054   7.9858123  )
         4           O1  tau(   4) = (   3.2906025   0.0005020   7.3038282  )
         5           O1  tau(   5) = (   4.5942328   1.4918067   9.2879030  )
         6           O1  tau(   6) = (   1.9868534   1.4903216   9.2879459  )
         7           Ti1 tau(   7) = (   3.2907910   2.8959150   9.1758416  )
         8           Ti1 tau(   8) = (   0.0015273   1.4827037   9.2680791  )
         9           O1  tau(   9) = (   3.2896571   0.0076959  11.3233140  )
        10           O1  tau(  10) = (   0.0116148   5.9584955  10.6183126  )
        11           O1  tau(  11) = (   1.3168077   1.5009220  12.6157425  )
        12           O1  tau(  12) = (   5.2956243   1.4929856  12.6075824  )
        13           Ti1 tau(  13) = (   6.5239244   2.9540340  12.6210794  )
        14           Ti1 tau(  14) = (   3.2085880   1.4976218  12.4699624  )
        15           O1  tau(  15) = (   6.5712616   0.0419518  14.6436513  )
        16           O1  tau(  16) = (   3.3111435   0.0202601  13.9161875  )
        17           O1  tau(  17) = (   4.5291760   1.5523016  16.0784362  )
        18           O1  tau(  18) = (   2.0445308   1.5488630  16.0432715  )
        19           Ti1 tau(  19) = (   3.3059752   3.0257308  15.6838679  )
        20           Ti1 tau(  20) = (   0.0592185   1.5662548  15.8694889  )
        21           O1  tau(  21) = (   3.2904802   0.0005063   4.7018136  )
        22           O1  tau(  22) = (   0.0264932   0.0561689  17.2024660  )
        23           O1  tau(  23) = (   1.3043587   1.4918075   6.0039043  )
        24           O1  tau(  24) = (   5.2767064   1.4903225   6.0039473  )
        25           Ti1 tau(  25) = (   0.0000382   5.9609847   6.0000000  )
        26           Ti1 tau(  26) = (   3.2902200   4.4714249   6.0002472  )
        27           O1  tau(  27) = (   0.0002396   2.9813036   7.9858123  )
        28           O1  tau(  28) = (   3.2902150   2.9813002   7.3038282  )
        29           O1  tau(  29) = (   4.5938453   4.4726049   9.2879030  )
        30           O1  tau(  30) = (   1.9864658   4.4711199   9.2879459  )
        31           Ti1 tau(  31) = (   3.2891106   5.8743827   9.1763621  )
        32           Ti1 tau(  32) = (   0.0006254   4.4649316   9.2693709  )
        33           O1  tau(  33) = (   3.2898653   2.9926188  11.3210358  )
        34           O1  tau(  34) = (   0.0092240   2.9805883  10.6323155  )
        35           O1  tau(  35) = (   1.3106253   4.4883450  12.6271249  )
        36           O1  tau(  36) = (   5.2968722   4.4793810  12.6200386  )
        37           Ti1 tau(  37) = (   6.5212985   5.9329073  12.5685303  )
        38           Ti1 tau(  38) = (   3.2059443   4.4781599  12.4721232  )
        39           O1  tau(  39) = (   6.5764971   2.9600267  14.6431433  )
        40           O1  tau(  40) = (   3.3056941   3.0038382  13.8936370  )
        41           O1  tau(  41) = (   4.5394310   4.5052612  16.0827012  )
        42           O1  tau(  42) = (   2.0570581   4.5113261  16.0718816  )
        43           Ti1 tau(  43) = (   3.3383738   0.0382055  15.7109988  )
        44           Ti1 tau(  44) = (   0.0469139   4.6840235  16.0886640  )
        45           O1  tau(  45) = (   3.2900926   2.9813045   4.7018136  )
        46           O1  tau(  46) = (   1.3039711   4.4726057   6.0039043  )
        47           O1  tau(  47) = (   5.2763189   4.4711207   6.0039473  )
        48           H1  tau(  48) = (   5.6101632   2.9804038  17.7880820  )
        49           N1  tau(  49) = (   6.5649722   3.0046358  17.4438072  )
        50           C1  tau(  50) = (   0.8874553   2.9889031  18.6120612  )
        51           H1  tau(  51) = (   1.3591778   3.9628686  18.7739097  )
        52           H1  tau(  52) = (   0.3310755   2.7322232  19.5165709  )
        53           H1  tau(  53) = (   1.6717793   2.2402645  18.4914768  )
        54           O1  tau(  54) = (   3.2567199   5.9268012  21.6217354  )
        55           H1  tau(  55) = (   4.0245811   5.9269051  22.2091127  )
        56           H1  tau(  56) = (   2.4887544   5.9269923  22.2092946  )

     number of k points=    10  Fermi-Dirac smearing, width (Ry)=  0.0073
                       cart. coord. in units 2pi/alat
        k(    1) = (   0.0000000   0.0000000   0.0000000), wk =   0.1250000
        k(    2) = (   0.0000000   0.0419351   0.0000000), wk =   0.2500000
        k(    3) = (   0.0000000  -0.0838702   0.0000000), wk =   0.1250000
        k(    4) = (   0.0379955   0.0000049   0.0000000), wk =   0.2500000
        k(    5) = (   0.0379955   0.0419400   0.0000000), wk =   0.2500000
        k(    6) = (   0.0379955  -0.0838652   0.0000000), wk =   0.2500000
        k(    7) = (   0.0379955  -0.0419301   0.0000000), wk =   0.2500000
        k(    8) = (  -0.0759910  -0.0000099   0.0000000), wk =   0.1250000
        k(    9) = (  -0.0759910   0.0419252   0.0000000), wk =   0.2500000
        k(   10) = (  -0.0759910  -0.0838800   0.0000000), wk =   0.1250000

     Initial potential from superposition of free atoms

     starting charge  382.99914, renormalised to  399.00000

     negative rho (up, down):  9.625E-03 0.000E+00

     %%%%%%%%%%%%%%%%%%%%%%%%%%%%%%%%%%%%%%%%%%%%%%%%%%%%%%%%%%%%%%%%%%%%%%%%
     %                                                                      %
     % You are using vdW-DF, which was implemented by the Thonhauser group. %
     % Please cite the following two papers that made this development      %
     % possible and the two reviews that describe the various versions:     %
     %                                                                      %
     %   T. Thonhauser et al., PRL 115, 136402 (2015).                      %
     %   T. Thonhauser et al., PRB 76, 125112 (2007).                       %
     %   K. Berland et al., Rep. Prog. Phys. 78, 066501 (2015).             %
     %   D.C. Langreth et al., J. Phys.: Condens. Matter 21, 084203 (2009). %
     %                                                                      %
     %                                                                      %
     % If you are calculating the stress with vdW-DF, please also cite:     %
     %                                                                      %
     %   R. Sabatini et al., J. Phys.: Condens. Matter 24, 424209 (2012).   %
     %                                                                      %
     %%%%%%%%%%%%%%%%%%%%%%%%%%%%%%%%%%%%%%%%%%%%%%%%%%%%%%%%%%%%%%%%%%%%%%%%

     Adding external electric field

     Computed dipole along edir(3) :
        Dipole              -12.5493 Ry au,        -31.8972 Debye
        Dipole field         -0.0237 Ry au,

        Potential amp.        2.1953 Ry
        Total length         46.3494 bohr

     Starting wfcs are  302 atomic wfcs
  @ DRIVER MODE: Message from server: STATUS
  @ DRIVER MODE: Message from server: POSDATA
  @ DRIVER MODE: Reading and sharing cell
  @ DRIVER MODE: Reading and sharing positions
  @ DRIVER MODE: Received positions

     Self-consistent Calculation

     iteration #  1     ecut=    29.40 Ry     beta= 0.05
     Davidson diagonalization with overlap
     c_bands:  2 eigenvalues not converged
     c_bands:  2 eigenvalues not converged
     c_bands:  4 eigenvalues not converged
     c_bands:  3 eigenvalues not converged
     c_bands:  3 eigenvalues not converged
     c_bands:  3 eigenvalues not converged
     c_bands:  5 eigenvalues not converged
     c_bands:  4 eigenvalues not converged
     c_bands:  5 eigenvalues not converged
     ethr =  1.00E-05,  avg # of iterations = 22.0

[...]

     total energy              =   -2445.25866748 Ry
     estimated scf accuracy    <    5721.85129045 Ry

     iteration #  2     ecut=    29.40 Ry     beta= 0.05
     Davidson diagonalization with overlap
     ethr =  1.00E-02,  avg # of iterations = 22.2

[...]

     iteration # 57     ecut=    29.40 Ry     beta= 0.05
     Davidson diagonalization with overlap
     c_bands:  1 eigenvalues not converged
     ethr =  4.79E-08,  avg # of iterations = 11.4

[...]

     total energy              =   -2955.21565879 Ry
     estimated scf accuracy    <       0.00000009 Ry

     iteration # 72     ecut=    29.40 Ry     beta= 0.05
     Davidson diagonalization with overlap
     ethr =  2.17E-11,  avg # of iterations = 12.6

     negative rho (up, down):  1.110E-02 0.000E+00

     Adding external electric field

     Computed dipole along edir(3) :
        Dipole                1.3272 Ry au,          3.3735 Debye
        Dipole field          0.0025 Ry au,

        Potential amp.       -0.2322 Ry
        Total length         46.3494 bohr

     End of self-consistent calculation

          k = 0.0000 0.0000 0.0000 ( 18029 PWs)   bands (ev):

   -55.4964 -55.4875 -55.4624 -55.4515 -55.4069 -55.3378 -55.3346 -55.3005
   -55.2999 -55.2666 -55.2585 -55.2248 -55.0713 -54.7896 -54.4680 -54.4340
   -32.0458 -31.9778 -31.8515 -31.8362 -31.8157 -31.8000 -31.7896 -31.7496
   -31.7377 -31.7376 -31.7108 -31.7031 -31.6699 -31.6486 -31.6399 -31.6370
   -31.6297 -31.5998 -31.5778 -31.5536 -31.5458 -31.5413 -31.5256 -31.5044
   -31.4949 -31.4901 -31.4866 -31.4784 -31.4617 -31.4593 -31.4539 -31.4498
   -31.4360 -31.4308 -31.4119 -31.4075 -31.3712 -31.3354 -31.2409 -31.0635
   -31.0573 -30.9880 -30.8748 -30.7872 -30.7648 -30.6916 -30.6051 -30.4941
   -18.5796 -16.2544 -15.9726 -15.7928 -15.6501 -15.6178 -15.5298 -15.3318
   -15.2063 -15.1910 -15.0867 -15.0546 -15.0303 -15.0235 -14.9949 -14.9912
   -14.9360 -14.9286 -14.9198 -14.9070 -14.8478 -14.8238 -14.7835 -14.6927
   -14.6683 -14.6530 -14.6257 -14.5429 -14.5373 -14.0948 -13.6307 -12.9706
   -12.8543  -8.4740  -6.3829  -3.9148  -3.6248  -3.4509  -3.4126  -3.3983
    -3.3476  -3.0972  -3.0797  -2.8451  -2.7128  -2.6953  -2.6802  -2.6670
    -2.6499  -2.6311  -2.4137  -2.3942  -2.3267  -2.3107  -2.2886  -2.2804
    -2.2742  -2.2646  -2.2608  -2.2163  -2.1610  -2.0477  -2.0297  -1.9232
    -1.8793  -1.8538  -1.8055  -1.7610  -1.7550  -1.7444  -1.7248  -1.7130
    -1.6909  -1.6732  -1.5380  -1.4753  -1.3429  -1.2969  -1.2894  -1.0955
    -1.0569  -0.9653  -0.9386  -0.9219  -0.9139  -0.8819  -0.7999  -0.7082
    -0.6544  -0.6425  -0.5885  -0.5095  -0.4957  -0.3975  -0.3867  -0.3811
    -0.3275  -0.2646  -0.2549  -0.2459  -0.2007  -0.1331  -0.0570   0.0186
     0.0707   0.0925   0.1186   0.1977   0.2269   0.3220   0.3426   0.3872
     0.3947   0.4410   0.4828   0.4916   0.4973   0.5131   0.5324   0.6802
     0.7883   0.8440   0.8764   0.8876   1.0451   1.0807   1.1686   1.2557
     1.4812   1.5538   1.6486   1.7470   1.8038   2.1246   2.1699   3.6470
     3.7261   3.7800   3.7890   3.8845   3.8921   4.0966   4.1058   4.1168
     4.1889

[...]

          k = 0.0380-0.0419 0.0000 ( 17876 PWs)   bands (ev):

[...]

          k =-0.0760-0.0000 0.0000 ( 17886 PWs)   bands (ev):

[...]

          k =-0.0760-0.0839 0.0000 ( 17948 PWs)   bands (ev):

   -55.4797 -55.4790 -55.4696 -55.4692 -55.4023 -55.3423 -55.3194 -55.3150
   -55.2842 -55.2824 -55.2420 -55.2414 -55.0703 -54.7904 -54.4510 -54.4508
   -31.8501 -31.8483 -31.7934 -31.7929 -31.7834 -31.7753 -31.7745 -31.7589
   -31.6998 -31.6974 -31.6908 -31.6870 -31.6661 -31.6334 -31.6165 -31.6132
   -31.6053 -31.6009 -31.5992 -31.5984 -31.5954 -31.5824 -31.5801 -31.5479
   -31.5378 -31.5364 -31.5117 -31.4974 -31.4805 -31.4801 -31.4747 -31.4743
   -31.4574 -31.4572 -31.4567 -31.4531 -31.4037 -31.3381 -31.2361 -31.1264
   -31.0597 -31.0129 -30.7775 -30.7774 -30.6877 -30.6875 -30.6484 -30.6484
   -18.5794 -15.7057 -15.6734 -15.4350 -15.4290 -15.4192 -15.4045 -15.2628
   -15.2083 -15.1996 -15.1927 -15.1671 -15.1452 -15.0936 -15.0662 -15.0283
   -15.0227 -15.0173 -15.0143 -14.9522 -14.9463 -14.9252 -14.9178 -14.8038
   -14.8010 -14.7998 -14.7281 -14.6588 -14.5233 -14.2634 -13.6521 -12.9563
   -12.9560  -8.4777  -6.3844  -3.9261  -2.9992  -2.9617  -2.8147  -2.7180
    -2.6758  -2.6619  -2.6446  -2.5665  -2.4111  -2.4058  -2.3900  -2.3730
    -2.3584  -2.3212  -2.3147  -2.3023  -2.2897  -2.2823  -2.2642  -2.2282
    -2.1895  -2.1616  -2.1539  -2.1444  -2.1199  -2.1077  -2.0820  -2.0770
    -2.0424  -2.0341  -2.0177  -1.9940  -1.7367  -1.7134  -1.6950  -1.6245
    -1.6173  -1.5851  -1.5768  -1.5573  -1.5441  -1.4918  -1.3926  -1.2261
    -1.1926  -1.1858  -1.1658  -1.1006  -1.0800  -0.9300  -0.9028  -0.8837
    -0.8464  -0.7970  -0.7646  -0.7256  -0.6900  -0.6539  -0.5918  -0.5840
    -0.5039  -0.4553  -0.4544  -0.4290  -0.4164  -0.3579  -0.2791  -0.2604
    -0.2495  -0.2077  -0.1945  -0.1134  -0.0908   0.0071   0.0214   0.0871
     0.1215   0.1907   0.3847   0.4892   0.5484   0.5736   0.6270   0.7223
     0.7760   0.7907   0.8244   0.8297   0.8906   0.9319   1.0465   1.0534
     1.1210   1.2232   1.7493   1.9182   1.9191   1.9896   1.9899   3.9081
     3.9146   3.9656   3.9943   4.1469   4.1516   4.1741   4.1750   4.2948
     4.3135

     the Fermi energy is     3.6399 ev

!    total energy              =   -2955.21568693 Ry
     estimated scf accuracy    <       0.00000003 Ry
     smearing contrib. (-TS)   =      -0.02205343 Ry
     internal energy E=F+TS    =   -2955.19363350 Ry

     The total energy is F=E-TS. E is the sum of the following terms:
     one-electron contribution =  -23379.94136415 Ry
     hartree contribution      =   11781.86905741 Ry
     xc contribution           =    -489.67904655 Ry
     ewald contribution        =    9132.55439553 Ry
     electric field correction =       0.00332426 Ry

     convergence has been achieved in  72 iterations

     Forces acting on atoms (cartesian axes, Ry/au):

     atom    1 type  1   force =     0.00011715   -0.00019565    0.09690280
     atom    2 type  1   force =     0.00004120   -0.00045909   -0.17494687
     atom    3 type  2   force =     0.00013217    0.00001457   -0.02539509
     atom    4 type  2   force =    -0.00002841   -0.00126626    0.05222184
     atom    5 type  2   force =    -0.01214628    0.00001130    0.00288943
     atom    6 type  2   force =     0.01359799    0.00055469    0.00226001
     atom    7 type  1   force =     0.00059779    0.00031532   -0.01254195
     atom    8 type  1   force =     0.00044525    0.00706755    0.03085223
     atom    9 type  2   force =     0.00032280    0.00016088    0.00044926
     atom   10 type  2   force =    -0.00271501    0.00207434   -0.01690246
     atom   11 type  2   force =     0.00018165   -0.00035695    0.00013105
     atom   12 type  2   force =     0.00005921   -0.00035201    0.00022745
     atom   13 type  1   force =    -0.00019818    0.00036876   -0.00002699
     atom   14 type  1   force =    -0.00012682    0.00033135   -0.00036982
     atom   15 type  2   force =    -0.00003533   -0.00036042   -0.00003908
     atom   16 type  2   force =     0.00014574    0.00038648    0.00129678
     atom   17 type  2   force =    -0.00021162   -0.00034674    0.00036303
     atom   18 type  2   force =     0.00038376   -0.00034475    0.00002837
     atom   19 type  1   force =     0.00021708   -0.00029145    0.00040574
     atom   20 type  1   force =    -0.00028561    0.00017790    0.00004777
     atom   21 type  2   force =     0.00005903   -0.00002277    0.10303746
     atom   22 type  2   force =     0.00017863   -0.00069826    0.00027939
     atom   23 type  2   force =    -0.07166588   -0.00015601   -0.02782081
     atom   24 type  2   force =     0.07156733    0.00034333   -0.02787929
     atom   25 type  1   force =     0.00009035   -0.00017278    0.09668891
     atom   26 type  1   force =     0.00009229   -0.00025379   -0.17505554
     atom   27 type  2   force =     0.00012002   -0.00010955   -0.02445998
     atom   28 type  2   force =     0.00004120   -0.00101526    0.05205693
     atom   29 type  2   force =    -0.01233932    0.00066907    0.00265281
     atom   30 type  2   force =     0.01366144    0.00105699    0.00203472
     atom   31 type  1   force =     0.00049218    0.00306733   -0.01334469
     atom   32 type  1   force =     0.00031021   -0.00928134    0.03128785
     atom   33 type  2   force =    -0.00012811    0.00015974    0.00078496
     atom   34 type  2   force =    -0.00202529    0.00179310   -0.02551922
     atom   35 type  2   force =     0.00027406    0.00018368    0.00035342
     atom   36 type  2   force =     0.00021354    0.00009710    0.00034213
     atom   37 type  1   force =    -0.00027691   -0.00062941    0.00015136
     atom   38 type  1   force =    -0.00009069    0.00002813   -0.00022685
     atom   39 type  2   force =     0.00007106   -0.00080570    0.00032540
     atom   40 type  2   force =     0.00024744    0.00002308   -0.00008440
     atom   41 type  2   force =    -0.00047066    0.00012503   -0.00012948
     atom   42 type  2   force =     0.00033763   -0.00013580   -0.00029594
     atom   43 type  1   force =    -0.00032454    0.00041277   -0.00073627
     atom   44 type  1   force =    -0.00064732   -0.00074197    0.00144571
     atom   45 type  2   force =     0.00004095   -0.00004682    0.10308831
     atom   46 type  2   force =    -0.07166126   -0.00006145   -0.02782116
     atom   47 type  2   force =     0.07158443    0.00035787   -0.02788653
     atom   48 type  3   force =     0.00058889    0.00009929   -0.00005571
     atom   49 type  4   force =    -0.00046041   -0.00084159   -0.00008184
     atom   50 type  5   force =    -0.00019590   -0.00010297    0.00090994
     atom   51 type  3   force =    -0.00054367   -0.00040105    0.00037159
     atom   52 type  3   force =     0.00047364   -0.00062252   -0.00072824
     atom   53 type  3   force =     0.00039173    0.00025268    0.00003665
     atom   54 type  2   force =    -0.00066626   -0.00006119   -0.00033906
     atom   55 type  3   force =    -0.00058467   -0.00002098   -0.00046413
     atom   56 type  3   force =     0.00075031    0.00002224   -0.00077190

     Total force =     0.368269     Total SCF correction =     0.000460
  @ DRIVER MODE: Message from server: STATUS
  @ DRIVER MODE: Message from server: GETFORCE
  @ DRIVER MODE: Returning v,forces,stress,ensemble

     Writing output data file ./calc.save/
  @ DRIVER MODE: Message from server: EXIT
  @ DRIVE MODE: Exiting

     General routines

     Parallel routines

   This run was terminated on:  16:48:32  15Sep2021

   JOB DONE.