     Program PWSCF v.6.7GPU starts on 29Sep2021 at 23:39: 5

     R & G space division:  proc/nbgrp/npool/nimage =       8
     Reading input from /storage/home/hcoda1/3/ntian30/research/carbon/CxH_vib/pristine/ads_slab/CH2N2_c/out_0022/pw.inp
Warning: card &CELL ignored
Warning: card   CELL_DYNAMICS='IPI', ignored
Warning: card / ignored

     Current dimensions of program PWSCF are:
     Max number of different atomic species (ntypx) = 10
     Max number of k-points (npk) =  40000
     Max angular momentum in pseudopotentials (lmaxx) =  3
     Presently no symmetry can be used with electric field

     Message from routine cell_base_init:
     DEPRECATED: use true lattice parameter, not A to a.u. conversion factor

     IMPORTANT: XC functional enforced from input :
     Exchange-correlation= BEEF-VDW
                           (   1   4  43  14   2   0   0)
     Any further DFT definition will be discarded
     Please, verify this is what you really want

  @ DRIVER MODE: Connecting to
 qe_1139763_3025227.sched-torque.pace.gatech.edu8w0acvy1_scratch
  using UNIX socket
  @ DRIVER MODE: Message from server: STATUS
  @ DRIVER MODE: Message from server: INIT
  @ DRIVER MODE: Receiving replica           0          -1
  @ DRIVER MODE: Receiving encoded integer          25
  @ DRIVER MODE:  SCF:  T  FORCE:  T  STRESS:  F  VC:  F  ENSEMBLE:  F
  @ DRIVER MODE:  SCF:  T  FORCE:  T  STRESS:  F  VC:  F  ENSEMBLE:  F

     Using Slab Decomposition

     bravais-lattice index     =            0
     lattice parameter (alat)  =       1.8897  a.u.
     unit-cell volume          =    6658.9804 (a.u.)^3
     number of atoms/cell      =           53
     number of atomic types    =            5
     number of electrons       =       400.00
     number of Kohn-Sham states=          210
     kinetic-energy cutoff     =      29.3995  Ry
     charge density cutoff     =     293.9946  Ry
     scf convergence threshold =      7.3E-08
     mixing beta               =       0.0500
     number of iterations used =            8  plain     mixing
     Exchange-correlation= BEEF-VDW
                           (   1   4  43  14   2   0   0)

     celldm(1)=   1.889726  celldm(2)=   0.000000  celldm(3)=   0.000000
     celldm(4)=   0.000000  celldm(5)=   0.000000  celldm(6)=   0.000000

     crystal axes: (cart. coord. in units of alat)
               a(1) = (   6.579727   0.000000   0.000000 )
               a(2) = (  -0.000775   5.961596   0.000000 )
               a(3) = (   0.000000   0.000000  25.155947 )

     reciprocal axes: (cart. coord. in units 2 pi/alat)
               b(1) = (  0.151982  0.000020  0.000000 )
               b(2) = (  0.000000  0.167740  0.000000 )
               b(3) = (  0.000000  0.000000  0.039752 )

     PseudoPot. # 1 for Ti read from file:
     /storage/coda1/p-amedford6/0/shared/rich_project_chbe-medford/medford-share/data/pseudos_module/espresso/nninc/pbe/van/Ti.UPF
     MD5 check sum: 8e4df49b7f0d34bbd5052bf3f5ea0213
     Pseudo is Ultrasoft, Zval = 12.0
     Generated by new atomic code, or converted to UPF format
     Using radial grid of  851 points,  6 beta functions with:
                l(1) =   0
                l(2) =   0
                l(3) =   1
                l(4) =   1
                l(5) =   2
                l(6) =   2
     Q(r) pseudized with  8 coefficients,  rinner =    1.000   1.000   1.000
                                                       1.000   1.000

     PseudoPot. # 2 for O  read from file:
     /storage/coda1/p-amedford6/0/shared/rich_project_chbe-medford/medford-share/data/pseudos_module/espresso/nninc/pbe/van/O.UPF
     MD5 check sum: 78c19812648e8988a0fe644b0f25305e
     Pseudo is Ultrasoft, Zval =  6.0
     Generated by new atomic code, or converted to UPF format
     Using radial grid of  737 points,  4 beta functions with:
                l(1) =   0
                l(2) =   0
                l(3) =   1
                l(4) =   1
     Q(r) pseudized with  8 coefficients,  rinner =    0.800   0.800   0.800

     PseudoPot. # 3 for N  read from file:
     /storage/coda1/p-amedford6/0/shared/rich_project_chbe-medford/medford-share/data/pseudos_module/espresso/nninc/pbe/van/N.UPF
     MD5 check sum: 90d10febe142ad51ac9d5be1deb811c4
     Pseudo is Ultrasoft, Zval =  5.0
     Generated by new atomic code, or converted to UPF format
     Using radial grid of  729 points,  4 beta functions with:
                l(1) =   0
                l(2) =   0
                l(3) =   1
                l(4) =   1
     Q(r) pseudized with  8 coefficients,  rinner =    0.800   0.800   0.800

     PseudoPot. # 4 for C  read from file:
     /storage/coda1/p-amedford6/0/shared/rich_project_chbe-medford/medford-share/data/pseudos_module/espresso/nninc/pbe/van/C.UPF
     MD5 check sum: 1a69bf6b8db32088f5b2163dbdb77a27
     Pseudo is Ultrasoft, Zval =  4.0
     Generated by new atomic code, or converted to UPF format
     Using radial grid of  721 points,  4 beta functions with:
                l(1) =   0
                l(2) =   0
                l(3) =   1
                l(4) =   1
     Q(r) pseudized with  8 coefficients,  rinner =    0.800   0.800   0.800

     PseudoPot. # 5 for H  read from file:
     /storage/coda1/p-amedford6/0/shared/rich_project_chbe-medford/medford-share/data/pseudos_module/espresso/nninc/pbe/van/H.UPF
     MD5 check sum: b5ee9d7bfd3a09ee7748110bda690ff7
     Pseudo is Ultrasoft, Zval =  1.0
     Generated by new atomic code, or converted to UPF format
     Using radial grid of  615 points,  1 beta functions with:
                l(1) =   0
     Q(r) pseudized with  8 coefficients,  rinner =    0.800

     atomic species   valence    mass     pseudopotential
        Ti1           12.00    47.86700     Ti( 1.00)
        O1             6.00    15.99900     O ( 1.00)
        N1             5.00    14.00700     N ( 1.00)
        C1             4.00    12.01100     C ( 1.00)
        H1             1.00     1.00800     H ( 1.00)

     No symmetry found

   Cartesian axes

     site n.     atom                  positions (alat units)
         1           Ti1 tau(   1) = (   0.0004258   2.9801865   6.0000000  )
         2           Ti1 tau(   2) = (   3.2906075   1.4906267   6.0002472  )
         3           O1  tau(   3) = (   0.0006271   0.0005054   7.9858123  )
         4           O1  tau(   4) = (   3.2906025   0.0005020   7.3038282  )
         5           O1  tau(   5) = (   4.5942328   1.4918067   9.2879030  )
         6           O1  tau(   6) = (   1.9868534   1.4903216   9.2879459  )
         7           Ti1 tau(   7) = (   3.2785950   2.8620264   9.1674676  )
         8           Ti1 tau(   8) = (   6.5781813   1.4341531   9.3833155  )
         9           O1  tau(   9) = (   3.3145900   5.9487502  11.3480437  )
        10           O1  tau(  10) = (   0.0063384   5.9489964  10.5610107  )
        11           O1  tau(  11) = (   1.3034973   1.4807819  12.6446922  )
        12           O1  tau(  12) = (   5.3015769   1.4818569  12.6358846  )
        13           Ti1 tau(  13) = (   0.1076100   2.9713955  12.8282313  )
        14           Ti1 tau(  14) = (   3.4293281   1.4717859  12.4936833  )
        15           O1  tau(  15) = (   0.0296261   0.0013950  14.6649934  )
        16           O1  tau(  16) = (   3.3139734   5.9559375  13.9452938  )
        17           O1  tau(  17) = (   4.5568938   1.4842850  16.0642655  )
        18           O1  tau(  18) = (   2.0675170   1.4827017  16.0617013  )
        19           Ti1 tau(  19) = (   3.3081901   2.9629817  15.7008690  )
        20           Ti1 tau(  20) = (   0.0097687   1.4520379  16.1724920  )
        21           O1  tau(  21) = (   3.2904802   0.0005063   4.7018136  )
        22           O1  tau(  22) = (   0.0191552   5.9343797  17.2479478  )
        23           O1  tau(  23) = (   1.3043587   1.4918075   6.0039043  )
        24           O1  tau(  24) = (   5.2767064   1.4903225   6.0039473  )
        25           Ti1 tau(  25) = (   0.0000382   5.9609847   6.0000000  )
        26           Ti1 tau(  26) = (   3.2902200   4.4714249   6.0002472  )
        27           O1  tau(  27) = (   0.0002396   2.9813036   7.9858123  )
        28           O1  tau(  28) = (   3.2902150   2.9813002   7.3038282  )
        29           O1  tau(  29) = (   4.5938453   4.4726049   9.2879030  )
        30           O1  tau(  30) = (   1.9864658   4.4711199   9.2879459  )
        31           Ti1 tau(  31) = (   3.2981115   5.8424800   9.1654069  )
        32           Ti1 tau(  32) = (   0.0061885   4.4171606   9.3817948  )
        33           O1  tau(  33) = (   3.3160899   2.9715062  11.3475872  )
        34           O1  tau(  34) = (   0.0081518   2.9687805  10.5628331  )
        35           O1  tau(  35) = (   1.3040072   4.4662140  12.6497434  )
        36           O1  tau(  36) = (   5.3008443   4.4652654  12.6404979  )
        37           Ti1 tau(  37) = (   0.1012718   5.9536009  12.8334903  )
        38           Ti1 tau(  38) = (   3.4286588   4.4602296  12.4928226  )
        39           O1  tau(  39) = (   0.0319021   2.9714116  14.6601935  )
        40           O1  tau(  40) = (   3.3101560   2.9646938  13.9065487  )
        41           O1  tau(  41) = (   4.5621106   4.4348364  16.0307704  )
        42           O1  tau(  42) = (   2.0631145   4.4362735  16.0340239  )
        43           Ti1 tau(  43) = (   3.3022073   5.9430436  15.7660435  )
        44           Ti1 tau(  44) = (   0.0096536   4.4281594  16.1671579  )
        45           O1  tau(  45) = (   3.2900926   2.9813045   4.7018136  )
        46           O1  tau(  46) = (   0.0201356   2.9582321  17.2481609  )
        47           O1  tau(  47) = (   1.3039711   4.4726057   6.0039043  )
        48           O1  tau(  48) = (   5.2763189   4.4711207   6.0039473  )
        49           N1  tau(  49) = (   3.1912726   0.1001446  19.4138715  )
        50           N1  tau(  50) = (   3.2720412   5.7295159  18.3236336  )
        51           C1  tau(  51) = (   3.0989320   0.4433392  20.6510207  )
        52           H1  tau(  52) = (   2.1138422   0.5596673  21.0731464  )
        53           H1  tau(  53) = (   4.0116933   0.5939059  21.2009644  )

     number of k points=    10  Fermi-Dirac smearing, width (Ry)=  0.0073
                       cart. coord. in units 2pi/alat
        k(    1) = (   0.0000000   0.0000000   0.0000000), wk =   0.1250000
        k(    2) = (   0.0000000   0.0419351   0.0000000), wk =   0.2500000
        k(    3) = (   0.0000000  -0.0838702   0.0000000), wk =   0.1250000
        k(    4) = (   0.0379955   0.0000049   0.0000000), wk =   0.2500000
        k(    5) = (   0.0379955   0.0419400   0.0000000), wk =   0.2500000
        k(    6) = (   0.0379955  -0.0838652   0.0000000), wk =   0.2500000
        k(    7) = (   0.0379955  -0.0419301   0.0000000), wk =   0.2500000
        k(    8) = (  -0.0759910  -0.0000099   0.0000000), wk =   0.1250000
        k(    9) = (  -0.0759910   0.0419252   0.0000000), wk =   0.2500000
        k(   10) = (  -0.0759910  -0.0838800   0.0000000), wk =   0.1250000

     Initial potential from superposition of free atoms

     starting charge  383.99917, renormalised to  400.00000

     negative rho (up, down):  1.243E-02 0.000E+00

     %%%%%%%%%%%%%%%%%%%%%%%%%%%%%%%%%%%%%%%%%%%%%%%%%%%%%%%%%%%%%%%%%%%%%%%%
     %                                                                      %
     % You are using vdW-DF, which was implemented by the Thonhauser group. %
     % Please cite the following two papers that made this development      %
     % possible and the two reviews that describe the various versions:     %
     %                                                                      %
     %   T. Thonhauser et al., PRL 115, 136402 (2015).                      %
     %   T. Thonhauser et al., PRB 76, 125112 (2007).                       %
     %   K. Berland et al., Rep. Prog. Phys. 78, 066501 (2015).             %
     %   D.C. Langreth et al., J. Phys.: Condens. Matter 21, 084203 (2009). %
     %                                                                      %
     %                                                                      %
     % If you are calculating the stress with vdW-DF, please also cite:     %
     %                                                                      %
     %   R. Sabatini et al., J. Phys.: Condens. Matter 24, 424209 (2012).   %
     %                                                                      %
     %%%%%%%%%%%%%%%%%%%%%%%%%%%%%%%%%%%%%%%%%%%%%%%%%%%%%%%%%%%%%%%%%%%%%%%%

     Adding external electric field

     Computed dipole along edir(3) :
        Dipole              -11.0071 Ry au,        -27.9773 Debye
        Dipole field         -0.0208 Ry au,

        Potential amp.        1.9255 Ry
        Total length         46.3494 bohr

     Starting wfcs are  302 atomic wfcs
  @ DRIVER MODE: Message from server: STATUS
  @ DRIVER MODE: Message from server: POSDATA
  @ DRIVER MODE: Reading and sharing cell
  @ DRIVER MODE: Reading and sharing positions
  @ DRIVER MODE: Received positions

     Self-consistent Calculation

     iteration #  1     ecut=    29.40 Ry     beta= 0.05
     Davidson diagonalization with overlap
     c_bands:  1 eigenvalues not converged
     c_bands:  1 eigenvalues not converged
     c_bands:  1 eigenvalues not converged
     c_bands:  2 eigenvalues not converged
     c_bands:  2 eigenvalues not converged
     c_bands:  2 eigenvalues not converged
     c_bands:  2 eigenvalues not converged
     c_bands:  4 eigenvalues not converged
     c_bands:  2 eigenvalues not converged
     ethr =  1.00E-05,  avg # of iterations = 20.0

[...]

     total energy              =   -2516.88179662 Ry
     estimated scf accuracy    <    5070.54435734 Ry

     iteration #  2     ecut=    29.40 Ry     beta= 0.05
     Davidson diagonalization with overlap
     ethr =  1.00E-02,  avg # of iterations = 22.0

[...]

     iteration # 45     ecut=    29.40 Ry     beta= 0.05
     Davidson diagonalization with overlap
     c_bands:  1 eigenvalues not converged
     ethr =  1.13E-07,  avg # of iterations =  7.4

[...]

     total energy              =   -2970.32650246 Ry
     estimated scf accuracy    <       0.00000009 Ry

     iteration # 63     ecut=    29.40 Ry     beta= 0.05
     Davidson diagonalization with overlap
     ethr =  2.13E-11,  avg # of iterations =  5.0

     negative rho (up, down):  1.353E-02 0.000E+00

     Adding external electric field

     Computed dipole along edir(3) :
        Dipole                0.9005 Ry au,          2.2889 Debye
        Dipole field          0.0017 Ry au,

        Potential amp.       -0.1575 Ry
        Total length         46.3494 bohr

     End of self-consistent calculation

          k = 0.0000 0.0000 0.0000 ( 18029 PWs)   bands (ev):

   -55.9909 -55.9573 -55.6718 -55.6359 -55.6015 -55.4832 -55.3941 -55.3693
   -55.3592 -55.3354 -55.2836 -55.2485 -55.2417 -55.2046 -54.7750 -54.7411
   -32.4184 -32.2378 -32.2104 -32.2097 -32.1828 -32.0917 -32.0453 -32.0314
   -31.9751 -31.8965 -31.8891 -31.8789 -31.8653 -31.8491 -31.8389 -31.8304
   -31.8196 -31.7965 -31.7870 -31.7545 -31.6723 -31.6438 -31.6356 -31.6289
   -31.6236 -31.6157 -31.5866 -31.5783 -31.5627 -31.5283 -31.5277 -31.5065
   -31.4984 -31.4862 -31.4650 -31.4643 -31.4625 -31.4470 -31.4401 -31.4176
   -31.3853 -31.3125 -31.1748 -31.1013 -31.0775 -30.9932 -30.9083 -30.7963
   -20.8395 -16.3309 -16.1523 -15.9265 -15.7830 -15.7062 -15.5692 -15.3580
   -15.3446 -15.2704 -15.2372 -15.2187 -15.1534 -15.1461 -15.1181 -15.1096
   -15.0838 -15.0574 -15.0232 -15.0069 -14.9941 -14.9527 -14.9022 -14.8649
   -14.7856 -14.7283 -14.6324 -14.6082 -14.5798 -14.5058 -14.4727 -14.2052
   -13.2688 -13.1551  -6.8024  -5.8160  -4.7356  -4.4376  -3.7404  -3.6698
    -3.5300  -3.5274  -3.3989  -3.1413  -3.0440  -2.8208  -2.8135  -2.7606
    -2.7199  -2.7034  -2.6650  -2.6042  -2.5009  -2.4841  -2.4547  -2.4296
    -2.4093  -2.4045  -2.3923  -2.3326  -2.3117  -2.2252  -2.2199  -2.2147
    -2.1759  -2.0434  -1.9972  -1.9511  -1.9438  -1.9133  -1.8322  -1.8193
    -1.8034  -1.7599  -1.6681  -1.6339  -1.5044  -1.4039  -1.3992  -1.3575
    -1.2990  -1.2496  -1.0535  -1.0135  -1.0016  -0.9794  -0.9711  -0.9561
    -0.8833  -0.8222  -0.6950  -0.5901  -0.5693  -0.5345  -0.5152  -0.5098
    -0.4804  -0.4156  -0.4059  -0.3836  -0.3424  -0.2095  -0.0663  -0.0363
    -0.0067   0.0171   0.0355   0.1076   0.1167   0.1624   0.1938   0.2404
     0.2479   0.2886   0.3082   0.3320   0.4158   0.4461   0.4990   0.5300
     0.5530   0.5739   0.6138   0.7812   0.8516   0.9658   0.9860   1.0605
     1.1973   1.2186   1.2528   1.4649   1.5109   1.6202   1.8409   1.9167
     3.2792   3.4643   3.6693   3.7526   3.7814   3.8717   3.9460   3.9999
     4.0531   4.1539

[...]

          k = 0.0380-0.0419 0.0000 ( 17876 PWs)   bands (ev):

[...]

          k =-0.0760-0.0000 0.0000 ( 17886 PWs)   bands (ev):

[...]

          k =-0.0760-0.0839 0.0000 ( 17948 PWs)   bands (ev):

   -55.9750 -55.9731 -55.6552 -55.6523 -55.5988 -55.4856 -55.3789 -55.3743
   -55.3529 -55.3516 -55.2669 -55.2652 -55.2253 -55.2209 -54.7580 -54.7580
   -32.2367 -32.2351 -32.2246 -32.2221 -32.1364 -32.1346 -32.0197 -32.0091
   -31.9316 -31.9202 -31.8908 -31.8659 -31.8569 -31.8533 -31.8234 -31.7969
   -31.7844 -31.7005 -31.6964 -31.6854 -31.6830 -31.6824 -31.6146 -31.6133
   -31.6061 -31.6023 -31.6018 -31.5977 -31.5901 -31.5891 -31.5622 -31.5609
   -31.5521 -31.5466 -31.4814 -31.4804 -31.4753 -31.4735 -31.4608 -31.4568
   -31.4446 -31.4410 -31.0904 -31.0904 -30.9891 -30.9890 -30.9509 -30.9508
   -20.8393 -15.7955 -15.7256 -15.5481 -15.5206 -15.4592 -15.4576 -15.4359
   -15.4230 -15.3689 -15.3676 -15.2356 -15.2258 -15.2195 -15.2136 -15.1520
   -15.1470 -15.1433 -15.1392 -15.0893 -15.0842 -14.9517 -14.9486 -14.8549
   -14.8494 -14.8098 -14.8021 -14.7480 -14.7376 -14.6517 -14.6432 -14.2048
   -13.2575 -13.2573  -6.7993  -5.8178  -4.7427  -4.4362  -3.0944  -2.9763
    -2.7846  -2.7703  -2.7418  -2.6155  -2.6107  -2.5901  -2.5851  -2.5268
    -2.4874  -2.4708  -2.4663  -2.4350  -2.4307  -2.3742  -2.3692  -2.3542
    -2.3448  -2.3393  -2.3345  -2.3275  -2.3199  -2.2400  -2.2330  -2.2181
    -2.2154  -2.1469  -2.1406  -2.1110  -2.1008  -1.8806  -1.8795  -1.8248
    -1.8142  -1.6983  -1.6940  -1.6757  -1.6733  -1.6149  -1.5890  -1.3692
    -1.3616  -1.3082  -1.2892  -1.2378  -1.2341  -1.1106  -1.0856  -0.9773
    -0.9375  -0.9313  -0.9240  -0.7936  -0.7822  -0.7738  -0.7576  -0.7489
    -0.7410  -0.6465  -0.5881  -0.5437  -0.5344  -0.5027  -0.4933  -0.4715
    -0.4243  -0.2838  -0.2802  -0.2749  -0.2656  -0.1298  -0.1277  -0.0666
    -0.0616   0.1774   0.1902   0.3040   0.3067   0.5631   0.5694   0.5958
     0.6109   0.7381   0.7509   0.7597   0.7936   0.9034   0.9078   0.9136
     0.9234   1.0151   1.0194   1.6080   1.6396   1.6406   1.6955   1.6960
     3.7938   3.8035   3.8250   3.8264   3.8525   3.8695   3.8987   3.9071
     4.1568   4.1775

     the Fermi energy is     2.6520 ev

!    total energy              =   -2970.32654090 Ry
     estimated scf accuracy    <       0.00000005 Ry
     smearing contrib. (-TS)   =      -0.00009974 Ry
     internal energy E=F+TS    =   -2970.32644116 Ry

     The total energy is F=E-TS. E is the sum of the following terms:
     one-electron contribution =  -23420.55270621 Ry
     hartree contribution      =   11802.06647364 Ry
     xc contribution           =    -491.46140531 Ry
     ewald contribution        =    9139.61966633 Ry
     electric field correction =       0.00153039 Ry

     convergence has been achieved in  63 iterations

     Forces acting on atoms (cartesian axes, Ry/au):

     atom    1 type  1   force =     0.00002729   -0.00005372    0.14945887
     atom    2 type  1   force =    -0.00005563   -0.00023731   -0.16923716
     atom    3 type  2   force =     0.00008141    0.00240695   -0.05964174
     atom    4 type  2   force =     0.00006241   -0.00154038    0.04012035
     atom    5 type  2   force =    -0.02179505   -0.00035942    0.00379310
     atom    6 type  2   force =     0.02139717    0.00006142    0.00421039
     atom    7 type  1   force =     0.00134297    0.00036131    0.00018297
     atom    8 type  1   force =    -0.00052880    0.00124150   -0.00036970
     atom    9 type  2   force =    -0.00066985    0.00012709   -0.00016831
     atom   10 type  2   force =    -0.00008096   -0.00038893    0.00058308
     atom   11 type  2   force =    -0.00080762    0.00025408   -0.00018663
     atom   12 type  2   force =    -0.00076156   -0.00004428   -0.00023687
     atom   13 type  1   force =     0.00050368    0.00009944   -0.00066461
     atom   14 type  1   force =    -0.00026952    0.00000582    0.00037348
     atom   15 type  2   force =    -0.00023288   -0.00038667    0.00032368
     atom   16 type  2   force =    -0.00007241   -0.00004255   -0.00046401
     atom   17 type  2   force =     0.00062980   -0.00031151   -0.00023273
     atom   18 type  2   force =     0.00026737   -0.00021907    0.00018309
     atom   19 type  1   force =    -0.00069017    0.00053143   -0.00014588
     atom   20 type  1   force =     0.00090853    0.00023966   -0.00046594
     atom   21 type  2   force =    -0.00000031   -0.00005070    0.10220950
     atom   22 type  2   force =     0.00023057   -0.00038911    0.00030079
     atom   23 type  2   force =    -0.07493770    0.00009873   -0.03477587
     atom   24 type  2   force =     0.07480936    0.00051307   -0.03481170
     atom   25 type  1   force =     0.00007267   -0.00002585    0.14885682
     atom   26 type  1   force =    -0.00000913   -0.00105121   -0.16924901
     atom   27 type  2   force =     0.00012641    0.00253678   -0.05989652
     atom   28 type  2   force =    -0.00032867   -0.00147295    0.04029352
     atom   29 type  2   force =    -0.02033852    0.00063542    0.00353594
     atom   30 type  2   force =     0.02286507   -0.00006498    0.00404733
     atom   31 type  1   force =     0.00101229    0.00068394   -0.00009991
     atom   32 type  1   force =    -0.00081864   -0.00144709   -0.00020081
     atom   33 type  2   force =    -0.00055196   -0.00039936   -0.00029081
     atom   34 type  2   force =    -0.00014153   -0.00005403   -0.00014353
     atom   35 type  2   force =    -0.00111244   -0.00079346   -0.00019085
     atom   36 type  2   force =    -0.00057591   -0.00045218   -0.00023027
     atom   37 type  1   force =     0.00071950   -0.00078664    0.00011315
     atom   38 type  1   force =    -0.00037143   -0.00016220    0.00060078
     atom   39 type  2   force =    -0.00039791   -0.00040755    0.00029917
     atom   40 type  2   force =    -0.00022815   -0.00041244    0.00001476
     atom   41 type  2   force =     0.00051409   -0.00036280    0.00021948
     atom   42 type  2   force =     0.00014201   -0.00040818   -0.00018566
     atom   43 type  1   force =    -0.00064516   -0.00100603    0.00028144
     atom   44 type  1   force =     0.00095600    0.00002732   -0.00031168
     atom   45 type  2   force =     0.00000858   -0.00007312    0.10217581
     atom   46 type  2   force =     0.00013710   -0.00008646   -0.00034265
     atom   47 type  2   force =    -0.07493155    0.00029261   -0.03474301
     atom   48 type  2   force =     0.07481529    0.00076407   -0.03484278
     atom   49 type  3   force =    -0.00059827    0.00111761    0.00047690
     atom   50 type  3   force =     0.00024769   -0.00048012    0.00100713
     atom   51 type  4   force =    -0.00177542    0.00089161    0.00123696
     atom   52 type  5   force =     0.00231217    0.00007133   -0.00212738
     atom   53 type  5   force =    -0.00046228    0.00100913   -0.00064244

     Total force =     0.402874     Total SCF correction =     0.000861
  @ DRIVER MODE: Message from server: STATUS
  @ DRIVER MODE: Message from server: GETFORCE
  @ DRIVER MODE: Returning v,forces,stress,ensemble

     Writing output data file ./calc.save/
  @ DRIVER MODE: Message from server: EXIT
  @ DRIVE MODE: Exiting

     General routines

     Parallel routines

   This run was terminated on:   0: 1:33  30Sep2021

   JOB DONE.