     Program PWSCF v.6.7GPU starts on 15Jul2021 at 20:23: 2

     R & G space division:  proc/nbgrp/npool/nimage =      16
     Reading input from /storage/home/hcoda1/3/ntian30/research/carbon/15Jul_vib/ads_slab/CH3N2H_a/out_0006/pw.inp
Warning: card &CELL ignored
Warning: card   CELL_DYNAMICS='IPI', ignored
Warning: card / ignored

     Current dimensions of program PWSCF are:
     Max number of different atomic species (ntypx) = 10
     Max number of k-points (npk) =  40000
     Max angular momentum in pseudopotentials (lmaxx) =  3
     Presently no symmetry can be used with electric field

     Message from routine cell_base_init:
     DEPRECATED: use true lattice parameter, not A to a.u. conversion factor

     IMPORTANT: XC functional enforced from input :
     Exchange-correlation= BEEF-VDW
                           (   1   4  43  14   2   0   0)
     Any further DFT definition will be discarded
     Please, verify this is what you really want

  @ DRIVER MODE: Connecting to
 qe_1139763_2351646.sched-torque.pace.gatech.edu3tum0nxi_scratch
  using UNIX socket
  @ DRIVER MODE: Message from server: STATUS
  @ DRIVER MODE: Message from server: INIT
  @ DRIVER MODE: Receiving replica           0          -1
  @ DRIVER MODE: Receiving encoded integer          25
  @ DRIVER MODE:  SCF:  T  FORCE:  T  STRESS:  F  VC:  F  ENSEMBLE:  F
  @ DRIVER MODE:  SCF:  T  FORCE:  T  STRESS:  F  VC:  F  ENSEMBLE:  F

     Using Slab Decomposition

     bravais-lattice index     =            0
     lattice parameter (alat)  =       1.8897  a.u.
     unit-cell volume          =    6658.9804 (a.u.)^3
     number of atoms/cell      =           54
     number of atomic types    =            5
     number of electrons       =       396.00
     number of Kohn-Sham states=          208
     kinetic-energy cutoff     =      29.3995  Ry
     charge density cutoff     =     293.9946  Ry
     scf convergence threshold =      7.3E-08
     mixing beta               =       0.0500
     number of iterations used =            8  plain     mixing
     Exchange-correlation= BEEF-VDW
                           (   1   4  43  14   2   0   0)

     celldm(1)=   1.889726  celldm(2)=   0.000000  celldm(3)=   0.000000
     celldm(4)=   0.000000  celldm(5)=   0.000000  celldm(6)=   0.000000

     crystal axes: (cart. coord. in units of alat)
               a(1) = (   6.579727   0.000000   0.000000 )
               a(2) = (  -0.000775   5.961596   0.000000 )
               a(3) = (   0.000000   0.000000  25.155947 )

     reciprocal axes: (cart. coord. in units 2 pi/alat)
               b(1) = (  0.151982  0.000020  0.000000 )
               b(2) = (  0.000000  0.167740  0.000000 )
               b(3) = (  0.000000  0.000000  0.039752 )

     PseudoPot. # 1 for Ti read from file:
     /storage/coda1/p-amedford6/0/shared/rich_project_chbe-medford/medford-share/data/pseudos_module/espresso/nninc/pbe/van/Ti.UPF
     MD5 check sum: 8e4df49b7f0d34bbd5052bf3f5ea0213
     Pseudo is Ultrasoft, Zval = 12.0
     Generated by new atomic code, or converted to UPF format
     Using radial grid of  851 points,  6 beta functions with:
                l(1) =   0
                l(2) =   0
                l(3) =   1
                l(4) =   1
                l(5) =   2
                l(6) =   2
     Q(r) pseudized with  8 coefficients,  rinner =    1.000   1.000   1.000
                                                       1.000   1.000

     PseudoPot. # 2 for O  read from file:
     /storage/coda1/p-amedford6/0/shared/rich_project_chbe-medford/medford-share/data/pseudos_module/espresso/nninc/pbe/van/O.UPF
     MD5 check sum: 78c19812648e8988a0fe644b0f25305e
     Pseudo is Ultrasoft, Zval =  6.0
     Generated by new atomic code, or converted to UPF format
     Using radial grid of  737 points,  4 beta functions with:
                l(1) =   0
                l(2) =   0
                l(3) =   1
                l(4) =   1
     Q(r) pseudized with  8 coefficients,  rinner =    0.800   0.800   0.800

     PseudoPot. # 3 for N  read from file:
     /storage/coda1/p-amedford6/0/shared/rich_project_chbe-medford/medford-share/data/pseudos_module/espresso/nninc/pbe/van/N.UPF
     MD5 check sum: 90d10febe142ad51ac9d5be1deb811c4
     Pseudo is Ultrasoft, Zval =  5.0
     Generated by new atomic code, or converted to UPF format
     Using radial grid of  729 points,  4 beta functions with:
                l(1) =   0
                l(2) =   0
                l(3) =   1
                l(4) =   1
     Q(r) pseudized with  8 coefficients,  rinner =    0.800   0.800   0.800

     PseudoPot. # 4 for C  read from file:
     /storage/coda1/p-amedford6/0/shared/rich_project_chbe-medford/medford-share/data/pseudos_module/espresso/nninc/pbe/van/C.UPF
     MD5 check sum: 1a69bf6b8db32088f5b2163dbdb77a27
     Pseudo is Ultrasoft, Zval =  4.0
     Generated by new atomic code, or converted to UPF format
     Using radial grid of  721 points,  4 beta functions with:
                l(1) =   0
                l(2) =   0
                l(3) =   1
                l(4) =   1
     Q(r) pseudized with  8 coefficients,  rinner =    0.800   0.800   0.800

     PseudoPot. # 5 for H  read from file:
     /storage/coda1/p-amedford6/0/shared/rich_project_chbe-medford/medford-share/data/pseudos_module/espresso/nninc/pbe/van/H.UPF
     MD5 check sum: b5ee9d7bfd3a09ee7748110bda690ff7
     Pseudo is Ultrasoft, Zval =  1.0
     Generated by new atomic code, or converted to UPF format
     Using radial grid of  615 points,  1 beta functions with:
                l(1) =   0
     Q(r) pseudized with  8 coefficients,  rinner =    0.800

     atomic species   valence    mass     pseudopotential
        Ti1           12.00    47.86700     Ti( 1.00)
        O1             6.00    15.99900     O ( 1.00)
        N1             5.00    14.00700     N ( 1.00)
        C1             4.00    12.01100     C ( 1.00)
        H1             1.00     1.00800     H ( 1.00)

     Starting magnetic structure
     atomic species   magnetization
        Ti1          0.000
        O1           0.000
        N1           0.000
        C1           0.025
        H1           0.000

     No symmetry found

   Cartesian axes

     site n.     atom                  positions (alat units)
         1           Ti1 tau(   1) = (   0.0004258   2.9801865   6.0000000  )
         2           Ti1 tau(   2) = (   3.2906075   1.4906267   6.0002472  )
         3           O1  tau(   3) = (   0.0006271   0.0005054   7.9858123  )
         4           O1  tau(   4) = (   3.2906025   0.0005020   7.3038282  )
         5           O1  tau(   5) = (   4.5942328   1.4918067   9.2879030  )
         6           O1  tau(   6) = (   1.9868534   1.4903216   9.2879459  )
         7           Ti1 tau(   7) = (   3.2907910   2.8959150   9.1758416  )
         8           Ti1 tau(   8) = (   0.0015273   1.4827037   9.2680791  )
         9           O1  tau(   9) = (   3.3106937   0.0084137  11.2927479  )
        10           O1  tau(  10) = (   0.0116148   5.9584955  10.6183126  )
        11           O1  tau(  11) = (   1.3255326   1.5151957  12.5859258  )
        12           O1  tau(  12) = (   5.3246634   1.4871208  12.6441624  )
        13           Ti1 tau(  13) = (   6.5358624   2.9940264  12.7507449  )
        14           Ti1 tau(  14) = (   3.1828407   1.5032771  12.4528579  )
        15           O1  tau(  15) = (   0.1336207   0.0073438  14.6266748  )
        16           O1  tau(  16) = (   3.2550344   0.0288700  13.8306396  )
        17           O1  tau(  17) = (   4.6334483   1.5013943  15.9792279  )
        18           O1  tau(  18) = (   2.1409664   1.5470880  15.9954950  )
        19           Ti1 tau(  19) = (   3.4798582   3.0305884  15.6593850  )
        20           Ti1 tau(  20) = (   0.1386493   1.3724552  15.8613965  )
        21           O1  tau(  21) = (   3.2904802   0.0005063   4.7018136  )
        22           O1  tau(  22) = (   0.1429122   0.0333940  17.1908172  )
        23           O1  tau(  23) = (   1.3043587   1.4918075   6.0039043  )
        24           O1  tau(  24) = (   5.2767064   1.4903225   6.0039473  )
        25           Ti1 tau(  25) = (   0.0000382   5.9609847   6.0000000  )
        26           Ti1 tau(  26) = (   3.2902200   4.4714249   6.0002472  )
        27           O1  tau(  27) = (   0.0002396   2.9813036   7.9858123  )
        28           O1  tau(  28) = (   3.2902150   2.9813002   7.3038282  )
        29           O1  tau(  29) = (   4.5938453   4.4726049   9.2879030  )
        30           O1  tau(  30) = (   1.9864658   4.4711199   9.2879459  )
        31           Ti1 tau(  31) = (   3.2891106   5.8743827   9.1763621  )
        32           Ti1 tau(  32) = (   0.0006254   4.4649316   9.2693709  )
        33           O1  tau(  33) = (   3.3137399   2.9960163  11.2943833  )
        34           O1  tau(  34) = (   0.0092240   2.9805883  10.6323155  )
        35           O1  tau(  35) = (   1.3234708   4.4688006  12.5930975  )
        36           O1  tau(  36) = (   5.3222282   4.4932535  12.6449723  )
        37           Ti1 tau(  37) = (   6.5041614   0.0053836  12.5833808  )
        38           Ti1 tau(  38) = (   3.1843229   4.4812189  12.4522442  )
        39           O1  tau(  39) = (   0.0584892   2.9792810  14.6723703  )
        40           O1  tau(  40) = (   3.3232524   2.9928384  13.8523860  )
        41           O1  tau(  41) = (   4.6237859   4.5837569  15.7472905  )
        42           O1  tau(  42) = (   2.1882403   4.4693611  16.1038286  )
        43           Ti1 tau(  43) = (   3.3015484   0.0242660  15.6383815  )
        44           Ti1 tau(  44) = (   0.0181797   4.4930750  16.1931172  )
        45           O1  tau(  45) = (   3.2900926   2.9813045   4.7018136  )
        46           O1  tau(  46) = (   1.3039711   4.4726057   6.0039043  )
        47           O1  tau(  47) = (   5.2763189   4.4711207   6.0039473  )
        48           N1  tau(  48) = (   0.2677213   2.8760844  17.5755548  )
        49           C1  tau(  49) = (   1.2271684   2.7639891  18.6598760  )
        50           H1  tau(  50) = (   1.2930054   3.7106696  19.2072709  )
        51           H1  tau(  51) = (   0.8976878   1.9730418  19.3402421  )
        52           H1  tau(  52) = (   2.2102292   2.4972526  18.2850250  )
        53           N1  tau(  53) = (   5.6732178   3.4927010  17.8452151  )
        54           H1  tau(  54) = (   5.7345573   4.0058295  18.7343860  )

     number of k points=    10  Fermi-Dirac smearing, width (Ry)=  0.0073
                       cart. coord. in units 2pi/alat
        k(    1) = (   0.0000000   0.0000000   0.0000000), wk =   0.0625000
        k(    2) = (   0.0000000   0.0419351   0.0000000), wk =   0.1250000
        k(    3) = (   0.0000000  -0.0838702   0.0000000), wk =   0.0625000
        k(    4) = (   0.0379955   0.0000049   0.0000000), wk =   0.1250000
        k(    5) = (   0.0379955   0.0419400   0.0000000), wk =   0.1250000
        k(    6) = (   0.0379955  -0.0838652   0.0000000), wk =   0.1250000
        k(    7) = (   0.0379955  -0.0419301   0.0000000), wk =   0.1250000
[...]
     %                                                                      %
     % You are using vdW-DF, which was implemented by the Thonhauser group. %
     % Please cite the following two papers that made this development      %
     % possible and the two reviews that describe the various versions:     %
     %                                                                      %
     %   T. Thonhauser et al., PRL 115, 136402 (2015).                      %
     %   T. Thonhauser et al., PRB 76, 125112 (2007).                       %
     %   K. Berland et al., Rep. Prog. Phys. 78, 066501 (2015).             %
     %   D.C. Langreth et al., J. Phys.: Condens. Matter 21, 084203 (2009). %
     %                                                                      %
     %                                                                      %
     % If you are calculating the stress with vdW-DF, please also cite:     %
     %                                                                      %
     %   R. Sabatini et al., J. Phys.: Condens. Matter 24, 424209 (2012).   %
     %                                                                      %
     %%%%%%%%%%%%%%%%%%%%%%%%%%%%%%%%%%%%%%%%%%%%%%%%%%%%%%%%%%%%%%%%%%%%%%%%

     Adding external electric field

     Computed dipole along edir(3) :
        Dipole               -8.2262 Ry au,        -20.9089 Debye
        Dipole field         -0.0155 Ry au,

        Potential amp.        1.4390 Ry
        Total length         46.3494 bohr

[...]

     Starting wfcs are  300 atomic wfcs
  @ DRIVER MODE: Message from server: STATUS
  @ DRIVER MODE: Message from server: POSDATA
  @ DRIVER MODE: Reading and sharing cell
  @ DRIVER MODE: Reading and sharing positions
  @ DRIVER MODE: Received positions

     Self-consistent Calculation

     iteration #  1     ecut=    29.40 Ry     beta= 0.05
     Davidson diagonalization with overlap
     c_bands:  1 eigenvalues not converged
     c_bands:  1 eigenvalues not converged
     c_bands:  1 eigenvalues not converged
     c_bands:  1 eigenvalues not converged
     c_bands:  2 eigenvalues not converged
     c_bands:  1 eigenvalues not converged
     c_bands:  4 eigenvalues not converged
     c_bands:  2 eigenvalues not converged
     c_bands:  1 eigenvalues not converged
     c_bands:  1 eigenvalues not converged
     c_bands:  1 eigenvalues not converged
     c_bands:  1 eigenvalues not converged
     c_bands:  1 eigenvalues not converged
     c_bands:  1 eigenvalues not converged
     c_bands:  2 eigenvalues not converged
     c_bands:  1 eigenvalues not converged
     c_bands:  4 eigenvalues not converged
     c_bands:  2 eigenvalues not converged
     c_bands:  1 eigenvalues not converged
     c_bands:  1 eigenvalues not converged
     ethr =  1.00E-05,  avg # of iterations = 20.0

[...]

     total energy              =   -2607.52683457 Ry
     estimated scf accuracy    <    3676.06721337 Ry

     total magnetization       =     0.00 Bohr mag/cell
     absolute magnetization    =     0.02 Bohr mag/cell

     iteration #  2     ecut=    29.40 Ry     beta= 0.05
     Davidson diagonalization with overlap
     ethr =  1.00E-02,  avg # of iterations = 21.9

[...]

     iteration # 49     ecut=    29.40 Ry     beta= 0.05
     Davidson diagonalization with overlap
     c_bands:  2 eigenvalues not converged
     ethr =  4.71E-07,  avg # of iterations =  7.2

[...]

     total energy              =   -2940.35264952 Ry
     estimated scf accuracy    <       0.00000007 Ry

[...]

     iteration #108     ecut=    29.40 Ry     beta= 0.05
     Davidson diagonalization with overlap
     ethr =  1.88E-11,  avg # of iterations =  6.5

     negative rho (up, down):  8.755E-03 8.756E-03

[...]

     Adding external electric field

     Computed dipole along edir(3) :
        Dipole                0.7428 Ry au,          1.8880 Debye
        Dipole field          0.0014 Ry au,

        Potential amp.       -0.1299 Ry
        Total length         46.3494 bohr

     Magnetic moment per site  (integrated on atomic sphere of radius R)
     atom   1 (R=0.746)  charge=  8.1023  magn=  0.0094
     atom   2 (R=0.746)  charge=  8.0882  magn=  0.0005
     atom   3 (R=0.746)  charge=  5.0689  magn= -0.0006
     atom   4 (R=0.746)  charge=  5.1050  magn= -0.0001
     atom   5 (R=0.746)  charge=  5.0706  magn= -0.0001
     atom   6 (R=0.746)  charge=  5.0718  magn= -0.0001
     atom   7 (R=0.746)  charge=  8.0835  magn=  0.0002
     atom   8 (R=0.746)  charge=  8.0701  magn=  0.0015
     atom   9 (R=0.746)  charge=  5.0892  magn= -0.0000
     atom  10 (R=0.746)  charge=  5.0576  magn= -0.0001
     atom  11 (R=0.746)  charge=  5.0764  magn= -0.0000
     atom  12 (R=0.746)  charge=  5.0718  magn= -0.0000
     atom  13 (R=0.746)  charge=  8.0706  magn=  0.0001
     atom  14 (R=0.746)  charge=  8.0891  magn=  0.0000
     atom  15 (R=0.746)  charge=  5.0552  magn=  0.0000
     atom  16 (R=0.746)  charge=  5.0986  magn= -0.0000
     atom  17 (R=0.746)  charge=  5.0495  magn=  0.0000
     atom  18 (R=0.746)  charge=  5.0673  magn= -0.0000
     atom  19 (R=0.746)  charge=  8.1079  magn=  0.0000
     atom  20 (R=0.746)  charge=  8.0961  magn=  0.0001
     atom  21 (R=0.746)  charge=  4.9490  magn= -0.0004
     atom  22 (R=0.746)  charge=  5.0409  magn=  0.0001
     atom  23 (R=0.746)  charge=  5.0611  magn= -0.0012
     atom  24 (R=0.746)  charge=  5.0612  magn= -0.0012
     atom  25 (R=0.746)  charge=  8.1023  magn=  0.0094
     atom  26 (R=0.746)  charge=  8.0882  magn=  0.0005
     atom  27 (R=0.746)  charge=  5.0670  magn= -0.0006
     atom  28 (R=0.746)  charge=  5.1051  magn= -0.0001
     atom  29 (R=0.746)  charge=  5.0714  magn= -0.0001
     atom  30 (R=0.746)  charge=  5.0726  magn= -0.0001
     atom  31 (R=0.746)  charge=  8.0844  magn=  0.0002
     atom  32 (R=0.746)  charge=  8.0705  magn=  0.0014
     atom  33 (R=0.746)  charge=  5.0889  magn= -0.0000
     atom  34 (R=0.746)  charge=  5.0200  magn= -0.0001
     atom  35 (R=0.746)  charge=  5.0760  magn= -0.0000
     atom  36 (R=0.746)  charge=  5.0724  magn= -0.0000
     atom  37 (R=0.746)  charge=  8.0776  magn=  0.0002
     atom  38 (R=0.746)  charge=  8.0891  magn=  0.0000
     atom  39 (R=0.746)  charge=  5.0527  magn=  0.0000
     atom  40 (R=0.746)  charge=  5.0891  magn=  0.0000
     atom  41 (R=0.746)  charge=  5.0851  magn= -0.0000
     atom  42 (R=0.746)  charge=  5.0438  magn=  0.0000
     atom  43 (R=0.746)  charge=  8.1145  magn=  0.0000
     atom  44 (R=0.746)  charge=  8.1352  magn=  0.0006
     atom  45 (R=0.746)  charge=  4.9490  magn= -0.0004
     atom  46 (R=0.746)  charge=  5.0611  magn= -0.0012
     atom  47 (R=0.746)  charge=  5.0612  magn= -0.0012
     atom  48 (R=0.424)  charge=  1.3511  magn=  0.0004
     atom  49 (R=0.448)  charge=  0.8434  magn= -0.0000
     atom  50 (R=0.424)  charge=  0.4506  magn=  0.0000
     atom  51 (R=0.424)  charge=  0.4492  magn=  0.0000
     atom  52 (R=0.424)  charge=  0.4558  magn=  0.0000
     atom  53 (R=0.424)  charge=  1.3506  magn=  0.0004
     atom  54 (R=0.424)  charge=  0.4595  magn=  0.0000

     End of self-consistent calculation

 ------ SPIN UP ------------

          k = 0.0000 0.0000 0.0000 ( 18029 PWs)   bands (ev):

   -56.0246 -55.9906 -55.8023 -55.7635 -55.7203 -55.6858 -55.6627 -55.6339
   -55.6286 -55.5992 -55.5783 -55.4992 -55.2474 -54.9135 -54.8795 -54.7962
   -32.4862 -32.3444 -32.3195 -32.2955 -32.1878 -32.1811 -32.1652 -32.1233
   -32.1091 -32.0973 -32.0873 -32.0435 -32.0241 -31.9803 -31.9713 -31.9706
   -31.9369 -31.9290 -31.9219 -31.8914 -31.8857 -31.8678 -31.8588 -31.8582
   -31.8365 -31.8342 -31.8241 -31.8237 -31.8146 -31.8043 -31.7942 -31.7879
   -31.7752 -31.7464 -31.6955 -31.6709 -31.6197 -31.4736 -31.4705 -31.3166
   -31.2375 -31.2145 -31.2132 -31.1340 -31.0480 -30.9997 -30.9366 -30.9200
   -17.3565 -16.5567 -16.3631 -16.0733 -15.9253 -15.9113 -15.7876 -15.6872
   -15.6071 -15.5061 -15.4593 -15.4004 -15.3864 -15.3676 -15.3089 -15.2829
   -15.2456 -15.2241 -15.1875 -15.1748 -15.1339 -15.1002 -15.0846 -15.0555
   -14.9851 -14.9181 -14.8989 -14.7515 -14.6050 -14.4594 -13.4133 -13.2984
   -11.6099  -8.3247  -5.0463  -4.0338  -3.9429  -3.8733  -3.8668  -3.7719
    -3.6894  -3.4406  -3.4213  -3.3582  -3.0657  -3.0207  -2.9968  -2.9920
    -2.8953  -2.7522  -2.7222  -2.6633  -2.6584  -2.6351  -2.6195  -2.6006
    -2.5447  -2.4915  -2.4749  -2.4303  -2.2917  -2.2717  -2.2653  -2.2443
    -2.1744  -2.1641  -2.1007  -2.0800  -2.0589  -2.0378  -2.0051  -1.8738
    -1.8405  -1.7756  -1.6951  -1.6020  -1.5199  -1.4861  -1.3969  -1.3798
    -1.3438  -1.2561  -1.2535  -1.1772  -1.1418  -1.0762  -1.0454  -1.0038
    -0.8940  -0.8704  -0.8123  -0.7502  -0.7060  -0.6963  -0.6530  -0.6284
    -0.6244  -0.6096  -0.5962  -0.4063  -0.3706  -0.2297  -0.1832  -0.1601
    -0.1178  -0.0961  -0.0383  -0.0116  -0.0083   0.0353   0.0527   0.0934
     0.1466   0.1601   0.1885   0.2786   0.3118   0.3670   0.4947   0.5100
     0.5942   0.6656   0.7646   0.7862   0.8327   0.9621   1.0645   1.0776
     1.1099   1.3151   1.4151   1.6744   1.7165   3.0322   3.1718   3.2607
     3.3786   3.4995   3.5716   3.6094   3.7852   3.8188   3.8613   3.9337

[...]

          k =-0.0760-0.0000 0.0000 ( 17886 PWs)   bands (ev):

[...]

 ------ SPIN DOWN ----------

[...]

          k = 0.0380-0.0419 0.0000 ( 17876 PWs)   bands (ev):

[...]

          k =-0.0760-0.0839 0.0000 ( 17948 PWs)   bands (ev):

   -55.9906 -55.9885 -55.7901 -55.7754 -55.7039 -55.6965 -55.6466 -55.6441
   -55.6201 -55.6121 -55.5743 -55.5030 -55.2468 -54.8956 -54.8954 -54.7960
   -32.2947 -32.2935 -32.2856 -32.2836 -32.1518 -32.1397 -32.1114 -32.1092
   -32.0484 -32.0358 -32.0255 -32.0161 -32.0132 -32.0080 -31.9645 -31.9589
   -31.9541 -31.9422 -31.9148 -31.8956 -31.8834 -31.8804 -31.8783 -31.8776
   -31.8738 -31.8706 -31.8499 -31.8491 -31.8417 -31.8347 -31.8295 -31.8150
   -31.8004 -31.7939 -31.7674 -31.7095 -31.6130 -31.4760 -31.4699 -31.2632
   -31.2263 -31.2262 -31.1294 -31.1291 -31.0902 -31.0901 -31.0109 -30.9232
   -17.3374 -15.9752 -15.9465 -15.8350 -15.8154 -15.7297 -15.7161 -15.6006
   -15.5934 -15.5819 -15.5154 -15.4675 -15.4572 -15.3799 -15.3504 -15.3397
   -15.3122 -15.3023 -15.2964 -15.2862 -15.2786 -15.1938 -15.1912 -15.1859
   -15.1174 -15.0889 -14.9096 -14.8654 -14.6705 -14.6152 -13.4017 -13.4013
   -11.6127  -8.3037  -5.0523  -3.9389  -3.8626  -3.2773  -3.2411  -3.0214
    -2.9981  -2.9774  -2.9449  -2.7622  -2.7491  -2.7406  -2.7248  -2.7127
    -2.6760  -2.6570  -2.6449  -2.5782  -2.5699  -2.5457  -2.5402  -2.5325
    -2.5133  -2.4983  -2.4904  -2.4707  -2.4614  -2.4166  -2.3615  -2.3375
    -2.2900  -2.1960  -2.0879  -2.0400  -2.0233  -2.0160  -1.9938  -1.9844
    -1.9477  -1.9348  -1.8480  -1.6700  -1.6226  -1.5526  -1.5474  -1.5377
    -1.4826  -1.4266  -1.3877  -1.3083  -1.2491  -1.1881  -1.1632  -1.1362
    -1.1012  -1.0349  -0.9695  -0.9512  -0.9392  -0.9055  -0.9010  -0.8850
    -0.8108  -0.7274  -0.6868  -0.6529  -0.6307  -0.6136  -0.5991  -0.5787
    -0.4757  -0.4019  -0.3545  -0.3076  -0.2689  -0.2258  -0.1085  -0.0926
     0.0959   0.1696   0.1969   0.2700   0.3680   0.3963   0.4081   0.4663
     0.5411   0.6053   0.6380   0.6944   0.7131   0.7326   0.7994   1.0027
     1.0712   1.4834   1.4850   1.5343   1.5353   2.9975   3.6767   3.6886
     3.6913   3.7038   3.7196   3.7402   3.7935   3.8268   3.9443   3.9555

     the Fermi energy is     3.1420 ev

!    total energy              =   -2940.35265023 Ry
     estimated scf accuracy    <       0.00000007 Ry
     smearing contrib. (-TS)   =      -0.01879460 Ry
     internal energy E=F+TS    =   -2940.33385562 Ry

     The total energy is F=E-TS. E is the sum of the following terms:
     one-electron contribution =  -24659.17520844 Ry
     hartree contribution      =   12418.73595142 Ry
     xc contribution           =    -486.05650151 Ry
     ewald contribution        =    9786.16086170 Ry
     electric field correction =       0.00104122 Ry

     total magnetization       =     0.03 Bohr mag/cell
     absolute magnetization    =     0.05 Bohr mag/cell

     convergence has been achieved in 108 iterations

     Forces acting on atoms (cartesian axes, Ry/au):

     atom    1 type  1   force =     0.00023482   -0.00036719    0.10146748
     atom    2 type  1   force =     0.00001766   -0.00086645   -0.17145135
     atom    3 type  2   force =     0.00029191    0.00021759   -0.03316440
     atom    4 type  2   force =     0.00003203   -0.00079096    0.04489170
     atom    5 type  2   force =    -0.01196020   -0.00021643   -0.00228333
     atom    6 type  2   force =     0.01439189    0.00037677   -0.00108383
     atom    7 type  1   force =     0.00140328   -0.00130004   -0.00446233
     atom    8 type  1   force =    -0.00077191    0.02219898    0.05600593
     atom    9 type  2   force =     0.00002227   -0.00032368    0.00061369
     atom   10 type  2   force =    -0.00267867    0.00207108   -0.02563845
     atom   11 type  2   force =    -0.00001310    0.00024912    0.00003261
     atom   12 type  2   force =     0.00008964    0.00075737    0.00010378
     atom   13 type  1   force =    -0.00003666    0.00014394   -0.00034185
     atom   14 type  1   force =     0.00032093    0.00031986   -0.00026486
     atom   15 type  2   force =     0.00019921    0.00000354    0.00070235
     atom   16 type  2   force =    -0.00001407   -0.00014585    0.00108531
     atom   17 type  2   force =     0.00000969   -0.00075273    0.00015444
     atom   18 type  2   force =     0.00034984   -0.00065297    0.00042688
     atom   19 type  1   force =    -0.00021329   -0.00055188   -0.00020729
     atom   20 type  1   force =     0.00006740    0.00025469    0.00003094
     atom   21 type  2   force =     0.00006356   -0.00001014    0.10211731
     atom   22 type  2   force =    -0.00004727   -0.00053212    0.00037684
     atom   23 type  2   force =    -0.07327380   -0.00015850   -0.02887256
     atom   24 type  2   force =     0.07322375    0.00033608   -0.02891783
     atom   25 type  1   force =    -0.00026860   -0.00029504    0.10189580
     atom   26 type  1   force =     0.00003379   -0.00020784   -0.17144286
     atom   27 type  2   force =     0.00036423   -0.00023006   -0.03188449
     atom   28 type  2   force =     0.00009288   -0.00057807    0.04551006
     atom   29 type  2   force =    -0.01210778    0.00212623   -0.00283984
     atom   30 type  2   force =     0.01441681    0.00228835   -0.00158259
     atom   31 type  1   force =     0.00158706    0.00094206   -0.00577319
     atom   32 type  1   force =    -0.00059368   -0.02475904    0.05703523
     atom   33 type  2   force =     0.00014330    0.00036129    0.00077484
     atom   34 type  2   force =    -0.00421391    0.00211689   -0.04804586
     atom   35 type  2   force =     0.00057237   -0.00058651    0.00010232
     atom   36 type  2   force =    -0.00039990   -0.00076769    0.00023094
     atom   37 type  1   force =     0.00008381    0.00062413   -0.00062211
     atom   38 type  1   force =     0.00007034   -0.00012736   -0.00039135
     atom   39 type  2   force =     0.00026099   -0.00007281    0.00024053
     atom   40 type  2   force =    -0.00006181   -0.00001917   -0.00005507
     atom   41 type  2   force =     0.00022743    0.00041511    0.00020634
     atom   42 type  2   force =    -0.00015571    0.00026607    0.00085203
     atom   43 type  1   force =    -0.00028101   -0.00006748   -0.00010890
     atom   44 type  1   force =     0.00040990   -0.00038043    0.00051670
     atom   45 type  2   force =     0.00004605   -0.00005011    0.10217702
     atom   46 type  2   force =    -0.07327904   -0.00009403   -0.02884191
     atom   47 type  2   force =     0.07323098    0.00027960   -0.02887997
     atom   48 type  3   force =    -0.00247802   -0.00094232   -0.01246504
     atom   49 type  4   force =     0.00101507    0.00005690    0.00568006
     atom   50 type  5   force =     0.00060017   -0.00015964    0.00092386
     atom   51 type  5   force =     0.00025851   -0.00068872    0.00155784
     atom   52 type  5   force =    -0.00046093   -0.00044916   -0.00028520
     atom   53 type  3   force =     0.00067948    0.00020825    0.00425596
     atom   54 type  5   force =    -0.00150172    0.00053058   -0.00006234

     Total force =     0.377967     Total SCF correction =     0.000159
  @ DRIVER MODE: Message from server: STATUS
  @ DRIVER MODE: Message from server: GETFORCE
  @ DRIVER MODE: Returning v,forces,stress,ensemble

     Writing output data file ./calc.save/
  @ DRIVER MODE: Message from server: EXIT
  @ DRIVE MODE: Exiting

     General routines

     Parallel routines

   This run was terminated on:  21: 5: 2  15Jul2021

   JOB DONE.