     Program PWSCF v.6.7GPU starts on  2Aug2021 at 22: 9:14

     R & G space division:  proc/nbgrp/npool/nimage =      16
     Reading input from /storage/home/hcoda1/3/ntian30/research/carbon/02Aug_vib_paired/ads_slab/CH3NNH3_a/out_0036/pw.inp
Warning: card &CELL ignored
Warning: card   CELL_DYNAMICS='IPI', ignored
Warning: card / ignored

     Current dimensions of program PWSCF are:
     Max number of different atomic species (ntypx) = 10
     Max number of k-points (npk) =  40000
     Max angular momentum in pseudopotentials (lmaxx) =  3
     Presently no symmetry can be used with electric field

     Message from routine cell_base_init:
     DEPRECATED: use true lattice parameter, not A to a.u. conversion factor

     IMPORTANT: XC functional enforced from input :
     Exchange-correlation= BEEF-VDW
                           (   1   4  43  14   2   0   0)
     Any further DFT definition will be discarded
     Please, verify this is what you really want

  @ DRIVER MODE: Connecting to
 qe_1139763_2482544.sched-torque.pace.gatech.edugnw62qmf_scratch
  using UNIX socket
  @ DRIVER MODE: Message from server: STATUS
  @ DRIVER MODE: Message from server: INIT
  @ DRIVER MODE: Receiving replica           0          -1
  @ DRIVER MODE: Receiving encoded integer          25
  @ DRIVER MODE:  SCF:  T  FORCE:  T  STRESS:  F  VC:  F  ENSEMBLE:  F
  @ DRIVER MODE:  SCF:  T  FORCE:  T  STRESS:  F  VC:  F  ENSEMBLE:  F

     Using Slab Decomposition

     bravais-lattice index     =            0
     lattice parameter (alat)  =       1.8897  a.u.
     unit-cell volume          =    6658.9804 (a.u.)^3
     number of atoms/cell      =           56
     number of atomic types    =            5
     number of electrons       =       398.00
     number of Kohn-Sham states=          209
     kinetic-energy cutoff     =      29.3995  Ry
     charge density cutoff     =     293.9946  Ry
     scf convergence threshold =      7.3E-08
     mixing beta               =       0.0500
     number of iterations used =            8  plain     mixing
     Exchange-correlation= BEEF-VDW
                           (   1   4  43  14   2   0   0)

     celldm(1)=   1.889726  celldm(2)=   0.000000  celldm(3)=   0.000000
     celldm(4)=   0.000000  celldm(5)=   0.000000  celldm(6)=   0.000000

     crystal axes: (cart. coord. in units of alat)
               a(1) = (   6.579727   0.000000   0.000000 )
               a(2) = (  -0.000775   5.961596   0.000000 )
               a(3) = (   0.000000   0.000000  25.155947 )

     reciprocal axes: (cart. coord. in units 2 pi/alat)
               b(1) = (  0.151982  0.000020  0.000000 )
               b(2) = (  0.000000  0.167740  0.000000 )
               b(3) = (  0.000000  0.000000  0.039752 )

     PseudoPot. # 1 for Ti read from file:
     /storage/coda1/p-amedford6/0/shared/rich_project_chbe-medford/medford-share/data/pseudos_module/espresso/nninc/pbe/van/Ti.UPF
     MD5 check sum: 8e4df49b7f0d34bbd5052bf3f5ea0213
     Pseudo is Ultrasoft, Zval = 12.0
     Generated by new atomic code, or converted to UPF format
     Using radial grid of  851 points,  6 beta functions with:
                l(1) =   0
                l(2) =   0
                l(3) =   1
                l(4) =   1
                l(5) =   2
                l(6) =   2
     Q(r) pseudized with  8 coefficients,  rinner =    1.000   1.000   1.000
                                                       1.000   1.000

     PseudoPot. # 2 for O  read from file:
     /storage/coda1/p-amedford6/0/shared/rich_project_chbe-medford/medford-share/data/pseudos_module/espresso/nninc/pbe/van/O.UPF
     MD5 check sum: 78c19812648e8988a0fe644b0f25305e
     Pseudo is Ultrasoft, Zval =  6.0
     Generated by new atomic code, or converted to UPF format
     Using radial grid of  737 points,  4 beta functions with:
                l(1) =   0
                l(2) =   0
                l(3) =   1
                l(4) =   1
     Q(r) pseudized with  8 coefficients,  rinner =    0.800   0.800   0.800

     PseudoPot. # 3 for N  read from file:
     /storage/coda1/p-amedford6/0/shared/rich_project_chbe-medford/medford-share/data/pseudos_module/espresso/nninc/pbe/van/N.UPF
     MD5 check sum: 90d10febe142ad51ac9d5be1deb811c4
     Pseudo is Ultrasoft, Zval =  5.0
     Generated by new atomic code, or converted to UPF format
     Using radial grid of  729 points,  4 beta functions with:
                l(1) =   0
                l(2) =   0
                l(3) =   1
                l(4) =   1
     Q(r) pseudized with  8 coefficients,  rinner =    0.800   0.800   0.800

     PseudoPot. # 4 for C  read from file:
     /storage/coda1/p-amedford6/0/shared/rich_project_chbe-medford/medford-share/data/pseudos_module/espresso/nninc/pbe/van/C.UPF
     MD5 check sum: 1a69bf6b8db32088f5b2163dbdb77a27
     Pseudo is Ultrasoft, Zval =  4.0
     Generated by new atomic code, or converted to UPF format
     Using radial grid of  721 points,  4 beta functions with:
                l(1) =   0
                l(2) =   0
                l(3) =   1
                l(4) =   1
     Q(r) pseudized with  8 coefficients,  rinner =    0.800   0.800   0.800

     PseudoPot. # 5 for H  read from file:
     /storage/coda1/p-amedford6/0/shared/rich_project_chbe-medford/medford-share/data/pseudos_module/espresso/nninc/pbe/van/H.UPF
     MD5 check sum: b5ee9d7bfd3a09ee7748110bda690ff7
     Pseudo is Ultrasoft, Zval =  1.0
     Generated by new atomic code, or converted to UPF format
     Using radial grid of  615 points,  1 beta functions with:
                l(1) =   0
     Q(r) pseudized with  8 coefficients,  rinner =    0.800

     atomic species   valence    mass     pseudopotential
        Ti1           12.00    47.86700     Ti( 1.00)
        O1             6.00    15.99900     O ( 1.00)
        N1             5.00    14.00700     N ( 1.00)
        C1             4.00    12.01100     C ( 1.00)
        H1             1.00     1.00800     H ( 1.00)

     No symmetry found

   Cartesian axes

     site n.     atom                  positions (alat units)
         1           Ti1 tau(   1) = (   0.0004258   2.9801865   6.0000000  )
         2           Ti1 tau(   2) = (   3.2906075   1.4906267   6.0002472  )
         3           O1  tau(   3) = (   0.0006271   0.0005054   7.9858123  )
         4           O1  tau(   4) = (   3.2906025   0.0005020   7.3038282  )
         5           O1  tau(   5) = (   4.5942328   1.4918067   9.2879030  )
         6           O1  tau(   6) = (   1.9868534   1.4903216   9.2879459  )
         7           Ti1 tau(   7) = (   3.2907910   2.8959150   9.1758416  )
         8           Ti1 tau(   8) = (   0.0015273   1.4827037   9.2680791  )
         9           O1  tau(   9) = (   3.2727297   5.9424138  11.2974721  )
        10           O1  tau(  10) = (   0.0116148   5.9584955  10.6183126  )
        11           O1  tau(  11) = (   1.3027692   1.4721713  12.6242268  )
        12           O1  tau(  12) = (   5.2784376   1.4723552  12.6258992  )
        13           Ti1 tau(  13) = (   6.4570204   2.9507206  12.7630554  )
        14           Ti1 tau(  14) = (   3.1467966   1.4649636  12.4688949  )
        15           O1  tau(  15) = (   6.5600513   5.9133837  14.5918744  )
        16           O1  tau(  16) = (   3.2766225   5.9390981  13.8789110  )
        17           O1  tau(  17) = (   4.4915826   1.4834571  16.0540230  )
        18           O1  tau(  18) = (   2.0416982   1.4849982  16.0411193  )
        19           Ti1 tau(  19) = (   3.2679172   2.9642910  15.6858091  )
        20           Ti1 tau(  20) = (   6.5495220   1.5641796  16.1095294  )
        21           O1  tau(  21) = (   3.2904802   0.0005063   4.7018136  )
        22           O1  tau(  22) = (   6.5606002   0.0080969  17.2010096  )
        23           O1  tau(  23) = (   1.3043587   1.4918075   6.0039043  )
        24           O1  tau(  24) = (   5.2767064   1.4903225   6.0039473  )
        25           Ti1 tau(  25) = (   0.0000382   5.9609847   6.0000000  )
        26           Ti1 tau(  26) = (   3.2902200   4.4714249   6.0002472  )
        27           O1  tau(  27) = (   0.0002396   2.9813036   7.9858123  )
        28           O1  tau(  28) = (   3.2902150   2.9813002   7.3038282  )
        29           O1  tau(  29) = (   4.5938453   4.4726049   9.2879030  )
        30           O1  tau(  30) = (   1.9864658   4.4711199   9.2879459  )
        31           Ti1 tau(  31) = (   3.2891106   5.8743827   9.1763621  )
        32           Ti1 tau(  32) = (   0.0006254   4.4649316   9.2693709  )
        33           O1  tau(  33) = (   3.2718307   2.9587034  11.2961003  )
        34           O1  tau(  34) = (   0.0092240   2.9805883  10.6323155  )
        35           O1  tau(  35) = (   1.3028232   4.4416136  12.6207192  )
        36           O1  tau(  36) = (   5.2777600   4.4366566  12.6238879  )
        37           Ti1 tau(  37) = (   6.4830488   5.9304874  12.7660964  )
        38           Ti1 tau(  38) = (   3.1463657   4.4448748  12.4639736  )
        39           O1  tau(  39) = (   6.5417323   2.9404903  14.6589984  )
        40           O1  tau(  40) = (   3.2789452   2.9619718  13.8791424  )
        41           O1  tau(  41) = (   4.4971312   4.4676043  16.0556370  )
        42           O1  tau(  42) = (   2.0400509   4.4648231  16.0515753  )
        43           Ti1 tau(  43) = (   3.2598176   5.9476019  15.6881950  )
        44           Ti1 tau(  44) = (   6.5485469   4.5424454  16.1156095  )
        45           O1  tau(  45) = (   3.2900926   2.9813045   4.7018136  )
        46           O1  tau(  46) = (   1.3039711   4.4726057   6.0039043  )
        47           O1  tau(  47) = (   5.2763189   4.4711207   6.0039473  )
        48           N1  tau(  48) = (   0.0016189   2.9795595  17.3279962  )
        49           C1  tau(  49) = (   0.1681806   3.0735589  18.7581663  )
        50           H1  tau(  50) = (   6.0068595   3.7517258  19.1994632  )
        51           H1  tau(  51) = (   0.0766375   2.0971904  19.2409400  )
        52           H1  tau(  52) = (   1.1565538   3.4901639  19.0026035  )
        53           N1  tau(  53) = (   4.7601180   1.8141088  21.6714004  )
        54           H1  tau(  54) = (   4.4666586   2.7830198  21.5980365  )
        55           H1  tau(  55) = (   4.1231612   1.2775871  21.0809158  )
        56           H1  tau(  56) = (   4.6015807   1.5257772  22.6208530  )

     number of k points=    10  Fermi-Dirac smearing, width (Ry)=  0.0073
                       cart. coord. in units 2pi/alat
        k(    1) = (   0.0000000   0.0000000   0.0000000), wk =   0.1250000
        k(    2) = (   0.0000000   0.0419351   0.0000000), wk =   0.2500000
        k(    3) = (   0.0000000  -0.0838702   0.0000000), wk =   0.1250000
        k(    4) = (   0.0379955   0.0000049   0.0000000), wk =   0.2500000
        k(    5) = (   0.0379955   0.0419400   0.0000000), wk =   0.2500000
        k(    6) = (   0.0379955  -0.0838652   0.0000000), wk =   0.2500000
        k(    7) = (   0.0379955  -0.0419301   0.0000000), wk =   0.2500000
        k(    8) = (  -0.0759910  -0.0000099   0.0000000), wk =   0.1250000
        k(    9) = (  -0.0759910   0.0419252   0.0000000), wk =   0.2500000
        k(   10) = (  -0.0759910  -0.0838800   0.0000000), wk =   0.1250000

     Initial potential from superposition of free atoms

     starting charge  381.99914, renormalised to  398.00000

     negative rho (up, down):  9.475E-03 0.000E+00

     %%%%%%%%%%%%%%%%%%%%%%%%%%%%%%%%%%%%%%%%%%%%%%%%%%%%%%%%%%%%%%%%%%%%%%%%
     %                                                                      %
     % You are using vdW-DF, which was implemented by the Thonhauser group. %
     % Please cite the following two papers that made this development      %
     % possible and the two reviews that describe the various versions:     %
     %                                                                      %
     %   T. Thonhauser et al., PRL 115, 136402 (2015).                      %
     %   T. Thonhauser et al., PRB 76, 125112 (2007).                       %
     %   K. Berland et al., Rep. Prog. Phys. 78, 066501 (2015).             %
     %   D.C. Langreth et al., J. Phys.: Condens. Matter 21, 084203 (2009). %
     %                                                                      %
     %                                                                      %
     % If you are calculating the stress with vdW-DF, please also cite:     %
     %                                                                      %
     %   R. Sabatini et al., J. Phys.: Condens. Matter 24, 424209 (2012).   %
     %                                                                      %
     %%%%%%%%%%%%%%%%%%%%%%%%%%%%%%%%%%%%%%%%%%%%%%%%%%%%%%%%%%%%%%%%%%%%%%%%

     Adding external electric field

     Computed dipole along edir(3) :
        Dipole              -11.3757 Ry au,        -28.9141 Debye
        Dipole field         -0.0215 Ry au,

        Potential amp.        1.9900 Ry
        Total length         46.3494 bohr

     Starting wfcs are  302 atomic wfcs
  @ DRIVER MODE: Message from server: STATUS
  @ DRIVER MODE: Message from server: POSDATA
  @ DRIVER MODE: Reading and sharing cell
  @ DRIVER MODE: Reading and sharing positions
  @ DRIVER MODE: Received positions

     Self-consistent Calculation

     iteration #  1     ecut=    29.40 Ry     beta= 0.05
     Davidson diagonalization with overlap
     c_bands:  1 eigenvalues not converged
     c_bands:  1 eigenvalues not converged
     c_bands:  2 eigenvalues not converged
     c_bands:  1 eigenvalues not converged
     c_bands:  1 eigenvalues not converged
     c_bands:  1 eigenvalues not converged
     c_bands:  1 eigenvalues not converged
     c_bands:  2 eigenvalues not converged
     c_bands:  2 eigenvalues not converged
     ethr =  1.00E-05,  avg # of iterations = 19.6

[...]

     total energy              =   -2520.79481568 Ry
     estimated scf accuracy    <    4705.99762835 Ry

     iteration #  2     ecut=    29.40 Ry     beta= 0.05
     Davidson diagonalization with overlap
     ethr =  1.00E-02,  avg # of iterations = 21.9

[...]

     iteration # 75     ecut=    29.40 Ry     beta= 0.05
     Davidson diagonalization with overlap
     c_bands:  1 eigenvalues not converged
     ethr =  4.87E-10,  avg # of iterations =  7.4

[...]

     total energy              =   -2942.90657542 Ry
     estimated scf accuracy    <       0.00000013 Ry

     iteration # 80     ecut=    29.40 Ry     beta= 0.05
     Davidson diagonalization with overlap
     ethr =  3.35E-11,  avg # of iterations =  5.9

     negative rho (up, down):  1.096E-02 0.000E+00

     Adding external electric field

     Computed dipole along edir(3) :
        Dipole                0.4472 Ry au,          1.1366 Debye
        Dipole field          0.0008 Ry au,

        Potential amp.       -0.0782 Ry
        Total length         46.3494 bohr

     End of self-consistent calculation

          k = 0.0000 0.0000 0.0000 ( 18029 PWs)   bands (ev):

   -56.6176 -56.5840 -55.7368 -55.7283 -55.7014 -55.6960 -55.5914 -55.5556
   -55.3746 -55.3393 -55.2823 -55.2762 -55.2484 -55.1740 -54.7374 -54.6240
   -33.0455 -32.8922 -32.8641 -32.7938 -32.7027 -32.6715 -32.2115 -32.2007
   -32.1343 -32.0232 -31.9783 -31.9500 -31.9361 -31.9113 -31.8787 -31.8761
   -31.8722 -31.8653 -31.8423 -31.8392 -31.8275 -31.7996 -31.7743 -31.7607
   -31.7475 -31.7276 -31.7197 -31.6964 -31.6745 -31.6208 -31.6061 -31.5966
   -31.5184 -31.5134 -31.4932 -31.4516 -31.4413 -31.4097 -31.4028 -31.3785
   -31.3572 -31.2988 -31.2387 -30.9784 -30.9658 -30.8835 -30.8439 -30.7530
   -16.7816 -16.3473 -16.1175 -15.9801 -15.9124 -15.8582 -15.8128 -15.6918
   -15.6189 -15.6123 -15.5721 -15.5416 -15.4711 -15.3302 -15.2320 -15.1787
   -15.1344 -15.0134 -14.9532 -14.9206 -14.9159 -14.8815 -14.8619 -14.6658
   -14.6415 -14.5388 -14.5291 -14.4034 -14.1809 -13.7808 -13.7201 -13.6707
   -12.8010  -7.4972  -4.3474  -3.8654  -3.8424  -3.7166  -3.6051  -3.5180
    -3.4106  -3.3976  -3.3167  -3.1984  -3.1524  -3.1046  -2.9887  -2.9887
    -2.8392  -2.7992  -2.7933  -2.7893  -2.7443  -2.6810  -2.6652  -2.6264
    -2.6210  -2.6116  -2.4609  -2.3607  -2.2935  -2.2720  -2.2617  -2.2258
    -2.1477  -2.1276  -2.1128  -2.1091  -2.0088  -1.8601  -1.8584  -1.8274
    -1.7839  -1.7820  -1.7443  -1.7296  -1.5941  -1.5204  -1.4176  -1.4002
    -1.3618  -1.2975  -1.2912  -1.1932  -1.1188  -1.0563  -1.0306  -0.9216
    -0.8792  -0.8567  -0.7671  -0.7050  -0.6653  -0.6478  -0.6309  -0.5272
    -0.5071  -0.4962  -0.4113  -0.3996  -0.3423  -0.2608  -0.2412  -0.2351
    -0.1469  -0.1417  -0.0496  -0.0076   0.0341   0.0791   0.1749   0.1932
     0.2961   0.3316   0.3530   0.4727   0.4857   0.5486   0.6159   0.6835
     0.7147   0.7393   0.7686   0.7903   0.8635   0.9784   0.9834   1.0851
     1.1244   1.2922   1.3311   1.3954   1.6190   1.6458   2.3159   2.6570
     2.8170   3.1155   3.3064   3.4175   3.6324   3.6475   3.6528   3.8301
     3.8772

[...]

          k = 0.0380-0.0419 0.0000 ( 17876 PWs)   bands (ev):

[...]

          k =-0.0760-0.0000 0.0000 ( 17886 PWs)   bands (ev):

[...]

          k =-0.0760-0.0839 0.0000 ( 17948 PWs)   bands (ev):

   -56.6009 -56.6005 -55.7207 -55.7156 -55.7132 -55.7126 -55.5761 -55.5707
   -55.3597 -55.3541 -55.2732 -55.2653 -55.2652 -55.1770 -54.7345 -54.6267
   -32.8780 -32.8778 -32.8624 -32.8622 -32.7468 -32.7465 -32.0411 -32.0385
   -32.0250 -32.0189 -31.9689 -31.9678 -31.9256 -31.9241 -31.9227 -31.9218
   -31.9106 -31.9080 -31.9066 -31.9043 -31.8282 -31.8238 -31.7774 -31.7720
   -31.7111 -31.7038 -31.6427 -31.6360 -31.6096 -31.6096 -31.6027 -31.5587
   -31.5567 -31.5288 -31.4937 -31.4908 -31.4907 -31.4517 -31.4517 -31.4469
   -31.4198 -31.3806 -31.1176 -30.9982 -30.9655 -30.9336 -30.8464 -30.8116
   -16.1299 -16.1278 -16.0957 -16.0954 -15.8256 -15.8219 -15.7778 -15.7760
   -15.6033 -15.5974 -15.3907 -15.3805 -15.3747 -15.3706 -15.2464 -15.2376
   -15.1743 -15.1634 -15.0743 -15.0709 -15.0079 -15.0017 -14.9638 -14.9441
   -14.6275 -14.6200 -14.4923 -14.4837 -14.3309 -13.7742 -13.7742 -13.7193
   -12.8175  -7.4873  -3.8678  -3.7290  -3.2295  -3.2289  -3.1634  -3.1621
    -3.0413  -3.0365  -2.9599  -2.9594  -2.8600  -2.8558  -2.7599  -2.7162
    -2.7140  -2.7113  -2.6985  -2.6559  -2.5604  -2.5601  -2.5453  -2.5302
    -2.4747  -2.4726  -2.4581  -2.3856  -2.3721  -2.3362  -2.2969  -2.1903
    -2.1767  -2.1602  -2.1343  -2.0742  -2.0595  -2.0482  -2.0007  -1.9763
    -1.8984  -1.8318  -1.7906  -1.6707  -1.6672  -1.6574  -1.6453  -1.4902
    -1.4544  -1.4231  -1.4134  -1.4074  -1.3630  -1.2650  -1.2570  -1.1225
    -1.1199  -1.0502  -0.9683  -0.9451  -0.9230  -0.7887  -0.7483  -0.7074
    -0.7024  -0.6775  -0.6517  -0.6322  -0.6046  -0.4530  -0.4337  -0.3995
    -0.3687  -0.3606  -0.3194  -0.2511  -0.1713  -0.0905  -0.0893  -0.0229
     0.0293   0.0911   0.1791   0.1916   0.1956   0.4784   0.5585   0.6457
     0.7248   0.7886   0.8545   0.8791   0.9396   0.9787   1.1187   1.1216
     1.1402   1.1406   1.2007   1.2091   1.3778   1.6421   2.2025   3.2301
     3.2304   3.2976   3.2980   3.6217   3.6272   3.7362   3.7452   3.8553
     3.8607

     the Fermi energy is     2.4951 ev

!    total energy              =   -2942.90658540 Ry
     estimated scf accuracy    <       0.00000006 Ry
     smearing contrib. (-TS)   =      -0.00477728 Ry
     internal energy E=F+TS    =   -2942.90180812 Ry

     The total energy is F=E-TS. E is the sum of the following terms:
     one-electron contribution =  -23224.44589971 Ry
     hartree contribution      =   11702.48788194 Ry
     xc contribution           =    -487.47080810 Ry
     ewald contribution        =    9066.52664039 Ry
     electric field correction =       0.00037736 Ry

     convergence has been achieved in  80 iterations

     Forces acting on atoms (cartesian axes, Ry/au):

     atom    1 type  1   force =     0.00000484   -0.00044077    0.12433855
     atom    2 type  1   force =    -0.00006719   -0.00055737   -0.16061671
     atom    3 type  2   force =     0.00016461   -0.00030238   -0.06835949
     atom    4 type  2   force =    -0.00005196   -0.00038408    0.02753358
     atom    5 type  2   force =    -0.01677190    0.00112687   -0.00833592
     atom    6 type  2   force =     0.01782408    0.00162772   -0.01022905
     atom    7 type  1   force =     0.00040623   -0.00408549    0.02181058
     atom    8 type  1   force =     0.00020265   -0.00220070    0.11167504
     atom    9 type  2   force =     0.00010520    0.00018668   -0.00032365
     atom   10 type  2   force =    -0.00319634    0.00010889   -0.07306796
     atom   11 type  2   force =    -0.00035386    0.00032864   -0.00008416
     atom   12 type  2   force =     0.00013605    0.00044812   -0.00004240
     atom   13 type  1   force =     0.00013572   -0.00025156   -0.00003083
     atom   14 type  1   force =    -0.00015442    0.00003775   -0.00031213
     atom   15 type  2   force =    -0.00004415   -0.00024172    0.00019235
     atom   16 type  2   force =     0.00033098    0.00076697   -0.00000300
     atom   17 type  2   force =     0.00019924    0.00030912   -0.00026822
     atom   18 type  2   force =    -0.00020389    0.00021224    0.00013728
     atom   19 type  1   force =     0.00048952   -0.00010032   -0.00020310
     atom   20 type  1   force =     0.00027299   -0.00036924   -0.00048381
     atom   21 type  2   force =     0.00010082    0.00008220    0.09968207
     atom   22 type  2   force =     0.00007739    0.00095586    0.00048419
     atom   23 type  2   force =    -0.07915167    0.00008606   -0.03243918
     atom   24 type  2   force =     0.07905766    0.00051259   -0.03243486
     atom   25 type  1   force =     0.00003777   -0.00040830    0.12382311
     atom   26 type  1   force =    -0.00003671   -0.00041250   -0.16074409
     atom   27 type  2   force =     0.00028687   -0.00046783   -0.06734874
     atom   28 type  2   force =    -0.00005392   -0.00020602    0.02726702
     atom   29 type  2   force =    -0.01730087    0.00074089   -0.00826044
     atom   30 type  2   force =     0.01827021    0.00113896   -0.01009895
     atom   31 type  1   force =     0.00033871   -0.00101220    0.02126623
     atom   32 type  1   force =     0.00021093   -0.00027273    0.11223783
     atom   33 type  2   force =     0.00012098    0.00051202   -0.00008938
     atom   34 type  2   force =    -0.00294357   -0.00065477   -0.07292241
     atom   35 type  2   force =    -0.00025644    0.00027351   -0.00010860
     atom   36 type  2   force =     0.00009283    0.00013972   -0.00004481
     atom   37 type  1   force =     0.00014029   -0.00015107    0.00021960
     atom   38 type  1   force =     0.00006715    0.00005043    0.00031608
     atom   39 type  2   force =     0.00021479    0.00037635   -0.00015433
     atom   40 type  2   force =     0.00010223    0.00034538    0.00013987
     atom   41 type  2   force =    -0.00015903    0.00033027    0.00018213
     atom   42 type  2   force =    -0.00002971    0.00059947    0.00000082
     atom   43 type  1   force =     0.00060601    0.00052267    0.00052068
     atom   44 type  1   force =     0.00014392    0.00032007   -0.00037464
     atom   45 type  2   force =     0.00010646    0.00004776    0.09970346
     atom   46 type  2   force =    -0.07915928    0.00012759   -0.03244134
     atom   47 type  2   force =     0.07906344    0.00056228   -0.03243438
     atom   48 type  3   force =     0.00041930    0.00029336   -0.00026832
     atom   49 type  4   force =     0.00070661   -0.00034666    0.00180045
     atom   50 type  5   force =     0.00056047   -0.00034550   -0.00035685
     atom   51 type  5   force =    -0.00020469    0.00031337   -0.00009681
     atom   52 type  5   force =    -0.00073524   -0.00060613    0.00025526
     atom   53 type  3   force =    -0.00293932    0.00067522   -0.02262902
     atom   54 type  5   force =     0.00081189   -0.00021874    0.00118055
     atom   55 type  5   force =     0.00642056    0.00404741    0.00637479
     atom   56 type  5   force =    -0.00441525   -0.00417036    0.01446608

     Total force =     0.425931     Total SCF correction =     0.000718
  @ DRIVER MODE: Message from server: STATUS
  @ DRIVER MODE: Message from server: GETFORCE
  @ DRIVER MODE: Returning v,forces,stress,ensemble

     Writing output data file ./calc.save/
  @ DRIVER MODE: Message from server: EXIT
  @ DRIVE MODE: Exiting

     General routines

     Parallel routines

   This run was terminated on:  22:27:40   2Aug2021

   JOB DONE.