     Program PWSCF v.6.7GPU starts on 26Sep2021 at 16: 7:59

     R & G space division:  proc/nbgrp/npool/nimage =       8
     Reading input from /storage/home/hcoda1/3/ntian30/research/carbon/CxH_vib/H2O_calc/ads_slab/CH2NHNHHO_b/out_0019/pw.inp
Warning: card &CELL ignored
Warning: card   CELL_DYNAMICS='IPI', ignored
Warning: card / ignored

     Current dimensions of program PWSCF are:
     Max number of different atomic species (ntypx) = 10
     Max number of k-points (npk) =  40000
     Max angular momentum in pseudopotentials (lmaxx) =  3
     Presently no symmetry can be used with electric field

     Message from routine cell_base_init:
     DEPRECATED: use true lattice parameter, not A to a.u. conversion factor

     IMPORTANT: XC functional enforced from input :
     Exchange-correlation= BEEF-VDW
                           (   1   4  43  14   2   0   0)
     Any further DFT definition will be discarded
     Please, verify this is what you really want

  @ DRIVER MODE: Connecting to
 qe_1139763_2971671.sched-torque.pace.gatech.edud6qdu4rn_scratch
  using UNIX socket
  @ DRIVER MODE: Message from server: STATUS
  @ DRIVER MODE: Message from server: INIT
  @ DRIVER MODE: Receiving replica           0          -1
  @ DRIVER MODE: Receiving encoded integer          25
  @ DRIVER MODE:  SCF:  T  FORCE:  T  STRESS:  F  VC:  F  ENSEMBLE:  F
  @ DRIVER MODE:  SCF:  T  FORCE:  T  STRESS:  F  VC:  F  ENSEMBLE:  F

     Using Slab Decomposition

     bravais-lattice index     =            0
     lattice parameter (alat)  =       1.8897  a.u.
     unit-cell volume          =    6658.9804 (a.u.)^3
     number of atoms/cell      =           56
     number of atomic types    =            5
     number of electrons       =       403.00
     number of Kohn-Sham states=          211
     kinetic-energy cutoff     =      29.3995  Ry
     charge density cutoff     =     293.9946  Ry
     scf convergence threshold =      7.3E-08
     mixing beta               =       0.0500
     number of iterations used =            8  plain     mixing
     Exchange-correlation= BEEF-VDW
                           (   1   4  43  14   2   0   0)

     celldm(1)=   1.889726  celldm(2)=   0.000000  celldm(3)=   0.000000
     celldm(4)=   0.000000  celldm(5)=   0.000000  celldm(6)=   0.000000

     crystal axes: (cart. coord. in units of alat)
               a(1) = (   6.579727   0.000000   0.000000 )
               a(2) = (  -0.000775   5.961596   0.000000 )
               a(3) = (   0.000000   0.000000  25.155947 )

     reciprocal axes: (cart. coord. in units 2 pi/alat)
               b(1) = (  0.151982  0.000020  0.000000 )
               b(2) = (  0.000000  0.167740  0.000000 )
               b(3) = (  0.000000  0.000000  0.039752 )

     PseudoPot. # 1 for Ti read from file:
     /storage/coda1/p-amedford6/0/shared/rich_project_chbe-medford/medford-share/data/pseudos_module/espresso/nninc/pbe/van/Ti.UPF
     MD5 check sum: 8e4df49b7f0d34bbd5052bf3f5ea0213
     Pseudo is Ultrasoft, Zval = 12.0
     Generated by new atomic code, or converted to UPF format
     Using radial grid of  851 points,  6 beta functions with:
                l(1) =   0
                l(2) =   0
                l(3) =   1
                l(4) =   1
                l(5) =   2
                l(6) =   2
     Q(r) pseudized with  8 coefficients,  rinner =    1.000   1.000   1.000
                                                       1.000   1.000

     PseudoPot. # 2 for O  read from file:
     /storage/coda1/p-amedford6/0/shared/rich_project_chbe-medford/medford-share/data/pseudos_module/espresso/nninc/pbe/van/O.UPF
     MD5 check sum: 78c19812648e8988a0fe644b0f25305e
     Pseudo is Ultrasoft, Zval =  6.0
     Generated by new atomic code, or converted to UPF format
     Using radial grid of  737 points,  4 beta functions with:
                l(1) =   0
                l(2) =   0
                l(3) =   1
                l(4) =   1
     Q(r) pseudized with  8 coefficients,  rinner =    0.800   0.800   0.800

     PseudoPot. # 3 for N  read from file:
     /storage/coda1/p-amedford6/0/shared/rich_project_chbe-medford/medford-share/data/pseudos_module/espresso/nninc/pbe/van/N.UPF
     MD5 check sum: 90d10febe142ad51ac9d5be1deb811c4
     Pseudo is Ultrasoft, Zval =  5.0
     Generated by new atomic code, or converted to UPF format
     Using radial grid of  729 points,  4 beta functions with:
                l(1) =   0
                l(2) =   0
                l(3) =   1
                l(4) =   1
     Q(r) pseudized with  8 coefficients,  rinner =    0.800   0.800   0.800

     PseudoPot. # 4 for C  read from file:
     /storage/coda1/p-amedford6/0/shared/rich_project_chbe-medford/medford-share/data/pseudos_module/espresso/nninc/pbe/van/C.UPF
     MD5 check sum: 1a69bf6b8db32088f5b2163dbdb77a27
     Pseudo is Ultrasoft, Zval =  4.0
     Generated by new atomic code, or converted to UPF format
     Using radial grid of  721 points,  4 beta functions with:
                l(1) =   0
                l(2) =   0
                l(3) =   1
                l(4) =   1
     Q(r) pseudized with  8 coefficients,  rinner =    0.800   0.800   0.800

     PseudoPot. # 5 for H  read from file:
     /storage/coda1/p-amedford6/0/shared/rich_project_chbe-medford/medford-share/data/pseudos_module/espresso/nninc/pbe/van/H.UPF
     MD5 check sum: b5ee9d7bfd3a09ee7748110bda690ff7
     Pseudo is Ultrasoft, Zval =  1.0
     Generated by new atomic code, or converted to UPF format
     Using radial grid of  615 points,  1 beta functions with:
                l(1) =   0
     Q(r) pseudized with  8 coefficients,  rinner =    0.800

     atomic species   valence    mass     pseudopotential
        Ti1           12.00    47.86700     Ti( 1.00)
        O1             6.00    15.99900     O ( 1.00)
        N1             5.00    14.00700     N ( 1.00)
        C1             4.00    12.01100     C ( 1.00)
        H1             1.00     1.00800     H ( 1.00)

     No symmetry found

   Cartesian axes

     site n.     atom                  positions (alat units)
         1           Ti1 tau(   1) = (   0.0004258   2.9801865   6.0000000  )
         2           Ti1 tau(   2) = (   3.2906075   1.4906267   6.0002472  )
         3           O1  tau(   3) = (   0.0006271   0.0005054   7.9858123  )
         4           O1  tau(   4) = (   3.2906025   0.0005020   7.3038282  )
         5           O1  tau(   5) = (   4.5942328   1.4918067   9.2879030  )
         6           O1  tau(   6) = (   1.9868534   1.4903216   9.2879459  )
         7           Ti1 tau(   7) = (   3.2907910   2.8959150   9.1758416  )
         8           Ti1 tau(   8) = (   0.0015273   1.4827037   9.2680791  )
         9           O1  tau(   9) = (   3.2987294   5.9443783  11.3578989  )
        10           O1  tau(  10) = (   0.0116148   5.9584955  10.6183126  )
        11           O1  tau(  11) = (   1.2795512   1.4821507  12.6386044  )
        12           O1  tau(  12) = (   5.2980455   1.5005163  12.6536529  )
        13           Ti1 tau(  13) = (   6.5652885   2.9238251  12.5528928  )
        14           Ti1 tau(  14) = (   3.2988635   1.2998061  12.7048432  )
        15           O1  tau(  15) = (   0.0127057   0.0339484  14.6761273  )
        16           O1  tau(  16) = (   3.2875936   0.0940603  14.0290633  )
        17           O1  tau(  17) = (   4.5650748   1.6033894  16.0357995  )
        18           O1  tau(  18) = (   2.0190796   1.5896112  16.2175902  )
        19           Ti1 tau(  19) = (   3.3013862   3.0422678  15.6649453  )
        20           Ti1 tau(  20) = (   6.4815444   1.5191555  15.8288377  )
        21           O1  tau(  21) = (   3.2904802   0.0005063   4.7018136  )
        22           O1  tau(  22) = (   6.5172723   5.9480513  17.2191950  )
        23           O1  tau(  23) = (   1.3043587   1.4918075   6.0039043  )
        24           O1  tau(  24) = (   5.2767064   1.4903225   6.0039473  )
        25           Ti1 tau(  25) = (   0.0000382   5.9609847   6.0000000  )
        26           Ti1 tau(  26) = (   3.2902200   4.4714249   6.0002472  )
        27           O1  tau(  27) = (   0.0002396   2.9813036   7.9858123  )
        28           O1  tau(  28) = (   3.2902150   2.9813002   7.3038282  )
        29           O1  tau(  29) = (   4.5938453   4.4726049   9.2879030  )
        30           O1  tau(  30) = (   1.9864658   4.4711199   9.2879459  )
        31           Ti1 tau(  31) = (   3.2891106   5.8743827   9.1763621  )
        32           Ti1 tau(  32) = (   0.0006254   4.4649316   9.2693709  )
        33           O1  tau(  33) = (   3.2945946   2.9940555  11.3077331  )
        34           O1  tau(  34) = (   0.0092240   2.9805883  10.6323155  )
        35           O1  tau(  35) = (   1.2876619   4.4781899  12.6403949  )
        36           O1  tau(  36) = (   5.3010724   4.4646845  12.6541769  )
        37           Ti1 tau(  37) = (   0.0424196   5.9023569  12.5123361  )
        38           Ti1 tau(  38) = (   3.3119368   4.3729351  12.4217702  )
        39           O1  tau(  39) = (   0.0401333   2.9740317  14.7512036  )
        40           O1  tau(  40) = (   3.2576645   3.0028392  13.8982547  )
        41           O1  tau(  41) = (   4.5666544   4.4234537  16.0705803  )
        42           O1  tau(  42) = (   2.0215446   4.4756893  16.1430302  )
        43           Ti1 tau(  43) = (   3.2259990   0.0392177  16.2341362  )
        44           Ti1 tau(  44) = (   6.5723990   4.6710500  15.9980081  )
        45           O1  tau(  45) = (   3.2900926   2.9813045   4.7018136  )
        46           O1  tau(  46) = (   1.3039711   4.4726057   6.0039043  )
        47           O1  tau(  47) = (   5.2763189   4.4711207   6.0039473  )
        48           N1  tau(  48) = (   0.9334729   2.5913682  18.4753943  )
        49           N1  tau(  49) = (   6.5156687   2.9055835  17.6419879  )
        50           C1  tau(  50) = (   1.0224037   2.6952286  19.7617917  )
        51           H1  tau(  51) = (   1.9066829   2.3177709  20.2270220  )
        52           H1  tau(  52) = (   0.2162702   3.1370440  20.3260263  )
        53           H1  tau(  53) = (   1.6995924   2.1399843  17.9426691  )
        54           H1  tau(  54) = (   5.6785098   3.1284051  18.1783837  )
        55           O1  tau(  55) = (   3.5318048   0.0910060  18.0897867  )
        56           H1  tau(  56) = (   4.4897960   0.0680733  18.2655997  )

     number of k points=    10  Fermi-Dirac smearing, width (Ry)=  0.0073
                       cart. coord. in units 2pi/alat
        k(    1) = (   0.0000000   0.0000000   0.0000000), wk =   0.1250000
        k(    2) = (   0.0000000   0.0419351   0.0000000), wk =   0.2500000
        k(    3) = (   0.0000000  -0.0838702   0.0000000), wk =   0.1250000
        k(    4) = (   0.0379955   0.0000049   0.0000000), wk =   0.2500000
        k(    5) = (   0.0379955   0.0419400   0.0000000), wk =   0.2500000
        k(    6) = (   0.0379955  -0.0838652   0.0000000), wk =   0.2500000
        k(    7) = (   0.0379955  -0.0419301   0.0000000), wk =   0.2500000
        k(    8) = (  -0.0759910  -0.0000099   0.0000000), wk =   0.1250000
        k(    9) = (  -0.0759910   0.0419252   0.0000000), wk =   0.2500000
        k(   10) = (  -0.0759910  -0.0838800   0.0000000), wk =   0.1250000

     Initial potential from superposition of free atoms

     starting charge  386.99914, renormalised to  403.00000

     negative rho (up, down):  1.427E-02 0.000E+00

     %%%%%%%%%%%%%%%%%%%%%%%%%%%%%%%%%%%%%%%%%%%%%%%%%%%%%%%%%%%%%%%%%%%%%%%%
     %                                                                      %
     % You are using vdW-DF, which was implemented by the Thonhauser group. %
     % Please cite the following two papers that made this development      %
     % possible and the two reviews that describe the various versions:     %
     %                                                                      %
     %   T. Thonhauser et al., PRL 115, 136402 (2015).                      %
     %   T. Thonhauser et al., PRB 76, 125112 (2007).                       %
     %   K. Berland et al., Rep. Prog. Phys. 78, 066501 (2015).             %
     %   D.C. Langreth et al., J. Phys.: Condens. Matter 21, 084203 (2009). %
     %                                                                      %
     %                                                                      %
     % If you are calculating the stress with vdW-DF, please also cite:     %
     %                                                                      %
     %   R. Sabatini et al., J. Phys.: Condens. Matter 24, 424209 (2012).   %
     %                                                                      %
     %%%%%%%%%%%%%%%%%%%%%%%%%%%%%%%%%%%%%%%%%%%%%%%%%%%%%%%%%%%%%%%%%%%%%%%%

     Adding external electric field

     Computed dipole along edir(3) :
        Dipole              -12.9683 Ry au,        -32.9621 Debye
        Dipole field         -0.0245 Ry au,

        Potential amp.        2.2686 Ry
        Total length         46.3494 bohr

     Starting wfcs are  305 atomic wfcs
  @ DRIVER MODE: Message from server: STATUS
  @ DRIVER MODE: Message from server: POSDATA
  @ DRIVER MODE: Reading and sharing cell
  @ DRIVER MODE: Reading and sharing positions
  @ DRIVER MODE: Received positions

     Self-consistent Calculation

     iteration #  1     ecut=    29.40 Ry     beta= 0.05
     Davidson diagonalization with overlap
     c_bands:  4 eigenvalues not converged
     c_bands:  4 eigenvalues not converged
     c_bands:  3 eigenvalues not converged
     c_bands:  1 eigenvalues not converged
     c_bands:  3 eigenvalues not converged
     c_bands:  2 eigenvalues not converged
     ethr =  1.00E-05,  avg # of iterations = 25.6

[...]

     total energy              =   -2352.65892541 Ry
     estimated scf accuracy    <    7059.69434288 Ry

     iteration #  2     ecut=    29.40 Ry     beta= 0.05
     Davidson diagonalization with overlap
     ethr =  1.00E-02,  avg # of iterations = 23.0

[...]

     iteration # 59     ecut=    29.40 Ry     beta= 0.05
     Davidson diagonalization with overlap
     c_bands:  1 eigenvalues not converged
     ethr =  3.09E-10,  avg # of iterations = 11.7

[...]

     total energy              =   -2973.99832855 Ry
     estimated scf accuracy    <       0.00000009 Ry

     iteration # 65     ecut=    29.40 Ry     beta= 0.05
     Davidson diagonalization with overlap
     ethr =  2.33E-11,  avg # of iterations =  7.8

     negative rho (up, down):  1.506E-02 0.000E+00

     Adding external electric field

     Computed dipole along edir(3) :
        Dipole                1.3496 Ry au,          3.4305 Debye
        Dipole field          0.0025 Ry au,

        Potential amp.       -0.2361 Ry
        Total length         46.3494 bohr

     End of self-consistent calculation

          k = 0.0000 0.0000 0.0000 ( 18029 PWs)   bands (ev):

   -55.4232 -55.3276 -55.2935 -55.1487 -55.1451 -55.1334 -55.1130 -55.1112
   -55.0843 -55.0556 -55.0342 -54.9574 -54.9545 -54.9106 -54.2912 -54.2572
   -31.8107 -31.7453 -31.6799 -31.6485 -31.6373 -31.6267 -31.6192 -31.5976
   -31.5725 -31.5715 -31.5675 -31.4829 -31.4799 -31.4327 -31.4190 -31.4049
   -31.3988 -31.3850 -31.3617 -31.3471 -31.3391 -31.3382 -31.3295 -31.3153
   -31.3032 -31.2913 -31.2787 -31.2759 -31.2746 -31.2632 -31.2598 -31.2496
   -31.2337 -31.2297 -31.2265 -31.1901 -31.1787 -31.1509 -31.1389 -31.1284
   -31.1166 -31.1122 -30.6967 -30.6116 -30.5891 -30.5143 -30.4280 -30.3162
   -19.6141 -16.1793 -15.9492 -15.7971 -15.6148 -15.4914 -15.4333 -15.2202
   -15.1525 -15.0815 -15.0007 -14.9358 -14.8587 -14.8443 -14.8189 -14.8037
   -14.7794 -14.7416 -14.7399 -14.7354 -14.6928 -14.6861 -14.6558 -14.6061
   -14.6007 -14.5786 -14.4567 -14.3829 -14.3368 -14.2028 -14.0824 -13.9531
   -12.7899 -12.6737 -10.1704  -7.0443  -6.6891  -4.2756  -4.0335  -3.6415
    -3.3299  -3.2531  -3.2227  -3.1816  -3.0576  -2.8765  -2.7588  -2.6856
    -2.5824  -2.4584  -2.4411  -2.3399  -2.3155  -2.2479  -2.2121  -2.1723
    -2.1519  -2.1284  -2.1056  -2.1020  -1.9900  -1.9855  -1.8605  -1.8429
    -1.7940  -1.7347  -1.6866  -1.6399  -1.6283  -1.6096  -1.5939  -1.5853
    -1.5546  -1.5408  -1.5173  -1.4651  -1.4044  -1.3569  -1.3199  -1.2066
    -1.0174  -0.9198  -0.8673  -0.8261  -0.7933  -0.7443  -0.7175  -0.7097
    -0.6797  -0.6414  -0.5086  -0.5009  -0.4547  -0.3789  -0.3392  -0.3183
    -0.1921  -0.1793  -0.1069  -0.0501  -0.0474  -0.0361   0.0582   0.1158
     0.1443   0.1734   0.2242   0.2809   0.3543   0.3831   0.4164   0.4758
     0.5369   0.5650   0.6246   0.6437   0.6553   0.7375   0.7584   0.7829
     0.8053   0.8764   0.9236   0.9595   0.9996   1.0885   1.1185   1.1676
     1.2048   1.3599   1.4146   1.6837   1.7350   1.7995   1.9289   2.3013
     2.3462   3.7743   3.9100   3.9294   3.9336   4.0310   4.1339   4.2471
     4.2956   4.3301   4.3764

[...]

          k = 0.0380-0.0419 0.0000 ( 17876 PWs)   bands (ev):

[...]

          k =-0.0760-0.0000 0.0000 ( 17886 PWs)   bands (ev):

[...]

          k =-0.0760-0.0839 0.0000 ( 17948 PWs)   bands (ev):

   -55.4225 -55.3108 -55.3102 -55.1339 -55.1339 -55.1307 -55.1290 -55.1239
   -55.0778 -55.0527 -55.0407 -54.9573 -54.9508 -54.9171 -54.2746 -54.2736
   -31.6790 -31.6718 -31.6283 -31.6261 -31.6259 -31.6049 -31.6044 -31.5452
   -31.5056 -31.4595 -31.4519 -31.4513 -31.4448 -31.4435 -31.4306 -31.4298
   -31.4203 -31.3983 -31.3775 -31.3686 -31.3576 -31.3427 -31.3417 -31.3303
   -31.3290 -31.3191 -31.3089 -31.3014 -31.2985 -31.2970 -31.2947 -31.2851
   -31.2732 -31.2627 -31.2575 -31.2495 -31.2204 -31.2094 -31.1825 -31.1595
   -31.1436 -31.1170 -30.6021 -30.6015 -30.5102 -30.5091 -30.4715 -30.4708
   -19.6122 -16.1418 -15.4852 -15.4164 -15.2678 -15.2586 -15.1875 -15.1462
   -15.1398 -15.0886 -15.0822 -15.0141 -14.9894 -14.9809 -14.9409 -14.8899
   -14.8398 -14.8099 -14.8043 -14.7562 -14.7462 -14.7347 -14.6983 -14.6785
   -14.6298 -14.6262 -14.6108 -14.5314 -14.4760 -14.3175 -14.3024 -13.9660
   -12.7759 -12.7753 -10.1736  -7.0405  -6.6861  -4.2659  -4.0217  -3.5944
    -2.6919  -2.6869  -2.6254  -2.4709  -2.4266  -2.3264  -2.3154  -2.2566
    -2.2428  -2.1947  -2.1743  -2.1627  -2.1263  -2.1064  -2.1032  -2.0762
    -2.0566  -2.0462  -2.0205  -1.9845  -1.9822  -1.9522  -1.9437  -1.9268
    -1.9065  -1.8852  -1.8656  -1.8602  -1.8086  -1.7749  -1.6177  -1.5982
    -1.4602  -1.4576  -1.4434  -1.4220  -1.3886  -1.3769  -1.3377  -1.3037
    -1.2335  -1.1903  -1.0957  -1.0606  -0.9538  -0.9255  -0.8552  -0.8072
    -0.7681  -0.7451  -0.7345  -0.7044  -0.6315  -0.5563  -0.5105  -0.4699
    -0.3700  -0.2942  -0.2698  -0.2655  -0.2581  -0.2251  -0.1548  -0.1534
    -0.1123  -0.0961  -0.0140  -0.0035   0.0105   0.0298   0.1641   0.1949
     0.2927   0.3569   0.4068   0.4608   0.4933   0.5437   0.6580   0.7890
     0.8417   0.8670   0.8807   0.9426   0.9909   1.0060   1.0529   1.1253
     1.1961   1.2452   1.2648   1.2883   1.3394   2.0980   2.1067   2.1663
     2.1667   4.0370   4.1379   4.2527   4.2872   4.3029   4.3222   4.3395
     4.3645   4.4084   4.4507

     the Fermi energy is     3.7997 ev

!    total energy              =   -2973.99836137 Ry
     estimated scf accuracy    <       0.00000005 Ry
     smearing contrib. (-TS)   =      -0.02052678 Ry
     internal energy E=F+TS    =   -2973.97783459 Ry

     The total energy is F=E-TS. E is the sum of the following terms:
     one-electron contribution =  -23635.52771938 Ry
     hartree contribution      =   11914.66954501 Ry
     xc contribution           =    -494.12410045 Ry
     ewald contribution        =    9241.00100274 Ry
     electric field correction =       0.00343749 Ry

     convergence has been achieved in  65 iterations

     Forces acting on atoms (cartesian axes, Ry/au):

     atom    1 type  1   force =    -0.00005946   -0.00028693    0.09521610
     atom    2 type  1   force =    -0.00011019    0.00043034   -0.17494088
     atom    3 type  2   force =     0.00000837   -0.00027974   -0.02253877
     atom    4 type  2   force =     0.00005302   -0.00195422    0.05326937
     atom    5 type  2   force =    -0.00764314   -0.00251202    0.00194996
     atom    6 type  2   force =     0.00923608   -0.00207136    0.00147172
     atom    7 type  1   force =    -0.00022563   -0.00467854    0.00732179
     atom    8 type  1   force =     0.00013943    0.00535446    0.01281527
     atom    9 type  2   force =    -0.00010762   -0.00002496    0.00020415
     atom   10 type  2   force =    -0.00275516    0.00061520   -0.01380638
     atom   11 type  2   force =    -0.00015629    0.00022449   -0.00001170
     atom   12 type  2   force =     0.00014692   -0.00003386    0.00024344
     atom   13 type  1   force =     0.00025147    0.00018857    0.00031098
     atom   14 type  1   force =     0.00002180   -0.00001650    0.00019991
     atom   15 type  2   force =     0.00036543   -0.00003077    0.00009594
     atom   16 type  2   force =    -0.00036986   -0.00007382    0.00004492
     atom   17 type  2   force =     0.00029521   -0.00025774   -0.00002868
     atom   18 type  2   force =     0.00006408    0.00004177    0.00023360
     atom   19 type  1   force =     0.00027676   -0.00002925   -0.00005116
     atom   20 type  1   force =     0.00012500   -0.00014311   -0.00007702
     atom   21 type  2   force =     0.00005665    0.00003643    0.10301635
     atom   22 type  2   force =     0.00006711    0.00012403   -0.00014621
     atom   23 type  2   force =    -0.07220333   -0.00020266   -0.02752158
     atom   24 type  2   force =     0.07210805    0.00021123   -0.02758835
     atom   25 type  1   force =     0.00010796   -0.00024859    0.09495179
     atom   26 type  1   force =    -0.00023010   -0.00136759   -0.17516072
     atom   27 type  2   force =     0.00015864   -0.00013822   -0.02138077
     atom   28 type  2   force =     0.00004902   -0.00025673    0.04861268
     atom   29 type  2   force =    -0.00690581    0.00262215    0.00144200
     atom   30 type  2   force =     0.00848939    0.00314341    0.00086754
     atom   31 type  1   force =    -0.00009998    0.00788275   -0.00301267
     atom   32 type  1   force =     0.00038601   -0.00772351    0.01220483
     atom   33 type  2   force =     0.00008340   -0.00004107   -0.00014933
     atom   34 type  2   force =    -0.00196001    0.00048548   -0.01637471
     atom   35 type  2   force =    -0.00013011    0.00002480   -0.00000021
     atom   36 type  2   force =    -0.00004926    0.00031615   -0.00000944
     atom   37 type  1   force =    -0.00013917    0.00018039    0.00004072
     atom   38 type  1   force =    -0.00009351    0.00005485    0.00016134
     atom   39 type  2   force =    -0.00005356   -0.00029611    0.00000716
     atom   40 type  2   force =     0.00012110   -0.00000313    0.00019631
     atom   41 type  2   force =     0.00007963   -0.00011809   -0.00004496
     atom   42 type  2   force =     0.00024333   -0.00014123   -0.00006188
     atom   43 type  1   force =    -0.00023216   -0.00000265   -0.00025948
     atom   44 type  1   force =     0.00024949   -0.00004670   -0.00005743
     atom   45 type  2   force =     0.00008737   -0.00014121    0.10280507
     atom   46 type  2   force =    -0.07219411   -0.00009229   -0.02756949
     atom   47 type  2   force =     0.07212260    0.00036286   -0.02759787
     atom   48 type  3   force =    -0.00002477    0.00011875    0.00001672
     atom   49 type  3   force =     0.00062211    0.00016308    0.00004483
     atom   50 type  4   force =    -0.01007137    0.00417213   -0.00418265
     atom   51 type  5   force =     0.01021968   -0.00376733    0.00477013
     atom   52 type  5   force =    -0.00085281   -0.00005483   -0.00017657
     atom   53 type  5   force =     0.00053919   -0.00005579   -0.00011706
     atom   54 type  5   force =     0.00007879    0.00009529   -0.00000521
     atom   55 type  2   force =    -0.00059232   -0.00011672    0.00018862
     atom   56 type  5   force =     0.00040664    0.00035870    0.00016795

     Total force =     0.363578     Total SCF correction =     0.000547
  @ DRIVER MODE: Message from server: STATUS
  @ DRIVER MODE: Message from server: GETFORCE
  @ DRIVER MODE: Returning v,forces,stress,ensemble

     Writing output data file ./calc.save/
  @ DRIVER MODE: Message from server: EXIT
  @ DRIVE MODE: Exiting

     General routines

     Parallel routines

   This run was terminated on:  16:39: 2  26Sep2021

   JOB DONE.