     Program PWSCF v.6.7GPU starts on 16Sep2021 at 15:28:49

     R & G space division:  proc/nbgrp/npool/nimage =      10
     Reading input from /storage/home/hcoda1/3/ntian30/research/carbon/CxH_vib/H2O_calc/ads_slab/CH3NNH3H2O_a/out_0067/pw.inp
Warning: card &CELL ignored
Warning: card   CELL_DYNAMICS='IPI', ignored
Warning: card / ignored

     Current dimensions of program PWSCF are:
     Max number of different atomic species (ntypx) = 10
     Max number of k-points (npk) =  40000
     Max angular momentum in pseudopotentials (lmaxx) =  3
     Presently no symmetry can be used with electric field

     Message from routine cell_base_init:
     DEPRECATED: use true lattice parameter, not A to a.u. conversion factor

     IMPORTANT: XC functional enforced from input :
     Exchange-correlation= BEEF-VDW
                           (   1   4  43  14   2   0   0)
     Any further DFT definition will be discarded
     Please, verify this is what you really want

  @ DRIVER MODE: Connecting to
 qe_1139763_2852621.sched-torque.pace.gatech.edusxnqrc44_scratch
  using UNIX socket
  @ DRIVER MODE: Message from server: STATUS
  @ DRIVER MODE: Message from server: INIT
  @ DRIVER MODE: Receiving replica           0          -1
  @ DRIVER MODE: Receiving encoded integer          25
  @ DRIVER MODE:  SCF:  T  FORCE:  T  STRESS:  F  VC:  F  ENSEMBLE:  F
  @ DRIVER MODE:  SCF:  T  FORCE:  T  STRESS:  F  VC:  F  ENSEMBLE:  F

     Using Slab Decomposition

     bravais-lattice index     =            0
     lattice parameter (alat)  =       1.8897  a.u.
     unit-cell volume          =    6658.9804 (a.u.)^3
     number of atoms/cell      =           59
     number of atomic types    =            5
     number of electrons       =       406.00
     number of Kohn-Sham states=          213
     kinetic-energy cutoff     =      29.3995  Ry
     charge density cutoff     =     293.9946  Ry
     scf convergence threshold =      7.3E-08
     mixing beta               =       0.0500
     number of iterations used =            8  plain     mixing
     Exchange-correlation= BEEF-VDW
                           (   1   4  43  14   2   0   0)

     celldm(1)=   1.889726  celldm(2)=   0.000000  celldm(3)=   0.000000
     celldm(4)=   0.000000  celldm(5)=   0.000000  celldm(6)=   0.000000

     crystal axes: (cart. coord. in units of alat)
               a(1) = (   6.579727   0.000000   0.000000 )
               a(2) = (  -0.000775   5.961596   0.000000 )
               a(3) = (   0.000000   0.000000  25.155947 )

     reciprocal axes: (cart. coord. in units 2 pi/alat)
               b(1) = (  0.151982  0.000020  0.000000 )
               b(2) = (  0.000000  0.167740  0.000000 )
               b(3) = (  0.000000  0.000000  0.039752 )

     PseudoPot. # 1 for Ti read from file:
     /storage/coda1/p-amedford6/0/shared/rich_project_chbe-medford/medford-share/data/pseudos_module/espresso/nninc/pbe/van/Ti.UPF
     MD5 check sum: 8e4df49b7f0d34bbd5052bf3f5ea0213
     Pseudo is Ultrasoft, Zval = 12.0
     Generated by new atomic code, or converted to UPF format
     Using radial grid of  851 points,  6 beta functions with:
                l(1) =   0
                l(2) =   0
                l(3) =   1
                l(4) =   1
                l(5) =   2
                l(6) =   2
     Q(r) pseudized with  8 coefficients,  rinner =    1.000   1.000   1.000
                                                       1.000   1.000

     PseudoPot. # 2 for O  read from file:
     /storage/coda1/p-amedford6/0/shared/rich_project_chbe-medford/medford-share/data/pseudos_module/espresso/nninc/pbe/van/O.UPF
     MD5 check sum: 78c19812648e8988a0fe644b0f25305e
     Pseudo is Ultrasoft, Zval =  6.0
     Generated by new atomic code, or converted to UPF format
     Using radial grid of  737 points,  4 beta functions with:
                l(1) =   0
                l(2) =   0
                l(3) =   1
                l(4) =   1
     Q(r) pseudized with  8 coefficients,  rinner =    0.800   0.800   0.800

     PseudoPot. # 3 for N  read from file:
     /storage/coda1/p-amedford6/0/shared/rich_project_chbe-medford/medford-share/data/pseudos_module/espresso/nninc/pbe/van/N.UPF
     MD5 check sum: 90d10febe142ad51ac9d5be1deb811c4
     Pseudo is Ultrasoft, Zval =  5.0
     Generated by new atomic code, or converted to UPF format
     Using radial grid of  729 points,  4 beta functions with:
                l(1) =   0
                l(2) =   0
                l(3) =   1
                l(4) =   1
     Q(r) pseudized with  8 coefficients,  rinner =    0.800   0.800   0.800

     PseudoPot. # 4 for C  read from file:
     /storage/coda1/p-amedford6/0/shared/rich_project_chbe-medford/medford-share/data/pseudos_module/espresso/nninc/pbe/van/C.UPF
     MD5 check sum: 1a69bf6b8db32088f5b2163dbdb77a27
     Pseudo is Ultrasoft, Zval =  4.0
     Generated by new atomic code, or converted to UPF format
     Using radial grid of  721 points,  4 beta functions with:
                l(1) =   0
                l(2) =   0
                l(3) =   1
                l(4) =   1
     Q(r) pseudized with  8 coefficients,  rinner =    0.800   0.800   0.800

     PseudoPot. # 5 for H  read from file:
     /storage/coda1/p-amedford6/0/shared/rich_project_chbe-medford/medford-share/data/pseudos_module/espresso/nninc/pbe/van/H.UPF
     MD5 check sum: b5ee9d7bfd3a09ee7748110bda690ff7
     Pseudo is Ultrasoft, Zval =  1.0
     Generated by new atomic code, or converted to UPF format
     Using radial grid of  615 points,  1 beta functions with:
                l(1) =   0
     Q(r) pseudized with  8 coefficients,  rinner =    0.800

     atomic species   valence    mass     pseudopotential
        Ti1           12.00    47.86700     Ti( 1.00)
        O1             6.00    15.99900     O ( 1.00)
        N1             5.00    14.00700     N ( 1.00)
        C1             4.00    12.01100     C ( 1.00)
        H1             1.00     1.00800     H ( 1.00)

     No symmetry found

   Cartesian axes

     site n.     atom                  positions (alat units)
         1           Ti1 tau(   1) = (   0.0004258   2.9801865   6.0000000  )
         2           Ti1 tau(   2) = (   3.2906075   1.4906267   6.0002472  )
         3           O1  tau(   3) = (   0.0006271   0.0005054   7.9858123  )
         4           O1  tau(   4) = (   3.2906025   0.0005020   7.3038282  )
         5           O1  tau(   5) = (   4.5942328   1.4918067   9.2879030  )
         6           O1  tau(   6) = (   1.9868534   1.4903216   9.2879459  )
         7           Ti1 tau(   7) = (   3.2907910   2.8959150   9.1758416  )
         8           Ti1 tau(   8) = (   0.0015273   1.4827037   9.2680791  )
         9           O1  tau(   9) = (   3.2954490   0.0159868  11.2922163  )
        10           O1  tau(  10) = (   0.0116148   5.9584955  10.6183126  )
        11           O1  tau(  11) = (   1.3242731   1.5050266  12.6143764  )
        12           O1  tau(  12) = (   5.3073597   1.5103589  12.6267567  )
        13           Ti1 tau(  13) = (   6.4831477   3.0011104  12.7364612  )
        14           Ti1 tau(  14) = (   3.1751638   1.4975352  12.4748964  )
        15           O1  tau(  15) = (   0.0212859   5.9607631  14.5987152  )
        16           O1  tau(  16) = (   3.3058086   0.0238703  13.8910224  )
        17           O1  tau(  17) = (   4.5539421   1.5574750  15.9960573  )
        18           O1  tau(  18) = (   2.0731809   1.5597727  15.9888445  )
        19           Ti1 tau(  19) = (   3.3176354   3.0289328  15.6523405  )
        20           Ti1 tau(  20) = (   0.0198791   1.6227889  16.0606591  )
        21           O1  tau(  21) = (   3.2904802   0.0005063   4.7018136  )
        22           O1  tau(  22) = (   0.0290054   0.0533443  17.2129705  )
        23           O1  tau(  23) = (   1.3043587   1.4918075   6.0039043  )
        24           O1  tau(  24) = (   5.2767064   1.4903225   6.0039473  )
        25           Ti1 tau(  25) = (   0.0000382   5.9609847   6.0000000  )
        26           Ti1 tau(  26) = (   3.2902200   4.4714249   6.0002472  )
        27           O1  tau(  27) = (   0.0002396   2.9813036   7.9858123  )
        28           O1  tau(  28) = (   3.2902150   2.9813002   7.3038282  )
        29           O1  tau(  29) = (   4.5938453   4.4726049   9.2879030  )
        30           O1  tau(  30) = (   1.9864658   4.4711199   9.2879459  )
        31           Ti1 tau(  31) = (   3.2891106   5.8743827   9.1763621  )
        32           Ti1 tau(  32) = (   0.0006254   4.4649316   9.2693709  )
        33           O1  tau(  33) = (   3.2918316   2.9938763  11.2915017  )
        34           O1  tau(  34) = (   0.0092240   2.9805883  10.6323155  )
        35           O1  tau(  35) = (   1.3226278   4.4784642  12.6110361  )
        36           O1  tau(  36) = (   5.3078083   4.4770455  12.6250823  )
        37           Ti1 tau(  37) = (   6.5141033   0.0190828  12.7620745  )
        38           Ti1 tau(  38) = (   3.1722404   4.4939287  12.4712879  )
        39           O1  tau(  39) = (   0.0035410   2.9850241  14.6487316  )
        40           O1  tau(  40) = (   3.3118331   3.0109266  13.8519036  )
        41           O1  tau(  41) = (   4.5522870   4.5059159  16.0259181  )
        42           O1  tau(  42) = (   2.0778134   4.5048723  16.0185459  )
        43           Ti1 tau(  43) = (   3.3116469   0.0596163  15.7453941  )
        44           Ti1 tau(  44) = (   0.0183239   4.5967015  16.1059876  )
        45           O1  tau(  45) = (   3.2900926   2.9813045   4.7018136  )
        46           O1  tau(  46) = (   1.3039711   4.4726057   6.0039043  )
        47           O1  tau(  47) = (   5.2763189   4.4711207   6.0039473  )
        48           N1  tau(  48) = (   0.0600715   3.0265251  17.3188267  )
        49           N1  tau(  49) = (   6.2826239   2.5295367  22.6224490  )
        50           C1  tau(  50) = (   0.2859397   3.0149959  18.7399364  )
        51           H1  tau(  51) = (   0.1411154   4.0060466  19.1894648  )
        52           H1  tau(  52) = (   6.1913215   2.3105648  19.2421896  )
        53           H1  tau(  53) = (   1.3125146   2.6868920  18.9691123  )
        54           H1  tau(  54) = (   6.1000088   3.2491606  23.3142794  )
        55           H1  tau(  55) = (   0.1456284   1.7586669  23.1118534  )
        56           H1  tau(  56) = (   0.3974265   2.9048463  21.9856970  )
        57           O1  tau(  57) = (   3.2908421   0.1144680  18.1630233  )
        58           H1  tau(  58) = (   4.0679411   5.5688996  18.4486002  )
        59           H1  tau(  59) = (   2.4960966   5.5711546  18.4327789  )

     number of k points=    10  Fermi-Dirac smearing, width (Ry)=  0.0073
                       cart. coord. in units 2pi/alat
        k(    1) = (   0.0000000   0.0000000   0.0000000), wk =   0.1250000
        k(    2) = (   0.0000000   0.0419351   0.0000000), wk =   0.2500000
        k(    3) = (   0.0000000  -0.0838702   0.0000000), wk =   0.1250000
        k(    4) = (   0.0379955   0.0000049   0.0000000), wk =   0.2500000
        k(    5) = (   0.0379955   0.0419400   0.0000000), wk =   0.2500000
        k(    6) = (   0.0379955  -0.0838652   0.0000000), wk =   0.2500000
        k(    7) = (   0.0379955  -0.0419301   0.0000000), wk =   0.2500000
        k(    8) = (  -0.0759910  -0.0000099   0.0000000), wk =   0.1250000
        k(    9) = (  -0.0759910   0.0419252   0.0000000), wk =   0.2500000
        k(   10) = (  -0.0759910  -0.0838800   0.0000000), wk =   0.1250000

     Initial potential from superposition of free atoms

     starting charge  389.99912, renormalised to  406.00000

     negative rho (up, down):  6.917E-03 0.000E+00

     %%%%%%%%%%%%%%%%%%%%%%%%%%%%%%%%%%%%%%%%%%%%%%%%%%%%%%%%%%%%%%%%%%%%%%%%
     %                                                                      %
     % You are using vdW-DF, which was implemented by the Thonhauser group. %
     % Please cite the following two papers that made this development      %
     % possible and the two reviews that describe the various versions:     %
     %                                                                      %
     %   T. Thonhauser et al., PRL 115, 136402 (2015).                      %
     %   T. Thonhauser et al., PRB 76, 125112 (2007).                       %
     %   K. Berland et al., Rep. Prog. Phys. 78, 066501 (2015).             %
     %   D.C. Langreth et al., J. Phys.: Condens. Matter 21, 084203 (2009). %
     %                                                                      %
     %                                                                      %
     % If you are calculating the stress with vdW-DF, please also cite:     %
     %                                                                      %
     %   R. Sabatini et al., J. Phys.: Condens. Matter 24, 424209 (2012).   %
     %                                                                      %
     %%%%%%%%%%%%%%%%%%%%%%%%%%%%%%%%%%%%%%%%%%%%%%%%%%%%%%%%%%%%%%%%%%%%%%%%

     Adding external electric field

     Computed dipole along edir(3) :
        Dipole              -16.2336 Ry au,        -41.2616 Debye
        Dipole field         -0.0306 Ry au,

        Potential amp.        2.8398 Ry
        Total length         46.3494 bohr

     Starting wfcs are  308 atomic wfcs
  @ DRIVER MODE: Message from server: STATUS
  @ DRIVER MODE: Message from server: POSDATA
  @ DRIVER MODE: Reading and sharing cell
  @ DRIVER MODE: Reading and sharing positions
  @ DRIVER MODE: Received positions

     Self-consistent Calculation

     iteration #  1     ecut=    29.40 Ry     beta= 0.05
     Davidson diagonalization with overlap
     c_bands:  2 eigenvalues not converged
     c_bands:  2 eigenvalues not converged
     c_bands:  5 eigenvalues not converged
     c_bands:  3 eigenvalues not converged
     c_bands:  3 eigenvalues not converged
     c_bands:  3 eigenvalues not converged
     c_bands:  1 eigenvalues not converged
     c_bands:  3 eigenvalues not converged
     ethr =  1.00E-05,  avg # of iterations = 21.1

[...]

     total energy              =   -2252.64323170 Ry
     estimated scf accuracy    <    8271.77428544 Ry

     iteration #  2     ecut=    29.40 Ry     beta= 0.05
     Davidson diagonalization with overlap
     ethr =  1.00E-02,  avg # of iterations = 24.7

[...]

     iteration # 47     ecut=    29.40 Ry     beta= 0.05
     Davidson diagonalization with overlap
     c_bands:  1 eigenvalues not converged
     ethr =  2.69E-07,  avg # of iterations = 14.5

[...]

     total energy              =   -2977.74429218 Ry
     estimated scf accuracy    <       0.00000011 Ry

     iteration # 74     ecut=    29.40 Ry     beta= 0.05
     Davidson diagonalization with overlap
     ethr =  2.72E-11,  avg # of iterations =  5.0

     negative rho (up, down):  8.781E-03 0.000E+00

     Adding external electric field

     Computed dipole along edir(3) :
        Dipole                0.7635 Ry au,          1.9405 Debye
        Dipole field          0.0014 Ry au,

        Potential amp.       -0.1336 Ry
        Total length         46.3494 bohr

     End of self-consistent calculation

          k = 0.0000 0.0000 0.0000 ( 18029 PWs)   bands (ev):

   -56.2625 -56.2289 -55.3796 -55.3456 -55.3374 -55.3024 -55.1545 -55.1192
   -55.0318 -54.9121 -54.8939 -54.8919 -54.8782 -54.8074 -54.3919 -54.3421
   -32.6892 -32.5369 -32.5087 -32.4388 -32.3479 -32.3154 -31.8474 -31.8196
   -31.6899 -31.6454 -31.5966 -31.5787 -31.5485 -31.5394 -31.5103 -31.5054
   -31.4868 -31.4804 -31.4576 -31.4438 -31.4304 -31.3812 -31.3710 -31.3322
   -31.3198 -31.3030 -31.2935 -31.2808 -31.2563 -31.2553 -31.2517 -31.2275
   -31.1327 -31.1221 -31.0818 -31.0718 -31.0438 -31.0389 -31.0302 -31.0116
   -30.9809 -30.9280 -30.9066 -30.6355 -30.6132 -30.5821 -30.5611 -30.4524
   -18.3928 -16.4183 -15.9520 -15.7086 -15.6192 -15.5358 -15.4972 -15.4531
   -15.3006 -15.2335 -15.2110 -15.2104 -15.1397 -14.9915 -14.9445 -14.8465
   -14.7527 -14.6179 -14.6008 -14.5677 -14.5495 -14.5169 -14.5101 -14.4578
   -14.2950 -14.2591 -14.2111 -14.1476 -14.0628 -14.0388 -13.8386 -13.4104
   -13.3007 -12.6447  -7.4507  -6.2098  -4.1050  -4.0845  -3.9856  -3.4517
    -3.1817  -3.1548  -3.0260  -3.0211  -2.9754  -2.8350  -2.8227  -2.7547
    -2.7310  -2.6839  -2.6176  -2.5847  -2.5317  -2.4453  -2.4335  -2.4133
    -2.4003  -2.3837  -2.2627  -2.2207  -2.1683  -2.0652  -1.9570  -1.9141
    -1.8870  -1.8432  -1.8051  -1.7580  -1.7453  -1.7309  -1.7245  -1.6121
    -1.4991  -1.4660  -1.4512  -1.4050  -1.3865  -1.3780  -1.3558  -1.2711
    -1.1596  -1.0674  -1.0000  -0.9871  -0.9208  -0.9130  -0.8533  -0.7357
    -0.6767  -0.6717  -0.6565  -0.5531  -0.5264  -0.4549  -0.3920  -0.3342
    -0.2795  -0.2168  -0.1667  -0.1441  -0.1311  -0.0321   0.0395   0.0629
     0.1140   0.1234   0.1347   0.1531   0.2498   0.2855   0.3593   0.4041
     0.4400   0.4848   0.5670   0.6174   0.6852   0.7351   0.7579   0.8197
     0.8729   0.9284   1.0237   1.0739   1.0782   1.0866   1.1096   1.1697
     1.1835   1.2597   1.3426   1.3581   1.4301   1.4989   1.6596   1.6987
     1.9483   2.0201   2.6464   3.0147   3.1760   3.4712   3.6610   3.7985
     3.9939   4.0043   4.0114   4.2377   4.2612

[...]

          k = 0.0380-0.0419 0.0000 ( 17876 PWs)   bands (ev):

[...]

          k =-0.0760-0.0000 0.0000 ( 17886 PWs)   bands (ev):

[...]

          k =-0.0760-0.0839 0.0000 ( 17948 PWs)   bands (ev):

   -56.2459 -56.2454 -55.3646 -55.3602 -55.3248 -55.3151 -55.1379 -55.1356
   -55.0296 -54.8952 -54.8950 -54.8940 -54.8902 -54.8109 -54.3848 -54.3491
   -32.5228 -32.5224 -32.5062 -32.5060 -32.3920 -32.3916 -31.6710 -31.6652
   -31.6554 -31.6480 -31.5716 -31.5566 -31.5546 -31.5503 -31.5440 -31.5425
   -31.5368 -31.5281 -31.4960 -31.4795 -31.3834 -31.3813 -31.3478 -31.3420
   -31.3222 -31.2858 -31.2479 -31.2405 -31.2404 -31.2392 -31.2153 -31.1929
   -31.1504 -31.1199 -31.1197 -31.1163 -31.0931 -31.0808 -31.0807 -31.0661
   -31.0491 -31.0137 -30.7673 -30.7045 -30.6110 -30.5868 -30.5690 -30.5228
   -18.3919 -15.7689 -15.7669 -15.7317 -15.7310 -15.4640 -15.4607 -15.3672
   -15.3619 -15.2273 -15.1104 -15.0090 -14.9962 -14.9606 -14.9334 -14.8214
   -14.8007 -14.7916 -14.7814 -14.6695 -14.6494 -14.6043 -14.5932 -14.5767
   -14.5666 -14.2730 -14.2598 -14.1569 -14.1332 -14.0381 -13.9920 -13.4043
   -13.4043 -12.6633  -7.4444  -6.2021  -4.1149  -4.0862  -2.8631  -2.8582
    -2.8067  -2.8036  -2.8028  -2.7449  -2.6382  -2.5987  -2.5970  -2.5955
    -2.5090  -2.4470  -2.4392  -2.3679  -2.3350  -2.3155  -2.2562  -2.2469
    -2.1814  -2.1552  -2.1468  -2.1304  -2.1069  -2.1056  -2.0094  -1.9468
    -1.8949  -1.8915  -1.8242  -1.8052  -1.7419  -1.7212  -1.7096  -1.6774
    -1.6364  -1.6133  -1.5805  -1.5480  -1.5069  -1.4473  -1.2805  -1.2716
    -1.2622  -1.2406  -1.1151  -1.1075  -1.0776  -1.0475  -1.0416  -0.9677
    -0.9168  -0.8829  -0.8228  -0.7420  -0.7193  -0.6177  -0.5667  -0.5204
    -0.4630  -0.3582  -0.3406  -0.3291  -0.3202  -0.2908  -0.2241  -0.1946
    -0.1789  -0.0586  -0.0391   0.0143   0.0352   0.0918   0.1176   0.1836
     0.2091   0.2807   0.2926   0.3317   0.4055   0.4867   0.5206   0.5691
     0.5738   0.8500   0.9238   1.0543   1.0647   1.1218   1.1801   1.2519
     1.3115   1.3436   1.3706   1.4939   1.4982   1.5074   1.5079   1.5793
     1.5843   1.9259   2.5237   3.5906   3.5909   3.6574   3.6581   3.9788
     3.9851   4.0920   4.1023   4.2634   4.2790

     the Fermi energy is     2.8426 ev

!    total energy              =   -2977.74430441 Ry
     estimated scf accuracy    <       0.00000001 Ry
     smearing contrib. (-TS)   =      -0.00445370 Ry
     internal energy E=F+TS    =   -2977.73985071 Ry

     The total energy is F=E-TS. E is the sum of the following terms:
     one-electron contribution =  -22875.86966109 Ry
     hartree contribution      =   11535.64626335 Ry
     xc contribution           =    -496.31936788 Ry
     ewald contribution        =    8858.80181496 Ry
     electric field correction =       0.00109994 Ry

     convergence has been achieved in  74 iterations

     Forces acting on atoms (cartesian axes, Ry/au):

     atom    1 type  1   force =    -0.00003559   -0.00046548    0.12450757
     atom    2 type  1   force =    -0.00008860   -0.00048479   -0.15980664
     atom    3 type  2   force =     0.00019079   -0.00024303   -0.06791209
     atom    4 type  2   force =    -0.00000686   -0.00011676    0.02621282
     atom    5 type  2   force =    -0.01448465    0.00182090   -0.00990913
     atom    6 type  2   force =     0.01626325    0.00224478   -0.01025427
     atom    7 type  1   force =     0.00071344   -0.00387641    0.02888745
     atom    8 type  1   force =    -0.00034665   -0.00440179    0.10953559
     atom    9 type  2   force =     0.00023815   -0.00029223   -0.00051834
     atom   10 type  2   force =    -0.00231588    0.00256523   -0.07335206
     atom   11 type  2   force =    -0.00003507   -0.00033715   -0.00000043
     atom   12 type  2   force =    -0.00013873   -0.00082566    0.00002208
     atom   13 type  1   force =     0.00106411   -0.00040703    0.00011007
     atom   14 type  1   force =    -0.00064849    0.00064346   -0.00008785
     atom   15 type  2   force =    -0.00029085   -0.00039624   -0.00072255
     atom   16 type  2   force =    -0.00001582   -0.00011195    0.00063487
     atom   17 type  2   force =     0.00018936   -0.00090855   -0.00022119
     atom   18 type  2   force =     0.00046334   -0.00052580    0.00012459
     atom   19 type  1   force =    -0.00112157   -0.00007702   -0.00089918
     atom   20 type  1   force =     0.00079336   -0.00007234   -0.00050540
     atom   21 type  2   force =     0.00004629   -0.00003737    0.09945116
     atom   22 type  2   force =     0.00010480   -0.00023842   -0.00026183
     atom   23 type  2   force =    -0.07967616   -0.00005805   -0.03249866
     atom   24 type  2   force =     0.07951951    0.00038092   -0.03254907
     atom   25 type  1   force =    -0.00000577   -0.00057379    0.12416162
     atom   26 type  1   force =    -0.00008649   -0.00062538   -0.15995680
     atom   27 type  2   force =     0.00030027   -0.00036237   -0.06696431
     atom   28 type  2   force =    -0.00002031    0.00015093    0.02513138
     atom   29 type  2   force =    -0.01510733    0.00193011   -0.00984606
     atom   30 type  2   force =     0.01678412    0.00242997   -0.01016045
     atom   31 type  1   force =     0.00074226   -0.00075558    0.02406084
     atom   32 type  1   force =    -0.00027684    0.00204901    0.11015826
     atom   33 type  2   force =     0.00007720    0.00029260    0.00058001
     atom   34 type  2   force =    -0.00193814    0.00199970   -0.07166719
     atom   35 type  2   force =    -0.00002893    0.00034467   -0.00001496
     atom   36 type  2   force =    -0.00051742    0.00060958   -0.00005411
     atom   37 type  1   force =     0.00120693    0.00043252    0.00028674
     atom   38 type  1   force =    -0.00054348   -0.00087908   -0.00020524
     atom   39 type  2   force =    -0.00027382   -0.00015475    0.00091572
     atom   40 type  2   force =     0.00017974   -0.00013021    0.00024392
     atom   41 type  2   force =     0.00106734    0.00014913    0.00012800
     atom   42 type  2   force =    -0.00056103   -0.00025085    0.00049817
     atom   43 type  1   force =    -0.00155741   -0.00001307   -0.00009282
     atom   44 type  1   force =     0.00087555   -0.00022646   -0.00048251
     atom   45 type  2   force =     0.00002109   -0.00004757    0.09941338
     atom   46 type  2   force =    -0.07969170    0.00000449   -0.03251161
     atom   47 type  2   force =     0.07954374    0.00043884   -0.03253840
     atom   48 type  3   force =    -0.00086391   -0.00075871   -0.00044254
     atom   49 type  3   force =    -0.00033974   -0.00048682    0.00130759
     atom   50 type  4   force =    -0.00023026   -0.00013260    0.00003481
     atom   51 type  5   force =    -0.00022850    0.00038181    0.00029490
     atom   52 type  5   force =    -0.00007457   -0.00052353    0.00073681
     atom   53 type  5   force =     0.00051432   -0.00014215    0.00020369
     atom   54 type  5   force =     0.00006405   -0.00023626   -0.00059819
     atom   55 type  5   force =     0.00003050    0.00031842   -0.00029646
     atom   56 type  5   force =     0.00028858    0.00036292   -0.00181808
     atom   57 type  2   force =    -0.01086717   -0.00656513    0.00279795
     atom   58 type  5   force =    -0.00143988   -0.00001248    0.00053389
     atom   59 type  5   force =     0.01257549    0.00720287   -0.00382546

     Total force =     0.423990     Total SCF correction =     0.000328
  @ DRIVER MODE: Message from server: STATUS
  @ DRIVER MODE: Message from server: GETFORCE
  @ DRIVER MODE: Returning v,forces,stress,ensemble

     Writing output data file ./calc.save/
  @ DRIVER MODE: Message from server: EXIT
  @ DRIVE MODE: Exiting

     General routines

     Parallel routines

   This run was terminated on:  15:49:15  16Sep2021

   JOB DONE.