     Program PWSCF v.6.7GPU starts on 23Sep2021 at  3:47:39

     R & G space division:  proc/nbgrp/npool/nimage =      10
     Reading input from /storage/home/hcoda1/3/ntian30/research/carbon/CxH_vib/H2O_calc/ads_slab/CH2NHNHH2O_b/out_0033/pw.inp
Warning: card &CELL ignored
Warning: card   CELL_DYNAMICS='IPI', ignored
Warning: card / ignored

     Current dimensions of program PWSCF are:
     Max number of different atomic species (ntypx) = 10
     Max number of k-points (npk) =  40000
     Max angular momentum in pseudopotentials (lmaxx) =  3
     Presently no symmetry can be used with electric field

     Message from routine cell_base_init:
     DEPRECATED: use true lattice parameter, not A to a.u. conversion factor

     IMPORTANT: XC functional enforced from input :
     Exchange-correlation= BEEF-VDW
                           (   1   4  43  14   2   0   0)
     Any further DFT definition will be discarded
     Please, verify this is what you really want

  @ DRIVER MODE: Connecting to
 qe_1139763_2937310.sched-torque.pace.gatech.eduf55z65pu_scratch
  using UNIX socket
  @ DRIVER MODE: Message from server: STATUS
  @ DRIVER MODE: Message from server: INIT
  @ DRIVER MODE: Receiving replica           0          -1
  @ DRIVER MODE: Receiving encoded integer          25
  @ DRIVER MODE:  SCF:  T  FORCE:  T  STRESS:  F  VC:  F  ENSEMBLE:  F
  @ DRIVER MODE:  SCF:  T  FORCE:  T  STRESS:  F  VC:  F  ENSEMBLE:  F

     Using Slab Decomposition

     bravais-lattice index     =            0
     lattice parameter (alat)  =       1.8897  a.u.
     unit-cell volume          =    6658.9804 (a.u.)^3
     number of atoms/cell      =           57
     number of atomic types    =            5
     number of electrons       =       404.00
     number of Kohn-Sham states=          212
     kinetic-energy cutoff     =      29.3995  Ry
     charge density cutoff     =     293.9946  Ry
     scf convergence threshold =      7.3E-08
     mixing beta               =       0.0500
     number of iterations used =            8  plain     mixing
     Exchange-correlation= BEEF-VDW
                           (   1   4  43  14   2   0   0)

     celldm(1)=   1.889726  celldm(2)=   0.000000  celldm(3)=   0.000000
     celldm(4)=   0.000000  celldm(5)=   0.000000  celldm(6)=   0.000000

     crystal axes: (cart. coord. in units of alat)
               a(1) = (   6.579727   0.000000   0.000000 )
               a(2) = (  -0.000775   5.961596   0.000000 )
               a(3) = (   0.000000   0.000000  25.155947 )

     reciprocal axes: (cart. coord. in units 2 pi/alat)
               b(1) = (  0.151982  0.000020  0.000000 )
               b(2) = (  0.000000  0.167740  0.000000 )
               b(3) = (  0.000000  0.000000  0.039752 )

     PseudoPot. # 1 for Ti read from file:
     /storage/coda1/p-amedford6/0/shared/rich_project_chbe-medford/medford-share/data/pseudos_module/espresso/nninc/pbe/van/Ti.UPF
     MD5 check sum: 8e4df49b7f0d34bbd5052bf3f5ea0213
     Pseudo is Ultrasoft, Zval = 12.0
     Generated by new atomic code, or converted to UPF format
     Using radial grid of  851 points,  6 beta functions with:
                l(1) =   0
                l(2) =   0
                l(3) =   1
                l(4) =   1
                l(5) =   2
                l(6) =   2
     Q(r) pseudized with  8 coefficients,  rinner =    1.000   1.000   1.000
                                                       1.000   1.000

     PseudoPot. # 2 for O  read from file:
     /storage/coda1/p-amedford6/0/shared/rich_project_chbe-medford/medford-share/data/pseudos_module/espresso/nninc/pbe/van/O.UPF
     MD5 check sum: 78c19812648e8988a0fe644b0f25305e
     Pseudo is Ultrasoft, Zval =  6.0
     Generated by new atomic code, or converted to UPF format
     Using radial grid of  737 points,  4 beta functions with:
                l(1) =   0
                l(2) =   0
                l(3) =   1
                l(4) =   1
     Q(r) pseudized with  8 coefficients,  rinner =    0.800   0.800   0.800

     PseudoPot. # 3 for N  read from file:
     /storage/coda1/p-amedford6/0/shared/rich_project_chbe-medford/medford-share/data/pseudos_module/espresso/nninc/pbe/van/N.UPF
     MD5 check sum: 90d10febe142ad51ac9d5be1deb811c4
     Pseudo is Ultrasoft, Zval =  5.0
     Generated by new atomic code, or converted to UPF format
     Using radial grid of  729 points,  4 beta functions with:
                l(1) =   0
                l(2) =   0
                l(3) =   1
                l(4) =   1
     Q(r) pseudized with  8 coefficients,  rinner =    0.800   0.800   0.800

     PseudoPot. # 4 for C  read from file:
     /storage/coda1/p-amedford6/0/shared/rich_project_chbe-medford/medford-share/data/pseudos_module/espresso/nninc/pbe/van/C.UPF
     MD5 check sum: 1a69bf6b8db32088f5b2163dbdb77a27
     Pseudo is Ultrasoft, Zval =  4.0
     Generated by new atomic code, or converted to UPF format
     Using radial grid of  721 points,  4 beta functions with:
                l(1) =   0
                l(2) =   0
                l(3) =   1
                l(4) =   1
     Q(r) pseudized with  8 coefficients,  rinner =    0.800   0.800   0.800

     PseudoPot. # 5 for H  read from file:
     /storage/coda1/p-amedford6/0/shared/rich_project_chbe-medford/medford-share/data/pseudos_module/espresso/nninc/pbe/van/H.UPF
     MD5 check sum: b5ee9d7bfd3a09ee7748110bda690ff7
     Pseudo is Ultrasoft, Zval =  1.0
     Generated by new atomic code, or converted to UPF format
     Using radial grid of  615 points,  1 beta functions with:
                l(1) =   0
     Q(r) pseudized with  8 coefficients,  rinner =    0.800

     atomic species   valence    mass     pseudopotential
        Ti1           12.00    47.86700     Ti( 1.00)
        O1             6.00    15.99900     O ( 1.00)
        N1             5.00    14.00700     N ( 1.00)
        C1             4.00    12.01100     C ( 1.00)
        H1             1.00     1.00800     H ( 1.00)

     No symmetry found

   Cartesian axes

     site n.     atom                  positions (alat units)
         1           Ti1 tau(   1) = (   0.0004258   2.9801865   6.0000000  )
         2           Ti1 tau(   2) = (   3.2906075   1.4906267   6.0002472  )
         3           O1  tau(   3) = (   0.0006271   0.0005054   7.9858123  )
         4           O1  tau(   4) = (   3.2906025   0.0005020   7.3038282  )
         5           O1  tau(   5) = (   4.5942328   1.4918067   9.2879030  )
         6           O1  tau(   6) = (   1.9868534   1.4903216   9.2879459  )
         7           Ti1 tau(   7) = (   3.2907910   2.8959150   9.1758416  )
         8           Ti1 tau(   8) = (   0.0015273   1.4827037   9.2680791  )
         9           O1  tau(   9) = (   3.2740695   5.9399032  11.3612631  )
        10           O1  tau(  10) = (   0.0116148   5.9584955  10.6183126  )
        11           O1  tau(  11) = (   1.2665466   1.4659349  12.6457467  )
        12           O1  tau(  12) = (   5.2636777   1.4644475  12.6520517  )
        13           Ti1 tau(  13) = (   0.0254019   2.9535957  12.5508080  )
        14           Ti1 tau(  14) = (   3.3235577   1.4585364  12.5144190  )
        15           O1  tau(  15) = (   0.0066209   5.9388471  14.7046414  )
        16           O1  tau(  16) = (   3.2471877   5.9405099  14.0100224  )
        17           O1  tau(  17) = (   4.5302733   1.5208160  16.0462967  )
        18           O1  tau(  18) = (   1.9955500   1.4995475  16.2009832  )
        19           Ti1 tau(  19) = (   3.2567830   2.9699832  15.6929747  )
        20           Ti1 tau(  20) = (   6.4949666   1.4732860  15.8443191  )
        21           O1  tau(  21) = (   3.2904802   0.0005063   4.7018136  )
        22           O1  tau(  22) = (   6.4419287   5.8812218  17.2824568  )
        23           O1  tau(  23) = (   1.3043587   1.4918075   6.0039043  )
        24           O1  tau(  24) = (   5.2767064   1.4903225   6.0039473  )
        25           Ti1 tau(  25) = (   0.0000382   5.9609847   6.0000000  )
        26           Ti1 tau(  26) = (   3.2902200   4.4714249   6.0002472  )
        27           O1  tau(  27) = (   0.0002396   2.9813036   7.9858123  )
        28           O1  tau(  28) = (   3.2902150   2.9813002   7.3038282  )
        29           O1  tau(  29) = (   4.5938453   4.4726049   9.2879030  )
        30           O1  tau(  30) = (   1.9864658   4.4711199   9.2879459  )
        31           Ti1 tau(  31) = (   3.2891106   5.8743827   9.1763621  )
        32           Ti1 tau(  32) = (   0.0006254   4.4649316   9.2693709  )
        33           O1  tau(  33) = (   3.2800166   2.9600013  11.3546200  )
        34           O1  tau(  34) = (   0.0092240   2.9805883  10.6323155  )
        35           O1  tau(  35) = (   1.2663080   4.4508225  12.6496728  )
        36           O1  tau(  36) = (   5.2650692   4.4524444  12.6537221  )
        37           Ti1 tau(  37) = (   0.0180281   5.9297397  12.5120547  )
        38           Ti1 tau(  38) = (   3.3242103   4.4456960  12.5094407  )
        39           O1  tau(  39) = (   0.0028395   2.9305241  14.7702868  )
        40           O1  tau(  40) = (   3.2369197   2.9632653  13.9133312  )
        41           O1  tau(  41) = (   4.5259019   4.3784886  16.1008109  )
        42           O1  tau(  42) = (   2.0017919   4.4285960  16.1845674  )
        43           Ti1 tau(  43) = (   3.2453488   5.9423767  15.8283900  )
        44           Ti1 tau(  44) = (   6.5728488   4.6138345  16.0446011  )
        45           O1  tau(  45) = (   3.2900926   2.9813045   4.7018136  )
        46           O1  tau(  46) = (   1.3039711   4.4726057   6.0039043  )
        47           O1  tau(  47) = (   5.2763189   4.4711207   6.0039473  )
        48           N1  tau(  48) = (   0.9567011   2.5879941  18.4848429  )
        49           N1  tau(  49) = (   6.5185693   2.8362889  17.6364570  )
        50           C1  tau(  50) = (   1.0658718   2.8740630  19.7563100  )
        51           H1  tau(  51) = (   1.9437682   2.5238050  20.2723566  )
        52           H1  tau(  52) = (   0.2809834   3.4210577  20.2544045  )
        53           H1  tau(  53) = (   1.7014144   2.0556717  17.9989220  )
        54           H1  tau(  54) = (   5.6742842   3.0275795  18.1730567  )
        55           O1  tau(  55) = (   3.7618585   0.1297276  18.3074903  )
        56           H1  tau(  56) = (   4.7330396   0.0541995  18.1289380  )
        57           H1  tau(  57) = (   3.4892521   5.2388606  18.6788193  )

     number of k points=    10  Fermi-Dirac smearing, width (Ry)=  0.0073
                       cart. coord. in units 2pi/alat
        k(    1) = (   0.0000000   0.0000000   0.0000000), wk =   0.1250000
        k(    2) = (   0.0000000   0.0419351   0.0000000), wk =   0.2500000
        k(    3) = (   0.0000000  -0.0838702   0.0000000), wk =   0.1250000
        k(    4) = (   0.0379955   0.0000049   0.0000000), wk =   0.2500000
        k(    5) = (   0.0379955   0.0419400   0.0000000), wk =   0.2500000
        k(    6) = (   0.0379955  -0.0838652   0.0000000), wk =   0.2500000
        k(    7) = (   0.0379955  -0.0419301   0.0000000), wk =   0.2500000
        k(    8) = (  -0.0759910  -0.0000099   0.0000000), wk =   0.1250000
        k(    9) = (  -0.0759910   0.0419252   0.0000000), wk =   0.2500000
        k(   10) = (  -0.0759910  -0.0838800   0.0000000), wk =   0.1250000

     Initial potential from superposition of free atoms

     starting charge  387.99913, renormalised to  404.00000

     negative rho (up, down):  1.394E-02 0.000E+00

     %%%%%%%%%%%%%%%%%%%%%%%%%%%%%%%%%%%%%%%%%%%%%%%%%%%%%%%%%%%%%%%%%%%%%%%%
     %                                                                      %
     % You are using vdW-DF, which was implemented by the Thonhauser group. %
     % Please cite the following two papers that made this development      %
     % possible and the two reviews that describe the various versions:     %
     %                                                                      %
     %   T. Thonhauser et al., PRL 115, 136402 (2015).                      %
     %   T. Thonhauser et al., PRB 76, 125112 (2007).                       %
     %   K. Berland et al., Rep. Prog. Phys. 78, 066501 (2015).             %
     %   D.C. Langreth et al., J. Phys.: Condens. Matter 21, 084203 (2009). %
     %                                                                      %
     %                                                                      %
     % If you are calculating the stress with vdW-DF, please also cite:     %
     %                                                                      %
     %   R. Sabatini et al., J. Phys.: Condens. Matter 24, 424209 (2012).   %
     %                                                                      %
     %%%%%%%%%%%%%%%%%%%%%%%%%%%%%%%%%%%%%%%%%%%%%%%%%%%%%%%%%%%%%%%%%%%%%%%%

     Adding external electric field

     Computed dipole along edir(3) :
        Dipole              -14.1772 Ry au,        -36.0349 Debye
        Dipole field         -0.0268 Ry au,

        Potential amp.        2.4801 Ry
        Total length         46.3494 bohr

     Starting wfcs are  306 atomic wfcs
  @ DRIVER MODE: Message from server: STATUS
  @ DRIVER MODE: Message from server: POSDATA
  @ DRIVER MODE: Reading and sharing cell
  @ DRIVER MODE: Reading and sharing positions
  @ DRIVER MODE: Received positions

     Self-consistent Calculation

     iteration #  1     ecut=    29.40 Ry     beta= 0.05
     Davidson diagonalization with overlap
     c_bands:  4 eigenvalues not converged
     c_bands:  5 eigenvalues not converged
     c_bands:  2 eigenvalues not converged
     c_bands:  2 eigenvalues not converged
     c_bands:  1 eigenvalues not converged
     c_bands:  1 eigenvalues not converged
     c_bands:  4 eigenvalues not converged
     c_bands:  1 eigenvalues not converged
     c_bands:  1 eigenvalues not converged
     ethr =  1.00E-05,  avg # of iterations = 28.9

[...]

     total energy              =   -2249.26815275 Ry
     estimated scf accuracy    <    8255.74640946 Ry

     iteration #  2     ecut=    29.40 Ry     beta= 0.05
     Davidson diagonalization with overlap
     ethr =  1.00E-02,  avg # of iterations = 28.0

[...]

     iteration # 73     ecut=    29.40 Ry     beta= 0.05
     Davidson diagonalization with overlap
     c_bands:  1 eigenvalues not converged
     c_bands:  1 eigenvalues not converged
     ethr =  3.65E-11,  avg # of iterations = 16.5

[...]

     total energy              =   -2975.20159305 Ry
     estimated scf accuracy    <       0.00000011 Ry

     iteration # 76     ecut=    29.40 Ry     beta= 0.05
     Davidson diagonalization with overlap
     ethr =  2.78E-11,  avg # of iterations = 12.0

     negative rho (up, down):  1.355E-02 0.000E+00

     Adding external electric field

     Computed dipole along edir(3) :
        Dipole                1.4220 Ry au,          3.6144 Debye
        Dipole field          0.0027 Ry au,

        Potential amp.       -0.2488 Ry
        Total length         46.3494 bohr

     End of self-consistent calculation

          k = 0.0000 0.0000 0.0000 ( 18029 PWs)   bands (ev):

   -55.1442 -55.1159 -55.1076 -55.0818 -55.0792 -55.0303 -54.9884 -54.9557
   -54.9406 -54.9248 -54.9204 -54.9178 -54.9075 -54.8359 -54.1287 -54.0947
   -31.7072 -31.6057 -31.5234 -31.4802 -31.4606 -31.4551 -31.4448 -31.4427
   -31.4057 -31.3857 -31.3636 -31.3602 -31.3441 -31.3217 -31.3051 -31.2911
   -31.2854 -31.2687 -31.2661 -31.2568 -31.2272 -31.2142 -31.2104 -31.1854
   -31.1793 -31.1729 -31.1634 -31.1582 -31.1560 -31.1488 -31.1373 -31.1353
   -31.1133 -31.1049 -31.1014 -31.0931 -31.0848 -31.0719 -31.0693 -31.0521
   -31.0487 -31.0161 -30.5372 -30.4451 -30.4229 -30.3538 -30.2671 -30.1561
   -19.2526 -18.5926 -15.9615 -15.6968 -15.5660 -15.4000 -15.3361 -15.1650
   -15.0846 -15.0191 -14.9335 -14.8761 -14.8611 -14.8549 -14.7625 -14.7447
   -14.6923 -14.6790 -14.6725 -14.6415 -14.6332 -14.5761 -14.5712 -14.5668
   -14.5318 -14.5190 -14.4894 -14.3715 -14.2907 -14.2339 -14.0246 -13.6659
   -12.6312 -12.5141  -9.9973  -6.8188  -6.4824  -6.3664  -4.0794  -3.8916
    -3.3128  -3.1708  -3.1513  -3.0684  -3.0450  -2.9238  -2.8667  -2.7060
    -2.5968  -2.4996  -2.4100  -2.3403  -2.3325  -2.3042  -2.1876  -2.1252
    -2.0790  -2.0361  -2.0173  -2.0044  -1.9558  -1.9200  -1.9176  -1.8509
    -1.8492  -1.7115  -1.6173  -1.6125  -1.5788  -1.5627  -1.4740  -1.4519
    -1.4420  -1.4356  -1.4290  -1.4217  -1.3875  -1.3434  -1.3180  -1.2355
    -1.1806  -1.1369  -1.0062  -0.9052  -0.8313  -0.7739  -0.6856  -0.6824
    -0.6145  -0.5497  -0.5353  -0.5329  -0.4725  -0.3515  -0.3065  -0.2549
    -0.2340  -0.2097  -0.1192  -0.1023  -0.0326   0.0399   0.0688   0.0787
     0.1004   0.2731   0.2810   0.3106   0.3295   0.4189   0.4715   0.5126
     0.5195   0.5419   0.6080   0.6470   0.7385   0.7858   0.7966   0.8174
     0.8391   0.8782   0.9548   0.9645   1.0061   1.0292   1.1694   1.2054
     1.2590   1.4754   1.4777   1.8068   1.8470   1.8938   2.0801   2.4683
     2.5157   3.9552   4.0447   4.0838   4.0856   4.1047   4.1903   4.3246
     4.4362   4.4468   4.4587   4.4808

[...]

          k = 0.0380-0.0419 0.0000 ( 17876 PWs)   bands (ev):

[...]

          k =-0.0760-0.0000 0.0000 ( 17886 PWs)   bands (ev):

[...]

          k =-0.0760-0.0839 0.0000 ( 17948 PWs)   bands (ev):

   -55.1295 -55.1221 -55.0989 -55.0986 -55.0772 -55.0212 -54.9974 -54.9408
   -54.9344 -54.9261 -54.9248 -54.9240 -54.9147 -54.8394 -54.1117 -54.1115
   -31.5157 -31.5074 -31.4224 -31.4209 -31.4206 -31.4054 -31.3912 -31.3909
   -31.3669 -31.3650 -31.3595 -31.3528 -31.3417 -31.3115 -31.2815 -31.2747
   -31.2741 -31.2736 -31.2692 -31.2637 -31.2566 -31.2388 -31.2244 -31.2219
   -31.2188 -31.2183 -31.2180 -31.1967 -31.1740 -31.1654 -31.1646 -31.1546
   -31.1485 -31.1461 -31.1441 -31.1437 -31.1421 -31.1120 -31.1055 -31.1038
   -31.0901 -31.0596 -30.4356 -30.4355 -30.3499 -30.3497 -30.3105 -30.3104
   -19.2499 -18.5922 -15.4557 -15.2990 -15.2854 -15.1341 -15.1195 -15.1113
   -15.0868 -15.0114 -14.9933 -14.9297 -14.9158 -14.8723 -14.8455 -14.8330
   -14.8220 -14.7283 -14.7210 -14.7147 -14.6990 -14.6482 -14.6361 -14.6190
   -14.5957 -14.5916 -14.5549 -14.4903 -14.4871 -14.4557 -14.2261 -13.6766
   -12.6158 -12.6156 -10.0002  -6.8128  -6.4859  -6.3582  -4.0562  -3.8764
    -2.9383  -2.7207  -2.5258  -2.5074  -2.4616  -2.3668  -2.3255  -2.2849
    -2.1889  -2.1393  -2.1239  -2.1018  -2.0888  -2.0291  -2.0249  -2.0221
    -1.9857  -1.9774  -1.9632  -1.9383  -1.9160  -1.8826  -1.8684  -1.8572
    -1.8445  -1.8054  -1.7858  -1.7574  -1.7443  -1.7149  -1.6985  -1.6303
    -1.5256  -1.4961  -1.4427  -1.3501  -1.3310  -1.3252  -1.2403  -1.2081
    -1.1947  -1.1794  -1.1658  -1.1038  -0.9688  -0.8795  -0.8694  -0.8180
    -0.7523  -0.7184  -0.6756  -0.6490  -0.6216  -0.5668  -0.5174  -0.4933
    -0.4195  -0.3659  -0.3599  -0.3277  -0.1820  -0.1577  -0.1103  -0.1081
    -0.0940  -0.0849   0.0051   0.0218   0.0661   0.0860   0.1258   0.1445
     0.2169   0.2333   0.3531   0.4223   0.4843   0.5909   0.7307   0.7446
     0.8166   0.8780   0.9169   0.9827   1.0401   1.0720   1.1560   1.1662
     1.1817   1.2839   1.3334   1.3399   1.3567   2.2524   2.2541   2.3356
     2.3358   4.1173   4.1403   4.2292   4.2429   4.2951   4.3779   4.4674
     4.4939   4.5288   4.5330   4.6117

     the Fermi energy is     4.0033 ev

!    total energy              =   -2975.20160556 Ry
     estimated scf accuracy    <       0.00000004 Ry
     smearing contrib. (-TS)   =      -0.03820746 Ry
     internal energy E=F+TS    =   -2975.16339810 Ry

     The total energy is F=E-TS. E is the sum of the following terms:
     one-electron contribution =  -23646.30431286 Ry
     hartree contribution      =   11921.32348349 Ry
     xc contribution           =    -494.97168349 Ry
     ewald contribution        =    9244.78529864 Ry
     electric field correction =       0.00381611 Ry

     convergence has been achieved in  76 iterations

     Forces acting on atoms (cartesian axes, Ry/au):

     atom    1 type  1   force =     0.00013940   -0.00013228    0.09421642
     atom    2 type  1   force =    -0.00023299   -0.00026329   -0.17728129
     atom    3 type  2   force =     0.00001708   -0.00026224   -0.02170370
     atom    4 type  2   force =    -0.00004285   -0.00184679    0.05694267
     atom    5 type  2   force =    -0.01106503   -0.00171596    0.00686550
     atom    6 type  2   force =     0.01215271   -0.00090956    0.00493271
     atom    7 type  1   force =    -0.00122002    0.00155663   -0.01219557
     atom    8 type  1   force =     0.00072602    0.00495531    0.00603985
     atom    9 type  2   force =     0.00026739    0.00050674    0.00032818
     atom   10 type  2   force =    -0.00307138   -0.00067329   -0.00506067
     atom   11 type  2   force =     0.00081115    0.00021460   -0.00024278
     atom   12 type  2   force =    -0.00006821    0.00051209    0.00000238
     atom   13 type  1   force =    -0.00021819    0.00011079   -0.00010646
     atom   14 type  1   force =    -0.00000788    0.00011982   -0.00011391
     atom   15 type  2   force =    -0.00005049    0.00004140    0.00027069
     atom   16 type  2   force =     0.00039988    0.00036705   -0.00010547
     atom   17 type  2   force =     0.00018844   -0.00009674    0.00034044
     atom   18 type  2   force =    -0.00002826   -0.00032913    0.00044097
     atom   19 type  1   force =     0.00033059    0.00048387   -0.00005076
     atom   20 type  1   force =    -0.00014472    0.00055242    0.00011426
     atom   21 type  2   force =     0.00005033    0.00002523    0.10367337
     atom   22 type  2   force =     0.00059282    0.00005110   -0.00009394
     atom   23 type  2   force =    -0.07083966   -0.00009271   -0.02718026
     atom   24 type  2   force =     0.07067337    0.00039073   -0.02721753
     atom   25 type  1   force =    -0.00006516   -0.00027966    0.09393581
     atom   26 type  1   force =    -0.00031211   -0.00035698   -0.17745497
     atom   27 type  2   force =     0.00000873   -0.00023023   -0.02074041
     atom   28 type  2   force =     0.00003567   -0.00148774    0.05597252
     atom   29 type  2   force =    -0.01133966   -0.00052910    0.00690088
     atom   30 type  2   force =     0.01229933   -0.00025117    0.00491876
     atom   31 type  1   force =    -0.00121576    0.00505617   -0.01497987
     atom   32 type  1   force =     0.00092569   -0.00601154    0.00586947
     atom   33 type  2   force =     0.00035668   -0.00013238    0.00012133
     atom   34 type  2   force =    -0.00260887   -0.00151315   -0.00576781
     atom   35 type  2   force =     0.00036645    0.00030094   -0.00031257
     atom   36 type  2   force =     0.00044136    0.00040569   -0.00007249
     atom   37 type  1   force =    -0.00016736   -0.00015732   -0.00018835
     atom   38 type  1   force =     0.00004820    0.00033052    0.00043146
     atom   39 type  2   force =     0.00009373    0.00085052   -0.00075662
     atom   40 type  2   force =     0.00003381   -0.00009086    0.00006280
     atom   41 type  2   force =     0.00091999    0.00041952    0.00053872
     atom   42 type  2   force =    -0.00083237    0.00026156   -0.00011984
     atom   43 type  1   force =     0.00054448   -0.00090599   -0.00002873
     atom   44 type  1   force =     0.00017913   -0.00011287   -0.00057037
     atom   45 type  2   force =     0.00001892   -0.00002235    0.10367695
     atom   46 type  2   force =    -0.07083119   -0.00000203   -0.02719461
     atom   47 type  2   force =     0.07066094    0.00040348   -0.02719038
     atom   48 type  3   force =     0.00379182   -0.00425159   -0.00210741
     atom   49 type  3   force =     0.00054750    0.00001302   -0.00088239
     atom   50 type  4   force =     0.00023349   -0.00019044   -0.00025909
     atom   51 type  5   force =    -0.00017283   -0.00019812    0.00023255
     atom   52 type  5   force =     0.00037485   -0.00039559   -0.00019606
     atom   53 type  5   force =    -0.00512065    0.00491242    0.00295432
     atom   54 type  5   force =     0.00087373    0.00059741    0.00020067
     atom   55 type  2   force =     0.00005640    0.00018728    0.00006730
     atom   56 type  5   force =     0.00071053   -0.00018030   -0.00054997
     atom   57 type  5   force =    -0.00021497   -0.00000490    0.00067329

     Total force =     0.365791     Total SCF correction =     0.000547
  @ DRIVER MODE: Message from server: STATUS
  @ DRIVER MODE: Message from server: GETFORCE
  @ DRIVER MODE: Returning v,forces,stress,ensemble

     Writing output data file ./calc.save/
  @ DRIVER MODE: Message from server: EXIT
  @ DRIVE MODE: Exiting

     General routines

     Parallel routines

   This run was terminated on:   4: 8:29  23Sep2021

   JOB DONE.