     Program PWSCF v.6.7GPU starts on  3Aug2021 at  0: 8:44

     R & G space division:  proc/nbgrp/npool/nimage =      16
     Reading input from /storage/home/hcoda1/3/ntian30/research/carbon/02Aug_vib_paired/ads_slab/CH3NNH3_a/out_0043/pw.inp
Warning: card &CELL ignored
Warning: card   CELL_DYNAMICS='IPI', ignored
Warning: card / ignored

     Current dimensions of program PWSCF are:
     Max number of different atomic species (ntypx) = 10
     Max number of k-points (npk) =  40000
     Max angular momentum in pseudopotentials (lmaxx) =  3
     Presently no symmetry can be used with electric field

     Message from routine cell_base_init:
     DEPRECATED: use true lattice parameter, not A to a.u. conversion factor

     IMPORTANT: XC functional enforced from input :
     Exchange-correlation= BEEF-VDW
                           (   1   4  43  14   2   0   0)
     Any further DFT definition will be discarded
     Please, verify this is what you really want

  @ DRIVER MODE: Connecting to
 qe_1139763_2482544.sched-torque.pace.gatech.edup42pfc0w_scratch
  using UNIX socket
  @ DRIVER MODE: Message from server: STATUS
  @ DRIVER MODE: Message from server: INIT
  @ DRIVER MODE: Receiving replica           0          -1
  @ DRIVER MODE: Receiving encoded integer          25
  @ DRIVER MODE:  SCF:  T  FORCE:  T  STRESS:  F  VC:  F  ENSEMBLE:  F
  @ DRIVER MODE:  SCF:  T  FORCE:  T  STRESS:  F  VC:  F  ENSEMBLE:  F

     Using Slab Decomposition

     bravais-lattice index     =            0
     lattice parameter (alat)  =       1.8897  a.u.
     unit-cell volume          =    6658.9804 (a.u.)^3
     number of atoms/cell      =           56
     number of atomic types    =            5
     number of electrons       =       398.00
     number of Kohn-Sham states=          209
     kinetic-energy cutoff     =      29.3995  Ry
     charge density cutoff     =     293.9946  Ry
     scf convergence threshold =      7.3E-08
     mixing beta               =       0.0500
     number of iterations used =            8  plain     mixing
     Exchange-correlation= BEEF-VDW
                           (   1   4  43  14   2   0   0)

     celldm(1)=   1.889726  celldm(2)=   0.000000  celldm(3)=   0.000000
     celldm(4)=   0.000000  celldm(5)=   0.000000  celldm(6)=   0.000000

     crystal axes: (cart. coord. in units of alat)
               a(1) = (   6.579727   0.000000   0.000000 )
               a(2) = (  -0.000775   5.961596   0.000000 )
               a(3) = (   0.000000   0.000000  25.155947 )

     reciprocal axes: (cart. coord. in units 2 pi/alat)
               b(1) = (  0.151982  0.000020  0.000000 )
               b(2) = (  0.000000  0.167740  0.000000 )
               b(3) = (  0.000000  0.000000  0.039752 )

     PseudoPot. # 1 for Ti read from file:
     /storage/coda1/p-amedford6/0/shared/rich_project_chbe-medford/medford-share/data/pseudos_module/espresso/nninc/pbe/van/Ti.UPF
     MD5 check sum: 8e4df49b7f0d34bbd5052bf3f5ea0213
     Pseudo is Ultrasoft, Zval = 12.0
     Generated by new atomic code, or converted to UPF format
     Using radial grid of  851 points,  6 beta functions with:
                l(1) =   0
                l(2) =   0
                l(3) =   1
                l(4) =   1
                l(5) =   2
                l(6) =   2
     Q(r) pseudized with  8 coefficients,  rinner =    1.000   1.000   1.000
                                                       1.000   1.000

     PseudoPot. # 2 for O  read from file:
     /storage/coda1/p-amedford6/0/shared/rich_project_chbe-medford/medford-share/data/pseudos_module/espresso/nninc/pbe/van/O.UPF
     MD5 check sum: 78c19812648e8988a0fe644b0f25305e
     Pseudo is Ultrasoft, Zval =  6.0
     Generated by new atomic code, or converted to UPF format
     Using radial grid of  737 points,  4 beta functions with:
                l(1) =   0
                l(2) =   0
                l(3) =   1
                l(4) =   1
     Q(r) pseudized with  8 coefficients,  rinner =    0.800   0.800   0.800

     PseudoPot. # 3 for N  read from file:
     /storage/coda1/p-amedford6/0/shared/rich_project_chbe-medford/medford-share/data/pseudos_module/espresso/nninc/pbe/van/N.UPF
     MD5 check sum: 90d10febe142ad51ac9d5be1deb811c4
     Pseudo is Ultrasoft, Zval =  5.0
     Generated by new atomic code, or converted to UPF format
     Using radial grid of  729 points,  4 beta functions with:
                l(1) =   0
                l(2) =   0
                l(3) =   1
                l(4) =   1
     Q(r) pseudized with  8 coefficients,  rinner =    0.800   0.800   0.800

     PseudoPot. # 4 for C  read from file:
     /storage/coda1/p-amedford6/0/shared/rich_project_chbe-medford/medford-share/data/pseudos_module/espresso/nninc/pbe/van/C.UPF
     MD5 check sum: 1a69bf6b8db32088f5b2163dbdb77a27
     Pseudo is Ultrasoft, Zval =  4.0
     Generated by new atomic code, or converted to UPF format
     Using radial grid of  721 points,  4 beta functions with:
                l(1) =   0
                l(2) =   0
                l(3) =   1
                l(4) =   1
     Q(r) pseudized with  8 coefficients,  rinner =    0.800   0.800   0.800

     PseudoPot. # 5 for H  read from file:
     /storage/coda1/p-amedford6/0/shared/rich_project_chbe-medford/medford-share/data/pseudos_module/espresso/nninc/pbe/van/H.UPF
     MD5 check sum: b5ee9d7bfd3a09ee7748110bda690ff7
     Pseudo is Ultrasoft, Zval =  1.0
     Generated by new atomic code, or converted to UPF format
     Using radial grid of  615 points,  1 beta functions with:
                l(1) =   0
     Q(r) pseudized with  8 coefficients,  rinner =    0.800

     atomic species   valence    mass     pseudopotential
        Ti1           12.00    47.86700     Ti( 1.00)
        O1             6.00    15.99900     O ( 1.00)
        N1             5.00    14.00700     N ( 1.00)
        C1             4.00    12.01100     C ( 1.00)
        H1             1.00     1.00800     H ( 1.00)

     No symmetry found

   Cartesian axes

     site n.     atom                  positions (alat units)
         1           Ti1 tau(   1) = (   0.0004258   2.9801865   6.0000000  )
         2           Ti1 tau(   2) = (   3.2906075   1.4906267   6.0002472  )
         3           O1  tau(   3) = (   0.0006271   0.0005054   7.9858123  )
         4           O1  tau(   4) = (   3.2906025   0.0005020   7.3038282  )
         5           O1  tau(   5) = (   4.5942328   1.4918067   9.2879030  )
         6           O1  tau(   6) = (   1.9868534   1.4903216   9.2879459  )
         7           Ti1 tau(   7) = (   3.2907910   2.8959150   9.1758416  )
         8           Ti1 tau(   8) = (   0.0015273   1.4827037   9.2680791  )
         9           O1  tau(   9) = (   3.2727297   5.9424138  11.2974721  )
        10           O1  tau(  10) = (   0.0116148   5.9584955  10.6183126  )
        11           O1  tau(  11) = (   1.3027692   1.4721713  12.6242268  )
        12           O1  tau(  12) = (   5.2784376   1.4723552  12.6258992  )
        13           Ti1 tau(  13) = (   6.4570204   2.9507206  12.7630554  )
        14           Ti1 tau(  14) = (   3.1467966   1.4649636  12.4688949  )
        15           O1  tau(  15) = (   6.5600513   5.9133837  14.5918744  )
        16           O1  tau(  16) = (   3.2766225   5.9390981  13.8789110  )
        17           O1  tau(  17) = (   4.4915826   1.4834571  16.0540230  )
        18           O1  tau(  18) = (   2.0416982   1.4849982  16.0411193  )
        19           Ti1 tau(  19) = (   3.2679172   2.9642910  15.6858091  )
        20           Ti1 tau(  20) = (   6.5495220   1.5641796  16.1095294  )
        21           O1  tau(  21) = (   3.2904802   0.0005063   4.7018136  )
        22           O1  tau(  22) = (   6.5606002   0.0080969  17.2010096  )
        23           O1  tau(  23) = (   1.3043587   1.4918075   6.0039043  )
        24           O1  tau(  24) = (   5.2767064   1.4903225   6.0039473  )
        25           Ti1 tau(  25) = (   0.0000382   5.9609847   6.0000000  )
        26           Ti1 tau(  26) = (   3.2902200   4.4714249   6.0002472  )
        27           O1  tau(  27) = (   0.0002396   2.9813036   7.9858123  )
        28           O1  tau(  28) = (   3.2902150   2.9813002   7.3038282  )
        29           O1  tau(  29) = (   4.5938453   4.4726049   9.2879030  )
        30           O1  tau(  30) = (   1.9864658   4.4711199   9.2879459  )
        31           Ti1 tau(  31) = (   3.2891106   5.8743827   9.1763621  )
        32           Ti1 tau(  32) = (   0.0006254   4.4649316   9.2693709  )
        33           O1  tau(  33) = (   3.2718307   2.9587034  11.2961003  )
        34           O1  tau(  34) = (   0.0092240   2.9805883  10.6323155  )
        35           O1  tau(  35) = (   1.3028232   4.4416136  12.6207192  )
        36           O1  tau(  36) = (   5.2777600   4.4366566  12.6238879  )
        37           Ti1 tau(  37) = (   6.4830488   5.9304874  12.7660964  )
        38           Ti1 tau(  38) = (   3.1463657   4.4448748  12.4639736  )
        39           O1  tau(  39) = (   6.5417323   2.9404903  14.6589984  )
        40           O1  tau(  40) = (   3.2789452   2.9619718  13.8791424  )
        41           O1  tau(  41) = (   4.4971312   4.4676043  16.0556370  )
        42           O1  tau(  42) = (   2.0400509   4.4648231  16.0515753  )
        43           Ti1 tau(  43) = (   3.2598176   5.9476019  15.6881950  )
        44           Ti1 tau(  44) = (   6.5485469   4.5424454  16.1156095  )
        45           O1  tau(  45) = (   3.2900926   2.9813045   4.7018136  )
        46           O1  tau(  46) = (   1.3039711   4.4726057   6.0039043  )
        47           O1  tau(  47) = (   5.2763189   4.4711207   6.0039473  )
        48           N1  tau(  48) = (   0.0016189   2.9795595  17.3279962  )
        49           C1  tau(  49) = (   0.1681806   3.0735589  18.7581663  )
        50           H1  tau(  50) = (   6.0068595   3.7517258  19.1994632  )
        51           H1  tau(  51) = (   0.0766375   2.0971904  19.2409400  )
        52           H1  tau(  52) = (   1.1565538   3.4901639  19.0026035  )
        53           N1  tau(  53) = (   4.7601180   1.8141088  21.6614004  )
        54           H1  tau(  54) = (   4.4666586   2.7830198  21.5980365  )
        55           H1  tau(  55) = (   4.1131612   1.2775871  21.0809158  )
        56           H1  tau(  56) = (   4.6015807   1.5257772  22.6208530  )

     number of k points=    10  Fermi-Dirac smearing, width (Ry)=  0.0073
                       cart. coord. in units 2pi/alat
        k(    1) = (   0.0000000   0.0000000   0.0000000), wk =   0.1250000
        k(    2) = (   0.0000000   0.0419351   0.0000000), wk =   0.2500000
        k(    3) = (   0.0000000  -0.0838702   0.0000000), wk =   0.1250000
        k(    4) = (   0.0379955   0.0000049   0.0000000), wk =   0.2500000
        k(    5) = (   0.0379955   0.0419400   0.0000000), wk =   0.2500000
        k(    6) = (   0.0379955  -0.0838652   0.0000000), wk =   0.2500000
        k(    7) = (   0.0379955  -0.0419301   0.0000000), wk =   0.2500000
        k(    8) = (  -0.0759910  -0.0000099   0.0000000), wk =   0.1250000
        k(    9) = (  -0.0759910   0.0419252   0.0000000), wk =   0.2500000
        k(   10) = (  -0.0759910  -0.0838800   0.0000000), wk =   0.1250000

     Initial potential from superposition of free atoms

     starting charge  381.99914, renormalised to  398.00000

     negative rho (up, down):  9.478E-03 0.000E+00

     %%%%%%%%%%%%%%%%%%%%%%%%%%%%%%%%%%%%%%%%%%%%%%%%%%%%%%%%%%%%%%%%%%%%%%%%
     %                                                                      %
     % You are using vdW-DF, which was implemented by the Thonhauser group. %
     % Please cite the following two papers that made this development      %
     % possible and the two reviews that describe the various versions:     %
     %                                                                      %
     %   T. Thonhauser et al., PRL 115, 136402 (2015).                      %
     %   T. Thonhauser et al., PRB 76, 125112 (2007).                       %
     %   K. Berland et al., Rep. Prog. Phys. 78, 066501 (2015).             %
     %   D.C. Langreth et al., J. Phys.: Condens. Matter 21, 084203 (2009). %
     %                                                                      %
     %                                                                      %
     % If you are calculating the stress with vdW-DF, please also cite:     %
     %                                                                      %
     %   R. Sabatini et al., J. Phys.: Condens. Matter 24, 424209 (2012).   %
     %                                                                      %
     %%%%%%%%%%%%%%%%%%%%%%%%%%%%%%%%%%%%%%%%%%%%%%%%%%%%%%%%%%%%%%%%%%%%%%%%

     Adding external electric field

     Computed dipole along edir(3) :
        Dipole              -11.3717 Ry au,        -28.9040 Debye
        Dipole field         -0.0215 Ry au,

        Potential amp.        1.9893 Ry
        Total length         46.3494 bohr

     Starting wfcs are  302 atomic wfcs
  @ DRIVER MODE: Message from server: STATUS
  @ DRIVER MODE: Message from server: POSDATA
  @ DRIVER MODE: Reading and sharing cell
  @ DRIVER MODE: Reading and sharing positions
  @ DRIVER MODE: Received positions

     Self-consistent Calculation

     iteration #  1     ecut=    29.40 Ry     beta= 0.05
     Davidson diagonalization with overlap
     c_bands:  1 eigenvalues not converged
     c_bands:  1 eigenvalues not converged
     c_bands:  2 eigenvalues not converged
     c_bands:  1 eigenvalues not converged
     c_bands:  1 eigenvalues not converged
     c_bands:  1 eigenvalues not converged
     c_bands:  1 eigenvalues not converged
     c_bands:  2 eigenvalues not converged
     c_bands:  2 eigenvalues not converged
     ethr =  1.00E-05,  avg # of iterations = 19.6

[...]

     total energy              =   -2520.82468762 Ry
     estimated scf accuracy    <    4705.89672068 Ry

     iteration #  2     ecut=    29.40 Ry     beta= 0.05
     Davidson diagonalization with overlap
     ethr =  1.00E-02,  avg # of iterations = 22.0

[...]

     iteration # 48     ecut=    29.40 Ry     beta= 0.05
     Davidson diagonalization with overlap
     c_bands:  1 eigenvalues not converged
     ethr =  6.42E-07,  avg # of iterations =  6.2

[...]

     total energy              =   -2942.90671553 Ry
     estimated scf accuracy    <       0.00000014 Ry

     iteration # 71     ecut=    29.40 Ry     beta= 0.05
     Davidson diagonalization with overlap
     ethr =  2.92E-11,  avg # of iterations =  5.8

     negative rho (up, down):  1.095E-02 0.000E+00

     Adding external electric field

     Computed dipole along edir(3) :
        Dipole                0.4543 Ry au,          1.1548 Debye
        Dipole field          0.0009 Ry au,

        Potential amp.       -0.0795 Ry
        Total length         46.3494 bohr

     End of self-consistent calculation

          k = 0.0000 0.0000 0.0000 ( 18029 PWs)   bands (ev):

   -56.6131 -56.5795 -55.7322 -55.7236 -55.6968 -55.6912 -55.5863 -55.5506
   -55.3698 -55.3345 -55.2779 -55.2713 -55.2439 -55.1692 -54.7323 -54.6192
   -33.0410 -32.8877 -32.8595 -32.7893 -32.6982 -32.6670 -32.2067 -32.1961
   -32.1293 -32.0185 -31.9735 -31.9455 -31.9313 -31.9066 -31.8740 -31.8714
   -31.8672 -31.8608 -31.8376 -31.8344 -31.8228 -31.7946 -31.7693 -31.7558
   -31.7426 -31.7225 -31.7148 -31.6915 -31.6702 -31.6164 -31.6012 -31.5922
   -31.5134 -31.5086 -31.4888 -31.4467 -31.4365 -31.4054 -31.3980 -31.3738
   -31.3524 -31.2945 -31.2338 -30.9734 -30.9608 -30.8787 -30.8392 -30.7483
   -16.7772 -16.3427 -16.1129 -15.9757 -15.9081 -15.8538 -15.8084 -15.6872
   -15.6143 -15.6080 -15.5676 -15.5369 -15.4665 -15.3258 -15.2276 -15.1739
   -15.1296 -15.0087 -14.9487 -14.9159 -14.9113 -14.8769 -14.8573 -14.6611
   -14.6369 -14.5343 -14.5245 -14.3988 -14.1765 -13.7765 -13.7076 -13.6664
   -12.7967  -7.4929  -4.3429  -3.8379  -3.7941  -3.7371  -3.6003  -3.5135
    -3.4059  -3.3931  -3.3121  -3.1939  -3.1478  -3.1002  -2.9842  -2.9841
    -2.8348  -2.7947  -2.7889  -2.7849  -2.7398  -2.6764  -2.6608  -2.6217
    -2.6164  -2.6070  -2.4562  -2.3561  -2.2887  -2.2674  -2.2568  -2.2213
    -2.1431  -2.1230  -2.1083  -2.1047  -2.0042  -1.8556  -1.8538  -1.8226
    -1.7792  -1.7777  -1.7397  -1.7249  -1.5895  -1.5157  -1.4130  -1.3955
    -1.3572  -1.2929  -1.2867  -1.1887  -1.1141  -1.0517  -1.0261  -0.9172
    -0.8746  -0.8520  -0.7624  -0.7005  -0.6607  -0.6432  -0.6263  -0.5226
    -0.5026  -0.4915  -0.4066  -0.3949  -0.3377  -0.2564  -0.2368  -0.2306
    -0.1424  -0.1371  -0.0450  -0.0031   0.0387   0.0837   0.1795   0.1978
     0.3007   0.3363   0.3576   0.4773   0.4904   0.5531   0.6205   0.6880
     0.7192   0.7436   0.7732   0.7948   0.8681   0.9830   0.9877   1.0896
     1.1289   1.2966   1.3355   1.3704   1.6236   1.6493   2.3203   2.6615
     2.8215   3.1200   3.3110   3.4222   3.6369   3.6569   3.8351   3.8797
     3.9770

[...]

          k = 0.0380-0.0419 0.0000 ( 17876 PWs)   bands (ev):

[...]

          k =-0.0760-0.0000 0.0000 ( 17886 PWs)   bands (ev):

[...]

          k =-0.0760-0.0839 0.0000 ( 17948 PWs)   bands (ev):

   -56.5964 -56.5960 -55.7162 -55.7110 -55.7085 -55.7078 -55.5711 -55.5657
   -55.3549 -55.3492 -55.2682 -55.2609 -55.2608 -55.1722 -54.7294 -54.6220
   -32.8735 -32.8732 -32.8579 -32.8577 -32.7424 -32.7421 -32.0364 -32.0338
   -32.0204 -32.0143 -31.9640 -31.9629 -31.9206 -31.9193 -31.9180 -31.9168
   -31.9061 -31.9034 -31.9020 -31.8997 -31.8232 -31.8188 -31.7724 -31.7671
   -31.7062 -31.6989 -31.6379 -31.6312 -31.6053 -31.6051 -31.5977 -31.5539
   -31.5518 -31.5239 -31.4889 -31.4865 -31.4863 -31.4473 -31.4473 -31.4420
   -31.4150 -31.3758 -31.1125 -30.9933 -30.9604 -30.9286 -30.8417 -30.8069
   -16.1255 -16.1234 -16.0913 -16.0910 -15.8212 -15.8175 -15.7732 -15.7714
   -15.5987 -15.5928 -15.3862 -15.3760 -15.3701 -15.3661 -15.2419 -15.2330
   -15.1696 -15.1588 -15.0697 -15.0662 -15.0031 -14.9970 -14.9592 -14.9395
   -14.6229 -14.6154 -14.4878 -14.4791 -14.3265 -13.7699 -13.7699 -13.7068
   -12.8132  -7.4830  -3.7989  -3.7471  -3.2250  -3.2244  -3.1590  -3.1577
    -3.0365  -3.0318  -2.9555  -2.9550  -2.8554  -2.8512  -2.7554  -2.7117
    -2.7095  -2.7068  -2.6940  -2.6514  -2.5558  -2.5555  -2.5408  -2.5256
    -2.4702  -2.4681  -2.4536  -2.3809  -2.3673  -2.3314  -2.2921  -2.1857
    -2.1720  -2.1556  -2.1297  -2.0696  -2.0550  -2.0436  -1.9960  -1.9717
    -1.8938  -1.8272  -1.7860  -1.6661  -1.6627  -1.6527  -1.6406  -1.4857
    -1.4499  -1.4186  -1.4090  -1.4029  -1.3583  -1.2605  -1.2525  -1.1180
    -1.1154  -1.0455  -0.9637  -0.9405  -0.9184  -0.7840  -0.7437  -0.7029
    -0.6978  -0.6727  -0.6471  -0.6274  -0.6000  -0.4483  -0.4291  -0.3949
    -0.3641  -0.3559  -0.3147  -0.2465  -0.1668  -0.0861  -0.0849  -0.0183
     0.0339   0.0958   0.1836   0.1961   0.2000   0.4829   0.5630   0.6503
     0.7295   0.7932   0.8590   0.8838   0.9441   0.9833   1.1231   1.1260
     1.1446   1.1450   1.2053   1.2136   1.3531   1.6451   2.2070   3.2346
     3.2349   3.3021   3.3025   3.6263   3.6317   3.7407   3.7498   3.8600
     3.8654

     the Fermi energy is     2.4996 ev

!    total energy              =   -2942.90673035 Ry
     estimated scf accuracy    <       0.00000006 Ry
     smearing contrib. (-TS)   =      -0.00477553 Ry
     internal energy E=F+TS    =   -2942.90195481 Ry

     The total energy is F=E-TS. E is the sum of the following terms:
     one-electron contribution =  -23225.43976592 Ry
     hartree contribution      =   11703.00492673 Ry
     xc contribution           =    -487.46324368 Ry
     ewald contribution        =    9066.99573853 Ry
     electric field correction =       0.00038953 Ry

     convergence has been achieved in  71 iterations

     Forces acting on atoms (cartesian axes, Ry/au):

     atom    1 type  1   force =     0.00000814   -0.00043980    0.12431609
     atom    2 type  1   force =    -0.00005859   -0.00054624   -0.16062285
     atom    3 type  2   force =     0.00016511   -0.00030090   -0.06835436
     atom    4 type  2   force =    -0.00005147   -0.00038659    0.02753496
     atom    5 type  2   force =    -0.01678272    0.00112727   -0.00832183
     atom    6 type  2   force =     0.01783468    0.00162725   -0.01021512
     atom    7 type  1   force =     0.00039922   -0.00408057    0.02183561
     atom    8 type  1   force =     0.00020242   -0.00219546    0.11169232
     atom    9 type  2   force =     0.00010566    0.00018740   -0.00030420
     atom   10 type  2   force =    -0.00319926    0.00010852   -0.07306668
     atom   11 type  2   force =    -0.00034016    0.00033132   -0.00007486
     atom   12 type  2   force =     0.00013425    0.00045163   -0.00003359
     atom   13 type  1   force =     0.00012996   -0.00024668   -0.00002277
     atom   14 type  1   force =    -0.00015797    0.00003971   -0.00032588
     atom   15 type  2   force =    -0.00004821   -0.00024658    0.00019243
     atom   16 type  2   force =     0.00032968    0.00076901    0.00000297
     atom   17 type  2   force =     0.00019767    0.00031387   -0.00030057
     atom   18 type  2   force =    -0.00020605    0.00021700    0.00010447
     atom   19 type  1   force =     0.00050152   -0.00009013   -0.00024403
     atom   20 type  1   force =     0.00025505   -0.00038123   -0.00052028
     atom   21 type  2   force =     0.00010056    0.00008128    0.09967004
     atom   22 type  2   force =     0.00008389    0.00095253    0.00047835
     atom   23 type  2   force =    -0.07915736    0.00008551   -0.03243206
     atom   24 type  2   force =     0.07906549    0.00051320   -0.03242733
     atom   25 type  1   force =     0.00002818   -0.00041616    0.12383634
     atom   26 type  1   force =    -0.00003512   -0.00042184   -0.16074480
     atom   27 type  2   force =     0.00028814   -0.00046787   -0.06734580
     atom   28 type  2   force =    -0.00005434   -0.00020308    0.02726966
     atom   29 type  2   force =    -0.01731221    0.00074002   -0.00824943
     atom   30 type  2   force =     0.01828146    0.00113785   -0.01008716
     atom   31 type  1   force =     0.00033914   -0.00099614    0.02130401
     atom   32 type  1   force =     0.00021645   -0.00027392    0.11224765
     atom   33 type  2   force =     0.00012246    0.00051181   -0.00007032
     atom   34 type  2   force =    -0.00294618   -0.00065468   -0.07292048
     atom   35 type  2   force =    -0.00024525    0.00027332   -0.00009855
     atom   36 type  2   force =     0.00009368    0.00013816   -0.00003521
     atom   37 type  1   force =     0.00013570   -0.00015348    0.00023220
     atom   38 type  1   force =     0.00007100    0.00005263    0.00030509
     atom   39 type  2   force =     0.00021174    0.00037872   -0.00015715
     atom   40 type  2   force =     0.00010218    0.00034394    0.00014487
     atom   41 type  2   force =    -0.00015157    0.00032848    0.00015176
     atom   42 type  2   force =    -0.00003870    0.00059531   -0.00002874
     atom   43 type  1   force =     0.00059986    0.00052420    0.00046071
     atom   44 type  1   force =     0.00014577    0.00032944   -0.00043411
     atom   45 type  2   force =     0.00010374    0.00005039    0.09969507
     atom   46 type  2   force =    -0.07916654    0.00012777   -0.03243384
     atom   47 type  2   force =     0.07906940    0.00056180   -0.03242194
     atom   48 type  3   force =     0.00042973    0.00029936   -0.00025531
     atom   49 type  4   force =     0.00072879   -0.00038151    0.00178946
     atom   50 type  5   force =     0.00055636   -0.00036176   -0.00036258
     atom   51 type  5   force =    -0.00023476    0.00034456   -0.00011158
     atom   52 type  5   force =    -0.00070542   -0.00058431    0.00023741
     atom   53 type  3   force =    -0.00540239   -0.00570010   -0.00583938
     atom   54 type  5   force =    -0.00004167    0.00123800   -0.00058861
     atom   55 type  5   force =     0.00654759    0.00524966    0.00582221
     atom   56 type  5   force =    -0.00124873   -0.00050190    0.00012771

     Total force =     0.425158     Total SCF correction =     0.000712
  @ DRIVER MODE: Message from server: STATUS
  @ DRIVER MODE: Message from server: GETFORCE
  @ DRIVER MODE: Returning v,forces,stress,ensemble

     Writing output data file ./calc.save/
  @ DRIVER MODE: Message from server: EXIT
  @ DRIVE MODE: Exiting

     General routines

     Parallel routines

   This run was terminated on:   0:25:12   3Aug2021

   JOB DONE.