     Program PWSCF v.6.7GPU starts on 13Oct2021 at  0:53: 5

     R & G space division:  proc/nbgrp/npool/nimage =       8
     Reading input from /storage/home/hcoda1/3/ntian30/research/carbon/ACS_vib/ads_slab/H2NNH2/out_0023/pw.inp
Warning: card &CELL ignored
Warning: card   CELL_DYNAMICS='IPI', ignored
Warning: card / ignored

     Current dimensions of program PWSCF are:
     Max number of different atomic species (ntypx) = 10
     Max number of k-points (npk) =  40000
     Max angular momentum in pseudopotentials (lmaxx) =  3
     Presently no symmetry can be used with electric field

     Message from routine cell_base_init:
     DEPRECATED: use true lattice parameter, not A to a.u. conversion factor

     IMPORTANT: XC functional enforced from input :
     Exchange-correlation= BEEF-VDW
                           (   1   4  43  14   2   0   0)
     Any further DFT definition will be discarded
     Please, verify this is what you really want

  @ DRIVER MODE: Connecting to
 qe_1139763_3181310.sched-torque.pace.gatech.edul1ego_bl_scratch
  using UNIX socket
  @ DRIVER MODE: Message from server: STATUS
  @ DRIVER MODE: Message from server: INIT
  @ DRIVER MODE: Receiving replica           0          -1
  @ DRIVER MODE: Receiving encoded integer          25
  @ DRIVER MODE:  SCF:  T  FORCE:  T  STRESS:  F  VC:  F  ENSEMBLE:  F
  @ DRIVER MODE:  SCF:  T  FORCE:  T  STRESS:  F  VC:  F  ENSEMBLE:  F

     Using Slab Decomposition

     bravais-lattice index     =            0
     lattice parameter (alat)  =       1.8897  a.u.
     unit-cell volume          =    6658.9804 (a.u.)^3
     number of atoms/cell      =           53
     number of atomic types    =            4
     number of electrons       =       392.00
     number of Kohn-Sham states=          206
     kinetic-energy cutoff     =      29.3995  Ry
     charge density cutoff     =     293.9946  Ry
     scf convergence threshold =      7.3E-08
     mixing beta               =       0.0500
     number of iterations used =            8  plain     mixing
     Exchange-correlation= BEEF-VDW
                           (   1   4  43  14   2   0   0)

     celldm(1)=   1.889726  celldm(2)=   0.000000  celldm(3)=   0.000000
     celldm(4)=   0.000000  celldm(5)=   0.000000  celldm(6)=   0.000000

     crystal axes: (cart. coord. in units of alat)
               a(1) = (   6.579727   0.000000   0.000000 )
               a(2) = (  -0.000775   5.961596   0.000000 )
               a(3) = (   0.000000   0.000000  25.155947 )

     reciprocal axes: (cart. coord. in units 2 pi/alat)
               b(1) = (  0.151982  0.000020  0.000000 )
               b(2) = (  0.000000  0.167740  0.000000 )
               b(3) = (  0.000000  0.000000  0.039752 )

     PseudoPot. # 1 for Ti read from file:
     /storage/coda1/p-amedford6/0/shared/rich_project_chbe-medford/medford-share/data/pseudos_module/espresso/nninc/pbe/van/Ti.UPF
     MD5 check sum: 8e4df49b7f0d34bbd5052bf3f5ea0213
     Pseudo is Ultrasoft, Zval = 12.0
     Generated by new atomic code, or converted to UPF format
     Using radial grid of  851 points,  6 beta functions with:
                l(1) =   0
                l(2) =   0
                l(3) =   1
                l(4) =   1
                l(5) =   2
                l(6) =   2
     Q(r) pseudized with  8 coefficients,  rinner =    1.000   1.000   1.000
                                                       1.000   1.000

     PseudoPot. # 2 for O  read from file:
     /storage/coda1/p-amedford6/0/shared/rich_project_chbe-medford/medford-share/data/pseudos_module/espresso/nninc/pbe/van/O.UPF
     MD5 check sum: 78c19812648e8988a0fe644b0f25305e
     Pseudo is Ultrasoft, Zval =  6.0
     Generated by new atomic code, or converted to UPF format
     Using radial grid of  737 points,  4 beta functions with:
                l(1) =   0
                l(2) =   0
                l(3) =   1
                l(4) =   1
     Q(r) pseudized with  8 coefficients,  rinner =    0.800   0.800   0.800

     PseudoPot. # 3 for H  read from file:
     /storage/coda1/p-amedford6/0/shared/rich_project_chbe-medford/medford-share/data/pseudos_module/espresso/nninc/pbe/van/H.UPF
     MD5 check sum: b5ee9d7bfd3a09ee7748110bda690ff7
     Pseudo is Ultrasoft, Zval =  1.0
     Generated by new atomic code, or converted to UPF format
     Using radial grid of  615 points,  1 beta functions with:
                l(1) =   0
     Q(r) pseudized with  8 coefficients,  rinner =    0.800

     PseudoPot. # 4 for N  read from file:
     /storage/coda1/p-amedford6/0/shared/rich_project_chbe-medford/medford-share/data/pseudos_module/espresso/nninc/pbe/van/N.UPF
     MD5 check sum: 90d10febe142ad51ac9d5be1deb811c4
     Pseudo is Ultrasoft, Zval =  5.0
     Generated by new atomic code, or converted to UPF format
     Using radial grid of  729 points,  4 beta functions with:
                l(1) =   0
                l(2) =   0
                l(3) =   1
                l(4) =   1
     Q(r) pseudized with  8 coefficients,  rinner =    0.800   0.800   0.800

     atomic species   valence    mass     pseudopotential
        Ti1           12.00    47.86700     Ti( 1.00)
        O1             6.00    15.99900     O ( 1.00)
        H1             1.00     1.00800     H ( 1.00)
        N1             5.00    14.00700     N ( 1.00)

     No symmetry found

   Cartesian axes

     site n.     atom                  positions (alat units)
         1           Ti1 tau(   1) = (   0.0004258   2.9801865   6.0000000  )
         2           Ti1 tau(   2) = (   3.2906075   1.4906267   6.0002472  )
         3           O1  tau(   3) = (   0.0006271   0.0005054   7.9858123  )
         4           O1  tau(   4) = (   3.2906025   0.0005020   7.3038282  )
         5           O1  tau(   5) = (   4.5942328   1.4918067   9.2879030  )
         6           O1  tau(   6) = (   1.9868534   1.4903216   9.2879459  )
         7           Ti1 tau(   7) = (   3.2907910   2.8959150   9.1758416  )
         8           Ti1 tau(   8) = (   0.0001184   1.4796821   9.2618995  )
         9           O1  tau(   9) = (   3.3033009   5.9571037  11.3689245  )
        10           O1  tau(  10) = (   0.0046093   5.9606512  10.6148452  )
        11           O1  tau(  11) = (   1.3031693   1.4924284  12.6635891  )
        12           O1  tau(  12) = (   5.3048943   1.4931164  12.6630676  )
        13           Ti1 tau(  13) = (   0.0220873   2.9701805  12.5026553  )
        14           Ti1 tau(  14) = (   3.3209497   1.4853901  12.5165241  )
        15           O1  tau(  15) = (   0.0111090   5.9548334  14.6950652  )
        16           O1  tau(  16) = (   3.3059555   5.9578033  13.9930857  )
        17           O1  tau(  17) = (   4.5400856   1.4977043  16.1996482  )
        18           O1  tau(  18) = (   2.0449602   1.5055634  16.1912035  )
        19           Ti1 tau(  19) = (   3.3033294   2.9754315  15.7369611  )
        20           Ti1 tau(  20) = (   0.0669189   1.3514287  15.9855452  )
        21           O1  tau(  21) = (   3.2904802   0.0005063   4.7018136  )
        22           O1  tau(  22) = (   0.0169155   5.9572437  17.2386537  )
        23           O1  tau(  23) = (   1.3043587   1.4918075   6.0039043  )
        24           O1  tau(  24) = (   5.2767064   1.4903225   6.0039473  )
        25           Ti1 tau(  25) = (   0.0000382   5.9609847   6.0000000  )
        26           Ti1 tau(  26) = (   3.2902200   4.4714249   6.0002472  )
        27           O1  tau(  27) = (   0.0002396   2.9813036   7.9858123  )
        28           O1  tau(  28) = (   3.2902150   2.9813002   7.3038282  )
        29           O1  tau(  29) = (   4.5938453   4.4726049   9.2879030  )
        30           O1  tau(  30) = (   1.9864658   4.4711199   9.2879459  )
        31           Ti1 tau(  31) = (   3.2891106   5.8743827   9.1763621  )
        32           Ti1 tau(  32) = (  -0.0005703   4.4645639   9.2621285  )
        33           O1  tau(  33) = (   3.3036452   2.9764387  11.3618117  )
        34           O1  tau(  34) = (   0.0064946   2.9800876  10.6274040  )
        35           O1  tau(  35) = (   1.3025983   4.4627906  12.6614389  )
        36           O1  tau(  36) = (   5.3044333   4.4622094  12.6652126  )
        37           Ti1 tau(  37) = (   0.0242538   5.9517307  12.5043500  )
        38           Ti1 tau(  38) = (   3.3173473   4.4639239  12.5158395  )
        39           O1  tau(  39) = (   0.0133908   2.9741471  14.9664594  )
        40           O1  tau(  40) = (   3.3068033   2.9766936  13.9537582  )
        41           O1  tau(  41) = (   4.5624531   4.4468677  16.1922021  )
        42           O1  tau(  42) = (   2.0658021   4.4533190  16.1937748  )
        43           Ti1 tau(  43) = (   3.3070936   5.9559909  15.7859554  )
        44           Ti1 tau(  44) = (   6.5464735   4.5686029  15.9538643  )
        45           O1  tau(  45) = (   3.2900926   2.9813045   4.7018136  )
        46           O1  tau(  46) = (   1.3039711   4.4726057   6.0039043  )
        47           O1  tau(  47) = (   5.2763189   4.4711207   6.0039473  )
        48           H1  tau(  48) = (   6.1991321   4.2482542  18.7414658  )
        49           H1  tau(  49) = (   1.1283133   3.8395711  18.1715982  )
        50           N1  tau(  50) = (   0.1317752   3.6792193  18.0720352  )
        51           N1  tau(  51) = (   6.4315599   2.2892659  18.0861467  )
        52           H1  tau(  52) = (   5.4285218   2.1347736  18.1483859  )
        53           H1  tau(  53) = (   0.3235236   1.7579878  18.8239140  )

     number of k points=    10  Fermi-Dirac smearing, width (Ry)=  0.0073
                       cart. coord. in units 2pi/alat
        k(    1) = (   0.0000000   0.0000000   0.0000000), wk =   0.1250000
        k(    2) = (   0.0000000   0.0419351   0.0000000), wk =   0.2500000
        k(    3) = (   0.0000000  -0.0838702   0.0000000), wk =   0.1250000
        k(    4) = (   0.0379955   0.0000049   0.0000000), wk =   0.2500000
        k(    5) = (   0.0379955   0.0419400   0.0000000), wk =   0.2500000
        k(    6) = (   0.0379955  -0.0838652   0.0000000), wk =   0.2500000
        k(    7) = (   0.0379955  -0.0419301   0.0000000), wk =   0.2500000
        k(    8) = (  -0.0759910  -0.0000099   0.0000000), wk =   0.1250000
        k(    9) = (  -0.0759910   0.0419252   0.0000000), wk =   0.2500000
        k(   10) = (  -0.0759910  -0.0838800   0.0000000), wk =   0.1250000

     Initial potential from superposition of free atoms

     starting charge  375.99919, renormalised to  392.00000

     negative rho (up, down):  1.865E-02 0.000E+00

     %%%%%%%%%%%%%%%%%%%%%%%%%%%%%%%%%%%%%%%%%%%%%%%%%%%%%%%%%%%%%%%%%%%%%%%%
     %                                                                      %
     % You are using vdW-DF, which was implemented by the Thonhauser group. %
     % Please cite the following two papers that made this development      %
     % possible and the two reviews that describe the various versions:     %
     %                                                                      %
     %   T. Thonhauser et al., PRL 115, 136402 (2015).                      %
     %   T. Thonhauser et al., PRB 76, 125112 (2007).                       %
     %   K. Berland et al., Rep. Prog. Phys. 78, 066501 (2015).             %
     %   D.C. Langreth et al., J. Phys.: Condens. Matter 21, 084203 (2009). %
     %                                                                      %
     %                                                                      %
     % If you are calculating the stress with vdW-DF, please also cite:     %
     %                                                                      %
     %   R. Sabatini et al., J. Phys.: Condens. Matter 24, 424209 (2012).   %
     %                                                                      %
     %%%%%%%%%%%%%%%%%%%%%%%%%%%%%%%%%%%%%%%%%%%%%%%%%%%%%%%%%%%%%%%%%%%%%%%%

     Adding external electric field

     Computed dipole along edir(3) :
        Dipole               -7.0236 Ry au,        -17.8523 Debye
        Dipole field         -0.0133 Ry au,

        Potential amp.        1.2287 Ry
        Total length         46.3494 bohr

     Starting wfcs are  296 atomic wfcs
  @ DRIVER MODE: Message from server: STATUS
  @ DRIVER MODE: Message from server: POSDATA
  @ DRIVER MODE: Reading and sharing cell
  @ DRIVER MODE: Reading and sharing positions
  @ DRIVER MODE: Received positions

     Self-consistent Calculation

     iteration #  1     ecut=    29.40 Ry     beta= 0.05
     Davidson diagonalization with overlap
     c_bands:  1 eigenvalues not converged
     c_bands:  1 eigenvalues not converged
     c_bands:  2 eigenvalues not converged
     c_bands:  1 eigenvalues not converged
     c_bands:  1 eigenvalues not converged
     c_bands:  1 eigenvalues not converged
     ethr =  1.00E-05,  avg # of iterations = 19.6

[...]

     total energy              =   -2685.31717540 Ry
     estimated scf accuracy    <    2688.04845169 Ry

[...]

     iteration #  5     ecut=    29.40 Ry     beta= 0.05
     Davidson diagonalization with overlap
     ethr =  1.00E-02,  avg # of iterations =  6.6

[...]

     iteration # 54     ecut=    29.40 Ry     beta= 0.05
     Davidson diagonalization with overlap
     ethr =  6.24E-09,  avg # of iterations =  7.2

[...]

     total energy              =   -2928.89043212 Ry
     estimated scf accuracy    <       0.00000014 Ry

     iteration # 65     ecut=    29.40 Ry     beta= 0.05
     Davidson diagonalization with overlap
     c_bands:  1 eigenvalues not converged
     c_bands:  2 eigenvalues not converged
     ethr =  3.60E-11,  avg # of iterations = 10.0

     negative rho (up, down):  1.626E-02 0.000E+00

     Adding external electric field

     Computed dipole along edir(3) :
        Dipole                1.6237 Ry au,          4.1271 Debye
        Dipole field          0.0031 Ry au,

        Potential amp.       -0.2840 Ry
        Total length         46.3494 bohr

     End of self-consistent calculation

          k = 0.0000 0.0000 0.0000 ( 18029 PWs)   bands (ev):

   -55.3075 -55.2715 -55.2567 -55.2225 -55.1819 -55.1762 -55.1476 -55.1210
   -55.1000 -55.0894 -55.0864 -55.0795 -55.0556 -55.0242 -54.2859 -54.2518
   -31.8797 -31.7505 -31.6930 -31.6693 -31.6246 -31.6110 -31.6055 -31.5975
   -31.5477 -31.5469 -31.5180 -31.5161 -31.5025 -31.4802 -31.4645 -31.4510
   -31.4450 -31.4251 -31.4195 -31.4084 -31.3984 -31.3717 -31.3710 -31.3604
   -31.3524 -31.3240 -31.3130 -31.3125 -31.3052 -31.2979 -31.2926 -31.2901
   -31.2843 -31.2740 -31.2732 -31.2691 -31.2618 -31.2353 -31.2199 -31.2170
   -31.2013 -31.1289 -30.6951 -30.6014 -30.5794 -30.5116 -30.4248 -30.3138
   -18.6228 -16.1483 -15.8864 -15.7513 -15.5960 -15.5055 -15.4010 -15.3421
   -15.2372 -15.1555 -15.0680 -15.0555 -15.0306 -15.0041 -14.9651 -14.9322
   -14.8479 -14.8433 -14.8200 -14.8004 -14.7983 -14.7502 -14.7413 -14.7216
   -14.7024 -14.6818 -14.5470 -14.4621 -14.3943 -14.1306 -13.3134 -12.7888
   -12.6714  -7.5290  -7.0011  -5.5077  -3.4855  -3.3208  -3.2943  -3.2383
    -3.2004  -3.0598  -2.9457  -2.7257  -2.7156  -2.6214  -2.5868  -2.5392
    -2.5170  -2.4981  -2.3323  -2.3030  -2.2893  -2.2332  -2.1725  -2.1186
    -2.1036  -2.0994  -2.0882  -2.0705  -2.0648  -1.9441  -1.8702  -1.7965
    -1.7327  -1.6997  -1.6635  -1.6546  -1.6365  -1.5959  -1.5883  -1.5574
    -1.5426  -1.4973  -1.4702  -1.3396  -1.2872  -1.2160  -1.0286  -0.9420
    -0.8961  -0.8818  -0.8473  -0.8018  -0.7889  -0.6855  -0.6730  -0.6508
    -0.6032  -0.5407  -0.4839  -0.4333  -0.3641  -0.3048  -0.2963  -0.1915
    -0.0954  -0.0856  -0.0646   0.0329   0.0684   0.1157   0.1938   0.2114
     0.2232   0.3092   0.3523   0.3894   0.4272   0.4520   0.5750   0.6190
     0.6325   0.6473   0.6522   0.6764   0.7031   0.7682   0.7987   0.8683
     0.9939   1.0932   1.1681   1.2655   1.3078   1.6405   1.6437   1.7367
     1.9206   2.3112   2.3582   3.7932   3.8622   3.9361   3.9456   3.9553
     4.0268   4.1045   4.2665   4.2904   4.2984   4.3149

[...]

          k = 0.0380-0.0419 0.0000 ( 17876 PWs)   bands (ev):

[...]

          k =-0.0760-0.0000 0.0000 ( 17886 PWs)   bands (ev):

[...]

          k =-0.0760-0.0839 0.0000 ( 17948 PWs)   bands (ev):

   -55.2896 -55.2892 -55.2397 -55.2394 -55.1720 -55.1648 -55.1646 -55.1058
   -55.1038 -55.1012 -55.0739 -55.0727 -55.0713 -55.0310 -54.2688 -54.2687
   -31.6836 -31.6817 -31.6007 -31.5914 -31.5714 -31.5656 -31.5654 -31.5329
   -31.5317 -31.5111 -31.5084 -31.5065 -31.5003 -31.4450 -31.4420 -31.4392
   -31.4344 -31.4333 -31.4316 -31.4282 -31.3978 -31.3854 -31.3817 -31.3715
   -31.3585 -31.3584 -31.3573 -31.3569 -31.3418 -31.3396 -31.3348 -31.3243
   -31.3196 -31.3149 -31.3033 -31.2993 -31.2987 -31.2897 -31.2686 -31.2563
   -31.2545 -31.2341 -30.5920 -30.5920 -30.5077 -30.5075 -30.4682 -30.4682
   -18.6078 -15.5929 -15.5698 -15.5307 -15.3364 -15.3262 -15.3130 -15.3100
   -15.2072 -15.1927 -15.1206 -15.0952 -15.0481 -15.0285 -15.0137 -15.0122
   -14.9192 -14.8996 -14.8939 -14.8916 -14.8213 -14.8131 -14.8047 -14.7957
   -14.7657 -14.7588 -14.6568 -14.6540 -14.6232 -14.6030 -13.1437 -12.7729
   -12.7728  -7.5282  -7.0267  -5.5592  -3.0708  -2.8609  -2.7871  -2.7106
    -2.5539  -2.5331  -2.4931  -2.3822  -2.3434  -2.3291  -2.3225  -2.2911
    -2.2380  -2.2197  -2.2087  -2.1480  -2.1456  -2.1256  -2.1166  -2.0908
    -2.0792  -2.0360  -2.0272  -2.0078  -1.9710  -1.9543  -1.9302  -1.9050
    -1.8997  -1.8819  -1.8235  -1.7905  -1.6831  -1.6695  -1.6055  -1.5133
    -1.5059  -1.4242  -1.3965  -1.3613  -1.3400  -1.3376  -1.2166  -1.1353
    -1.0818  -1.0507  -1.0437  -0.9342  -0.8981  -0.8161  -0.8031  -0.7893
    -0.7321  -0.6484  -0.6280  -0.6124  -0.5254  -0.4655  -0.4562  -0.3604
    -0.3378  -0.2763  -0.2622  -0.2604  -0.2182  -0.2006  -0.1675  -0.1130
    -0.0775  -0.0403  -0.0181   0.0216   0.2181   0.2389   0.2625   0.3923
     0.5112   0.5333   0.5648   0.6038   0.6991   0.7621   0.8036   0.8497
     0.9016   0.9857   0.9949   1.0900   1.0963   1.1514   1.1579   2.0933
     2.0942   2.1790   2.1798   3.9635   4.0055   4.0657   4.0953   4.1782
     4.3067   4.3222   4.3761   4.4444   4.4485   4.4533

     the Fermi energy is     3.8563 ev

!    total energy              =   -2928.89046801 Ry
     estimated scf accuracy    <       0.00000004 Ry
     smearing contrib. (-TS)   =      -0.03700777 Ry
     internal energy E=F+TS    =   -2928.85346024 Ry

     The total energy is F=E-TS. E is the sum of the following terms:
     one-electron contribution =  -24389.52817062 Ry
     hartree contribution      =   12286.28347530 Ry
     xc contribution           =    -482.73953509 Ry
     ewald contribution        =    9657.12579474 Ry
     electric field correction =       0.00497543 Ry

     convergence has been achieved in  65 iterations

     Forces acting on atoms (cartesian axes, Ry/au):

     atom    1 type  1   force =     0.00007928   -0.00019181    0.09198228
     atom    2 type  1   force =    -0.00017705   -0.00022159   -0.17803216
     atom    3 type  2   force =     0.00000667   -0.00050101   -0.02212780
     atom    4 type  2   force =     0.00003102   -0.00184612    0.05824929
     atom    5 type  2   force =    -0.01042210   -0.00082065    0.00668270
     atom    6 type  2   force =     0.01172253   -0.00037281    0.00700693
     atom    7 type  1   force =    -0.00032127    0.00236892   -0.01478143
     atom    8 type  1   force =     0.00007163    0.00002656    0.00013837
     atom    9 type  2   force =    -0.00010466   -0.00011689   -0.00082890
     atom   10 type  2   force =     0.00012452   -0.00005080    0.00050718
     atom   11 type  2   force =     0.00012664   -0.00005964   -0.00028180
     atom   12 type  2   force =    -0.00033569   -0.00005077   -0.00019846
     atom   13 type  1   force =     0.00005037    0.00021428    0.00014808
     atom   14 type  1   force =    -0.00008641   -0.00010911   -0.00010127
     atom   15 type  2   force =     0.00018788   -0.00024636    0.00058071
     atom   16 type  2   force =    -0.00009903    0.00007265   -0.00029729
     atom   17 type  2   force =    -0.00062806   -0.00023829    0.00003518
     atom   18 type  2   force =     0.00073292   -0.00016118    0.00032376
     atom   19 type  1   force =    -0.00002250   -0.00008502    0.00043162
     atom   20 type  1   force =    -0.00066089   -0.00045542   -0.00027300
     atom   21 type  2   force =     0.00000714   -0.00003089    0.10386588
     atom   22 type  2   force =    -0.00007745    0.00049522   -0.00107702
     atom   23 type  2   force =    -0.07048485   -0.00019466   -0.02664866
     atom   24 type  2   force =     0.07032581    0.00023296   -0.02670159
     atom   25 type  1   force =     0.00003376   -0.00012757    0.09067208
     atom   26 type  1   force =    -0.00017255   -0.00037115   -0.17819921
     atom   27 type  2   force =     0.00000844   -0.00018436   -0.02114909
     atom   28 type  2   force =     0.00006309   -0.00153000    0.05746991
     atom   29 type  2   force =    -0.01050270   -0.00096998    0.00673557
     atom   30 type  2   force =     0.01167146   -0.00039084    0.00703924
     atom   31 type  1   force =    -0.00036658    0.00548518   -0.01572394
     atom   32 type  1   force =     0.00003631   -0.00001499    0.00008974
     atom   33 type  2   force =    -0.00010643   -0.00008787   -0.00053245
     atom   34 type  2   force =    -0.00002846    0.00000406    0.00021628
     atom   35 type  2   force =     0.00016813   -0.00021652   -0.00016011
     atom   36 type  2   force =    -0.00038306   -0.00019715   -0.00015823
     atom   37 type  1   force =     0.00003069   -0.00007404    0.00083685
     atom   38 type  1   force =    -0.00014846   -0.00037144   -0.00009317
     atom   39 type  2   force =     0.00000229    0.00009137   -0.00016815
     atom   40 type  2   force =    -0.00039091   -0.00004343   -0.00027796
     atom   41 type  2   force =    -0.00057124    0.00002721    0.00033560
     atom   42 type  2   force =     0.00039975    0.00005656    0.00056726
     atom   43 type  1   force =    -0.00014397   -0.00004363   -0.00012978
     atom   44 type  1   force =     0.00029869    0.00117701    0.00130209
     atom   45 type  2   force =     0.00000708   -0.00004152    0.10384563
     atom   46 type  2   force =    -0.07048855   -0.00003697   -0.02668535
     atom   47 type  2   force =     0.07034403    0.00042854   -0.02672402
     atom   48 type  3   force =     0.00017559   -0.00135098    0.00044564
     atom   49 type  3   force =     0.00093699   -0.00023065    0.00004340
     atom   50 type  4   force =    -0.00120650    0.00088539   -0.00108333
     atom   51 type  4   force =     0.00316718   -0.00475254    0.01243828
     atom   52 type  3   force =     0.00154968    0.00113035   -0.00094392
     atom   53 type  3   force =    -0.00443020    0.00409237   -0.00861148

     Total force =     0.365416     Total SCF correction =     0.000555
  @ DRIVER MODE: Message from server: STATUS
  @ DRIVER MODE: Message from server: GETFORCE
  @ DRIVER MODE: Returning v,forces,stress,ensemble

     Writing output data file ./calc.save/
  @ DRIVER MODE: Message from server: EXIT
  @ DRIVE MODE: Exiting

     General routines

     Parallel routines

   This run was terminated on:   1:22:22  13Oct2021

   JOB DONE.