     Program PWSCF v.6.7GPU starts on  9Sep2021 at 15:13:33

     R & G space division:  proc/nbgrp/npool/nimage =      10
     Reading input from /storage/home/hcoda1/3/ntian30/research/carbon/CxH_vib/CH3_calc/ads_slab/CH3NNHHH_a/out_0052/pw.inp
Warning: card &CELL ignored
Warning: card   CELL_DYNAMICS='IPI', ignored
Warning: card / ignored

     Current dimensions of program PWSCF are:
     Max number of different atomic species (ntypx) = 10
     Max number of k-points (npk) =  40000
     Max angular momentum in pseudopotentials (lmaxx) =  3
     Presently no symmetry can be used with electric field

     Message from routine cell_base_init:
     DEPRECATED: use true lattice parameter, not A to a.u. conversion factor

     IMPORTANT: XC functional enforced from input :
     Exchange-correlation= BEEF-VDW
                           (   1   4  43  14   2   0   0)
     Any further DFT definition will be discarded
     Please, verify this is what you really want

  @ DRIVER MODE: Connecting to
 qe_1139763_2767399.sched-torque.pace.gatech.edu7hlqai2q_scratch
  using UNIX socket
  @ DRIVER MODE: Message from server: STATUS
  @ DRIVER MODE: Message from server: INIT
  @ DRIVER MODE: Receiving replica           0          -1
  @ DRIVER MODE: Receiving encoded integer          25
  @ DRIVER MODE:  SCF:  T  FORCE:  T  STRESS:  F  VC:  F  ENSEMBLE:  F
  @ DRIVER MODE:  SCF:  T  FORCE:  T  STRESS:  F  VC:  F  ENSEMBLE:  F

     Using Slab Decomposition

     bravais-lattice index     =            0
     lattice parameter (alat)  =       1.8897  a.u.
     unit-cell volume          =    6658.9804 (a.u.)^3
     number of atoms/cell      =           56
     number of atomic types    =            5
     number of electrons       =       398.00
     number of Kohn-Sham states=          209
     kinetic-energy cutoff     =      29.3995  Ry
     charge density cutoff     =     293.9946  Ry
     scf convergence threshold =      7.3E-08
     mixing beta               =       0.0500
     number of iterations used =            8  plain     mixing
     Exchange-correlation= BEEF-VDW
                           (   1   4  43  14   2   0   0)

     celldm(1)=   1.889726  celldm(2)=   0.000000  celldm(3)=   0.000000
     celldm(4)=   0.000000  celldm(5)=   0.000000  celldm(6)=   0.000000

     crystal axes: (cart. coord. in units of alat)
               a(1) = (   6.579727   0.000000   0.000000 )
               a(2) = (  -0.000775   5.961596   0.000000 )
               a(3) = (   0.000000   0.000000  25.155947 )

     reciprocal axes: (cart. coord. in units 2 pi/alat)
               b(1) = (  0.151982  0.000020  0.000000 )
               b(2) = (  0.000000  0.167740  0.000000 )
               b(3) = (  0.000000  0.000000  0.039752 )

     PseudoPot. # 1 for Ti read from file:
     /storage/coda1/p-amedford6/0/shared/rich_project_chbe-medford/medford-share/data/pseudos_module/espresso/nninc/pbe/van/Ti.UPF
     MD5 check sum: 8e4df49b7f0d34bbd5052bf3f5ea0213
     Pseudo is Ultrasoft, Zval = 12.0
     Generated by new atomic code, or converted to UPF format
     Using radial grid of  851 points,  6 beta functions with:
                l(1) =   0
                l(2) =   0
                l(3) =   1
                l(4) =   1
                l(5) =   2
                l(6) =   2
     Q(r) pseudized with  8 coefficients,  rinner =    1.000   1.000   1.000
                                                       1.000   1.000

     PseudoPot. # 2 for O  read from file:
     /storage/coda1/p-amedford6/0/shared/rich_project_chbe-medford/medford-share/data/pseudos_module/espresso/nninc/pbe/van/O.UPF
     MD5 check sum: 78c19812648e8988a0fe644b0f25305e
     Pseudo is Ultrasoft, Zval =  6.0
     Generated by new atomic code, or converted to UPF format
     Using radial grid of  737 points,  4 beta functions with:
                l(1) =   0
                l(2) =   0
                l(3) =   1
                l(4) =   1
     Q(r) pseudized with  8 coefficients,  rinner =    0.800   0.800   0.800

     PseudoPot. # 3 for N  read from file:
     /storage/coda1/p-amedford6/0/shared/rich_project_chbe-medford/medford-share/data/pseudos_module/espresso/nninc/pbe/van/N.UPF
     MD5 check sum: 90d10febe142ad51ac9d5be1deb811c4
     Pseudo is Ultrasoft, Zval =  5.0
     Generated by new atomic code, or converted to UPF format
     Using radial grid of  729 points,  4 beta functions with:
                l(1) =   0
                l(2) =   0
                l(3) =   1
                l(4) =   1
     Q(r) pseudized with  8 coefficients,  rinner =    0.800   0.800   0.800

     PseudoPot. # 4 for C  read from file:
     /storage/coda1/p-amedford6/0/shared/rich_project_chbe-medford/medford-share/data/pseudos_module/espresso/nninc/pbe/van/C.UPF
     MD5 check sum: 1a69bf6b8db32088f5b2163dbdb77a27
     Pseudo is Ultrasoft, Zval =  4.0
     Generated by new atomic code, or converted to UPF format
     Using radial grid of  721 points,  4 beta functions with:
                l(1) =   0
                l(2) =   0
                l(3) =   1
                l(4) =   1
     Q(r) pseudized with  8 coefficients,  rinner =    0.800   0.800   0.800

     PseudoPot. # 5 for H  read from file:
     /storage/coda1/p-amedford6/0/shared/rich_project_chbe-medford/medford-share/data/pseudos_module/espresso/nninc/pbe/van/H.UPF
     MD5 check sum: b5ee9d7bfd3a09ee7748110bda690ff7
     Pseudo is Ultrasoft, Zval =  1.0
     Generated by new atomic code, or converted to UPF format
     Using radial grid of  615 points,  1 beta functions with:
                l(1) =   0
     Q(r) pseudized with  8 coefficients,  rinner =    0.800

     atomic species   valence    mass     pseudopotential
        Ti1           12.00    47.86700     Ti( 1.00)
        O1             6.00    15.99900     O ( 1.00)
        N1             5.00    14.00700     N ( 1.00)
        C1             4.00    12.01100     C ( 1.00)
        H1             1.00     1.00800     H ( 1.00)

     No symmetry found

   Cartesian axes

     site n.     atom                  positions (alat units)
         1           Ti1 tau(   1) = (   0.0004258   2.9801865   6.0000000  )
         2           Ti1 tau(   2) = (   3.2906075   1.4906267   6.0002472  )
         3           O1  tau(   3) = (   0.0006271   0.0005054   7.9858123  )
         4           O1  tau(   4) = (   3.2906025   0.0005020   7.3038282  )
         5           O1  tau(   5) = (   4.5942328   1.4918067   9.2879030  )
         6           O1  tau(   6) = (   1.9868534   1.4903216   9.2879459  )
         7           Ti1 tau(   7) = (   3.2907910   2.8959150   9.1758416  )
         8           Ti1 tau(   8) = (   0.0015273   1.4827037   9.2680791  )
         9           O1  tau(   9) = (   3.3120675   0.0079458  11.3762204  )
        10           O1  tau(  10) = (   0.0116148   5.9584955  10.6183126  )
        11           O1  tau(  11) = (   1.3148726   1.5133626  12.6447579  )
        12           O1  tau(  12) = (   5.3140862   1.5122126  12.6508301  )
        13           Ti1 tau(  13) = (   0.0289753   2.9995974  12.5105963  )
        14           Ti1 tau(  14) = (   3.3300932   1.5144954  12.5190352  )
        15           O1  tau(  15) = (   0.0303621   0.0967028  14.6836000  )
        16           O1  tau(  16) = (   3.3188409   0.0235386  14.0025835  )
        17           O1  tau(  17) = (   4.5661268   1.5053193  16.2317874  )
        18           O1  tau(  18) = (   2.0488868   1.5039614  16.2002260  )
        19           Ti1 tau(  19) = (   3.3211226   2.9745325  15.7560014  )
        20           Ti1 tau(  20) = (   0.0641794   1.4487855  16.0607878  )
        21           O1  tau(  21) = (   3.2904802   0.0005063   4.7018136  )
        22           O1  tau(  22) = (   0.0207051   5.8381987  17.2232637  )
        23           O1  tau(  23) = (   1.3043587   1.4918075   6.0039043  )
        24           O1  tau(  24) = (   5.2767064   1.4903225   6.0039473  )
        25           Ti1 tau(  25) = (   0.0000382   5.9609847   6.0000000  )
        26           Ti1 tau(  26) = (   3.2902200   4.4714249   6.0002472  )
        27           O1  tau(  27) = (   0.0002396   2.9813036   7.9858123  )
        28           O1  tau(  28) = (   3.2902150   2.9813002   7.3038282  )
        29           O1  tau(  29) = (   4.5938453   4.4726049   9.2879030  )
        30           O1  tau(  30) = (   1.9864658   4.4711199   9.2879459  )
        31           Ti1 tau(  31) = (   3.2891106   5.8743827   9.1763621  )
        32           Ti1 tau(  32) = (   0.0006254   4.4649316   9.2693709  )
        33           O1  tau(  33) = (   3.3137607   3.0039157  11.3695003  )
        34           O1  tau(  34) = (   0.0092240   2.9805883  10.6323155  )
        35           O1  tau(  35) = (   1.3103219   4.4840529  12.6837359  )
        36           O1  tau(  36) = (   5.3166572   4.4842854  12.6901167  )
        37           Ti1 tau(  37) = (   0.0376818   0.0300362  12.4998423  )
        38           Ti1 tau(  38) = (   3.3279277   4.4933691  12.5326681  )
        39           O1  tau(  39) = (   0.0236785   2.9473731  14.9547601  )
        40           O1  tau(  40) = (   3.3158584   2.9778716  13.9675922  )
        41           O1  tau(  41) = (   4.5769684   4.4551829  16.1482216  )
        42           O1  tau(  42) = (   2.0574928   4.4544973  16.1629196  )
        43           Ti1 tau(  43) = (   3.3270828   0.0048838  15.7999907  )
        44           Ti1 tau(  44) = (   0.0216784   4.6657176  15.8371636  )
        45           O1  tau(  45) = (   3.2900926   2.9813045   4.7018136  )
        46           O1  tau(  46) = (   1.3039711   4.4726057   6.0039043  )
        47           O1  tau(  47) = (   5.2763189   4.4711207   6.0039473  )
        48           N1  tau(  48) = (   1.0300599   3.1028741  18.8625222  )
        49           N1  tau(  49) = (   6.4529598   2.6395754  18.1308714  )
        50           C1  tau(  50) = (   0.6566364   3.8075245  20.0867497  )
        51           H1  tau(  51) = (   6.5334193   4.6337433  19.9095685  )
        52           H1  tau(  52) = (   0.2127083   3.1054723  20.7945791  )
        53           H1  tau(  53) = (   1.5644534   4.2160081  20.5287796  )
        54           H1  tau(  54) = (   5.6912064   3.3271340  18.1715891  )
        55           H1  tau(  55) = (   6.1153184   1.7991689  18.5966666  )
        56           H1  tau(  56) = (   1.4989484   3.7655826  18.2384742  )

     number of k points=    10  Fermi-Dirac smearing, width (Ry)=  0.0073
                       cart. coord. in units 2pi/alat
        k(    1) = (   0.0000000   0.0000000   0.0000000), wk =   0.1250000
        k(    2) = (   0.0000000   0.0419351   0.0000000), wk =   0.2500000
        k(    3) = (   0.0000000  -0.0838702   0.0000000), wk =   0.1250000
        k(    4) = (   0.0379955   0.0000049   0.0000000), wk =   0.2500000
        k(    5) = (   0.0379955   0.0419400   0.0000000), wk =   0.2500000
        k(    6) = (   0.0379955  -0.0838652   0.0000000), wk =   0.2500000
        k(    7) = (   0.0379955  -0.0419301   0.0000000), wk =   0.2500000
        k(    8) = (  -0.0759910  -0.0000099   0.0000000), wk =   0.1250000
        k(    9) = (  -0.0759910   0.0419252   0.0000000), wk =   0.2500000
        k(   10) = (  -0.0759910  -0.0838800   0.0000000), wk =   0.1250000

     Initial potential from superposition of free atoms

     starting charge  381.99914, renormalised to  398.00000

     negative rho (up, down):  1.340E-02 0.000E+00

     %%%%%%%%%%%%%%%%%%%%%%%%%%%%%%%%%%%%%%%%%%%%%%%%%%%%%%%%%%%%%%%%%%%%%%%%
     %                                                                      %
     % You are using vdW-DF, which was implemented by the Thonhauser group. %
     % Please cite the following two papers that made this development      %
     % possible and the two reviews that describe the various versions:     %
     %                                                                      %
     %   T. Thonhauser et al., PRL 115, 136402 (2015).                      %
     %   T. Thonhauser et al., PRB 76, 125112 (2007).                       %
     %   K. Berland et al., Rep. Prog. Phys. 78, 066501 (2015).             %
     %   D.C. Langreth et al., J. Phys.: Condens. Matter 21, 084203 (2009). %
     %                                                                      %
     %                                                                      %
     % If you are calculating the stress with vdW-DF, please also cite:     %
     %                                                                      %
     %   R. Sabatini et al., J. Phys.: Condens. Matter 24, 424209 (2012).   %
     %                                                                      %
     %%%%%%%%%%%%%%%%%%%%%%%%%%%%%%%%%%%%%%%%%%%%%%%%%%%%%%%%%%%%%%%%%%%%%%%%

     Adding external electric field

     Computed dipole along edir(3) :
        Dipole              -11.7464 Ry au,        -29.8564 Debye
        Dipole field         -0.0222 Ry au,

        Potential amp.        2.0549 Ry
        Total length         46.3494 bohr

     Starting wfcs are  302 atomic wfcs
  @ DRIVER MODE: Message from server: STATUS
  @ DRIVER MODE: Message from server: POSDATA
  @ DRIVER MODE: Reading and sharing cell
  @ DRIVER MODE: Reading and sharing positions
  @ DRIVER MODE: Received positions

     Self-consistent Calculation

     iteration #  1     ecut=    29.40 Ry     beta= 0.05
     Davidson diagonalization with overlap
     c_bands:  1 eigenvalues not converged
     c_bands:  1 eigenvalues not converged
     c_bands:  1 eigenvalues not converged
     c_bands:  3 eigenvalues not converged
     c_bands:  3 eigenvalues not converged
     c_bands:  3 eigenvalues not converged
     c_bands:  4 eigenvalues not converged
     c_bands:  2 eigenvalues not converged
     ethr =  1.00E-05,  avg # of iterations = 21.6

[...]

     total energy              =   -2428.10246329 Ry
     estimated scf accuracy    <    5789.77551027 Ry

     iteration #  2     ecut=    29.40 Ry     beta= 0.05
     Davidson diagonalization with overlap
     ethr =  1.00E-02,  avg # of iterations = 22.4

[...]

     iteration # 85     ecut=    29.40 Ry     beta= 0.05
     Davidson diagonalization with overlap
     c_bands:  1 eigenvalues not converged
     ethr =  2.69E-11,  avg # of iterations = 11.6

[...]

     total energy              =   -2942.85969962 Ry
     estimated scf accuracy    <       0.00000007 Ry

     iteration # 86     ecut=    29.40 Ry     beta= 0.05
     Davidson diagonalization with overlap
     ethr =  1.88E-11,  avg # of iterations = 12.8

     negative rho (up, down):  1.464E-02 0.000E+00

     Adding external electric field

     Computed dipole along edir(3) :
        Dipole                1.2219 Ry au,          3.1057 Debye
        Dipole field          0.0023 Ry au,

        Potential amp.       -0.2137 Ry
        Total length         46.3494 bohr

     End of self-consistent calculation

          k = 0.0000 0.0000 0.0000 ( 18029 PWs)   bands (ev):

   -55.3492 -55.3123 -55.3013 -55.2705 -55.2672 -55.2330 -55.2259 -55.1906
   -55.1695 -55.1458 -55.1351 -55.1330 -55.0993 -55.0275 -54.3312 -54.2971
   -31.9177 -31.8021 -31.7938 -31.7145 -31.6649 -31.6589 -31.6522 -31.6387
   -31.5906 -31.5900 -31.5588 -31.5534 -31.5464 -31.5306 -31.5192 -31.5117
   -31.5045 -31.4892 -31.4867 -31.4667 -31.4539 -31.4460 -31.4192 -31.4151
   -31.4041 -31.4019 -31.4004 -31.3722 -31.3585 -31.3565 -31.3514 -31.3319
   -31.3288 -31.3206 -31.3195 -31.3173 -31.2832 -31.2692 -31.2613 -31.2443
   -31.2338 -31.2093 -30.7406 -30.6463 -30.6242 -30.5569 -30.4702 -30.3593
   -17.7916 -16.1854 -15.9178 -15.7778 -15.6680 -15.5490 -15.4305 -15.4109
   -15.2789 -15.1961 -15.0761 -15.0532 -15.0267 -15.0074 -14.9953 -14.9803
   -14.8947 -14.8887 -14.8713 -14.8439 -14.8376 -14.7949 -14.7875 -14.7478
   -14.7262 -14.7249 -14.5965 -14.5088 -14.4370 -14.2014 -13.1722 -12.8337
   -12.7162  -9.7120  -6.3717  -5.3825  -4.8765  -3.5378  -3.4960  -3.3693
    -3.2792  -3.2641  -3.2422  -3.1060  -2.9526  -2.7825  -2.7678  -2.7468
    -2.6389  -2.5614  -2.5553  -2.5305  -2.3791  -2.3574  -2.3064  -2.2409
    -2.2134  -2.1648  -2.1542  -2.1332  -2.1138  -2.0936  -2.0856  -1.9720
    -1.9209  -1.8281  -1.7723  -1.7450  -1.7093  -1.6815  -1.6663  -1.6390
    -1.6309  -1.5885  -1.5613  -1.5396  -1.4884  -1.3764  -1.2672  -1.2374
    -1.1399  -0.9877  -0.9514  -0.9416  -0.9298  -0.8539  -0.8366  -0.7886
    -0.7359  -0.7277  -0.6969  -0.5859  -0.5272  -0.4624  -0.3958  -0.3844
    -0.3374  -0.2757  -0.1632  -0.1391  -0.1166  -0.0915   0.0024   0.0418
     0.0868   0.1615   0.1808   0.1943   0.3012   0.3088   0.3890   0.4011
     0.4465   0.5332   0.5674   0.5897   0.5936   0.6071   0.6371   0.7041
     0.7284   0.7548   0.8298   0.9537   1.0214   1.1853   1.2486   1.2624
     1.5921   1.5964   1.6916   1.8754   2.2678   2.3161   3.7482   3.8177
     3.8926   3.8993   3.9112   3.9850   4.2222   4.2384   4.2509   4.2571
     4.2917

[...]

          k = 0.0380-0.0419 0.0000 ( 17876 PWs)   bands (ev):

[...]

          k =-0.0760-0.0000 0.0000 ( 17886 PWs)   bands (ev):

[...]

          k =-0.0760-0.0839 0.0000 ( 17948 PWs)   bands (ev):

   -55.3350 -55.3263 -55.2842 -55.2842 -55.2690 -55.2296 -55.2123 -55.2042
   -55.1540 -55.1501 -55.1491 -55.1164 -55.1161 -55.0287 -54.3141 -54.3141
   -31.7249 -31.7222 -31.7184 -31.6347 -31.6089 -31.6088 -31.6062 -31.5758
   -31.5757 -31.5576 -31.5502 -31.5478 -31.5418 -31.5120 -31.5050 -31.4869
   -31.4865 -31.4826 -31.4793 -31.4740 -31.4710 -31.4701 -31.4332 -31.4279
   -31.4257 -31.4212 -31.4171 -31.4056 -31.4039 -31.4039 -31.3971 -31.3875
   -31.3832 -31.3671 -31.3636 -31.3475 -31.3468 -31.3375 -31.2973 -31.2971
   -31.2871 -31.2385 -30.6369 -30.6368 -30.5531 -30.5530 -30.5136 -30.5135
   -17.7869 -15.7090 -15.5968 -15.5506 -15.3775 -15.3552 -15.3327 -15.3178
   -15.1898 -15.1713 -15.1433 -15.1172 -15.0922 -15.0645 -15.0533 -15.0482
   -14.9659 -14.9540 -14.9465 -14.9304 -14.8625 -14.8595 -14.8553 -14.8494
   -14.7986 -14.7961 -14.7155 -14.7022 -14.7008 -14.5039 -13.1732 -12.8178
   -12.8176  -9.7084  -6.3591  -5.3826  -4.8824  -3.4691  -2.8653  -2.8301
    -2.8064  -2.7752  -2.5930  -2.5548  -2.5180  -2.5055  -2.4065  -2.3642
    -2.3465  -2.3391  -2.2689  -2.2655  -2.2344  -2.2045  -2.1836  -2.1666
    -2.1527  -2.1308  -2.1057  -2.0767  -2.0707  -2.0553  -2.0014  -1.9986
    -1.9821  -1.9609  -1.9435  -1.9216  -1.9058  -1.8494  -1.7271  -1.7168
    -1.6626  -1.5564  -1.5518  -1.4715  -1.4664  -1.4223  -1.3944  -1.3825
    -1.3550  -1.1753  -1.1216  -1.0953  -1.0879  -1.0751  -0.9673  -0.9333
    -0.8754  -0.8595  -0.8335  -0.7355  -0.6851  -0.6807  -0.5990  -0.5676
    -0.5286  -0.4862  -0.3857  -0.3559  -0.3355  -0.3072  -0.3037  -0.2502
    -0.2448  -0.1681  -0.1203  -0.0843  -0.0698  -0.0387   0.1609   0.1703
     0.1886   0.3355   0.3581   0.4986   0.5424   0.5841   0.6450   0.6969
     0.7627   0.8034   0.9298   0.9581   0.9587   1.0290   1.0492   1.0526
     1.1072   1.1091   2.0480   2.0487   2.1360   2.1362   3.8912   3.9957
     4.0106   4.0560   4.1659   4.2394   4.2628   4.2898   4.3326   4.3354
     4.4004

     the Fermi energy is     3.8110 ev

!    total energy              =   -2942.85970461 Ry
     estimated scf accuracy    <       0.00000004 Ry
     smearing contrib. (-TS)   =      -0.03701571 Ry
     internal energy E=F+TS    =   -2942.82268889 Ry

     The total energy is F=E-TS. E is the sum of the following terms:
     one-electron contribution =  -23389.39741213 Ry
     hartree contribution      =   11787.23071020 Ry
     xc contribution           =    -487.75142216 Ry
     ewald contribution        =    9147.09261774 Ry
     electric field correction =       0.00281746 Ry

     convergence has been achieved in  86 iterations

     Forces acting on atoms (cartesian axes, Ry/au):

     atom    1 type  1   force =     0.00000491   -0.00026041    0.09307045
     atom    2 type  1   force =    -0.00014960   -0.00042239   -0.17828942
     atom    3 type  2   force =     0.00007418   -0.00008948   -0.02023274
     atom    4 type  2   force =     0.00001659   -0.00186750    0.05883201
     atom    5 type  2   force =    -0.01019870   -0.00054284    0.00775220
     atom    6 type  2   force =     0.01225074    0.00007533    0.00821160
     atom    7 type  1   force =     0.00038741    0.00327692   -0.01426738
     atom    8 type  1   force =    -0.00045591    0.00046344   -0.00455628
     atom    9 type  2   force =    -0.00002538   -0.00061817   -0.00034817
     atom   10 type  2   force =    -0.00059580    0.00091214   -0.00140762
     atom   11 type  2   force =    -0.00038237   -0.00011922    0.00023742
     atom   12 type  2   force =     0.00007162   -0.00006504    0.00004490
     atom   13 type  1   force =     0.00005629   -0.00031457    0.00017811
     atom   14 type  1   force =    -0.00036792    0.00013503    0.00042859
     atom   15 type  2   force =    -0.00016075    0.00078077    0.00025826
     atom   16 type  2   force =    -0.00008586   -0.00019033    0.00031655
     atom   17 type  2   force =    -0.00045570    0.00004124    0.00040217
     atom   18 type  2   force =     0.00014887   -0.00026093   -0.00014658
     atom   19 type  1   force =     0.00031006    0.00022972    0.00100219
     atom   20 type  1   force =    -0.00058056   -0.00059989    0.00030748
     atom   21 type  2   force =     0.00000189   -0.00010391    0.10392770
     atom   22 type  2   force =    -0.00017769    0.00000977   -0.00059080
     atom   23 type  2   force =    -0.07033465   -0.00022356   -0.02686576
     atom   24 type  2   force =     0.07023170    0.00020327   -0.02694634
     atom   25 type  1   force =     0.00002115   -0.00026579    0.09273440
     atom   26 type  1   force =    -0.00011959   -0.00045517   -0.17832487
     atom   27 type  2   force =     0.00013847   -0.00032847   -0.01926567
     atom   28 type  2   force =     0.00008214   -0.00155056    0.05822172
     atom   29 type  2   force =    -0.01020493   -0.00033022    0.00697163
     atom   30 type  2   force =     0.01215478   -0.00008858    0.00750641
     atom   31 type  1   force =     0.00040137    0.00495445   -0.01540995
     atom   32 type  1   force =    -0.00037509   -0.00033844   -0.00466234
     atom   33 type  2   force =    -0.00021812   -0.00047785    0.00018089
     atom   34 type  2   force =    -0.00014121    0.00364233   -0.00059041
     atom   35 type  2   force =     0.00002841   -0.00056302    0.00032476
     atom   36 type  2   force =    -0.00018569   -0.00053211   -0.00002535
     atom   37 type  1   force =    -0.00025611   -0.00048813    0.00048592
     atom   38 type  1   force =    -0.00019535   -0.00089989    0.00046234
     atom   39 type  2   force =    -0.00047508   -0.00052342    0.00053802
     atom   40 type  2   force =     0.00001388   -0.00048419   -0.00042368
     atom   41 type  2   force =    -0.00079476   -0.00011056   -0.00012980
     atom   42 type  2   force =     0.00029261   -0.00017153   -0.00032162
     atom   43 type  1   force =     0.00006275   -0.00025633   -0.00007191
     atom   44 type  1   force =    -0.00011508   -0.00071117    0.00061709
     atom   45 type  2   force =     0.00000891   -0.00014425    0.10391967
     atom   46 type  2   force =    -0.07038400   -0.00018502   -0.02688267
     atom   47 type  2   force =     0.07024676    0.00025618   -0.02695386
     atom   48 type  3   force =     0.00583763    0.00869047   -0.00584359
     atom   49 type  3   force =     0.00025680    0.00149027   -0.00050283
     atom   50 type  4   force =    -0.00242414   -0.00032672    0.00069631
     atom   51 type  5   force =    -0.00055957    0.00004265    0.00011269
     atom   52 type  5   force =     0.00021949   -0.00009168    0.00045615
     atom   53 type  5   force =     0.00104675    0.00020897    0.00087923
     atom   54 type  5   force =    -0.00004458   -0.00057664   -0.00041592
     atom   55 type  5   force =     0.00063288   -0.00177040   -0.00024848
     atom   56 type  5   force =    -0.00453483   -0.00806456    0.00464721

     Total force =     0.366476     Total SCF correction =     0.000786
  @ DRIVER MODE: Message from server: STATUS
  @ DRIVER MODE: Message from server: GETFORCE
  @ DRIVER MODE: Returning v,forces,stress,ensemble

     Writing output data file ./calc.save/
  @ DRIVER MODE: Message from server: EXIT
  @ DRIVE MODE: Exiting

     General routines

     Parallel routines

   This run was terminated on:  15:37: 5   9Sep2021

   JOB DONE.