     Program PWSCF v.6.7GPU starts on 24Sep2021 at  5:16:37

     R & G space division:  proc/nbgrp/npool/nimage =       8
     Reading input from /storage/home/hcoda1/3/ntian30/research/carbon/CxH_vib/H2O_calc/ads_slab/CH2NNHHHO_a/out_0042/pw.inp
Warning: card &CELL ignored
Warning: card   CELL_DYNAMICS='IPI', ignored
Warning: card / ignored

     Current dimensions of program PWSCF are:
     Max number of different atomic species (ntypx) = 10
     Max number of k-points (npk) =  40000
     Max angular momentum in pseudopotentials (lmaxx) =  3
     Presently no symmetry can be used with electric field

     Message from routine cell_base_init:
     DEPRECATED: use true lattice parameter, not A to a.u. conversion factor

     IMPORTANT: XC functional enforced from input :
     Exchange-correlation= BEEF-VDW
                           (   1   4  43  14   2   0   0)
     Any further DFT definition will be discarded
     Please, verify this is what you really want

  @ DRIVER MODE: Connecting to
 qe_1139763_2947314.sched-torque.pace.gatech.edumtfx5me9_scratch
  using UNIX socket
  @ DRIVER MODE: Message from server: STATUS
  @ DRIVER MODE: Message from server: INIT
  @ DRIVER MODE: Receiving replica           0          -1
  @ DRIVER MODE: Receiving encoded integer          25
  @ DRIVER MODE:  SCF:  T  FORCE:  T  STRESS:  F  VC:  F  ENSEMBLE:  F
  @ DRIVER MODE:  SCF:  T  FORCE:  T  STRESS:  F  VC:  F  ENSEMBLE:  F

     Using Slab Decomposition

     bravais-lattice index     =            0
     lattice parameter (alat)  =       1.8897  a.u.
     unit-cell volume          =    6658.9804 (a.u.)^3
     number of atoms/cell      =           56
     number of atomic types    =            5
     number of electrons       =       403.00
     number of Kohn-Sham states=          211
     kinetic-energy cutoff     =      29.3995  Ry
     charge density cutoff     =     293.9946  Ry
     scf convergence threshold =      7.3E-08
     mixing beta               =       0.0500
     number of iterations used =            8  plain     mixing
     Exchange-correlation= BEEF-VDW
                           (   1   4  43  14   2   0   0)

     celldm(1)=   1.889726  celldm(2)=   0.000000  celldm(3)=   0.000000
     celldm(4)=   0.000000  celldm(5)=   0.000000  celldm(6)=   0.000000

     crystal axes: (cart. coord. in units of alat)
               a(1) = (   6.579727   0.000000   0.000000 )
               a(2) = (  -0.000775   5.961596   0.000000 )
               a(3) = (   0.000000   0.000000  25.155947 )

     reciprocal axes: (cart. coord. in units 2 pi/alat)
               b(1) = (  0.151982  0.000020  0.000000 )
               b(2) = (  0.000000  0.167740  0.000000 )
               b(3) = (  0.000000  0.000000  0.039752 )

     PseudoPot. # 1 for Ti read from file:
     /storage/coda1/p-amedford6/0/shared/rich_project_chbe-medford/medford-share/data/pseudos_module/espresso/nninc/pbe/van/Ti.UPF
     MD5 check sum: 8e4df49b7f0d34bbd5052bf3f5ea0213
     Pseudo is Ultrasoft, Zval = 12.0
     Generated by new atomic code, or converted to UPF format
     Using radial grid of  851 points,  6 beta functions with:
                l(1) =   0
                l(2) =   0
                l(3) =   1
                l(4) =   1
                l(5) =   2
                l(6) =   2
     Q(r) pseudized with  8 coefficients,  rinner =    1.000   1.000   1.000
                                                       1.000   1.000

     PseudoPot. # 2 for O  read from file:
     /storage/coda1/p-amedford6/0/shared/rich_project_chbe-medford/medford-share/data/pseudos_module/espresso/nninc/pbe/van/O.UPF
     MD5 check sum: 78c19812648e8988a0fe644b0f25305e
     Pseudo is Ultrasoft, Zval =  6.0
     Generated by new atomic code, or converted to UPF format
     Using radial grid of  737 points,  4 beta functions with:
                l(1) =   0
                l(2) =   0
                l(3) =   1
                l(4) =   1
     Q(r) pseudized with  8 coefficients,  rinner =    0.800   0.800   0.800

     PseudoPot. # 3 for N  read from file:
     /storage/coda1/p-amedford6/0/shared/rich_project_chbe-medford/medford-share/data/pseudos_module/espresso/nninc/pbe/van/N.UPF
     MD5 check sum: 90d10febe142ad51ac9d5be1deb811c4
     Pseudo is Ultrasoft, Zval =  5.0
     Generated by new atomic code, or converted to UPF format
     Using radial grid of  729 points,  4 beta functions with:
                l(1) =   0
                l(2) =   0
                l(3) =   1
                l(4) =   1
     Q(r) pseudized with  8 coefficients,  rinner =    0.800   0.800   0.800

     PseudoPot. # 4 for C  read from file:
     /storage/coda1/p-amedford6/0/shared/rich_project_chbe-medford/medford-share/data/pseudos_module/espresso/nninc/pbe/van/C.UPF
     MD5 check sum: 1a69bf6b8db32088f5b2163dbdb77a27
     Pseudo is Ultrasoft, Zval =  4.0
     Generated by new atomic code, or converted to UPF format
     Using radial grid of  721 points,  4 beta functions with:
                l(1) =   0
                l(2) =   0
                l(3) =   1
                l(4) =   1
     Q(r) pseudized with  8 coefficients,  rinner =    0.800   0.800   0.800

     PseudoPot. # 5 for H  read from file:
     /storage/coda1/p-amedford6/0/shared/rich_project_chbe-medford/medford-share/data/pseudos_module/espresso/nninc/pbe/van/H.UPF
     MD5 check sum: b5ee9d7bfd3a09ee7748110bda690ff7
     Pseudo is Ultrasoft, Zval =  1.0
     Generated by new atomic code, or converted to UPF format
     Using radial grid of  615 points,  1 beta functions with:
                l(1) =   0
     Q(r) pseudized with  8 coefficients,  rinner =    0.800

     atomic species   valence    mass     pseudopotential
        Ti1           12.00    47.86700     Ti( 1.00)
        O1             6.00    15.99900     O ( 1.00)
        N1             5.00    14.00700     N ( 1.00)
        C1             4.00    12.01100     C ( 1.00)
        H1             1.00     1.00800     H ( 1.00)

     No symmetry found

   Cartesian axes

     site n.     atom                  positions (alat units)
         1           Ti1 tau(   1) = (   0.0004258   2.9801865   6.0000000  )
         2           Ti1 tau(   2) = (   3.2906075   1.4906267   6.0002472  )
         3           O1  tau(   3) = (   0.0006271   0.0005054   7.9858123  )
         4           O1  tau(   4) = (   3.2906025   0.0005020   7.3038282  )
         5           O1  tau(   5) = (   4.5942328   1.4918067   9.2879030  )
         6           O1  tau(   6) = (   1.9868534   1.4903216   9.2879459  )
         7           Ti1 tau(   7) = (   3.2907910   2.8959150   9.1758416  )
         8           Ti1 tau(   8) = (   0.0015273   1.4827037   9.2680791  )
         9           O1  tau(   9) = (   3.2834828   5.9254549  11.3560997  )
        10           O1  tau(  10) = (   0.0116148   5.9584955  10.6183126  )
        11           O1  tau(  11) = (   1.2632982   1.4794151  12.6467768  )
        12           O1  tau(  12) = (   5.2979234   1.4912170  12.6376735  )
        13           Ti1 tau(  13) = (   6.5593102   2.9584919  12.5255918  )
        14           Ti1 tau(  14) = (   3.2941082   1.2876829  12.7086691  )
        15           O1  tau(  15) = (   6.5459232   0.0848410  14.6672212  )
        16           O1  tau(  16) = (   3.2899079   0.0686032  13.9983899  )
        17           O1  tau(  17) = (   4.5347701   1.5447734  16.1667714  )
        18           O1  tau(  18) = (   1.9898569   1.5359154  16.1924900  )
        19           Ti1 tau(  19) = (   3.2532585   2.9792413  15.6887139  )
        20           Ti1 tau(  20) = (   6.5162390   1.4193964  16.0443711  )
        21           O1  tau(  21) = (   3.2904802   0.0005063   4.7018136  )
        22           O1  tau(  22) = (   6.5314393   5.8470953  17.1670503  )
        23           O1  tau(  23) = (   1.3043587   1.4918075   6.0039043  )
        24           O1  tau(  24) = (   5.2767064   1.4903225   6.0039473  )
        25           Ti1 tau(  25) = (   0.0000382   5.9609847   6.0000000  )
        26           Ti1 tau(  26) = (   3.2902200   4.4714249   6.0002472  )
        27           O1  tau(  27) = (   0.0002396   2.9813036   7.9858123  )
        28           O1  tau(  28) = (   3.2902150   2.9813002   7.3038282  )
        29           O1  tau(  29) = (   4.5938453   4.4726049   9.2879030  )
        30           O1  tau(  30) = (   1.9864658   4.4711199   9.2879459  )
        31           Ti1 tau(  31) = (   3.2891106   5.8743827   9.1763621  )
        32           Ti1 tau(  32) = (   0.0006254   4.4649316   9.2693709  )
        33           O1  tau(  33) = (   3.2801501   3.0037454  11.3162440  )
        34           O1  tau(  34) = (   0.0092240   2.9805883  10.6323155  )
        35           O1  tau(  35) = (   1.2628463   4.4620516  12.6871769  )
        36           O1  tau(  36) = (   5.2965349   4.4479299  12.6783795  )
        37           Ti1 tau(  37) = (   0.0245004   5.9521619  12.5031165  )
        38           Ti1 tau(  38) = (   3.2934334   4.3725749  12.4478892  )
        39           O1  tau(  39) = (   0.0012172   2.9324930  14.9038371  )
        40           O1  tau(  40) = (   3.2612729   2.9642313  13.9201381  )
        41           O1  tau(  41) = (   4.5459169   4.3864222  16.0774642  )
        42           O1  tau(  42) = (   2.0085495   4.4473877  16.1057765  )
        43           Ti1 tau(  43) = (   3.2275989   5.9528725  16.3079466  )
        44           Ti1 tau(  44) = (   6.5418721   4.6299905  15.7990834  )
        45           O1  tau(  45) = (   3.2900926   2.9813045   4.7018136  )
        46           O1  tau(  46) = (   1.3039711   4.4726057   6.0039043  )
        47           O1  tau(  47) = (   5.2763189   4.4711207   6.0039473  )
        48           N1  tau(  48) = (   6.5153795   2.7269917  18.1720481  )
        49           C1  tau(  49) = (   0.9714328   2.6352729  18.9176740  )
        50           H1  tau(  50) = (   0.9613011   2.9697384  19.9541300  )
        51           H1  tau(  51) = (   1.8619620   2.1844435  18.5121220  )
        52           N1  tau(  52) = (   5.3313596   3.1722530  18.7397816  )
        53           H1  tau(  53) = (   5.4931776   3.7097374  19.5894643  )
        54           H1  tau(  54) = (   4.8256156   3.7472006  18.0807398  )
        55           O1  tau(  55) = (   3.3867674   5.8992794  18.1610867  )
        56           H1  tau(  56) = (   4.0349165   0.5560778  18.5374839  )

     number of k points=    10  Fermi-Dirac smearing, width (Ry)=  0.0073
                       cart. coord. in units 2pi/alat
        k(    1) = (   0.0000000   0.0000000   0.0000000), wk =   0.1250000
        k(    2) = (   0.0000000   0.0419351   0.0000000), wk =   0.2500000
        k(    3) = (   0.0000000  -0.0838702   0.0000000), wk =   0.1250000
        k(    4) = (   0.0379955   0.0000049   0.0000000), wk =   0.2500000
        k(    5) = (   0.0379955   0.0419400   0.0000000), wk =   0.2500000
        k(    6) = (   0.0379955  -0.0838652   0.0000000), wk =   0.2500000
        k(    7) = (   0.0379955  -0.0419301   0.0000000), wk =   0.2500000
        k(    8) = (  -0.0759910  -0.0000099   0.0000000), wk =   0.1250000
        k(    9) = (  -0.0759910   0.0419252   0.0000000), wk =   0.2500000
        k(   10) = (  -0.0759910  -0.0838800   0.0000000), wk =   0.1250000

     Initial potential from superposition of free atoms

     starting charge  386.99914, renormalised to  403.00000

     negative rho (up, down):  1.546E-02 0.000E+00

     %%%%%%%%%%%%%%%%%%%%%%%%%%%%%%%%%%%%%%%%%%%%%%%%%%%%%%%%%%%%%%%%%%%%%%%%
     %                                                                      %
     % You are using vdW-DF, which was implemented by the Thonhauser group. %
     % Please cite the following two papers that made this development      %
     % possible and the two reviews that describe the various versions:     %
     %                                                                      %
     %   T. Thonhauser et al., PRL 115, 136402 (2015).                      %
     %   T. Thonhauser et al., PRB 76, 125112 (2007).                       %
     %   K. Berland et al., Rep. Prog. Phys. 78, 066501 (2015).             %
     %   D.C. Langreth et al., J. Phys.: Condens. Matter 21, 084203 (2009). %
     %                                                                      %
     %                                                                      %
     % If you are calculating the stress with vdW-DF, please also cite:     %
     %                                                                      %
     %   R. Sabatini et al., J. Phys.: Condens. Matter 24, 424209 (2012).   %
     %                                                                      %
     %%%%%%%%%%%%%%%%%%%%%%%%%%%%%%%%%%%%%%%%%%%%%%%%%%%%%%%%%%%%%%%%%%%%%%%%

     Adding external electric field

     Computed dipole along edir(3) :
        Dipole              -13.0236 Ry au,        -33.1028 Debye
        Dipole field         -0.0246 Ry au,

        Potential amp.        2.2783 Ry
        Total length         46.3494 bohr

     Starting wfcs are  305 atomic wfcs
  @ DRIVER MODE: Message from server: STATUS
  @ DRIVER MODE: Message from server: POSDATA
  @ DRIVER MODE: Reading and sharing cell
  @ DRIVER MODE: Reading and sharing positions
  @ DRIVER MODE: Received positions

     Self-consistent Calculation

     iteration #  1     ecut=    29.40 Ry     beta= 0.05
     Davidson diagonalization with overlap
     c_bands:  3 eigenvalues not converged
     c_bands:  5 eigenvalues not converged
     c_bands:  3 eigenvalues not converged
     c_bands:  5 eigenvalues not converged
     c_bands:  1 eigenvalues not converged
     c_bands:  5 eigenvalues not converged
     c_bands:  2 eigenvalues not converged
     c_bands:  3 eigenvalues not converged
     ethr =  1.00E-05,  avg # of iterations = 26.8

[...]

     total energy              =   -2311.52847150 Ry
     estimated scf accuracy    <    7504.72668213 Ry

     iteration #  2     ecut=    29.40 Ry     beta= 0.05
     Davidson diagonalization with overlap
     ethr =  1.00E-02,  avg # of iterations = 24.8

[...]

     iteration # 43     ecut=    29.40 Ry     beta= 0.05
     Davidson diagonalization with overlap
     c_bands:  1 eigenvalues not converged
     c_bands:  1 eigenvalues not converged
     c_bands:  1 eigenvalues not converged
     c_bands:  1 eigenvalues not converged
     c_bands:  1 eigenvalues not converged
     c_bands:  1 eigenvalues not converged
     ethr =  1.61E-06,  avg # of iterations = 17.3

[...]

     total energy              =   -2974.00148000 Ry
     estimated scf accuracy    <       0.00000008 Ry

     iteration # 67     ecut=    29.40 Ry     beta= 0.05
     Davidson diagonalization with overlap
     ethr =  2.06E-11,  avg # of iterations =  3.5

     negative rho (up, down):  1.591E-02 0.000E+00

     Adding external electric field

     Computed dipole along edir(3) :
        Dipole                1.0920 Ry au,          2.7755 Debye
        Dipole field          0.0021 Ry au,

        Potential amp.       -0.1910 Ry
        Total length         46.3494 bohr

     End of self-consistent calculation

          k = 0.0000 0.0000 0.0000 ( 18029 PWs)   bands (ev):

   -55.5944 -55.5287 -55.4946 -55.3775 -55.3717 -55.3554 -55.3412 -55.3279
   -55.3215 -55.2933 -55.2458 -55.1456 -55.1297 -55.0534 -54.4967 -54.4627
   -32.0130 -31.9312 -31.8956 -31.8628 -31.8583 -31.8235 -31.8196 -31.8060
   -31.7782 -31.7745 -31.7548 -31.6811 -31.6544 -31.6467 -31.6350 -31.6314
   -31.6196 -31.6097 -31.5861 -31.5858 -31.5793 -31.5519 -31.5413 -31.5354
   -31.5182 -31.5138 -31.5086 -31.4947 -31.4856 -31.4830 -31.4747 -31.4656
   -31.4655 -31.4421 -31.4196 -31.4010 -31.3419 -31.3345 -31.3017 -31.2914
   -31.2720 -31.2598 -30.9023 -30.8169 -30.7944 -30.7199 -30.6336 -30.5217
   -18.3933 -16.4393 -16.1653 -15.9980 -15.7853 -15.7054 -15.6666 -15.4737
   -15.3813 -15.3201 -15.0906 -15.0679 -15.0628 -15.0373 -15.0255 -15.0115
   -14.9946 -14.9552 -14.9465 -14.9380 -14.9143 -14.8996 -14.8676 -14.8157
   -14.7721 -14.7566 -14.6620 -14.5934 -14.5468 -14.3120 -14.2139 -13.5248
   -12.9951 -12.8788  -8.5764  -6.2837  -5.8608  -4.0475  -3.8564  -3.5271
    -3.4317  -3.4103  -3.3497  -3.2864  -3.0448  -2.9811  -2.8849  -2.8354
    -2.7594  -2.6447  -2.5961  -2.5250  -2.4538  -2.4445  -2.3969  -2.3683
    -2.3065  -2.2928  -2.2570  -2.2512  -2.1798  -2.1602  -2.0595  -2.0469
    -2.0327  -1.8981  -1.8840  -1.8421  -1.8343  -1.8342  -1.7954  -1.7767
    -1.7610  -1.7443  -1.6392  -1.6006  -1.5803  -1.5085  -1.4761  -1.1603
    -1.1276  -1.0876  -1.0654  -1.0130  -0.9621  -0.9389  -0.9165  -0.8522
    -0.8140  -0.7645  -0.7325  -0.6985  -0.6169  -0.5808  -0.5390  -0.4557
    -0.3815  -0.3070  -0.3017  -0.2572  -0.2292  -0.2034  -0.1046  -0.0795
    -0.0658   0.0340   0.0537   0.1292   0.1694   0.2122   0.2513   0.2991
     0.3637   0.3813   0.4068   0.4430   0.4503   0.5057   0.5261   0.5847
     0.6375   0.6526   0.7507   0.8085   0.8228   0.8404   0.9414   1.0274
     1.1475   1.1557   1.2568   1.4820   1.5300   1.5740   1.7233   2.0961
     2.1412   3.5579   3.7068   3.7234   3.7677   3.8146   3.8988   4.0448
     4.1074   4.2456   4.2629

[...]

          k = 0.0380-0.0419 0.0000 ( 17876 PWs)   bands (ev):

[...]

          k =-0.0760-0.0000 0.0000 ( 17886 PWs)   bands (ev):

[...]

          k =-0.0760-0.0839 0.0000 ( 17948 PWs)   bands (ev):

   -55.5937 -55.5117 -55.5115 -55.3704 -55.3642 -55.3544 -55.3385 -55.3381
   -55.3286 -55.2863 -55.2528 -55.1426 -55.1309 -55.0564 -54.4800 -54.4793
   -31.8769 -31.8284 -31.8283 -31.8262 -31.8149 -31.8052 -31.8050 -31.7984
   -31.7299 -31.6832 -31.6745 -31.6643 -31.6593 -31.6318 -31.6315 -31.6298
   -31.6270 -31.6133 -31.6109 -31.5959 -31.5838 -31.5742 -31.5644 -31.5539
   -31.5451 -31.5415 -31.5319 -31.5316 -31.5160 -31.5110 -31.5080 -31.5044
   -31.5039 -31.4760 -31.4719 -31.4135 -31.3946 -31.3708 -31.3444 -31.3382
   -31.3082 -31.2637 -30.8074 -30.8069 -30.7158 -30.7147 -30.6771 -30.6765
   -18.3903 -16.4240 -15.7462 -15.6204 -15.4957 -15.4913 -15.3706 -15.2930
   -15.2756 -15.2462 -15.2348 -15.2003 -15.1828 -15.1468 -15.1143 -15.0849
   -15.0447 -15.0240 -15.0105 -14.9714 -14.9606 -14.9434 -14.9339 -14.9109
   -14.8694 -14.8340 -14.8231 -14.6792 -14.6247 -14.5781 -14.4385 -13.5337
   -12.9809 -12.9805  -8.5527  -6.2512  -5.8798  -3.9948  -3.9366  -2.9911
    -2.9193  -2.8163  -2.7119  -2.6164  -2.5628  -2.5273  -2.4894  -2.4452
    -2.4228  -2.3728  -2.3314  -2.3116  -2.3031  -2.2703  -2.2616  -2.2462
    -2.2264  -2.2116  -2.1965  -2.1863  -2.1581  -2.1409  -2.1400  -2.1060
    -2.0950  -2.0674  -2.0592  -2.0068  -1.9095  -1.8800  -1.7873  -1.6871
    -1.6793  -1.6663  -1.6423  -1.6048  -1.5936  -1.5683  -1.5314  -1.4719
    -1.4630  -1.2987  -1.2463  -1.2161  -1.1415  -1.0858  -1.0552  -1.0277
    -0.9844  -0.9595  -0.8861  -0.8567  -0.7604  -0.7060  -0.6795  -0.6217
    -0.5437  -0.4792  -0.4706  -0.4648  -0.4374  -0.4147  -0.3890  -0.3596
    -0.3339  -0.2635  -0.2260  -0.2072  -0.1979  -0.1421  -0.0963   0.0064
     0.1327   0.2419   0.2581   0.2891   0.3274   0.4787   0.5220   0.5842
     0.6312   0.6624   0.6928   0.7860   0.7974   0.8806   0.9040   0.9363
     0.9871   1.0131   1.0454   1.0750   1.0839   1.8934   1.9007   1.9615
     1.9617   3.7760   4.0544   4.0794   4.0875   4.1047   4.1253   4.1408
     4.1603   4.2353   4.2418

     the Fermi energy is     3.5935 ev

!    total energy              =   -2974.00151003 Ry
     estimated scf accuracy    <       0.00000004 Ry
     smearing contrib. (-TS)   =      -0.01962290 Ry
     internal energy E=F+TS    =   -2973.98188713 Ry

     The total energy is F=E-TS. E is the sum of the following terms:
     one-electron contribution =  -23471.59252089 Ry
     hartree contribution      =   11831.22744105 Ry
     xc contribution           =    -494.06981632 Ry
     ewald contribution        =    9160.45075889 Ry
     electric field correction =       0.00225015 Ry

     convergence has been achieved in  67 iterations

     Forces acting on atoms (cartesian axes, Ry/au):

     atom    1 type  1   force =     0.00012559   -0.00018986    0.09458467
     atom    2 type  1   force =    -0.00003224    0.00034403   -0.17509474
     atom    3 type  2   force =    -0.00002540   -0.00002955   -0.02135396
     atom    4 type  2   force =     0.00001498   -0.00189455    0.05323862
     atom    5 type  2   force =    -0.00695010   -0.00239436    0.00355862
     atom    6 type  2   force =     0.00805990   -0.00192945    0.00203719
     atom    7 type  1   force =    -0.00070193   -0.00277953    0.01003865
     atom    8 type  1   force =     0.00060908    0.00276100    0.00501811
     atom    9 type  2   force =     0.00003187   -0.00046233    0.00021665
     atom   10 type  2   force =    -0.00253881   -0.00140718   -0.01079077
     atom   11 type  2   force =     0.00127465   -0.00017971    0.00054283
     atom   12 type  2   force =    -0.00080515   -0.00022720    0.00065056
     atom   13 type  1   force =    -0.00095336   -0.00095970    0.00047120
     atom   14 type  1   force =     0.00031938    0.00034886    0.00009543
     atom   15 type  2   force =     0.00012940    0.00031076   -0.00038579
     atom   16 type  2   force =    -0.00047146    0.00021506    0.00008556
     atom   17 type  2   force =    -0.00018674    0.00025091    0.00019383
     atom   18 type  2   force =     0.00095936   -0.00019765   -0.00025854
     atom   19 type  1   force =     0.00140590    0.00082562    0.00011687
     atom   20 type  1   force =    -0.00076999    0.00000115   -0.00016732
     atom   21 type  2   force =     0.00006341    0.00009727    0.10307464
     atom   22 type  2   force =     0.00059812    0.00076712    0.00060232
     atom   23 type  2   force =    -0.07212910   -0.00013491   -0.02733685
     atom   24 type  2   force =     0.07201362    0.00029652   -0.02733711
     atom   25 type  1   force =     0.00001959   -0.00014132    0.09407846
     atom   26 type  1   force =    -0.00015724   -0.00109108   -0.17519501
     atom   27 type  2   force =     0.00012200   -0.00024667   -0.02014144
     atom   28 type  2   force =    -0.00000318   -0.00027168    0.04931372
     atom   29 type  2   force =    -0.00564382    0.00192507    0.00157662
     atom   30 type  2   force =     0.00666962    0.00249532   -0.00002085
     atom   31 type  1   force =    -0.00072283    0.00678064   -0.00108373
     atom   32 type  1   force =     0.00050344   -0.00385406    0.00432782
     atom   33 type  2   force =     0.00016106   -0.00010767   -0.00082488
     atom   34 type  2   force =    -0.00187307    0.00169786   -0.01047852
     atom   35 type  2   force =     0.00116631    0.00029271   -0.00017717
     atom   36 type  2   force =    -0.00055454    0.00043147   -0.00026851
     atom   37 type  1   force =    -0.00065084    0.00045231   -0.00025090
     atom   38 type  1   force =     0.00056025    0.00012236    0.00014556
     atom   39 type  2   force =     0.00034760   -0.00040942    0.00042266
     atom   40 type  2   force =     0.00019780    0.00012814   -0.00040127
     atom   41 type  2   force =    -0.00003936   -0.00003408   -0.00123864
     atom   42 type  2   force =     0.00034796   -0.00032560    0.00042173
     atom   43 type  1   force =     0.00024421   -0.00090612    0.00020606
     atom   44 type  1   force =    -0.00070533   -0.00020749    0.00012868
     atom   45 type  2   force =     0.00007528   -0.00006859    0.10286178
     atom   46 type  2   force =    -0.07217134   -0.00002933   -0.02733643
     atom   47 type  2   force =     0.07208955    0.00040566   -0.02737232
     atom   48 type  3   force =     0.00000559    0.00046256   -0.00081568
     atom   49 type  4   force =    -0.00002096   -0.00034419   -0.00010629
     atom   50 type  5   force =    -0.00011896   -0.00036340   -0.00010904
     atom   51 type  5   force =    -0.00030302    0.00010426    0.00000717
     atom   52 type  3   force =     0.00435759   -0.00510741    0.00871792
     atom   53 type  5   force =     0.00052274   -0.00079833    0.00083793
     atom   54 type  5   force =    -0.00467552    0.00520213   -0.00908407
     atom   55 type  2   force =    -0.00013413    0.00087995    0.00029927
     atom   56 type  5   force =     0.00034256   -0.00050630   -0.00024133

     Total force =     0.362273     Total SCF correction =     0.000717
  @ DRIVER MODE: Message from server: STATUS
  @ DRIVER MODE: Message from server: GETFORCE
  @ DRIVER MODE: Returning v,forces,stress,ensemble

     Writing output data file ./calc.save/
  @ DRIVER MODE: Message from server: EXIT
  @ DRIVE MODE: Exiting

     General routines

     Parallel routines

   This run was terminated on:   5:41:51  24Sep2021

   JOB DONE.