     Program PWSCF v.6.7GPU starts on 25Aug2021 at  5:15:12

     R & G space division:  proc/nbgrp/npool/nimage =       6
     Reading input from /storage/home/hcoda1/3/ntian30/research/carbon/CH3_vib_end_on/ads_slab/CH3N2H2_f/out_0024/pw.inp
Warning: card &CELL ignored
Warning: card   CELL_DYNAMICS='IPI', ignored
Warning: card / ignored

     Current dimensions of program PWSCF are:
     Max number of different atomic species (ntypx) = 10
     Max number of k-points (npk) =  40000
     Max angular momentum in pseudopotentials (lmaxx) =  3
     Presently no symmetry can be used with electric field

     Message from routine cell_base_init:
     DEPRECATED: use true lattice parameter, not A to a.u. conversion factor

     IMPORTANT: XC functional enforced from input :
     Exchange-correlation= BEEF-VDW
                           (   1   4  43  14   2   0   0)
     Any further DFT definition will be discarded
     Please, verify this is what you really want

  @ DRIVER MODE: Connecting to
 qe_1139763_2643870.sched-torque.pace.gatech.edu5d1ipwgj_scratch
  using UNIX socket
  @ DRIVER MODE: Message from server: STATUS
  @ DRIVER MODE: Message from server: INIT
  @ DRIVER MODE: Receiving replica           0          -1
  @ DRIVER MODE: Receiving encoded integer          25
  @ DRIVER MODE:  SCF:  T  FORCE:  T  STRESS:  F  VC:  F  ENSEMBLE:  F
  @ DRIVER MODE:  SCF:  T  FORCE:  T  STRESS:  F  VC:  F  ENSEMBLE:  F

     Using Slab Decomposition

     bravais-lattice index     =            0
     lattice parameter (alat)  =       1.8897  a.u.
     unit-cell volume          =    6658.9804 (a.u.)^3
     number of atoms/cell      =           55
     number of atomic types    =            5
     number of electrons       =       397.00
     number of Kohn-Sham states=          208
     kinetic-energy cutoff     =      29.3995  Ry
     charge density cutoff     =     293.9946  Ry
     scf convergence threshold =      7.3E-08
     mixing beta               =       0.0500
     number of iterations used =            8  plain     mixing
     Exchange-correlation= BEEF-VDW
                           (   1   4  43  14   2   0   0)

     celldm(1)=   1.889726  celldm(2)=   0.000000  celldm(3)=   0.000000
     celldm(4)=   0.000000  celldm(5)=   0.000000  celldm(6)=   0.000000

     crystal axes: (cart. coord. in units of alat)
               a(1) = (   6.579727   0.000000   0.000000 )
               a(2) = (  -0.000775   5.961596   0.000000 )
               a(3) = (   0.000000   0.000000  25.155947 )

     reciprocal axes: (cart. coord. in units 2 pi/alat)
               b(1) = (  0.151982  0.000020  0.000000 )
               b(2) = (  0.000000  0.167740  0.000000 )
               b(3) = (  0.000000  0.000000  0.039752 )

     PseudoPot. # 1 for Ti read from file:
     /storage/coda1/p-amedford6/0/shared/rich_project_chbe-medford/medford-share/data/pseudos_module/espresso/nninc/pbe/van/Ti.UPF
     MD5 check sum: 8e4df49b7f0d34bbd5052bf3f5ea0213
     Pseudo is Ultrasoft, Zval = 12.0
     Generated by new atomic code, or converted to UPF format
     Using radial grid of  851 points,  6 beta functions with:
                l(1) =   0
                l(2) =   0
                l(3) =   1
                l(4) =   1
                l(5) =   2
                l(6) =   2
     Q(r) pseudized with  8 coefficients,  rinner =    1.000   1.000   1.000
                                                       1.000   1.000

     PseudoPot. # 2 for O  read from file:
     /storage/coda1/p-amedford6/0/shared/rich_project_chbe-medford/medford-share/data/pseudos_module/espresso/nninc/pbe/van/O.UPF
     MD5 check sum: 78c19812648e8988a0fe644b0f25305e
     Pseudo is Ultrasoft, Zval =  6.0
     Generated by new atomic code, or converted to UPF format
     Using radial grid of  737 points,  4 beta functions with:
                l(1) =   0
                l(2) =   0
                l(3) =   1
                l(4) =   1
     Q(r) pseudized with  8 coefficients,  rinner =    0.800   0.800   0.800

     PseudoPot. # 3 for N  read from file:
     /storage/coda1/p-amedford6/0/shared/rich_project_chbe-medford/medford-share/data/pseudos_module/espresso/nninc/pbe/van/N.UPF
     MD5 check sum: 90d10febe142ad51ac9d5be1deb811c4
     Pseudo is Ultrasoft, Zval =  5.0
     Generated by new atomic code, or converted to UPF format
     Using radial grid of  729 points,  4 beta functions with:
                l(1) =   0
                l(2) =   0
                l(3) =   1
                l(4) =   1
     Q(r) pseudized with  8 coefficients,  rinner =    0.800   0.800   0.800

     PseudoPot. # 4 for C  read from file:
     /storage/coda1/p-amedford6/0/shared/rich_project_chbe-medford/medford-share/data/pseudos_module/espresso/nninc/pbe/van/C.UPF
     MD5 check sum: 1a69bf6b8db32088f5b2163dbdb77a27
     Pseudo is Ultrasoft, Zval =  4.0
     Generated by new atomic code, or converted to UPF format
     Using radial grid of  721 points,  4 beta functions with:
                l(1) =   0
                l(2) =   0
                l(3) =   1
                l(4) =   1
     Q(r) pseudized with  8 coefficients,  rinner =    0.800   0.800   0.800

     PseudoPot. # 5 for H  read from file:
     /storage/coda1/p-amedford6/0/shared/rich_project_chbe-medford/medford-share/data/pseudos_module/espresso/nninc/pbe/van/H.UPF
     MD5 check sum: b5ee9d7bfd3a09ee7748110bda690ff7
     Pseudo is Ultrasoft, Zval =  1.0
     Generated by new atomic code, or converted to UPF format
     Using radial grid of  615 points,  1 beta functions with:
                l(1) =   0
     Q(r) pseudized with  8 coefficients,  rinner =    0.800

     atomic species   valence    mass     pseudopotential
        Ti1           12.00    47.86700     Ti( 1.00)
        O1             6.00    15.99900     O ( 1.00)
        N1             5.00    14.00700     N ( 1.00)
        C1             4.00    12.01100     C ( 1.00)
        H1             1.00     1.00800     H ( 1.00)

     No symmetry found

   Cartesian axes

     site n.     atom                  positions (alat units)
         1           Ti1 tau(   1) = (   0.0004258   2.9801865   6.0000000  )
         2           Ti1 tau(   2) = (   3.2906075   1.4906267   6.0002472  )
         3           O1  tau(   3) = (   0.0006271   0.0005054   7.9858123  )
         4           O1  tau(   4) = (   3.2906025   0.0005020   7.3038282  )
         5           O1  tau(   5) = (   4.5942328   1.4918067   9.2879030  )
         6           O1  tau(   6) = (   1.9868534   1.4903216   9.2879459  )
         7           Ti1 tau(   7) = (   3.2907910   2.8959150   9.1758416  )
         8           Ti1 tau(   8) = (   0.0015273   1.4827037   9.2680791  )
         9           O1  tau(   9) = (   3.2830128   5.9597860  11.3344455  )
        10           O1  tau(  10) = (   0.0116148   5.9584955  10.6183126  )
        11           O1  tau(  11) = (   1.2885291   1.4855062  12.6376555  )
        12           O1  tau(  12) = (   5.2724004   1.4911608  12.5936499  )
        13           Ti1 tau(  13) = (   0.0410009   3.0319447  12.6084003  )
        14           Ti1 tau(  14) = (   3.3739341   1.4916561  12.4823474  )
        15           O1  tau(  15) = (   6.4862162   0.0153916  14.6455093  )
        16           O1  tau(  16) = (   3.3439542   5.9611638  13.9051029  )
        17           O1  tau(  17) = (   4.4933269   1.5483200  16.1231154  )
        18           O1  tau(  18) = (   1.9964937   1.4536654  15.9127221  )
        19           Ti1 tau(  19) = (   3.1412959   3.0017366  15.7441667  )
        20           Ti1 tau(  20) = (   6.4823597   1.5369342  15.8006069  )
        21           O1  tau(  21) = (   3.2904802   0.0005063   4.7018136  )
        22           O1  tau(  22) = (   6.5709111   0.0522475  17.2082838  )
        23           O1  tau(  23) = (   1.3043587   1.4918075   6.0039043  )
        24           O1  tau(  24) = (   5.2767064   1.4903225   6.0039473  )
        25           Ti1 tau(  25) = (   0.0000382   5.9609847   6.0000000  )
        26           Ti1 tau(  26) = (   3.2902200   4.4714249   6.0002472  )
        27           O1  tau(  27) = (   0.0002396   2.9813036   7.9858123  )
        28           O1  tau(  28) = (   3.2902150   2.9813002   7.3038282  )
        29           O1  tau(  29) = (   4.5938453   4.4726049   9.2879030  )
        30           O1  tau(  30) = (   1.9864658   4.4711199   9.2879459  )
        31           Ti1 tau(  31) = (   3.2891106   5.8743827   9.1763621  )
        32           Ti1 tau(  32) = (   0.0006254   4.4649316   9.2693709  )
        33           O1  tau(  33) = (   3.2833609   2.9822938  11.3349093  )
        34           O1  tau(  34) = (   0.0092240   2.9805883  10.6323155  )
        35           O1  tau(  35) = (   1.2838611   4.4860338  12.6468719  )
        36           O1  tau(  36) = (   5.2760156   4.4607002  12.6015494  )
        37           Ti1 tau(  37) = (   0.0673138   0.0440259  12.5461749  )
        38           Ti1 tau(  38) = (   3.3712377   4.4654930  12.4933830  )
        39           O1  tau(  39) = (   6.5217465   2.9589972  14.6412948  )
        40           O1  tau(  40) = (   3.2809526   2.9956502  13.9333893  )
        41           O1  tau(  41) = (   4.4911989   4.4583117  16.1637052  )
        42           O1  tau(  42) = (   1.9937212   4.5427850  15.9740970  )
        43           Ti1 tau(  43) = (   3.2955853   0.0167752  15.6963065  )
        44           Ti1 tau(  44) = (   6.5082246   4.6715011  16.1069148  )
        45           O1  tau(  45) = (   3.2900926   2.9813045   4.7018136  )
        46           O1  tau(  46) = (   1.3039711   4.4726057   6.0039043  )
        47           O1  tau(  47) = (   5.2763189   4.4711207   6.0039473  )
        48           N1  tau(  48) = (   1.3945086   2.8365607  18.1849301  )
        49           N1  tau(  49) = (   0.1777896   2.9650562  17.4211889  )
        50           C1  tau(  50) = (   1.4118813   3.7128676  19.3556819  )
        51           H1  tau(  51) = (   0.5171711   3.5996102  19.9980000  )
        52           H1  tau(  52) = (   2.2935099   3.4681107  19.9517681  )
        53           H1  tau(  53) = (   1.4703795   4.7520035  19.0319817  )
        54           H1  tau(  54) = (   1.4579882   1.8621926  18.4823179  )
        55           H1  tau(  55) = (   5.9558665   2.8747675  18.0551794  )

     number of k points=    10  Fermi-Dirac smearing, width (Ry)=  0.0073
                       cart. coord. in units 2pi/alat
        k(    1) = (   0.0000000   0.0000000   0.0000000), wk =   0.1250000
        k(    2) = (   0.0000000   0.0419351   0.0000000), wk =   0.2500000
        k(    3) = (   0.0000000  -0.0838702   0.0000000), wk =   0.1250000
        k(    4) = (   0.0379955   0.0000049   0.0000000), wk =   0.2500000
        k(    5) = (   0.0379955   0.0419400   0.0000000), wk =   0.2500000
        k(    6) = (   0.0379955  -0.0838652   0.0000000), wk =   0.2500000
        k(    7) = (   0.0379955  -0.0419301   0.0000000), wk =   0.2500000
        k(    8) = (  -0.0759910  -0.0000099   0.0000000), wk =   0.1250000
        k(    9) = (  -0.0759910   0.0419252   0.0000000), wk =   0.2500000
        k(   10) = (  -0.0759910  -0.0838800   0.0000000), wk =   0.1250000

     Initial potential from superposition of free atoms

     starting charge  380.99914, renormalised to  397.00000

     negative rho (up, down):  1.539E-02 0.000E+00

     %%%%%%%%%%%%%%%%%%%%%%%%%%%%%%%%%%%%%%%%%%%%%%%%%%%%%%%%%%%%%%%%%%%%%%%%
     %                                                                      %
     % You are using vdW-DF, which was implemented by the Thonhauser group. %
     % Please cite the following two papers that made this development      %
     % possible and the two reviews that describe the various versions:     %
     %                                                                      %
     %   T. Thonhauser et al., PRL 115, 136402 (2015).                      %
     %   T. Thonhauser et al., PRB 76, 125112 (2007).                       %
     %   K. Berland et al., Rep. Prog. Phys. 78, 066501 (2015).             %
     %   D.C. Langreth et al., J. Phys.: Condens. Matter 21, 084203 (2009). %
     %                                                                      %
     %                                                                      %
     % If you are calculating the stress with vdW-DF, please also cite:     %
     %                                                                      %
     %   R. Sabatini et al., J. Phys.: Condens. Matter 24, 424209 (2012).   %
     %                                                                      %
     %%%%%%%%%%%%%%%%%%%%%%%%%%%%%%%%%%%%%%%%%%%%%%%%%%%%%%%%%%%%%%%%%%%%%%%%

     Adding external electric field

     Computed dipole along edir(3) :
        Dipole               -9.6188 Ry au,        -24.4486 Debye
        Dipole field         -0.0182 Ry au,

        Potential amp.        1.6827 Ry
        Total length         46.3494 bohr

     Starting wfcs are  301 atomic wfcs
  @ DRIVER MODE: Message from server: STATUS
  @ DRIVER MODE: Message from server: POSDATA
  @ DRIVER MODE: Reading and sharing cell
  @ DRIVER MODE: Reading and sharing positions
  @ DRIVER MODE: Received positions

     Self-consistent Calculation

     iteration #  1     ecut=    29.40 Ry     beta= 0.05
     Davidson diagonalization with overlap
     c_bands:  1 eigenvalues not converged
     c_bands:  1 eigenvalues not converged
     c_bands:  1 eigenvalues not converged
     c_bands:  1 eigenvalues not converged
     c_bands:  1 eigenvalues not converged
     c_bands:  1 eigenvalues not converged
     c_bands:  2 eigenvalues not converged
     ethr =  1.00E-05,  avg # of iterations = 18.8

[...]

     total energy              =   -2533.42532426 Ry
     estimated scf accuracy    <    4541.05867303 Ry

     iteration #  2     ecut=    29.40 Ry     beta= 0.05
     Davidson diagonalization with overlap
     ethr =  1.00E-02,  avg # of iterations = 24.2

[...]

     iteration # 61     ecut=    29.40 Ry     beta= 0.05
     Davidson diagonalization with overlap
     c_bands:  1 eigenvalues not converged
     ethr =  8.56E-11,  avg # of iterations = 16.0

[...]

     total energy              =   -2941.66151357 Ry
     estimated scf accuracy    <       0.00000011 Ry

     iteration # 63     ecut=    29.40 Ry     beta= 0.05
     Davidson diagonalization with overlap
     ethr =  2.79E-11,  avg # of iterations =  8.6

     negative rho (up, down):  1.605E-02 0.000E+00

     Adding external electric field

     Computed dipole along edir(3) :
        Dipole                0.9400 Ry au,          2.3892 Debye
        Dipole field          0.0018 Ry au,

        Potential amp.       -0.1644 Ry
        Total length         46.3494 bohr

     End of self-consistent calculation

          k = 0.0000 0.0000 0.0000 ( 18029 PWs)   bands (ev):

   -55.6879 -55.6710 -55.6538 -55.6343 -55.5939 -55.5395 -55.5324 -55.5024
   -55.4963 -55.4684 -55.4664 -55.4323 -55.2595 -55.0355 -54.6682 -54.6341
   -32.2219 -32.1709 -32.0441 -32.0339 -32.0007 -31.9861 -31.9807 -31.9568
   -31.9319 -31.9002 -31.8979 -31.8916 -31.8484 -31.8401 -31.8264 -31.8247
   -31.8080 -31.7927 -31.7841 -31.7488 -31.7451 -31.7380 -31.7225 -31.7188
   -31.6961 -31.6915 -31.6888 -31.6811 -31.6670 -31.6647 -31.6573 -31.6480
   -31.6425 -31.6328 -31.6194 -31.6099 -31.5786 -31.5098 -31.4659 -31.3018
   -31.2924 -31.2381 -31.0754 -30.9869 -30.9644 -30.8921 -30.8056 -30.6946
   -16.7732 -16.4185 -16.1637 -15.9344 -15.8433 -15.8129 -15.6606 -15.5289
   -15.4195 -15.3379 -15.2529 -15.2339 -15.2264 -15.2159 -15.1897 -15.1839
   -15.1368 -15.1322 -15.1126 -15.0998 -15.0497 -15.0331 -15.0296 -14.9349
   -14.8711 -14.8358 -14.8209 -14.7862 -14.7489 -14.3347 -13.1707 -13.0542
   -11.8048  -8.9730  -5.4328  -4.3698  -3.8277  -3.7888  -3.6458  -3.5953
    -3.5349  -3.4921  -3.3181  -3.2162  -2.9433  -2.8861  -2.8568  -2.8477
    -2.7891  -2.7571  -2.6025  -2.5764  -2.5055  -2.4962  -2.4814  -2.4524
    -2.4431  -2.4355  -2.3976  -2.3770  -2.3486  -2.2444  -2.1046  -2.0950
    -2.0725  -2.0393  -2.0017  -1.9531  -1.9368  -1.9164  -1.8981  -1.8857
    -1.8729  -1.7380  -1.7029  -1.5865  -1.4972  -1.4497  -1.3691  -1.2999
    -1.2679  -1.1592  -1.1194  -1.1061  -1.0927  -1.0820  -0.9824  -0.8767
    -0.8593  -0.8215  -0.7662  -0.7107  -0.6401  -0.5952  -0.5442  -0.4919
    -0.4677  -0.4524  -0.4496  -0.4145  -0.3229  -0.1817  -0.1298  -0.0954
    -0.0732   0.0035   0.0386   0.0948   0.1192   0.1426   0.1784   0.2314
     0.2750   0.2816   0.2949   0.3095   0.3142   0.4885   0.5381   0.5798
     0.6130   0.6592   0.8203   0.8425   0.9641   1.0382   1.1999   1.2795
     1.3540   1.4320   1.5457   1.6185   1.9252   1.9709   3.4428   3.5304
     3.5751   3.5888   3.6842   3.7259   3.8957   3.9261   3.9406   4.0005

[...]

          k = 0.0380-0.0419 0.0000 ( 17876 PWs)   bands (ev):

[...]

          k =-0.0760-0.0000 0.0000 ( 17886 PWs)   bands (ev):

[...]

          k =-0.0760-0.0839 0.0000 ( 17948 PWs)   bands (ev):

   -55.6712 -55.6704 -55.6563 -55.6488 -55.5878 -55.5454 -55.5198 -55.5089
   -55.4858 -55.4843 -55.4523 -55.4466 -55.2583 -55.0366 -54.6511 -54.6510
   -32.0311 -32.0214 -31.9865 -31.9859 -31.9665 -31.9657 -31.9457 -31.9394
   -31.8864 -31.8857 -31.8754 -31.8703 -31.8534 -31.8354 -31.8107 -31.8060
   -31.8016 -31.7980 -31.7914 -31.7913 -31.7901 -31.7897 -31.7859 -31.7462
   -31.7378 -31.7263 -31.7181 -31.7068 -31.6863 -31.6853 -31.6833 -31.6766
   -31.6667 -31.6626 -31.6592 -31.6567 -31.6156 -31.5123 -31.4626 -31.3640
   -31.2945 -31.2641 -30.9772 -30.9771 -30.8882 -30.8881 -30.8489 -30.8489
   -16.7469 -15.8658 -15.8047 -15.6468 -15.6115 -15.5921 -15.5571 -15.4963
   -15.4131 -15.3859 -15.3813 -15.3344 -15.3086 -15.2758 -15.2376 -15.2232
   -15.2160 -15.1972 -15.1849 -15.1510 -15.1415 -15.1299 -15.1227 -15.0472
   -15.0096 -15.0052 -14.9997 -14.8961 -14.7696 -14.5025 -13.1560 -13.1560
   -11.8112  -8.9873  -5.4468  -4.3570  -3.7446  -3.1586  -3.0716  -2.8967
    -2.8412  -2.8124  -2.7962  -2.6303  -2.6183  -2.6047  -2.5560  -2.5370
    -2.5268  -2.5184  -2.5097  -2.4887  -2.4758  -2.4399  -2.4308  -2.3960
    -2.3818  -2.3640  -2.3472  -2.3300  -2.3103  -2.2961  -2.2786  -2.2386
    -2.2190  -2.2085  -2.1876  -2.1435  -1.9336  -1.8834  -1.8364  -1.8319
    -1.8231  -1.8033  -1.7485  -1.7436  -1.7098  -1.6580  -1.5800  -1.4351
    -1.3898  -1.3733  -1.2803  -1.2587  -1.2058  -1.1339  -1.0881  -1.0711
    -1.0360  -0.9721  -0.9357  -0.8985  -0.8321  -0.8075  -0.8016  -0.7079
    -0.6870  -0.6508  -0.6442  -0.5656  -0.5146  -0.4521  -0.4367  -0.4203
    -0.3888  -0.3553  -0.3371  -0.2691  -0.1772  -0.1761  -0.1531  -0.0440
     0.0467   0.2749   0.3377   0.3747   0.4195   0.5133   0.5816   0.6064
     0.6222   0.6438   0.6633   0.7115   0.8384   0.8485   0.8827   0.9956
     1.0986   1.6343   1.7174   1.7183   1.7907   1.7908   3.7444   3.7626
     3.7832   3.8296   3.9489   3.9559   3.9780   3.9801   4.1027   4.1153

     the Fermi energy is     3.4444 ev

!    total energy              =   -2941.66154569 Ry
     estimated scf accuracy    <       0.00000005 Ry
     smearing contrib. (-TS)   =      -0.02152002 Ry
     internal energy E=F+TS    =   -2941.64002568 Ry

     The total energy is F=E-TS. E is the sum of the following terms:
     one-electron contribution =  -24275.57951095 Ry
     hartree contribution      =   12228.23339884 Ry
     xc contribution           =    -486.86910550 Ry
     ewald contribution        =    9592.57352458 Ry
     electric field correction =       0.00166735 Ry

     convergence has been achieved in  63 iterations

     Forces acting on atoms (cartesian axes, Ry/au):

     atom    1 type  1   force =     0.00017784   -0.00011381    0.09636025
     atom    2 type  1   force =    -0.00021364   -0.00063389   -0.17550814
     atom    3 type  2   force =    -0.00004200   -0.00003790   -0.02419649
     atom    4 type  2   force =     0.00005046   -0.00143919    0.05290485
     atom    5 type  2   force =    -0.01181201   -0.00049558    0.00395770
     atom    6 type  2   force =     0.01312678    0.00023424    0.00229561
     atom    7 type  1   force =    -0.00140601    0.00080566   -0.01149689
     atom    8 type  1   force =     0.00053373    0.00921062    0.02521734
     atom    9 type  2   force =    -0.00010939    0.00017454    0.00038373
     atom   10 type  2   force =    -0.00086655    0.00148613   -0.01580768
     atom   11 type  2   force =    -0.00018392   -0.00049527    0.00039205
     atom   12 type  2   force =    -0.00013852   -0.00026195    0.00002557
     atom   13 type  1   force =     0.00054568   -0.00091757    0.00007632
     atom   14 type  1   force =    -0.00008057   -0.00040752    0.00024946
     atom   15 type  2   force =     0.00018073    0.00003662   -0.00032097
     atom   16 type  2   force =     0.00006467    0.00024982    0.00006176
     atom   17 type  2   force =    -0.00052867    0.00035013    0.00048296
     atom   18 type  2   force =     0.00011123    0.00014298    0.00031981
     atom   19 type  1   force =     0.00014721   -0.00053859    0.00016788
     atom   20 type  1   force =     0.00013998    0.00035934    0.00062300
     atom   21 type  2   force =     0.00007372   -0.00008308    0.10319600
     atom   22 type  2   force =    -0.00041929   -0.00024982    0.00023189
     atom   23 type  2   force =    -0.07147225   -0.00018141   -0.02771030
     atom   24 type  2   force =     0.07139410    0.00025039   -0.02771026
     atom   25 type  1   force =     0.00003029   -0.00027789    0.09581915
     atom   26 type  1   force =    -0.00014718   -0.00023166   -0.17568408
     atom   27 type  2   force =     0.00009123   -0.00012545   -0.02330005
     atom   28 type  2   force =     0.00007973   -0.00129537    0.05333031
     atom   29 type  2   force =    -0.01194263   -0.00006084    0.00375445
     atom   30 type  2   force =     0.01319496    0.00042799    0.00213125
     atom   31 type  1   force =    -0.00141800    0.00345101   -0.01082309
     atom   32 type  1   force =     0.00064178   -0.01009790    0.02562494
     atom   33 type  2   force =    -0.00039150    0.00005087    0.00004576
     atom   34 type  2   force =     0.00074751    0.00089903   -0.02307802
     atom   35 type  2   force =    -0.00010152    0.00029363   -0.00002653
     atom   36 type  2   force =    -0.00022877    0.00059537   -0.00029200
     atom   37 type  1   force =    -0.00082833   -0.00102106   -0.00013238
     atom   38 type  1   force =    -0.00002662   -0.00009581   -0.00002225
     atom   39 type  2   force =    -0.00035013    0.00004273    0.00055404
     atom   40 type  2   force =     0.00048624    0.00024566    0.00029430
     atom   41 type  2   force =     0.00003279    0.00050453    0.00026073
     atom   42 type  2   force =     0.00008850    0.00026821   -0.00018149
     atom   43 type  1   force =     0.00023175    0.00007702   -0.00019215
     atom   44 type  1   force =    -0.00026650   -0.00061283    0.00005156
     atom   45 type  2   force =     0.00006941   -0.00008537    0.10322422
     atom   46 type  2   force =    -0.07147767   -0.00017046   -0.02770492
     atom   47 type  2   force =     0.07140249    0.00030598   -0.02771937
     atom   48 type  3   force =    -0.00139422    0.00010385    0.00092520
     atom   49 type  3   force =     0.00030160   -0.00022568    0.00021371
     atom   50 type  4   force =    -0.00296017   -0.00071057    0.00518301
     atom   51 type  5   force =     0.00540616    0.00084586   -0.00551440
     atom   52 type  5   force =     0.00020509    0.00080156   -0.00106817
     atom   53 type  5   force =    -0.00059514   -0.00176322    0.00073765
     atom   54 type  5   force =     0.00004010    0.00066194   -0.00046283
     atom   55 type  5   force =    -0.00019452   -0.00024600   -0.00014400

     Total force =     0.367445     Total SCF correction =     0.000306
  @ DRIVER MODE: Message from server: STATUS
  @ DRIVER MODE: Message from server: GETFORCE
  @ DRIVER MODE: Returning v,forces,stress,ensemble

     Writing output data file ./calc.save/
  @ DRIVER MODE: Message from server: EXIT
  @ DRIVE MODE: Exiting

     General routines

     Parallel routines

   This run was terminated on:   5:44:23  25Aug2021

   JOB DONE.