     Program PWSCF v.6.7GPU starts on 14Sep2021 at 20:16:23

     R & G space division:  proc/nbgrp/npool/nimage =      10
     Reading input from /storage/home/hcoda1/3/ntian30/research/carbon/CxH_vib/CH_calc/ads_slab/CHOHN2_a/out_0019/pw.inp
Warning: card &CELL ignored
Warning: card   CELL_DYNAMICS='IPI', ignored
Warning: card / ignored

     Current dimensions of program PWSCF are:
     Max number of different atomic species (ntypx) = 10
     Max number of k-points (npk) =  40000
     Max angular momentum in pseudopotentials (lmaxx) =  3
     Presently no symmetry can be used with electric field

     Message from routine cell_base_init:
     DEPRECATED: use true lattice parameter, not A to a.u. conversion factor

     IMPORTANT: XC functional enforced from input :
     Exchange-correlation= BEEF-VDW
                           (   1   4  43  14   2   0   0)
     Any further DFT definition will be discarded
     Please, verify this is what you really want

  @ DRIVER MODE: Connecting to
 qe_1139763_2840439.sched-torque.pace.gatech.edusgjk7jw6_scratch
  using UNIX socket
  @ DRIVER MODE: Message from server: STATUS
  @ DRIVER MODE: Message from server: INIT
  @ DRIVER MODE: Receiving replica           0          -1
  @ DRIVER MODE: Receiving encoded integer          25
  @ DRIVER MODE:  SCF:  T  FORCE:  T  STRESS:  F  VC:  F  ENSEMBLE:  F
  @ DRIVER MODE:  SCF:  T  FORCE:  T  STRESS:  F  VC:  F  ENSEMBLE:  F

     Using Slab Decomposition

     bravais-lattice index     =            0
     lattice parameter (alat)  =       1.8897  a.u.
     unit-cell volume          =    6658.9804 (a.u.)^3
     number of atoms/cell      =           53
     number of atomic types    =            5
     number of electrons       =       400.00
     number of Kohn-Sham states=          210
     kinetic-energy cutoff     =      29.3995  Ry
     charge density cutoff     =     293.9946  Ry
     scf convergence threshold =      7.3E-08
     mixing beta               =       0.0500
     number of iterations used =            8  plain     mixing
     Exchange-correlation= BEEF-VDW
                           (   1   4  43  14   2   0   0)

     celldm(1)=   1.889726  celldm(2)=   0.000000  celldm(3)=   0.000000
     celldm(4)=   0.000000  celldm(5)=   0.000000  celldm(6)=   0.000000

     crystal axes: (cart. coord. in units of alat)
               a(1) = (   6.579727   0.000000   0.000000 )
               a(2) = (  -0.000775   5.961596   0.000000 )
               a(3) = (   0.000000   0.000000  25.155947 )

     reciprocal axes: (cart. coord. in units 2 pi/alat)
               b(1) = (  0.151982  0.000020  0.000000 )
               b(2) = (  0.000000  0.167740  0.000000 )
               b(3) = (  0.000000  0.000000  0.039752 )

     PseudoPot. # 1 for C  read from file:
     /storage/coda1/p-amedford6/0/shared/rich_project_chbe-medford/medford-share/data/pseudos_module/espresso/nninc/pbe/van/C.UPF
     MD5 check sum: 1a69bf6b8db32088f5b2163dbdb77a27
     Pseudo is Ultrasoft, Zval =  4.0
     Generated by new atomic code, or converted to UPF format
     Using radial grid of  721 points,  4 beta functions with:
                l(1) =   0
                l(2) =   0
                l(3) =   1
                l(4) =   1
     Q(r) pseudized with  8 coefficients,  rinner =    0.800   0.800   0.800

     PseudoPot. # 2 for H  read from file:
     /storage/coda1/p-amedford6/0/shared/rich_project_chbe-medford/medford-share/data/pseudos_module/espresso/nninc/pbe/van/H.UPF
     MD5 check sum: b5ee9d7bfd3a09ee7748110bda690ff7
     Pseudo is Ultrasoft, Zval =  1.0
     Generated by new atomic code, or converted to UPF format
     Using radial grid of  615 points,  1 beta functions with:
                l(1) =   0
     Q(r) pseudized with  8 coefficients,  rinner =    0.800

     PseudoPot. # 3 for O  read from file:
     /storage/coda1/p-amedford6/0/shared/rich_project_chbe-medford/medford-share/data/pseudos_module/espresso/nninc/pbe/van/O.UPF
     MD5 check sum: 78c19812648e8988a0fe644b0f25305e
     Pseudo is Ultrasoft, Zval =  6.0
     Generated by new atomic code, or converted to UPF format
     Using radial grid of  737 points,  4 beta functions with:
                l(1) =   0
                l(2) =   0
                l(3) =   1
                l(4) =   1
     Q(r) pseudized with  8 coefficients,  rinner =    0.800   0.800   0.800

     PseudoPot. # 4 for Ti read from file:
     /storage/coda1/p-amedford6/0/shared/rich_project_chbe-medford/medford-share/data/pseudos_module/espresso/nninc/pbe/van/Ti.UPF
     MD5 check sum: 8e4df49b7f0d34bbd5052bf3f5ea0213
     Pseudo is Ultrasoft, Zval = 12.0
     Generated by new atomic code, or converted to UPF format
     Using radial grid of  851 points,  6 beta functions with:
                l(1) =   0
                l(2) =   0
                l(3) =   1
                l(4) =   1
                l(5) =   2
                l(6) =   2
     Q(r) pseudized with  8 coefficients,  rinner =    1.000   1.000   1.000
                                                       1.000   1.000

     PseudoPot. # 5 for N  read from file:
     /storage/coda1/p-amedford6/0/shared/rich_project_chbe-medford/medford-share/data/pseudos_module/espresso/nninc/pbe/van/N.UPF
     MD5 check sum: 90d10febe142ad51ac9d5be1deb811c4
     Pseudo is Ultrasoft, Zval =  5.0
     Generated by new atomic code, or converted to UPF format
     Using radial grid of  729 points,  4 beta functions with:
                l(1) =   0
                l(2) =   0
                l(3) =   1
                l(4) =   1
     Q(r) pseudized with  8 coefficients,  rinner =    0.800   0.800   0.800

     atomic species   valence    mass     pseudopotential
        C1             4.00    12.01100     C ( 1.00)
        H1             1.00     1.00800     H ( 1.00)
        O1             6.00    15.99900     O ( 1.00)
        Ti1           12.00    47.86700     Ti( 1.00)
        N1             5.00    14.00700     N ( 1.00)

     No symmetry found

   Cartesian axes

     site n.     atom                  positions (alat units)
         1           C1  tau(   1) = (   5.6818245   3.0934261  18.8613826  )
         2           H1  tau(   2) = (   0.9295697   3.0331078  18.1055300  )
         3           H1  tau(   3) = (   5.3049293   4.0639705  19.1352297  )
         4           O1  tau(   4) = (   3.2904802   0.0005063   4.7018136  )
         5           O1  tau(   5) = (   3.2900926   2.9813045   4.7018136  )
         6           O1  tau(   6) = (   1.3043587   1.4918075   6.0039043  )
         7           O1  tau(   7) = (   1.3039711   4.4726057   6.0039043  )
         8           O1  tau(   8) = (   5.2767064   1.4903225   6.0039473  )
         9           O1  tau(   9) = (   5.2763189   4.4711207   6.0039473  )
        10           O1  tau(  10) = (   3.2906025   0.0005020   7.3038282  )
        11           O1  tau(  11) = (   3.2902150   2.9813002   7.3038282  )
        12           O1  tau(  12) = (   0.0006271   0.0005054   7.9858123  )
        13           O1  tau(  13) = (   0.0002396   2.9813036   7.9858123  )
        14           O1  tau(  14) = (   4.5942328   1.4918067   9.2879030  )
        15           O1  tau(  15) = (   4.5938453   4.4726049   9.2879030  )
        16           O1  tau(  16) = (   1.9868534   1.4903216   9.2879459  )
        17           O1  tau(  17) = (   1.9864658   4.4711199   9.2879459  )
        18           O1  tau(  18) = (   6.5737290   0.0025997  10.6073112  )
        19           O1  tau(  19) = (   6.5745157   2.9846488  10.6292520  )
        20           O1  tau(  20) = (   3.2733922   2.9888808  11.3669225  )
        21           O1  tau(  21) = (   3.2734535   0.0083669  11.3733985  )
        22           O1  tau(  22) = (   1.2686495   4.4776606  12.6533150  )
        23           O1  tau(  23) = (   1.2691242   1.4995788  12.6525255  )
        24           O1  tau(  24) = (   5.2697113   4.4789153  12.6558726  )
        25           O1  tau(  25) = (   5.2698035   1.4991558  12.6558074  )
        26           O1  tau(  26) = (   3.2614338   2.9920807  13.9552461  )
        27           O1  tau(  27) = (   3.2541646   0.0113981  14.0020514  )
        28           O1  tau(  28) = (   6.5688946   0.0096870  14.6775192  )
        29           O1  tau(  29) = (   6.5667413   2.9928499  14.8718366  )
        30           O1  tau(  30) = (   4.5340645   4.4751187  16.1466513  )
        31           O1  tau(  31) = (   4.5349815   1.5188077  16.1513287  )
        32           O1  tau(  32) = (   2.0116004   1.5352794  16.1924295  )
        33           O1  tau(  33) = (   2.0125852   4.4566501  16.1924965  )
        34           O1  tau(  34) = (   6.5583959   0.0051910  17.1951124  )
        35           O1  tau(  35) = (   0.0128280   2.9917589  17.7791131  )
        36           Ti1 tau(  36) = (   0.0004258   2.9801865   6.0000000  )
        37           Ti1 tau(  37) = (   0.0000382   5.9609847   6.0000000  )
        38           Ti1 tau(  38) = (   3.2906075   1.4906267   6.0002472  )
        39           Ti1 tau(  39) = (   3.2902200   4.4714249   6.0002472  )
        40           Ti1 tau(  40) = (   3.3204229   0.0006979   9.1540291  )
        41           Ti1 tau(  41) = (   3.3226256   2.9815539   9.1563990  )
        42           Ti1 tau(  42) = (   0.0414996   4.4578595   9.2720048  )
        43           Ti1 tau(  43) = (   0.0419130   1.4910583   9.2667342  )
        44           Ti1 tau(  44) = (   6.5463313   0.0151476  12.4833176  )
        45           Ti1 tau(  45) = (   3.2510826   4.4792010  12.5152252  )
        46           Ti1 tau(  46) = (   3.2519543   1.5009035  12.5151888  )
        47           Ti1 tau(  47) = (   6.5510796   2.9946678  12.5453677  )
        48           Ti1 tau(  48) = (   3.2768179   2.9983465  15.7429562  )
        49           Ti1 tau(  49) = (   3.2517467   0.0179395  15.7976682  )
        50           Ti1 tau(  50) = (   6.5407926   4.5826425  15.9111250  )
        51           Ti1 tau(  51) = (   6.5348107   1.3670631  15.9596882  )
        52           N1  tau(  52) = (   4.6962475   1.0170953  19.6889386  )
        53           N1  tau(  53) = (   5.1479752   2.0001232  19.2934520  )

     number of k points=    10  Fermi-Dirac smearing, width (Ry)=  0.0073
                       cart. coord. in units 2pi/alat
        k(    1) = (   0.0000000   0.0000000   0.0000000), wk =   0.1250000
        k(    2) = (   0.0000000   0.0419351   0.0000000), wk =   0.2500000
        k(    3) = (   0.0000000  -0.0838702   0.0000000), wk =   0.1250000
        k(    4) = (   0.0379955   0.0000049   0.0000000), wk =   0.2500000
        k(    5) = (   0.0379955   0.0419400   0.0000000), wk =   0.2500000
        k(    6) = (   0.0379955  -0.0838652   0.0000000), wk =   0.2500000
        k(    7) = (   0.0379955  -0.0419301   0.0000000), wk =   0.2500000
        k(    8) = (  -0.0759910  -0.0000099   0.0000000), wk =   0.1250000
        k(    9) = (  -0.0759910   0.0419252   0.0000000), wk =   0.2500000
        k(   10) = (  -0.0759910  -0.0838800   0.0000000), wk =   0.1250000

     Initial potential from superposition of free atoms

     starting charge  383.99917, renormalised to  400.00000

     negative rho (up, down):  1.646E-02 0.000E+00

     %%%%%%%%%%%%%%%%%%%%%%%%%%%%%%%%%%%%%%%%%%%%%%%%%%%%%%%%%%%%%%%%%%%%%%%%
     %                                                                      %
     % You are using vdW-DF, which was implemented by the Thonhauser group. %
     % Please cite the following two papers that made this development      %
     % possible and the two reviews that describe the various versions:     %
     %                                                                      %
     %   T. Thonhauser et al., PRL 115, 136402 (2015).                      %
     %   T. Thonhauser et al., PRB 76, 125112 (2007).                       %
     %   K. Berland et al., Rep. Prog. Phys. 78, 066501 (2015).             %
     %   D.C. Langreth et al., J. Phys.: Condens. Matter 21, 084203 (2009). %
     %                                                                      %
     %                                                                      %
     % If you are calculating the stress with vdW-DF, please also cite:     %
     %                                                                      %
     %   R. Sabatini et al., J. Phys.: Condens. Matter 24, 424209 (2012).   %
     %                                                                      %
     %%%%%%%%%%%%%%%%%%%%%%%%%%%%%%%%%%%%%%%%%%%%%%%%%%%%%%%%%%%%%%%%%%%%%%%%

     Adding external electric field

     Computed dipole along edir(3) :
        Dipole              -12.5100 Ry au,        -31.7972 Debye
        Dipole field         -0.0236 Ry au,

        Potential amp.        2.1884 Ry
        Total length         46.3494 bohr

     Starting wfcs are  302 atomic wfcs
  @ DRIVER MODE: Message from server: STATUS
  @ DRIVER MODE: Message from server: POSDATA
  @ DRIVER MODE: Reading and sharing cell
  @ DRIVER MODE: Reading and sharing positions
  @ DRIVER MODE: Received positions

     Self-consistent Calculation

     iteration #  1     ecut=    29.40 Ry     beta= 0.05
     Davidson diagonalization with overlap
     c_bands:  3 eigenvalues not converged
     c_bands:  1 eigenvalues not converged
     c_bands:  4 eigenvalues not converged
     c_bands:  3 eigenvalues not converged
     c_bands:  5 eigenvalues not converged
     c_bands:  5 eigenvalues not converged
     c_bands:  2 eigenvalues not converged
     c_bands:  1 eigenvalues not converged
     ethr =  1.00E-05,  avg # of iterations = 20.9

[...]

     total energy              =   -2397.10290309 Ry
     estimated scf accuracy    <    6493.70409927 Ry

     iteration #  2     ecut=    29.40 Ry     beta= 0.05
     Davidson diagonalization with overlap
     ethr =  1.00E-02,  avg # of iterations = 23.8

[...]

     iteration # 59     ecut=    29.40 Ry     beta= 0.05
     Davidson diagonalization with overlap
     c_bands:  1 eigenvalues not converged
     ethr =  2.02E-11,  avg # of iterations = 15.0

[...]

     total energy              =   -2970.16554589 Ry
     estimated scf accuracy    <       0.00000012 Ry

     iteration # 60     ecut=    29.40 Ry     beta= 0.05
     Davidson diagonalization with overlap
     ethr =  2.02E-11,  avg # of iterations =  5.6

     negative rho (up, down):  1.634E-02 0.000E+00

     Adding external electric field

     Computed dipole along edir(3) :
        Dipole                0.8229 Ry au,          2.0916 Debye
        Dipole field          0.0016 Ry au,

        Potential amp.       -0.1440 Ry
        Total length         46.3494 bohr

     End of self-consistent calculation

          k = 0.0000 0.0000 0.0000 ( 18029 PWs)   bands (ev):

   -55.5648 -55.5344 -55.5287 -55.5000 -55.4611 -55.4545 -55.4412 -55.4081
   -55.4027 -55.3879 -55.3685 -55.3609 -55.3477 -55.3139 -54.6275 -54.5934
   -32.1348 -32.0653 -32.0298 -31.9384 -31.8845 -31.8781 -31.8750 -31.8572
   -31.8227 -31.8135 -31.7771 -31.7759 -31.7694 -31.7487 -31.7405 -31.7184
   -31.7155 -31.6998 -31.6911 -31.6884 -31.6860 -31.6798 -31.6594 -31.6506
   -31.6498 -31.6313 -31.6301 -31.6019 -31.5949 -31.5916 -31.5760 -31.5538
   -31.5533 -31.5515 -31.5430 -31.5322 -31.5289 -31.5016 -31.4921 -31.4828
   -31.4706 -31.4583 -31.0397 -30.9367 -30.9151 -30.8560 -30.7697 -30.6585
   -21.0976 -20.2994 -16.3898 -16.1338 -15.9867 -15.8879 -15.7824 -15.6462
   -15.6103 -15.5036 -15.3737 -15.2910 -15.2517 -15.2259 -15.2119 -15.1918
   -15.1841 -15.1755 -15.1218 -15.0922 -15.0674 -15.0531 -15.0450 -15.0097
   -14.9543 -14.9476 -14.9321 -14.7939 -14.7259 -14.6663 -14.3621 -14.2540
   -13.1280 -13.0085  -8.5277  -6.8014  -5.6626  -4.5343  -4.0276  -3.7460
    -3.7177  -3.5724  -3.4976  -3.4794  -3.4285  -3.3092  -3.1575  -2.9957
    -2.9108  -2.8482  -2.8203  -2.7703  -2.7310  -2.6996  -2.5271  -2.5124
    -2.4826  -2.4564  -2.4394  -2.4327  -2.4020  -2.3410  -2.3115  -2.3024
    -2.2799  -2.1479  -2.1298  -2.0338  -1.9904  -1.9619  -1.9028  -1.8885
    -1.8837  -1.8535  -1.8329  -1.8192  -1.8149  -1.7772  -1.5916  -1.5899
    -1.4711  -1.4300  -1.3455  -1.2925  -1.1246  -1.1222  -1.0703  -1.0486
    -1.0099  -0.9699  -0.9642  -0.9229  -0.8080  -0.7222  -0.6746  -0.6041
    -0.5654  -0.5010  -0.4651  -0.3620  -0.3529  -0.3400  -0.3222  -0.2021
    -0.1354  -0.0954  -0.0643  -0.0186  -0.0058   0.0929   0.1129   0.1926
     0.1995   0.2573   0.2599   0.3630   0.3814   0.3824   0.4079   0.4278
     0.5149   0.5862   0.5912   0.6062   0.7755   0.9654   0.9932   1.0360
     1.2859   1.3883   1.3987   1.5345   1.5576   1.9856   2.0410   3.5309
     3.5992   3.6385   3.6559   3.6709   3.7380   3.9943   4.0206   4.0389
     4.0548   4.0623

[...]

          k = 0.0380-0.0419 0.0000 ( 17876 PWs)   bands (ev):

[...]

          k =-0.0760-0.0000 0.0000 ( 17886 PWs)   bands (ev):

[...]

          k =-0.0760-0.0839 0.0000 ( 17948 PWs)   bands (ev):

   -55.5471 -55.5461 -55.5191 -55.5152 -55.4577 -55.4470 -55.4347 -55.4155
   -55.3948 -55.3864 -55.3844 -55.3638 -55.3317 -55.3299 -54.6103 -54.6103
   -31.9863 -31.9386 -31.9371 -31.8577 -31.8466 -31.8428 -31.8243 -31.8120
   -31.8042 -31.7839 -31.7674 -31.7652 -31.7606 -31.7209 -31.7175 -31.7075
   -31.7031 -31.7021 -31.6928 -31.6875 -31.6865 -31.6858 -31.6735 -31.6508
   -31.6479 -31.6469 -31.6447 -31.6419 -31.6379 -31.6357 -31.6332 -31.6076
   -31.6057 -31.5959 -31.5849 -31.5843 -31.5726 -31.5570 -31.5555 -31.5447
   -31.5179 -31.5150 -30.9277 -30.9277 -30.8524 -30.8522 -30.8129 -30.8128
   -21.0954 -20.2990 -15.9422 -15.8058 -15.7458 -15.5687 -15.5608 -15.5534
   -15.5294 -15.3963 -15.3740 -15.3670 -15.3259 -15.3174 -15.3023 -15.2832
   -15.2635 -15.1575 -15.1555 -15.1470 -15.1442 -15.0823 -15.0790 -15.0643
   -15.0478 -15.0079 -15.0073 -14.9943 -14.9903 -14.8247 -14.7251 -14.2615
   -13.1098 -13.1091  -8.5176  -6.8054  -5.6700  -4.5146  -3.9985  -3.6483
    -3.0832  -3.0388  -3.0076  -2.7826  -2.7673  -2.7282  -2.6938  -2.6362
    -2.5625  -2.5510  -2.5471  -2.4785  -2.4715  -2.4607  -2.4559  -2.4452
    -2.3922  -2.3905  -2.3519  -2.3508  -2.3039  -2.2729  -2.2616  -2.2342
    -2.2269  -2.2257  -2.2045  -2.1883  -2.1738  -2.1688  -2.0572  -2.0061
    -1.9229  -1.8978  -1.8054  -1.7909  -1.7762  -1.6986  -1.6630  -1.6403
    -1.5795  -1.5765  -1.5026  -1.3836  -1.3624  -1.3551  -1.2823  -1.2255
    -1.1953  -1.1524  -1.1010  -1.0445  -1.0295  -0.9464  -0.8927  -0.8738
    -0.7675  -0.7561  -0.7040  -0.5948  -0.5612  -0.5589  -0.5542  -0.5431
    -0.4658  -0.4480  -0.3993  -0.3585  -0.3098  -0.2848  -0.2646  -0.0644
    -0.0508   0.0194   0.1205   0.1602   0.3310   0.3514   0.3851   0.4568
     0.5019   0.5141   0.5971   0.7071   0.7127   0.7491   0.8224   0.8613
     0.8698   0.9083   1.4873   1.7504   1.7511   1.8546   1.8578   3.6820
     3.7694   3.7846   3.8156   3.8632   3.9549   4.0396   4.0569   4.0838
     4.0924   4.1703

     the Fermi energy is     3.5869 ev

!    total energy              =   -2970.16559038 Ry
     estimated scf accuracy    <       0.00000003 Ry
     smearing contrib. (-TS)   =      -0.03779980 Ry
     internal energy E=F+TS    =   -2970.12779058 Ry

     The total energy is F=E-TS. E is the sum of the following terms:
     one-electron contribution =  -23546.59803906 Ry
     hartree contribution      =   11865.05063545 Ry
     xc contribution           =    -491.70542084 Ry
     ewald contribution        =    9203.12375594 Ry
     electric field correction =       0.00127793 Ry

     convergence has been achieved in  60 iterations

     Forces acting on atoms (cartesian axes, Ry/au):

     atom    1 type  1   force =     0.00046740    0.00011684    0.00079877
     atom    2 type  2   force =     0.00070046   -0.00033939    0.00006984
     atom    3 type  2   force =     0.00003251   -0.00033267   -0.00023698
     atom    4 type  3   force =     0.00005610   -0.00000256    0.10504513
     atom    5 type  3   force =     0.00004044    0.00002511    0.10504084
     atom    6 type  3   force =    -0.06777884   -0.00001281   -0.02683735
     atom    7 type  3   force =    -0.06781838   -0.00059957   -0.02687080
     atom    8 type  3   force =     0.06764618    0.00043248   -0.02689733
     atom    9 type  3   force =     0.06767818   -0.00016395   -0.02693271
     atom   10 type  3   force =     0.00071622    0.00002257    0.05052308
     atom   11 type  3   force =     0.00077206    0.00000950    0.05059528
     atom   12 type  3   force =     0.00060542   -0.00002986   -0.02310595
     atom   13 type  3   force =     0.00057141   -0.00017369   -0.02183478
     atom   14 type  3   force =    -0.01560753   -0.00017826    0.00500132
     atom   15 type  3   force =    -0.01566964    0.00008221    0.00497106
     atom   16 type  3   force =     0.01436615    0.00025920    0.00477741
     atom   17 type  3   force =     0.01444179    0.00059181    0.00479169
     atom   18 type  3   force =    -0.00008606    0.00000813   -0.00007469
     atom   19 type  3   force =    -0.00014269   -0.00001278   -0.00021648
     atom   20 type  3   force =    -0.00011593    0.00007726   -0.00007733
     atom   21 type  3   force =     0.00004673   -0.00011850    0.00011099
     atom   22 type  3   force =     0.00025035    0.00026767    0.00001483
     atom   23 type  3   force =    -0.00002105    0.00004441   -0.00000053
     atom   24 type  3   force =    -0.00018430    0.00011350    0.00018848
     atom   25 type  3   force =     0.00003307   -0.00012272    0.00013852
     atom   26 type  3   force =     0.00033771   -0.00015332    0.00004411
     atom   27 type  3   force =     0.00003161    0.00019284   -0.00011111
     atom   28 type  3   force =    -0.00072623    0.00024668   -0.00001725
     atom   29 type  3   force =     0.00011121   -0.00008472    0.00024949
     atom   30 type  3   force =     0.00036901   -0.00013666   -0.00011796
     atom   31 type  3   force =     0.00042928   -0.00001019    0.00032501
     atom   32 type  3   force =     0.00079820   -0.00026231   -0.00015344
     atom   33 type  3   force =     0.00028030   -0.00005977   -0.00034136
     atom   34 type  3   force =    -0.00033377    0.00002917    0.00000097
     atom   35 type  3   force =    -0.00111987    0.00006897   -0.00090935
     atom   36 type  4   force =    -0.00021658    0.00011526    0.09296991
     atom   37 type  4   force =    -0.00015915   -0.00012400    0.09678954
     atom   38 type  4   force =    -0.00010687    0.00036944   -0.18352525
     atom   39 type  4   force =    -0.00006593   -0.00057969   -0.18366557
     atom   40 type  4   force =     0.00000770    0.00004403    0.00017802
     atom   41 type  4   force =     0.00015578   -0.00001143    0.00007298
     atom   42 type  4   force =    -0.00036326    0.00014266   -0.00011611
     atom   43 type  4   force =    -0.00020960    0.00028187    0.00013266
     atom   44 type  4   force =     0.00026974    0.00014227    0.00033302
     atom   45 type  4   force =    -0.00005640    0.00001029    0.00021765
     atom   46 type  4   force =    -0.00021993    0.00008891    0.00020632
     atom   47 type  4   force =    -0.00000507   -0.00013631   -0.00015289
     atom   48 type  4   force =    -0.00219734   -0.00013317   -0.00018845
     atom   49 type  4   force =    -0.00238272   -0.00010343    0.00007888
     atom   50 type  4   force =     0.00066049   -0.00021980   -0.00028589
     atom   51 type  4   force =     0.00369539   -0.00044574   -0.00040989
     atom   52 type  5   force =    -0.00107131   -0.00064537   -0.00084445
     atom   53 type  5   force =     0.00108752    0.00140959    0.00025810

     Total force =     0.368645     Total SCF correction =     0.000495
  @ DRIVER MODE: Message from server: STATUS
  @ DRIVER MODE: Message from server: GETFORCE
  @ DRIVER MODE: Returning v,forces,stress,ensemble

     Writing output data file ./calc.save/
  @ DRIVER MODE: Message from server: EXIT
  @ DRIVE MODE: Exiting

     General routines

     Parallel routines

   This run was terminated on:  20:33:35  14Sep2021

   JOB DONE.