     Program PWSCF v.6.7GPU starts on 23Sep2021 at 17:24:17

     R & G space division:  proc/nbgrp/npool/nimage =       8
     Reading input from /storage/home/hcoda1/3/ntian30/research/carbon/CxH_vib/H2O_calc/ads_slab/CH2NHNH2HO_a/out_0015/pw.inp
Warning: card &CELL ignored
Warning: card   CELL_DYNAMICS='IPI', ignored
Warning: card / ignored

     Current dimensions of program PWSCF are:
     Max number of different atomic species (ntypx) = 10
     Max number of k-points (npk) =  40000
     Max angular momentum in pseudopotentials (lmaxx) =  3
     Presently no symmetry can be used with electric field

     Message from routine cell_base_init:
     DEPRECATED: use true lattice parameter, not A to a.u. conversion factor

     IMPORTANT: XC functional enforced from input :
     Exchange-correlation= BEEF-VDW
                           (   1   4  43  14   2   0   0)
     Any further DFT definition will be discarded
     Please, verify this is what you really want

  @ DRIVER MODE: Connecting to
 qe_1139763_2947313.sched-torque.pace.gatech.eduva8fbksq_scratch
  using UNIX socket
  @ DRIVER MODE: Message from server: STATUS
  @ DRIVER MODE: Message from server: INIT
  @ DRIVER MODE: Receiving replica           0          -1
  @ DRIVER MODE: Receiving encoded integer          25
  @ DRIVER MODE:  SCF:  T  FORCE:  T  STRESS:  F  VC:  F  ENSEMBLE:  F
  @ DRIVER MODE:  SCF:  T  FORCE:  T  STRESS:  F  VC:  F  ENSEMBLE:  F

     Using Slab Decomposition

     bravais-lattice index     =            0
     lattice parameter (alat)  =       1.8897  a.u.
     unit-cell volume          =    6658.9804 (a.u.)^3
     number of atoms/cell      =           57
     number of atomic types    =            5
     number of electrons       =       404.00
     number of Kohn-Sham states=          212
     kinetic-energy cutoff     =      29.3995  Ry
     charge density cutoff     =     293.9946  Ry
     scf convergence threshold =      7.3E-08
     mixing beta               =       0.0500
     number of iterations used =            8  plain     mixing
     Exchange-correlation= BEEF-VDW
                           (   1   4  43  14   2   0   0)

     celldm(1)=   1.889726  celldm(2)=   0.000000  celldm(3)=   0.000000
     celldm(4)=   0.000000  celldm(5)=   0.000000  celldm(6)=   0.000000

     crystal axes: (cart. coord. in units of alat)
               a(1) = (   6.579727   0.000000   0.000000 )
               a(2) = (  -0.000775   5.961596   0.000000 )
               a(3) = (   0.000000   0.000000  25.155947 )

     reciprocal axes: (cart. coord. in units 2 pi/alat)
               b(1) = (  0.151982  0.000020  0.000000 )
               b(2) = (  0.000000  0.167740  0.000000 )
               b(3) = (  0.000000  0.000000  0.039752 )

     PseudoPot. # 1 for Ti read from file:
     /storage/coda1/p-amedford6/0/shared/rich_project_chbe-medford/medford-share/data/pseudos_module/espresso/nninc/pbe/van/Ti.UPF
     MD5 check sum: 8e4df49b7f0d34bbd5052bf3f5ea0213
     Pseudo is Ultrasoft, Zval = 12.0
     Generated by new atomic code, or converted to UPF format
     Using radial grid of  851 points,  6 beta functions with:
                l(1) =   0
                l(2) =   0
                l(3) =   1
                l(4) =   1
                l(5) =   2
                l(6) =   2
     Q(r) pseudized with  8 coefficients,  rinner =    1.000   1.000   1.000
                                                       1.000   1.000

     PseudoPot. # 2 for O  read from file:
     /storage/coda1/p-amedford6/0/shared/rich_project_chbe-medford/medford-share/data/pseudos_module/espresso/nninc/pbe/van/O.UPF
     MD5 check sum: 78c19812648e8988a0fe644b0f25305e
     Pseudo is Ultrasoft, Zval =  6.0
     Generated by new atomic code, or converted to UPF format
     Using radial grid of  737 points,  4 beta functions with:
                l(1) =   0
                l(2) =   0
                l(3) =   1
                l(4) =   1
     Q(r) pseudized with  8 coefficients,  rinner =    0.800   0.800   0.800

     PseudoPot. # 3 for N  read from file:
     /storage/coda1/p-amedford6/0/shared/rich_project_chbe-medford/medford-share/data/pseudos_module/espresso/nninc/pbe/van/N.UPF
     MD5 check sum: 90d10febe142ad51ac9d5be1deb811c4
     Pseudo is Ultrasoft, Zval =  5.0
     Generated by new atomic code, or converted to UPF format
     Using radial grid of  729 points,  4 beta functions with:
                l(1) =   0
                l(2) =   0
                l(3) =   1
                l(4) =   1
     Q(r) pseudized with  8 coefficients,  rinner =    0.800   0.800   0.800

     PseudoPot. # 4 for C  read from file:
     /storage/coda1/p-amedford6/0/shared/rich_project_chbe-medford/medford-share/data/pseudos_module/espresso/nninc/pbe/van/C.UPF
     MD5 check sum: 1a69bf6b8db32088f5b2163dbdb77a27
     Pseudo is Ultrasoft, Zval =  4.0
     Generated by new atomic code, or converted to UPF format
     Using radial grid of  721 points,  4 beta functions with:
                l(1) =   0
                l(2) =   0
                l(3) =   1
                l(4) =   1
     Q(r) pseudized with  8 coefficients,  rinner =    0.800   0.800   0.800

     PseudoPot. # 5 for H  read from file:
     /storage/coda1/p-amedford6/0/shared/rich_project_chbe-medford/medford-share/data/pseudos_module/espresso/nninc/pbe/van/H.UPF
     MD5 check sum: b5ee9d7bfd3a09ee7748110bda690ff7
     Pseudo is Ultrasoft, Zval =  1.0
     Generated by new atomic code, or converted to UPF format
     Using radial grid of  615 points,  1 beta functions with:
                l(1) =   0
     Q(r) pseudized with  8 coefficients,  rinner =    0.800

     atomic species   valence    mass     pseudopotential
        Ti1           12.00    47.86700     Ti( 1.00)
        O1             6.00    15.99900     O ( 1.00)
        N1             5.00    14.00700     N ( 1.00)
        C1             4.00    12.01100     C ( 1.00)
        H1             1.00     1.00800     H ( 1.00)

     No symmetry found

   Cartesian axes

     site n.     atom                  positions (alat units)
         1           Ti1 tau(   1) = (   0.0004258   2.9801865   6.0000000  )
         2           Ti1 tau(   2) = (   3.2906075   1.4906267   6.0002472  )
         3           O1  tau(   3) = (   0.0006271   0.0005054   7.9858123  )
         4           O1  tau(   4) = (   3.2906025   0.0005020   7.3038282  )
         5           O1  tau(   5) = (   4.5942328   1.4918067   9.2879030  )
         6           O1  tau(   6) = (   1.9868534   1.4903216   9.2879459  )
         7           Ti1 tau(   7) = (   3.2907910   2.8959150   9.1758416  )
         8           Ti1 tau(   8) = (   0.0015273   1.4827037   9.2680791  )
         9           O1  tau(   9) = (   3.2769995   5.9424463  11.3879711  )
        10           O1  tau(  10) = (   0.0116148   5.9584955  10.6183126  )
        11           O1  tau(  11) = (   1.2559300   1.4809235  12.6914295  )
        12           O1  tau(  12) = (   5.2914439   1.4888754  12.6824943  )
        13           Ti1 tau(  13) = (   6.5693074   2.9549812  12.5071532  )
        14           Ti1 tau(  14) = (   3.2720578   1.2926143  12.7373905  )
        15           O1  tau(  15) = (   6.5263330   5.9075480  14.6758232  )
        16           O1  tau(  16) = (   3.2750150   0.0724425  14.0538047  )
        17           O1  tau(  17) = (   4.5404297   1.6145126  16.1214498  )
        18           O1  tau(  18) = (   1.9612862   1.5681812  16.1371236  )
        19           Ti1 tau(  19) = (   3.2615978   3.0295928  15.7214328  )
        20           Ti1 tau(  20) = (   6.4910920   1.3289874  15.8500745  )
        21           O1  tau(  21) = (   3.2904802   0.0005063   4.7018136  )
        22           O1  tau(  22) = (   6.5149858   0.1606772  17.2625446  )
        23           O1  tau(  23) = (   1.3043587   1.4918075   6.0039043  )
        24           O1  tau(  24) = (   5.2767064   1.4903225   6.0039473  )
        25           Ti1 tau(  25) = (   0.0000382   5.9609847   6.0000000  )
        26           Ti1 tau(  26) = (   3.2902200   4.4714249   6.0002472  )
        27           O1  tau(  27) = (   0.0002396   2.9813036   7.9858123  )
        28           O1  tau(  28) = (   3.2902150   2.9813002   7.3038282  )
        29           O1  tau(  29) = (   4.5938453   4.4726049   9.2879030  )
        30           O1  tau(  30) = (   1.9864658   4.4711199   9.2879459  )
        31           Ti1 tau(  31) = (   3.2891106   5.8743827   9.1763621  )
        32           Ti1 tau(  32) = (   0.0006254   4.4649316   9.2693709  )
        33           O1  tau(  33) = (   3.2749377   2.9871965  11.3337082  )
        34           O1  tau(  34) = (   0.0092240   2.9805883  10.6323155  )
        35           O1  tau(  35) = (   1.2597673   4.4587344  12.6634223  )
        36           O1  tau(  36) = (   5.2866262   4.4511231  12.6493885  )
        37           Ti1 tau(  37) = (   6.5604603   5.9292220  12.4937940  )
        38           Ti1 tau(  38) = (   3.2724722   4.3622713  12.4512132  )
        39           O1  tau(  39) = (   6.5737517   3.0258615  14.9025115  )
        40           O1  tau(  40) = (   3.2593133   3.0063273  13.9441864  )
        41           O1  tau(  41) = (   4.5441350   4.4310557  16.1689449  )
        42           O1  tau(  42) = (   1.9655774   4.4762250  16.2070539  )
        43           Ti1 tau(  43) = (   3.1776431   0.0563557  16.2565842  )
        44           Ti1 tau(  44) = (   6.5216753   4.5226504  15.9439936  )
        45           O1  tau(  45) = (   3.2900926   2.9813045   4.7018136  )
        46           O1  tau(  46) = (   1.3039711   4.4726057   6.0039043  )
        47           O1  tau(  47) = (   5.2763189   4.4711207   6.0039473  )
        48           N1  tau(  48) = (   0.8157702   2.5297039  18.7633901  )
        49           N1  tau(  49) = (   6.4302604   3.3580032  18.1334362  )
        50           C1  tau(  50) = (   1.9549655   3.0131469  19.2293773  )
        51           H1  tau(  51) = (   2.0901252   4.0892486  19.3254668  )
        52           H1  tau(  52) = (   2.7239663   2.3052050  19.4587972  )
        53           H1  tau(  53) = (   0.7490178   1.5515861  18.4517582  )
        54           H1  tau(  54) = (   6.4535031   4.2829477  18.5696568  )
        55           H1  tau(  55) = (   5.5068980   2.9516776  18.2836589  )
        56           O1  tau(  56) = (   3.3967406   0.0908776  18.1493316  )
        57           H1  tau(  57) = (   4.3453859   0.1513423  18.3540861  )

     number of k points=    10  Fermi-Dirac smearing, width (Ry)=  0.0073
                       cart. coord. in units 2pi/alat
        k(    1) = (   0.0000000   0.0000000   0.0000000), wk =   0.1250000
        k(    2) = (   0.0000000   0.0419351   0.0000000), wk =   0.2500000
        k(    3) = (   0.0000000  -0.0838702   0.0000000), wk =   0.1250000
        k(    4) = (   0.0379955   0.0000049   0.0000000), wk =   0.2500000
        k(    5) = (   0.0379955   0.0419400   0.0000000), wk =   0.2500000
        k(    6) = (   0.0379955  -0.0838652   0.0000000), wk =   0.2500000
        k(    7) = (   0.0379955  -0.0419301   0.0000000), wk =   0.2500000
        k(    8) = (  -0.0759910  -0.0000099   0.0000000), wk =   0.1250000
        k(    9) = (  -0.0759910   0.0419252   0.0000000), wk =   0.2500000
        k(   10) = (  -0.0759910  -0.0838800   0.0000000), wk =   0.1250000

     Initial potential from superposition of free atoms

     starting charge  387.99913, renormalised to  404.00000

     negative rho (up, down):  1.608E-02 0.000E+00

     %%%%%%%%%%%%%%%%%%%%%%%%%%%%%%%%%%%%%%%%%%%%%%%%%%%%%%%%%%%%%%%%%%%%%%%%
     %                                                                      %
     % You are using vdW-DF, which was implemented by the Thonhauser group. %
     % Please cite the following two papers that made this development      %
     % possible and the two reviews that describe the various versions:     %
     %                                                                      %
     %   T. Thonhauser et al., PRL 115, 136402 (2015).                      %
     %   T. Thonhauser et al., PRB 76, 125112 (2007).                       %
     %   K. Berland et al., Rep. Prog. Phys. 78, 066501 (2015).             %
     %   D.C. Langreth et al., J. Phys.: Condens. Matter 21, 084203 (2009). %
     %                                                                      %
     %                                                                      %
     % If you are calculating the stress with vdW-DF, please also cite:     %
     %                                                                      %
     %   R. Sabatini et al., J. Phys.: Condens. Matter 24, 424209 (2012).   %
     %                                                                      %
     %%%%%%%%%%%%%%%%%%%%%%%%%%%%%%%%%%%%%%%%%%%%%%%%%%%%%%%%%%%%%%%%%%%%%%%%

     Adding external electric field

     Computed dipole along edir(3) :
        Dipole              -13.8429 Ry au,        -35.1851 Debye
        Dipole field         -0.0261 Ry au,

        Potential amp.        2.4216 Ry
        Total length         46.3494 bohr

     Starting wfcs are  306 atomic wfcs
  @ DRIVER MODE: Message from server: STATUS
  @ DRIVER MODE: Message from server: POSDATA
  @ DRIVER MODE: Reading and sharing cell
  @ DRIVER MODE: Reading and sharing positions
  @ DRIVER MODE: Received positions

     Self-consistent Calculation

     iteration #  1     ecut=    29.40 Ry     beta= 0.05
     Davidson diagonalization with overlap
     c_bands:  1 eigenvalues not converged
     c_bands:  2 eigenvalues not converged
     c_bands:  1 eigenvalues not converged
     c_bands:  1 eigenvalues not converged
     c_bands:  1 eigenvalues not converged
     c_bands:  2 eigenvalues not converged
     c_bands:  5 eigenvalues not converged
     c_bands:  3 eigenvalues not converged
     ethr =  1.00E-05,  avg # of iterations = 32.8

[...]

     total energy              =   -2231.88690791 Ry
     estimated scf accuracy    <    8426.15744609 Ry

     iteration #  2     ecut=    29.40 Ry     beta= 0.05
     Davidson diagonalization with overlap
     ethr =  1.00E-02,  avg # of iterations = 27.8

[...]

     iteration # 58     ecut=    29.40 Ry     beta= 0.05
     Davidson diagonalization with overlap
     c_bands:  1 eigenvalues not converged
     c_bands:  1 eigenvalues not converged
     ethr =  2.47E-08,  avg # of iterations = 16.1

[...]

     total energy              =   -2975.14987628 Ry
     estimated scf accuracy    <       0.00000010 Ry

     iteration # 73     ecut=    29.40 Ry     beta= 0.05
     Davidson diagonalization with overlap
     ethr =  2.37E-11,  avg # of iterations = 11.2

     negative rho (up, down):  1.523E-02 0.000E+00

     Adding external electric field

     Computed dipole along edir(3) :
        Dipole                1.1870 Ry au,          3.0171 Debye
        Dipole field          0.0022 Ry au,

        Potential amp.       -0.2077 Ry
        Total length         46.3494 bohr

     End of self-consistent calculation

          k = 0.0000 0.0000 0.0000 ( 18029 PWs)   bands (ev):

   -55.4132 -55.3301 -55.2960 -55.2251 -55.1870 -55.1758 -55.1614 -55.1603
   -55.1455 -55.1257 -55.0975 -55.0264 -55.0187 -54.9921 -54.3245 -54.2904
   -31.8181 -31.7678 -31.7397 -31.7109 -31.6651 -31.6640 -31.6291 -31.6199
   -31.6175 -31.6043 -31.5754 -31.5377 -31.4999 -31.4830 -31.4669 -31.4595
   -31.4424 -31.4398 -31.4384 -31.4039 -31.3876 -31.3763 -31.3707 -31.3668
   -31.3623 -31.3558 -31.3526 -31.3307 -31.3252 -31.3219 -31.3215 -31.2983
   -31.2902 -31.2863 -31.2742 -31.2502 -31.2324 -31.2285 -31.2061 -31.1960
   -31.1929 -31.1894 -30.7316 -30.6426 -30.6202 -30.5488 -30.4622 -30.3507
   -19.3963 -16.2697 -16.0458 -15.8803 -15.6648 -15.6191 -15.5281 -15.3657
   -15.2536 -15.1832 -15.0753 -15.0009 -14.9268 -14.8902 -14.8811 -14.8675
   -14.8622 -14.8111 -14.8023 -14.7886 -14.7841 -14.7760 -14.7675 -14.7266
   -14.6925 -14.6446 -14.6273 -14.4891 -14.4506 -14.4140 -14.2923 -14.2715
   -12.8238 -12.7070 -10.1872  -7.8491  -6.5667  -5.4213  -4.1965  -3.8059
    -3.6596  -3.3885  -3.2797  -3.2481  -3.1879  -3.1531  -2.8987  -2.7997
    -2.7805  -2.6442  -2.5255  -2.4789  -2.4186  -2.3478  -2.3163  -2.2935
    -2.2680  -2.2129  -2.1482  -2.1340  -2.1214  -2.0440  -2.0397  -1.9654
    -1.9163  -1.9031  -1.7983  -1.7266  -1.6944  -1.6811  -1.6698  -1.6530
    -1.6283  -1.6212  -1.5976  -1.5359  -1.4699  -1.4613  -1.3957  -1.3691
    -1.0998  -1.0344  -0.9677  -0.9381  -0.8621  -0.8302  -0.8058  -0.7834
    -0.7389  -0.7364  -0.7231  -0.6547  -0.5612  -0.5012  -0.4710  -0.4511
    -0.3984  -0.2851  -0.2653  -0.1547  -0.1255  -0.1193  -0.0788  -0.0312
     0.0104   0.0500   0.1109   0.1816   0.2315   0.2823   0.3147   0.3410
     0.3811   0.4160   0.4773   0.5549   0.5788   0.6233   0.6532   0.6735
     0.6830   0.7397   0.7566   0.8445   0.9251   0.9364   1.0335   1.0657
     1.1150   1.3015   1.3381   1.6375   1.6841   1.7016   1.8902   2.2714
     2.3178   3.7370   3.8609   3.8915   3.9016   3.9411   3.9741   4.0295
     4.2234   4.2357   4.3486   4.4277

[...]

          k = 0.0380-0.0419 0.0000 ( 17876 PWs)   bands (ev):

[...]

          k =-0.0760-0.0000 0.0000 ( 17886 PWs)   bands (ev):

[...]

          k =-0.0760-0.0839 0.0000 ( 17948 PWs)   bands (ev):

   -55.4123 -55.3132 -55.3129 -55.2137 -55.1982 -55.1733 -55.1622 -55.1427
   -55.1424 -55.1392 -55.1044 -55.0209 -55.0151 -55.0033 -54.3078 -54.3069
   -31.6800 -31.6709 -31.6524 -31.6333 -31.6332 -31.6181 -31.6054 -31.6051
   -31.5644 -31.5327 -31.5171 -31.4921 -31.4828 -31.4746 -31.4630 -31.4502
   -31.4485 -31.4432 -31.4399 -31.4330 -31.4327 -31.4230 -31.4070 -31.3993
   -31.3951 -31.3772 -31.3635 -31.3633 -31.3569 -31.3546 -31.3494 -31.3397
   -31.3252 -31.3210 -31.3197 -31.3163 -31.2821 -31.2809 -31.2423 -31.2358
   -31.2101 -31.2017 -30.6333 -30.6326 -30.5449 -30.5437 -30.5059 -30.5052
   -19.3917 -16.2409 -15.7503 -15.4820 -15.3564 -15.3445 -15.2233 -15.2077
   -15.1456 -15.1378 -15.1083 -15.0939 -15.0836 -15.0402 -15.0116 -14.9267
   -14.9113 -14.8702 -14.8668 -14.8210 -14.8187 -14.8172 -14.7953 -14.7737
   -14.7686 -14.7487 -14.7424 -14.6798 -14.6664 -14.5292 -14.4471 -14.3945
   -12.8090 -12.8084 -10.1580  -7.8156  -6.5594  -5.5056  -4.1542  -3.8242
    -3.6194  -2.8374  -2.6945  -2.5929  -2.4834  -2.4511  -2.4023  -2.3535
    -2.3396  -2.3079  -2.2373  -2.2078  -2.1928  -2.1569  -2.1560  -2.1326
    -2.1227  -2.1027  -2.0749  -2.0557  -2.0448  -2.0393  -2.0117  -1.9964
    -1.9817  -1.9565  -1.9287  -1.9079  -1.8941  -1.8868  -1.8367  -1.7314
    -1.6419  -1.5630  -1.5267  -1.5013  -1.4909  -1.4419  -1.4286  -1.4171
    -1.3814  -1.3583  -1.2250  -1.2027  -1.0662  -1.0083  -0.9746  -0.9295
    -0.8748  -0.8665  -0.8518  -0.8101  -0.7709  -0.6379  -0.6071  -0.5741
    -0.5152  -0.4403  -0.3531  -0.3389  -0.3153  -0.2975  -0.2619  -0.2436
    -0.2283  -0.1992  -0.1697  -0.0914  -0.0569  -0.0446  -0.0262   0.0726
     0.1713   0.2110   0.2750   0.3446   0.3868   0.4112   0.4404   0.6250
     0.6554   0.7987   0.8077   0.8121   0.9571   0.9576   1.0050   1.0534
     1.0847   1.1273   1.1560   1.1710   1.2060   2.0604   2.0688   2.1380
     2.1382   3.7740   3.9384   4.1618   4.1843   4.2431   4.2544   4.2852
     4.3108   4.3403   4.3807   4.4007

     the Fermi energy is     3.7869 ev

!    total energy              =   -2975.14989348 Ry
     estimated scf accuracy    <       0.00000007 Ry
     smearing contrib. (-TS)   =      -0.03331509 Ry
     internal energy E=F+TS    =   -2975.11657839 Ry

     The total energy is F=E-TS. E is the sum of the following terms:
     one-electron contribution =  -23379.90701217 Ry
     hartree contribution      =   11787.23735926 Ry
     xc contribution           =    -494.90494573 Ry
     ewald contribution        =    9112.45536117 Ry
     electric field correction =       0.00265907 Ry

     convergence has been achieved in  73 iterations

     Forces acting on atoms (cartesian axes, Ry/au):

     atom    1 type  1   force =     0.00028652   -0.00020203    0.09346820
     atom    2 type  1   force =    -0.00005463    0.00052733   -0.17629453
     atom    3 type  2   force =     0.00004323   -0.00029491   -0.02071067
     atom    4 type  2   force =     0.00001636   -0.00222333    0.05686081
     atom    5 type  2   force =    -0.00785438   -0.00263504    0.00513504
     atom    6 type  2   force =     0.00892137   -0.00211772    0.00325322
     atom    7 type  1   force =    -0.00077719   -0.00333196    0.00576739
     atom    8 type  1   force =     0.00086271    0.00108002   -0.00172431
     atom    9 type  2   force =    -0.00018584    0.00014427    0.00006605
     atom   10 type  2   force =    -0.00341942    0.00105602   -0.00644378
     atom   11 type  2   force =     0.00019146   -0.00013184    0.00031955
     atom   12 type  2   force =    -0.00012416   -0.00022891    0.00004270
     atom   13 type  1   force =     0.00000674   -0.00005450   -0.00022498
     atom   14 type  1   force =     0.00052992   -0.00036795   -0.00028392
     atom   15 type  2   force =    -0.00003005   -0.00101467   -0.00044672
     atom   16 type  2   force =     0.00020692    0.00061553    0.00090683
     atom   17 type  2   force =    -0.00125150    0.00037664   -0.00032169
     atom   18 type  2   force =     0.00127328    0.00005464   -0.00060831
     atom   19 type  1   force =     0.00006310    0.00062406   -0.00024504
     atom   20 type  1   force =     0.00051720    0.00020194   -0.00079608
     atom   21 type  2   force =     0.00011657    0.00004950    0.10357178
     atom   22 type  2   force =     0.00009879    0.00000462    0.00083335
     atom   23 type  2   force =    -0.07136155   -0.00018355   -0.02699380
     atom   24 type  2   force =     0.07135926    0.00026649   -0.02702578
     atom   25 type  1   force =     0.00007109   -0.00017592    0.09323379
     atom   26 type  1   force =     0.00008431   -0.00125724   -0.17650389
     atom   27 type  2   force =     0.00007658   -0.00015186   -0.01947167
     atom   28 type  2   force =     0.00001879   -0.00060109    0.05222921
     atom   29 type  2   force =    -0.00742502    0.00176774    0.00489608
     atom   30 type  2   force =     0.00835422    0.00235283    0.00299835
     atom   31 type  1   force =    -0.00098344    0.00885978   -0.00436724
     atom   32 type  1   force =     0.00094204   -0.00222389   -0.00238982
     atom   33 type  2   force =    -0.00022368   -0.00134679   -0.00063918
     atom   34 type  2   force =    -0.00214545   -0.00210227   -0.00764422
     atom   35 type  2   force =    -0.00001202    0.00016564    0.00027474
     atom   36 type  2   force =     0.00017309    0.00016022    0.00021280
     atom   37 type  1   force =     0.00003426   -0.00030418    0.00012997
     atom   38 type  1   force =     0.00034837    0.00046674    0.00016933
     atom   39 type  2   force =    -0.00000785    0.00068405   -0.00013996
     atom   40 type  2   force =     0.00021534   -0.00016351    0.00044606
     atom   41 type  2   force =    -0.00042323   -0.00016198    0.00029995
     atom   42 type  2   force =     0.00079143   -0.00029796    0.00012398
     atom   43 type  1   force =     0.00041224   -0.00072282   -0.00043082
     atom   44 type  1   force =     0.00012113    0.00109956   -0.00003953
     atom   45 type  2   force =     0.00010016   -0.00008916    0.10332449
     atom   46 type  2   force =    -0.07140536   -0.00002466   -0.02703187
     atom   47 type  2   force =     0.07138129    0.00039331   -0.02706373
     atom   48 type  3   force =    -0.00475111   -0.00666558   -0.00217882
     atom   49 type  3   force =     0.00152175    0.00107136    0.00094612
     atom   50 type  4   force =    -0.00026089    0.02661388    0.00126464
     atom   51 type  5   force =    -0.00020922   -0.01333341   -0.00112004
     atom   52 type  5   force =     0.00513700   -0.00727916    0.00120529
     atom   53 type  5   force =    -0.00137837    0.00023844   -0.00024045
     atom   54 type  5   force =    -0.00005959    0.00040635   -0.00038631
     atom   55 type  5   force =     0.00013967    0.00018268    0.00055931
     atom   56 type  2   force =     0.00078692    0.00091447    0.00003877
     atom   57 type  5   force =    -0.00085915   -0.00069024   -0.00081063

     Total force =     0.364485     Total SCF correction =     0.000672
  @ DRIVER MODE: Message from server: STATUS
  @ DRIVER MODE: Message from server: GETFORCE
  @ DRIVER MODE: Returning v,forces,stress,ensemble

     Writing output data file ./calc.save/
  @ DRIVER MODE: Message from server: EXIT
  @ DRIVE MODE: Exiting

     General routines

     Parallel routines

   This run was terminated on:  17:49:41  23Sep2021

   JOB DONE.