     Program PWSCF v.6.7GPU starts on  8Sep2021 at 22:10:45

     R & G space division:  proc/nbgrp/npool/nimage =      10
     Reading input from /storage/home/hcoda1/3/ntian30/research/carbon/CxH_vib/CH2_calc/ads_slab/CH2O_a/out_0001/pw.inp
Warning: card &CELL ignored
Warning: card   CELL_DYNAMICS='IPI', ignored
Warning: card / ignored

     Current dimensions of program PWSCF are:
     Max number of different atomic species (ntypx) = 10
     Max number of k-points (npk) =  40000
     Max angular momentum in pseudopotentials (lmaxx) =  3
     Presently no symmetry can be used with electric field

     Message from routine cell_base_init:
     DEPRECATED: use true lattice parameter, not A to a.u. conversion factor

     IMPORTANT: XC functional enforced from input :
     Exchange-correlation= BEEF-VDW
                           (   1   4  43  14   2   0   0)
     Any further DFT definition will be discarded
     Please, verify this is what you really want

  @ DRIVER MODE: Connecting to
 qe_1139763_2767394.sched-torque.pace.gatech.eduwrwc77_0_scratch
  using UNIX socket
  @ DRIVER MODE: Message from server: STATUS
  @ DRIVER MODE: Message from server: INIT
  @ DRIVER MODE: Receiving replica           0          -1
  @ DRIVER MODE: Receiving encoded integer          25
  @ DRIVER MODE:  SCF:  T  FORCE:  T  STRESS:  F  VC:  F  ENSEMBLE:  F
  @ DRIVER MODE:  SCF:  T  FORCE:  T  STRESS:  F  VC:  F  ENSEMBLE:  F

     Using Slab Decomposition

     bravais-lattice index     =            0
     lattice parameter (alat)  =       1.8897  a.u.
     unit-cell volume          =    6658.9804 (a.u.)^3
     number of atoms/cell      =           51
     number of atomic types    =            4
     number of electrons       =       390.00
     number of Kohn-Sham states=          205
     kinetic-energy cutoff     =      29.3995  Ry
     charge density cutoff     =     293.9946  Ry
     scf convergence threshold =      7.3E-08
     mixing beta               =       0.0500
     number of iterations used =            8  plain     mixing
     Exchange-correlation= BEEF-VDW
                           (   1   4  43  14   2   0   0)

     celldm(1)=   1.889726  celldm(2)=   0.000000  celldm(3)=   0.000000
     celldm(4)=   0.000000  celldm(5)=   0.000000  celldm(6)=   0.000000

     crystal axes: (cart. coord. in units of alat)
               a(1) = (   6.579727   0.000000   0.000000 )
               a(2) = (  -0.000775   5.961596   0.000000 )
               a(3) = (   0.000000   0.000000  25.155947 )

     reciprocal axes: (cart. coord. in units 2 pi/alat)
               b(1) = (  0.151982  0.000020  0.000000 )
               b(2) = (  0.000000  0.167740  0.000000 )
               b(3) = (  0.000000  0.000000  0.039752 )

     PseudoPot. # 1 for O  read from file:
     /storage/coda1/p-amedford6/0/shared/rich_project_chbe-medford/medford-share/data/pseudos_module/espresso/nninc/pbe/van/O.UPF
     MD5 check sum: 78c19812648e8988a0fe644b0f25305e
     Pseudo is Ultrasoft, Zval =  6.0
     Generated by new atomic code, or converted to UPF format
     Using radial grid of  737 points,  4 beta functions with:
                l(1) =   0
                l(2) =   0
                l(3) =   1
                l(4) =   1
     Q(r) pseudized with  8 coefficients,  rinner =    0.800   0.800   0.800

     PseudoPot. # 2 for Ti read from file:
     /storage/coda1/p-amedford6/0/shared/rich_project_chbe-medford/medford-share/data/pseudos_module/espresso/nninc/pbe/van/Ti.UPF
     MD5 check sum: 8e4df49b7f0d34bbd5052bf3f5ea0213
     Pseudo is Ultrasoft, Zval = 12.0
     Generated by new atomic code, or converted to UPF format
     Using radial grid of  851 points,  6 beta functions with:
                l(1) =   0
                l(2) =   0
                l(3) =   1
                l(4) =   1
                l(5) =   2
                l(6) =   2
     Q(r) pseudized with  8 coefficients,  rinner =    1.000   1.000   1.000
                                                       1.000   1.000

     PseudoPot. # 3 for C  read from file:
     /storage/coda1/p-amedford6/0/shared/rich_project_chbe-medford/medford-share/data/pseudos_module/espresso/nninc/pbe/van/C.UPF
     MD5 check sum: 1a69bf6b8db32088f5b2163dbdb77a27
     Pseudo is Ultrasoft, Zval =  4.0
     Generated by new atomic code, or converted to UPF format
     Using radial grid of  721 points,  4 beta functions with:
                l(1) =   0
                l(2) =   0
                l(3) =   1
                l(4) =   1
     Q(r) pseudized with  8 coefficients,  rinner =    0.800   0.800   0.800

     PseudoPot. # 4 for H  read from file:
     /storage/coda1/p-amedford6/0/shared/rich_project_chbe-medford/medford-share/data/pseudos_module/espresso/nninc/pbe/van/H.UPF
     MD5 check sum: b5ee9d7bfd3a09ee7748110bda690ff7
     Pseudo is Ultrasoft, Zval =  1.0
     Generated by new atomic code, or converted to UPF format
     Using radial grid of  615 points,  1 beta functions with:
                l(1) =   0
     Q(r) pseudized with  8 coefficients,  rinner =    0.800

     atomic species   valence    mass     pseudopotential
        O1             6.00    15.99900     O ( 1.00)
        Ti1           12.00    47.86700     Ti( 1.00)
        C1             4.00    12.01100     C ( 1.00)
        H1             1.00     1.00800     H ( 1.00)

     No symmetry found

   Cartesian axes

     site n.     atom                  positions (alat units)
         1           O1  tau(   1) = (   3.2904802   0.0005063   4.7018136  )
         2           O1  tau(   2) = (   3.2900926   2.9813045   4.7018136  )
         3           Ti1 tau(   3) = (   0.0004258   2.9801865   6.0000000  )
         4           Ti1 tau(   4) = (   0.0000382   5.9609847   6.0000000  )
         5           Ti1 tau(   5) = (   3.2906075   1.4906267   6.0002472  )
         6           Ti1 tau(   6) = (   3.2902200   4.4714249   6.0002472  )
         7           O1  tau(   7) = (   1.3043587   1.4918075   6.0039043  )
         8           O1  tau(   8) = (   1.3039711   4.4726057   6.0039043  )
         9           O1  tau(   9) = (   5.2767064   1.4903225   6.0039473  )
        10           O1  tau(  10) = (   5.2763189   4.4711207   6.0039473  )
        11           O1  tau(  11) = (   3.2906025   0.0005020   7.3038282  )
        12           O1  tau(  12) = (   3.2902150   2.9813002   7.3038282  )
        13           O1  tau(  13) = (   0.0006271   0.0005054   7.9858123  )
        14           O1  tau(  14) = (   0.0002396   2.9813036   7.9858123  )
        15           Ti1 tau(  15) = (   3.3042095   0.0533388   9.1528587  )
        16           Ti1 tau(  16) = (   3.3174724   3.0316863   9.1560957  )
        17           Ti1 tau(  17) = (   0.0293802   4.5322946   9.2552644  )
        18           Ti1 tau(  18) = (   0.0259946   1.6073196   9.3627105  )
        19           O1  tau(  19) = (   4.5942328   1.4918067   9.2879030  )
        20           O1  tau(  20) = (   4.5938453   4.4726049   9.2879030  )
        21           O1  tau(  21) = (   1.9868534   1.4903216   9.2879459  )
        22           O1  tau(  22) = (   1.9864658   4.4711199   9.2879459  )
        23           O1  tau(  23) = (   0.0064038   0.0081980  10.6024552  )
        24           O1  tau(  24) = (   0.0073862   2.9894728  10.5866593  )
        25           O1  tau(  25) = (   3.3023414   2.9953748  11.3432802  )
        26           O1  tau(  26) = (   3.3032852   0.0099373  11.3464837  )
        27           Ti1 tau(  27) = (   0.0309755   0.0166663  12.4994564  )
        28           Ti1 tau(  28) = (   3.3310982   4.4887825  12.4897803  )
        29           Ti1 tau(  29) = (   3.3310371   1.5113328  12.4846922  )
        30           Ti1 tau(  30) = (   0.0327574   2.9992265  12.7695683  )
        31           O1  tau(  31) = (   1.3002707   4.4821552  12.6388042  )
        32           O1  tau(  32) = (   1.3007223   1.5002113  12.6333963  )
        33           O1  tau(  33) = (   5.2991570   4.4805309  12.6421864  )
        34           O1  tau(  34) = (   5.3000174   1.5011411  12.6364809  )
        35           O1  tau(  35) = (   3.3018339   2.9879062  13.9210104  )
        36           O1  tau(  36) = (   3.3040464   0.0111531  13.9455706  )
        37           O1  tau(  37) = (   0.0204374   0.0165334  14.6791819  )
        38           O1  tau(  38) = (   0.0263865   2.9938028  14.7196832  )
        39           Ti1 tau(  39) = (   3.3100843   2.9899001  15.7147585  )
        40           Ti1 tau(  40) = (   3.3190225   0.0114617  15.7368552  )
        41           Ti1 tau(  41) = (   0.0307220   4.5758675  15.9389875  )
        42           Ti1 tau(  42) = (   0.0306600   1.3860070  15.9976826  )
        43           O1  tau(  43) = (   4.5579467   4.4706051  16.0879179  )
        44           O1  tau(  44) = (   4.5582295   1.5117582  16.0998906  )
        45           O1  tau(  45) = (   2.0559277   1.5139458  16.1062704  )
        46           O1  tau(  46) = (   2.0563840   4.4680477  16.0963298  )
        47           O1  tau(  47) = (   0.0152972   0.0023678  17.1988758  )
        48           O1  tau(  48) = (   6.5545367   3.0020129  17.4248639  )
        49           C1  tau(  49) = (   6.3846989   3.0744571  18.6868163  )
        50           H1  tau(  50) = (   6.3100824   4.0552778  19.1474226  )
        51           H1  tau(  51) = (   6.3122094   2.1591535  19.2648898  )

     number of k points=    10  Fermi-Dirac smearing, width (Ry)=  0.0073
                       cart. coord. in units 2pi/alat
        k(    1) = (   0.0000000   0.0000000   0.0000000), wk =   0.1250000
        k(    2) = (   0.0000000   0.0419351   0.0000000), wk =   0.2500000
        k(    3) = (   0.0000000  -0.0838702   0.0000000), wk =   0.1250000
        k(    4) = (   0.0379955   0.0000049   0.0000000), wk =   0.2500000
        k(    5) = (   0.0379955   0.0419400   0.0000000), wk =   0.2500000
        k(    6) = (   0.0379955  -0.0838652   0.0000000), wk =   0.2500000
        k(    7) = (   0.0379955  -0.0419301   0.0000000), wk =   0.2500000
        k(    8) = (  -0.0759910  -0.0000099   0.0000000), wk =   0.1250000
        k(    9) = (  -0.0759910   0.0419252   0.0000000), wk =   0.2500000
        k(   10) = (  -0.0759910  -0.0838800   0.0000000), wk =   0.1250000

     Initial potential from superposition of free atoms

     starting charge  373.99919, renormalised to  390.00000

     negative rho (up, down):  1.843E-02 0.000E+00

     %%%%%%%%%%%%%%%%%%%%%%%%%%%%%%%%%%%%%%%%%%%%%%%%%%%%%%%%%%%%%%%%%%%%%%%%
     %                                                                      %
     % You are using vdW-DF, which was implemented by the Thonhauser group. %
     % Please cite the following two papers that made this development      %
     % possible and the two reviews that describe the various versions:     %
     %                                                                      %
     %   T. Thonhauser et al., PRL 115, 136402 (2015).                      %
     %   T. Thonhauser et al., PRB 76, 125112 (2007).                       %
     %   K. Berland et al., Rep. Prog. Phys. 78, 066501 (2015).             %
     %   D.C. Langreth et al., J. Phys.: Condens. Matter 21, 084203 (2009). %
     %                                                                      %
     %                                                                      %
     % If you are calculating the stress with vdW-DF, please also cite:     %
     %                                                                      %
     %   R. Sabatini et al., J. Phys.: Condens. Matter 24, 424209 (2012).   %
     %                                                                      %
     %%%%%%%%%%%%%%%%%%%%%%%%%%%%%%%%%%%%%%%%%%%%%%%%%%%%%%%%%%%%%%%%%%%%%%%%

     Adding external electric field

     Computed dipole along edir(3) :
        Dipole               -5.1853 Ry au,        -13.1796 Debye
        Dipole field         -0.0098 Ry au,

        Potential amp.        0.9071 Ry
        Total length         46.3494 bohr

     Starting wfcs are  294 atomic wfcs
  @ DRIVER MODE: Message from server: STATUS
  @ DRIVER MODE: Message from server: POSDATA
  @ DRIVER MODE: Reading and sharing cell
  @ DRIVER MODE: Reading and sharing positions
  @ DRIVER MODE: Received positions

     Self-consistent Calculation

     iteration #  1     ecut=    29.40 Ry     beta= 0.05
     Davidson diagonalization with overlap
     c_bands:  3 eigenvalues not converged
     c_bands:  3 eigenvalues not converged
     c_bands:  2 eigenvalues not converged
     c_bands:  1 eigenvalues not converged
     c_bands:  2 eigenvalues not converged
     c_bands:  2 eigenvalues not converged
     c_bands:  3 eigenvalues not converged
     c_bands:  2 eigenvalues not converged
     ethr =  1.00E-05,  avg # of iterations = 21.8

[...]

     total energy              =   -2822.16209734 Ry
     estimated scf accuracy    <    1191.00287840 Ry

     iteration #  2     ecut=    29.40 Ry     beta= 0.05
     Davidson diagonalization with overlap
     ethr =  1.00E-02,  avg # of iterations = 16.6

[...]

     iteration # 87     ecut=    29.40 Ry     beta= 0.05
     Davidson diagonalization with overlap
     ethr =  3.84E-11,  avg # of iterations =  1.5

[...]

     total energy              =   -2930.16724581 Ry
     estimated scf accuracy    <       0.00000011 Ry

     iteration # 88     ecut=    29.40 Ry     beta= 0.05
     Davidson diagonalization with overlap
     c_bands:  1 eigenvalues not converged
     ethr =  2.93E-11,  avg # of iterations = 11.2

     negative rho (up, down):  1.726E-02 0.000E+00

     Adding external electric field

     Computed dipole along edir(3) :
        Dipole                0.9355 Ry au,          2.3777 Debye
        Dipole field          0.0018 Ry au,

        Potential amp.       -0.1636 Ry
        Total length         46.3494 bohr

     End of self-consistent calculation

          k = 0.0000 0.0000 0.0000 ( 18029 PWs)   bands (ev):

   -55.8199 -55.8084 -55.7837 -55.7722 -55.7103 -55.6969 -55.6715 -55.6043
   -55.6007 -55.5895 -55.5777 -55.5561 -55.5156 -55.5011 -54.8479 -54.8139
   -32.3773 -32.2927 -32.1880 -32.1630 -32.1259 -32.1235 -32.1151 -32.0978
   -32.0691 -32.0532 -32.0491 -32.0233 -31.9940 -31.9896 -31.9786 -31.9564
   -31.9412 -31.9385 -31.9314 -31.9145 -31.8887 -31.8859 -31.8832 -31.8732
   -31.8599 -31.8443 -31.8431 -31.8196 -31.8158 -31.8141 -31.7913 -31.7630
   -31.7505 -31.7343 -31.7340 -31.7315 -31.7182 -31.6981 -31.6963 -31.6879
   -31.6813 -31.6726 -31.2581 -31.1600 -31.1378 -31.0748 -30.9888 -30.8775
   -19.8738 -16.5911 -16.2969 -16.1485 -16.0192 -15.9683 -15.8501 -15.6948
   -15.6190 -15.5406 -15.4903 -15.4418 -15.4037 -15.4022 -15.3740 -15.3582
   -15.3538 -15.3494 -15.2746 -15.2701 -15.2356 -15.2190 -15.2080 -15.1199
   -15.0560 -14.9970 -14.9507 -14.8958 -14.8403 -14.8127 -13.3484 -13.2299
    -9.3054  -5.5631  -5.5346  -3.9408  -3.7652  -3.7239  -3.7071  -3.6540
    -3.5474  -3.4307  -3.3951  -3.1120  -3.0216  -2.9880  -2.9786  -2.9657
    -2.8256  -2.7796  -2.6657  -2.6601  -2.6515  -2.6461  -2.6261  -2.5919
    -2.5794  -2.5375  -2.5121  -2.4022  -2.3670  -2.2550  -2.2389  -2.2161
    -2.1584  -2.1307  -2.1018  -2.0890  -2.0594  -2.0568  -2.0519  -2.0063
    -1.9087  -1.8155  -1.7536  -1.6672  -1.6304  -1.5408  -1.3791  -1.3116
    -1.2718  -1.2335  -1.1836  -1.1675  -1.1364  -1.1093  -1.0946  -1.0771
    -0.9818  -0.8660  -0.8631  -0.7616  -0.6997  -0.6746  -0.6610  -0.5776
    -0.5590  -0.5495  -0.4518  -0.3121  -0.3053  -0.2997  -0.1815  -0.1503
    -0.1273  -0.0798  -0.0590  -0.0210   0.0095   0.0667   0.1082   0.1207
     0.1651   0.1843   0.2057   0.3125   0.3677   0.3778   0.4278   0.4659
     0.6542   0.6716   0.8068   0.8746   1.0790   1.1770   1.2335   1.3449
     1.7648   1.8231   3.3442   3.3770   3.4005   3.4547   3.4920   3.5422
     3.5872   3.7902   3.8043   3.8144   3.8351

[...]

          k = 0.0380-0.0419 0.0000 ( 17876 PWs)   bands (ev):

[...]

          k =-0.0760-0.0000 0.0000 ( 17886 PWs)   bands (ev):

[...]

          k =-0.0760-0.0839 0.0000 ( 17948 PWs)   bands (ev):

   -55.8079 -55.7955 -55.7907 -55.7896 -55.7013 -55.6935 -55.6804 -55.6075
   -55.5970 -55.5745 -55.5724 -55.5716 -55.5209 -55.5041 -54.8314 -54.8303
   -32.1793 -32.1782 -32.1159 -32.1025 -32.1007 -32.0957 -32.0812 -32.0678
   -32.0614 -32.0339 -32.0229 -32.0097 -31.9941 -31.9574 -31.9452 -31.9377
   -31.9352 -31.9324 -31.9245 -31.9218 -31.9045 -31.8995 -31.8978 -31.8973
   -31.8942 -31.8915 -31.8756 -31.8543 -31.8342 -31.8293 -31.8280 -31.8069
   -31.8008 -31.7836 -31.7792 -31.7714 -31.7696 -31.7653 -31.7432 -31.7275
   -31.6994 -31.6982 -31.1512 -31.1498 -31.0715 -31.0706 -31.0324 -31.0314
   -19.8660 -16.0194 -15.9927 -15.8814 -15.7605 -15.7506 -15.7064 -15.6673
   -15.6099 -15.5580 -15.5544 -15.5055 -15.4865 -15.4843 -15.4372 -15.4057
   -15.3595 -15.3517 -15.3425 -15.3387 -15.2864 -15.2815 -15.2390 -15.2170
   -15.2065 -15.1709 -15.1658 -15.0972 -15.0392 -15.0178 -13.3322 -13.3301
    -9.3065  -5.5426  -5.5155  -3.5765  -3.3083  -3.2777  -3.1156  -2.9812
    -2.9712  -2.9136  -2.8291  -2.7937  -2.7485  -2.6975  -2.6929  -2.6723
    -2.6599  -2.6484  -2.6395  -2.6328  -2.5851  -2.5686  -2.5267  -2.4788
    -2.4739  -2.4618  -2.4545  -2.4152  -2.3995  -2.3876  -2.3809  -2.3737
    -2.3062  -2.2251  -2.1536  -2.0743  -2.0237  -2.0017  -1.9798  -1.9420
    -1.9094  -1.8894  -1.8727  -1.7482  -1.7259  -1.5758  -1.5602  -1.5396
    -1.5268  -1.4771  -1.4648  -1.3413  -1.2752  -1.2679  -1.1969  -1.1721
    -1.1498  -1.0948  -1.0752  -0.9958  -0.9536  -0.9118  -0.8574  -0.7950
    -0.7848  -0.7188  -0.7101  -0.6215  -0.6068  -0.5854  -0.5818  -0.5132
    -0.4800  -0.3940  -0.3867  -0.3639  -0.2534  -0.1925  -0.1850   0.0026
     0.1762   0.1805   0.2033   0.3022   0.3320   0.3744   0.4393   0.4464
     0.5348   0.5843   0.6752   0.6955   0.7054   0.7861   1.5357   1.5367
     1.6281   1.6383   3.2983   3.5650   3.6024   3.6042   3.6652   3.8183
     3.8212   3.8378   3.8484   3.9750   3.9815

     the Fermi energy is     3.3296 ev

!    total energy              =   -2930.16725077 Ry
     estimated scf accuracy    <       0.00000006 Ry
     smearing contrib. (-TS)   =      -0.03343605 Ry
     internal energy E=F+TS    =   -2930.13381473 Ry

     The total energy is F=E-TS. E is the sum of the following terms:
     one-electron contribution =  -24703.48464833 Ry
     hartree contribution      =   12437.20653529 Ry
     xc contribution           =    -481.27550538 Ry
     ewald contribution        =    9817.41815222 Ry
     electric field correction =       0.00165146 Ry

     convergence has been achieved in  88 iterations

     Forces acting on atoms (cartesian axes, Ry/au):

     atom    1 type  1   force =    -0.00009811    0.00004223    0.10425835
     atom    2 type  1   force =    -0.00009180    0.00004854    0.10431844
     atom    3 type  2   force =    -0.00026559   -0.00201114    0.10305599
     atom    4 type  2   force =    -0.00014076    0.00161900    0.11352578
     atom    5 type  2   force =    -0.00035507    0.00049622   -0.18060236
     atom    6 type  2   force =    -0.00018843   -0.00002006   -0.18098814
     atom    7 type  1   force =    -0.06886775    0.00060668   -0.02905844
     atom    8 type  1   force =    -0.06838625   -0.00116615   -0.02909427
     atom    9 type  1   force =     0.06850356    0.00109370   -0.02913293
     atom   10 type  1   force =     0.06811463   -0.00076474   -0.02917489
     atom   11 type  1   force =     0.00041385    0.00043975    0.04546250
     atom   12 type  1   force =     0.00057459    0.00075855    0.04657531
     atom   13 type  1   force =     0.00030012   -0.00542878   -0.03228467
     atom   14 type  1   force =     0.00034269    0.00325965   -0.02497748
     atom   15 type  2   force =     0.00003044    0.00033464    0.00051043
     atom   16 type  2   force =     0.00008309   -0.00033116    0.00079184
     atom   17 type  2   force =    -0.00020958   -0.00110660    0.00025393
     atom   18 type  2   force =    -0.00023012    0.00072480   -0.00055061
     atom   19 type  1   force =    -0.01758893    0.00012682    0.00384432
     atom   20 type  1   force =    -0.01642428    0.00134788    0.00292692
     atom   21 type  1   force =     0.01895772   -0.00112430    0.00432442
     atom   22 type  1   force =     0.01761284    0.00110388    0.00323762
     atom   23 type  1   force =     0.00009674    0.00019130   -0.00064691
     atom   24 type  1   force =    -0.00008403   -0.00014785   -0.00041436
     atom   25 type  1   force =     0.00003760   -0.00061825    0.00021339
     atom   26 type  1   force =    -0.00019080    0.00042287    0.00006073
     atom   27 type  2   force =     0.00000249    0.00074223    0.00026747
     atom   28 type  2   force =    -0.00001116   -0.00020573   -0.00021337
     atom   29 type  2   force =     0.00005512   -0.00017912    0.00015274
     atom   30 type  2   force =    -0.00020069   -0.00024514    0.00027883
     atom   31 type  1   force =    -0.00013494   -0.00019006    0.00007691
     atom   32 type  1   force =     0.00029408    0.00035365    0.00021559
     atom   33 type  1   force =     0.00016207   -0.00013830    0.00009819
     atom   34 type  1   force =    -0.00053993    0.00023256    0.00022657
     atom   35 type  1   force =    -0.00005368   -0.00011588   -0.00013580
     atom   36 type  1   force =    -0.00001602    0.00025589   -0.00033063
     atom   37 type  1   force =    -0.00007727   -0.00034646   -0.00021077
     atom   38 type  1   force =    -0.00017757    0.00058639   -0.00016491
     atom   39 type  2   force =    -0.00015344    0.00066554   -0.00017320
     atom   40 type  2   force =    -0.00018081   -0.00040168   -0.00001747
     atom   41 type  2   force =    -0.00035886    0.00005221   -0.00019842
     atom   42 type  2   force =    -0.00038054   -0.00002370   -0.00027056
     atom   43 type  1   force =     0.00028462    0.00018364    0.00025691
     atom   44 type  1   force =    -0.00042232    0.00018353    0.00002433
     atom   45 type  1   force =    -0.00029876    0.00043687    0.00063244
     atom   46 type  1   force =    -0.00125504   -0.00009870    0.00073213
     atom   47 type  1   force =    -0.00029062   -0.00010358    0.00092068
     atom   48 type  1   force =     0.00193695    0.00009107   -0.00148952
     atom   49 type  3   force =    -0.00048893    0.00096693    0.00186908
     atom   50 type  4   force =     0.00021982   -0.00083854    0.00076627
     atom   51 type  4   force =     0.00013906   -0.00176107    0.00025158

     Total force =     0.374252     Total SCF correction =     0.000841
  @ DRIVER MODE: Message from server: STATUS
  @ DRIVER MODE: Message from server: GETFORCE
  @ DRIVER MODE: Returning v,forces,stress,ensemble

     Writing output data file ./calc.save/
  @ DRIVER MODE: Message from server: EXIT
  @ DRIVE MODE: Exiting

     General routines

     Parallel routines

   This run was terminated on:  22:32:49   8Sep2021

   JOB DONE.