     Program PWSCF v.6.7GPU starts on 15Sep2021 at 17: 5:23

     R & G space division:  proc/nbgrp/npool/nimage =      10
     Reading input from /storage/home/hcoda1/3/ntian30/research/carbon/CxH_vib/H2O_calc/ads_slab/CH2N2H2O_b/out_0005/pw.inp
Warning: card &CELL ignored
Warning: card   CELL_DYNAMICS='IPI', ignored
Warning: card / ignored

     Current dimensions of program PWSCF are:
     Max number of different atomic species (ntypx) = 10
     Max number of k-points (npk) =  40000
     Max angular momentum in pseudopotentials (lmaxx) =  3
     Presently no symmetry can be used with electric field

     Message from routine cell_base_init:
     DEPRECATED: use true lattice parameter, not A to a.u. conversion factor

     IMPORTANT: XC functional enforced from input :
     Exchange-correlation= BEEF-VDW
                           (   1   4  43  14   2   0   0)
     Any further DFT definition will be discarded
     Please, verify this is what you really want

  @ DRIVER MODE: Connecting to
 qe_1139763_2852605.sched-torque.pace.gatech.eduk1wkchm9_scratch
  using UNIX socket
  @ DRIVER MODE: Message from server: STATUS
  @ DRIVER MODE: Message from server: INIT
  @ DRIVER MODE: Receiving replica           0          -1
  @ DRIVER MODE: Receiving encoded integer          25
  @ DRIVER MODE:  SCF:  T  FORCE:  T  STRESS:  F  VC:  F  ENSEMBLE:  F
  @ DRIVER MODE:  SCF:  T  FORCE:  T  STRESS:  F  VC:  F  ENSEMBLE:  F

     Using Slab Decomposition

     bravais-lattice index     =            0
     lattice parameter (alat)  =       1.8897  a.u.
     unit-cell volume          =    6658.9804 (a.u.)^3
     number of atoms/cell      =           55
     number of atomic types    =            5
     number of electrons       =       402.00
     number of Kohn-Sham states=          211
     kinetic-energy cutoff     =      29.3995  Ry
     charge density cutoff     =     293.9946  Ry
     scf convergence threshold =      7.3E-08
     mixing beta               =       0.0500
     number of iterations used =            8  plain     mixing
     Exchange-correlation= BEEF-VDW
                           (   1   4  43  14   2   0   0)

     celldm(1)=   1.889726  celldm(2)=   0.000000  celldm(3)=   0.000000
     celldm(4)=   0.000000  celldm(5)=   0.000000  celldm(6)=   0.000000

     crystal axes: (cart. coord. in units of alat)
               a(1) = (   6.579727   0.000000   0.000000 )
               a(2) = (  -0.000775   5.961596   0.000000 )
               a(3) = (   0.000000   0.000000  25.155947 )

     reciprocal axes: (cart. coord. in units 2 pi/alat)
               b(1) = (  0.151982  0.000020  0.000000 )
               b(2) = (  0.000000  0.167740  0.000000 )
               b(3) = (  0.000000  0.000000  0.039752 )

     PseudoPot. # 1 for Ti read from file:
     /storage/coda1/p-amedford6/0/shared/rich_project_chbe-medford/medford-share/data/pseudos_module/espresso/nninc/pbe/van/Ti.UPF
     MD5 check sum: 8e4df49b7f0d34bbd5052bf3f5ea0213
     Pseudo is Ultrasoft, Zval = 12.0
     Generated by new atomic code, or converted to UPF format
     Using radial grid of  851 points,  6 beta functions with:
                l(1) =   0
                l(2) =   0
                l(3) =   1
                l(4) =   1
                l(5) =   2
                l(6) =   2
     Q(r) pseudized with  8 coefficients,  rinner =    1.000   1.000   1.000
                                                       1.000   1.000

     PseudoPot. # 2 for O  read from file:
     /storage/coda1/p-amedford6/0/shared/rich_project_chbe-medford/medford-share/data/pseudos_module/espresso/nninc/pbe/van/O.UPF
     MD5 check sum: 78c19812648e8988a0fe644b0f25305e
     Pseudo is Ultrasoft, Zval =  6.0
     Generated by new atomic code, or converted to UPF format
     Using radial grid of  737 points,  4 beta functions with:
                l(1) =   0
                l(2) =   0
                l(3) =   1
                l(4) =   1
     Q(r) pseudized with  8 coefficients,  rinner =    0.800   0.800   0.800

     PseudoPot. # 3 for N  read from file:
     /storage/coda1/p-amedford6/0/shared/rich_project_chbe-medford/medford-share/data/pseudos_module/espresso/nninc/pbe/van/N.UPF
     MD5 check sum: 90d10febe142ad51ac9d5be1deb811c4
     Pseudo is Ultrasoft, Zval =  5.0
     Generated by new atomic code, or converted to UPF format
     Using radial grid of  729 points,  4 beta functions with:
                l(1) =   0
                l(2) =   0
                l(3) =   1
                l(4) =   1
     Q(r) pseudized with  8 coefficients,  rinner =    0.800   0.800   0.800

     PseudoPot. # 4 for C  read from file:
     /storage/coda1/p-amedford6/0/shared/rich_project_chbe-medford/medford-share/data/pseudos_module/espresso/nninc/pbe/van/C.UPF
     MD5 check sum: 1a69bf6b8db32088f5b2163dbdb77a27
     Pseudo is Ultrasoft, Zval =  4.0
     Generated by new atomic code, or converted to UPF format
     Using radial grid of  721 points,  4 beta functions with:
                l(1) =   0
                l(2) =   0
                l(3) =   1
                l(4) =   1
     Q(r) pseudized with  8 coefficients,  rinner =    0.800   0.800   0.800

     PseudoPot. # 5 for H  read from file:
     /storage/coda1/p-amedford6/0/shared/rich_project_chbe-medford/medford-share/data/pseudos_module/espresso/nninc/pbe/van/H.UPF
     MD5 check sum: b5ee9d7bfd3a09ee7748110bda690ff7
     Pseudo is Ultrasoft, Zval =  1.0
     Generated by new atomic code, or converted to UPF format
     Using radial grid of  615 points,  1 beta functions with:
                l(1) =   0
     Q(r) pseudized with  8 coefficients,  rinner =    0.800

     atomic species   valence    mass     pseudopotential
        Ti1           12.00    47.86700     Ti( 1.00)
        O1             6.00    15.99900     O ( 1.00)
        N1             5.00    14.00700     N ( 1.00)
        C1             4.00    12.01100     C ( 1.00)
        H1             1.00     1.00800     H ( 1.00)

     No symmetry found

   Cartesian axes

     site n.     atom                  positions (alat units)
         1           Ti1 tau(   1) = (   0.0004258   2.9801865   6.0000000  )
         2           Ti1 tau(   2) = (   3.2906075   1.4906267   6.0002472  )
         3           O1  tau(   3) = (   0.0006271   0.0005054   7.9858123  )
         4           O1  tau(   4) = (   3.2906025   0.0005020   7.3038282  )
         5           O1  tau(   5) = (   4.5942328   1.4918067   9.2879030  )
         6           O1  tau(   6) = (   1.9868534   1.4903216   9.2879459  )
         7           Ti1 tau(   7) = (   3.2907910   2.8959150   9.1758416  )
         8           Ti1 tau(   8) = (   0.0015273   1.4827037   9.2680791  )
         9           O1  tau(   9) = (   3.2934429   5.9466490  11.3040654  )
        10           O1  tau(  10) = (   0.0116148   5.9584955  10.6183126  )
        11           O1  tau(  11) = (   1.2867109   1.4782735  12.6190062  )
        12           O1  tau(  12) = (   5.2776945   1.4764076  12.5976694  )
        13           Ti1 tau(  13) = (   0.0846880   2.9559742  12.7004455  )
        14           Ti1 tau(  14) = (   3.4192946   1.4610250  12.4797112  )
        15           O1  tau(  15) = (   0.0040618   5.9510889  14.6015872  )
        16           O1  tau(  16) = (   3.2972055   5.9566395  13.8969661  )
        17           O1  tau(  17) = (   4.5327346   1.5242580  16.0225792  )
        18           O1  tau(  18) = (   2.0474321   1.5095568  15.9818283  )
        19           Ti1 tau(  19) = (   3.2830006   2.9631064  15.6531525  )
        20           Ti1 tau(  20) = (   6.5418150   1.5417905  15.9635021  )
        21           O1  tau(  21) = (   3.2904802   0.0005063   4.7018136  )
        22           O1  tau(  22) = (   0.0063621   0.0138944  17.1794403  )
        23           O1  tau(  23) = (   1.3043587   1.4918075   6.0039043  )
        24           O1  tau(  24) = (   5.2767064   1.4903225   6.0039473  )
        25           Ti1 tau(  25) = (   0.0000382   5.9609847   6.0000000  )
        26           Ti1 tau(  26) = (   3.2902200   4.4714249   6.0002472  )
        27           O1  tau(  27) = (   0.0002396   2.9813036   7.9858123  )
        28           O1  tau(  28) = (   3.2902150   2.9813002   7.3038282  )
        29           O1  tau(  29) = (   4.5938453   4.4726049   9.2879030  )
        30           O1  tau(  30) = (   1.9864658   4.4711199   9.2879459  )
        31           Ti1 tau(  31) = (   3.2891106   5.8743827   9.1763621  )
        32           Ti1 tau(  32) = (   0.0006254   4.4649316   9.2693709  )
        33           O1  tau(  33) = (   3.2987291   2.9703105  11.3060640  )
        34           O1  tau(  34) = (   0.0092240   2.9805883  10.6323155  )
        35           O1  tau(  35) = (   1.2872851   4.4534926  12.6272766  )
        36           O1  tau(  36) = (   5.2800973   4.4624318  12.6062822  )
        37           Ti1 tau(  37) = (   0.1009857   5.9355968  12.6779778  )
        38           Ti1 tau(  38) = (   3.4194502   4.4581092  12.4739500  )
        39           O1  tau(  39) = (   6.5579784   2.9468049  14.6267102  )
        40           O1  tau(  40) = (   3.2950467   2.9662764  13.8528306  )
        41           O1  tau(  41) = (   4.5369278   4.4531499  15.9976687  )
        42           O1  tau(  42) = (   2.0426393   4.4597293  15.9709435  )
        43           Ti1 tau(  43) = (   3.2485613   5.9322867  15.7552632  )
        44           Ti1 tau(  44) = (   6.5504849   4.5932964  16.0494500  )
        45           O1  tau(  45) = (   3.2900926   2.9813045   4.7018136  )
        46           O1  tau(  46) = (   1.3039711   4.4726057   6.0039043  )
        47           O1  tau(  47) = (   5.2763189   4.4711207   6.0039473  )
        48           N1  tau(  48) = (   0.6156314   2.9572148  18.5016157  )
        49           N1  tau(  49) = (   0.0870375   2.9660652  17.3203775  )
        50           C1  tau(  50) = (   6.5561155   3.1780822  19.6039678  )
        51           H1  tau(  51) = (   5.4868456   3.3930584  19.6151425  )
        52           H1  tau(  52) = (   0.5344647   3.1546629  20.5288580  )
        53           O1  tau(  53) = (   3.2552377   5.9566958  18.1335742  )
        54           H1  tau(  54) = (   4.0211122   0.5273114  18.4085372  )
        55           H1  tau(  55) = (   2.4596908   0.4732500  18.4230009  )

     number of k points=    10  Fermi-Dirac smearing, width (Ry)=  0.0073
                       cart. coord. in units 2pi/alat
        k(    1) = (   0.0000000   0.0000000   0.0000000), wk =   0.1250000
        k(    2) = (   0.0000000   0.0419351   0.0000000), wk =   0.2500000
        k(    3) = (   0.0000000  -0.0838702   0.0000000), wk =   0.1250000
        k(    4) = (   0.0379955   0.0000049   0.0000000), wk =   0.2500000
        k(    5) = (   0.0379955   0.0419400   0.0000000), wk =   0.2500000
        k(    6) = (   0.0379955  -0.0838652   0.0000000), wk =   0.2500000
        k(    7) = (   0.0379955  -0.0419301   0.0000000), wk =   0.2500000
        k(    8) = (  -0.0759910  -0.0000099   0.0000000), wk =   0.1250000
        k(    9) = (  -0.0759910   0.0419252   0.0000000), wk =   0.2500000
        k(   10) = (  -0.0759910  -0.0838800   0.0000000), wk =   0.1250000

     Initial potential from superposition of free atoms

     starting charge  385.99915, renormalised to  402.00000

     negative rho (up, down):  1.463E-02 0.000E+00

     %%%%%%%%%%%%%%%%%%%%%%%%%%%%%%%%%%%%%%%%%%%%%%%%%%%%%%%%%%%%%%%%%%%%%%%%
     %                                                                      %
     % You are using vdW-DF, which was implemented by the Thonhauser group. %
     % Please cite the following two papers that made this development      %
     % possible and the two reviews that describe the various versions:     %
     %                                                                      %
     %   T. Thonhauser et al., PRL 115, 136402 (2015).                      %
     %   T. Thonhauser et al., PRB 76, 125112 (2007).                       %
     %   K. Berland et al., Rep. Prog. Phys. 78, 066501 (2015).             %
     %   D.C. Langreth et al., J. Phys.: Condens. Matter 21, 084203 (2009). %
     %                                                                      %
     %                                                                      %
     % If you are calculating the stress with vdW-DF, please also cite:     %
     %                                                                      %
     %   R. Sabatini et al., J. Phys.: Condens. Matter 24, 424209 (2012).   %
     %                                                                      %
     %%%%%%%%%%%%%%%%%%%%%%%%%%%%%%%%%%%%%%%%%%%%%%%%%%%%%%%%%%%%%%%%%%%%%%%%

     Adding external electric field

     Computed dipole along edir(3) :
        Dipole              -11.9569 Ry au,        -30.3914 Debye
        Dipole field         -0.0226 Ry au,

        Potential amp.        2.0917 Ry
        Total length         46.3494 bohr

     Starting wfcs are  304 atomic wfcs
  @ DRIVER MODE: Message from server: STATUS
  @ DRIVER MODE: Message from server: POSDATA
  @ DRIVER MODE: Reading and sharing cell
  @ DRIVER MODE: Reading and sharing positions
  @ DRIVER MODE: Received positions

     Self-consistent Calculation

     iteration #  1     ecut=    29.40 Ry     beta= 0.05
     Davidson diagonalization with overlap
     c_bands:  3 eigenvalues not converged
     c_bands:  3 eigenvalues not converged
     c_bands:  5 eigenvalues not converged
     c_bands:  3 eigenvalues not converged
     c_bands:  3 eigenvalues not converged
     c_bands:  2 eigenvalues not converged
     c_bands:  4 eigenvalues not converged
     c_bands:  4 eigenvalues not converged
     c_bands:  3 eigenvalues not converged
     ethr =  1.00E-05,  avg # of iterations = 21.6

[...]

     total energy              =   -2415.35867024 Ry
     estimated scf accuracy    <    6283.80421569 Ry

     iteration #  2     ecut=    29.40 Ry     beta= 0.05
     Davidson diagonalization with overlap
     ethr =  1.00E-02,  avg # of iterations = 23.5

[...]

     iteration # 47     ecut=    29.40 Ry     beta= 0.05
     Davidson diagonalization with overlap
     c_bands:  1 eigenvalues not converged
     ethr =  4.30E-07,  avg # of iterations =  9.0

[...]

     total energy              =   -2972.73797399 Ry
     estimated scf accuracy    <       0.00000011 Ry

     iteration # 73     ecut=    29.40 Ry     beta= 0.05
     Davidson diagonalization with overlap
     ethr =  2.70E-11,  avg # of iterations =  3.2

     negative rho (up, down):  1.528E-02 0.000E+00

     Adding external electric field

     Computed dipole along edir(3) :
        Dipole                0.6727 Ry au,          1.7099 Debye
        Dipole field          0.0013 Ry au,

        Potential amp.       -0.1177 Ry
        Total length         46.3494 bohr

     End of self-consistent calculation

          k = 0.0000 0.0000 0.0000 ( 18029 PWs)   bands (ev):

   -56.1144 -56.0805 -55.6546 -55.6207 -55.5625 -55.5430 -55.5281 -55.5075
   -55.4268 -55.3738 -55.3333 -55.2684 -54.9324 -54.8985 -54.8691 -54.8304
   -32.5664 -32.4056 -32.3780 -32.2744 -32.1903 -32.1815 -32.1219 -32.0758
   -32.0488 -31.8979 -31.8802 -31.8706 -31.8483 -31.8416 -31.8191 -31.7851
   -31.7773 -31.7768 -31.7586 -31.7568 -31.7517 -31.7225 -31.7156 -31.7134
   -31.6807 -31.6744 -31.6632 -31.6568 -31.6365 -31.6016 -31.5440 -31.5417
   -31.5124 -31.4855 -31.4612 -31.4289 -31.4005 -31.3325 -31.2615 -31.2381
   -31.1501 -31.1172 -31.0832 -31.0655 -31.0648 -31.0425 -30.9564 -30.9535
   -18.6884 -17.5708 -16.4373 -16.2225 -15.9856 -15.7478 -15.7019 -15.5772
   -15.5621 -15.5606 -15.4413 -15.4300 -15.3686 -15.2656 -15.1936 -15.1548
   -15.1072 -15.0954 -15.0767 -14.9864 -14.9731 -14.9529 -14.9433 -14.8713
   -14.8182 -14.8047 -14.6960 -14.6253 -14.5683 -14.5321 -14.2443 -13.4325
   -13.3192 -11.6461  -6.5512  -6.4491  -4.4120  -3.9501  -3.9361  -3.7205
    -3.5617  -3.4599  -3.3329  -3.3159  -3.1852  -3.0811  -2.9459  -2.9044
    -2.8829  -2.8029  -2.7946  -2.7745  -2.6390  -2.5995  -2.5584  -2.5357
    -2.5068  -2.4311  -2.4127  -2.3548  -2.3249  -2.2922  -2.1824  -2.1414
    -2.1052  -2.0913  -2.0631  -2.0199  -1.9799  -1.9569  -1.9533  -1.9379
    -1.9041  -1.8130  -1.7587  -1.6583  -1.6047  -1.4969  -1.4605  -1.4358
    -1.3790  -1.2875  -1.1622  -1.1560  -1.0846  -1.0458  -0.9917  -0.9667
    -0.9059  -0.8906  -0.8179  -0.7848  -0.6987  -0.6527  -0.6213  -0.5913
    -0.5705  -0.4785  -0.4289  -0.3535  -0.2922  -0.2341  -0.2188  -0.1187
    -0.0901  -0.0571  -0.0372   0.0206   0.0675   0.0823   0.1018   0.1285
     0.1593   0.1813   0.3036   0.3590   0.3713   0.4038   0.4255   0.5366
     0.5984   0.6761   0.7351   0.7749   0.8799   0.8945   0.9388   1.0645
     1.0786   1.0899   1.1422   1.3075   1.6164   1.6481   1.6892   1.7911
     2.9563   3.1136   3.2299   3.4497   3.5500   3.5827   3.8422   3.9445
     3.9929   4.0045   4.0143

[...]

          k = 0.0380-0.0419 0.0000 ( 17876 PWs)   bands (ev):

[...]

          k =-0.0760-0.0000 0.0000 ( 17886 PWs)   bands (ev):

[...]

          k =-0.0760-0.0839 0.0000 ( 17948 PWs)   bands (ev):

   -56.0974 -56.0973 -55.6398 -55.6353 -55.5483 -55.5423 -55.5267 -55.5237
   -55.4248 -55.3640 -55.3430 -55.2703 -54.9155 -54.9153 -54.8588 -54.8405
   -32.3912 -32.3909 -32.3824 -32.3822 -32.2262 -32.2260 -31.9466 -31.9413
   -31.8951 -31.8919 -31.8882 -31.8722 -31.8302 -31.8254 -31.8068 -31.8056
   -31.7923 -31.7880 -31.7632 -31.7578 -31.7574 -31.7536 -31.7513 -31.7473
   -31.7183 -31.6756 -31.6722 -31.6627 -31.6415 -31.6292 -31.5902 -31.5761
   -31.5727 -31.5330 -31.5182 -31.4694 -31.2816 -31.2510 -31.2508 -31.1677
   -31.1465 -31.1462 -31.1076 -31.1075 -31.0762 -31.0625 -31.0538 -31.0357
   -18.6874 -17.5652 -15.8120 -15.8066 -15.7426 -15.7370 -15.6709 -15.6074
   -15.5038 -15.5000 -15.4603 -15.3743 -15.2968 -15.2771 -15.2072 -15.2002
   -15.1986 -15.1896 -15.1198 -15.1096 -15.0811 -15.0576 -15.0329 -15.0269
   -15.0018 -14.9775 -14.7633 -14.7066 -14.6377 -14.5616 -14.4200 -13.4219
   -13.4218 -11.6508  -6.5370  -6.4529  -4.3639  -3.9451  -3.1382  -3.0202
    -2.9343  -2.9216  -2.8986  -2.8230  -2.8021  -2.7387  -2.7099  -2.6890
    -2.6138  -2.6008  -2.5487  -2.5430  -2.5121  -2.4935  -2.4413  -2.4326
    -2.4212  -2.4170  -2.3676  -2.3338  -2.3303  -2.3199  -2.3020  -2.2337
    -2.1710  -2.1350  -2.0954  -2.0696  -2.0669  -2.0185  -1.9926  -1.9606
    -1.9004  -1.8971  -1.8656  -1.8142  -1.6875  -1.6772  -1.5487  -1.4691
    -1.4512  -1.3821  -1.3240  -1.2905  -1.2230  -1.1643  -1.1368  -1.0345
    -1.0101  -0.9847  -0.9673  -0.9236  -0.9213  -0.8851  -0.7790  -0.7615
    -0.7195  -0.7159  -0.6405  -0.6077  -0.5513  -0.5292  -0.5231  -0.4779
    -0.4620  -0.3796  -0.3537  -0.2993  -0.2416  -0.1997  -0.1470  -0.0979
    -0.0261   0.0511   0.1051   0.1969   0.2026   0.2154   0.4225   0.4282
     0.5228   0.6057   0.7305   0.7566   0.7715   0.8743   0.9140   0.9380
     0.9639   1.1315   1.1738   1.4737   1.4753   1.5055   1.5059   1.7375
     2.8979   3.6469   3.6471   3.6827   3.6840   3.9115   3.9179   3.9641
     3.9693   4.0244   4.0479

     the Fermi energy is     3.0558 ev

!    total energy              =   -2972.73799169 Ry
     estimated scf accuracy    <       0.00000007 Ry
     smearing contrib. (-TS)   =      -0.01275481 Ry
     internal energy E=F+TS    =   -2972.72523688 Ry

     The total energy is F=E-TS. E is the sum of the following terms:
     one-electron contribution =  -24073.76986717 Ry
     hartree contribution      =   12130.45985339 Ry
     xc contribution           =    -493.17780914 Ry
     ewald contribution        =    9463.76173204 Ry
     electric field correction =       0.00085400 Ry

     convergence has been achieved in  73 iterations

     Forces acting on atoms (cartesian axes, Ry/au):

     atom    1 type  1   force =     0.00013107   -0.00030183    0.10866746
     atom    2 type  1   force =    -0.00011390   -0.00040835   -0.16780144
     atom    3 type  2   force =    -0.00015640   -0.00000859   -0.04369033
     atom    4 type  2   force =     0.00005065   -0.00075761    0.03946767
     atom    5 type  2   force =    -0.01330745    0.00016177   -0.00451081
     atom    6 type  2   force =     0.01490608    0.00103450   -0.00533738
     atom    7 type  1   force =    -0.00093724   -0.00251078    0.01143157
     atom    8 type  1   force =     0.00124602    0.00154312    0.07720411
     atom    9 type  2   force =    -0.00004760   -0.00014680   -0.00005607
     atom   10 type  2   force =    -0.00114031    0.00038600   -0.05086535
     atom   11 type  2   force =    -0.00007650    0.00035091    0.00018583
     atom   12 type  2   force =     0.00000300    0.00024306    0.00013707
     atom   13 type  1   force =     0.00046148    0.00002404   -0.00043661
     atom   14 type  1   force =    -0.00023894   -0.00007629   -0.00012597
     atom   15 type  2   force =    -0.00023774   -0.00012982    0.00098739
     atom   16 type  2   force =     0.00011782    0.00001286    0.00022125
     atom   17 type  2   force =    -0.00065430    0.00040942   -0.00004086
     atom   18 type  2   force =     0.00014527    0.00040497    0.00006468
     atom   19 type  1   force =     0.00043638   -0.00016357   -0.00019250
     atom   20 type  1   force =    -0.00043190   -0.00045133   -0.00177469
     atom   21 type  2   force =     0.00007927    0.00005770    0.10125554
     atom   22 type  2   force =    -0.00004124    0.00004224    0.00018762
     atom   23 type  2   force =    -0.07503123   -0.00002563   -0.03014403
     atom   24 type  2   force =     0.07500437    0.00043130   -0.03014236
     atom   25 type  1   force =     0.00020774   -0.00028732    0.10833682
     atom   26 type  1   force =    -0.00010226   -0.00046163   -0.16780887
     atom   27 type  2   force =    -0.00001897   -0.00025158   -0.04269600
     atom   28 type  2   force =     0.00011521   -0.00047817    0.03882873
     atom   29 type  2   force =    -0.01362582    0.00093998   -0.00474178
     atom   30 type  2   force =     0.01515969    0.00120143   -0.00562074
     atom   31 type  1   force =    -0.00125681    0.00052344    0.00712420
     atom   32 type  1   force =     0.00132708   -0.00408486    0.07764733
     atom   33 type  2   force =    -0.00004857    0.00012680   -0.00007656
     atom   34 type  2   force =    -0.00137259    0.00034495   -0.05693261
     atom   35 type  2   force =    -0.00000982   -0.00049254    0.00003765
     atom   36 type  2   force =    -0.00033782   -0.00021740   -0.00005819
     atom   37 type  1   force =    -0.00006792   -0.00002928   -0.00081918
     atom   38 type  1   force =    -0.00021192    0.00020193   -0.00039450
     atom   39 type  2   force =    -0.00003352   -0.00003781   -0.00013056
     atom   40 type  2   force =    -0.00002353    0.00028768    0.00048848
     atom   41 type  2   force =     0.00005558   -0.00016982    0.00012563
     atom   42 type  2   force =    -0.00051759   -0.00006400    0.00011068
     atom   43 type  1   force =     0.00035821    0.00080932    0.00000640
     atom   44 type  1   force =    -0.00021430    0.00077274   -0.00128431
     atom   45 type  2   force =     0.00006944    0.00003550    0.10121834
     atom   46 type  2   force =    -0.07501725    0.00003864   -0.03010694
     atom   47 type  2   force =     0.07499473    0.00047537   -0.03011726
     atom   48 type  3   force =    -0.00399688    0.00280814    0.02637092
     atom   49 type  3   force =    -0.00337370    0.00039232   -0.00955923
     atom   50 type  4   force =     0.00685893   -0.00228070   -0.01281122
     atom   51 type  5   force =     0.00066413    0.00027549   -0.00054679
     atom   52 type  5   force =     0.00050144   -0.00036581   -0.00127373
     atom   53 type  2   force =     0.00041734    0.00058531    0.00028891
     atom   54 type  5   force =    -0.00082365   -0.00091004   -0.00011969
     atom   55 type  5   force =     0.00015672    0.00019059   -0.00017769

     Total force =     0.391546     Total SCF correction =     0.000604
  @ DRIVER MODE: Message from server: STATUS
  @ DRIVER MODE: Message from server: GETFORCE
  @ DRIVER MODE: Returning v,forces,stress,ensemble

     Writing output data file ./calc.save/
  @ DRIVER MODE: Message from server: EXIT
  @ DRIVE MODE: Exiting

     General routines

     Parallel routines

   This run was terminated on:  17:24:23  15Sep2021

   JOB DONE.