     Program PWSCF v.6.7GPU starts on  9Sep2021 at  6:18:36

     R & G space division:  proc/nbgrp/npool/nimage =      10
     Reading input from /storage/home/hcoda1/3/ntian30/research/carbon/CxH_vib/CH3_calc/ads_slab/CH3NH2NH_c/out_0025/pw.inp
Warning: card &CELL ignored
Warning: card   CELL_DYNAMICS='IPI', ignored
Warning: card / ignored

     Current dimensions of program PWSCF are:
     Max number of different atomic species (ntypx) = 10
     Max number of k-points (npk) =  40000
     Max angular momentum in pseudopotentials (lmaxx) =  3
     Presently no symmetry can be used with electric field

     Message from routine cell_base_init:
     DEPRECATED: use true lattice parameter, not A to a.u. conversion factor

     IMPORTANT: XC functional enforced from input :
     Exchange-correlation= BEEF-VDW
                           (   1   4  43  14   2   0   0)
     Any further DFT definition will be discarded
     Please, verify this is what you really want

  @ DRIVER MODE: Connecting to
 qe_1139763_2767400.sched-torque.pace.gatech.eduphrlzur5_scratch
  using UNIX socket
  @ DRIVER MODE: Message from server: STATUS
  @ DRIVER MODE: Message from server: INIT
  @ DRIVER MODE: Receiving replica           0          -1
  @ DRIVER MODE: Receiving encoded integer          25
  @ DRIVER MODE:  SCF:  T  FORCE:  T  STRESS:  F  VC:  F  ENSEMBLE:  F
  @ DRIVER MODE:  SCF:  T  FORCE:  T  STRESS:  F  VC:  F  ENSEMBLE:  F

     Using Slab Decomposition

     bravais-lattice index     =            0
     lattice parameter (alat)  =       1.8897  a.u.
     unit-cell volume          =    6658.9804 (a.u.)^3
     number of atoms/cell      =           56
     number of atomic types    =            5
     number of electrons       =       398.00
     number of Kohn-Sham states=          209
     kinetic-energy cutoff     =      29.3995  Ry
     charge density cutoff     =     293.9946  Ry
     scf convergence threshold =      7.3E-08
     mixing beta               =       0.0500
     number of iterations used =            8  plain     mixing
     Exchange-correlation= BEEF-VDW
                           (   1   4  43  14   2   0   0)

     celldm(1)=   1.889726  celldm(2)=   0.000000  celldm(3)=   0.000000
     celldm(4)=   0.000000  celldm(5)=   0.000000  celldm(6)=   0.000000

     crystal axes: (cart. coord. in units of alat)
               a(1) = (   6.579727   0.000000   0.000000 )
               a(2) = (  -0.000775   5.961596   0.000000 )
               a(3) = (   0.000000   0.000000  25.155947 )

     reciprocal axes: (cart. coord. in units 2 pi/alat)
               b(1) = (  0.151982  0.000020  0.000000 )
               b(2) = (  0.000000  0.167740  0.000000 )
               b(3) = (  0.000000  0.000000  0.039752 )

     PseudoPot. # 1 for Ti read from file:
     /storage/coda1/p-amedford6/0/shared/rich_project_chbe-medford/medford-share/data/pseudos_module/espresso/nninc/pbe/van/Ti.UPF
     MD5 check sum: 8e4df49b7f0d34bbd5052bf3f5ea0213
     Pseudo is Ultrasoft, Zval = 12.0
     Generated by new atomic code, or converted to UPF format
     Using radial grid of  851 points,  6 beta functions with:
                l(1) =   0
                l(2) =   0
                l(3) =   1
                l(4) =   1
                l(5) =   2
                l(6) =   2
     Q(r) pseudized with  8 coefficients,  rinner =    1.000   1.000   1.000
                                                       1.000   1.000

     PseudoPot. # 2 for O  read from file:
     /storage/coda1/p-amedford6/0/shared/rich_project_chbe-medford/medford-share/data/pseudos_module/espresso/nninc/pbe/van/O.UPF
     MD5 check sum: 78c19812648e8988a0fe644b0f25305e
     Pseudo is Ultrasoft, Zval =  6.0
     Generated by new atomic code, or converted to UPF format
     Using radial grid of  737 points,  4 beta functions with:
                l(1) =   0
                l(2) =   0
                l(3) =   1
                l(4) =   1
     Q(r) pseudized with  8 coefficients,  rinner =    0.800   0.800   0.800

     PseudoPot. # 3 for N  read from file:
     /storage/coda1/p-amedford6/0/shared/rich_project_chbe-medford/medford-share/data/pseudos_module/espresso/nninc/pbe/van/N.UPF
     MD5 check sum: 90d10febe142ad51ac9d5be1deb811c4
     Pseudo is Ultrasoft, Zval =  5.0
     Generated by new atomic code, or converted to UPF format
     Using radial grid of  729 points,  4 beta functions with:
                l(1) =   0
                l(2) =   0
                l(3) =   1
                l(4) =   1
     Q(r) pseudized with  8 coefficients,  rinner =    0.800   0.800   0.800

     PseudoPot. # 4 for C  read from file:
     /storage/coda1/p-amedford6/0/shared/rich_project_chbe-medford/medford-share/data/pseudos_module/espresso/nninc/pbe/van/C.UPF
     MD5 check sum: 1a69bf6b8db32088f5b2163dbdb77a27
     Pseudo is Ultrasoft, Zval =  4.0
     Generated by new atomic code, or converted to UPF format
     Using radial grid of  721 points,  4 beta functions with:
                l(1) =   0
                l(2) =   0
                l(3) =   1
                l(4) =   1
     Q(r) pseudized with  8 coefficients,  rinner =    0.800   0.800   0.800

     PseudoPot. # 5 for H  read from file:
     /storage/coda1/p-amedford6/0/shared/rich_project_chbe-medford/medford-share/data/pseudos_module/espresso/nninc/pbe/van/H.UPF
     MD5 check sum: b5ee9d7bfd3a09ee7748110bda690ff7
     Pseudo is Ultrasoft, Zval =  1.0
     Generated by new atomic code, or converted to UPF format
     Using radial grid of  615 points,  1 beta functions with:
                l(1) =   0
     Q(r) pseudized with  8 coefficients,  rinner =    0.800

     atomic species   valence    mass     pseudopotential
        Ti1           12.00    47.86700     Ti( 1.00)
        O1             6.00    15.99900     O ( 1.00)
        N1             5.00    14.00700     N ( 1.00)
        C1             4.00    12.01100     C ( 1.00)
        H1             1.00     1.00800     H ( 1.00)

     No symmetry found

   Cartesian axes

     site n.     atom                  positions (alat units)
         1           Ti1 tau(   1) = (   0.0004258   2.9801865   6.0000000  )
         2           Ti1 tau(   2) = (   3.2906075   1.4906267   6.0002472  )
         3           O1  tau(   3) = (   0.0006271   0.0005054   7.9858123  )
         4           O1  tau(   4) = (   3.2906025   0.0005020   7.3038282  )
         5           O1  tau(   5) = (   4.5942328   1.4918067   9.2879030  )
         6           O1  tau(   6) = (   1.9868534   1.4903216   9.2879459  )
         7           Ti1 tau(   7) = (   3.2907910   2.8959150   9.1758416  )
         8           Ti1 tau(   8) = (   0.0015273   1.4827037   9.2680791  )
         9           O1  tau(   9) = (   3.3032705   0.0110091  11.3485381  )
        10           O1  tau(  10) = (   0.0116148   5.9584955  10.6183126  )
        11           O1  tau(  11) = (   1.3020657   1.4959176  12.6398190  )
        12           O1  tau(  12) = (   5.2896457   1.4919019  12.6612249  )
        13           Ti1 tau(  13) = (   0.0353884   3.0012823  12.5523301  )
        14           Ti1 tau(  14) = (   3.3275346   1.5008247  12.4978572  )
        15           O1  tau(  15) = (   0.0424128   0.0047235  14.7277795  )
        16           O1  tau(  16) = (   3.2762846   0.0047332  13.9819514  )
        17           O1  tau(  17) = (   4.5591522   1.5298593  16.0930730  )
        18           O1  tau(  18) = (   2.0612242   1.5646392  16.2256692  )
        19           Ti1 tau(  19) = (   3.3170857   3.0293758  15.7013767  )
        20           Ti1 tau(  20) = (   6.5267591   1.5471840  15.7818195  )
        21           O1  tau(  21) = (   3.2904802   0.0005063   4.7018136  )
        22           O1  tau(  22) = (   0.0258072   0.0396315  17.3287798  )
        23           O1  tau(  23) = (   1.3043587   1.4918075   6.0039043  )
        24           O1  tau(  24) = (   5.2767064   1.4903225   6.0039473  )
        25           Ti1 tau(  25) = (   0.0000382   5.9609847   6.0000000  )
        26           Ti1 tau(  26) = (   3.2902200   4.4714249   6.0002472  )
        27           O1  tau(  27) = (   0.0002396   2.9813036   7.9858123  )
        28           O1  tau(  28) = (   3.2902150   2.9813002   7.3038282  )
        29           O1  tau(  29) = (   4.5938453   4.4726049   9.2879030  )
        30           O1  tau(  30) = (   1.9864658   4.4711199   9.2879459  )
        31           Ti1 tau(  31) = (   3.2891106   5.8743827   9.1763621  )
        32           Ti1 tau(  32) = (   0.0006254   4.4649316   9.2693709  )
        33           O1  tau(  33) = (   3.3047253   2.9863606  11.3412877  )
        34           O1  tau(  34) = (   0.0092240   2.9805883  10.6323155  )
        35           O1  tau(  35) = (   1.3023160   4.4818153  12.6295520  )
        36           O1  tau(  36) = (   5.2910779   4.4839738  12.6480862  )
        37           Ti1 tau(  37) = (   0.0306270   0.0097343  12.5156175  )
        38           Ti1 tau(  38) = (   3.3295341   4.4791655  12.4867326  )
        39           O1  tau(  39) = (   0.0319336   2.9935560  14.7343221  )
        40           O1  tau(  40) = (   3.2835893   3.0037955  13.9224844  )
        41           O1  tau(  41) = (   4.5669158   4.4809188  16.1713821  )
        42           O1  tau(  42) = (   2.0542530   4.4668402  16.2247519  )
        43           Ti1 tau(  43) = (   3.3000170   0.0150779  15.7669526  )
        44           Ti1 tau(  44) = (   0.0416703   4.6955124  16.1636639  )
        45           O1  tau(  45) = (   3.2900926   2.9813045   4.7018136  )
        46           O1  tau(  46) = (   1.3039711   4.4726057   6.0039043  )
        47           O1  tau(  47) = (   5.2763189   4.4711207   6.0039473  )
        48           N1  tau(  48) = (   0.9019483   2.4226080  18.4567899  )
        49           N1  tau(  49) = (   6.4923839   2.9153054  17.5348467  )
        50           C1  tau(  50) = (   1.2734633   3.3482217  19.5544901  )
        51           H1  tau(  51) = (   0.3921683   3.5464126  20.1615046  )
        52           H1  tau(  52) = (   2.0453077   2.8833093  20.1573268  )
        53           H1  tau(  53) = (   1.6239766   4.2728770  19.1044814  )
        54           H1  tau(  54) = (   0.5870980   1.4942747  18.7832689  )
        55           H1  tau(  55) = (   5.5983569   2.8486818  18.0159164  )
        56           H1  tau(  56) = (   1.7025450   2.1792920  17.8234971  )

     number of k points=    10  Fermi-Dirac smearing, width (Ry)=  0.0073
                       cart. coord. in units 2pi/alat
        k(    1) = (   0.0000000   0.0000000   0.0000000), wk =   0.1250000
        k(    2) = (   0.0000000   0.0419351   0.0000000), wk =   0.2500000
        k(    3) = (   0.0000000  -0.0838702   0.0000000), wk =   0.1250000
        k(    4) = (   0.0379955   0.0000049   0.0000000), wk =   0.2500000
        k(    5) = (   0.0379955   0.0419400   0.0000000), wk =   0.2500000
        k(    6) = (   0.0379955  -0.0838652   0.0000000), wk =   0.2500000
        k(    7) = (   0.0379955  -0.0419301   0.0000000), wk =   0.2500000
        k(    8) = (  -0.0759910  -0.0000099   0.0000000), wk =   0.1250000
        k(    9) = (  -0.0759910   0.0419252   0.0000000), wk =   0.2500000
        k(   10) = (  -0.0759910  -0.0838800   0.0000000), wk =   0.1250000

     Initial potential from superposition of free atoms

     starting charge  381.99914, renormalised to  398.00000

     negative rho (up, down):  1.485E-02 0.000E+00

     %%%%%%%%%%%%%%%%%%%%%%%%%%%%%%%%%%%%%%%%%%%%%%%%%%%%%%%%%%%%%%%%%%%%%%%%
     %                                                                      %
     % You are using vdW-DF, which was implemented by the Thonhauser group. %
     % Please cite the following two papers that made this development      %
     % possible and the two reviews that describe the various versions:     %
     %                                                                      %
     %   T. Thonhauser et al., PRL 115, 136402 (2015).                      %
     %   T. Thonhauser et al., PRB 76, 125112 (2007).                       %
     %   K. Berland et al., Rep. Prog. Phys. 78, 066501 (2015).             %
     %   D.C. Langreth et al., J. Phys.: Condens. Matter 21, 084203 (2009). %
     %                                                                      %
     %                                                                      %
     % If you are calculating the stress with vdW-DF, please also cite:     %
     %                                                                      %
     %   R. Sabatini et al., J. Phys.: Condens. Matter 24, 424209 (2012).   %
     %                                                                      %
     %%%%%%%%%%%%%%%%%%%%%%%%%%%%%%%%%%%%%%%%%%%%%%%%%%%%%%%%%%%%%%%%%%%%%%%%

     Adding external electric field

     Computed dipole along edir(3) :
        Dipole              -10.9106 Ry au,        -27.7320 Debye
        Dipole field         -0.0206 Ry au,

        Potential amp.        1.9086 Ry
        Total length         46.3494 bohr

     Starting wfcs are  302 atomic wfcs
  @ DRIVER MODE: Message from server: STATUS
  @ DRIVER MODE: Message from server: POSDATA
  @ DRIVER MODE: Reading and sharing cell
  @ DRIVER MODE: Reading and sharing positions
  @ DRIVER MODE: Received positions

     Self-consistent Calculation

     iteration #  1     ecut=    29.40 Ry     beta= 0.05
     Davidson diagonalization with overlap
     c_bands:  5 eigenvalues not converged
     c_bands:  3 eigenvalues not converged
     c_bands:  1 eigenvalues not converged
     c_bands:  2 eigenvalues not converged
     c_bands:  3 eigenvalues not converged
     c_bands:  4 eigenvalues not converged
     c_bands:  4 eigenvalues not converged
     ethr =  1.00E-05,  avg # of iterations = 24.4

[...]

     total energy              =   -2445.34231261 Ry
     estimated scf accuracy    <    5568.60166104 Ry

     iteration #  2     ecut=    29.40 Ry     beta= 0.05
     Davidson diagonalization with overlap
     ethr =  1.00E-02,  avg # of iterations = 23.2

[...]

     iteration # 84     ecut=    29.40 Ry     beta= 0.05
     Davidson diagonalization with overlap
     ethr =  7.85E-11,  avg # of iterations = 11.1

[...]

     total energy              =   -2942.84148870 Ry
     estimated scf accuracy    <       0.00000009 Ry

     iteration # 86     ecut=    29.40 Ry     beta= 0.05
     Davidson diagonalization with overlap
     c_bands:  1 eigenvalues not converged
     ethr =  2.33E-11,  avg # of iterations =  9.7

     negative rho (up, down):  1.046E-02 0.000E+00

     Adding external electric field

     Computed dipole along edir(3) :
        Dipole                1.5798 Ry au,          4.0154 Debye
        Dipole field          0.0030 Ry au,

        Potential amp.       -0.2764 Ry
        Total length         46.3494 bohr

     End of self-consistent calculation

          k = 0.0000 0.0000 0.0000 ( 18029 PWs)   bands (ev):

   -55.0907 -55.0554 -55.0516 -55.0213 -54.9680 -54.9654 -54.9279 -54.8911
   -54.8828 -54.8683 -54.8554 -54.8505 -54.8036 -54.7592 -54.0654 -54.0313
   -31.6647 -31.5448 -31.4548 -31.4251 -31.3859 -31.3814 -31.3797 -31.3501
   -31.3471 -31.3456 -31.3023 -31.3005 -31.2997 -31.2653 -31.2471 -31.2275
   -31.2079 -31.2040 -31.1946 -31.1928 -31.1664 -31.1489 -31.1474 -31.1214
   -31.1121 -31.0980 -31.0953 -31.0931 -31.0895 -31.0764 -31.0715 -31.0642
   -31.0517 -31.0410 -31.0223 -31.0144 -31.0068 -31.0012 -30.9964 -30.9907
   -30.9865 -30.9517 -30.4737 -30.3821 -30.3599 -30.2903 -30.2036 -30.0926
   -19.1624 -15.9334 -15.6589 -15.5362 -15.3256 -15.2761 -15.2032 -15.0079
   -14.9430 -14.8871 -14.8768 -14.8653 -14.8485 -14.7773 -14.6981 -14.6176
   -14.6150 -14.6083 -14.5972 -14.5796 -14.5724 -14.5098 -14.5026 -14.4706
   -14.4586 -14.4185 -14.3115 -14.2296 -14.1727 -14.0218 -13.3330 -12.5677
   -12.4506 -11.1172  -7.8811  -6.5606  -5.8665  -4.1381  -3.9375  -3.2786
    -3.0933  -3.0698  -3.0088  -2.9837  -2.8090  -2.7593  -2.5557  -2.4478
    -2.3604  -2.3214  -2.3091  -2.2925  -2.1422  -2.0745  -2.0401  -1.9928
    -1.9691  -1.9464  -1.9050  -1.8975  -1.8668  -1.8488  -1.8403  -1.6629
    -1.5872  -1.5385  -1.5084  -1.4704  -1.4208  -1.3925  -1.3743  -1.3696
    -1.3644  -1.3453  -1.3137  -1.2528  -1.2242  -1.1679  -1.1001  -1.0734
    -0.9836  -0.9016  -0.7140  -0.6685  -0.6508  -0.6146  -0.5545  -0.5057
    -0.4715  -0.4366  -0.4223  -0.3558  -0.2868  -0.2544  -0.1917  -0.1274
    -0.1167  -0.0539  -0.0468   0.1147   0.1264   0.1478   0.2390   0.3252
     0.3732   0.3813   0.4397   0.5136   0.5358   0.5456   0.5819   0.6025
     0.6789   0.7882   0.8129   0.8546   0.8661   0.8998   0.9228   0.9774
     1.0012   1.0640   1.0702   1.1747   1.2241   1.2565   1.5064   1.5395
     1.8700   1.9033   1.9574   2.1441   2.5313   2.5784   4.0176   4.0803
     4.0938   4.1432   4.1665   4.1853   4.2576   4.4784   4.5035   4.5098
     4.5172

[...]

          k = 0.0380-0.0419 0.0000 ( 17876 PWs)   bands (ev):

[...]

          k =-0.0760-0.0000 0.0000 ( 17886 PWs)   bands (ev):

[...]

          k =-0.0760-0.0839 0.0000 ( 17948 PWs)   bands (ev):

   -55.0786 -55.0635 -55.0384 -55.0381 -54.9649 -54.9543 -54.9389 -54.8740
   -54.8712 -54.8705 -54.8685 -54.8663 -54.7975 -54.7651 -54.0484 -54.0482
   -31.4723 -31.4627 -31.4000 -31.3601 -31.3599 -31.3584 -31.3312 -31.3308
   -31.2997 -31.2957 -31.2908 -31.2847 -31.2593 -31.2250 -31.2178 -31.2118
   -31.2097 -31.2059 -31.2051 -31.1962 -31.1640 -31.1630 -31.1594 -31.1576
   -31.1573 -31.1544 -31.1498 -31.1335 -31.1081 -31.1044 -31.0984 -31.0891
   -31.0871 -31.0852 -31.0841 -31.0679 -31.0497 -31.0484 -31.0374 -31.0318
   -31.0073 -30.9909 -30.3727 -30.3725 -30.2864 -30.2862 -30.2470 -30.2470
   -19.1585 -15.4166 -15.3264 -15.1779 -15.1584 -15.1094 -15.0612 -15.0448
   -15.0273 -14.9711 -14.9317 -14.8858 -14.8372 -14.7941 -14.7918 -14.7532
   -14.6813 -14.6598 -14.6577 -14.6431 -14.5922 -14.5815 -14.5540 -14.5352
   -14.5301 -14.4870 -14.4274 -14.4238 -14.3845 -14.2055 -13.3433 -12.5523
   -12.5521 -11.1197  -7.8913  -6.5448  -5.8555  -4.1094  -3.9306  -2.6856
    -2.5864  -2.5275  -2.4198  -2.3330  -2.2927  -2.2581  -2.1234  -2.1038
    -2.0853  -2.0593  -2.0463  -2.0122  -2.0043  -1.9563  -1.9271  -1.9167
    -1.9105  -1.8976  -1.8754  -1.8275  -1.8050  -1.7954  -1.7860  -1.7473
    -1.7334  -1.7015  -1.6955  -1.6566  -1.6350  -1.5499  -1.4608  -1.4211
    -1.3708  -1.3056  -1.2714  -1.2647  -1.1714  -1.1633  -1.1401  -1.1067
    -1.0614  -0.9409  -0.8835  -0.8206  -0.8167  -0.8036  -0.6968  -0.6590
    -0.6287  -0.5933  -0.5561  -0.5260  -0.4875  -0.4408  -0.3639  -0.3331
    -0.2936  -0.2573  -0.1849  -0.0970  -0.0778  -0.0467  -0.0425   0.0436
     0.0686   0.1070   0.1162   0.1353   0.1920   0.2051   0.2923   0.3823
     0.4467   0.5349   0.6485   0.6531   0.7304   0.8224   0.9101   0.9479
     0.9998   1.0652   1.0676   1.1012   1.2223   1.2295   1.3509   1.3898
     1.3985   1.4209   2.3164   2.3174   2.3985   2.3986   4.1466   4.2443
     4.2833   4.3245   4.3765   4.5219   4.5450   4.5906   4.5910   4.6615
     4.6745

     the Fermi energy is     4.0641 ev

!    total energy              =   -2942.84149382 Ry
     estimated scf accuracy    <       0.00000007 Ry
     smearing contrib. (-TS)   =      -0.03725067 Ry
     internal energy E=F+TS    =   -2942.80424315 Ry

     The total energy is F=E-TS. E is the sum of the following terms:
     one-electron contribution =  -23856.59896455 Ry
     hartree contribution      =   12023.64031457 Ry
     xc contribution           =    -487.76077601 Ry
     ewald contribution        =    9377.91047302 Ry
     electric field correction =       0.00470983 Ry

     convergence has been achieved in  86 iterations

     Forces acting on atoms (cartesian axes, Ry/au):

     atom    1 type  1   force =     0.00001516   -0.00023361    0.09429940
     atom    2 type  1   force =    -0.00015801   -0.00054694   -0.17711818
     atom    3 type  2   force =     0.00001657   -0.00024608   -0.02147192
     atom    4 type  2   force =    -0.00001585   -0.00167698    0.05642520
     atom    5 type  2   force =    -0.01048603   -0.00075124    0.00562547
     atom    6 type  2   force =     0.01225135   -0.00009541    0.00551773
     atom    7 type  1   force =    -0.00024268    0.00106653   -0.01571549
     atom    8 type  1   force =    -0.00006739    0.00525154    0.00655500
     atom    9 type  2   force =    -0.00030552    0.00055730    0.00022008
     atom   10 type  2   force =    -0.00199833    0.00265901   -0.00434200
     atom   11 type  2   force =     0.00040413   -0.00022088    0.00028137
     atom   12 type  2   force =    -0.00008712   -0.00028908   -0.00019492
     atom   13 type  1   force =    -0.00072427    0.00044531   -0.00004961
     atom   14 type  1   force =     0.00037470   -0.00016585    0.00002475
     atom   15 type  2   force =    -0.00018662   -0.00060614   -0.00039025
     atom   16 type  2   force =     0.00004957    0.00037873   -0.00032519
     atom   17 type  2   force =     0.00078706    0.00017921    0.00041844
     atom   18 type  2   force =    -0.00013657    0.00009930   -0.00011933
     atom   19 type  1   force =     0.00030969    0.00076671    0.00034878
     atom   20 type  1   force =    -0.00047457    0.00022953    0.00059587
     atom   21 type  2   force =    -0.00001979   -0.00011450    0.10366536
     atom   22 type  2   force =     0.00018382    0.00031492    0.00040695
     atom   23 type  2   force =    -0.07091576   -0.00021293   -0.02719689
     atom   24 type  2   force =     0.07071427    0.00023970   -0.02724592
     atom   25 type  1   force =     0.00001899   -0.00027162    0.09397170
     atom   26 type  1   force =    -0.00025402   -0.00055261   -0.17738899
     atom   27 type  2   force =     0.00005880   -0.00007885   -0.02060793
     atom   28 type  2   force =     0.00002369   -0.00136347    0.05572037
     atom   29 type  2   force =    -0.01078974   -0.00000376    0.00591915
     atom   30 type  2   force =     0.01247728    0.00028373    0.00577093
     atom   31 type  1   force =    -0.00017146    0.00516668   -0.01629172
     atom   32 type  1   force =    -0.00008902   -0.00625490    0.00669014
     atom   33 type  2   force =    -0.00009664   -0.00047668    0.00024562
     atom   34 type  2   force =    -0.00163558    0.00066862   -0.00773909
     atom   35 type  2   force =    -0.00032593    0.00005633    0.00042103
     atom   36 type  2   force =     0.00057223    0.00005659   -0.00006956
     atom   37 type  1   force =    -0.00081748   -0.00077929   -0.00009998
     atom   38 type  1   force =     0.00048235    0.00001212    0.00042880
     atom   39 type  2   force =    -0.00028747   -0.00019194    0.00058750
     atom   40 type  2   force =    -0.00005499   -0.00019285   -0.00022078
     atom   41 type  2   force =     0.00011705   -0.00049074    0.00030632
     atom   42 type  2   force =    -0.00018692   -0.00030603    0.00053666
     atom   43 type  1   force =     0.00001871   -0.00068113   -0.00015304
     atom   44 type  1   force =     0.00026135    0.00042201    0.00036332
     atom   45 type  2   force =    -0.00002253   -0.00011782    0.10365786
     atom   46 type  2   force =    -0.07092142   -0.00014174   -0.02716801
     atom   47 type  2   force =     0.07072436    0.00027954   -0.02723851
     atom   48 type  3   force =    -0.00041768    0.00115131    0.00033697
     atom   49 type  3   force =     0.00037634   -0.00098355    0.00068775
     atom   50 type  4   force =    -0.00606418    0.00297225   -0.00395412
     atom   51 type  5   force =    -0.00037718   -0.00015011    0.00010586
     atom   52 type  5   force =     0.00679921   -0.00293204    0.00439051
     atom   53 type  5   force =     0.00077195   -0.00058558    0.00050180
     atom   54 type  5   force =     0.00016650   -0.00025923   -0.00002822
     atom   55 type  5   force =    -0.00013806   -0.00053481    0.00017263
     atom   56 type  5   force =     0.00049371   -0.00074857   -0.00006968

     Total force =     0.365866     Total SCF correction =     0.000764
  @ DRIVER MODE: Message from server: STATUS
  @ DRIVER MODE: Message from server: GETFORCE
  @ DRIVER MODE: Returning v,forces,stress,ensemble

     Writing output data file ./calc.save/
  @ DRIVER MODE: Message from server: EXIT
  @ DRIVE MODE: Exiting

     General routines

     Parallel routines

   This run was terminated on:   6:41:38   9Sep2021

   JOB DONE.