     Program PWSCF v.6.7GPU starts on 15Sep2021 at 22:54:19

     R & G space division:  proc/nbgrp/npool/nimage =      10
     Reading input from /storage/home/hcoda1/3/ntian30/research/carbon/CxH_vib/H2O_calc/ads_slab/CHN2HH2O_a/out_0024/pw.inp
Warning: card &CELL ignored
Warning: card   CELL_DYNAMICS='IPI', ignored
Warning: card / ignored

     Current dimensions of program PWSCF are:
     Max number of different atomic species (ntypx) = 10
     Max number of k-points (npk) =  40000
     Max angular momentum in pseudopotentials (lmaxx) =  3
     Presently no symmetry can be used with electric field

     Message from routine cell_base_init:
     DEPRECATED: use true lattice parameter, not A to a.u. conversion factor

     IMPORTANT: XC functional enforced from input :
     Exchange-correlation= BEEF-VDW
                           (   1   4  43  14   2   0   0)
     Any further DFT definition will be discarded
     Please, verify this is what you really want

  @ DRIVER MODE: Connecting to
 qe_1139763_2852626.sched-torque.pace.gatech.eduujv4czk9_scratch
  using UNIX socket
  @ DRIVER MODE: Message from server: STATUS
  @ DRIVER MODE: Message from server: INIT
  @ DRIVER MODE: Receiving replica           0          -1
  @ DRIVER MODE: Receiving encoded integer          25
  @ DRIVER MODE:  SCF:  T  FORCE:  T  STRESS:  F  VC:  F  ENSEMBLE:  F
  @ DRIVER MODE:  SCF:  T  FORCE:  T  STRESS:  F  VC:  F  ENSEMBLE:  F

     Using Slab Decomposition

     bravais-lattice index     =            0
     lattice parameter (alat)  =       1.8897  a.u.
     unit-cell volume          =    6658.9804 (a.u.)^3
     number of atoms/cell      =           55
     number of atomic types    =            5
     number of electrons       =       402.00
     number of Kohn-Sham states=          211
     kinetic-energy cutoff     =      29.3995  Ry
     charge density cutoff     =     293.9946  Ry
     scf convergence threshold =      7.3E-08
     mixing beta               =       0.0500
     number of iterations used =            8  plain     mixing
     Exchange-correlation= BEEF-VDW
                           (   1   4  43  14   2   0   0)

     celldm(1)=   1.889726  celldm(2)=   0.000000  celldm(3)=   0.000000
     celldm(4)=   0.000000  celldm(5)=   0.000000  celldm(6)=   0.000000

     crystal axes: (cart. coord. in units of alat)
               a(1) = (   6.579727   0.000000   0.000000 )
               a(2) = (  -0.000775   5.961596   0.000000 )
               a(3) = (   0.000000   0.000000  25.155947 )

     reciprocal axes: (cart. coord. in units 2 pi/alat)
               b(1) = (  0.151982  0.000020  0.000000 )
               b(2) = (  0.000000  0.167740  0.000000 )
               b(3) = (  0.000000  0.000000  0.039752 )

     PseudoPot. # 1 for Ti read from file:
     /storage/coda1/p-amedford6/0/shared/rich_project_chbe-medford/medford-share/data/pseudos_module/espresso/nninc/pbe/van/Ti.UPF
     MD5 check sum: 8e4df49b7f0d34bbd5052bf3f5ea0213
     Pseudo is Ultrasoft, Zval = 12.0
     Generated by new atomic code, or converted to UPF format
     Using radial grid of  851 points,  6 beta functions with:
                l(1) =   0
                l(2) =   0
                l(3) =   1
                l(4) =   1
                l(5) =   2
                l(6) =   2
     Q(r) pseudized with  8 coefficients,  rinner =    1.000   1.000   1.000
                                                       1.000   1.000

     PseudoPot. # 2 for O  read from file:
     /storage/coda1/p-amedford6/0/shared/rich_project_chbe-medford/medford-share/data/pseudos_module/espresso/nninc/pbe/van/O.UPF
     MD5 check sum: 78c19812648e8988a0fe644b0f25305e
     Pseudo is Ultrasoft, Zval =  6.0
     Generated by new atomic code, or converted to UPF format
     Using radial grid of  737 points,  4 beta functions with:
                l(1) =   0
                l(2) =   0
                l(3) =   1
                l(4) =   1
     Q(r) pseudized with  8 coefficients,  rinner =    0.800   0.800   0.800

     PseudoPot. # 3 for N  read from file:
     /storage/coda1/p-amedford6/0/shared/rich_project_chbe-medford/medford-share/data/pseudos_module/espresso/nninc/pbe/van/N.UPF
     MD5 check sum: 90d10febe142ad51ac9d5be1deb811c4
     Pseudo is Ultrasoft, Zval =  5.0
     Generated by new atomic code, or converted to UPF format
     Using radial grid of  729 points,  4 beta functions with:
                l(1) =   0
                l(2) =   0
                l(3) =   1
                l(4) =   1
     Q(r) pseudized with  8 coefficients,  rinner =    0.800   0.800   0.800

     PseudoPot. # 4 for C  read from file:
     /storage/coda1/p-amedford6/0/shared/rich_project_chbe-medford/medford-share/data/pseudos_module/espresso/nninc/pbe/van/C.UPF
     MD5 check sum: 1a69bf6b8db32088f5b2163dbdb77a27
     Pseudo is Ultrasoft, Zval =  4.0
     Generated by new atomic code, or converted to UPF format
     Using radial grid of  721 points,  4 beta functions with:
                l(1) =   0
                l(2) =   0
                l(3) =   1
                l(4) =   1
     Q(r) pseudized with  8 coefficients,  rinner =    0.800   0.800   0.800

     PseudoPot. # 5 for H  read from file:
     /storage/coda1/p-amedford6/0/shared/rich_project_chbe-medford/medford-share/data/pseudos_module/espresso/nninc/pbe/van/H.UPF
     MD5 check sum: b5ee9d7bfd3a09ee7748110bda690ff7
     Pseudo is Ultrasoft, Zval =  1.0
     Generated by new atomic code, or converted to UPF format
     Using radial grid of  615 points,  1 beta functions with:
                l(1) =   0
     Q(r) pseudized with  8 coefficients,  rinner =    0.800

     atomic species   valence    mass     pseudopotential
        Ti1           12.00    47.86700     Ti( 1.00)
        O1             6.00    15.99900     O ( 1.00)
        N1             5.00    14.00700     N ( 1.00)
        C1             4.00    12.01100     C ( 1.00)
        H1             1.00     1.00800     H ( 1.00)

     No symmetry found

   Cartesian axes

     site n.     atom                  positions (alat units)
         1           Ti1 tau(   1) = (   0.0004258   2.9801865   6.0000000  )
         2           Ti1 tau(   2) = (   3.2906075   1.4906267   6.0002472  )
         3           O1  tau(   3) = (   0.0006271   0.0005054   7.9858123  )
         4           O1  tau(   4) = (   3.2906025   0.0005020   7.3038282  )
         5           O1  tau(   5) = (   4.5942328   1.4918067   9.2879030  )
         6           O1  tau(   6) = (   1.9868534   1.4903216   9.2879459  )
         7           Ti1 tau(   7) = (   3.2907910   2.8959150   9.1758416  )
         8           Ti1 tau(   8) = (   0.0015273   1.4827037   9.2680791  )
         9           O1  tau(   9) = (   3.2768631   0.0039008  11.3091060  )
        10           O1  tau(  10) = (   0.0116148   5.9584955  10.6183126  )
        11           O1  tau(  11) = (   1.2710838   1.4709840  12.6395574  )
        12           O1  tau(  12) = (   5.2772223   1.5075092  12.6020671  )
        13           Ti1 tau(  13) = (   0.0276258   2.9086511  12.7028215  )
        14           Ti1 tau(  14) = (   3.3492493   1.4375301  12.4845766  )
        15           O1  tau(  15) = (   6.5006329   5.9509897  14.6081112  )
        16           O1  tau(  16) = (   3.3450391   0.0041935  13.9069437  )
        17           O1  tau(  17) = (   4.5555219   1.5659029  16.0522165  )
        18           O1  tau(  18) = (   1.9836904   1.4119734  15.8927236  )
        19           Ti1 tau(  19) = (   3.2827818   2.9316656  15.8555152  )
        20           Ti1 tau(  20) = (   6.5629331   1.3437128  15.9803530  )
        21           O1  tau(  21) = (   3.2904802   0.0005063   4.7018136  )
        22           O1  tau(  22) = (   6.5074089   5.9525318  17.1494500  )
        23           O1  tau(  23) = (   1.3043587   1.4918075   6.0039043  )
        24           O1  tau(  24) = (   5.2767064   1.4903225   6.0039473  )
        25           Ti1 tau(  25) = (   0.0000382   5.9609847   6.0000000  )
        26           Ti1 tau(  26) = (   3.2902200   4.4714249   6.0002472  )
        27           O1  tau(  27) = (   0.0002396   2.9813036   7.9858123  )
        28           O1  tau(  28) = (   3.2902150   2.9813002   7.3038282  )
        29           O1  tau(  29) = (   4.5938453   4.4726049   9.2879030  )
        30           O1  tau(  30) = (   1.9864658   4.4711199   9.2879459  )
        31           Ti1 tau(  31) = (   3.2891106   5.8743827   9.1763621  )
        32           Ti1 tau(  32) = (   0.0006254   4.4649316   9.2693709  )
        33           O1  tau(  33) = (   3.2854303   2.9668816  11.2996989  )
        34           O1  tau(  34) = (   0.0092240   2.9805883  10.6323155  )
        35           O1  tau(  35) = (   1.2743094   4.4851408  12.6236879  )
        36           O1  tau(  36) = (   5.2782958   4.4707264  12.5946799  )
        37           Ti1 tau(  37) = (   0.0481499   5.8920156  12.5607908  )
        38           Ti1 tau(  38) = (   3.3544845   4.3749597  12.5572158  )
        39           O1  tau(  39) = (   6.5410016   3.0017514  14.6365314  )
        40           O1  tau(  40) = (   3.2441134   3.0029108  13.8718978  )
        41           O1  tau(  41) = (   4.5385932   4.4028810  16.0550583  )
        42           O1  tau(  42) = (   1.9619458   4.5383001  15.8611175  )
        43           Ti1 tau(  43) = (   3.2178196   5.9097812  15.7399460  )
        44           Ti1 tau(  44) = (   6.5330930   4.4908980  15.8705378  )
        45           O1  tau(  45) = (   3.2900926   2.9813045   4.7018136  )
        46           O1  tau(  46) = (   1.3039711   4.4726057   6.0039043  )
        47           O1  tau(  47) = (   5.2763189   4.4711207   6.0039473  )
        48           N1  tau(  48) = (   1.2867840   3.0293760  18.3347772  )
        49           C1  tau(  49) = (   2.5003166   3.0326976  17.9707196  )
        50           H1  tau(  50) = (   3.2053588   3.1791635  18.8000936  )
        51           N1  tau(  51) = (   0.2138509   2.9871109  17.4521441  )
        52           H1  tau(  52) = (   5.9621615   2.9869774  18.0311354  )
        53           O1  tau(  53) = (   3.4290693   5.9360351  18.0748810  )
        54           H1  tau(  54) = (   4.3780305   0.1327944  18.2306609  )
        55           H1  tau(  55) = (   2.9458904   0.7245148  18.4607207  )

     number of k points=    10  Fermi-Dirac smearing, width (Ry)=  0.0073
                       cart. coord. in units 2pi/alat
        k(    1) = (   0.0000000   0.0000000   0.0000000), wk =   0.1250000
        k(    2) = (   0.0000000   0.0419351   0.0000000), wk =   0.2500000
        k(    3) = (   0.0000000  -0.0838702   0.0000000), wk =   0.1250000
        k(    4) = (   0.0379955   0.0000049   0.0000000), wk =   0.2500000
        k(    5) = (   0.0379955   0.0419400   0.0000000), wk =   0.2500000
        k(    6) = (   0.0379955  -0.0838652   0.0000000), wk =   0.2500000
        k(    7) = (   0.0379955  -0.0419301   0.0000000), wk =   0.2500000
        k(    8) = (  -0.0759910  -0.0000099   0.0000000), wk =   0.1250000
        k(    9) = (  -0.0759910   0.0419252   0.0000000), wk =   0.2500000
        k(   10) = (  -0.0759910  -0.0838800   0.0000000), wk =   0.1250000

     Initial potential from superposition of free atoms

     starting charge  385.99915, renormalised to  402.00000

     negative rho (up, down):  1.831E-02 0.000E+00

     %%%%%%%%%%%%%%%%%%%%%%%%%%%%%%%%%%%%%%%%%%%%%%%%%%%%%%%%%%%%%%%%%%%%%%%%
     %                                                                      %
     % You are using vdW-DF, which was implemented by the Thonhauser group. %
     % Please cite the following two papers that made this development      %
     % possible and the two reviews that describe the various versions:     %
     %                                                                      %
     %   T. Thonhauser et al., PRL 115, 136402 (2015).                      %
     %   T. Thonhauser et al., PRB 76, 125112 (2007).                       %
     %   K. Berland et al., Rep. Prog. Phys. 78, 066501 (2015).             %
     %   D.C. Langreth et al., J. Phys.: Condens. Matter 21, 084203 (2009). %
     %                                                                      %
     %                                                                      %
     % If you are calculating the stress with vdW-DF, please also cite:     %
     %                                                                      %
     %   R. Sabatini et al., J. Phys.: Condens. Matter 24, 424209 (2012).   %
     %                                                                      %
     %%%%%%%%%%%%%%%%%%%%%%%%%%%%%%%%%%%%%%%%%%%%%%%%%%%%%%%%%%%%%%%%%%%%%%%%

     Adding external electric field

     Computed dipole along edir(3) :
        Dipole              -11.0938 Ry au,        -28.1977 Debye
        Dipole field         -0.0209 Ry au,

        Potential amp.        1.9407 Ry
        Total length         46.3494 bohr

     Starting wfcs are  304 atomic wfcs
  @ DRIVER MODE: Message from server: STATUS
  @ DRIVER MODE: Message from server: POSDATA
  @ DRIVER MODE: Reading and sharing cell
  @ DRIVER MODE: Reading and sharing positions
  @ DRIVER MODE: Received positions

     Self-consistent Calculation

     iteration #  1     ecut=    29.40 Ry     beta= 0.05
     Davidson diagonalization with overlap
     c_bands:  5 eigenvalues not converged
     c_bands:  1 eigenvalues not converged
     c_bands:  3 eigenvalues not converged
     c_bands:  4 eigenvalues not converged
     c_bands:  1 eigenvalues not converged
     c_bands:  1 eigenvalues not converged
     c_bands:  1 eigenvalues not converged
     c_bands:  1 eigenvalues not converged
     ethr =  1.00E-05,  avg # of iterations = 28.9

[...]

     total energy              =   -2403.78855390 Ry
     estimated scf accuracy    <    6374.68173447 Ry

     iteration #  2     ecut=    29.40 Ry     beta= 0.05
     Davidson diagonalization with overlap
     ethr =  1.00E-02,  avg # of iterations = 24.8

[...]

     iteration # 43     ecut=    29.40 Ry     beta= 0.05
     Davidson diagonalization with overlap
     c_bands:  3 eigenvalues not converged
     c_bands:  1 eigenvalues not converged
     ethr =  8.54E-07,  avg # of iterations = 11.1

[...]

     total energy              =   -2972.69102499 Ry
     estimated scf accuracy    <       0.00000017 Ry

     iteration # 67     ecut=    29.40 Ry     beta= 0.05
     Davidson diagonalization with overlap
     ethr =  4.12E-11,  avg # of iterations =  5.3

     negative rho (up, down):  1.792E-02 0.000E+00

     Adding external electric field

     Computed dipole along edir(3) :
        Dipole                0.3688 Ry au,          0.9375 Debye
        Dipole field          0.0007 Ry au,

        Potential amp.       -0.0645 Ry
        Total length         46.3494 bohr

     End of self-consistent calculation

          k = 0.0000 0.0000 0.0000 ( 18029 PWs)   bands (ev):

   -56.3345 -56.3007 -55.9356 -55.9019 -55.7482 -55.7117 -55.5629 -55.5598
   -55.5497 -55.5252 -55.5165 -55.4619 -55.2638 -55.2428 -55.1401 -55.1061
   -32.7883 -32.6271 -32.6003 -32.4925 -32.4121 -32.4107 -32.3996 -32.2371
   -32.1531 -32.1491 -32.0906 -32.0779 -32.0693 -32.0428 -32.0360 -31.9833
   -31.9711 -31.9624 -31.9295 -31.9189 -31.9054 -31.8621 -31.8533 -31.8459
   -31.8238 -31.7835 -31.7621 -31.7333 -31.7301 -31.7119 -31.7108 -31.7080
   -31.6978 -31.6711 -31.6550 -31.6482 -31.5569 -31.5388 -31.5167 -31.5063
   -31.4799 -31.4705 -31.4512 -31.4471 -31.3569 -31.3357 -31.2719 -31.1603
   -18.7496 -16.9984 -16.6535 -16.3448 -16.1481 -15.9595 -15.9034 -15.8347
   -15.7805 -15.6597 -15.6066 -15.5716 -15.5009 -15.3956 -15.3729 -15.3581
   -15.2979 -15.2901 -15.2699 -15.2431 -15.1870 -15.1573 -15.1347 -15.0592
   -15.0380 -15.0202 -14.9059 -14.8334 -14.8063 -14.7746 -14.5286 -13.6388
   -13.5258 -12.3056  -6.7764  -6.5361  -4.1542  -4.0840  -3.9028  -3.7857
    -3.6659  -3.6180  -3.4839  -3.4146  -3.3602  -3.2691  -3.1169  -3.0838
    -3.0086  -2.9605  -2.9227  -2.8627  -2.8048  -2.7560  -2.7251  -2.6387
    -2.6314  -2.6162  -2.6001  -2.5732  -2.5641  -2.4533  -2.3605  -2.3425
    -2.3147  -2.2694  -2.2507  -2.2404  -2.1872  -2.1620  -2.0787  -2.0690
    -2.0252  -1.9656  -1.9220  -1.8105  -1.8012  -1.7241  -1.6972  -1.6537
    -1.5293  -1.4035  -1.3709  -1.3284  -1.3114  -1.2307  -1.1998  -1.1762
    -1.0805  -1.0639  -1.0215  -1.0014  -0.8736  -0.8468  -0.7994  -0.7955
    -0.7660  -0.6706  -0.6360  -0.5192  -0.4784  -0.4322  -0.4205  -0.3476
    -0.3158  -0.2696  -0.2213  -0.1693  -0.1660  -0.1390  -0.0597  -0.0167
     0.0289   0.0770   0.1134   0.2043   0.2572   0.2912   0.3026   0.3921
     0.4387   0.4532   0.5167   0.5875   0.6373   0.7036   0.7479   0.8621
     0.8837   0.8995   0.9751   1.1055   1.4085   1.4369   1.4773   1.6706
     2.6568   2.8880   3.0085   3.1706   3.3181   3.3648   3.6244   3.6834
     3.7327   3.7666   3.8355

[...]

          k = 0.0380-0.0419 0.0000 ( 17876 PWs)   bands (ev):

[...]

          k =-0.0760-0.0000 0.0000 ( 17886 PWs)   bands (ev):

[...]

          k =-0.0760-0.0839 0.0000 ( 17948 PWs)   bands (ev):

   -56.3181 -56.3170 -55.9205 -55.9168 -55.7368 -55.7231 -55.5606 -55.5459
   -55.5393 -55.5350 -55.5320 -55.4604 -55.2650 -55.2438 -55.1230 -55.1230
   -32.6132 -32.6119 -32.6044 -32.6038 -32.4448 -32.4436 -32.2361 -32.2320
   -32.1261 -32.1227 -32.1129 -32.1056 -32.0368 -32.0268 -31.9654 -31.9549
   -31.9455 -31.9429 -31.9000 -31.8922 -31.8689 -31.8672 -31.8608 -31.8370
   -31.8155 -31.7869 -31.7758 -31.7600 -31.7577 -31.7493 -31.7489 -31.7323
   -31.7273 -31.7215 -31.7125 -31.6451 -31.6132 -31.5612 -31.5337 -31.5203
   -31.4847 -31.4600 -31.4599 -31.3530 -31.3529 -31.3370 -31.3145 -31.3144
   -18.7472 -16.9789 -16.0580 -16.0455 -15.9273 -15.9222 -15.7446 -15.7252
   -15.6947 -15.6702 -15.6391 -15.5506 -15.4858 -15.4768 -15.4697 -15.4088
   -15.3624 -15.3513 -15.3315 -15.3055 -15.2829 -15.2573 -15.1642 -15.1364
   -15.1345 -15.1045 -15.0208 -15.0102 -14.9532 -14.8095 -14.7479 -13.6288
   -13.6284 -12.3266  -6.7476  -6.4687  -4.0033  -3.8552  -3.2301  -3.1904
    -3.1692  -3.0600  -3.0333  -2.9617  -2.8656  -2.8485  -2.8315  -2.7990
    -2.7712  -2.7632  -2.7494  -2.7101  -2.6580  -2.6370  -2.6227  -2.6133
    -2.6066  -2.6017  -2.5690  -2.5401  -2.4811  -2.4740  -2.4430  -2.4196
    -2.3949  -2.3174  -2.3083  -2.2826  -2.2821  -2.2379  -2.1330  -2.1134
    -2.1052  -2.0640  -2.0096  -1.9340  -1.8440  -1.8039  -1.7372  -1.6823
    -1.6215  -1.5932  -1.5819  -1.4806  -1.4203  -1.4118  -1.3612  -1.3133
    -1.2360  -1.1955  -1.1575  -1.1428  -1.1294  -1.0992  -1.0480  -0.9877
    -0.8721  -0.8472  -0.8350  -0.7697  -0.7649  -0.7554  -0.6524  -0.6207
    -0.5665  -0.5425  -0.5208  -0.4871  -0.4530  -0.3834  -0.2908  -0.2434
    -0.1178  -0.1028  -0.0466   0.0072   0.0177   0.1080   0.1995   0.2237
     0.3587   0.3723   0.4026   0.5337   0.6075   0.6547   0.6730   0.7963
     0.8154   0.8513   1.0198   1.2698   1.2742   1.2937   1.2947   1.6201
     2.6345   3.4269   3.4292   3.4586   3.4607   3.6693   3.6831   3.7587
     3.7925   3.8839   3.9063

     the Fermi energy is     2.8299 ev

!    total energy              =   -2972.69105894 Ry
     estimated scf accuracy    <       0.00000003 Ry
     smearing contrib. (-TS)   =      -0.01354559 Ry
     internal energy E=F+TS    =   -2972.67751335 Ry

     The total energy is F=E-TS. E is the sum of the following terms:
     one-electron contribution =  -24584.17164671 Ry
     hartree contribution      =   12384.09507979 Ry
     xc contribution           =    -493.18130417 Ry
     ewald contribution        =    9720.58010102 Ry
     electric field correction =       0.00025672 Ry

     convergence has been achieved in  67 iterations

     Forces acting on atoms (cartesian axes, Ry/au):

     atom    1 type  1   force =    -0.00001106   -0.00028035    0.10594527
     atom    2 type  1   force =    -0.00022400   -0.00077031   -0.16699816
     atom    3 type  2   force =    -0.00002356   -0.00013762   -0.03868909
     atom    4 type  2   force =    -0.00009869   -0.00038307    0.03662246
     atom    5 type  2   force =    -0.00757804   -0.00013258   -0.00570485
     atom    6 type  2   force =     0.00859292    0.00077594   -0.00739121
     atom    7 type  1   force =    -0.00079499   -0.00143768    0.01944054
     atom    8 type  1   force =     0.00109608    0.01828640    0.06277420
     atom    9 type  2   force =    -0.00008151   -0.00017652    0.00057020
     atom   10 type  2   force =    -0.00264265    0.00202311   -0.04719326
     atom   11 type  2   force =    -0.00028235   -0.00000290    0.00023007
     atom   12 type  2   force =     0.00044100   -0.00012346    0.00019485
     atom   13 type  1   force =     0.00006591   -0.00012650   -0.00112683
     atom   14 type  1   force =    -0.00051118    0.00004586   -0.00023999
     atom   15 type  2   force =     0.00020458   -0.00001865    0.00048618
     atom   16 type  2   force =    -0.00012707   -0.00030464    0.00087217
     atom   17 type  2   force =     0.00040193   -0.00025858    0.00047655
     atom   18 type  2   force =    -0.00019588    0.00011734   -0.00018704
     atom   19 type  1   force =    -0.00008609    0.00007275    0.00128604
     atom   20 type  1   force =     0.00028837    0.00045764    0.00013001
     atom   21 type  2   force =     0.00004843   -0.00002046    0.10087950
     atom   22 type  2   force =     0.00032935    0.00029484    0.00048987
     atom   23 type  2   force =    -0.07575254   -0.00011961   -0.02983329
     atom   24 type  2   force =     0.07564612    0.00033536   -0.02984604
     atom   25 type  1   force =     0.00019905   -0.00056341    0.10633345
     atom   26 type  1   force =    -0.00005861   -0.00026262   -0.16743069
     atom   27 type  2   force =    -0.00006331   -0.00031831   -0.03734633
     atom   28 type  2   force =     0.00007183   -0.00046136    0.03708302
     atom   29 type  2   force =    -0.00854862    0.00126285   -0.00510104
     atom   30 type  2   force =     0.00950505    0.00122511   -0.00681607
     atom   31 type  1   force =    -0.00129208   -0.00006890    0.02576059
     atom   32 type  1   force =     0.00114855   -0.02139310    0.06335917
     atom   33 type  2   force =    -0.00001353    0.00025490    0.00017896
     atom   34 type  2   force =    -0.00007755    0.00089836   -0.05902387
     atom   35 type  2   force =    -0.00012342    0.00008126   -0.00002246
     atom   36 type  2   force =    -0.00005479    0.00036400   -0.00003519
     atom   37 type  1   force =     0.00002165   -0.00031590   -0.00071253
     atom   38 type  1   force =    -0.00043768   -0.00013681   -0.00040252
     atom   39 type  2   force =    -0.00015521    0.00044039    0.00154818
     atom   40 type  2   force =     0.00042774    0.00011718   -0.00023358
     atom   41 type  2   force =     0.00024775    0.00034402    0.00001138
     atom   42 type  2   force =     0.00014698    0.00013114    0.00018288
     atom   43 type  1   force =    -0.00040026    0.00002616   -0.00023689
     atom   44 type  1   force =     0.00055143   -0.00017419   -0.00007963
     atom   45 type  2   force =     0.00002586   -0.00000182    0.10090102
     atom   46 type  2   force =    -0.07576320   -0.00010650   -0.02978698
     atom   47 type  2   force =     0.07563484    0.00032307   -0.02982925
     atom   48 type  3   force =     0.00110786    0.00033170    0.00369402
     atom   49 type  4   force =     0.00122052    0.00073740    0.00101016
     atom   50 type  5   force =    -0.00025455   -0.00125308   -0.00041336
     atom   51 type  3   force =     0.00466067    0.00005240   -0.01289038
     atom   52 type  5   force =    -0.00612474    0.00029579    0.00717326
     atom   53 type  2   force =    -0.00051642   -0.00000745   -0.00088042
     atom   54 type  5   force =    -0.00029218    0.00012349    0.00044104
     atom   55 type  5   force =     0.00050128   -0.00006205    0.00037588

     Total force =     0.383648     Total SCF correction =     0.000921
  @ DRIVER MODE: Message from server: STATUS
  @ DRIVER MODE: Message from server: GETFORCE
  @ DRIVER MODE: Returning v,forces,stress,ensemble

     Writing output data file ./calc.save/
  @ DRIVER MODE: Message from server: EXIT
  @ DRIVE MODE: Exiting

     General routines

     Parallel routines

   This run was terminated on:  23:12:29  15Sep2021

   JOB DONE.