     Program PWSCF v.6.7GPU starts on 23Sep2021 at  5:39:45

     R & G space division:  proc/nbgrp/npool/nimage =       8
     Reading input from /storage/home/hcoda1/3/ntian30/research/carbon/CxH_vib/H2O_calc/ads_slab/CH2OHO_c/out_0019/pw.inp
Warning: card &CELL ignored
Warning: card   CELL_DYNAMICS='IPI', ignored
Warning: card / ignored

     Current dimensions of program PWSCF are:
     Max number of different atomic species (ntypx) = 10
     Max number of k-points (npk) =  40000
     Max angular momentum in pseudopotentials (lmaxx) =  3
     Presently no symmetry can be used with electric field

     Message from routine cell_base_init:
     DEPRECATED: use true lattice parameter, not A to a.u. conversion factor

     IMPORTANT: XC functional enforced from input :
     Exchange-correlation= BEEF-VDW
                           (   1   4  43  14   2   0   0)
     Any further DFT definition will be discarded
     Please, verify this is what you really want

  @ DRIVER MODE: Connecting to
 qe_1139763_2941011.sched-torque.pace.gatech.edux_00x70d_scratch
  using UNIX socket
  @ DRIVER MODE: Message from server: STATUS
  @ DRIVER MODE: Message from server: INIT
  @ DRIVER MODE: Receiving replica           0          -1
  @ DRIVER MODE: Receiving encoded integer          25
  @ DRIVER MODE:  SCF:  T  FORCE:  T  STRESS:  F  VC:  F  ENSEMBLE:  F
  @ DRIVER MODE:  SCF:  T  FORCE:  T  STRESS:  F  VC:  F  ENSEMBLE:  F

     Using Slab Decomposition

     bravais-lattice index     =            0
     lattice parameter (alat)  =       1.8897  a.u.
     unit-cell volume          =    6658.9804 (a.u.)^3
     number of atoms/cell      =           53
     number of atomic types    =            4
     number of electrons       =       397.00
     number of Kohn-Sham states=          208
     kinetic-energy cutoff     =      29.3995  Ry
     charge density cutoff     =     293.9946  Ry
     scf convergence threshold =      7.3E-08
     mixing beta               =       0.0500
     number of iterations used =            8  plain     mixing
     Exchange-correlation= BEEF-VDW
                           (   1   4  43  14   2   0   0)

     celldm(1)=   1.889726  celldm(2)=   0.000000  celldm(3)=   0.000000
     celldm(4)=   0.000000  celldm(5)=   0.000000  celldm(6)=   0.000000

     crystal axes: (cart. coord. in units of alat)
               a(1) = (   6.579727   0.000000   0.000000 )
               a(2) = (  -0.000775   5.961596   0.000000 )
               a(3) = (   0.000000   0.000000  25.155947 )

     reciprocal axes: (cart. coord. in units 2 pi/alat)
               b(1) = (  0.151982  0.000020  0.000000 )
               b(2) = (  0.000000  0.167740  0.000000 )
               b(3) = (  0.000000  0.000000  0.039752 )

     PseudoPot. # 1 for O  read from file:
     /storage/coda1/p-amedford6/0/shared/rich_project_chbe-medford/medford-share/data/pseudos_module/espresso/nninc/pbe/van/O.UPF
     MD5 check sum: 78c19812648e8988a0fe644b0f25305e
     Pseudo is Ultrasoft, Zval =  6.0
     Generated by new atomic code, or converted to UPF format
     Using radial grid of  737 points,  4 beta functions with:
                l(1) =   0
                l(2) =   0
                l(3) =   1
                l(4) =   1
     Q(r) pseudized with  8 coefficients,  rinner =    0.800   0.800   0.800

     PseudoPot. # 2 for Ti read from file:
     /storage/coda1/p-amedford6/0/shared/rich_project_chbe-medford/medford-share/data/pseudos_module/espresso/nninc/pbe/van/Ti.UPF
     MD5 check sum: 8e4df49b7f0d34bbd5052bf3f5ea0213
     Pseudo is Ultrasoft, Zval = 12.0
     Generated by new atomic code, or converted to UPF format
     Using radial grid of  851 points,  6 beta functions with:
                l(1) =   0
                l(2) =   0
                l(3) =   1
                l(4) =   1
                l(5) =   2
                l(6) =   2
     Q(r) pseudized with  8 coefficients,  rinner =    1.000   1.000   1.000
                                                       1.000   1.000

     PseudoPot. # 3 for C  read from file:
     /storage/coda1/p-amedford6/0/shared/rich_project_chbe-medford/medford-share/data/pseudos_module/espresso/nninc/pbe/van/C.UPF
     MD5 check sum: 1a69bf6b8db32088f5b2163dbdb77a27
     Pseudo is Ultrasoft, Zval =  4.0
     Generated by new atomic code, or converted to UPF format
     Using radial grid of  721 points,  4 beta functions with:
                l(1) =   0
                l(2) =   0
                l(3) =   1
                l(4) =   1
     Q(r) pseudized with  8 coefficients,  rinner =    0.800   0.800   0.800

     PseudoPot. # 4 for H  read from file:
     /storage/coda1/p-amedford6/0/shared/rich_project_chbe-medford/medford-share/data/pseudos_module/espresso/nninc/pbe/van/H.UPF
     MD5 check sum: b5ee9d7bfd3a09ee7748110bda690ff7
     Pseudo is Ultrasoft, Zval =  1.0
     Generated by new atomic code, or converted to UPF format
     Using radial grid of  615 points,  1 beta functions with:
                l(1) =   0
     Q(r) pseudized with  8 coefficients,  rinner =    0.800

     atomic species   valence    mass     pseudopotential
        O1             6.00    15.99900     O ( 1.00)
        Ti1           12.00    47.86700     Ti( 1.00)
        C1             4.00    12.01100     C ( 1.00)
        H1             1.00     1.00800     H ( 1.00)

     No symmetry found

   Cartesian axes

     site n.     atom                  positions (alat units)
         1           O1  tau(   1) = (   3.2904802   0.0005063   4.7018136  )
         2           O1  tau(   2) = (   3.2900926   2.9813045   4.7018136  )
         3           Ti1 tau(   3) = (   0.0004258   2.9801865   6.0000000  )
         4           Ti1 tau(   4) = (   0.0000382   5.9609847   6.0000000  )
         5           Ti1 tau(   5) = (   3.2906075   1.4906267   6.0002472  )
         6           Ti1 tau(   6) = (   3.2902200   4.4714249   6.0002472  )
         7           O1  tau(   7) = (   1.3043587   1.4918075   6.0039043  )
         8           O1  tau(   8) = (   1.3039711   4.4726057   6.0039043  )
         9           O1  tau(   9) = (   5.2767064   1.4903225   6.0039473  )
        10           O1  tau(  10) = (   5.2763189   4.4711207   6.0039473  )
        11           O1  tau(  11) = (   3.2906025   0.0005020   7.3038282  )
        12           O1  tau(  12) = (   3.2902150   2.9813002   7.3038282  )
        13           O1  tau(  13) = (   0.0006271   0.0005054   7.9858123  )
        14           O1  tau(  14) = (   0.0002396   2.9813036   7.9858123  )
        15           Ti1 tau(  15) = (   3.3202697   0.0919879   9.1698383  )
        16           Ti1 tau(  16) = (   3.3215697   3.0759731   9.1987478  )
        17           Ti1 tau(  17) = (   0.0419684   4.5271873   9.2680259  )
        18           Ti1 tau(  18) = (   0.0391189   1.6041453   9.3419098  )
        19           O1  tau(  19) = (   4.5942328   1.4918067   9.2879030  )
        20           O1  tau(  20) = (   4.5938453   4.4726049   9.2879030  )
        21           O1  tau(  21) = (   1.9868534   1.4903216   9.2879459  )
        22           O1  tau(  22) = (   1.9864658   4.4711199   9.2879459  )
        23           O1  tau(  23) = (   0.0125722   0.0097687  10.5830051  )
        24           O1  tau(  24) = (   0.0081120   2.9918398  10.5664780  )
        25           O1  tau(  25) = (   3.3077729   2.9680546  11.3050536  )
        26           O1  tau(  26) = (   3.3059260   0.0232323  11.3367354  )
        27           Ti1 tau(  27) = (   0.0233359   0.0627999  12.4784840  )
        28           Ti1 tau(  28) = (   3.3058864   4.6637881  12.6801991  )
        29           Ti1 tau(  29) = (   3.3037148   1.5793570  12.4293313  )
        30           Ti1 tau(  30) = (   0.0089448   3.0481173  12.7472709  )
        31           O1  tau(  31) = (   1.2933882   4.4692258  12.6303221  )
        32           O1  tau(  32) = (   1.2985301   1.4993897  12.6236677  )
        33           O1  tau(  33) = (   5.3274268   4.4793405  12.6275207  )
        34           O1  tau(  34) = (   5.3265499   1.4915365  12.6220616  )
        35           O1  tau(  35) = (   3.3295878   2.9786622  13.8932268  )
        36           O1  tau(  36) = (   3.3104420   5.9098017  13.9586718  )
        37           O1  tau(  37) = (   0.0385923   0.0024916  14.6531765  )
        38           O1  tau(  38) = (   0.0086518   2.9873893  14.7004014  )
        39           Ti1 tau(  39) = (   3.3201234   2.9526136  15.6695435  )
        40           Ti1 tau(  40) = (   3.4185286   5.9334276  16.2343674  )
        41           Ti1 tau(  41) = (   0.1049196   4.5923083  15.9423708  )
        42           Ti1 tau(  42) = (   0.0892020   1.3980244  15.8930203  )
        43           O1  tau(  43) = (   4.5900789   4.4270775  16.0984088  )
        44           O1  tau(  44) = (   4.5919070   1.5192920  16.0669747  )
        45           O1  tau(  45) = (   2.0372030   1.5514537  16.0349210  )
        46           O1  tau(  46) = (   2.0392294   4.4021701  16.0428288  )
        47           O1  tau(  47) = (   0.0638787   0.0130652  17.1658208  )
        48           O1  tau(  48) = (   6.5756481   2.9829514  17.4361268  )
        49           C1  tau(  49) = (   6.2652767   2.9703434  18.6584371  )
        50           H1  tau(  50) = (   6.1492679   3.9148029  19.1865895  )
        51           H1  tau(  51) = (   6.0898186   2.0156765  19.1535163  )
        52           O1  tau(  52) = (   3.1909063   0.0039016  18.0657888  )
        53           H1  tau(  53) = (   2.2823347   0.1153277  18.3895531  )

     number of k points=    10  Fermi-Dirac smearing, width (Ry)=  0.0073
                       cart. coord. in units 2pi/alat
        k(    1) = (   0.0000000   0.0000000   0.0000000), wk =   0.1250000
        k(    2) = (   0.0000000   0.0419351   0.0000000), wk =   0.2500000
        k(    3) = (   0.0000000  -0.0838702   0.0000000), wk =   0.1250000
        k(    4) = (   0.0379955   0.0000049   0.0000000), wk =   0.2500000
        k(    5) = (   0.0379955   0.0419400   0.0000000), wk =   0.2500000
        k(    6) = (   0.0379955  -0.0838652   0.0000000), wk =   0.2500000
        k(    7) = (   0.0379955  -0.0419301   0.0000000), wk =   0.2500000
        k(    8) = (  -0.0759910  -0.0000099   0.0000000), wk =   0.1250000
        k(    9) = (  -0.0759910   0.0419252   0.0000000), wk =   0.2500000
        k(   10) = (  -0.0759910  -0.0838800   0.0000000), wk =   0.1250000

     Initial potential from superposition of free atoms

     starting charge  380.99918, renormalised to  397.00000

     negative rho (up, down):  1.768E-02 0.000E+00

     %%%%%%%%%%%%%%%%%%%%%%%%%%%%%%%%%%%%%%%%%%%%%%%%%%%%%%%%%%%%%%%%%%%%%%%%
     %                                                                      %
     % You are using vdW-DF, which was implemented by the Thonhauser group. %
     % Please cite the following two papers that made this development      %
     % possible and the two reviews that describe the various versions:     %
     %                                                                      %
     %   T. Thonhauser et al., PRL 115, 136402 (2015).                      %
     %   T. Thonhauser et al., PRB 76, 125112 (2007).                       %
     %   K. Berland et al., Rep. Prog. Phys. 78, 066501 (2015).             %
     %   D.C. Langreth et al., J. Phys.: Condens. Matter 21, 084203 (2009). %
     %                                                                      %
     %                                                                      %
     % If you are calculating the stress with vdW-DF, please also cite:     %
     %                                                                      %
     %   R. Sabatini et al., J. Phys.: Condens. Matter 24, 424209 (2012).   %
     %                                                                      %
     %%%%%%%%%%%%%%%%%%%%%%%%%%%%%%%%%%%%%%%%%%%%%%%%%%%%%%%%%%%%%%%%%%%%%%%%

     Adding external electric field

     Computed dipole along edir(3) :
        Dipole               -8.4002 Ry au,        -21.3511 Debye
        Dipole field         -0.0159 Ry au,

        Potential amp.        1.4695 Ry
        Total length         46.3494 bohr

     Starting wfcs are  299 atomic wfcs
  @ DRIVER MODE: Message from server: STATUS
  @ DRIVER MODE: Message from server: POSDATA
  @ DRIVER MODE: Reading and sharing cell
  @ DRIVER MODE: Reading and sharing positions
  @ DRIVER MODE: Received positions

     Self-consistent Calculation

     iteration #  1     ecut=    29.40 Ry     beta= 0.05
     Davidson diagonalization with overlap
     c_bands:  1 eigenvalues not converged
     c_bands:  1 eigenvalues not converged
     c_bands:  1 eigenvalues not converged
     c_bands:  1 eigenvalues not converged
     ethr =  1.00E-05,  avg # of iterations = 18.2

[...]

     total energy              =   -2610.75355016 Ry
     estimated scf accuracy    <    3908.88235071 Ry

     iteration #  2     ecut=    29.40 Ry     beta= 0.05
     Davidson diagonalization with overlap
     ethr =  1.00E-02,  avg # of iterations = 23.0

[...]

     iteration # 43     ecut=    29.40 Ry     beta= 0.05
     Davidson diagonalization with overlap
     c_bands:  1 eigenvalues not converged
     c_bands:  1 eigenvalues not converged
     c_bands:  1 eigenvalues not converged
     c_bands:  1 eigenvalues not converged
     c_bands:  1 eigenvalues not converged
     c_bands:  1 eigenvalues not converged
     ethr =  1.26E-06,  avg # of iterations = 16.6

[...]

     total energy              =   -2963.78479421 Ry
     estimated scf accuracy    <       0.00000009 Ry

     iteration # 66     ecut=    29.40 Ry     beta= 0.05
     Davidson diagonalization with overlap
     ethr =  2.32E-11,  avg # of iterations =  5.9

     negative rho (up, down):  1.717E-02 0.000E+00

     Adding external electric field

     Computed dipole along edir(3) :
        Dipole                0.8853 Ry au,          2.2501 Debye
        Dipole field          0.0017 Ry au,

        Potential amp.       -0.1549 Ry
        Total length         46.3494 bohr

     End of self-consistent calculation

          k = 0.0000 0.0000 0.0000 ( 18029 PWs)   bands (ev):

   -55.9289 -55.8878 -55.7866 -55.7083 -55.6743 -55.6676 -55.6567 -55.6018
   -55.5653 -55.5446 -55.5226 -55.4864 -55.4659 -55.3741 -54.7736 -54.7396
   -32.3811 -32.2485 -32.2228 -32.1867 -32.1854 -32.1360 -32.1249 -32.0875
   -32.0686 -32.0151 -32.0123 -32.0042 -32.0006 -31.9929 -31.9740 -31.9571
   -31.9408 -31.9294 -31.8874 -31.8839 -31.8704 -31.8542 -31.8502 -31.8377
   -31.8099 -31.8061 -31.7779 -31.7713 -31.7691 -31.7591 -31.7471 -31.7412
   -31.7356 -31.7246 -31.7009 -31.6882 -31.6827 -31.6580 -31.6386 -31.6210
   -31.5802 -31.5790 -31.1760 -31.1003 -31.0769 -30.9931 -30.9072 -30.7957
   -20.2067 -16.5713 -16.4246 -16.2528 -16.0625 -15.9681 -15.9065 -15.6922
   -15.6377 -15.5394 -15.4181 -15.3831 -15.3393 -15.3124 -15.2946 -15.2803
   -15.2633 -15.2445 -15.2117 -15.1903 -15.1844 -15.1407 -15.0720 -15.0260
   -15.0178 -14.9776 -14.9187 -14.8771 -14.8395 -14.7998 -14.6232 -13.2747
   -13.1609  -9.4644  -5.7740  -5.7252  -4.1622  -3.7941  -3.7671  -3.7370
    -3.6513  -3.6134  -3.5086  -3.3441  -3.1625  -3.0345  -2.9451  -2.9270
    -2.8881  -2.7754  -2.7246  -2.6927  -2.6489  -2.6202  -2.6015  -2.5597
    -2.5371  -2.4968  -2.4637  -2.4356  -2.3444  -2.3372  -2.2768  -2.2162
    -2.1834  -2.1743  -2.1691  -2.1458  -2.1106  -2.0562  -2.0208  -1.9862
    -1.9487  -1.8309  -1.8134  -1.7972  -1.7252  -1.4837  -1.3534  -1.3132
    -1.2591  -1.2169  -1.1937  -1.1687  -1.1633  -1.1444  -1.1120  -1.0615
    -0.9593  -0.9008  -0.8308  -0.8250  -0.8083  -0.7455  -0.6658  -0.5948
    -0.5566  -0.5261  -0.5027  -0.4272  -0.4270  -0.3529  -0.3224  -0.2508
    -0.1364  -0.0885  -0.0649  -0.0465  -0.0338   0.0198   0.0663   0.1341
     0.1537   0.1697   0.1982   0.2779   0.2874   0.3103   0.3285   0.4250
     0.4891   0.4976   0.5662   0.6578   0.6906   0.7737   0.9016   0.9777
     1.2237   1.2482   1.3336   1.4638   1.8096   1.8537   3.2866   3.3572
     3.3945   3.4956   3.5781   3.5977   3.6759   3.7358   3.8232   3.8670

[...]

          k = 0.0380-0.0419 0.0000 ( 17876 PWs)   bands (ev):

[...]

          k =-0.0760-0.0000 0.0000 ( 17886 PWs)   bands (ev):

[...]

          k =-0.0760-0.0839 0.0000 ( 17948 PWs)   bands (ev):

   -55.9200 -55.8966 -55.7856 -55.6950 -55.6874 -55.6651 -55.6505 -55.6079
   -55.5661 -55.5467 -55.5112 -55.4979 -55.4627 -55.3771 -54.7571 -54.7560
   -32.2170 -32.2061 -32.1864 -32.1803 -32.1585 -32.0591 -32.0467 -32.0453
   -32.0299 -32.0179 -32.0107 -32.0037 -32.0010 -31.9562 -31.9501 -31.9229
   -31.9061 -31.9039 -31.8978 -31.8844 -31.8819 -31.8761 -31.8735 -31.8669
   -31.8573 -31.8435 -31.8208 -31.8114 -31.8034 -31.8008 -31.7732 -31.7630
   -31.7512 -31.7305 -31.7269 -31.7253 -31.7215 -31.7197 -31.6813 -31.6614
   -31.6235 -31.5827 -31.0903 -31.0892 -30.9904 -30.9886 -30.9504 -30.9491
   -20.2008 -16.5376 -15.9359 -15.8813 -15.7310 -15.7045 -15.6608 -15.6063
   -15.5479 -15.5062 -15.4960 -15.4605 -15.4413 -15.4166 -15.3952 -15.3671
   -15.3414 -15.2951 -15.2875 -15.2407 -15.2313 -15.2115 -15.1856 -15.1537
   -15.0996 -15.0865 -15.0669 -15.0349 -15.0138 -14.9251 -14.7599 -13.2643
   -13.2624  -9.4663  -5.7602  -5.7113  -4.1258  -3.7880  -3.1723  -3.1002
    -2.9545  -2.8769  -2.8103  -2.7889  -2.7729  -2.7421  -2.6766  -2.6561
    -2.6015  -2.5967  -2.5883  -2.5780  -2.5641  -2.5212  -2.4921  -2.4767
    -2.4700  -2.4516  -2.4236  -2.4096  -2.3960  -2.3840  -2.3740  -2.3674
    -2.3153  -2.2525  -2.1720  -2.1239  -2.1055  -1.9813  -1.9634  -1.9035
    -1.8907  -1.8833  -1.8520  -1.8481  -1.7754  -1.7208  -1.5667  -1.5504
    -1.5110  -1.4491  -1.4165  -1.3305  -1.3143  -1.2780  -1.2319  -1.2194
    -1.1969  -1.1762  -1.0787  -0.9990  -0.9577  -0.9185  -0.8058  -0.7898
    -0.7746  -0.7107  -0.6890  -0.6796  -0.6713  -0.6069  -0.5453  -0.4970
    -0.4790  -0.4425  -0.4222  -0.3740  -0.3159  -0.2376  -0.1668  -0.0968
    -0.0664   0.0408   0.1177   0.1553   0.2692   0.3257   0.3555   0.3835
     0.4522   0.5080   0.5260   0.6101   0.6804   0.7003   0.7582   0.7912
     0.8305   0.8653   1.6199   1.6328   1.6645   1.6752   3.2498   3.7767
     3.7866   3.8002   3.8191   3.8439   3.8671   3.9530   4.0022   4.0059

     the Fermi energy is     3.2266 ev

!    total energy              =   -2963.78481533 Ry
     estimated scf accuracy    <       0.00000006 Ry
     smearing contrib. (-TS)   =      -0.01873668 Ry
     internal energy E=F+TS    =   -2963.76607865 Ry

     The total energy is F=E-TS. E is the sum of the following terms:
     one-electron contribution =  -24352.08487383 Ry
     hartree contribution      =   12266.15559718 Ry
     xc contribution           =    -489.27361928 Ry
     ewald contribution        =    9611.43533838 Ry
     electric field correction =       0.00147890 Ry

     convergence has been achieved in  66 iterations

     Forces acting on atoms (cartesian axes, Ry/au):

     atom    1 type  1   force =    -0.00006914    0.00012928    0.10166245
     atom    2 type  1   force =    -0.00006692    0.00015834    0.10132447
     atom    3 type  2   force =    -0.00029168   -0.00136696    0.10433833
     atom    4 type  2   force =    -0.00023220    0.00134937    0.11681628
     atom    5 type  2   force =    -0.00034116    0.00599629   -0.16904719
     atom    6 type  2   force =    -0.00007528   -0.00499529   -0.16911803
     atom    7 type  1   force =    -0.07475216    0.00068108   -0.03017797
     atom    8 type  1   force =    -0.07429231   -0.00133396   -0.03017910
     atom    9 type  1   force =     0.07442646    0.00121791   -0.03022461
     atom   10 type  1   force =     0.07410717   -0.00091662   -0.03024483
     atom   11 type  1   force =     0.00083407    0.00106357    0.04728099
     atom   12 type  1   force =     0.00077835    0.00082455    0.04927980
     atom   13 type  1   force =     0.00026667   -0.00563283   -0.03769075
     atom   14 type  1   force =     0.00053995    0.00416538   -0.03207696
     atom   15 type  2   force =    -0.00044431    0.00078134   -0.00016790
     atom   16 type  2   force =    -0.00039053   -0.00081660   -0.00017078
     atom   17 type  2   force =     0.00030008   -0.00003564    0.00050510
     atom   18 type  2   force =     0.00026731    0.00014583    0.00104081
     atom   19 type  1   force =    -0.00989649   -0.00202532    0.00041866
     atom   20 type  1   force =    -0.00988131    0.00492821    0.00133369
     atom   21 type  1   force =     0.01189982   -0.00463408    0.00142420
     atom   22 type  1   force =     0.01107514    0.00174711    0.00190574
     atom   23 type  1   force =    -0.00025044    0.00002886    0.00020371
     atom   24 type  1   force =    -0.00026968    0.00002833   -0.00039393
     atom   25 type  1   force =    -0.00036742   -0.00041370   -0.00038427
     atom   26 type  1   force =    -0.00021350   -0.00006538   -0.00007834
     atom   27 type  2   force =    -0.00031537   -0.00022695   -0.00005696
     atom   28 type  2   force =     0.00016129   -0.00022641    0.00053138
     atom   29 type  2   force =     0.00033902   -0.00042492   -0.00077557
     atom   30 type  2   force =    -0.00015961    0.00029862    0.00009971
     atom   31 type  1   force =     0.00001714    0.00056497    0.00025546
     atom   32 type  1   force =     0.00039247    0.00018985   -0.00004901
     atom   33 type  1   force =    -0.00031564    0.00031078    0.00062178
     atom   34 type  1   force =    -0.00088250    0.00054854    0.00014461
     atom   35 type  1   force =    -0.00046244   -0.00045936   -0.00079126
     atom   36 type  1   force =    -0.00019428   -0.00019970   -0.00002766
     atom   37 type  1   force =    -0.00014494   -0.00039547    0.00039749
     atom   38 type  1   force =     0.00040448    0.00030039    0.00013367
     atom   39 type  2   force =    -0.00002264    0.00026270    0.00064850
     atom   40 type  2   force =    -0.00006985   -0.00040484    0.00031457
     atom   41 type  2   force =    -0.00008768    0.00030181    0.00034894
     atom   42 type  2   force =    -0.00033307   -0.00022068    0.00009063
     atom   43 type  1   force =     0.00024150   -0.00008995   -0.00020087
     atom   44 type  1   force =    -0.00046508   -0.00004046   -0.00028853
     atom   45 type  1   force =     0.00077683   -0.00000725   -0.00016127
     atom   46 type  1   force =    -0.00035179   -0.00005151   -0.00024604
     atom   47 type  1   force =     0.00027164   -0.00059494    0.00020763
     atom   48 type  1   force =     0.00003140   -0.00008402    0.00059394
     atom   49 type  3   force =    -0.00183131   -0.00125078    0.00061155
     atom   50 type  4   force =    -0.00031884    0.00026729    0.00027080
     atom   51 type  4   force =     0.00054508    0.00097434   -0.00066792
     atom   52 type  1   force =    -0.00074530    0.00028497    0.00123074
     atom   53 type  4   force =     0.00085899   -0.00063609   -0.00081589

     Total force =     0.368620     Total SCF correction =     0.000507
  @ DRIVER MODE: Message from server: STATUS
  @ DRIVER MODE: Message from server: GETFORCE
  @ DRIVER MODE: Returning v,forces,stress,ensemble

     Writing output data file ./calc.save/
  @ DRIVER MODE: Message from server: EXIT
  @ DRIVE MODE: Exiting

     General routines

     Parallel routines

   This run was terminated on:   6: 1:46  23Sep2021

   JOB DONE.