     Program PWSCF v.6.7GPU starts on 24Aug2021 at  5:28:10

     R & G space division:  proc/nbgrp/npool/nimage =       6
     Reading input from /storage/home/hcoda1/3/ntian30/research/carbon/CH2_vib/ads_slab/CH2NHN_a/out_0030/pw.inp
Warning: card &CELL ignored
Warning: card   CELL_DYNAMICS='IPI', ignored
Warning: card / ignored

     Current dimensions of program PWSCF are:
     Max number of different atomic species (ntypx) = 10
     Max number of k-points (npk) =  40000
     Max angular momentum in pseudopotentials (lmaxx) =  3
     Presently no symmetry can be used with electric field

     Message from routine cell_base_init:
     DEPRECATED: use true lattice parameter, not A to a.u. conversion factor

     IMPORTANT: XC functional enforced from input :
     Exchange-correlation= BEEF-VDW
                           (   1   4  43  14   2   0   0)
     Any further DFT definition will be discarded
     Please, verify this is what you really want

  @ DRIVER MODE: Connecting to
 qe_1139763_2632804.sched-torque.pace.gatech.eduq73dp8yf_scratch
  using UNIX socket
  @ DRIVER MODE: Message from server: STATUS
  @ DRIVER MODE: Message from server: INIT
  @ DRIVER MODE: Receiving replica           0          -1
  @ DRIVER MODE: Receiving encoded integer          25
  @ DRIVER MODE:  SCF:  T  FORCE:  T  STRESS:  F  VC:  F  ENSEMBLE:  F
  @ DRIVER MODE:  SCF:  T  FORCE:  T  STRESS:  F  VC:  F  ENSEMBLE:  F

     Using Slab Decomposition

     bravais-lattice index     =            0
     lattice parameter (alat)  =       1.8897  a.u.
     unit-cell volume          =    6658.9804 (a.u.)^3
     number of atoms/cell      =           53
     number of atomic types    =            5
     number of electrons       =       395.00
     number of Kohn-Sham states=          207
     kinetic-energy cutoff     =      29.3995  Ry
     charge density cutoff     =     293.9946  Ry
     scf convergence threshold =      7.3E-08
     mixing beta               =       0.0500
     number of iterations used =            8  plain     mixing
     Exchange-correlation= BEEF-VDW
                           (   1   4  43  14   2   0   0)

     celldm(1)=   1.889726  celldm(2)=   0.000000  celldm(3)=   0.000000
     celldm(4)=   0.000000  celldm(5)=   0.000000  celldm(6)=   0.000000

     crystal axes: (cart. coord. in units of alat)
               a(1) = (   6.579727   0.000000   0.000000 )
               a(2) = (  -0.000775   5.961596   0.000000 )
               a(3) = (   0.000000   0.000000  25.155947 )

     reciprocal axes: (cart. coord. in units 2 pi/alat)
               b(1) = (  0.151982  0.000020  0.000000 )
               b(2) = (  0.000000  0.167740  0.000000 )
               b(3) = (  0.000000  0.000000  0.039752 )

     PseudoPot. # 1 for Ti read from file:
     /storage/coda1/p-amedford6/0/shared/rich_project_chbe-medford/medford-share/data/pseudos_module/espresso/nninc/pbe/van/Ti.UPF
     MD5 check sum: 8e4df49b7f0d34bbd5052bf3f5ea0213
     Pseudo is Ultrasoft, Zval = 12.0
     Generated by new atomic code, or converted to UPF format
     Using radial grid of  851 points,  6 beta functions with:
                l(1) =   0
                l(2) =   0
                l(3) =   1
                l(4) =   1
                l(5) =   2
                l(6) =   2
     Q(r) pseudized with  8 coefficients,  rinner =    1.000   1.000   1.000
                                                       1.000   1.000

     PseudoPot. # 2 for O  read from file:
     /storage/coda1/p-amedford6/0/shared/rich_project_chbe-medford/medford-share/data/pseudos_module/espresso/nninc/pbe/van/O.UPF
     MD5 check sum: 78c19812648e8988a0fe644b0f25305e
     Pseudo is Ultrasoft, Zval =  6.0
     Generated by new atomic code, or converted to UPF format
     Using radial grid of  737 points,  4 beta functions with:
                l(1) =   0
                l(2) =   0
                l(3) =   1
                l(4) =   1
     Q(r) pseudized with  8 coefficients,  rinner =    0.800   0.800   0.800

     PseudoPot. # 3 for H  read from file:
     /storage/coda1/p-amedford6/0/shared/rich_project_chbe-medford/medford-share/data/pseudos_module/espresso/nninc/pbe/van/H.UPF
     MD5 check sum: b5ee9d7bfd3a09ee7748110bda690ff7
     Pseudo is Ultrasoft, Zval =  1.0
     Generated by new atomic code, or converted to UPF format
     Using radial grid of  615 points,  1 beta functions with:
                l(1) =   0
     Q(r) pseudized with  8 coefficients,  rinner =    0.800

     PseudoPot. # 4 for N  read from file:
     /storage/coda1/p-amedford6/0/shared/rich_project_chbe-medford/medford-share/data/pseudos_module/espresso/nninc/pbe/van/N.UPF
     MD5 check sum: 90d10febe142ad51ac9d5be1deb811c4
     Pseudo is Ultrasoft, Zval =  5.0
     Generated by new atomic code, or converted to UPF format
     Using radial grid of  729 points,  4 beta functions with:
                l(1) =   0
                l(2) =   0
                l(3) =   1
                l(4) =   1
     Q(r) pseudized with  8 coefficients,  rinner =    0.800   0.800   0.800

     PseudoPot. # 5 for C  read from file:
     /storage/coda1/p-amedford6/0/shared/rich_project_chbe-medford/medford-share/data/pseudos_module/espresso/nninc/pbe/van/C.UPF
     MD5 check sum: 1a69bf6b8db32088f5b2163dbdb77a27
     Pseudo is Ultrasoft, Zval =  4.0
     Generated by new atomic code, or converted to UPF format
     Using radial grid of  721 points,  4 beta functions with:
                l(1) =   0
                l(2) =   0
                l(3) =   1
                l(4) =   1
     Q(r) pseudized with  8 coefficients,  rinner =    0.800   0.800   0.800

     atomic species   valence    mass     pseudopotential
        Ti1           12.00    47.86700     Ti( 1.00)
        O1             6.00    15.99900     O ( 1.00)
        H1             1.00     1.00800     H ( 1.00)
        N1             5.00    14.00700     N ( 1.00)
        C1             4.00    12.01100     C ( 1.00)

     No symmetry found

   Cartesian axes

     site n.     atom                  positions (alat units)
         1           Ti1 tau(   1) = (   0.0004258   2.9801865   6.0000000  )
         2           Ti1 tau(   2) = (   3.2906075   1.4906267   6.0002472  )
         3           O1  tau(   3) = (   0.0006271   0.0005054   7.9858123  )
         4           O1  tau(   4) = (   3.2906025   0.0005020   7.3038282  )
         5           O1  tau(   5) = (   4.5942328   1.4918067   9.2879030  )
         6           O1  tau(   6) = (   1.9868534   1.4903216   9.2879459  )
         7           Ti1 tau(   7) = (   3.2907910   2.8959150   9.1758416  )
         8           Ti1 tau(   8) = (   0.0015273   1.4827037   9.2680791  )
         9           O1  tau(   9) = (   3.2899722   5.9582610  11.3470199  )
        10           O1  tau(  10) = (   0.0116148   5.9584955  10.6183126  )
        11           O1  tau(  11) = (   1.3017974   1.5038179  12.6264390  )
        12           O1  tau(  12) = (   5.3008627   1.4977989  12.6274213  )
        13           Ti1 tau(  13) = (   6.5569486   2.9952213  12.5532680  )
        14           Ti1 tau(  14) = (   3.2411515   1.4937708  12.4940153  )
        15           O1  tau(  15) = (   0.0420230   0.0496738  14.6358928  )
        16           O1  tau(  16) = (   3.2967895   0.0255587  13.9395418  )
        17           O1  tau(  17) = (   4.5559197   1.4885259  16.1071037  )
        18           O1  tau(  18) = (   2.0591626   1.5161495  16.1621771  )
        19           Ti1 tau(  19) = (   3.3530411   3.0041182  15.7164831  )
        20           Ti1 tau(  20) = (   0.0838170   1.4186333  16.1871295  )
        21           O1  tau(  21) = (   3.2904802   0.0005063   4.7018136  )
        22           O1  tau(  22) = (   0.0186128   5.8515937  17.1570623  )
        23           O1  tau(  23) = (   1.3043587   1.4918075   6.0039043  )
        24           O1  tau(  24) = (   5.2767064   1.4903225   6.0039473  )
        25           Ti1 tau(  25) = (   0.0000382   5.9609847   6.0000000  )
        26           Ti1 tau(  26) = (   3.2902200   4.4714249   6.0002472  )
        27           O1  tau(  27) = (   0.0002396   2.9813036   7.9858123  )
        28           O1  tau(  28) = (   3.2902150   2.9813002   7.3038282  )
        29           O1  tau(  29) = (   4.5938453   4.4726049   9.2879030  )
        30           O1  tau(  30) = (   1.9864658   4.4711199   9.2879459  )
        31           Ti1 tau(  31) = (   3.2891106   5.8743827   9.1763621  )
        32           Ti1 tau(  32) = (   0.0006254   4.4649316   9.2693709  )
        33           O1  tau(  33) = (   3.2942209   2.9913469  11.3437431  )
        34           O1  tau(  34) = (   0.0092240   2.9805883  10.6323155  )
        35           O1  tau(  35) = (   1.3035300   4.4624727  12.6575770  )
        36           O1  tau(  36) = (   5.3036227   4.4740614  12.6577195  )
        37           Ti1 tau(  37) = (   6.5462442   0.0298550  12.5256591  )
        38           Ti1 tau(  38) = (   3.2421849   4.4737490  12.5077532  )
        39           O1  tau(  39) = (   0.0112388   2.9415499  14.8853239  )
        40           O1  tau(  40) = (   3.3099764   2.9718378  13.9238501  )
        41           O1  tau(  41) = (   4.5641009   4.4837371  16.0358624  )
        42           O1  tau(  42) = (   2.0725645   4.4682733  16.0457710  )
        43           Ti1 tau(  43) = (   3.3278145   0.0095312  15.7444629  )
        44           Ti1 tau(  44) = (   0.0453891   4.6133464  15.7643304  )
        45           O1  tau(  45) = (   3.2900926   2.9813045   4.7018136  )
        46           O1  tau(  46) = (   1.3039711   4.4726057   6.0039043  )
        47           O1  tau(  47) = (   5.2763189   4.4711207   6.0039473  )
        48           H1  tau(  48) = (   4.6525291   2.0178258  18.2241430  )
        49           N1  tau(  49) = (   6.4431608   2.5827981  18.1004554  )
        50           C1  tau(  50) = (   0.9260493   3.0590344  18.7174074  )
        51           H1  tau(  51) = (   0.8415052   3.4111086  19.7359056  )
        52           H1  tau(  52) = (   1.8727361   3.0611994  18.2251121  )
        53           N1  tau(  53) = (   5.2929592   2.6053404  18.7594781  )

     number of k points=    10  Fermi-Dirac smearing, width (Ry)=  0.0073
                       cart. coord. in units 2pi/alat
        k(    1) = (   0.0000000   0.0000000   0.0000000), wk =   0.1250000
        k(    2) = (   0.0000000   0.0419351   0.0000000), wk =   0.2500000
        k(    3) = (   0.0000000  -0.0838702   0.0000000), wk =   0.1250000
        k(    4) = (   0.0379955   0.0000049   0.0000000), wk =   0.2500000
        k(    5) = (   0.0379955   0.0419400   0.0000000), wk =   0.2500000
        k(    6) = (   0.0379955  -0.0838652   0.0000000), wk =   0.2500000
        k(    7) = (   0.0379955  -0.0419301   0.0000000), wk =   0.2500000
        k(    8) = (  -0.0759910  -0.0000099   0.0000000), wk =   0.1250000
        k(    9) = (  -0.0759910   0.0419252   0.0000000), wk =   0.2500000
        k(   10) = (  -0.0759910  -0.0838800   0.0000000), wk =   0.1250000

     Initial potential from superposition of free atoms

     starting charge  378.99916, renormalised to  395.00000

     negative rho (up, down):  1.717E-02 0.000E+00

     %%%%%%%%%%%%%%%%%%%%%%%%%%%%%%%%%%%%%%%%%%%%%%%%%%%%%%%%%%%%%%%%%%%%%%%%
     %                                                                      %
     % You are using vdW-DF, which was implemented by the Thonhauser group. %
     % Please cite the following two papers that made this development      %
     % possible and the two reviews that describe the various versions:     %
     %                                                                      %
     %   T. Thonhauser et al., PRL 115, 136402 (2015).                      %
     %   T. Thonhauser et al., PRB 76, 125112 (2007).                       %
     %   K. Berland et al., Rep. Prog. Phys. 78, 066501 (2015).             %
     %   D.C. Langreth et al., J. Phys.: Condens. Matter 21, 084203 (2009). %
     %                                                                      %
     %                                                                      %
     % If you are calculating the stress with vdW-DF, please also cite:     %
     %                                                                      %
     %   R. Sabatini et al., J. Phys.: Condens. Matter 24, 424209 (2012).   %
     %                                                                      %
     %%%%%%%%%%%%%%%%%%%%%%%%%%%%%%%%%%%%%%%%%%%%%%%%%%%%%%%%%%%%%%%%%%%%%%%%

     Adding external electric field

     Computed dipole along edir(3) :
        Dipole               -8.7897 Ry au,        -22.3411 Debye
        Dipole field         -0.0166 Ry au,

        Potential amp.        1.5376 Ry
        Total length         46.3494 bohr

     Starting wfcs are  299 atomic wfcs
  @ DRIVER MODE: Message from server: STATUS
  @ DRIVER MODE: Message from server: POSDATA
  @ DRIVER MODE: Reading and sharing cell
  @ DRIVER MODE: Reading and sharing positions
  @ DRIVER MODE: Received positions

     Self-consistent Calculation

     iteration #  1     ecut=    29.40 Ry     beta= 0.05
     Davidson diagonalization with overlap
     c_bands:  1 eigenvalues not converged
     c_bands:  1 eigenvalues not converged
     c_bands:  1 eigenvalues not converged
     c_bands:  2 eigenvalues not converged
     c_bands:  2 eigenvalues not converged
     c_bands:  1 eigenvalues not converged
     c_bands:  2 eigenvalues not converged
     ethr =  1.00E-05,  avg # of iterations = 18.8

[...]

     total energy              =   -2593.22879046 Ry
     estimated scf accuracy    <    3846.22185636 Ry

     iteration #  2     ecut=    29.40 Ry     beta= 0.05
     Davidson diagonalization with overlap
     ethr =  1.00E-02,  avg # of iterations = 22.3

[...]

     iteration # 66     ecut=    29.40 Ry     beta= 0.05
     Davidson diagonalization with overlap
     c_bands:  2 eigenvalues not converged
     ethr =  8.60E-11,  avg # of iterations = 10.8

[...]

     total energy              =   -2939.05442828 Ry
     estimated scf accuracy    <       0.00000008 Ry

     iteration # 72     ecut=    29.40 Ry     beta= 0.05
     Davidson diagonalization with overlap
     ethr =  2.14E-11,  avg # of iterations =  3.2

     negative rho (up, down):  1.683E-02 0.000E+00

     Adding external electric field

     Computed dipole along edir(3) :
        Dipole                0.0807 Ry au,          0.2052 Debye
        Dipole field          0.0002 Ry au,

        Potential amp.       -0.0141 Ry
        Total length         46.3494 bohr

     End of self-consistent calculation

          k = 0.0000 0.0000 0.0000 ( 18029 PWs)   bands (ev):

   -56.2645 -56.2409 -56.2276 -56.2068 -56.1478 -56.1451 -56.1105 -56.1088
   -56.0718 -56.0621 -56.0365 -56.0294 -55.9041 -55.7007 -55.2446 -55.2105
   -32.8250 -32.7292 -32.6408 -32.6070 -32.5724 -32.5709 -32.5542 -32.5317
   -32.4865 -32.4845 -32.4796 -32.4679 -32.4377 -32.4110 -32.4063 -32.3933
   -32.3866 -32.3837 -32.3730 -32.3706 -32.3508 -32.3331 -32.3185 -32.2978
   -32.2931 -32.2872 -32.2862 -32.2723 -32.2654 -32.2648 -32.2526 -32.2308
   -32.2161 -32.2157 -32.1990 -32.1865 -32.1720 -32.1537 -32.1222 -32.0502
   -31.9261 -31.8605 -31.6528 -31.5618 -31.5395 -31.4695 -31.3828 -31.2717
   -17.6135 -17.0451 -16.7712 -16.5581 -16.4584 -16.4385 -16.2941 -16.1530
   -16.0578 -15.9743 -15.9399 -15.8732 -15.8616 -15.8056 -15.7965 -15.7855
   -15.7625 -15.7442 -15.7309 -15.6848 -15.6744 -15.6427 -15.6324 -15.6106
   -15.5673 -15.4805 -15.4371 -15.4034 -15.3488 -14.7966 -13.7473 -13.6304
   -11.9872  -7.0554  -5.2786  -4.4116  -4.2582  -4.1666  -4.1602  -4.1336
    -3.9597  -3.8377  -3.6665  -3.5886  -3.4890  -3.4437  -3.4417  -3.4138
    -3.3257  -3.2011  -3.1741  -3.1054  -3.0745  -3.0621  -3.0577  -3.0371
    -2.9966  -2.9540  -2.9447  -2.8773  -2.8459  -2.7776  -2.7005  -2.6752
    -2.6000  -2.5792  -2.5508  -2.5370  -2.5344  -2.5262  -2.5016  -2.4750
    -2.4068  -2.3059  -2.2279  -2.1332  -2.0631  -1.9939  -1.9310  -1.8874
    -1.8270  -1.7872  -1.7483  -1.7224  -1.6535  -1.5849  -1.5060  -1.4643
    -1.4013  -1.3664  -1.3147  -1.2469  -1.1879  -1.1321  -1.0574  -1.0461
    -1.0427  -1.0241  -0.9927  -0.8149  -0.7673  -0.7563  -0.7414  -0.6951
    -0.6389  -0.6052  -0.5003  -0.4845  -0.4434  -0.4255  -0.3511  -0.3308
    -0.2965  -0.2876  -0.2627  -0.2002  -0.1096  -0.0924  -0.0681  -0.0194
     0.0280   0.1792   0.3673   0.4256   0.4751   0.6955   0.7756   0.7777
     0.9658   1.3509   1.3977   1.5570   2.7374   2.8504   2.9411   2.9648
     2.9888   3.0836   3.1129   3.3183   3.3237   3.3646   3.3749

[...]

          k = 0.0380-0.0419 0.0000 ( 17876 PWs)   bands (ev):

[...]

          k =-0.0760-0.0000 0.0000 ( 17886 PWs)   bands (ev):

[...]

          k =-0.0760-0.0839 0.0000 ( 17948 PWs)   bands (ev):

   -56.2502 -56.2416 -56.2238 -56.2238 -56.1375 -56.1297 -56.1257 -56.1191
   -56.0547 -56.0521 -56.0470 -56.0458 -55.9028 -55.7019 -55.2275 -55.2275
   -32.6305 -32.6256 -32.5444 -32.5443 -32.5329 -32.5180 -32.5172 -32.5170
   -32.4850 -32.4694 -32.4647 -32.4490 -32.4184 -32.4034 -32.3979 -32.3944
   -32.3851 -32.3844 -32.3819 -32.3793 -32.3449 -32.3430 -32.3430 -32.3404
   -32.3373 -32.3371 -32.3241 -32.3217 -32.2898 -32.2787 -32.2771 -32.2683
   -32.2672 -32.2624 -32.2608 -32.2343 -32.2310 -32.1571 -32.1303 -32.0577
   -31.9286 -31.9274 -31.5522 -31.5522 -31.4654 -31.4653 -31.4262 -31.4261
   -17.6064 -16.4714 -16.4378 -16.2939 -16.2260 -16.2016 -16.1857 -16.1627
   -16.0263 -15.9792 -15.9693 -15.9436 -15.9143 -15.9083 -15.8495 -15.8348
   -15.8236 -15.8153 -15.8051 -15.7526 -15.7484 -15.7396 -15.7180 -15.7130
   -15.6895 -15.6574 -15.6012 -15.5994 -15.2308 -15.1883 -13.7320 -13.7320
   -12.0023  -6.9781  -5.2358  -3.8208  -3.7462  -3.7114  -3.5663  -3.4403
    -3.4239  -3.4210  -3.2773  -3.2320  -3.2133  -3.1909  -3.1331  -3.1169
    -3.1066  -3.0847  -3.0697  -3.0567  -3.0311  -3.0014  -2.9883  -2.9675
    -2.9577  -2.9394  -2.9217  -2.8971  -2.8928  -2.8763  -2.8354  -2.8261
    -2.8013  -2.7823  -2.6107  -2.5547  -2.5381  -2.4405  -2.4385  -2.4121
    -2.3766  -2.3309  -2.3107  -2.2604  -2.2203  -2.1865  -2.0510  -1.9967
    -1.9833  -1.9345  -1.9143  -1.8515  -1.7632  -1.7299  -1.6897  -1.6552
    -1.5650  -1.5200  -1.5101  -1.4677  -1.4221  -1.4106  -1.3368  -1.2862
    -1.2227  -1.2211  -1.2142  -1.1710  -1.0561  -1.0395  -1.0253  -1.0228
    -0.9757  -0.9653  -0.9118  -0.8250  -0.7044  -0.6490  -0.6197  -0.4503
    -0.3685  -0.2984  -0.1944  -0.1539  -0.1076  -0.0848  -0.0288   0.0360
     0.0428   0.1040   0.1288   0.2160   0.2274   0.2344   0.3064   1.1382
     1.1388   1.2177   1.2179   1.5536   2.6960   3.1152   3.1486   3.1752
     3.1847   3.3451   3.3697   3.4090   3.4114   3.4831   3.5080

     the Fermi energy is     2.8803 ev

!    total energy              =   -2939.05444032 Ry
     estimated scf accuracy    <       0.00000006 Ry
     smearing contrib. (-TS)   =      -0.03335787 Ry
     internal energy E=F+TS    =   -2939.02108246 Ry

     The total energy is F=E-TS. E is the sum of the following terms:
     one-electron contribution =  -24157.12944317 Ry
     hartree contribution      =   12161.80864470 Ry
     xc contribution           =    -485.17682769 Ry
     ewald contribution        =    9541.47653140 Ry
     electric field correction =       0.00001230 Ry

     convergence has been achieved in  72 iterations

     Forces acting on atoms (cartesian axes, Ry/au):

     atom    1 type  1   force =     0.00009285   -0.00024866    0.09468089
     atom    2 type  1   force =     0.00009821   -0.00053814   -0.17675026
     atom    3 type  2   force =     0.00012003   -0.00001228   -0.02173757
     atom    4 type  2   force =     0.00001657   -0.00163521    0.05555269
     atom    5 type  2   force =    -0.01059677   -0.00065511    0.00569827
     atom    6 type  2   force =     0.01213991    0.00003165    0.00514313
     atom    7 type  1   force =     0.00034966    0.00220000   -0.01238035
     atom    8 type  1   force =     0.00038283    0.00263045    0.00923628
     atom    9 type  2   force =     0.00021037   -0.00033290   -0.00022366
     atom   10 type  2   force =    -0.00209239    0.00002506   -0.00885130
     atom   11 type  2   force =     0.00084828   -0.00014528    0.00004181
     atom   12 type  2   force =    -0.00025814   -0.00009351    0.00043431
     atom   13 type  1   force =    -0.00036065   -0.00039560    0.00077965
     atom   14 type  1   force =     0.00055758   -0.00043110    0.00066843
     atom   15 type  2   force =    -0.00020218   -0.00025228    0.00027317
     atom   16 type  2   force =    -0.00003634   -0.00041303    0.00073322
     atom   17 type  2   force =     0.00059668   -0.00032685   -0.00029880
     atom   18 type  2   force =     0.00007569   -0.00036001   -0.00042282
     atom   19 type  1   force =    -0.00061454   -0.00053333    0.00005443
     atom   20 type  1   force =     0.00058959    0.00017092   -0.00063515
     atom   21 type  2   force =     0.00009493   -0.00011567    0.10356589
     atom   22 type  2   force =    -0.00015632    0.00007065    0.00097742
     atom   23 type  2   force =    -0.07098003   -0.00024511   -0.02724045
     atom   24 type  2   force =     0.07096748    0.00023133   -0.02729295
     atom   25 type  1   force =     0.00027618   -0.00026082    0.09409323
     atom   26 type  1   force =     0.00011454   -0.00041222   -0.17691574
     atom   27 type  2   force =     0.00010934   -0.00041459   -0.02062464
     atom   28 type  2   force =     0.00010233   -0.00137069    0.05523743
     atom   29 type  2   force =    -0.01066481   -0.00021889    0.00494096
     atom   30 type  2   force =     0.01208313   -0.00000582    0.00430607
     atom   31 type  1   force =     0.00036797    0.00374938   -0.01357112
     atom   32 type  1   force =     0.00032733   -0.00313606    0.00921907
     atom   33 type  2   force =     0.00004820   -0.00000351    0.00008785
     atom   34 type  2   force =    -0.00266091    0.00248986   -0.00569630
     atom   35 type  2   force =     0.00102103    0.00033328    0.00008892
     atom   36 type  2   force =    -0.00074540    0.00005392    0.00080601
     atom   37 type  1   force =    -0.00056885    0.00022231   -0.00005207
     atom   38 type  1   force =     0.00059965    0.00015233   -0.00025840
     atom   39 type  2   force =     0.00037671   -0.00005965   -0.00018577
     atom   40 type  2   force =     0.00008521   -0.00009768   -0.00045198
     atom   41 type  2   force =     0.00063141   -0.00003595   -0.00037893
     atom   42 type  2   force =     0.00033982    0.00003511   -0.00012493
     atom   43 type  1   force =    -0.00103033   -0.00029357   -0.00100756
     atom   44 type  1   force =     0.00031558   -0.00100906   -0.00031068
     atom   45 type  2   force =     0.00008496   -0.00014301    0.10355446
     atom   46 type  2   force =    -0.07099699   -0.00015501   -0.02723868
     atom   47 type  2   force =     0.07098671    0.00022961   -0.02726353
     atom   48 type  3   force =    -0.00071877   -0.00019341    0.00053468
     atom   49 type  4   force =     0.00001221   -0.00012879   -0.00193082
     atom   50 type  5   force =    -0.00572615    0.00147000    0.00524490
     atom   51 type  3   force =    -0.00184926    0.00063934    0.00147309
     atom   52 type  3   force =     0.00584350   -0.00005106   -0.00455240
     atom   53 type  4   force =    -0.00060767   -0.00001131   -0.00102937

     Total force =     0.365257     Total SCF correction =     0.000800
  @ DRIVER MODE: Message from server: STATUS
  @ DRIVER MODE: Message from server: GETFORCE
  @ DRIVER MODE: Returning v,forces,stress,ensemble

     Writing output data file ./calc.save/
  @ DRIVER MODE: Message from server: EXIT
  @ DRIVE MODE: Exiting

     General routines

     Parallel routines

   This run was terminated on:   5:58:49  24Aug2021

   JOB DONE.