     Program PWSCF v.6.7GPU starts on  8Sep2021 at 23: 0: 7

     R & G space division:  proc/nbgrp/npool/nimage =      10
     Reading input from /storage/home/hcoda1/3/ntian30/research/carbon/CxH_vib/CH2_calc/ads_slab/CH2NH_a/out_0004/pw.inp
Warning: card &CELL ignored
Warning: card   CELL_DYNAMICS='IPI', ignored
Warning: card / ignored

     Current dimensions of program PWSCF are:
     Max number of different atomic species (ntypx) = 10
     Max number of k-points (npk) =  40000
     Max angular momentum in pseudopotentials (lmaxx) =  3
     Presently no symmetry can be used with electric field

     Message from routine cell_base_init:
     DEPRECATED: use true lattice parameter, not A to a.u. conversion factor

     IMPORTANT: XC functional enforced from input :
     Exchange-correlation= BEEF-VDW
                           (   1   4  43  14   2   0   0)
     Any further DFT definition will be discarded
     Please, verify this is what you really want

  @ DRIVER MODE: Connecting to
 qe_1139763_2767389.sched-torque.pace.gatech.edumuch6oqa_scratch
  using UNIX socket
  @ DRIVER MODE: Message from server: STATUS
  @ DRIVER MODE: Message from server: INIT
  @ DRIVER MODE: Receiving replica           0          -1
  @ DRIVER MODE: Receiving encoded integer          25
  @ DRIVER MODE:  SCF:  T  FORCE:  T  STRESS:  F  VC:  F  ENSEMBLE:  F
  @ DRIVER MODE:  SCF:  T  FORCE:  T  STRESS:  F  VC:  F  ENSEMBLE:  F

     Using Slab Decomposition

     bravais-lattice index     =            0
     lattice parameter (alat)  =       1.8897  a.u.
     unit-cell volume          =    6658.9804 (a.u.)^3
     number of atoms/cell      =           52
     number of atomic types    =            5
     number of electrons       =       390.00
     number of Kohn-Sham states=          205
     kinetic-energy cutoff     =      29.3995  Ry
     charge density cutoff     =     293.9946  Ry
     scf convergence threshold =      7.3E-08
     mixing beta               =       0.0500
     number of iterations used =            8  plain     mixing
     Exchange-correlation= BEEF-VDW
                           (   1   4  43  14   2   0   0)

     celldm(1)=   1.889726  celldm(2)=   0.000000  celldm(3)=   0.000000
     celldm(4)=   0.000000  celldm(5)=   0.000000  celldm(6)=   0.000000

     crystal axes: (cart. coord. in units of alat)
               a(1) = (   6.579727   0.000000   0.000000 )
               a(2) = (  -0.000775   5.961596   0.000000 )
               a(3) = (   0.000000   0.000000  25.155947 )

     reciprocal axes: (cart. coord. in units 2 pi/alat)
               b(1) = (  0.151982  0.000020  0.000000 )
               b(2) = (  0.000000  0.167740  0.000000 )
               b(3) = (  0.000000  0.000000  0.039752 )

     PseudoPot. # 1 for Ti read from file:
     /storage/coda1/p-amedford6/0/shared/rich_project_chbe-medford/medford-share/data/pseudos_module/espresso/nninc/pbe/van/Ti.UPF
     MD5 check sum: 8e4df49b7f0d34bbd5052bf3f5ea0213
     Pseudo is Ultrasoft, Zval = 12.0
     Generated by new atomic code, or converted to UPF format
     Using radial grid of  851 points,  6 beta functions with:
                l(1) =   0
                l(2) =   0
                l(3) =   1
                l(4) =   1
                l(5) =   2
                l(6) =   2
     Q(r) pseudized with  8 coefficients,  rinner =    1.000   1.000   1.000
                                                       1.000   1.000

     PseudoPot. # 2 for O  read from file:
     /storage/coda1/p-amedford6/0/shared/rich_project_chbe-medford/medford-share/data/pseudos_module/espresso/nninc/pbe/van/O.UPF
     MD5 check sum: 78c19812648e8988a0fe644b0f25305e
     Pseudo is Ultrasoft, Zval =  6.0
     Generated by new atomic code, or converted to UPF format
     Using radial grid of  737 points,  4 beta functions with:
                l(1) =   0
                l(2) =   0
                l(3) =   1
                l(4) =   1
     Q(r) pseudized with  8 coefficients,  rinner =    0.800   0.800   0.800

     PseudoPot. # 3 for N  read from file:
     /storage/coda1/p-amedford6/0/shared/rich_project_chbe-medford/medford-share/data/pseudos_module/espresso/nninc/pbe/van/N.UPF
     MD5 check sum: 90d10febe142ad51ac9d5be1deb811c4
     Pseudo is Ultrasoft, Zval =  5.0
     Generated by new atomic code, or converted to UPF format
     Using radial grid of  729 points,  4 beta functions with:
                l(1) =   0
                l(2) =   0
                l(3) =   1
                l(4) =   1
     Q(r) pseudized with  8 coefficients,  rinner =    0.800   0.800   0.800

     PseudoPot. # 4 for C  read from file:
     /storage/coda1/p-amedford6/0/shared/rich_project_chbe-medford/medford-share/data/pseudos_module/espresso/nninc/pbe/van/C.UPF
     MD5 check sum: 1a69bf6b8db32088f5b2163dbdb77a27
     Pseudo is Ultrasoft, Zval =  4.0
     Generated by new atomic code, or converted to UPF format
     Using radial grid of  721 points,  4 beta functions with:
                l(1) =   0
                l(2) =   0
                l(3) =   1
                l(4) =   1
     Q(r) pseudized with  8 coefficients,  rinner =    0.800   0.800   0.800

     PseudoPot. # 5 for H  read from file:
     /storage/coda1/p-amedford6/0/shared/rich_project_chbe-medford/medford-share/data/pseudos_module/espresso/nninc/pbe/van/H.UPF
     MD5 check sum: b5ee9d7bfd3a09ee7748110bda690ff7
     Pseudo is Ultrasoft, Zval =  1.0
     Generated by new atomic code, or converted to UPF format
     Using radial grid of  615 points,  1 beta functions with:
                l(1) =   0
     Q(r) pseudized with  8 coefficients,  rinner =    0.800

     atomic species   valence    mass     pseudopotential
        Ti1           12.00    47.86700     Ti( 1.00)
        O1             6.00    15.99900     O ( 1.00)
        N1             5.00    14.00700     N ( 1.00)
        C1             4.00    12.01100     C ( 1.00)
        H1             1.00     1.00800     H ( 1.00)

     No symmetry found

   Cartesian axes

     site n.     atom                  positions (alat units)
         1           Ti1 tau(   1) = (   0.0004258   2.9801865   6.0000000  )
         2           Ti1 tau(   2) = (   3.2906075   1.4906267   6.0002472  )
         3           O1  tau(   3) = (   0.0006271   0.0005054   7.9858123  )
         4           O1  tau(   4) = (   3.2906025   0.0005020   7.3038282  )
         5           O1  tau(   5) = (   4.5942328   1.4918067   9.2879030  )
         6           O1  tau(   6) = (   1.9868534   1.4903216   9.2879459  )
         7           Ti1 tau(   7) = (   3.2907910   2.8959150   9.1758416  )
         8           Ti1 tau(   8) = (   0.0015273   1.4827037   9.2680791  )
         9           O1  tau(   9) = (   3.2859541   5.9290403  11.3715426  )
        10           O1  tau(  10) = (   0.0116148   5.9584955  10.6183126  )
        11           O1  tau(  11) = (   1.2917987   1.4688796  12.6526629  )
        12           O1  tau(  12) = (   5.2888266   1.4686376  12.6403033  )
        13           Ti1 tau(  13) = (   0.0074927   2.9495069  12.5376589  )
        14           Ti1 tau(  14) = (   3.2957121   1.4606513  12.5174744  )
        15           O1  tau(  15) = (   6.5702453   0.0264740  14.6787910  )
        16           O1  tau(  16) = (   3.3001739   5.9406727  13.9930656  )
        17           O1  tau(  17) = (   4.5367710   1.4643441  16.2106543  )
        18           O1  tau(  18) = (   2.0349547   1.4576396  16.1973481  )
        19           Ti1 tau(  19) = (   3.2821410   2.9383233  15.7467721  )
        20           Ti1 tau(  20) = (   6.5624771   1.3975196  16.0657228  )
        21           O1  tau(  21) = (   3.2904802   0.0005063   4.7018136  )
        22           O1  tau(  22) = (   0.0049924   5.8117904  17.2112648  )
        23           O1  tau(  23) = (   1.3043587   1.4918075   6.0039043  )
        24           O1  tau(  24) = (   5.2767064   1.4903225   6.0039473  )
        25           Ti1 tau(  25) = (   0.0000382   5.9609847   6.0000000  )
        26           Ti1 tau(  26) = (   3.2902200   4.4714249   6.0002472  )
        27           O1  tau(  27) = (   0.0002396   2.9813036   7.9858123  )
        28           O1  tau(  28) = (   3.2902150   2.9813002   7.3038282  )
        29           O1  tau(  29) = (   4.5938453   4.4726049   9.2879030  )
        30           O1  tau(  30) = (   1.9864658   4.4711199   9.2879459  )
        31           Ti1 tau(  31) = (   3.2891106   5.8743827   9.1763621  )
        32           Ti1 tau(  32) = (   0.0006254   4.4649316   9.2693709  )
        33           O1  tau(  33) = (   3.2878059   2.9597088  11.3652031  )
        34           O1  tau(  34) = (   0.0092240   2.9805883  10.6323155  )
        35           O1  tau(  35) = (   1.2887225   4.4431869  12.6829221  )
        36           O1  tau(  36) = (   5.2901277   4.4428847  12.6690855  )
        37           Ti1 tau(  37) = (   0.0035388   5.9380168  12.5099366  )
        38           Ti1 tau(  38) = (   3.2962120   4.4389810  12.5267566  )
        39           O1  tau(  39) = (   6.5655450   2.9014274  14.9049457  )
        40           O1  tau(  40) = (   3.2937888   2.9365130  13.9572806  )
        41           O1  tau(  41) = (   4.5374039   4.4072578  16.1608974  )
        42           O1  tau(  42) = (   2.0345115   4.4188705  16.1151926  )
        43           Ti1 tau(  43) = (   3.2925710   5.9161036  15.7896908  )
        44           Ti1 tau(  44) = (   0.0121651   4.6006060  15.8502786  )
        45           O1  tau(  45) = (   3.2900926   2.9813045   4.7018136  )
        46           O1  tau(  46) = (   1.3039711   4.4726057   6.0039043  )
        47           O1  tau(  47) = (   5.2763189   4.4711207   6.0039473  )
        48           N1  tau(  48) = (   6.5581919   2.6918180  17.9522317  )
        49           C1  tau(  49) = (   0.8403426   2.5546117  18.8965076  )
        50           H1  tau(  50) = (   0.6793733   2.9585088  19.8916666  )
        51           H1  tau(  51) = (   1.7584391   2.0155774  18.6961775  )
        52           H1  tau(  52) = (   5.7198555   3.1867788  18.2393814  )

     number of k points=    10  Fermi-Dirac smearing, width (Ry)=  0.0073
                       cart. coord. in units 2pi/alat
        k(    1) = (   0.0000000   0.0000000   0.0000000), wk =   0.1250000
        k(    2) = (   0.0000000   0.0419351   0.0000000), wk =   0.2500000
        k(    3) = (   0.0000000  -0.0838702   0.0000000), wk =   0.1250000
        k(    4) = (   0.0379955   0.0000049   0.0000000), wk =   0.2500000
        k(    5) = (   0.0379955   0.0419400   0.0000000), wk =   0.2500000
        k(    6) = (   0.0379955  -0.0838652   0.0000000), wk =   0.2500000
        k(    7) = (   0.0379955  -0.0419301   0.0000000), wk =   0.2500000
        k(    8) = (  -0.0759910  -0.0000099   0.0000000), wk =   0.1250000
        k(    9) = (  -0.0759910   0.0419252   0.0000000), wk =   0.2500000
        k(   10) = (  -0.0759910  -0.0838800   0.0000000), wk =   0.1250000

     Initial potential from superposition of free atoms

     starting charge  373.99917, renormalised to  390.00000

     negative rho (up, down):  1.699E-02 0.000E+00

     %%%%%%%%%%%%%%%%%%%%%%%%%%%%%%%%%%%%%%%%%%%%%%%%%%%%%%%%%%%%%%%%%%%%%%%%
     %                                                                      %
     % You are using vdW-DF, which was implemented by the Thonhauser group. %
     % Please cite the following two papers that made this development      %
     % possible and the two reviews that describe the various versions:     %
     %                                                                      %
     %   T. Thonhauser et al., PRL 115, 136402 (2015).                      %
     %   T. Thonhauser et al., PRB 76, 125112 (2007).                       %
     %   K. Berland et al., Rep. Prog. Phys. 78, 066501 (2015).             %
     %   D.C. Langreth et al., J. Phys.: Condens. Matter 21, 084203 (2009). %
     %                                                                      %
     %                                                                      %
     % If you are calculating the stress with vdW-DF, please also cite:     %
     %                                                                      %
     %   R. Sabatini et al., J. Phys.: Condens. Matter 24, 424209 (2012).   %
     %                                                                      %
     %%%%%%%%%%%%%%%%%%%%%%%%%%%%%%%%%%%%%%%%%%%%%%%%%%%%%%%%%%%%%%%%%%%%%%%%

     Adding external electric field

     Computed dipole along edir(3) :
        Dipole               -6.0480 Ry au,        -15.3725 Debye
        Dipole field         -0.0114 Ry au,

        Potential amp.        1.0580 Ry
        Total length         46.3494 bohr

     Starting wfcs are  295 atomic wfcs
  @ DRIVER MODE: Message from server: STATUS
  @ DRIVER MODE: Message from server: POSDATA
  @ DRIVER MODE: Reading and sharing cell
  @ DRIVER MODE: Reading and sharing positions
  @ DRIVER MODE: Received positions

     Self-consistent Calculation

     iteration #  1     ecut=    29.40 Ry     beta= 0.05
     Davidson diagonalization with overlap
     c_bands:  1 eigenvalues not converged
     c_bands:  1 eigenvalues not converged
     ethr =  1.00E-05,  avg # of iterations = 16.8

[...]

     total energy              =   -2758.76674934 Ry
     estimated scf accuracy    <    1760.48978888 Ry

     iteration #  2     ecut=    29.40 Ry     beta= 0.05
     Davidson diagonalization with overlap
     ethr =  1.00E-02,  avg # of iterations = 18.2

[...]

     iteration # 47     ecut=    29.40 Ry     beta= 0.05
     Davidson diagonalization with overlap
     c_bands:  1 eigenvalues not converged
     ethr =  5.50E-09,  avg # of iterations = 11.9

[...]

     total energy              =   -2919.11577654 Ry
     estimated scf accuracy    <       0.00000011 Ry

     iteration # 59     ecut=    29.40 Ry     beta= 0.05
     Davidson diagonalization with overlap
     ethr =  2.77E-11,  avg # of iterations = 10.1

     negative rho (up, down):  1.721E-02 0.000E+00

     Adding external electric field

     Computed dipole along edir(3) :
        Dipole                1.2587 Ry au,          3.1992 Debye
        Dipole field          0.0024 Ry au,

        Potential amp.       -0.2202 Ry
        Total length         46.3494 bohr

     End of self-consistent calculation

          k = 0.0000 0.0000 0.0000 ( 18029 PWs)   bands (ev):

   -55.5468 -55.5101 -55.5083 -55.4742 -55.4389 -55.4222 -55.3846 -55.3620
   -55.3619 -55.3369 -55.3275 -55.3161 -55.3035 -55.1311 -54.5291 -54.4951
   -32.1134 -31.9993 -31.9096 -31.8679 -31.8616 -31.8512 -31.8420 -31.8374
   -31.7980 -31.7864 -31.7550 -31.7532 -31.7529 -31.7177 -31.7001 -31.6821
   -31.6769 -31.6689 -31.6628 -31.6589 -31.6207 -31.6175 -31.6022 -31.5921
   -31.5654 -31.5639 -31.5634 -31.5537 -31.5491 -31.5438 -31.5334 -31.5249
   -31.5158 -31.5152 -31.5108 -31.4830 -31.4762 -31.4701 -31.4654 -31.4467
   -31.3547 -31.2730 -30.9381 -30.8449 -30.8228 -30.7546 -30.6678 -30.5569
   -16.5441 -16.3422 -16.0762 -15.8994 -15.7958 -15.7357 -15.5990 -15.5233
   -15.4455 -15.3431 -15.2524 -15.1858 -15.1696 -15.1491 -15.1443 -15.0836
   -15.0801 -15.0552 -15.0385 -15.0370 -14.9825 -14.9751 -14.9434 -14.9313
   -14.9205 -14.8474 -14.7638 -14.6951 -14.6350 -14.2075 -13.0317 -12.9144
    -9.3255  -6.2680  -4.6966  -3.7011  -3.5479  -3.4538  -3.4426  -3.4211
    -3.2723  -3.1342  -2.9279  -2.8480  -2.8012  -2.7518  -2.7240  -2.7062
    -2.6187  -2.5212  -2.4457  -2.4015  -2.3761  -2.3633  -2.3527  -2.3254
    -2.3133  -2.2800  -2.2411  -2.1969  -2.0947  -2.0069  -1.9653  -1.9310
    -1.8745  -1.8625  -1.8364  -1.8304  -1.8237  -1.8018  -1.7636  -1.7534
    -1.7061  -1.5652  -1.5533  -1.4361  -1.3973  -1.2827  -1.1820  -1.1806
    -1.0940  -1.0907  -1.0225  -0.9676  -0.9380  -0.9298  -0.8790  -0.8306
    -0.7414  -0.6483  -0.5865  -0.5449  -0.5099  -0.4805  -0.4130  -0.3224
    -0.3171  -0.3067  -0.2045  -0.1251  -0.1028  -0.0498  -0.0178   0.0254
     0.0415   0.1520   0.1952   0.2363   0.2544   0.3329   0.3549   0.4105
     0.4157   0.4508   0.4600   0.5266   0.5732   0.5927   0.6426   0.6616
     0.8199   1.0724   1.0797   1.1271   1.4025   1.4328   1.4935   1.6784
     2.0689   2.1166   3.5530   3.6253   3.6904   3.7031   3.7446   3.7898
     3.9573   4.0377   4.0541   4.0584   4.0899

[...]

          k = 0.0380-0.0419 0.0000 ( 17876 PWs)   bands (ev):

[...]

          k =-0.0760-0.0000 0.0000 ( 17886 PWs)   bands (ev):

[...]

          k =-0.0760-0.0839 0.0000 ( 17948 PWs)   bands (ev):

   -55.5323 -55.5245 -55.4912 -55.4912 -55.4348 -55.4110 -55.3957 -55.3658
   -55.3458 -55.3430 -55.3207 -55.3201 -55.3144 -55.1327 -54.5120 -54.5120
   -31.9199 -31.9146 -31.8305 -31.8144 -31.8143 -31.8060 -31.7834 -31.7834
   -31.7608 -31.7534 -31.7461 -31.7443 -31.7390 -31.7009 -31.6794 -31.6760
   -31.6718 -31.6675 -31.6637 -31.6589 -31.6543 -31.6349 -31.6210 -31.6205
   -31.6108 -31.6107 -31.6081 -31.5909 -31.5786 -31.5755 -31.5651 -31.5591
   -31.5563 -31.5563 -31.5455 -31.5450 -31.5132 -31.5002 -31.4995 -31.4889
   -31.3596 -31.3539 -30.8354 -30.8354 -30.7507 -30.7506 -30.7112 -30.7112
   -16.5206 -15.7808 -15.7474 -15.7313 -15.5278 -15.5195 -15.5115 -15.4936
   -15.3331 -15.3192 -15.2933 -15.2769 -15.2452 -15.2417 -15.2110 -15.1788
   -15.1257 -15.1212 -15.1129 -15.1106 -15.0508 -15.0466 -15.0263 -14.9977
   -14.9958 -14.9896 -14.8948 -14.8929 -14.7195 -14.5280 -13.0159 -13.0159
    -9.3297  -6.2637  -4.6793  -3.0558  -2.9945  -2.9343  -2.7373  -2.7337
    -2.7029  -2.6209  -2.5512  -2.5391  -2.5130  -2.4838  -2.4813  -2.4336
    -2.3893  -2.3791  -2.3684  -2.3609  -2.3424  -2.3282  -2.2996  -2.2632
    -2.2543  -2.2234  -2.2108  -2.1852  -2.1833  -2.1470  -2.1232  -2.1090
    -2.0973  -2.0319  -1.9331  -1.8817  -1.7951  -1.7665  -1.7403  -1.7343
    -1.6500  -1.6254  -1.5980  -1.5574  -1.5444  -1.5110  -1.3081  -1.2783
    -1.2686  -1.2546  -1.2307  -1.0815  -1.0719  -1.0218  -0.9907  -0.9442
    -0.8858  -0.8498  -0.8345  -0.7516  -0.7221  -0.6770  -0.6377  -0.5148
    -0.5116  -0.5045  -0.5032  -0.4852  -0.3985  -0.3865  -0.3437  -0.3104
    -0.2693  -0.2550  -0.1900  -0.0079   0.0089   0.0752   0.1819   0.2760
     0.3703   0.4500   0.4702   0.5212   0.5634   0.5838   0.6632   0.7560
     0.7679   0.8361   0.8822   0.9234   0.9276   0.9328   1.8514   1.8520
     1.9365   1.9367   3.6763   3.8008   3.8214   3.8594   3.8775   4.0265
     4.0725   4.1108   4.1326   4.1351   4.2127

     the Fermi energy is     3.6083 ev

!    total energy              =   -2919.11582433 Ry
     estimated scf accuracy    <       0.00000006 Ry
     smearing contrib. (-TS)   =      -0.03732518 Ry
     internal energy E=F+TS    =   -2919.07849915 Ry

     The total energy is F=E-TS. E is the sum of the following terms:
     one-electron contribution =  -24307.20381261 Ry
     hartree contribution      =   12241.00297736 Ry
     xc contribution           =    -480.01668112 Ry
     ewald contribution        =    9627.13602762 Ry
     electric field correction =       0.00298960 Ry

     convergence has been achieved in  59 iterations

     Forces acting on atoms (cartesian axes, Ry/au):

     atom    1 type  1   force =     0.00005133   -0.00015585    0.09379980
     atom    2 type  1   force =    -0.00018682   -0.00019045   -0.17779826
     atom    3 type  2   force =     0.00002631   -0.00021698   -0.02113701
     atom    4 type  2   force =    -0.00001525   -0.00198862    0.05773888
     atom    5 type  2   force =    -0.01107094   -0.00164845    0.00748705
     atom    6 type  2   force =     0.01243453   -0.00098121    0.00636915
     atom    7 type  1   force =    -0.00047515    0.00247267   -0.01334527
     atom    8 type  1   force =     0.00029830    0.00290866    0.00274683
     atom    9 type  2   force =     0.00007643   -0.00007705    0.00013268
     atom   10 type  2   force =    -0.00176615   -0.00226939   -0.00368004
     atom   11 type  2   force =     0.00016734    0.00059682   -0.00029207
     atom   12 type  2   force =     0.00044273    0.00053378   -0.00011007
     atom   13 type  1   force =    -0.00073026   -0.00095613   -0.00027710
     atom   14 type  1   force =     0.00082517    0.00025990   -0.00050195
     atom   15 type  2   force =     0.00022492    0.00050619    0.00004665
     atom   16 type  2   force =    -0.00008047    0.00035519   -0.00064562
     atom   17 type  2   force =     0.00013304    0.00013874    0.00040996
     atom   18 type  2   force =     0.00046015    0.00002257    0.00023967
     atom   19 type  1   force =     0.00021739   -0.00081762    0.00043244
     atom   20 type  1   force =    -0.00001996    0.00093039    0.00058106
     atom   21 type  2   force =     0.00004425   -0.00002486    0.10384713
     atom   22 type  2   force =    -0.00002028    0.00000815    0.00006249
     atom   23 type  2   force =    -0.07060212   -0.00014463   -0.02708216
     atom   24 type  2   force =     0.07048140    0.00032037   -0.02712673
     atom   25 type  1   force =     0.00009318   -0.00017496    0.09359893
     atom   26 type  1   force =    -0.00008901   -0.00027307   -0.17783081
     atom   27 type  2   force =     0.00008275   -0.00045472   -0.02016206
     atom   28 type  2   force =     0.00002441   -0.00169324    0.05723048
     atom   29 type  2   force =    -0.01116029   -0.00114637    0.00694950
     atom   30 type  2   force =     0.01241284   -0.00080394    0.00581113
     atom   31 type  1   force =    -0.00039493    0.00468307   -0.01443229
     atom   32 type  1   force =     0.00037553   -0.00359691    0.00245003
     atom   33 type  2   force =    -0.00000421    0.00057893    0.00039525
     atom   34 type  2   force =    -0.00117748   -0.00059107   -0.00107642
     atom   35 type  2   force =     0.00039123    0.00026172    0.00020340
     atom   36 type  2   force =     0.00014057    0.00033298    0.00017049
     atom   37 type  1   force =    -0.00053141    0.00134137    0.00006985
     atom   38 type  1   force =     0.00087873    0.00007696   -0.00086747
     atom   39 type  2   force =     0.00013740    0.00040569    0.00011755
     atom   40 type  2   force =     0.00018026    0.00019353   -0.00054518
     atom   41 type  2   force =     0.00014769    0.00014211   -0.00075936
     atom   42 type  2   force =     0.00001742    0.00011965   -0.00081746
     atom   43 type  1   force =    -0.00001466    0.00093084    0.00019601
     atom   44 type  1   force =    -0.00011705   -0.00035306   -0.00022367
     atom   45 type  2   force =     0.00004489   -0.00003888    0.10381572
     atom   46 type  2   force =    -0.07061879   -0.00007066   -0.02707768
     atom   47 type  2   force =     0.07049408    0.00034672   -0.02710668
     atom   48 type  3   force =     0.00722253   -0.00800800   -0.00333089
     atom   49 type  4   force =    -0.00362332    0.00281891   -0.00105303
     atom   50 type  5   force =    -0.00012218    0.00052836    0.00081298
     atom   51 type  5   force =    -0.00046229    0.00018823   -0.00026009
     atom   52 type  5   force =    -0.00524378    0.00467361    0.00182427

     Total force =     0.366205     Total SCF correction =     0.000654
  @ DRIVER MODE: Message from server: STATUS
  @ DRIVER MODE: Message from server: GETFORCE
  @ DRIVER MODE: Returning v,forces,stress,ensemble

     Writing output data file ./calc.save/
  @ DRIVER MODE: Message from server: EXIT
  @ DRIVE MODE: Exiting

     General routines

     Parallel routines

   This run was terminated on:  23:15:50   8Sep2021

   JOB DONE.