     Program PWSCF v.6.7GPU starts on 14Sep2021 at 20:53:33

     R & G space division:  proc/nbgrp/npool/nimage =      10
     Reading input from /storage/home/hcoda1/3/ntian30/research/carbon/CxH_vib/CH2_calc/ads_slab/CH2OHN2_a/out_0021/pw.inp
Warning: card &CELL ignored
Warning: card   CELL_DYNAMICS='IPI', ignored
Warning: card / ignored

     Current dimensions of program PWSCF are:
     Max number of different atomic species (ntypx) = 10
     Max number of k-points (npk) =  40000
     Max angular momentum in pseudopotentials (lmaxx) =  3
     Presently no symmetry can be used with electric field

     Message from routine cell_base_init:
     DEPRECATED: use true lattice parameter, not A to a.u. conversion factor

     IMPORTANT: XC functional enforced from input :
     Exchange-correlation= BEEF-VDW
                           (   1   4  43  14   2   0   0)
     Any further DFT definition will be discarded
     Please, verify this is what you really want

  @ DRIVER MODE: Connecting to
 qe_1139763_2840440.sched-torque.pace.gatech.eduzjgbprgw_scratch
  using UNIX socket
  @ DRIVER MODE: Message from server: STATUS
  @ DRIVER MODE: Message from server: INIT
  @ DRIVER MODE: Receiving replica           0          -1
  @ DRIVER MODE: Receiving encoded integer          25
  @ DRIVER MODE:  SCF:  T  FORCE:  T  STRESS:  F  VC:  F  ENSEMBLE:  F
  @ DRIVER MODE:  SCF:  T  FORCE:  T  STRESS:  F  VC:  F  ENSEMBLE:  F

     Using Slab Decomposition

     bravais-lattice index     =            0
     lattice parameter (alat)  =       1.8897  a.u.
     unit-cell volume          =    6658.9804 (a.u.)^3
     number of atoms/cell      =           54
     number of atomic types    =            5
     number of electrons       =       401.00
     number of Kohn-Sham states=          210
     kinetic-energy cutoff     =      29.3995  Ry
     charge density cutoff     =     293.9946  Ry
     scf convergence threshold =      7.3E-08
     mixing beta               =       0.0500
     number of iterations used =            8  plain     mixing
     Exchange-correlation= BEEF-VDW
                           (   1   4  43  14   2   0   0)

     celldm(1)=   1.889726  celldm(2)=   0.000000  celldm(3)=   0.000000
     celldm(4)=   0.000000  celldm(5)=   0.000000  celldm(6)=   0.000000

     crystal axes: (cart. coord. in units of alat)
               a(1) = (   6.579727   0.000000   0.000000 )
               a(2) = (  -0.000775   5.961596   0.000000 )
               a(3) = (   0.000000   0.000000  25.155947 )

     reciprocal axes: (cart. coord. in units 2 pi/alat)
               b(1) = (  0.151982  0.000020  0.000000 )
               b(2) = (  0.000000  0.167740  0.000000 )
               b(3) = (  0.000000  0.000000  0.039752 )

     PseudoPot. # 1 for C  read from file:
     /storage/coda1/p-amedford6/0/shared/rich_project_chbe-medford/medford-share/data/pseudos_module/espresso/nninc/pbe/van/C.UPF
     MD5 check sum: 1a69bf6b8db32088f5b2163dbdb77a27
     Pseudo is Ultrasoft, Zval =  4.0
     Generated by new atomic code, or converted to UPF format
     Using radial grid of  721 points,  4 beta functions with:
                l(1) =   0
                l(2) =   0
                l(3) =   1
                l(4) =   1
     Q(r) pseudized with  8 coefficients,  rinner =    0.800   0.800   0.800

     PseudoPot. # 2 for H  read from file:
     /storage/coda1/p-amedford6/0/shared/rich_project_chbe-medford/medford-share/data/pseudos_module/espresso/nninc/pbe/van/H.UPF
     MD5 check sum: b5ee9d7bfd3a09ee7748110bda690ff7
     Pseudo is Ultrasoft, Zval =  1.0
     Generated by new atomic code, or converted to UPF format
     Using radial grid of  615 points,  1 beta functions with:
                l(1) =   0
     Q(r) pseudized with  8 coefficients,  rinner =    0.800

     PseudoPot. # 3 for O  read from file:
     /storage/coda1/p-amedford6/0/shared/rich_project_chbe-medford/medford-share/data/pseudos_module/espresso/nninc/pbe/van/O.UPF
     MD5 check sum: 78c19812648e8988a0fe644b0f25305e
     Pseudo is Ultrasoft, Zval =  6.0
     Generated by new atomic code, or converted to UPF format
     Using radial grid of  737 points,  4 beta functions with:
                l(1) =   0
                l(2) =   0
                l(3) =   1
                l(4) =   1
     Q(r) pseudized with  8 coefficients,  rinner =    0.800   0.800   0.800

     PseudoPot. # 4 for Ti read from file:
     /storage/coda1/p-amedford6/0/shared/rich_project_chbe-medford/medford-share/data/pseudos_module/espresso/nninc/pbe/van/Ti.UPF
     MD5 check sum: 8e4df49b7f0d34bbd5052bf3f5ea0213
     Pseudo is Ultrasoft, Zval = 12.0
     Generated by new atomic code, or converted to UPF format
     Using radial grid of  851 points,  6 beta functions with:
                l(1) =   0
                l(2) =   0
                l(3) =   1
                l(4) =   1
                l(5) =   2
                l(6) =   2
     Q(r) pseudized with  8 coefficients,  rinner =    1.000   1.000   1.000
                                                       1.000   1.000

     PseudoPot. # 5 for N  read from file:
     /storage/coda1/p-amedford6/0/shared/rich_project_chbe-medford/medford-share/data/pseudos_module/espresso/nninc/pbe/van/N.UPF
     MD5 check sum: 90d10febe142ad51ac9d5be1deb811c4
     Pseudo is Ultrasoft, Zval =  5.0
     Generated by new atomic code, or converted to UPF format
     Using radial grid of  729 points,  4 beta functions with:
                l(1) =   0
                l(2) =   0
                l(3) =   1
                l(4) =   1
     Q(r) pseudized with  8 coefficients,  rinner =    0.800   0.800   0.800

     atomic species   valence    mass     pseudopotential
        C1             4.00    12.01100     C ( 1.00)
        H1             1.00     1.00800     H ( 1.00)
        O1             6.00    15.99900     O ( 1.00)
        Ti1           12.00    47.86700     Ti( 1.00)
        N1             5.00    14.00700     N ( 1.00)

     No symmetry found

   Cartesian axes

     site n.     atom                  positions (alat units)
         1           C1  tau(   1) = (   5.1764158   1.5385028  19.8564928  )
         2           H1  tau(   2) = (   4.2418317   1.4168958  19.3325039  )
         3           H1  tau(   3) = (   6.1328006   2.9100337  18.2018079  )
         4           H1  tau(   4) = (   6.0297582   0.9181690  19.6386741  )
         5           O1  tau(   5) = (   0.0006271   0.0005054   7.9858123  )
         6           O1  tau(   6) = (   3.2906025   0.0005020   7.3038282  )
         7           O1  tau(   7) = (   4.5942328   1.4918067   9.2879030  )
         8           O1  tau(   8) = (   1.9868534   1.4903216   9.2879459  )
         9           O1  tau(   9) = (   3.2696825   0.0177092  11.3460806  )
        10           O1  tau(  10) = (   6.5743896   0.0111799  10.6115589  )
        11           O1  tau(  11) = (   1.2770957   1.5070501  12.6511825  )
        12           O1  tau(  12) = (   5.2749141   1.5057152  12.6378801  )
        13           O1  tau(  13) = (   6.5263050   0.0247340  14.7317399  )
        14           O1  tau(  14) = (   3.2747511   0.0213673  13.9312909  )
        15           O1  tau(  15) = (   4.4933390   1.5239927  16.1070736  )
        16           O1  tau(  16) = (   2.0026543   1.5217075  16.0711130  )
        17           O1  tau(  17) = (   3.2904802   0.0005063   4.7018136  )
        18           O1  tau(  18) = (   6.5469758   0.0421337  17.2556835  )
        19           O1  tau(  19) = (   1.3043587   1.4918075   6.0039043  )
        20           O1  tau(  20) = (   5.2767064   1.4903225   6.0039473  )
        21           O1  tau(  21) = (   0.0002396   2.9813036   7.9858123  )
        22           O1  tau(  22) = (   3.2902150   2.9813002   7.3038282  )
        23           O1  tau(  23) = (   4.5938453   4.4726049   9.2879030  )
        24           O1  tau(  24) = (   1.9864658   4.4711199   9.2879459  )
        25           O1  tau(  25) = (   3.2722311   3.0011533  11.3472759  )
        26           O1  tau(  26) = (   6.5787409   2.9955660  10.5677177  )
        27           O1  tau(  27) = (   1.2755865   4.4883074  12.6550720  )
        28           O1  tau(  28) = (   5.2773609   4.4903743  12.6413705  )
        29           O1  tau(  29) = (   6.5451067   2.9841024  14.7029789  )
        30           O1  tau(  30) = (   3.2773495   3.0062142  13.9304278  )
        31           O1  tau(  31) = (   4.4941242   4.5002890  16.1165364  )
        32           O1  tau(  32) = (   2.0016379   4.5015838  16.0818063  )
        33           O1  tau(  33) = (   3.2900926   2.9813045   4.7018136  )
        34           O1  tau(  34) = (   1.3039711   4.4726057   6.0039043  )
        35           O1  tau(  35) = (   5.2763189   4.4711207   6.0039473  )
        36           O1  tau(  36) = (   6.5536212   3.0044252  17.3297899  )
        37           Ti1 tau(  37) = (   0.0004258   2.9801865   6.0000000  )
        38           Ti1 tau(  38) = (   3.2906075   1.4906267   6.0002472  )
        39           Ti1 tau(  39) = (   3.3348906   3.0327224   9.1579215  )
        40           Ti1 tau(  40) = (   0.0203972   1.6099837   9.3624797  )
        41           Ti1 tau(  41) = (   6.5380572   3.0081639  12.8251979  )
        42           Ti1 tau(  42) = (   3.2225065   1.5141752  12.4854623  )
        43           Ti1 tau(  43) = (   3.2525775   3.0161725  15.7233172  )
        44           Ti1 tau(  44) = (   6.5465844   1.4469101  15.9770741  )
        45           Ti1 tau(  45) = (   0.0000382   5.9609847   6.0000000  )
        46           Ti1 tau(  46) = (   3.2902200   4.4714249   6.0002472  )
        47           Ti1 tau(  47) = (   3.2831171   0.0558662   9.1532617  )
        48           Ti1 tau(  48) = (   0.0294011   4.5318189   9.2743274  )
        49           Ti1 tau(  49) = (   6.5160019   0.0223579  12.5245727  )
        50           Ti1 tau(  50) = (   3.2207252   4.4944464  12.4919313  )
        51           Ti1 tau(  51) = (   3.2545639   0.0236594  15.7221480  )
        52           Ti1 tau(  52) = (   6.5427997   4.6104004  16.1309301  )
        53           N1  tau(  53) = (   5.0796009   2.6163306  22.0446247  )
        54           N1  tau(  54) = (   5.1188049   2.0915644  21.0330699  )

     number of k points=    10  Fermi-Dirac smearing, width (Ry)=  0.0073
                       cart. coord. in units 2pi/alat
        k(    1) = (   0.0000000   0.0000000   0.0000000), wk =   0.1250000
        k(    2) = (   0.0000000   0.0419351   0.0000000), wk =   0.2500000
        k(    3) = (   0.0000000  -0.0838702   0.0000000), wk =   0.1250000
        k(    4) = (   0.0379955   0.0000049   0.0000000), wk =   0.2500000
        k(    5) = (   0.0379955   0.0419400   0.0000000), wk =   0.2500000
        k(    6) = (   0.0379955  -0.0838652   0.0000000), wk =   0.2500000
        k(    7) = (   0.0379955  -0.0419301   0.0000000), wk =   0.2500000
        k(    8) = (  -0.0759910  -0.0000099   0.0000000), wk =   0.1250000
        k(    9) = (  -0.0759910   0.0419252   0.0000000), wk =   0.2500000
        k(   10) = (  -0.0759910  -0.0838800   0.0000000), wk =   0.1250000

     Initial potential from superposition of free atoms

     starting charge  384.99916, renormalised to  401.00000

     negative rho (up, down):  1.197E-02 0.000E+00

     %%%%%%%%%%%%%%%%%%%%%%%%%%%%%%%%%%%%%%%%%%%%%%%%%%%%%%%%%%%%%%%%%%%%%%%%
     %                                                                      %
     % You are using vdW-DF, which was implemented by the Thonhauser group. %
     % Please cite the following two papers that made this development      %
     % possible and the two reviews that describe the various versions:     %
     %                                                                      %
     %   T. Thonhauser et al., PRL 115, 136402 (2015).                      %
     %   T. Thonhauser et al., PRB 76, 125112 (2007).                       %
     %   K. Berland et al., Rep. Prog. Phys. 78, 066501 (2015).             %
     %   D.C. Langreth et al., J. Phys.: Condens. Matter 21, 084203 (2009). %
     %                                                                      %
     %                                                                      %
     % If you are calculating the stress with vdW-DF, please also cite:     %
     %                                                                      %
     %   R. Sabatini et al., J. Phys.: Condens. Matter 24, 424209 (2012).   %
     %                                                                      %
     %%%%%%%%%%%%%%%%%%%%%%%%%%%%%%%%%%%%%%%%%%%%%%%%%%%%%%%%%%%%%%%%%%%%%%%%

     Adding external electric field

     Computed dipole along edir(3) :
        Dipole              -14.0962 Ry au,        -35.8290 Debye
        Dipole field         -0.0266 Ry au,

        Potential amp.        2.4659 Ry
        Total length         46.3494 bohr

     Starting wfcs are  303 atomic wfcs
  @ DRIVER MODE: Message from server: STATUS
  @ DRIVER MODE: Message from server: POSDATA
  @ DRIVER MODE: Reading and sharing cell
  @ DRIVER MODE: Reading and sharing positions
  @ DRIVER MODE: Received positions

     Self-consistent Calculation

     iteration #  1     ecut=    29.40 Ry     beta= 0.05
     Davidson diagonalization with overlap
     c_bands:  5 eigenvalues not converged
     c_bands:  4 eigenvalues not converged
     c_bands:  5 eigenvalues not converged
     c_bands:  2 eigenvalues not converged
     c_bands:  4 eigenvalues not converged
     c_bands:  4 eigenvalues not converged
     c_bands:  4 eigenvalues not converged
     c_bands:  4 eigenvalues not converged
     c_bands:  5 eigenvalues not converged
     ethr =  1.00E-05,  avg # of iterations = 22.0

[...]

     total energy              =   -2410.43847544 Ry
     estimated scf accuracy    <    6378.88217851 Ry

     iteration #  2     ecut=    29.40 Ry     beta= 0.05
     Davidson diagonalization with overlap
     ethr =  1.00E-02,  avg # of iterations = 24.3

[...]

     iteration # 48     ecut=    29.40 Ry     beta= 0.05
     Davidson diagonalization with overlap
     c_bands:  1 eigenvalues not converged
     c_bands:  1 eigenvalues not converged
     c_bands:  2 eigenvalues not converged
     ethr =  4.98E-09,  avg # of iterations = 17.0

[...]

     total energy              =   -2971.53797951 Ry
     estimated scf accuracy    <       0.00000011 Ry

     iteration # 61     ecut=    29.40 Ry     beta= 0.05
     Davidson diagonalization with overlap
     ethr =  2.23E-11,  avg # of iterations =  5.8

     negative rho (up, down):  1.327E-02 0.000E+00

     Adding external electric field

     Computed dipole along edir(3) :
        Dipole                0.4410 Ry au,          1.1208 Debye
        Dipole field          0.0008 Ry au,

        Potential amp.       -0.0771 Ry
        Total length         46.3494 bohr

     End of self-consistent calculation

          k = 0.0000 0.0000 0.0000 ( 18029 PWs)   bands (ev):

   -55.7653 -55.7520 -55.7282 -55.7158 -55.6693 -55.6518 -55.6256 -55.5930
   -55.5893 -55.5855 -55.5383 -55.5151 -55.4815 -55.4153 -54.7757 -54.7416
   -32.3163 -32.2323 -32.1995 -32.1137 -32.0839 -32.0665 -32.0571 -32.0336
   -31.9949 -31.9906 -31.9753 -31.9676 -31.9621 -31.9331 -31.9256 -31.9210
   -31.9155 -31.8962 -31.8884 -31.8610 -31.8544 -31.8311 -31.8304 -31.8227
   -31.8078 -31.8011 -31.7857 -31.7789 -31.7757 -31.7691 -31.7622 -31.7543
   -31.7429 -31.7393 -31.7358 -31.6950 -31.6946 -31.6601 -31.6373 -31.6213
   -31.6040 -31.6011 -31.1854 -31.0885 -31.0661 -31.0021 -30.9161 -30.8048
   -20.7424 -17.0007 -16.5006 -16.2065 -16.0401 -15.9125 -15.8839 -15.7829
   -15.5922 -15.4580 -15.4410 -15.3664 -15.3320 -15.3248 -15.2945 -15.2844
   -15.2770 -15.2686 -15.2211 -15.1962 -15.1808 -15.1659 -15.1398 -15.0881
   -15.0408 -14.9681 -14.9213 -14.8812 -14.8621 -14.7626 -14.7438 -13.9452
   -13.2762 -13.1580  -6.5481  -5.5893  -4.9834  -4.5198  -3.8642  -3.6880
    -3.6711  -3.6523  -3.5692  -3.5132  -3.3263  -3.3104  -3.0101  -2.9347
    -2.9047  -2.9011  -2.8869  -2.7092  -2.6487  -2.6004  -2.5906  -2.5743
    -2.5722  -2.5484  -2.5284  -2.5183  -2.4909  -2.4690  -2.4608  -2.3236
    -2.2941  -2.1774  -2.1572  -2.1463  -2.0890  -2.0645  -2.0323  -2.0092
    -2.0040  -1.9871  -1.9656  -1.9307  -1.8453  -1.8213  -1.6965  -1.5943
    -1.5520  -1.4610  -1.3010  -1.2540  -1.2239  -1.1902  -1.1643  -1.1518
    -1.1023  -1.0772  -1.0266  -0.9619  -0.9573  -0.8526  -0.7794  -0.7422
    -0.6647  -0.6460  -0.6256  -0.5068  -0.4859  -0.4751  -0.3025  -0.2440
    -0.2327  -0.2231  -0.0976  -0.0567  -0.0224  -0.0089   0.0224   0.0502
     0.0955   0.1389   0.2008   0.2224   0.2305   0.2417   0.2643   0.2908
     0.4061   0.4243   0.4350   0.5519   0.5709   0.7609   0.7678   0.8850
     0.9855   1.1528   1.2488   1.3199   1.4198   1.7208   1.8377   1.8980
     3.4245   3.4553   3.4868   3.5035   3.5753   3.6986   3.8085   3.8619
     3.8831   3.9048

[...]

          k = 0.0380-0.0419 0.0000 ( 17876 PWs)   bands (ev):

[...]

          k =-0.0760-0.0000 0.0000 ( 17886 PWs)   bands (ev):

[...]

          k =-0.0760-0.0839 0.0000 ( 17948 PWs)   bands (ev):

   -55.7541 -55.7392 -55.7346 -55.7330 -55.6654 -55.6470 -55.6135 -55.6013
   -55.5979 -55.5891 -55.5356 -55.4992 -55.4975 -55.4177 -54.7591 -54.7580
   -32.1197 -32.1161 -32.0991 -32.0563 -32.0462 -32.0407 -32.0231 -32.0224
   -32.0153 -31.9791 -31.9538 -31.9469 -31.9445 -31.9073 -31.9039 -31.8993
   -31.8853 -31.8816 -31.8805 -31.8708 -31.8697 -31.8606 -31.8551 -31.8481
   -31.8389 -31.8228 -31.8180 -31.8151 -31.8076 -31.8062 -31.8021 -31.7871
   -31.7818 -31.7588 -31.7557 -31.7496 -31.7340 -31.7174 -31.7043 -31.6973
   -31.6457 -31.6105 -31.0794 -31.0781 -30.9988 -30.9979 -30.9596 -30.9586
   -20.7422 -16.9353 -15.9435 -15.9331 -15.6917 -15.6841 -15.6822 -15.6105
   -15.5239 -15.5084 -15.4869 -15.4768 -15.4338 -15.4106 -15.4052 -15.3418
   -15.3057 -15.2885 -15.2701 -15.2658 -15.2121 -15.2072 -15.1634 -15.1386
   -15.1197 -15.1148 -15.0910 -15.0867 -15.0496 -14.9864 -14.9179 -13.9451
   -13.2605 -13.2581  -6.5423  -5.5917  -4.9217  -4.5186  -3.5127  -3.2347
    -3.2235  -2.9581  -2.9082  -2.8968  -2.8142  -2.7522  -2.6866  -2.6457
    -2.6173  -2.6122  -2.5980  -2.5873  -2.5833  -2.5684  -2.5662  -2.5481
    -2.5271  -2.5161  -2.4536  -2.4448  -2.4156  -2.3939  -2.3864  -2.3753
    -2.3382  -2.3195  -2.3082  -2.2939  -2.2872  -2.2034  -2.0619  -2.0156
    -1.9210  -1.9005  -1.8916  -1.8486  -1.8268  -1.8101  -1.7952  -1.7460
    -1.7299  -1.5592  -1.4925  -1.4770  -1.4582  -1.4249  -1.3699  -1.2782
    -1.2495  -1.1760  -1.1680  -1.1252  -1.0629  -0.9915  -0.9689  -0.9286
    -0.8706  -0.8320  -0.7761  -0.7426  -0.7200  -0.7138  -0.6624  -0.6065
    -0.5675  -0.5072  -0.4813  -0.4179  -0.3792  -0.3415  -0.2853  -0.2592
    -0.2239  -0.1132  -0.0069   0.1287   0.1920   0.2679   0.2795   0.3096
     0.3279   0.4469   0.4755   0.5039   0.5479   0.6350   0.6885   0.7582
     0.7780   0.8062   0.8629   1.6093   1.6105   1.6998   1.7105   1.7241
     3.6219   3.6582   3.6763   3.7252   3.8827   3.8877   3.9063   3.9142
     3.9672   4.0458

     the Fermi energy is     3.3904 ev

!    total energy              =   -2971.53803024 Ry
     estimated scf accuracy    <       0.00000005 Ry
     smearing contrib. (-TS)   =      -0.02328862 Ry
     internal energy E=F+TS    =   -2971.51474162 Ry

     The total energy is F=E-TS. E is the sum of the following terms:
     one-electron contribution =  -22751.44059301 Ry
     hartree contribution      =   11466.79800183 Ry
     xc contribution           =    -492.33133530 Ry
     ewald contribution        =    8805.45881789 Ry
     electric field correction =       0.00036697 Ry

     convergence has been achieved in  61 iterations

     Forces acting on atoms (cartesian axes, Ry/au):

     atom    1 type  1   force =    -0.00065454    0.00095220    0.00073006
     atom    2 type  2   force =    -0.00045796    0.00082865   -0.00064032
     atom    3 type  2   force =    -0.00145414   -0.00073735   -0.00050578
     atom    4 type  2   force =     0.00082283   -0.00049943   -0.00026577
     atom    5 type  3   force =     0.00034233   -0.00681088   -0.03337241
     atom    6 type  3   force =    -0.00002260    0.00054606    0.04532909
     atom    7 type  3   force =    -0.02047846    0.00052365    0.00452074
     atom    8 type  3   force =     0.01815724   -0.00160640    0.00414978
     atom    9 type  3   force =     0.00013263    0.00001226   -0.00007544
     atom   10 type  3   force =    -0.00004614   -0.00006343    0.00018972
     atom   11 type  3   force =     0.00023836   -0.00010194   -0.00033182
     atom   12 type  3   force =     0.00048366    0.00011613   -0.00017248
     atom   13 type  3   force =     0.00030397   -0.00077109   -0.00019125
     atom   14 type  3   force =     0.00035890   -0.00064444   -0.00010173
     atom   15 type  3   force =    -0.00071655   -0.00048189    0.00013497
     atom   16 type  3   force =     0.00071291   -0.00044627   -0.00009188
     atom   17 type  3   force =     0.00003025    0.00006205    0.10415370
     atom   18 type  3   force =    -0.00011726   -0.00070334    0.00062271
     atom   19 type  3   force =    -0.06901483    0.00069984   -0.02970075
     atom   20 type  3   force =     0.06878412    0.00126342   -0.02969084
     atom   21 type  3   force =     0.00038394    0.00378307   -0.02829981
     atom   22 type  3   force =     0.00085426    0.00084219    0.04702218
     atom   23 type  3   force =    -0.01799363    0.00140964    0.00376798
     atom   24 type  3   force =     0.01769143    0.00226712    0.00329429
     atom   25 type  3   force =    -0.00016025   -0.00028978    0.00005615
     atom   26 type  3   force =     0.00016693   -0.00003527    0.00041240
     atom   27 type  3   force =    -0.00024724   -0.00015371    0.00026796
     atom   28 type  3   force =    -0.00002425   -0.00021549    0.00059166
     atom   29 type  3   force =     0.00008566   -0.00017554    0.00003987
     atom   30 type  3   force =    -0.00019883   -0.00009389    0.00034749
     atom   31 type  3   force =     0.00017652   -0.00046604    0.00028621
     atom   32 type  3   force =    -0.00056552   -0.00055215   -0.00014569
     atom   33 type  3   force =     0.00004378    0.00003409    0.10423135
     atom   34 type  3   force =    -0.06859631   -0.00136374   -0.02974206
     atom   35 type  3   force =     0.06847462   -0.00099240   -0.02971961
     atom   36 type  3   force =     0.00110966    0.00093094    0.00012815
     atom   37 type  4   force =    -0.00001133   -0.00159693    0.10639367
     atom   38 type  4   force =    -0.00016083    0.00073571   -0.17960818
     atom   39 type  4   force =    -0.00040802    0.00005180   -0.00013118
     atom   40 type  4   force =    -0.00000135    0.00006517   -0.00008989
     atom   41 type  4   force =    -0.00004684    0.00050830   -0.00053187
     atom   42 type  4   force =    -0.00012280    0.00004416    0.00038318
     atom   43 type  4   force =    -0.00014085   -0.00602578   -0.00049406
     atom   44 type  4   force =     0.00057564    0.00077238   -0.00042269
     atom   45 type  4   force =    -0.00000848    0.00122346    0.11835325
     atom   46 type  4   force =     0.00000670   -0.00034087   -0.17987643
     atom   47 type  4   force =     0.00035646    0.00003095   -0.00025629
     atom   48 type  4   force =    -0.00002645    0.00026076   -0.00034899
     atom   49 type  4   force =     0.00054818    0.00060318   -0.00004893
     atom   50 type  4   force =     0.00013406    0.00012365   -0.00095035
     atom   51 type  4   force =     0.00044071    0.00720305   -0.00012151
     atom   52 type  4   force =     0.00083605   -0.00070185    0.00054702
     atom   53 type  5   force =     0.00068102    0.00129464    0.00002479
     atom   54 type  5   force =    -0.00125736   -0.00131862   -0.00005032

     Total force =     0.376697     Total SCF correction =     0.000428
  @ DRIVER MODE: Message from server: STATUS
  @ DRIVER MODE: Message from server: GETFORCE
  @ DRIVER MODE: Returning v,forces,stress,ensemble

     Writing output data file ./calc.save/
  @ DRIVER MODE: Message from server: EXIT
  @ DRIVE MODE: Exiting

     General routines

     Parallel routines

   This run was terminated on:  21:11:15  14Sep2021

   JOB DONE.