     Program PWSCF v.6.7GPU starts on 15Sep2021 at 21:59:33

     R & G space division:  proc/nbgrp/npool/nimage =      10
     Reading input from /storage/home/hcoda1/3/ntian30/research/carbon/CxH_vib/H2O_calc/ads_slab/CH2OH2O_a/out_0019/pw.inp
Warning: card &CELL ignored
Warning: card   CELL_DYNAMICS='IPI', ignored
Warning: card / ignored

     Current dimensions of program PWSCF are:
     Max number of different atomic species (ntypx) = 10
     Max number of k-points (npk) =  40000
     Max angular momentum in pseudopotentials (lmaxx) =  3
     Presently no symmetry can be used with electric field

     Message from routine cell_base_init:
     DEPRECATED: use true lattice parameter, not A to a.u. conversion factor

     IMPORTANT: XC functional enforced from input :
     Exchange-correlation= BEEF-VDW
                           (   1   4  43  14   2   0   0)
     Any further DFT definition will be discarded
     Please, verify this is what you really want

  @ DRIVER MODE: Connecting to
 qe_1139763_2852613.sched-torque.pace.gatech.eduh64w8lwp_scratch
  using UNIX socket
  @ DRIVER MODE: Message from server: STATUS
  @ DRIVER MODE: Message from server: INIT
  @ DRIVER MODE: Receiving replica           0          -1
  @ DRIVER MODE: Receiving encoded integer          25
  @ DRIVER MODE:  SCF:  T  FORCE:  T  STRESS:  F  VC:  F  ENSEMBLE:  F
  @ DRIVER MODE:  SCF:  T  FORCE:  T  STRESS:  F  VC:  F  ENSEMBLE:  F

     Using Slab Decomposition

     bravais-lattice index     =            0
     lattice parameter (alat)  =       1.8897  a.u.
     unit-cell volume          =    6658.9804 (a.u.)^3
     number of atoms/cell      =           54
     number of atomic types    =            4
     number of electrons       =       398.00
     number of Kohn-Sham states=          209
     kinetic-energy cutoff     =      29.3995  Ry
     charge density cutoff     =     293.9946  Ry
     scf convergence threshold =      7.3E-08
     mixing beta               =       0.0500
     number of iterations used =            8  plain     mixing
     Exchange-correlation= BEEF-VDW
                           (   1   4  43  14   2   0   0)

     celldm(1)=   1.889726  celldm(2)=   0.000000  celldm(3)=   0.000000
     celldm(4)=   0.000000  celldm(5)=   0.000000  celldm(6)=   0.000000

     crystal axes: (cart. coord. in units of alat)
               a(1) = (   6.579727   0.000000   0.000000 )
               a(2) = (  -0.000775   5.961596   0.000000 )
               a(3) = (   0.000000   0.000000  25.155947 )

     reciprocal axes: (cart. coord. in units 2 pi/alat)
               b(1) = (  0.151982  0.000020  0.000000 )
               b(2) = (  0.000000  0.167740  0.000000 )
               b(3) = (  0.000000  0.000000  0.039752 )

     PseudoPot. # 1 for O  read from file:
     /storage/coda1/p-amedford6/0/shared/rich_project_chbe-medford/medford-share/data/pseudos_module/espresso/nninc/pbe/van/O.UPF
     MD5 check sum: 78c19812648e8988a0fe644b0f25305e
     Pseudo is Ultrasoft, Zval =  6.0
     Generated by new atomic code, or converted to UPF format
     Using radial grid of  737 points,  4 beta functions with:
                l(1) =   0
                l(2) =   0
                l(3) =   1
                l(4) =   1
     Q(r) pseudized with  8 coefficients,  rinner =    0.800   0.800   0.800

     PseudoPot. # 2 for Ti read from file:
     /storage/coda1/p-amedford6/0/shared/rich_project_chbe-medford/medford-share/data/pseudos_module/espresso/nninc/pbe/van/Ti.UPF
     MD5 check sum: 8e4df49b7f0d34bbd5052bf3f5ea0213
     Pseudo is Ultrasoft, Zval = 12.0
     Generated by new atomic code, or converted to UPF format
     Using radial grid of  851 points,  6 beta functions with:
                l(1) =   0
                l(2) =   0
                l(3) =   1
                l(4) =   1
                l(5) =   2
                l(6) =   2
     Q(r) pseudized with  8 coefficients,  rinner =    1.000   1.000   1.000
                                                       1.000   1.000

     PseudoPot. # 3 for C  read from file:
     /storage/coda1/p-amedford6/0/shared/rich_project_chbe-medford/medford-share/data/pseudos_module/espresso/nninc/pbe/van/C.UPF
     MD5 check sum: 1a69bf6b8db32088f5b2163dbdb77a27
     Pseudo is Ultrasoft, Zval =  4.0
     Generated by new atomic code, or converted to UPF format
     Using radial grid of  721 points,  4 beta functions with:
                l(1) =   0
                l(2) =   0
                l(3) =   1
                l(4) =   1
     Q(r) pseudized with  8 coefficients,  rinner =    0.800   0.800   0.800

     PseudoPot. # 4 for H  read from file:
     /storage/coda1/p-amedford6/0/shared/rich_project_chbe-medford/medford-share/data/pseudos_module/espresso/nninc/pbe/van/H.UPF
     MD5 check sum: b5ee9d7bfd3a09ee7748110bda690ff7
     Pseudo is Ultrasoft, Zval =  1.0
     Generated by new atomic code, or converted to UPF format
     Using radial grid of  615 points,  1 beta functions with:
                l(1) =   0
     Q(r) pseudized with  8 coefficients,  rinner =    0.800

     atomic species   valence    mass     pseudopotential
        O1             6.00    15.99900     O ( 1.00)
        Ti1           12.00    47.86700     Ti( 1.00)
        C1             4.00    12.01100     C ( 1.00)
        H1             1.00     1.00800     H ( 1.00)

     No symmetry found

   Cartesian axes

     site n.     atom                  positions (alat units)
         1           O1  tau(   1) = (   3.2904802   0.0005063   4.7018136  )
         2           O1  tau(   2) = (   3.2900926   2.9813045   4.7018136  )
         3           Ti1 tau(   3) = (   0.0004258   2.9801865   6.0000000  )
         4           Ti1 tau(   4) = (   0.0000382   5.9609847   6.0000000  )
         5           Ti1 tau(   5) = (   3.2906075   1.4906267   6.0002472  )
         6           Ti1 tau(   6) = (   3.2902200   4.4714249   6.0002472  )
         7           O1  tau(   7) = (   1.3043587   1.4918075   6.0039043  )
         8           O1  tau(   8) = (   1.3039711   4.4726057   6.0039043  )
         9           O1  tau(   9) = (   5.2767064   1.4903225   6.0039473  )
        10           O1  tau(  10) = (   5.2763189   4.4711207   6.0039473  )
        11           O1  tau(  11) = (   3.2906025   0.0005020   7.3038282  )
        12           O1  tau(  12) = (   3.2902150   2.9813002   7.3038282  )
        13           O1  tau(  13) = (   0.0006271   0.0005054   7.9858123  )
        14           O1  tau(  14) = (   0.0002396   2.9813036   7.9858123  )
        15           Ti1 tau(  15) = (   3.3036605   0.0548493   9.1550340  )
        16           Ti1 tau(  16) = (   3.3179312   3.0323762   9.1622521  )
        17           Ti1 tau(  17) = (   0.0293130   4.5303424   9.2586280  )
        18           Ti1 tau(  18) = (   0.0255512   1.6071936   9.3606264  )
        19           O1  tau(  19) = (   4.5942328   1.4918067   9.2879030  )
        20           O1  tau(  20) = (   4.5938453   4.4726049   9.2879030  )
        21           O1  tau(  21) = (   1.9868534   1.4903216   9.2879459  )
        22           O1  tau(  22) = (   1.9864658   4.4711199   9.2879459  )
        23           O1  tau(  23) = (   0.0067149   0.0090568  10.6008527  )
        24           O1  tau(  24) = (   0.0066098   2.9904127  10.5810825  )
        25           O1  tau(  25) = (   3.3023248   2.9935247  11.3558429  )
        26           O1  tau(  26) = (   3.3019398   0.0103095  11.3581380  )
        27           Ti1 tau(  27) = (   0.0322082   0.0188897  12.5014682  )
        28           Ti1 tau(  28) = (   3.3323403   4.4947089  12.5096490  )
        29           Ti1 tau(  29) = (   3.3327227   1.5059056  12.5040540  )
        30           Ti1 tau(  30) = (   0.0321551   3.0004163  12.7750784  )
        31           O1  tau(  31) = (   1.2963378   4.4834263  12.6382484  )
        32           O1  tau(  32) = (   1.2968596   1.4996660  12.6342602  )
        33           O1  tau(  33) = (   5.3004736   4.4821179  12.6410582  )
        34           O1  tau(  34) = (   5.3007909   1.4998706  12.6367838  )
        35           O1  tau(  35) = (   3.3017874   2.9879694  13.9086975  )
        36           O1  tau(  36) = (   3.3040514   0.0100701  13.9766235  )
        37           O1  tau(  37) = (   0.0177811   0.0165449  14.6846256  )
        38           O1  tau(  38) = (   0.0218693   2.9952767  14.7100221  )
        39           Ti1 tau(  39) = (   3.3083447   2.9915206  15.7010863  )
        40           Ti1 tau(  40) = (   3.3165693   0.0114089  15.8055842  )
        41           Ti1 tau(  41) = (   0.0300915   4.5703342  15.9344200  )
        42           Ti1 tau(  42) = (   0.0294271   1.3911826  15.9958598  )
        43           O1  tau(  43) = (   4.5666857   4.4545776  16.0545193  )
        44           O1  tau(  44) = (   4.5654216   1.5273373  16.0688375  )
        45           O1  tau(  45) = (   2.0398213   1.5345912  16.0698912  )
        46           O1  tau(  46) = (   2.0372649   4.4468515  16.0554978  )
        47           O1  tau(  47) = (   0.0160947   0.0056016  17.2166677  )
        48           O1  tau(  48) = (   6.5639191   3.0028441  17.4181802  )
        49           C1  tau(  49) = (   6.3909186   3.0704891  18.6902598  )
        50           H1  tau(  50) = (   6.3116585   4.0479728  19.1570877  )
        51           H1  tau(  51) = (   6.3027454   2.1532251  19.2664540  )
        52           O1  tau(  52) = (   3.2659488   5.9319982  18.2141537  )
        53           H1  tau(  53) = (   4.0486762   5.9278262  18.7801078  )
        54           H1  tau(  54) = (   2.4667005   5.9275743  18.7583984  )

     number of k points=    10  Fermi-Dirac smearing, width (Ry)=  0.0073
                       cart. coord. in units 2pi/alat
        k(    1) = (   0.0000000   0.0000000   0.0000000), wk =   0.1250000
        k(    2) = (   0.0000000   0.0419351   0.0000000), wk =   0.2500000
        k(    3) = (   0.0000000  -0.0838702   0.0000000), wk =   0.1250000
        k(    4) = (   0.0379955   0.0000049   0.0000000), wk =   0.2500000
        k(    5) = (   0.0379955   0.0419400   0.0000000), wk =   0.2500000
        k(    6) = (   0.0379955  -0.0838652   0.0000000), wk =   0.2500000
        k(    7) = (   0.0379955  -0.0419301   0.0000000), wk =   0.2500000
        k(    8) = (  -0.0759910  -0.0000099   0.0000000), wk =   0.1250000
        k(    9) = (  -0.0759910   0.0419252   0.0000000), wk =   0.2500000
        k(   10) = (  -0.0759910  -0.0838800   0.0000000), wk =   0.1250000

     Initial potential from superposition of free atoms

     starting charge  381.99917, renormalised to  398.00000

     negative rho (up, down):  1.686E-02 0.000E+00

     %%%%%%%%%%%%%%%%%%%%%%%%%%%%%%%%%%%%%%%%%%%%%%%%%%%%%%%%%%%%%%%%%%%%%%%%
     %                                                                      %
     % You are using vdW-DF, which was implemented by the Thonhauser group. %
     % Please cite the following two papers that made this development      %
     % possible and the two reviews that describe the various versions:     %
     %                                                                      %
     %   T. Thonhauser et al., PRL 115, 136402 (2015).                      %
     %   T. Thonhauser et al., PRB 76, 125112 (2007).                       %
     %   K. Berland et al., Rep. Prog. Phys. 78, 066501 (2015).             %
     %   D.C. Langreth et al., J. Phys.: Condens. Matter 21, 084203 (2009). %
     %                                                                      %
     %                                                                      %
     % If you are calculating the stress with vdW-DF, please also cite:     %
     %                                                                      %
     %   R. Sabatini et al., J. Phys.: Condens. Matter 24, 424209 (2012).   %
     %                                                                      %
     %%%%%%%%%%%%%%%%%%%%%%%%%%%%%%%%%%%%%%%%%%%%%%%%%%%%%%%%%%%%%%%%%%%%%%%%

     Adding external electric field

     Computed dipole along edir(3) :
        Dipole               -9.6373 Ry au,        -24.4955 Debye
        Dipole field         -0.0182 Ry au,

        Potential amp.        1.6859 Ry
        Total length         46.3494 bohr

     Starting wfcs are  300 atomic wfcs
  @ DRIVER MODE: Message from server: STATUS
  @ DRIVER MODE: Message from server: POSDATA
  @ DRIVER MODE: Reading and sharing cell
  @ DRIVER MODE: Reading and sharing positions
  @ DRIVER MODE: Received positions

     Self-consistent Calculation

     iteration #  1     ecut=    29.40 Ry     beta= 0.05
     Davidson diagonalization with overlap
     c_bands:  1 eigenvalues not converged
     c_bands:  3 eigenvalues not converged
     c_bands:  2 eigenvalues not converged
     c_bands:  2 eigenvalues not converged
     c_bands:  2 eigenvalues not converged
     c_bands:  1 eigenvalues not converged
     c_bands:  2 eigenvalues not converged
     c_bands:  1 eigenvalues not converged
     c_bands:  2 eigenvalues not converged
     ethr =  1.00E-05,  avg # of iterations = 19.6

[...]

     total energy              =   -2526.83886891 Ry
     estimated scf accuracy    <    4873.65180360 Ry

     iteration #  2     ecut=    29.40 Ry     beta= 0.05
     Davidson diagonalization with overlap
     ethr =  1.00E-02,  avg # of iterations = 26.4

[...]

     iteration # 59     ecut=    29.40 Ry     beta= 0.05
     Davidson diagonalization with overlap
     c_bands:  1 eigenvalues not converged
     ethr =  2.29E-11,  avg # of iterations =  7.7

[...]

     total energy              =   -2964.99530850 Ry
     estimated scf accuracy    <       0.00000008 Ry

     iteration # 60     ecut=    29.40 Ry     beta= 0.05
     Davidson diagonalization with overlap
     ethr =  1.99E-11,  avg # of iterations =  7.5

     negative rho (up, down):  1.528E-02 0.000E+00

     Adding external electric field

     Computed dipole along edir(3) :
        Dipole                1.2206 Ry au,          3.1025 Debye
        Dipole field          0.0023 Ry au,

        Potential amp.       -0.2135 Ry
        Total length         46.3494 bohr

     End of self-consistent calculation

          k = 0.0000 0.0000 0.0000 ( 18029 PWs)   bands (ev):

   -55.5395 -55.5027 -55.5026 -55.4665 -55.4627 -55.4183 -55.3819 -55.3152
   -55.3022 -55.2790 -55.2688 -55.2593 -55.2180 -55.2100 -54.5508 -54.5167
   -32.0583 -32.0098 -31.8960 -31.8530 -31.8513 -31.8337 -31.8135 -31.8049
   -31.7812 -31.7696 -31.7359 -31.7261 -31.6983 -31.6857 -31.6838 -31.6493
   -31.6459 -31.6403 -31.6354 -31.6318 -31.6030 -31.5975 -31.5903 -31.5859
   -31.5583 -31.5543 -31.5507 -31.5304 -31.5232 -31.5215 -31.4761 -31.4746
   -31.4485 -31.4469 -31.4333 -31.4284 -31.4220 -31.4081 -31.3967 -31.3950
   -31.3921 -31.3753 -30.9603 -30.8641 -30.8418 -30.7769 -30.6907 -30.5796
   -19.3638 -19.1359 -16.2548 -15.9921 -15.8202 -15.7093 -15.6623 -15.4602
   -15.3672 -15.2864 -15.2226 -15.1454 -15.1286 -15.0909 -15.0650 -15.0594
   -15.0539 -15.0053 -14.9964 -14.9569 -14.9451 -14.9438 -14.9252 -14.9063
   -14.8245 -14.7218 -14.6786 -14.6604 -14.6015 -14.5453 -14.5313 -13.0513
   -12.9332  -9.0146  -7.1499  -5.2168  -5.1824  -3.7752  -3.5759  -3.4585
    -3.4239  -3.3878  -3.3195  -3.1378  -3.1297  -3.0369  -2.7995  -2.7092
    -2.6760  -2.6183  -2.6079  -2.5082  -2.4673  -2.3611  -2.3523  -2.3480
    -2.3318  -2.3059  -2.2730  -2.2307  -2.2064  -2.1946  -2.0668  -2.0554
    -1.9273  -1.9215  -1.8981  -1.8433  -1.8384  -1.7964  -1.7831  -1.7795
    -1.7671  -1.7187  -1.7071  -1.5940  -1.5201  -1.4569  -1.3701  -1.2319
    -1.1701  -1.0977  -1.0436  -1.0092  -0.9466  -0.9436  -0.8893  -0.8487
    -0.7904  -0.7781  -0.7714  -0.6750  -0.5759  -0.5543  -0.5239  -0.4459
    -0.3669  -0.2810  -0.2618  -0.2597  -0.2582  -0.2372  -0.0995  -0.0162
     0.0411   0.0463   0.1423   0.1755   0.2108   0.2248   0.2570   0.2778
     0.3337   0.4085   0.4203   0.4334   0.4591   0.5048   0.5105   0.6230
     0.6994   0.7009   0.7369   0.7697   0.9453   0.9801   1.1071   1.2143
     1.3807   1.4738   1.5454   1.6467   2.0598   2.1174   3.6336   3.6753
     3.6904   3.7329   3.7823   3.8090   3.8767   4.0759   4.0922   4.1412
     4.1857

[...]

          k = 0.0380-0.0419 0.0000 ( 17876 PWs)   bands (ev):

[...]

          k =-0.0760-0.0000 0.0000 ( 17886 PWs)   bands (ev):

[...]

          k =-0.0760-0.0839 0.0000 ( 17948 PWs)   bands (ev):

   -55.5280 -55.5140 -55.4858 -55.4831 -55.4612 -55.4082 -55.3921 -55.3117
   -55.2869 -55.2845 -55.2735 -55.2608 -55.2233 -55.2128 -54.5343 -54.5331
   -31.8690 -31.8542 -31.8338 -31.8212 -31.8184 -31.7990 -31.7741 -31.7561
   -31.7435 -31.7386 -31.7379 -31.7303 -31.6970 -31.6627 -31.6568 -31.6528
   -31.6437 -31.6413 -31.6377 -31.6355 -31.6293 -31.6105 -31.6096 -31.6085
   -31.6037 -31.5890 -31.5679 -31.5529 -31.5398 -31.5383 -31.5314 -31.5145
   -31.4969 -31.4923 -31.4852 -31.4838 -31.4655 -31.4473 -31.4421 -31.4370
   -31.4066 -31.3998 -30.8551 -30.8537 -30.7737 -30.7727 -30.7343 -30.7333
   -19.3550 -19.1356 -15.7062 -15.5971 -15.5626 -15.4158 -15.4116 -15.3605
   -15.3521 -15.3164 -15.2365 -15.2330 -15.1831 -15.1638 -15.1293 -15.1057
   -15.0938 -15.0485 -15.0462 -15.0273 -15.0034 -14.9851 -14.9686 -14.9411
   -14.9169 -14.9095 -14.8719 -14.8636 -14.7991 -14.7439 -14.7233 -13.0357
   -13.0334  -9.0154  -7.1473  -5.1937  -5.1592  -3.7314  -3.1563  -2.9901
    -2.8027  -2.7872  -2.6550  -2.6201  -2.6022  -2.5116  -2.4782  -2.4447
    -2.3816  -2.3708  -2.3642  -2.3426  -2.3375  -2.3239  -2.3027  -2.2656
    -2.2557  -2.2238  -2.1943  -2.1805  -2.1599  -2.1500  -2.1216  -2.1021
    -2.0894  -2.0859  -2.0238  -1.9956  -1.9105  -1.8446  -1.7635  -1.7109
    -1.6797  -1.6774  -1.6413  -1.6027  -1.5950  -1.5797  -1.4337  -1.3842
    -1.2618  -1.2484  -1.2293  -1.1528  -1.1370  -1.1030  -1.0976  -1.0310
    -0.9444  -0.9405  -0.9169  -0.8891  -0.8018  -0.7337  -0.6926  -0.6567
    -0.6128  -0.5828  -0.5090  -0.4955  -0.4846  -0.4223  -0.3817  -0.2968
    -0.2831  -0.2640  -0.2129  -0.1838  -0.1488  -0.0802  -0.0621  -0.0392
     0.0418   0.1081   0.1141   0.3240   0.4864   0.5153   0.5319   0.6167
     0.6635   0.7723   0.7955   0.8049   0.8470   0.8924   0.9798   1.0057
     1.0076   1.0851   1.8341   1.8348   1.9222   1.9328   3.5655   3.8790
     3.9436   3.9669   3.9918   4.1075   4.1099   4.1292   4.1376   4.2800
     4.2984

     the Fermi energy is     3.6119 ev

!    total energy              =   -2964.99536473 Ry
     estimated scf accuracy    <       0.00000006 Ry
     smearing contrib. (-TS)   =      -0.03110364 Ry
     internal energy E=F+TS    =   -2964.96426109 Ry

     The total energy is F=E-TS. E is the sum of the following terms:
     one-electron contribution =  -24342.45416720 Ry
     hartree contribution      =   12264.28366938 Ry
     xc contribution           =    -490.10189744 Ry
     ewald contribution        =    9603.30532258 Ry
     electric field correction =       0.00281159 Ry

     convergence has been achieved in  60 iterations

     Forces acting on atoms (cartesian axes, Ry/au):

     atom    1 type  1   force =    -0.00009717    0.00006722    0.10410045
     atom    2 type  1   force =    -0.00008961    0.00006404    0.10411747
     atom    3 type  2   force =    -0.00029330   -0.00188117    0.10330959
     atom    4 type  2   force =    -0.00016162    0.00151723    0.11464340
     atom    5 type  2   force =    -0.00038324    0.00123877   -0.17936038
     atom    6 type  2   force =    -0.00016819   -0.00076631   -0.17974161
     atom    7 type  1   force =    -0.06942453    0.00065509   -0.02931593
     atom    8 type  1   force =    -0.06897077   -0.00122668   -0.02936476
     atom    9 type  1   force =     0.06906862    0.00115071   -0.02937795
     atom   10 type  1   force =     0.06870110   -0.00081014   -0.02943662
     atom   11 type  1   force =     0.00042055    0.00056984    0.04680923
     atom   12 type  1   force =     0.00063327    0.00080861    0.04851186
     atom   13 type  1   force =     0.00026766   -0.00569048   -0.03325642
     atom   14 type  1   force =     0.00033434    0.00340015   -0.02638777
     atom   15 type  2   force =    -0.00010363   -0.00003450    0.00039258
     atom   16 type  2   force =     0.00001649    0.00001798    0.00050866
     atom   17 type  2   force =    -0.00001930    0.00013931    0.00042418
     atom   18 type  2   force =    -0.00006746   -0.00031968    0.00008874
     atom   19 type  1   force =    -0.01807646   -0.00015811    0.00403306
     atom   20 type  1   force =    -0.01684917    0.00147942    0.00328832
     atom   21 type  1   force =     0.01934614   -0.00136860    0.00448055
     atom   22 type  1   force =     0.01791009    0.00116561    0.00355902
     atom   23 type  1   force =     0.00001763    0.00002516   -0.00012802
     atom   24 type  1   force =    -0.00005365   -0.00000961   -0.00009136
     atom   25 type  1   force =    -0.00005029    0.00001163   -0.00058250
     atom   26 type  1   force =    -0.00023127    0.00014087   -0.00065850
     atom   27 type  2   force =     0.00003312    0.00013283   -0.00042665
     atom   28 type  2   force =     0.00023959    0.00002911   -0.00008288
     atom   29 type  2   force =     0.00023174    0.00000677   -0.00019163
     atom   30 type  2   force =    -0.00009670    0.00020015    0.00021737
     atom   31 type  1   force =    -0.00064111   -0.00023261    0.00053006
     atom   32 type  1   force =    -0.00055743    0.00031325    0.00056112
     atom   33 type  1   force =     0.00039042   -0.00013150    0.00035061
     atom   34 type  1   force =     0.00031133    0.00018307    0.00037488
     atom   35 type  1   force =    -0.00014426    0.00001734    0.00020302
     atom   36 type  1   force =    -0.00008644    0.00000376   -0.00022708
     atom   37 type  1   force =    -0.00037772   -0.00001343   -0.00022691
     atom   38 type  1   force =    -0.00050942    0.00027240   -0.00005090
     atom   39 type  2   force =    -0.00018516   -0.00008186    0.00136555
     atom   40 type  2   force =     0.00007388    0.00020973   -0.00133056
     atom   41 type  2   force =    -0.00020851   -0.00087913   -0.00058771
     atom   42 type  2   force =    -0.00032402    0.00092615   -0.00046170
     atom   43 type  1   force =    -0.00000193    0.00019832    0.00030481
     atom   44 type  1   force =    -0.00009511   -0.00008586    0.00010047
     atom   45 type  1   force =    -0.00041445   -0.00023889   -0.00001310
     atom   46 type  1   force =    -0.00045271    0.00042798    0.00011553
     atom   47 type  1   force =    -0.00006407   -0.00020398    0.00018416
     atom   48 type  1   force =    -0.00008427   -0.00003199    0.00090020
     atom   49 type  3   force =    -0.00053128   -0.00114741    0.00069076
     atom   50 type  4   force =     0.00064770   -0.00108639    0.00042176
     atom   51 type  4   force =     0.00079326    0.00039467   -0.00129607
     atom   52 type  1   force =     0.00050047    0.00065826   -0.00058902
     atom   53 type  4   force =     0.00034932   -0.00002487    0.00023472
     atom   54 type  4   force =    -0.00047247   -0.00000226   -0.00163614

     Total force =     0.374550     Total SCF correction =     0.000742
  @ DRIVER MODE: Message from server: STATUS
  @ DRIVER MODE: Message from server: GETFORCE
  @ DRIVER MODE: Returning v,forces,stress,ensemble

     Writing output data file ./calc.save/
  @ DRIVER MODE: Message from server: EXIT
  @ DRIVE MODE: Exiting

     General routines

     Parallel routines

   This run was terminated on:  22:16:24  15Sep2021

   JOB DONE.