     Program PWSCF v.6.7GPU starts on  9Sep2021 at  3:45:25

     R & G space division:  proc/nbgrp/npool/nimage =      10
     Reading input from /storage/home/hcoda1/3/ntian30/research/carbon/CxH_vib/CH_calc/ads_slab/CHNHH_a/out_0020/pw.inp
Warning: card &CELL ignored
Warning: card   CELL_DYNAMICS='IPI', ignored
Warning: card / ignored

     Current dimensions of program PWSCF are:
     Max number of different atomic species (ntypx) = 10
     Max number of k-points (npk) =  40000
     Max angular momentum in pseudopotentials (lmaxx) =  3
     Presently no symmetry can be used with electric field

     Message from routine cell_base_init:
     DEPRECATED: use true lattice parameter, not A to a.u. conversion factor

     IMPORTANT: XC functional enforced from input :
     Exchange-correlation= BEEF-VDW
                           (   1   4  43  14   2   0   0)
     Any further DFT definition will be discarded
     Please, verify this is what you really want

  @ DRIVER MODE: Connecting to
 qe_1139763_2767378.sched-torque.pace.gatech.edupnpi1yut_scratch
  using UNIX socket
  @ DRIVER MODE: Message from server: STATUS
  @ DRIVER MODE: Message from server: INIT
  @ DRIVER MODE: Receiving replica           0          -1
  @ DRIVER MODE: Receiving encoded integer          25
  @ DRIVER MODE:  SCF:  T  FORCE:  T  STRESS:  F  VC:  F  ENSEMBLE:  F
  @ DRIVER MODE:  SCF:  T  FORCE:  T  STRESS:  F  VC:  F  ENSEMBLE:  F

     Using Slab Decomposition

     bravais-lattice index     =            0
     lattice parameter (alat)  =       1.8897  a.u.
     unit-cell volume          =    6658.9804 (a.u.)^3
     number of atoms/cell      =           52
     number of atomic types    =            5
     number of electrons       =       390.00
     number of Kohn-Sham states=          205
     kinetic-energy cutoff     =      29.3995  Ry
     charge density cutoff     =     293.9946  Ry
     scf convergence threshold =      7.3E-08
     mixing beta               =       0.0500
     number of iterations used =            8  plain     mixing
     Exchange-correlation= BEEF-VDW
                           (   1   4  43  14   2   0   0)

     celldm(1)=   1.889726  celldm(2)=   0.000000  celldm(3)=   0.000000
     celldm(4)=   0.000000  celldm(5)=   0.000000  celldm(6)=   0.000000

     crystal axes: (cart. coord. in units of alat)
               a(1) = (   6.579727   0.000000   0.000000 )
               a(2) = (  -0.000775   5.961596   0.000000 )
               a(3) = (   0.000000   0.000000  25.155947 )

     reciprocal axes: (cart. coord. in units 2 pi/alat)
               b(1) = (  0.151982  0.000020  0.000000 )
               b(2) = (  0.000000  0.167740  0.000000 )
               b(3) = (  0.000000  0.000000  0.039752 )

     PseudoPot. # 1 for Ti read from file:
     /storage/coda1/p-amedford6/0/shared/rich_project_chbe-medford/medford-share/data/pseudos_module/espresso/nninc/pbe/van/Ti.UPF
     MD5 check sum: 8e4df49b7f0d34bbd5052bf3f5ea0213
     Pseudo is Ultrasoft, Zval = 12.0
     Generated by new atomic code, or converted to UPF format
     Using radial grid of  851 points,  6 beta functions with:
                l(1) =   0
                l(2) =   0
                l(3) =   1
                l(4) =   1
                l(5) =   2
                l(6) =   2
     Q(r) pseudized with  8 coefficients,  rinner =    1.000   1.000   1.000
                                                       1.000   1.000

     PseudoPot. # 2 for O  read from file:
     /storage/coda1/p-amedford6/0/shared/rich_project_chbe-medford/medford-share/data/pseudos_module/espresso/nninc/pbe/van/O.UPF
     MD5 check sum: 78c19812648e8988a0fe644b0f25305e
     Pseudo is Ultrasoft, Zval =  6.0
     Generated by new atomic code, or converted to UPF format
     Using radial grid of  737 points,  4 beta functions with:
                l(1) =   0
                l(2) =   0
                l(3) =   1
                l(4) =   1
     Q(r) pseudized with  8 coefficients,  rinner =    0.800   0.800   0.800

     PseudoPot. # 3 for N  read from file:
     /storage/coda1/p-amedford6/0/shared/rich_project_chbe-medford/medford-share/data/pseudos_module/espresso/nninc/pbe/van/N.UPF
     MD5 check sum: 90d10febe142ad51ac9d5be1deb811c4
     Pseudo is Ultrasoft, Zval =  5.0
     Generated by new atomic code, or converted to UPF format
     Using radial grid of  729 points,  4 beta functions with:
                l(1) =   0
                l(2) =   0
                l(3) =   1
                l(4) =   1
     Q(r) pseudized with  8 coefficients,  rinner =    0.800   0.800   0.800

     PseudoPot. # 4 for C  read from file:
     /storage/coda1/p-amedford6/0/shared/rich_project_chbe-medford/medford-share/data/pseudos_module/espresso/nninc/pbe/van/C.UPF
     MD5 check sum: 1a69bf6b8db32088f5b2163dbdb77a27
     Pseudo is Ultrasoft, Zval =  4.0
     Generated by new atomic code, or converted to UPF format
     Using radial grid of  721 points,  4 beta functions with:
                l(1) =   0
                l(2) =   0
                l(3) =   1
                l(4) =   1
     Q(r) pseudized with  8 coefficients,  rinner =    0.800   0.800   0.800

     PseudoPot. # 5 for H  read from file:
     /storage/coda1/p-amedford6/0/shared/rich_project_chbe-medford/medford-share/data/pseudos_module/espresso/nninc/pbe/van/H.UPF
     MD5 check sum: b5ee9d7bfd3a09ee7748110bda690ff7
     Pseudo is Ultrasoft, Zval =  1.0
     Generated by new atomic code, or converted to UPF format
     Using radial grid of  615 points,  1 beta functions with:
                l(1) =   0
     Q(r) pseudized with  8 coefficients,  rinner =    0.800

     atomic species   valence    mass     pseudopotential
        Ti1           12.00    47.86700     Ti( 1.00)
        O1             6.00    15.99900     O ( 1.00)
        N1             5.00    14.00700     N ( 1.00)
        C1             4.00    12.01100     C ( 1.00)
        H1             1.00     1.00800     H ( 1.00)

     No symmetry found

   Cartesian axes

     site n.     atom                  positions (alat units)
         1           Ti1 tau(   1) = (   0.0004258   2.9801865   6.0000000  )
         2           Ti1 tau(   2) = (   3.2906075   1.4906267   6.0002472  )
         3           O1  tau(   3) = (   0.0006271   0.0005054   7.9858123  )
         4           O1  tau(   4) = (   3.2906025   0.0005020   7.3038282  )
         5           O1  tau(   5) = (   4.5942328   1.4918067   9.2879030  )
         6           O1  tau(   6) = (   1.9868534   1.4903216   9.2879459  )
         7           Ti1 tau(   7) = (   3.2907910   2.8959150   9.1758416  )
         8           Ti1 tau(   8) = (   0.0015273   1.4827037   9.2680791  )
         9           O1  tau(   9) = (   3.2768318   5.9518058  11.3501096  )
        10           O1  tau(  10) = (   0.0116148   5.9584955  10.6183126  )
        11           O1  tau(  11) = (   1.2820894   1.4890407  12.6429483  )
        12           O1  tau(  12) = (   5.2701592   1.4861355  12.6244956  )
        13           Ti1 tau(  13) = (   0.0263608   2.9732685  12.5725065  )
        14           Ti1 tau(  14) = (   3.3311081   1.4825583  12.4934812  )
        15           O1  tau(  15) = (   6.5448050   0.0382128  14.6485099  )
        16           O1  tau(  16) = (   3.2835306   5.9556129  13.9684075  )
        17           O1  tau(  17) = (   4.5065730   1.5084740  16.1486978  )
        18           O1  tau(  18) = (   2.0110176   1.4968469  16.1316129  )
        19           Ti1 tau(  19) = (   3.2365874   2.9692752  15.7101938  )
        20           Ti1 tau(  20) = (   6.5183500   1.5288441  15.9766389  )
        21           O1  tau(  21) = (   3.2904802   0.0005063   4.7018136  )
        22           O1  tau(  22) = (   6.5552815   5.8936090  17.2115513  )
        23           O1  tau(  23) = (   1.3043587   1.4918075   6.0039043  )
        24           O1  tau(  24) = (   5.2767064   1.4903225   6.0039473  )
        25           Ti1 tau(  25) = (   0.0000382   5.9609847   6.0000000  )
        26           Ti1 tau(  26) = (   3.2902200   4.4714249   6.0002472  )
        27           O1  tau(  27) = (   0.0002396   2.9813036   7.9858123  )
        28           O1  tau(  28) = (   3.2902150   2.9813002   7.3038282  )
        29           O1  tau(  29) = (   4.5938453   4.4726049   9.2879030  )
        30           O1  tau(  30) = (   1.9864658   4.4711199   9.2879459  )
        31           Ti1 tau(  31) = (   3.2891106   5.8743827   9.1763621  )
        32           Ti1 tau(  32) = (   0.0006254   4.4649316   9.2693709  )
        33           O1  tau(  33) = (   3.2825058   2.9767457  11.3441782  )
        34           O1  tau(  34) = (   0.0092240   2.9805883  10.6323155  )
        35           O1  tau(  35) = (   1.2778777   4.4660374  12.6604661  )
        36           O1  tau(  36) = (   5.2710664   4.4675109  12.6369154  )
        37           Ti1 tau(  37) = (   0.0243246   5.9574881  12.5203091  )
        38           Ti1 tau(  38) = (   3.3318591   4.4611298  12.5006215  )
        39           O1  tau(  39) = (   6.5359656   2.9584677  14.7835642  )
        40           O1  tau(  40) = (   3.2771955   2.9708399  13.9242642  )
        41           O1  tau(  41) = (   4.4981441   4.4410618  16.1740548  )
        42           O1  tau(  42) = (   2.0042129   4.4512231  16.1075086  )
        43           Ti1 tau(  43) = (   3.2538698   5.9555144  15.7617387  )
        44           Ti1 tau(  44) = (   6.5531130   4.6830099  15.9084494  )
        45           O1  tau(  45) = (   3.2900926   2.9813045   4.7018136  )
        46           O1  tau(  46) = (   1.3039711   4.4726057   6.0039043  )
        47           O1  tau(  47) = (   5.2763189   4.4711207   6.0039473  )
        48           N1  tau(  48) = (   5.6690603   3.2568973  18.6585782  )
        49           C1  tau(  49) = (   0.0091554   2.6844975  17.9068455  )
        50           H1  tau(  50) = (   0.8805123   2.3964943  18.5001670  )
        51           H1  tau(  51) = (   4.8719660   3.6873350  18.2178346  )
        52           H1  tau(  52) = (   5.8095507   3.4768026  19.6356901  )

     number of k points=    10  Fermi-Dirac smearing, width (Ry)=  0.0073
                       cart. coord. in units 2pi/alat
        k(    1) = (   0.0000000   0.0000000   0.0000000), wk =   0.1250000
        k(    2) = (   0.0000000   0.0419351   0.0000000), wk =   0.2500000
        k(    3) = (   0.0000000  -0.0838702   0.0000000), wk =   0.1250000
        k(    4) = (   0.0379955   0.0000049   0.0000000), wk =   0.2500000
        k(    5) = (   0.0379955   0.0419400   0.0000000), wk =   0.2500000
        k(    6) = (   0.0379955  -0.0838652   0.0000000), wk =   0.2500000
        k(    7) = (   0.0379955  -0.0419301   0.0000000), wk =   0.2500000
        k(    8) = (  -0.0759910  -0.0000099   0.0000000), wk =   0.1250000
        k(    9) = (  -0.0759910   0.0419252   0.0000000), wk =   0.2500000
        k(   10) = (  -0.0759910  -0.0838800   0.0000000), wk =   0.1250000

     Initial potential from superposition of free atoms

     starting charge  373.99917, renormalised to  390.00000

     negative rho (up, down):  1.782E-02 0.000E+00

     %%%%%%%%%%%%%%%%%%%%%%%%%%%%%%%%%%%%%%%%%%%%%%%%%%%%%%%%%%%%%%%%%%%%%%%%
     %                                                                      %
     % You are using vdW-DF, which was implemented by the Thonhauser group. %
     % Please cite the following two papers that made this development      %
     % possible and the two reviews that describe the various versions:     %
     %                                                                      %
     %   T. Thonhauser et al., PRL 115, 136402 (2015).                      %
     %   T. Thonhauser et al., PRB 76, 125112 (2007).                       %
     %   K. Berland et al., Rep. Prog. Phys. 78, 066501 (2015).             %
     %   D.C. Langreth et al., J. Phys.: Condens. Matter 21, 084203 (2009). %
     %                                                                      %
     %                                                                      %
     % If you are calculating the stress with vdW-DF, please also cite:     %
     %                                                                      %
     %   R. Sabatini et al., J. Phys.: Condens. Matter 24, 424209 (2012).   %
     %                                                                      %
     %%%%%%%%%%%%%%%%%%%%%%%%%%%%%%%%%%%%%%%%%%%%%%%%%%%%%%%%%%%%%%%%%%%%%%%%

     Adding external electric field

     Computed dipole along edir(3) :
        Dipole               -5.8555 Ry au,        -14.8831 Debye
        Dipole field         -0.0111 Ry au,

        Potential amp.        1.0243 Ry
        Total length         46.3494 bohr

     Starting wfcs are  295 atomic wfcs
  @ DRIVER MODE: Message from server: STATUS
  @ DRIVER MODE: Message from server: POSDATA
  @ DRIVER MODE: Reading and sharing cell
  @ DRIVER MODE: Reading and sharing positions
  @ DRIVER MODE: Received positions

     Self-consistent Calculation

     iteration #  1     ecut=    29.40 Ry     beta= 0.05
     Davidson diagonalization with overlap
     c_bands:  4 eigenvalues not converged
     c_bands:  1 eigenvalues not converged
     c_bands:  2 eigenvalues not converged
     c_bands:  3 eigenvalues not converged
     c_bands:  3 eigenvalues not converged
     c_bands:  3 eigenvalues not converged
     c_bands:  3 eigenvalues not converged
     c_bands:  3 eigenvalues not converged
     c_bands:  4 eigenvalues not converged
     c_bands:  5 eigenvalues not converged
     ethr =  1.00E-05,  avg # of iterations = 20.0

[...]

     total energy              =   -2777.35323357 Ry
     estimated scf accuracy    <    1560.18559137 Ry

     iteration #  2     ecut=    29.40 Ry     beta= 0.05
     Davidson diagonalization with overlap
     ethr =  1.00E-02,  avg # of iterations = 18.4

[...]

     iteration # 68     ecut=    29.40 Ry     beta= 0.05
     Davidson diagonalization with overlap
     c_bands:  1 eigenvalues not converged
     ethr =  1.27E-10,  avg # of iterations = 12.2

[...]

     total energy              =   -2919.04278920 Ry
     estimated scf accuracy    <       0.00000027 Ry

     iteration # 70     ecut=    29.40 Ry     beta= 0.05
     Davidson diagonalization with overlap
     ethr =  6.95E-11,  avg # of iterations =  7.7

     negative rho (up, down):  1.803E-02 0.000E+00

     Adding external electric field

     Computed dipole along edir(3) :
        Dipole                1.3799 Ry au,          3.5073 Debye
        Dipole field          0.0026 Ry au,

        Potential amp.       -0.2414 Ry
        Total length         46.3494 bohr

     End of self-consistent calculation

          k = 0.0000 0.0000 0.0000 ( 18029 PWs)   bands (ev):

   -55.5102 -55.4852 -55.4739 -55.4511 -55.4239 -55.3790 -55.3372 -55.3287
   -55.3101 -55.3032 -55.2737 -55.2717 -55.0533 -54.9458 -54.4887 -54.4546
   -32.0771 -31.9729 -31.8706 -31.8484 -31.8381 -31.8056 -31.7978 -31.7755
   -31.7649 -31.7289 -31.7246 -31.7196 -31.6867 -31.6616 -31.6518 -31.6492
   -31.6381 -31.6132 -31.6025 -31.5946 -31.5802 -31.5678 -31.5426 -31.5384
   -31.5370 -31.5172 -31.5146 -31.5103 -31.5090 -31.4999 -31.4856 -31.4704
   -31.4590 -31.4590 -31.4360 -31.4249 -31.4094 -31.3565 -31.2896 -31.1908
   -31.1803 -31.0920 -30.8970 -30.8058 -30.7835 -30.7136 -30.6270 -30.5159
   -17.0458 -16.3093 -16.0254 -15.8603 -15.7180 -15.6873 -15.5765 -15.4016
   -15.3227 -15.2484 -15.2292 -15.1495 -15.1320 -15.1169 -15.0979 -15.0398
   -15.0320 -14.9867 -14.9815 -14.9458 -14.9277 -14.8959 -14.8783 -14.8709
   -14.8143 -14.7760 -14.7124 -14.6465 -14.5914 -14.1187 -12.9913 -12.8743
    -9.4669  -7.2508  -4.6117  -3.6667  -3.4972  -3.4164  -3.4074  -3.3851
    -3.1970  -3.1201  -2.8448  -2.7513  -2.7163  -2.7101  -2.6834  -2.6227
    -2.5512  -2.4519  -2.3803  -2.3510  -2.3311  -2.3240  -2.3127  -2.2968
    -2.2874  -2.2564  -2.1824  -2.1247  -2.0528  -1.9710  -1.8959  -1.8803
    -1.8200  -1.7922  -1.7772  -1.7709  -1.7638  -1.7373  -1.7330  -1.6417
    -1.5508  -1.5124  -1.4124  -1.3900  -1.2942  -1.1595  -1.1324  -1.0279
    -1.0208  -0.9652  -0.9401  -0.8970  -0.8466  -0.8388  -0.8199  -0.6777
    -0.6101  -0.5491  -0.4907  -0.4638  -0.4453  -0.3578  -0.2913  -0.2847
    -0.2676  -0.2447  -0.0702  -0.0389  -0.0187   0.0041   0.0186   0.1079
     0.1397   0.2151   0.2951   0.3091   0.3141   0.3917   0.4148   0.4579
     0.4604   0.4878   0.4931   0.6643   0.6747   0.7011   0.7326   0.8134
     0.8964   1.1016   1.1235   1.1663   1.4492   1.5160   1.5337   1.7214
     2.1073   2.1543   3.5801   3.6851   3.7172   3.7328   3.7609   3.8314
     3.8969   4.0760   4.0829   4.1139   4.1199

[...]

          k = 0.0380-0.0419 0.0000 ( 17876 PWs)   bands (ev):

[...]

          k =-0.0760-0.0000 0.0000 ( 17886 PWs)   bands (ev):

[...]

          k =-0.0760-0.0839 0.0000 ( 17948 PWs)   bands (ev):

   -55.4944 -55.4894 -55.4683 -55.4678 -55.4207 -55.3701 -55.3460 -55.3318
   -55.2914 -55.2901 -55.2894 -55.2875 -55.0505 -54.9485 -54.4716 -54.4715
   -31.8825 -31.8785 -31.8129 -31.7883 -31.7879 -31.7758 -31.7612 -31.7606
   -31.7207 -31.7155 -31.7136 -31.7065 -31.6770 -31.6403 -31.6314 -31.6273
   -31.6267 -31.6245 -31.6200 -31.6188 -31.6088 -31.5881 -31.5876 -31.5744
   -31.5712 -31.5605 -31.5481 -31.5318 -31.5246 -31.5222 -31.5060 -31.5055
   -31.5046 -31.5036 -31.4778 -31.4682 -31.4642 -31.3610 -31.2850 -31.2094
   -31.1833 -31.1759 -30.7962 -30.7961 -30.7097 -30.7096 -30.6703 -30.6703
   -17.0408 -15.7670 -15.7053 -15.5691 -15.4885 -15.4664 -15.4550 -15.4308
   -15.2913 -15.2765 -15.2577 -15.2086 -15.2050 -15.2026 -15.1618 -15.1060
   -15.0730 -15.0705 -15.0621 -15.0354 -15.0012 -14.9960 -14.9617 -14.9532
   -14.9396 -14.8499 -14.8448 -14.8426 -14.6689 -14.3428 -12.9761 -12.9758
    -9.4716  -7.2520  -4.5939  -3.0499  -2.9764  -2.8159  -2.7139  -2.6841
    -2.6523  -2.5084  -2.4737  -2.4634  -2.4503  -2.4129  -2.3987  -2.3837
    -2.3543  -2.3402  -2.3360  -2.3175  -2.3065  -2.2945  -2.2502  -2.2090
    -2.2046  -2.1974  -2.1665  -2.1468  -2.1342  -2.1053  -2.0861  -2.0703
    -2.0566  -2.0092  -1.8344  -1.8031  -1.7025  -1.6827  -1.6735  -1.6521
    -1.5853  -1.5583  -1.5259  -1.4857  -1.4350  -1.3117  -1.2460  -1.2251
    -1.1950  -1.1850  -1.1329  -1.0117  -0.9757  -0.9531  -0.9065  -0.8695
    -0.8253  -0.8151  -0.6952  -0.6897  -0.6444  -0.6015  -0.4883  -0.4718
    -0.4625  -0.4493  -0.4353  -0.3066  -0.2970  -0.2903  -0.2730  -0.2291
    -0.2120  -0.1060  -0.0056   0.0080   0.1104   0.1632   0.2878   0.3514
     0.4477   0.4934   0.5174   0.6078   0.6430   0.7253   0.7485   0.8015
     0.8131   0.9098   0.9639   0.9819   0.9899   1.0580   1.8938   1.8946
     1.9742   1.9743   3.7405   3.8366   3.8748   3.8968   3.9426   4.1011
     4.1169   4.1644   4.1670   4.1831   4.2724

     the Fermi energy is     3.6379 ev

!    total energy              =   -2919.04280541 Ry
     estimated scf accuracy    <       0.00000007 Ry
     smearing contrib. (-TS)   =      -0.03609910 Ry
     internal energy E=F+TS    =   -2919.00670631 Ry

     The total energy is F=E-TS. E is the sum of the following terms:
     one-electron contribution =  -24479.33628089 Ry
     hartree contribution      =   12327.83041631 Ry
     xc contribution           =    -480.00562057 Ry
     ewald contribution        =    9712.50118571 Ry
     electric field correction =       0.00359313 Ry

     convergence has been achieved in  70 iterations

     Forces acting on atoms (cartesian axes, Ry/au):

     atom    1 type  1   force =     0.00009503   -0.00020278    0.09494012
     atom    2 type  1   force =    -0.00023231   -0.00035710   -0.17677551
     atom    3 type  2   force =    -0.00004473   -0.00006662   -0.02292493
     atom    4 type  2   force =    -0.00004343   -0.00167770    0.05576485
     atom    5 type  2   force =    -0.01134739   -0.00123323    0.00626628
     atom    6 type  2   force =     0.01252438   -0.00035159    0.00442944
     atom    7 type  1   force =    -0.00113783    0.00152868   -0.01374529
     atom    8 type  1   force =     0.00062845    0.00694557    0.01265111
     atom    9 type  2   force =     0.00020153   -0.00005166    0.00012185
     atom   10 type  2   force =    -0.00163930    0.00010442   -0.00996241
     atom   11 type  2   force =    -0.00020263    0.00002502    0.00014294
     atom   12 type  2   force =     0.00023044    0.00010893   -0.00008046
     atom   13 type  1   force =     0.00007092   -0.00000752    0.00036213
     atom   14 type  1   force =     0.00001323   -0.00015350    0.00024198
     atom   15 type  2   force =     0.00003592    0.00000321   -0.00004019
     atom   16 type  2   force =     0.00025348    0.00028490   -0.00005355
     atom   17 type  2   force =    -0.00010421   -0.00023123    0.00019913
     atom   18 type  2   force =     0.00037568    0.00008089    0.00011521
     atom   19 type  1   force =     0.00042457    0.00006053    0.00000500
     atom   20 type  1   force =     0.00019940    0.00006968    0.00022312
     atom   21 type  2   force =     0.00004650   -0.00004294    0.10360333
     atom   22 type  2   force =     0.00001457    0.00004400    0.00023380
     atom   23 type  2   force =    -0.07098947   -0.00015879   -0.02734762
     atom   24 type  2   force =     0.07084181    0.00032032   -0.02736303
     atom   25 type  1   force =    -0.00012376   -0.00020624    0.09463690
     atom   26 type  1   force =    -0.00019715   -0.00047289   -0.17692246
     atom   27 type  2   force =     0.00006896   -0.00035633   -0.02195292
     atom   28 type  2   force =     0.00003687   -0.00138894    0.05531560
     atom   29 type  2   force =    -0.01157607   -0.00009183    0.00586936
     atom   30 type  2   force =     0.01264496    0.00012922    0.00408564
     atom   31 type  1   force =    -0.00124979    0.00416651   -0.01461765
     atom   32 type  1   force =     0.00055749   -0.00776967    0.01251239
     atom   33 type  2   force =    -0.00001342    0.00009313    0.00002959
     atom   34 type  2   force =    -0.00127460    0.00082620   -0.00836718
     atom   35 type  2   force =     0.00012047    0.00020578   -0.00002113
     atom   36 type  2   force =     0.00011386    0.00004714    0.00017133
     atom   37 type  1   force =     0.00003276   -0.00000490    0.00005249
     atom   38 type  1   force =    -0.00003043   -0.00016011   -0.00012083
     atom   39 type  2   force =    -0.00017019   -0.00017506   -0.00013008
     atom   40 type  2   force =     0.00023068   -0.00002564   -0.00020196
     atom   41 type  2   force =     0.00031136   -0.00005319    0.00006002
     atom   42 type  2   force =    -0.00008419    0.00013068   -0.00042708
     atom   43 type  1   force =    -0.00020267   -0.00004151    0.00026439
     atom   44 type  1   force =     0.00045510   -0.00014674    0.00007766
     atom   45 type  2   force =     0.00003379   -0.00004920    0.10358362
     atom   46 type  2   force =    -0.07099712   -0.00007660   -0.02733982
     atom   47 type  2   force =     0.07085524    0.00032188   -0.02737046
     atom   48 type  3   force =     0.00952452   -0.00397479    0.00391558
     atom   49 type  4   force =     0.00089009   -0.00060467    0.00026522
     atom   50 type  5   force =     0.00030658   -0.00035827   -0.00045049
     atom   51 type  5   force =    -0.01036452    0.00513431   -0.00496592
     atom   52 type  5   force =    -0.00011342   -0.00013978    0.00104087

     Total force =     0.366444     Total SCF correction =     0.000587
  @ DRIVER MODE: Message from server: STATUS
  @ DRIVER MODE: Message from server: GETFORCE
  @ DRIVER MODE: Returning v,forces,stress,ensemble

     Writing output data file ./calc.save/
  @ DRIVER MODE: Message from server: EXIT
  @ DRIVE MODE: Exiting

     General routines

     Parallel routines

   This run was terminated on:   4: 2:40   9Sep2021

   JOB DONE.