     Program PWSCF v.6.7GPU starts on 24Aug2021 at  1: 7:34

     R & G space division:  proc/nbgrp/npool/nimage =       6
     Reading input from /storage/home/hcoda1/3/ntian30/research/carbon/CH_vib/ads_slab/CHNNHHH_a/out_0023/pw.inp
Warning: card &CELL ignored
Warning: card   CELL_DYNAMICS='IPI', ignored
Warning: card / ignored

     Current dimensions of program PWSCF are:
     Max number of different atomic species (ntypx) = 10
     Max number of k-points (npk) =  40000
     Max angular momentum in pseudopotentials (lmaxx) =  3
     Presently no symmetry can be used with electric field

     Message from routine cell_base_init:
     DEPRECATED: use true lattice parameter, not A to a.u. conversion factor

     IMPORTANT: XC functional enforced from input :
     Exchange-correlation= BEEF-VDW
                           (   1   4  43  14   2   0   0)
     Any further DFT definition will be discarded
     Please, verify this is what you really want

  @ DRIVER MODE: Connecting to
 qe_1139763_2632795.sched-torque.pace.gatech.eduvy629thr_scratch
  using UNIX socket
  @ DRIVER MODE: Message from server: STATUS
  @ DRIVER MODE: Message from server: INIT
  @ DRIVER MODE: Receiving replica           0          -1
  @ DRIVER MODE: Receiving encoded integer          25
  @ DRIVER MODE:  SCF:  T  FORCE:  T  STRESS:  F  VC:  F  ENSEMBLE:  F
  @ DRIVER MODE:  SCF:  T  FORCE:  T  STRESS:  F  VC:  F  ENSEMBLE:  F

     Using Slab Decomposition

     bravais-lattice index     =            0
     lattice parameter (alat)  =       1.8897  a.u.
     unit-cell volume          =    6658.9804 (a.u.)^3
     number of atoms/cell      =           54
     number of atomic types    =            5
     number of electrons       =       396.00
     number of Kohn-Sham states=          208
     kinetic-energy cutoff     =      29.3995  Ry
     charge density cutoff     =     293.9946  Ry
     scf convergence threshold =      7.3E-08
     mixing beta               =       0.0500
     number of iterations used =            8  plain     mixing
     Exchange-correlation= BEEF-VDW
                           (   1   4  43  14   2   0   0)

     celldm(1)=   1.889726  celldm(2)=   0.000000  celldm(3)=   0.000000
     celldm(4)=   0.000000  celldm(5)=   0.000000  celldm(6)=   0.000000

     crystal axes: (cart. coord. in units of alat)
               a(1) = (   6.579727   0.000000   0.000000 )
               a(2) = (  -0.000775   5.961596   0.000000 )
               a(3) = (   0.000000   0.000000  25.155947 )

     reciprocal axes: (cart. coord. in units 2 pi/alat)
               b(1) = (  0.151982  0.000020  0.000000 )
               b(2) = (  0.000000  0.167740  0.000000 )
               b(3) = (  0.000000  0.000000  0.039752 )

     PseudoPot. # 1 for Ti read from file:
     /storage/coda1/p-amedford6/0/shared/rich_project_chbe-medford/medford-share/data/pseudos_module/espresso/nninc/pbe/van/Ti.UPF
     MD5 check sum: 8e4df49b7f0d34bbd5052bf3f5ea0213
     Pseudo is Ultrasoft, Zval = 12.0
     Generated by new atomic code, or converted to UPF format
     Using radial grid of  851 points,  6 beta functions with:
                l(1) =   0
                l(2) =   0
                l(3) =   1
                l(4) =   1
                l(5) =   2
                l(6) =   2
     Q(r) pseudized with  8 coefficients,  rinner =    1.000   1.000   1.000
                                                       1.000   1.000

     PseudoPot. # 2 for O  read from file:
     /storage/coda1/p-amedford6/0/shared/rich_project_chbe-medford/medford-share/data/pseudos_module/espresso/nninc/pbe/van/O.UPF
     MD5 check sum: 78c19812648e8988a0fe644b0f25305e
     Pseudo is Ultrasoft, Zval =  6.0
     Generated by new atomic code, or converted to UPF format
     Using radial grid of  737 points,  4 beta functions with:
                l(1) =   0
                l(2) =   0
                l(3) =   1
                l(4) =   1
     Q(r) pseudized with  8 coefficients,  rinner =    0.800   0.800   0.800

     PseudoPot. # 3 for N  read from file:
     /storage/coda1/p-amedford6/0/shared/rich_project_chbe-medford/medford-share/data/pseudos_module/espresso/nninc/pbe/van/N.UPF
     MD5 check sum: 90d10febe142ad51ac9d5be1deb811c4
     Pseudo is Ultrasoft, Zval =  5.0
     Generated by new atomic code, or converted to UPF format
     Using radial grid of  729 points,  4 beta functions with:
                l(1) =   0
                l(2) =   0
                l(3) =   1
                l(4) =   1
     Q(r) pseudized with  8 coefficients,  rinner =    0.800   0.800   0.800

     PseudoPot. # 4 for C  read from file:
     /storage/coda1/p-amedford6/0/shared/rich_project_chbe-medford/medford-share/data/pseudos_module/espresso/nninc/pbe/van/C.UPF
     MD5 check sum: 1a69bf6b8db32088f5b2163dbdb77a27
     Pseudo is Ultrasoft, Zval =  4.0
     Generated by new atomic code, or converted to UPF format
     Using radial grid of  721 points,  4 beta functions with:
                l(1) =   0
                l(2) =   0
                l(3) =   1
                l(4) =   1
     Q(r) pseudized with  8 coefficients,  rinner =    0.800   0.800   0.800

     PseudoPot. # 5 for H  read from file:
     /storage/coda1/p-amedford6/0/shared/rich_project_chbe-medford/medford-share/data/pseudos_module/espresso/nninc/pbe/van/H.UPF
     MD5 check sum: b5ee9d7bfd3a09ee7748110bda690ff7
     Pseudo is Ultrasoft, Zval =  1.0
     Generated by new atomic code, or converted to UPF format
     Using radial grid of  615 points,  1 beta functions with:
                l(1) =   0
     Q(r) pseudized with  8 coefficients,  rinner =    0.800

     atomic species   valence    mass     pseudopotential
        Ti1           12.00    47.86700     Ti( 1.00)
        O1             6.00    15.99900     O ( 1.00)
        N1             5.00    14.00700     N ( 1.00)
        C1             4.00    12.01100     C ( 1.00)
        H1             1.00     1.00800     H ( 1.00)

     No symmetry found

   Cartesian axes

     site n.     atom                  positions (alat units)
         1           Ti1 tau(   1) = (   0.0004258   2.9801865   6.0000000  )
         2           Ti1 tau(   2) = (   3.2906075   1.4906267   6.0002472  )
         3           O1  tau(   3) = (   0.0006271   0.0005054   7.9858123  )
         4           O1  tau(   4) = (   3.2906025   0.0005020   7.3038282  )
         5           O1  tau(   5) = (   4.5942328   1.4918067   9.2879030  )
         6           O1  tau(   6) = (   1.9868534   1.4903216   9.2879459  )
         7           Ti1 tau(   7) = (   3.2907910   2.8959150   9.1758416  )
         8           Ti1 tau(   8) = (   0.0015273   1.4827037   9.2680791  )
         9           O1  tau(   9) = (   3.3116888   5.9365513  11.3741315  )
        10           O1  tau(  10) = (   0.0116148   5.9584955  10.6183126  )
        11           O1  tau(  11) = (   1.3152863   1.4773744  12.6583839  )
        12           O1  tau(  12) = (   5.3185463   1.4781915  12.6604289  )
        13           Ti1 tau(  13) = (   0.0312267   2.9553392  12.5172039  )
        14           Ti1 tau(  14) = (   3.3247105   1.4628205  12.5237724  )
        15           O1  tau(  15) = (   0.0176705   0.0150782  14.7085838  )
        16           O1  tau(  16) = (   3.3263678   5.9469243  13.9928752  )
        17           O1  tau(  17) = (   4.5829619   1.4750097  16.2211409  )
        18           O1  tau(  18) = (   2.0801478   1.4636096  16.1819230  )
        19           Ti1 tau(  19) = (   3.3264833   2.9461821  15.7545810  )
        20           Ti1 tau(  20) = (   0.0064452   1.3478264  16.0581623  )
        21           O1  tau(  21) = (   3.2904802   0.0005063   4.7018136  )
        22           O1  tau(  22) = (   0.0393124   5.8647722  17.2449945  )
        23           O1  tau(  23) = (   1.3043587   1.4918075   6.0039043  )
        24           O1  tau(  24) = (   5.2767064   1.4903225   6.0039473  )
        25           Ti1 tau(  25) = (   0.0000382   5.9609847   6.0000000  )
        26           Ti1 tau(  26) = (   3.2902200   4.4714249   6.0002472  )
        27           O1  tau(  27) = (   0.0002396   2.9813036   7.9858123  )
        28           O1  tau(  28) = (   3.2902150   2.9813002   7.3038282  )
        29           O1  tau(  29) = (   4.5938453   4.4726049   9.2879030  )
        30           O1  tau(  30) = (   1.9864658   4.4711199   9.2879459  )
        31           Ti1 tau(  31) = (   3.2891106   5.8743827   9.1763621  )
        32           Ti1 tau(  32) = (   0.0006254   4.4649316   9.2693709  )
        33           O1  tau(  33) = (   3.3126387   2.9639063  11.3704323  )
        34           O1  tau(  34) = (   0.0092240   2.9805883  10.6323155  )
        35           O1  tau(  35) = (   1.3140505   4.4512041  12.6779488  )
        36           O1  tau(  36) = (   5.3186431   4.4503656  12.6784002  )
        37           Ti1 tau(  37) = (   0.0306983   5.9434578  12.5012515  )
        38           Ti1 tau(  38) = (   3.3249252   4.4426326  12.5284913  )
        39           O1  tau(  39) = (   0.0332616   2.9308952  14.9693926  )
        40           O1  tau(  40) = (   3.3269026   2.9510973  13.9662216  )
        41           O1  tau(  41) = (   4.5816979   4.4256876  16.1885362  )
        42           O1  tau(  42) = (   2.0739833   4.4348339  16.1471384  )
        43           Ti1 tau(  43) = (   3.3139036   5.9323143  15.7909994  )
        44           Ti1 tau(  44) = (   0.0257917   4.5791344  15.8913375  )
        45           O1  tau(  45) = (   3.2900926   2.9813045   4.7018136  )
        46           O1  tau(  46) = (   1.3039711   4.4726057   6.0039043  )
        47           O1  tau(  47) = (   5.2763189   4.4711207   6.0039473  )
        48           N1  tau(  48) = (   0.2611162   2.7486399  18.0384573  )
        49           C1  tau(  49) = (   1.0666652   3.1333113  18.7681872  )
        50           H1  tau(  50) = (   1.9496291   3.4674532  19.3170853  )
        51           N1  tau(  51) = (   3.9312863   3.7371558  19.5817579  )
        52           H1  tau(  52) = (   4.2637485   4.0673035  20.4913501  )
        53           H1  tau(  53) = (   4.3024207   4.3757745  18.8906580  )
        54           H1  tau(  54) = (   4.4024832   2.8518033  19.4177320  )

     number of k points=    10  Fermi-Dirac smearing, width (Ry)=  0.0073
                       cart. coord. in units 2pi/alat
        k(    1) = (   0.0000000   0.0000000   0.0000000), wk =   0.1250000
        k(    2) = (   0.0000000   0.0419351   0.0000000), wk =   0.2500000
        k(    3) = (   0.0000000  -0.0838702   0.0000000), wk =   0.1250000
        k(    4) = (   0.0379955   0.0000049   0.0000000), wk =   0.2500000
        k(    5) = (   0.0379955   0.0419400   0.0000000), wk =   0.2500000
        k(    6) = (   0.0379955  -0.0838652   0.0000000), wk =   0.2500000
        k(    7) = (   0.0379955  -0.0419301   0.0000000), wk =   0.2500000
        k(    8) = (  -0.0759910  -0.0000099   0.0000000), wk =   0.1250000
        k(    9) = (  -0.0759910   0.0419252   0.0000000), wk =   0.2500000
        k(   10) = (  -0.0759910  -0.0838800   0.0000000), wk =   0.1250000

     Initial potential from superposition of free atoms

     starting charge  379.99915, renormalised to  396.00000

     negative rho (up, down):  1.481E-02 0.000E+00

     %%%%%%%%%%%%%%%%%%%%%%%%%%%%%%%%%%%%%%%%%%%%%%%%%%%%%%%%%%%%%%%%%%%%%%%%
     %                                                                      %
     % You are using vdW-DF, which was implemented by the Thonhauser group. %
     % Please cite the following two papers that made this development      %
     % possible and the two reviews that describe the various versions:     %
     %                                                                      %
     %   T. Thonhauser et al., PRL 115, 136402 (2015).                      %
     %   T. Thonhauser et al., PRB 76, 125112 (2007).                       %
     %   K. Berland et al., Rep. Prog. Phys. 78, 066501 (2015).             %
     %   D.C. Langreth et al., J. Phys.: Condens. Matter 21, 084203 (2009). %
     %                                                                      %
     %                                                                      %
     % If you are calculating the stress with vdW-DF, please also cite:     %
     %                                                                      %
     %   R. Sabatini et al., J. Phys.: Condens. Matter 24, 424209 (2012).   %
     %                                                                      %
     %%%%%%%%%%%%%%%%%%%%%%%%%%%%%%%%%%%%%%%%%%%%%%%%%%%%%%%%%%%%%%%%%%%%%%%%

     Adding external electric field

     Computed dipole along edir(3) :
        Dipole              -10.3131 Ry au,        -26.2133 Debye
        Dipole field         -0.0195 Ry au,

        Potential amp.        1.8041 Ry
        Total length         46.3494 bohr

     Starting wfcs are  300 atomic wfcs
  @ DRIVER MODE: Message from server: STATUS
  @ DRIVER MODE: Message from server: POSDATA
  @ DRIVER MODE: Reading and sharing cell
  @ DRIVER MODE: Reading and sharing positions
  @ DRIVER MODE: Received positions

     Self-consistent Calculation

     iteration #  1     ecut=    29.40 Ry     beta= 0.05
     Davidson diagonalization with overlap
     c_bands:  1 eigenvalues not converged
     c_bands:  2 eigenvalues not converged
     c_bands:  2 eigenvalues not converged
     c_bands:  1 eigenvalues not converged
     c_bands:  3 eigenvalues not converged
     c_bands:  2 eigenvalues not converged
     c_bands:  3 eigenvalues not converged
     c_bands:  2 eigenvalues not converged
     c_bands:  2 eigenvalues not converged
     c_bands:  2 eigenvalues not converged
     ethr =  1.00E-05,  avg # of iterations = 20.0

[...]

     total energy              =   -2525.93417472 Ry
     estimated scf accuracy    <    4639.56116675 Ry

     iteration #  2     ecut=    29.40 Ry     beta= 0.05
     Davidson diagonalization with overlap
     ethr =  1.00E-02,  avg # of iterations = 24.8

[...]

     iteration # 52     ecut=    29.40 Ry     beta= 0.05
     Davidson diagonalization with overlap
     c_bands:  1 eigenvalues not converged
     ethr =  6.29E-08,  avg # of iterations = 14.4

[...]

     total energy              =   -2940.41291000 Ry
     estimated scf accuracy    <       0.00000010 Ry

     iteration # 71     ecut=    29.40 Ry     beta= 0.05
     Davidson diagonalization with overlap
     ethr =  2.23E-11,  avg # of iterations =  9.2

     negative rho (up, down):  1.577E-02 0.000E+00

     Adding external electric field

     Computed dipole along edir(3) :
        Dipole                1.4926 Ry au,          3.7939 Debye
        Dipole field          0.0028 Ry au,

        Potential amp.       -0.2611 Ry
        Total length         46.3494 bohr

     End of self-consistent calculation

          k = 0.0000 0.0000 0.0000 ( 18029 PWs)   bands (ev):

   -55.2524 -55.2165 -55.2037 -55.1695 -55.1295 -55.1214 -55.0974 -55.0942
   -55.0699 -55.0507 -55.0355 -55.0326 -54.9990 -54.9823 -54.2315 -54.1974
   -31.8210 -31.7006 -31.6959 -31.6173 -31.5617 -31.5594 -31.5510 -31.5380
   -31.4926 -31.4801 -31.4612 -31.4578 -31.4482 -31.4236 -31.4076 -31.4029
   -31.3888 -31.3771 -31.3681 -31.3666 -31.3561 -31.3438 -31.3173 -31.3151
   -31.3074 -31.3005 -31.2724 -31.2708 -31.2609 -31.2597 -31.2510 -31.2322
   -31.2311 -31.2230 -31.2191 -31.2174 -31.1838 -31.1837 -31.1660 -31.1606
   -31.1436 -31.0923 -30.6408 -30.5467 -30.5247 -30.4572 -30.3704 -30.2595
   -16.7725 -16.0773 -15.8075 -15.6652 -15.5592 -15.4478 -15.3330 -15.3128
   -15.1759 -15.1524 -15.0873 -14.9686 -14.9179 -14.8991 -14.8848 -14.8709
   -14.8643 -14.7930 -14.7878 -14.7647 -14.7441 -14.7315 -14.6886 -14.6867
   -14.6462 -14.6253 -14.5790 -14.4902 -14.4071 -14.3377 -14.0159 -12.7341
   -12.6167  -7.9756  -5.1883  -5.1063  -4.0111  -3.4162  -3.2658  -3.1699
    -3.1433  -3.1278  -2.9982  -2.8514  -2.8424  -2.7475  -2.6368  -2.5855
    -2.5029  -2.4541  -2.4418  -2.4236  -2.2403  -2.2235  -2.1704  -2.1222
    -2.0924  -2.0564  -2.0361  -2.0169  -1.9997  -1.9905  -1.9266  -1.8126
    -1.7773  -1.7250  -1.6734  -1.6483  -1.5941  -1.5735  -1.5374  -1.5314
    -1.5309  -1.4829  -1.4568  -1.4335  -1.3565  -1.2704  -1.1559  -1.1047
    -0.9497  -0.8872  -0.8311  -0.8189  -0.7550  -0.7353  -0.7054  -0.6290
    -0.6215  -0.5887  -0.4700  -0.3791  -0.3395  -0.3273  -0.2700  -0.2327
    -0.2054  -0.1585  -0.0622  -0.0300  -0.0132  -0.0087   0.1414   0.1552
     0.2244   0.2716   0.2933   0.2939   0.4069   0.4235   0.4958   0.5330
     0.5688   0.6423   0.6820   0.6980   0.7006   0.7342   0.7382   0.8292
     0.8512   0.8597   0.9318   1.0814   1.3077   1.3558   1.3638   1.6975
     1.6990   1.7912   1.9749   2.3671   2.4153   3.8463   3.9178   3.9920
     3.9986   4.0244   4.0845   4.3260   4.3363   4.3489   4.3521   4.3934

[...]

          k = 0.0380-0.0419 0.0000 ( 17876 PWs)   bands (ev):

[...]

          k =-0.0760-0.0000 0.0000 ( 17886 PWs)   bands (ev):

[...]

          k =-0.0760-0.0839 0.0000 ( 17948 PWs)   bands (ev):

   -55.2344 -55.2342 -55.1866 -55.1865 -55.1166 -55.1159 -55.1078 -55.0946
   -55.0550 -55.0537 -55.0512 -55.0163 -55.0155 -54.9852 -54.2144 -54.2144
   -31.6248 -31.6242 -31.6237 -31.5233 -31.5110 -31.5109 -31.5106 -31.4779
   -31.4778 -31.4597 -31.4525 -31.4468 -31.4424 -31.3916 -31.3867 -31.3847
   -31.3835 -31.3833 -31.3780 -31.3724 -31.3483 -31.3449 -31.3343 -31.3251
   -31.3241 -31.3181 -31.3095 -31.3063 -31.3062 -31.3000 -31.2868 -31.2842
   -31.2793 -31.2667 -31.2641 -31.2475 -31.2459 -31.2422 -31.1968 -31.1965
   -31.1909 -31.1845 -30.5373 -30.5373 -30.4533 -30.4532 -30.4138 -30.4138
   -16.7637 -15.6098 -15.4933 -15.4522 -15.2644 -15.2560 -15.2256 -15.2131
   -15.1583 -15.0620 -15.0354 -15.0250 -15.0116 -14.9599 -14.9537 -14.9483
   -14.9269 -14.8558 -14.8475 -14.8455 -14.8285 -14.7622 -14.7574 -14.7531
   -14.7422 -14.6991 -14.6962 -14.6019 -14.5998 -14.5061 -14.3827 -12.7182
   -12.7182  -7.9720  -5.1831  -5.1178  -3.9981  -2.7964  -2.7679  -2.7215
    -2.7118  -2.6952  -2.4759  -2.4532  -2.4161  -2.3662  -2.3047  -2.2534
    -2.2451  -2.2285  -2.1615  -2.1225  -2.1060  -2.0925  -2.0742  -2.0585
    -2.0442  -2.0187  -1.9761  -1.9686  -1.9476  -1.9271  -1.8972  -1.8888
    -1.8577  -1.8368  -1.8216  -1.8042  -1.6897  -1.6659  -1.6074  -1.5683
    -1.5269  -1.4543  -1.4491  -1.3521  -1.3446  -1.2903  -1.2786  -1.2525
    -1.1597  -1.0606  -0.9985  -0.9919  -0.9855  -0.8595  -0.8211  -0.7970
    -0.7600  -0.7318  -0.6729  -0.5945  -0.5731  -0.5386  -0.4542  -0.4460
    -0.3895  -0.3206  -0.2751  -0.2440  -0.2145  -0.2068  -0.1971  -0.1439
    -0.1375  -0.0663  -0.0162   0.0171   0.0283   0.0622   0.2670   0.2836
     0.3365   0.4349   0.5074   0.6277   0.6856   0.7069   0.7781   0.8182
     0.8622   0.9247   1.0270   1.0574   1.0604   1.1350   1.1667   1.2087
     1.2128   2.1482   2.1486   2.2352   2.2354   3.9903   4.0842   4.1063
     4.1545   4.2458   4.2805   4.3640   4.3821   4.4319   4.4336   4.5028

     the Fermi energy is     3.9093 ev

!    total energy              =   -2940.41293247 Ry
     estimated scf accuracy    <       0.00000003 Ry
     smearing contrib. (-TS)   =      -0.03731611 Ry
     internal energy E=F+TS    =   -2940.37561636 Ry

     The total energy is F=E-TS. E is the sum of the following terms:
     one-electron contribution =  -23555.24798290 Ry
     hartree contribution      =   11870.33719356 Ry
     xc contribution           =    -485.96862517 Ry
     ewald contribution        =    9230.49959374 Ry
     electric field correction =       0.00420441 Ry

     convergence has been achieved in  71 iterations

     Forces acting on atoms (cartesian axes, Ry/au):

     atom    1 type  1   force =    -0.00003193   -0.00018558    0.09328774
     atom    2 type  1   force =    -0.00015017   -0.00021656   -0.17812887
     atom    3 type  2   force =     0.00006566   -0.00020839   -0.02048265
     atom    4 type  2   force =     0.00000535   -0.00195020    0.05846757
     atom    5 type  2   force =    -0.01029276   -0.00134591    0.00735326
     atom    6 type  2   force =     0.01229139   -0.00074899    0.00784598
     atom    7 type  1   force =     0.00036046    0.00277285   -0.01406672
     atom    8 type  1   force =    -0.00055785    0.00107432   -0.00333976
     atom    9 type  2   force =     0.00003976    0.00049834   -0.00007944
     atom   10 type  2   force =    -0.00055322   -0.00103639   -0.00005150
     atom   11 type  2   force =     0.00008484    0.00011184    0.00003757
     atom   12 type  2   force =    -0.00025092    0.00016194   -0.00007407
     atom   13 type  1   force =    -0.00002114    0.00090084   -0.00028036
     atom   14 type  1   force =     0.00009934    0.00024420   -0.00016900
     atom   15 type  2   force =    -0.00012984    0.00011713    0.00096249
     atom   16 type  2   force =     0.00004256    0.00011352   -0.00005310
     atom   17 type  2   force =     0.00026341   -0.00033154    0.00002544
     atom   18 type  2   force =    -0.00021650   -0.00047425   -0.00045827
     atom   19 type  1   force =    -0.00060147   -0.00017092    0.00015543
     atom   20 type  1   force =    -0.00024674    0.00070950    0.00002509
     atom   21 type  2   force =    -0.00001826    0.00000457    0.10388524
     atom   22 type  2   force =    -0.00028676   -0.00066833   -0.00094632
     atom   23 type  2   force =    -0.07043923   -0.00008545   -0.02689602
     atom   24 type  2   force =     0.07027906    0.00035141   -0.02694687
     atom   25 type  1   force =     0.00004636   -0.00004661    0.09290908
     atom   26 type  1   force =    -0.00016856   -0.00018293   -0.17815331
     atom   27 type  2   force =     0.00012366   -0.00033368   -0.01950153
     atom   28 type  2   force =     0.00003349   -0.00167893    0.05803811
     atom   29 type  2   force =    -0.01040325   -0.00124503    0.00692702
     atom   30 type  2   force =     0.01228831   -0.00091750    0.00743645
     atom   31 type  1   force =     0.00034992    0.00516943   -0.01509871
     atom   32 type  1   force =    -0.00047246   -0.00162322   -0.00358542
     atom   33 type  2   force =    -0.00019473   -0.00021636   -0.00019200
     atom   34 type  2   force =     0.00029216   -0.00052445    0.00105560
     atom   35 type  2   force =    -0.00040730    0.00005654    0.00023317
     atom   36 type  2   force =     0.00034043   -0.00002689    0.00029374
     atom   37 type  1   force =    -0.00011423   -0.00043736   -0.00004510
     atom   38 type  1   force =     0.00014042    0.00033180   -0.00030264
     atom   39 type  2   force =    -0.00033680   -0.00042766    0.00116285
     atom   40 type  2   force =     0.00006569    0.00006931   -0.00018843
     atom   41 type  2   force =    -0.00002580    0.00027310   -0.00037910
     atom   42 type  2   force =    -0.00014082    0.00002415   -0.00040687
     atom   43 type  1   force =    -0.00078531   -0.00017444    0.00008588
     atom   44 type  1   force =     0.00007439    0.00046701   -0.00001286
     atom   45 type  2   force =    -0.00000743    0.00001210    0.10387026
     atom   46 type  2   force =    -0.07046457   -0.00004543   -0.02690062
     atom   47 type  2   force =     0.07029092    0.00039576   -0.02697330
     atom   48 type  3   force =     0.00004450   -0.00083870    0.00012565
     atom   49 type  4   force =    -0.00087317    0.00053869   -0.00044803
     atom   50 type  5   force =     0.00012761   -0.00004091    0.00049726
     atom   51 type  3   force =    -0.00065420   -0.00128890    0.02217781
     atom   52 type  5   force =    -0.00444948   -0.00286288   -0.01132764
     atom   53 type  5   force =     0.00479614    0.00624331   -0.00876225
     atom   54 type  5   force =     0.00074905   -0.00030727   -0.00260791

     Total force =     0.367050     Total SCF correction =     0.000307
  @ DRIVER MODE: Message from server: STATUS
  @ DRIVER MODE: Message from server: GETFORCE
  @ DRIVER MODE: Returning v,forces,stress,ensemble

     Writing output data file ./calc.save/
  @ DRIVER MODE: Message from server: EXIT
  @ DRIVE MODE: Exiting

     General routines

     Parallel routines

   This run was terminated on:   1:38:30  24Aug2021

   JOB DONE.