     Program PWSCF v.6.7GPU starts on 24Sep2021 at  1:51:23

     R & G space division:  proc/nbgrp/npool/nimage =       8
     Reading input from /storage/home/hcoda1/3/ntian30/research/carbon/CxH_vib/H2O_calc/ads_slab/CH3NHHHO_a/out_0037/pw.inp
Warning: card &CELL ignored
Warning: card   CELL_DYNAMICS='IPI', ignored
Warning: card / ignored

     Current dimensions of program PWSCF are:
     Max number of different atomic species (ntypx) = 10
     Max number of k-points (npk) =  40000
     Max angular momentum in pseudopotentials (lmaxx) =  3
     Presently no symmetry can be used with electric field

     Message from routine cell_base_init:
     DEPRECATED: use true lattice parameter, not A to a.u. conversion factor

     IMPORTANT: XC functional enforced from input :
     Exchange-correlation= BEEF-VDW
                           (   1   4  43  14   2   0   0)
     Any further DFT definition will be discarded
     Please, verify this is what you really want

  @ DRIVER MODE: Connecting to
 qe_1139763_2947311.sched-torque.pace.gatech.edukp1_dp1r_scratch
  using UNIX socket
  @ DRIVER MODE: Message from server: STATUS
  @ DRIVER MODE: Message from server: INIT
  @ DRIVER MODE: Receiving replica           0          -1
  @ DRIVER MODE: Receiving encoded integer          25
  @ DRIVER MODE:  SCF:  T  FORCE:  T  STRESS:  F  VC:  F  ENSEMBLE:  F
  @ DRIVER MODE:  SCF:  T  FORCE:  T  STRESS:  F  VC:  F  ENSEMBLE:  F

     Using Slab Decomposition

     bravais-lattice index     =            0
     lattice parameter (alat)  =       1.8897  a.u.
     unit-cell volume          =    6658.9804 (a.u.)^3
     number of atoms/cell      =           56
     number of atomic types    =            5
     number of electrons       =       399.00
     number of Kohn-Sham states=          209
     kinetic-energy cutoff     =      29.3995  Ry
     charge density cutoff     =     293.9946  Ry
     scf convergence threshold =      7.3E-08
     mixing beta               =       0.0500
     number of iterations used =            8  plain     mixing
     Exchange-correlation= BEEF-VDW
                           (   1   4  43  14   2   0   0)

     celldm(1)=   1.889726  celldm(2)=   0.000000  celldm(3)=   0.000000
     celldm(4)=   0.000000  celldm(5)=   0.000000  celldm(6)=   0.000000

     crystal axes: (cart. coord. in units of alat)
               a(1) = (   6.579727   0.000000   0.000000 )
               a(2) = (  -0.000775   5.961596   0.000000 )
               a(3) = (   0.000000   0.000000  25.155947 )

     reciprocal axes: (cart. coord. in units 2 pi/alat)
               b(1) = (  0.151982  0.000020  0.000000 )
               b(2) = (  0.000000  0.167740  0.000000 )
               b(3) = (  0.000000  0.000000  0.039752 )

     PseudoPot. # 1 for Ti read from file:
     /storage/coda1/p-amedford6/0/shared/rich_project_chbe-medford/medford-share/data/pseudos_module/espresso/nninc/pbe/van/Ti.UPF
     MD5 check sum: 8e4df49b7f0d34bbd5052bf3f5ea0213
     Pseudo is Ultrasoft, Zval = 12.0
     Generated by new atomic code, or converted to UPF format
     Using radial grid of  851 points,  6 beta functions with:
                l(1) =   0
                l(2) =   0
                l(3) =   1
                l(4) =   1
                l(5) =   2
                l(6) =   2
     Q(r) pseudized with  8 coefficients,  rinner =    1.000   1.000   1.000
                                                       1.000   1.000

     PseudoPot. # 2 for O  read from file:
     /storage/coda1/p-amedford6/0/shared/rich_project_chbe-medford/medford-share/data/pseudos_module/espresso/nninc/pbe/van/O.UPF
     MD5 check sum: 78c19812648e8988a0fe644b0f25305e
     Pseudo is Ultrasoft, Zval =  6.0
     Generated by new atomic code, or converted to UPF format
     Using radial grid of  737 points,  4 beta functions with:
                l(1) =   0
                l(2) =   0
                l(3) =   1
                l(4) =   1
     Q(r) pseudized with  8 coefficients,  rinner =    0.800   0.800   0.800

     PseudoPot. # 3 for N  read from file:
     /storage/coda1/p-amedford6/0/shared/rich_project_chbe-medford/medford-share/data/pseudos_module/espresso/nninc/pbe/van/N.UPF
     MD5 check sum: 90d10febe142ad51ac9d5be1deb811c4
     Pseudo is Ultrasoft, Zval =  5.0
     Generated by new atomic code, or converted to UPF format
     Using radial grid of  729 points,  4 beta functions with:
                l(1) =   0
                l(2) =   0
                l(3) =   1
                l(4) =   1
     Q(r) pseudized with  8 coefficients,  rinner =    0.800   0.800   0.800

     PseudoPot. # 4 for C  read from file:
     /storage/coda1/p-amedford6/0/shared/rich_project_chbe-medford/medford-share/data/pseudos_module/espresso/nninc/pbe/van/C.UPF
     MD5 check sum: 1a69bf6b8db32088f5b2163dbdb77a27
     Pseudo is Ultrasoft, Zval =  4.0
     Generated by new atomic code, or converted to UPF format
     Using radial grid of  721 points,  4 beta functions with:
                l(1) =   0
                l(2) =   0
                l(3) =   1
                l(4) =   1
     Q(r) pseudized with  8 coefficients,  rinner =    0.800   0.800   0.800

     PseudoPot. # 5 for H  read from file:
     /storage/coda1/p-amedford6/0/shared/rich_project_chbe-medford/medford-share/data/pseudos_module/espresso/nninc/pbe/van/H.UPF
     MD5 check sum: b5ee9d7bfd3a09ee7748110bda690ff7
     Pseudo is Ultrasoft, Zval =  1.0
     Generated by new atomic code, or converted to UPF format
     Using radial grid of  615 points,  1 beta functions with:
                l(1) =   0
     Q(r) pseudized with  8 coefficients,  rinner =    0.800

     atomic species   valence    mass     pseudopotential
        Ti1           12.00    47.86700     Ti( 1.00)
        O1             6.00    15.99900     O ( 1.00)
        N1             5.00    14.00700     N ( 1.00)
        C1             4.00    12.01100     C ( 1.00)
        H1             1.00     1.00800     H ( 1.00)

     No symmetry found

   Cartesian axes

     site n.     atom                  positions (alat units)
         1           Ti1 tau(   1) = (   0.0004258   2.9801865   6.0000000  )
         2           Ti1 tau(   2) = (   3.2906075   1.4906267   6.0002472  )
         3           O1  tau(   3) = (   0.0006271   0.0005054   7.9858123  )
         4           O1  tau(   4) = (   3.2906025   0.0005020   7.3038282  )
         5           O1  tau(   5) = (   4.5942328   1.4918067   9.2879030  )
         6           O1  tau(   6) = (   1.9868534   1.4903216   9.2879459  )
         7           Ti1 tau(   7) = (   3.2907910   2.8959150   9.1758416  )
         8           Ti1 tau(   8) = (   0.0015273   1.4827037   9.2680791  )
         9           O1  tau(   9) = (   3.2949530   5.9481847  11.3666340  )
        10           O1  tau(  10) = (   0.0116148   5.9584955  10.6183126  )
        11           O1  tau(  11) = (   1.2732546   1.4916747  12.6876809  )
        12           O1  tau(  12) = (   5.3119445   1.4892451  12.6851550  )
        13           Ti1 tau(  13) = (   6.5688325   2.9465269  12.5174317  )
        14           Ti1 tau(  14) = (   3.2996026   1.2975375  12.7241829  )
        15           O1  tau(  15) = (   0.0172205   5.8793003  14.6619373  )
        16           O1  tau(  16) = (   3.2917661   0.0702926  14.0149596  )
        17           O1  tau(  17) = (   4.5643074   1.5920826  16.1346482  )
        18           O1  tau(  18) = (   2.0131957   1.5841813  16.0575481  )
        19           Ti1 tau(  19) = (   3.2662748   3.0407108  15.6947786  )
        20           Ti1 tau(  20) = (   0.0618610   1.3206105  15.7998127  )
        21           O1  tau(  21) = (   3.2904802   0.0005063   4.7018136  )
        22           O1  tau(  22) = (   0.0233933   0.1570098  17.1842078  )
        23           O1  tau(  23) = (   1.3043587   1.4918075   6.0039043  )
        24           O1  tau(  24) = (   5.2767064   1.4903225   6.0039473  )
        25           Ti1 tau(  25) = (   0.0000382   5.9609847   6.0000000  )
        26           Ti1 tau(  26) = (   3.2902200   4.4714249   6.0002472  )
        27           O1  tau(  27) = (   0.0002396   2.9813036   7.9858123  )
        28           O1  tau(  28) = (   3.2902150   2.9813002   7.3038282  )
        29           O1  tau(  29) = (   4.5938453   4.4726049   9.2879030  )
        30           O1  tau(  30) = (   1.9864658   4.4711199   9.2879459  )
        31           Ti1 tau(  31) = (   3.2891106   5.8743827   9.1763621  )
        32           Ti1 tau(  32) = (   0.0006254   4.4649316   9.2693709  )
        33           O1  tau(  33) = (   3.2948289   2.9949798  11.3176834  )
        34           O1  tau(  34) = (   0.0092240   2.9805883  10.6323155  )
        35           O1  tau(  35) = (   1.2828652   4.4571597  12.6432593  )
        36           O1  tau(  36) = (   5.3079144   4.4605214  12.6419564  )
        37           Ti1 tau(  37) = (   0.0266940   5.9154698  12.5044250  )
        38           Ti1 tau(  38) = (   3.3008436   4.3760658  12.4353554  )
        39           O1  tau(  39) = (   6.5507285   3.0461080  14.9005035  )
        40           O1  tau(  40) = (   3.2938476   3.0131494  13.9233183  )
        41           O1  tau(  41) = (   4.5350990   4.4864192  16.1518712  )
        42           O1  tau(  42) = (   1.9883536   4.4285065  16.1690201  )
        43           Ti1 tau(  43) = (   3.3916644   0.0784854  16.2809578  )
        44           Ti1 tau(  44) = (   0.0590441   4.5159846  16.0209683  )
        45           O1  tau(  45) = (   3.2900926   2.9813045   4.7018136  )
        46           O1  tau(  46) = (   1.3039711   4.4726057   6.0039043  )
        47           O1  tau(  47) = (   5.2763189   4.4711207   6.0039473  )
        48           N1  tau(  48) = (   6.2706434   3.3837210  18.0754458  )
        49           C1  tau(  49) = (   0.7642246   3.1223808  19.0622891  )
        50           H1  tau(  50) = (   1.3158356   4.0410886  19.2409436  )
        51           H1  tau(  51) = (   0.3597117   2.7583523  20.0089400  )
        52           H1  tau(  52) = (   1.4517744   2.3810259  18.6668870  )
        53           H1  tau(  53) = (   5.6745199   4.1349376  18.4206214  )
        54           H1  tau(  54) = (   5.6487021   2.5696541  18.0151127  )
        55           O1  tau(  55) = (   3.1972372   0.0910451  18.1323504  )
        56           H1  tau(  56) = (   2.2767176   0.1080423  18.4377142  )

     number of k points=    10  Fermi-Dirac smearing, width (Ry)=  0.0073
                       cart. coord. in units 2pi/alat
        k(    1) = (   0.0000000   0.0000000   0.0000000), wk =   0.1250000
        k(    2) = (   0.0000000   0.0419351   0.0000000), wk =   0.2500000
        k(    3) = (   0.0000000  -0.0838702   0.0000000), wk =   0.1250000
        k(    4) = (   0.0379955   0.0000049   0.0000000), wk =   0.2500000
        k(    5) = (   0.0379955   0.0419400   0.0000000), wk =   0.2500000
        k(    6) = (   0.0379955  -0.0838652   0.0000000), wk =   0.2500000
        k(    7) = (   0.0379955  -0.0419301   0.0000000), wk =   0.2500000
        k(    8) = (  -0.0759910  -0.0000099   0.0000000), wk =   0.1250000
        k(    9) = (  -0.0759910   0.0419252   0.0000000), wk =   0.2500000
        k(   10) = (  -0.0759910  -0.0838800   0.0000000), wk =   0.1250000

     Initial potential from superposition of free atoms

     starting charge  382.99914, renormalised to  399.00000

     negative rho (up, down):  1.588E-02 0.000E+00

     %%%%%%%%%%%%%%%%%%%%%%%%%%%%%%%%%%%%%%%%%%%%%%%%%%%%%%%%%%%%%%%%%%%%%%%%
     %                                                                      %
     % You are using vdW-DF, which was implemented by the Thonhauser group. %
     % Please cite the following two papers that made this development      %
     % possible and the two reviews that describe the various versions:     %
     %                                                                      %
     %   T. Thonhauser et al., PRL 115, 136402 (2015).                      %
     %   T. Thonhauser et al., PRB 76, 125112 (2007).                       %
     %   K. Berland et al., Rep. Prog. Phys. 78, 066501 (2015).             %
     %   D.C. Langreth et al., J. Phys.: Condens. Matter 21, 084203 (2009). %
     %                                                                      %
     %                                                                      %
     % If you are calculating the stress with vdW-DF, please also cite:     %
     %                                                                      %
     %   R. Sabatini et al., J. Phys.: Condens. Matter 24, 424209 (2012).   %
     %                                                                      %
     %%%%%%%%%%%%%%%%%%%%%%%%%%%%%%%%%%%%%%%%%%%%%%%%%%%%%%%%%%%%%%%%%%%%%%%%

     Adding external electric field

     Computed dipole along edir(3) :
        Dipole              -10.6962 Ry au,        -27.1870 Debye
        Dipole field         -0.0202 Ry au,

        Potential amp.        1.8711 Ry
        Total length         46.3494 bohr

     Starting wfcs are  302 atomic wfcs
  @ DRIVER MODE: Message from server: STATUS
  @ DRIVER MODE: Message from server: POSDATA
  @ DRIVER MODE: Reading and sharing cell
  @ DRIVER MODE: Reading and sharing positions
  @ DRIVER MODE: Received positions

     Self-consistent Calculation

     iteration #  1     ecut=    29.40 Ry     beta= 0.05
     Davidson diagonalization with overlap
     c_bands:  3 eigenvalues not converged
     c_bands:  2 eigenvalues not converged
     c_bands:  2 eigenvalues not converged
     c_bands:  5 eigenvalues not converged
     c_bands:  2 eigenvalues not converged
     c_bands:  5 eigenvalues not converged
     c_bands:  4 eigenvalues not converged
     c_bands:  3 eigenvalues not converged
     ethr =  1.00E-05,  avg # of iterations = 21.6

[...]

     total energy              =   -2438.26341531 Ry
     estimated scf accuracy    <    5770.43843631 Ry

     iteration #  2     ecut=    29.40 Ry     beta= 0.05
     Davidson diagonalization with overlap
     ethr =  1.00E-02,  avg # of iterations = 23.8

[...]

     iteration # 37     ecut=    29.40 Ry     beta= 0.05
     Davidson diagonalization with overlap
     c_bands:  1 eigenvalues not converged
     ethr =  3.27E-07,  avg # of iterations =  8.6

[...]

     total energy              =   -2955.26285414 Ry
     estimated scf accuracy    <       0.00000016 Ry

     iteration # 65     ecut=    29.40 Ry     beta= 0.05
     Davidson diagonalization with overlap
     ethr =  1.93E-11,  avg # of iterations =  6.9

     negative rho (up, down):  1.647E-02 0.000E+00

     Adding external electric field

     Computed dipole along edir(3) :
        Dipole                0.9754 Ry au,          2.4791 Debye
        Dipole field          0.0018 Ry au,

        Potential amp.       -0.1706 Ry
        Total length         46.3494 bohr

     End of self-consistent calculation

          k = 0.0000 0.0000 0.0000 ( 18029 PWs)   bands (ev):

   -55.6834 -55.6367 -55.6026 -55.5120 -55.5021 -55.4668 -55.4658 -55.4638
   -55.4318 -55.4184 -55.3677 -55.2728 -55.2263 -55.2128 -54.6128 -54.5787
   -32.1221 -32.0202 -32.0116 -31.9882 -31.9687 -31.9567 -31.9274 -31.9016
   -31.8948 -31.8832 -31.8826 -31.7901 -31.7893 -31.7744 -31.7491 -31.7453
   -31.7440 -31.7428 -31.7418 -31.7058 -31.6942 -31.6648 -31.6623 -31.6559
   -31.6505 -31.6443 -31.6362 -31.6059 -31.6034 -31.5981 -31.5929 -31.5897
   -31.5787 -31.5636 -31.5492 -31.5238 -31.4642 -31.4556 -31.4455 -31.4220
   -31.4193 -31.4147 -31.0188 -30.9324 -30.9099 -30.8364 -30.7500 -30.6382
   -16.5123 -16.2962 -16.1481 -15.9732 -15.8373 -15.8076 -15.7629 -15.5989
   -15.5063 -15.4425 -15.2420 -15.2217 -15.1755 -15.1643 -15.1589 -15.1360
   -15.1263 -15.0813 -15.0628 -15.0594 -15.0495 -15.0320 -14.9955 -14.9532
   -14.9103 -14.8891 -14.7765 -14.7201 -14.6795 -14.4684 -14.3991 -13.1112
   -12.9948  -9.9852  -5.9819  -4.5933  -4.0637  -3.7648  -3.6446  -3.5469
    -3.5355  -3.4159  -3.4064  -3.1659  -3.0422  -2.9830  -2.9050  -2.7826
    -2.7506  -2.6774  -2.6372  -2.5872  -2.5687  -2.5319  -2.4910  -2.4488
    -2.4233  -2.3955  -2.3617  -2.3059  -2.2945  -2.1959  -2.1819  -2.1585
    -2.0538  -2.0124  -1.9724  -1.9543  -1.9493  -1.9302  -1.8916  -1.8853
    -1.8656  -1.7875  -1.7184  -1.6722  -1.6372  -1.6094  -1.3319  -1.2466
    -1.2028  -1.1883  -1.0843  -1.0607  -1.0323  -1.0188  -0.9817  -0.9657
    -0.8537  -0.8373  -0.7686  -0.7188  -0.7044  -0.6669  -0.5479  -0.5110
    -0.4605  -0.4206  -0.3704  -0.3526  -0.3480  -0.2534  -0.2265  -0.1915
    -0.0835  -0.0667  -0.0041   0.0811   0.0909   0.1421   0.1662   0.2260
     0.2307   0.2851   0.3148   0.3370   0.3904   0.4228   0.4592   0.4921
     0.5093   0.6116   0.6868   0.6996   0.7961   0.8714   0.9249   1.0287
     1.0965   1.3603   1.4138   1.4377   1.6058   1.9811   2.0265   3.4449
     3.5939   3.6094   3.6840   3.6966   3.7738   3.9344   3.9593   4.0942
     4.1328

[...]

          k = 0.0380-0.0419 0.0000 ( 17876 PWs)   bands (ev):

[...]

          k =-0.0760-0.0000 0.0000 ( 17886 PWs)   bands (ev):

[...]

          k =-0.0760-0.0839 0.0000 ( 17948 PWs)   bands (ev):

   -55.6825 -55.6198 -55.6194 -55.5108 -55.4909 -55.4750 -55.4676 -55.4494
   -55.4477 -55.4120 -55.3741 -55.2680 -55.2274 -55.2175 -54.5962 -54.5952
   -31.9532 -31.9452 -31.9375 -31.9372 -31.9300 -31.9131 -31.9126 -31.8971
   -31.8526 -31.8110 -31.7930 -31.7802 -31.7763 -31.7746 -31.7529 -31.7429
   -31.7397 -31.7391 -31.7288 -31.7249 -31.7173 -31.7164 -31.7018 -31.6779
   -31.6718 -31.6674 -31.6578 -31.6475 -31.6320 -31.6313 -31.6292 -31.6237
   -31.6220 -31.5968 -31.5963 -31.5554 -31.5308 -31.4948 -31.4685 -31.4638
   -31.4478 -31.4187 -30.9230 -30.9222 -30.8323 -30.8310 -30.7936 -30.7928
   -16.4826 -15.9250 -15.8532 -15.7448 -15.6216 -15.6083 -15.4973 -15.4144
   -15.4107 -15.3809 -15.3495 -15.3219 -15.3122 -15.2950 -15.2482 -15.2048
   -15.1696 -15.1418 -15.1398 -15.0940 -15.0869 -15.0755 -15.0629 -15.0406
   -15.0069 -14.9571 -14.9427 -14.9037 -14.7661 -14.6888 -14.5907 -13.0969
   -13.0964  -9.9873  -5.9619  -4.5907  -4.0272  -3.7225  -3.0561  -2.9601
    -2.8481  -2.7234  -2.7149  -2.6996  -2.6424  -2.6116  -2.5855  -2.5442
    -2.4870  -2.4673  -2.4466  -2.4302  -2.4085  -2.3906  -2.3818  -2.3766
    -2.3401  -2.3224  -2.3140  -2.2730  -2.2653  -2.2486  -2.2283  -2.2113
    -2.1807  -2.1763  -2.1470  -2.0945  -2.0461  -1.9723  -1.8792  -1.7980
    -1.7869  -1.7684  -1.7188  -1.7123  -1.6668  -1.6590  -1.6343  -1.5481
    -1.4368  -1.3862  -1.2755  -1.2556  -1.2289  -1.1888  -1.1364  -1.1220
    -1.0767  -1.0462  -0.9864  -0.8852  -0.8552  -0.8002  -0.6867  -0.6490
    -0.6106  -0.5907  -0.5786  -0.5534  -0.5368  -0.4971  -0.4690  -0.4208
    -0.3815  -0.3472  -0.3204  -0.2949  -0.2486  -0.1464  -0.0520  -0.0147
     0.0868   0.1330   0.1750   0.2071   0.2691   0.4036   0.4305   0.5263
     0.5411   0.5702   0.6719   0.6820   0.7831   0.8073   0.8454   0.8864
     0.9111   0.9322   0.9519   1.7755   1.7840   1.8469   1.8470   3.7379
     3.9302   3.9454   3.9616   4.0063   4.0135   4.0406   4.0462   4.1128
     4.1236

     the Fermi energy is     3.4838 ev

!    total energy              =   -2955.26288249 Ry
     estimated scf accuracy    <       0.00000004 Ry
     smearing contrib. (-TS)   =      -0.01953262 Ry
     internal energy E=F+TS    =   -2955.24334987 Ry

     The total energy is F=E-TS. E is the sum of the following terms:
     one-electron contribution =  -23741.50340590 Ry
     hartree contribution      =   11962.86558095 Ry
     xc contribution           =    -489.73253611 Ry
     ewald contribution        =    9313.12521595 Ry
     electric field correction =       0.00179524 Ry

     convergence has been achieved in  65 iterations

     Forces acting on atoms (cartesian axes, Ry/au):

     atom    1 type  1   force =     0.00008948   -0.00029454    0.09414767
     atom    2 type  1   force =    -0.00003802    0.00043573   -0.17541017
     atom    3 type  2   force =     0.00003957   -0.00033652   -0.02109059
     atom    4 type  2   force =     0.00002350   -0.00197828    0.05462165
     atom    5 type  2   force =    -0.00673750   -0.00245044    0.00301908
     atom    6 type  2   force =     0.00834307   -0.00187341    0.00243920
     atom    7 type  1   force =    -0.00017820   -0.00404511    0.00897809
     atom    8 type  1   force =     0.00032026    0.00082205    0.00311527
     atom    9 type  2   force =    -0.00058092    0.00058112   -0.00017277
     atom   10 type  2   force =    -0.00139199    0.00173028   -0.00928390
     atom   11 type  2   force =     0.00003361   -0.00016024    0.00037245
     atom   12 type  2   force =    -0.00005077   -0.00011415   -0.00031117
     atom   13 type  1   force =    -0.00048750   -0.00024744    0.00005725
     atom   14 type  1   force =     0.00001108   -0.00033761   -0.00008307
     atom   15 type  2   force =    -0.00031776   -0.00004227   -0.00016217
     atom   16 type  2   force =     0.00032739   -0.00053170   -0.00039837
     atom   17 type  2   force =     0.00039718   -0.00013553   -0.00074251
     atom   18 type  2   force =    -0.00041903    0.00014826   -0.00014224
     atom   19 type  1   force =     0.00041833   -0.00059719    0.00063170
     atom   20 type  1   force =     0.00051265    0.00034863    0.00064653
     atom   21 type  2   force =     0.00007408    0.00004660    0.10323939
     atom   22 type  2   force =    -0.00046123    0.00032167    0.00010174
     atom   23 type  2   force =    -0.07191317   -0.00018959   -0.02720674
     atom   24 type  2   force =     0.07184221    0.00025117   -0.02725151
     atom   25 type  1   force =     0.00002148   -0.00024386    0.09381689
     atom   26 type  1   force =    -0.00005941   -0.00132823   -0.17559682
     atom   27 type  2   force =     0.00015630   -0.00011494   -0.01985572
     atom   28 type  2   force =     0.00007006   -0.00032370    0.04989727
     atom   29 type  2   force =    -0.00612910    0.00232139    0.00252470
     atom   30 type  2   force =     0.00762285    0.00268614    0.00197404
     atom   31 type  1   force =     0.00002355    0.00840259   -0.00273899
     atom   32 type  1   force =     0.00011780   -0.00235898    0.00259640
     atom   33 type  2   force =     0.00005130   -0.00000423   -0.00004732
     atom   34 type  2   force =    -0.00211782   -0.00248833   -0.01005736
     atom   35 type  2   force =    -0.00014772   -0.00001756    0.00052852
     atom   36 type  2   force =    -0.00006879    0.00007025   -0.00008027
     atom   37 type  1   force =     0.00016520   -0.00009132   -0.00023335
     atom   38 type  1   force =     0.00005507   -0.00016913    0.00024156
     atom   39 type  2   force =    -0.00013237    0.00009972   -0.00031053
     atom   40 type  2   force =     0.00017239   -0.00024936   -0.00007336
     atom   41 type  2   force =    -0.00039679   -0.00074182    0.00063887
     atom   42 type  2   force =     0.00052739    0.00004204   -0.00018479
     atom   43 type  1   force =    -0.00082814   -0.00065862    0.00022226
     atom   44 type  1   force =     0.00038079    0.00044657   -0.00018145
     atom   45 type  2   force =     0.00006825   -0.00007266    0.10304066
     atom   46 type  2   force =    -0.07193206   -0.00004514   -0.02723952
     atom   47 type  2   force =     0.07189529    0.00039362   -0.02728820
     atom   48 type  3   force =    -0.00664400   -0.00581805   -0.00054806
     atom   49 type  4   force =    -0.00001177   -0.00042135    0.00044487
     atom   50 type  5   force =     0.00040589    0.00095926   -0.00029489
     atom   51 type  5   force =    -0.00001002    0.00071292    0.00015326
     atom   52 type  5   force =     0.00031273   -0.00022237   -0.00066840
     atom   53 type  5   force =     0.00015309    0.00129852   -0.00058197
     atom   54 type  5   force =     0.00713006    0.00611321    0.00073295
     atom   55 type  2   force =    -0.00045056    0.00037733    0.00049315
     atom   56 type  5   force =    -0.00025725    0.00009460   -0.00043923

     Total force =     0.362421     Total SCF correction =     0.000497
  @ DRIVER MODE: Message from server: STATUS
  @ DRIVER MODE: Message from server: GETFORCE
  @ DRIVER MODE: Returning v,forces,stress,ensemble

     Writing output data file ./calc.save/
  @ DRIVER MODE: Message from server: EXIT
  @ DRIVE MODE: Exiting

     General routines

     Parallel routines

   This run was terminated on:   2:13:11  24Sep2021

   JOB DONE.