     Program PWSCF v.6.7GPU starts on 23Sep2021 at  1:50:14

     R & G space division:  proc/nbgrp/npool/nimage =      10
     Reading input from /storage/home/hcoda1/3/ntian30/research/carbon/CxH_vib/H2O_calc/ads_slab/CH2NHO_a/out_0031/pw.inp
Warning: card &CELL ignored
Warning: card   CELL_DYNAMICS='IPI', ignored
Warning: card / ignored

     Current dimensions of program PWSCF are:
     Max number of different atomic species (ntypx) = 10
     Max number of k-points (npk) =  40000
     Max angular momentum in pseudopotentials (lmaxx) =  3
     Presently no symmetry can be used with electric field

     Message from routine cell_base_init:
     DEPRECATED: use true lattice parameter, not A to a.u. conversion factor

     IMPORTANT: XC functional enforced from input :
     Exchange-correlation= BEEF-VDW
                           (   1   4  43  14   2   0   0)
     Any further DFT definition will be discarded
     Please, verify this is what you really want

  @ DRIVER MODE: Connecting to
 qe_1139763_2937321.sched-torque.pace.gatech.edu1l3t11ck_scratch
  using UNIX socket
  @ DRIVER MODE: Message from server: STATUS
  @ DRIVER MODE: Message from server: INIT
  @ DRIVER MODE: Receiving replica           0          -1
  @ DRIVER MODE: Receiving encoded integer          25
  @ DRIVER MODE:  SCF:  T  FORCE:  T  STRESS:  F  VC:  F  ENSEMBLE:  F
  @ DRIVER MODE:  SCF:  T  FORCE:  T  STRESS:  F  VC:  F  ENSEMBLE:  F

     Using Slab Decomposition

     bravais-lattice index     =            0
     lattice parameter (alat)  =       1.8897  a.u.
     unit-cell volume          =    6658.9804 (a.u.)^3
     number of atoms/cell      =           53
     number of atomic types    =            5
     number of electrons       =       396.00
     number of Kohn-Sham states=          208
     kinetic-energy cutoff     =      29.3995  Ry
     charge density cutoff     =     293.9946  Ry
     scf convergence threshold =      7.3E-08
     mixing beta               =       0.0500
     number of iterations used =            8  plain     mixing
     Exchange-correlation= BEEF-VDW
                           (   1   4  43  14   2   0   0)

     celldm(1)=   1.889726  celldm(2)=   0.000000  celldm(3)=   0.000000
     celldm(4)=   0.000000  celldm(5)=   0.000000  celldm(6)=   0.000000

     crystal axes: (cart. coord. in units of alat)
               a(1) = (   6.579727   0.000000   0.000000 )
               a(2) = (  -0.000775   5.961596   0.000000 )
               a(3) = (   0.000000   0.000000  25.155947 )

     reciprocal axes: (cart. coord. in units 2 pi/alat)
               b(1) = (  0.151982  0.000020  0.000000 )
               b(2) = (  0.000000  0.167740  0.000000 )
               b(3) = (  0.000000  0.000000  0.039752 )

     PseudoPot. # 1 for Ti read from file:
     /storage/coda1/p-amedford6/0/shared/rich_project_chbe-medford/medford-share/data/pseudos_module/espresso/nninc/pbe/van/Ti.UPF
     MD5 check sum: 8e4df49b7f0d34bbd5052bf3f5ea0213
     Pseudo is Ultrasoft, Zval = 12.0
     Generated by new atomic code, or converted to UPF format
     Using radial grid of  851 points,  6 beta functions with:
                l(1) =   0
                l(2) =   0
                l(3) =   1
                l(4) =   1
                l(5) =   2
                l(6) =   2
     Q(r) pseudized with  8 coefficients,  rinner =    1.000   1.000   1.000
                                                       1.000   1.000

     PseudoPot. # 2 for O  read from file:
     /storage/coda1/p-amedford6/0/shared/rich_project_chbe-medford/medford-share/data/pseudos_module/espresso/nninc/pbe/van/O.UPF
     MD5 check sum: 78c19812648e8988a0fe644b0f25305e
     Pseudo is Ultrasoft, Zval =  6.0
     Generated by new atomic code, or converted to UPF format
     Using radial grid of  737 points,  4 beta functions with:
                l(1) =   0
                l(2) =   0
                l(3) =   1
                l(4) =   1
     Q(r) pseudized with  8 coefficients,  rinner =    0.800   0.800   0.800

     PseudoPot. # 3 for N  read from file:
     /storage/coda1/p-amedford6/0/shared/rich_project_chbe-medford/medford-share/data/pseudos_module/espresso/nninc/pbe/van/N.UPF
     MD5 check sum: 90d10febe142ad51ac9d5be1deb811c4
     Pseudo is Ultrasoft, Zval =  5.0
     Generated by new atomic code, or converted to UPF format
     Using radial grid of  729 points,  4 beta functions with:
                l(1) =   0
                l(2) =   0
                l(3) =   1
                l(4) =   1
     Q(r) pseudized with  8 coefficients,  rinner =    0.800   0.800   0.800

     PseudoPot. # 4 for C  read from file:
     /storage/coda1/p-amedford6/0/shared/rich_project_chbe-medford/medford-share/data/pseudos_module/espresso/nninc/pbe/van/C.UPF
     MD5 check sum: 1a69bf6b8db32088f5b2163dbdb77a27
     Pseudo is Ultrasoft, Zval =  4.0
     Generated by new atomic code, or converted to UPF format
     Using radial grid of  721 points,  4 beta functions with:
                l(1) =   0
                l(2) =   0
                l(3) =   1
                l(4) =   1
     Q(r) pseudized with  8 coefficients,  rinner =    0.800   0.800   0.800

     PseudoPot. # 5 for H  read from file:
     /storage/coda1/p-amedford6/0/shared/rich_project_chbe-medford/medford-share/data/pseudos_module/espresso/nninc/pbe/van/H.UPF
     MD5 check sum: b5ee9d7bfd3a09ee7748110bda690ff7
     Pseudo is Ultrasoft, Zval =  1.0
     Generated by new atomic code, or converted to UPF format
     Using radial grid of  615 points,  1 beta functions with:
                l(1) =   0
     Q(r) pseudized with  8 coefficients,  rinner =    0.800

     atomic species   valence    mass     pseudopotential
        Ti1           12.00    47.86700     Ti( 1.00)
        O1             6.00    15.99900     O ( 1.00)
        N1             5.00    14.00700     N ( 1.00)
        C1             4.00    12.01100     C ( 1.00)
        H1             1.00     1.00800     H ( 1.00)

     No symmetry found

   Cartesian axes

     site n.     atom                  positions (alat units)
         1           Ti1 tau(   1) = (   0.0004258   2.9801865   6.0000000  )
         2           Ti1 tau(   2) = (   3.2906075   1.4906267   6.0002472  )
         3           O1  tau(   3) = (   0.0006271   0.0005054   7.9858123  )
         4           O1  tau(   4) = (   3.2906025   0.0005020   7.3038282  )
         5           O1  tau(   5) = (   4.5942328   1.4918067   9.2879030  )
         6           O1  tau(   6) = (   1.9868534   1.4903216   9.2879459  )
         7           Ti1 tau(   7) = (   3.2907910   2.8959150   9.1758416  )
         8           Ti1 tau(   8) = (   0.0015273   1.4827037   9.2680791  )
         9           O1  tau(   9) = (   3.3049783   5.9490022  11.2668993  )
        10           O1  tau(  10) = (   0.0116148   5.9584955  10.6183126  )
        11           O1  tau(  11) = (   1.3054562   1.4902858  12.6165390  )
        12           O1  tau(  12) = (   5.3128925   1.4966897  12.6222362  )
        13           Ti1 tau(  13) = (   0.0227526   2.8513963  12.7011302  )
        14           Ti1 tau(  14) = (   3.3146314   1.3157910  12.6511296  )
        15           O1  tau(  15) = (   0.0292331   0.0037381  14.6451560  )
        16           O1  tau(  16) = (   3.3105559   0.0332628  13.8611824  )
        17           O1  tau(  17) = (   4.5798417   1.5533887  16.0574704  )
        18           O1  tau(  18) = (   2.0659959   1.5620864  16.0379710  )
        19           Ti1 tau(  19) = (   3.3199680   3.0150018  15.6455324  )
        20           Ti1 tau(  20) = (   6.5662113   1.5085715  15.8767718  )
        21           O1  tau(  21) = (   3.2904802   0.0005063   4.7018136  )
        22           O1  tau(  22) = (   0.0336757   0.0283057  17.1922241  )
        23           O1  tau(  23) = (   1.3043587   1.4918075   6.0039043  )
        24           O1  tau(  24) = (   5.2767064   1.4903225   6.0039473  )
        25           Ti1 tau(  25) = (   0.0000382   5.9609847   6.0000000  )
        26           Ti1 tau(  26) = (   3.2902200   4.4714249   6.0002472  )
        27           O1  tau(  27) = (   0.0002396   2.9813036   7.9858123  )
        28           O1  tau(  28) = (   3.2902150   2.9813002   7.3038282  )
        29           O1  tau(  29) = (   4.5938453   4.4726049   9.2879030  )
        30           O1  tau(  30) = (   1.9864658   4.4711199   9.2879459  )
        31           Ti1 tau(  31) = (   3.2891106   5.8743827   9.1763621  )
        32           Ti1 tau(  32) = (   0.0006254   4.4649316   9.2693709  )
        33           O1  tau(  33) = (   3.3044035   3.0314990  11.2389097  )
        34           O1  tau(  34) = (   0.0092240   2.9805883  10.6323155  )
        35           O1  tau(  35) = (   1.3090660   4.4724101  12.6204063  )
        36           O1  tau(  36) = (   5.3093727   4.4739031  12.6240458  )
        37           Ti1 tau(  37) = (   0.0315986   5.8296340  12.6341251  )
        38           Ti1 tau(  38) = (   3.3217628   4.4127071  12.4104736  )
        39           O1  tau(  39) = (   0.0286309   2.9529265  14.6620113  )
        40           O1  tau(  40) = (   3.3111648   2.9942334  13.8608864  )
        41           O1  tau(  41) = (   4.5850423   4.4544105  16.0703757  )
        42           O1  tau(  42) = (   2.0817017   4.4739285  16.0881885  )
        43           Ti1 tau(  43) = (   3.2564312   0.0343949  16.3346327  )
        44           Ti1 tau(  44) = (   6.5491996   4.6347227  16.0815441  )
        45           O1  tau(  45) = (   3.2900926   2.9813045   4.7018136  )
        46           O1  tau(  46) = (   1.3039711   4.4726057   6.0039043  )
        47           O1  tau(  47) = (   5.2763189   4.4711207   6.0039473  )
        48           N1  tau(  48) = (   0.0476609   2.9608057  17.4046342  )
        49           C1  tau(  49) = (   0.0744360   2.8714357  18.6596517  )
        50           H1  tau(  50) = (   0.0810575   3.7616739  19.3027278  )
        51           H1  tau(  51) = (   0.0872865   1.8968143  19.1621030  )
        52           O1  tau(  52) = (   3.2917830   0.0572188  18.1605702  )
        53           H1  tau(  53) = (   2.8814424   5.3141097  18.6896264  )

     number of k points=    10  Fermi-Dirac smearing, width (Ry)=  0.0073
                       cart. coord. in units 2pi/alat
        k(    1) = (   0.0000000   0.0000000   0.0000000), wk =   0.1250000
        k(    2) = (   0.0000000   0.0419351   0.0000000), wk =   0.2500000
        k(    3) = (   0.0000000  -0.0838702   0.0000000), wk =   0.1250000
        k(    4) = (   0.0379955   0.0000049   0.0000000), wk =   0.2500000
        k(    5) = (   0.0379955   0.0419400   0.0000000), wk =   0.2500000
        k(    6) = (   0.0379955  -0.0838652   0.0000000), wk =   0.2500000
        k(    7) = (   0.0379955  -0.0419301   0.0000000), wk =   0.2500000
        k(    8) = (  -0.0759910  -0.0000099   0.0000000), wk =   0.1250000
        k(    9) = (  -0.0759910   0.0419252   0.0000000), wk =   0.2500000
        k(   10) = (  -0.0759910  -0.0838800   0.0000000), wk =   0.1250000

     Initial potential from superposition of free atoms

     starting charge  379.99917, renormalised to  396.00000

     negative rho (up, down):  1.694E-02 0.000E+00

     %%%%%%%%%%%%%%%%%%%%%%%%%%%%%%%%%%%%%%%%%%%%%%%%%%%%%%%%%%%%%%%%%%%%%%%%
     %                                                                      %
     % You are using vdW-DF, which was implemented by the Thonhauser group. %
     % Please cite the following two papers that made this development      %
     % possible and the two reviews that describe the various versions:     %
     %                                                                      %
     %   T. Thonhauser et al., PRL 115, 136402 (2015).                      %
     %   T. Thonhauser et al., PRB 76, 125112 (2007).                       %
     %   K. Berland et al., Rep. Prog. Phys. 78, 066501 (2015).             %
     %   D.C. Langreth et al., J. Phys.: Condens. Matter 21, 084203 (2009). %
     %                                                                      %
     %                                                                      %
     % If you are calculating the stress with vdW-DF, please also cite:     %
     %                                                                      %
     %   R. Sabatini et al., J. Phys.: Condens. Matter 24, 424209 (2012).   %
     %                                                                      %
     %%%%%%%%%%%%%%%%%%%%%%%%%%%%%%%%%%%%%%%%%%%%%%%%%%%%%%%%%%%%%%%%%%%%%%%%

     Adding external electric field

     Computed dipole along edir(3) :
        Dipole               -7.7051 Ry au,        -19.5845 Debye
        Dipole field         -0.0145 Ry au,

        Potential amp.        1.3479 Ry
        Total length         46.3494 bohr

     Starting wfcs are  299 atomic wfcs
  @ DRIVER MODE: Message from server: STATUS
  @ DRIVER MODE: Message from server: POSDATA
  @ DRIVER MODE: Reading and sharing cell
  @ DRIVER MODE: Reading and sharing positions
  @ DRIVER MODE: Received positions

     Self-consistent Calculation

     iteration #  1     ecut=    29.40 Ry     beta= 0.05
     Davidson diagonalization with overlap
     c_bands:  1 eigenvalues not converged
     c_bands:  4 eigenvalues not converged
     c_bands:  2 eigenvalues not converged
     c_bands:  3 eigenvalues not converged
     c_bands:  2 eigenvalues not converged
     c_bands:  3 eigenvalues not converged
     c_bands:  2 eigenvalues not converged
     ethr =  1.00E-05,  avg # of iterations = 19.5

[...]

     total energy              =   -2658.47333605 Ry
     estimated scf accuracy    <    3232.60716999 Ry

[...]

     iteration #  3     ecut=    29.40 Ry     beta= 0.05
     Davidson diagonalization with overlap
     ethr =  1.00E-02,  avg # of iterations = 14.8

[...]

     iteration # 64     ecut=    29.40 Ry     beta= 0.05
     Davidson diagonalization with overlap
     c_bands:  1 eigenvalues not converged
     ethr =  5.77E-09,  avg # of iterations =  6.5

[...]

     total energy              =   -2951.50543352 Ry
     estimated scf accuracy    <       0.00000009 Ry

     iteration # 79     ecut=    29.40 Ry     beta= 0.05
     Davidson diagonalization with overlap
     ethr =  2.27E-11,  avg # of iterations =  2.0

     negative rho (up, down):  1.700E-02 0.000E+00

     Adding external electric field

     Computed dipole along edir(3) :
        Dipole                0.3622 Ry au,          0.9207 Debye
        Dipole field          0.0007 Ry au,

        Potential amp.       -0.0634 Ry
        Total length         46.3494 bohr

     End of self-consistent calculation

          k = 0.0000 0.0000 0.0000 ( 18029 PWs)   bands (ev):

   -56.8874 -56.8539 -56.0105 -55.9746 -55.7623 -55.6983 -55.5431 -55.4456
   -55.4117 -55.3929 -55.3295 -55.3059 -55.2771 -55.2586 -55.0757 -55.0137
   -33.3074 -33.1608 -33.1328 -33.0648 -32.9745 -32.9343 -32.4936 -32.2398
   -32.2310 -32.2025 -32.1507 -32.1483 -32.1217 -31.9953 -31.9803 -31.9313
   -31.9027 -31.8919 -31.8703 -31.8619 -31.8249 -31.7923 -31.7914 -31.7679
   -31.7647 -31.7592 -31.7187 -31.6908 -31.6597 -31.6502 -31.5943 -31.5696
   -31.5467 -31.5291 -31.5250 -31.5198 -31.5028 -31.4821 -31.4746 -31.4687
   -31.4580 -31.4285 -31.3384 -31.3171 -31.2822 -31.2764 -31.2541 -31.2157
   -16.9993 -16.4601 -16.4291 -16.2091 -16.1013 -16.0866 -16.0592 -15.9847
   -15.8002 -15.7289 -15.7012 -15.6508 -15.5267 -15.4034 -15.3068 -15.1598
   -15.0759 -15.0305 -15.0292 -15.0122 -14.9763 -14.9620 -14.9402 -14.8772
   -14.8571 -14.7862 -14.6484 -14.6100 -14.6026 -14.3336 -14.3242 -13.9433
   -13.8361  -7.2043  -4.5716  -4.1347  -3.9718  -3.9321  -3.7669  -3.5949
    -3.5824  -3.4443  -3.4107  -3.2692  -3.2650  -3.2508  -3.1658  -3.1509
    -3.0307  -2.9637  -2.9492  -2.8481  -2.8072  -2.6555  -2.6174  -2.5272
    -2.4745  -2.4538  -2.3910  -2.3417  -2.3149  -2.2906  -2.2656  -2.2093
    -2.1891  -2.1551  -2.0897  -2.0530  -1.9671  -1.9288  -1.9181  -1.9119
    -1.7983  -1.7713  -1.7310  -1.5919  -1.5330  -1.5146  -1.4920  -1.4396
    -1.3802  -1.3565  -1.3062  -1.2057  -1.1287  -1.1136  -1.0465  -1.0294
    -1.0160  -0.8922  -0.8380  -0.7449  -0.7360  -0.7192  -0.6528  -0.5945
    -0.5567  -0.4725  -0.3973  -0.3882  -0.3744  -0.3382  -0.3143  -0.2570
    -0.1468  -0.1055  -0.0570   0.0163   0.0373   0.1266   0.2210   0.2557
     0.2694   0.3150   0.3430   0.3635   0.4213   0.4852   0.4992   0.5677
     0.5757   0.5797   0.6656   0.7561   0.7941   0.8451   0.8690   0.8800
     1.0022   1.0881   1.1124   1.1576   1.5265   1.7499   2.4035   2.5729
     2.8490   3.0036   3.3270   3.3897   3.4028   3.4059   3.6736   3.8034

[...]

          k = 0.0380-0.0419 0.0000 ( 17876 PWs)   bands (ev):

[...]

          k =-0.0760-0.0000 0.0000 ( 17886 PWs)   bands (ev):

[...]

          k =-0.0760-0.0839 0.0000 ( 17948 PWs)   bands (ev):

   -56.8712 -56.8700 -55.9988 -55.9861 -55.7574 -55.7031 -55.5422 -55.4291
   -55.4280 -55.3892 -55.3301 -55.3093 -55.2757 -55.2574 -55.0770 -55.0147
   -33.1472 -33.1459 -33.1252 -33.1240 -33.0187 -33.0178 -32.3191 -32.3082
   -32.1934 -32.1810 -32.1805 -32.1723 -32.0629 -32.0201 -31.9885 -31.9773
   -31.9304 -31.9259 -31.8377 -31.7897 -31.7814 -31.7805 -31.7460 -31.7199
   -31.6987 -31.6513 -31.6497 -31.6494 -31.6469 -31.6364 -31.6157 -31.6107
   -31.6097 -31.6084 -31.5864 -31.5455 -31.5377 -31.5180 -31.5062 -31.4845
   -31.4771 -31.4262 -31.4243 -31.3478 -31.3400 -31.2862 -31.2563 -31.2356
   -16.4205 -16.3622 -16.3599 -16.3096 -16.3081 -16.0592 -16.0543 -15.8035
   -15.7725 -15.5883 -15.5115 -15.4794 -15.4294 -15.3884 -15.3538 -15.2522
   -15.2391 -15.1420 -15.1136 -15.1043 -15.0567 -15.0133 -14.9703 -14.9407
   -14.9014 -14.8108 -14.7517 -14.7161 -14.6132 -14.5173 -14.4670 -13.9406
   -13.9401  -7.1994  -4.1331  -3.9633  -3.4307  -3.4260  -3.4159  -3.4078
    -3.3530  -3.1840  -3.1762  -2.9904  -2.9629  -2.9603  -2.8895  -2.8831
    -2.7762  -2.7110  -2.7052  -2.7041  -2.6695  -2.6423  -2.6361  -2.5792
    -2.4724  -2.4210  -2.3963  -2.3744  -2.3454  -2.3170  -2.2631  -2.1736
    -2.1658  -2.1564  -2.1261  -2.1061  -2.0806  -2.0755  -1.9372  -1.8358
    -1.7644  -1.7156  -1.7057  -1.6906  -1.6639  -1.6283  -1.5976  -1.5842
    -1.5381  -1.4793  -1.4540  -1.3981  -1.3489  -1.3012  -1.2191  -1.1582
    -1.0905  -1.0696  -0.9371  -0.9214  -0.9019  -0.8634  -0.8301  -0.8207
    -0.7456  -0.6717  -0.6122  -0.5975  -0.5368  -0.5136  -0.4791  -0.4410
    -0.4316  -0.3767  -0.3545  -0.3051  -0.2907  -0.1699  -0.0866   0.0348
     0.0668   0.0849   0.1422   0.1754   0.3124   0.3214   0.3717   0.4863
     0.5225   0.6643   0.6819   0.7847   0.8335   0.8958   0.9522   0.9559
     0.9564   0.9826   1.0167   1.0376   1.1139   1.6874   2.9937   2.9964
     3.0536   3.0592   3.3660   3.3702   3.4746   3.4803   3.7848   3.7914

     the Fermi energy is     2.1409 ev

!    total energy              =   -2951.50544184 Ry
     estimated scf accuracy    <       0.00000007 Ry
     smearing contrib. (-TS)   =      -0.00232312 Ry
     internal energy E=F+TS    =   -2951.50311872 Ry

     The total energy is F=E-TS. E is the sum of the following terms:
     one-electron contribution =  -24181.71682102 Ry
     hartree contribution      =   12180.34670629 Ry
     xc contribution           =    -487.03473541 Ry
     ewald contribution        =    9536.90148380 Ry
     electric field correction =       0.00024762 Ry

     convergence has been achieved in  79 iterations

     Forces acting on atoms (cartesian axes, Ry/au):

     atom    1 type  1   force =     0.00001161   -0.00050937    0.12458489
     atom    2 type  1   force =    -0.00009478    0.00034871   -0.15487447
     atom    3 type  2   force =     0.00004519   -0.00012376   -0.06537330
     atom    4 type  2   force =     0.00007302    0.00024271    0.01707037
     atom    5 type  2   force =    -0.00338921   -0.00145111   -0.01348287
     atom    6 type  2   force =     0.00542848   -0.00094267   -0.01319791
     atom    7 type  1   force =     0.00030070   -0.00647814    0.05888115
     atom    8 type  1   force =     0.00011428    0.00855422    0.09584591
     atom    9 type  2   force =     0.00026693   -0.00011201    0.00024674
     atom   10 type  2   force =    -0.00166780    0.00093223   -0.05963875
     atom   11 type  2   force =     0.00078351   -0.00033645   -0.00033967
     atom   12 type  2   force =    -0.00101370   -0.00073474   -0.00008169
     atom   13 type  1   force =    -0.00019968   -0.00075544    0.00004277
     atom   14 type  1   force =     0.00003371   -0.00066716   -0.00012774
     atom   15 type  2   force =     0.00007368   -0.00024828   -0.00008714
     atom   16 type  2   force =    -0.00009104    0.00002949   -0.00046365
     atom   17 type  2   force =     0.00022992   -0.00018401   -0.00009174
     atom   18 type  2   force =    -0.00045619   -0.00014951   -0.00020168
     atom   19 type  1   force =    -0.00018427   -0.00136496    0.00015750
     atom   20 type  1   force =    -0.00008564   -0.00004347   -0.00022893
     atom   21 type  2   force =     0.00002303    0.00021674    0.09783448
     atom   22 type  2   force =    -0.00025359   -0.00033882    0.00027192
     atom   23 type  2   force =    -0.08253043    0.00005245   -0.03292240
     atom   24 type  2   force =     0.08241454    0.00049246   -0.03297537
     atom   25 type  1   force =     0.00002464   -0.00057513    0.12482234
     atom   26 type  1   force =    -0.00019642   -0.00146652   -0.15526159
     atom   27 type  2   force =     0.00011564   -0.00079906   -0.06368925
     atom   28 type  2   force =     0.00005543    0.00198173    0.01253148
     atom   29 type  2   force =    -0.00156350    0.00507902   -0.01679639
     atom   30 type  2   force =     0.00370975    0.00540236   -0.01640832
     atom   31 type  1   force =     0.00000615    0.00178720    0.04176928
     atom   32 type  1   force =     0.00011612   -0.01183788    0.09591215
     atom   33 type  2   force =     0.00001338   -0.00022667   -0.00028558
     atom   34 type  2   force =    -0.00105276    0.00154000   -0.07415160
     atom   35 type  2   force =    -0.00041517    0.00018226    0.00008696
     atom   36 type  2   force =     0.00112331    0.00044277    0.00015864
     atom   37 type  1   force =    -0.00029940    0.00060258    0.00024609
     atom   38 type  1   force =     0.00020598   -0.00053462    0.00001841
     atom   39 type  2   force =     0.00015427    0.00023462    0.00012198
     atom   40 type  2   force =    -0.00004933   -0.00050001   -0.00060236
     atom   41 type  2   force =     0.00057591    0.00006292   -0.00028489
     atom   42 type  2   force =    -0.00082709   -0.00006069    0.00007666
     atom   43 type  1   force =     0.00009086    0.00100881   -0.00072135
     atom   44 type  1   force =    -0.00010550   -0.00001773   -0.00055161
     atom   45 type  2   force =     0.00003868    0.00001809    0.09765172
     atom   46 type  2   force =    -0.08258962    0.00001451   -0.03293116
     atom   47 type  2   force =     0.08246611    0.00044475   -0.03298160
     atom   48 type  3   force =    -0.00014250   -0.00006262    0.00013678
     atom   49 type  4   force =    -0.00012687   -0.00010028    0.00014131
     atom   50 type  5   force =    -0.00012057    0.00000455   -0.00009932
     atom   51 type  5   force =    -0.00014100    0.00002109    0.00015996
     atom   52 type  2   force =    -0.00324982   -0.00524563    0.00462078
     atom   53 type  5   force =     0.00235102    0.00617048   -0.00453797

     Total force =     0.415613     Total SCF correction =     0.000733
  @ DRIVER MODE: Message from server: STATUS
  @ DRIVER MODE: Message from server: GETFORCE
  @ DRIVER MODE: Returning v,forces,stress,ensemble

     Writing output data file ./calc.save/
  @ DRIVER MODE: Message from server: EXIT
  @ DRIVE MODE: Exiting

     General routines

     Parallel routines

   This run was terminated on:   2: 9:40  23Sep2021

   JOB DONE.