     Program PWSCF v.6.7GPU starts on 18Oct2021 at 19:22:54

     R & G space division:  proc/nbgrp/npool/nimage =       8
     Reading input from /storage/home/hcoda1/3/ntian30/research/carbon/CxH_vib/Thiel_calc/ads_slab/HNNH_perslab/out_0015/pw.inp
Warning: card &CELL ignored
Warning: card   CELL_DYNAMICS='IPI', ignored
Warning: card / ignored

     Current dimensions of program PWSCF are:
     Max number of different atomic species (ntypx) = 10
     Max number of k-points (npk) =  40000
     Max angular momentum in pseudopotentials (lmaxx) =  3
     Presently no symmetry can be used with electric field

     Message from routine cell_base_init:
     DEPRECATED: use true lattice parameter, not A to a.u. conversion factor

     IMPORTANT: XC functional enforced from input :
     Exchange-correlation= BEEF-VDW
                           (   1   4  43  14   2   0   0)
     Any further DFT definition will be discarded
     Please, verify this is what you really want

  @ DRIVER MODE: Connecting to
 qe_1139763_3255131.sched-torque.pace.gatech.eduavvfw00x_scratch
  using UNIX socket
  @ DRIVER MODE: Message from server: STATUS
  @ DRIVER MODE: Message from server: INIT
  @ DRIVER MODE: Receiving replica           0          -1
  @ DRIVER MODE: Receiving encoded integer          25
  @ DRIVER MODE:  SCF:  T  FORCE:  T  STRESS:  F  VC:  F  ENSEMBLE:  F
  @ DRIVER MODE:  SCF:  T  FORCE:  T  STRESS:  F  VC:  F  ENSEMBLE:  F

     Using Slab Decomposition

     bravais-lattice index     =            0
     lattice parameter (alat)  =       1.8897  a.u.
     unit-cell volume          =    9988.4706 (a.u.)^3
     number of atoms/cell      =           57
     number of atomic types    =            4
     number of electrons       =       438.00
     number of Kohn-Sham states=          229
     kinetic-energy cutoff     =      29.3995  Ry
     charge density cutoff     =     293.9946  Ry
     scf convergence threshold =      7.3E-08
     mixing beta               =       0.0500
     number of iterations used =            8  plain     mixing
     Exchange-correlation= BEEF-VDW
                           (   1   4  43  14   2   0   0)

     celldm(1)=   1.889726  celldm(2)=   0.000000  celldm(3)=   0.000000
     celldm(4)=   0.000000  celldm(5)=   0.000000  celldm(6)=   0.000000

     crystal axes: (cart. coord. in units of alat)
               a(1) = (   6.579727   0.000000   0.000000 )
               a(2) = (  -0.001163   8.942395   0.000000 )
               a(3) = (   0.000000   0.000000  25.155947 )

     reciprocal axes: (cart. coord. in units 2 pi/alat)
               b(1) = (  0.151982  0.000020  0.000000 )
               b(2) = (  0.000000  0.111827  0.000000 )
               b(3) = (  0.000000  0.000000  0.039752 )

     PseudoPot. # 1 for O  read from file:
     /storage/coda1/p-amedford6/0/shared/rich_project_chbe-medford/medford-share/data/pseudos_module/espresso/nninc/pbe/van/O.UPF
     MD5 check sum: 78c19812648e8988a0fe644b0f25305e
     Pseudo is Ultrasoft, Zval =  6.0
     Generated by new atomic code, or converted to UPF format
     Using radial grid of  737 points,  4 beta functions with:
                l(1) =   0
                l(2) =   0
                l(3) =   1
                l(4) =   1
     Q(r) pseudized with  8 coefficients,  rinner =    0.800   0.800   0.800

     PseudoPot. # 2 for Ti read from file:
     /storage/coda1/p-amedford6/0/shared/rich_project_chbe-medford/medford-share/data/pseudos_module/espresso/nninc/pbe/van/Ti.UPF
     MD5 check sum: 8e4df49b7f0d34bbd5052bf3f5ea0213
     Pseudo is Ultrasoft, Zval = 12.0
     Generated by new atomic code, or converted to UPF format
     Using radial grid of  851 points,  6 beta functions with:
                l(1) =   0
                l(2) =   0
                l(3) =   1
                l(4) =   1
                l(5) =   2
                l(6) =   2
     Q(r) pseudized with  8 coefficients,  rinner =    1.000   1.000   1.000
                                                       1.000   1.000

     PseudoPot. # 3 for H  read from file:
     /storage/coda1/p-amedford6/0/shared/rich_project_chbe-medford/medford-share/data/pseudos_module/espresso/nninc/pbe/van/H.UPF
     MD5 check sum: b5ee9d7bfd3a09ee7748110bda690ff7
     Pseudo is Ultrasoft, Zval =  1.0
     Generated by new atomic code, or converted to UPF format
     Using radial grid of  615 points,  1 beta functions with:
                l(1) =   0
     Q(r) pseudized with  8 coefficients,  rinner =    0.800

     PseudoPot. # 4 for N  read from file:
     /storage/coda1/p-amedford6/0/shared/rich_project_chbe-medford/medford-share/data/pseudos_module/espresso/nninc/pbe/van/N.UPF
     MD5 check sum: 90d10febe142ad51ac9d5be1deb811c4
     Pseudo is Ultrasoft, Zval =  5.0
     Generated by new atomic code, or converted to UPF format
     Using radial grid of  729 points,  4 beta functions with:
                l(1) =   0
                l(2) =   0
                l(3) =   1
                l(4) =   1
     Q(r) pseudized with  8 coefficients,  rinner =    0.800   0.800   0.800

     atomic species   valence    mass     pseudopotential
        O1             6.00    15.99900     O ( 1.00)
        Ti1           12.00    47.86700     Ti( 1.00)
        H1             1.00     1.00800     H ( 1.00)
        N1             5.00    14.00700     N ( 1.00)

     No symmetry found

   Cartesian axes

     site n.     atom                  positions (alat units)
         1           O1  tau(   1) = (   0.0007354   0.0005023  10.5931620  )
         2           O1  tau(   2) = (   3.2896598   8.9340738  13.9086047  )
         3           O1  tau(   3) = (   6.5779785   8.9335072  17.2267929  )
         4           O1  tau(   4) = (   0.0006271   0.0005054   7.9858123  )
         5           O1  tau(   5) = (   3.2892818   8.9168625  11.1887994  )
         6           O1  tau(   6) = (   0.0000953   0.0200859  14.6187425  )
         7           O1  tau(   7) = (   1.9868534   1.4903216   9.2879459  )
         8           O1  tau(   8) = (   5.2299496   1.5903429  12.5639559  )
         9           O1  tau(   9) = (   2.0057315   1.6103507  16.0678580  )
        10           Ti1 tau(  10) = (   0.0007404   1.4906270   9.2895810  )
        11           Ti1 tau(  11) = (   3.2903845   1.3415648  12.5012035  )
        12           Ti1 tau(  12) = (   0.0001950   1.2451541  15.9845895  )
        13           O1  tau(  13) = (   4.5942328   1.4918067   9.2879030  )
        14           O1  tau(  14) = (   1.3504490   1.5899334  12.5641350  )
        15           O1  tau(  15) = (   4.5723762   1.6092463  16.0679920  )
        16           Ti1 tau(  16) = (   3.2902859   2.9801868   9.2893338  )
        17           Ti1 tau(  17) = (  -0.0000381   2.8017340  12.4757424  )
        18           Ti1 tau(  18) = (   3.2890522   2.9119407  15.7046117  )
        19           O1  tau(  19) = (   0.0003479   2.9813005  10.5931620  )
        20           O1  tau(  20) = (   3.2896940   2.9634103  13.8950687  )
        21           O1  tau(  21) = (   0.0002396   2.9813036   7.9858123  )
        22           O1  tau(  22) = (   3.2899864   2.9652420  11.1892519  )
        23           O1  tau(  23) = (  -0.0000843   3.0239999  14.5506518  )
        24           O1  tau(  24) = (   1.9864658   4.4711199   9.2879459  )
        25           O1  tau(  25) = (   5.2265999   4.6000300  12.5825491  )
        26           O1  tau(  26) = (   2.0173024   4.5375175  16.0298170  )
        27           Ti1 tau(  27) = (   0.0003529   4.4714252   9.2895810  )
        28           Ti1 tau(  28) = (   3.2900658   4.3228872  12.5050252  )
        29           Ti1 tau(  29) = (   0.0015352   4.3959346  15.6897578  )
        30           O1  tau(  30) = (   4.5938453   4.4726049   9.2879030  )
        31           O1  tau(  31) = (   1.3532953   4.6000771  12.5829012  )
        32           O1  tau(  32) = (   4.5620845   4.5358613  16.0300787  )
        33           Ti1 tau(  33) = (   3.2898983   5.9609850   9.2893338  )
        34           Ti1 tau(  34) = (  -0.0003676   5.8120669  12.4544080  )
        35           Ti1 tau(  35) = (   3.2921900   5.8807914  15.7090278  )
        36           O1  tau(  36) = (  -0.0000397   5.9620987  10.5931620  )
        37           O1  tau(  37) = (   3.2903388   5.9631658  13.9136923  )
        38           O1  tau(  38) = (  -0.0000761   5.9602876  17.3216368  )
        39           O1  tau(  39) = (  -0.0001480   5.9621018   7.9858123  )
        40           O1  tau(  40) = (   3.2896813   5.9437884  11.1873515  )
        41           O1  tau(  41) = (  -0.0004454   6.0514558  14.6911356  )
        42           O1  tau(  42) = (   1.9860782   7.4519181   9.2879459  )
        43           O1  tau(  43) = (   5.2331690   7.5528723  12.5749626  )
        44           O1  tau(  44) = (   2.0197658   7.5481525  16.0489791  )
        45           Ti1 tau(  45) = (  -0.0000347   7.4522234   9.2895810  )
        46           Ti1 tau(  46) = (   3.2899396   7.3045924  12.4973202  )
        47           Ti1 tau(  47) = (   0.0022254   7.3576980  16.0878887  )
        48           O1  tau(  48) = (   4.5934577   7.4534031   9.2879030  )
        49           O1  tau(  49) = (   1.3462119   7.5526743  12.5754142  )
        50           O1  tau(  50) = (   4.5579802   7.5455642  16.0489991  )
        51           Ti1 tau(  51) = (   3.2895107   8.9417832   9.2893338  )
        52           Ti1 tau(  52) = (  -0.0004108   8.7719052  12.5005688  )
        53           Ti1 tau(  53) = (   3.2909707   8.8596889  15.7095313  )
        54           H1  tau(  54) = (   6.5770345   5.6246256  18.2315160  )
        55           N1  tau(  55) = (   6.5773047   3.3138987  18.5316601  )
        56           N1  tau(  56) = (   6.5788436   3.0968121  17.3210979  )
        57           H1  tau(  57) = (   6.5767427   2.4184016  19.0716447  )

     number of k points=    10  Fermi-Dirac smearing, width (Ry)=  0.0073
                       cart. coord. in units 2pi/alat
        k(    1) = (   0.0000000   0.0000000   0.0000000), wk =   0.1250000
        k(    2) = (   0.0000000   0.0279567   0.0000000), wk =   0.2500000
        k(    3) = (   0.0000000  -0.0559134   0.0000000), wk =   0.1250000
        k(    4) = (   0.0379955   0.0000049   0.0000000), wk =   0.2500000
        k(    5) = (   0.0379955   0.0279617   0.0000000), wk =   0.2500000
        k(    6) = (   0.0379955  -0.0559085   0.0000000), wk =   0.2500000
        k(    7) = (   0.0379955  -0.0279518   0.0000000), wk =   0.2500000
        k(    8) = (  -0.0759910  -0.0000099   0.0000000), wk =   0.1250000
        k(    9) = (  -0.0759910   0.0279468   0.0000000), wk =   0.2500000
        k(   10) = (  -0.0759910  -0.0559233   0.0000000), wk =   0.1250000

     Initial potential from superposition of free atoms

     starting charge  419.99912, renormalised to  438.00000

     negative rho (up, down):  3.865E-02 0.000E+00

     %%%%%%%%%%%%%%%%%%%%%%%%%%%%%%%%%%%%%%%%%%%%%%%%%%%%%%%%%%%%%%%%%%%%%%%%
     %                                                                      %
     % You are using vdW-DF, which was implemented by the Thonhauser group. %
     % Please cite the following two papers that made this development      %
     % possible and the two reviews that describe the various versions:     %
     %                                                                      %
     %   T. Thonhauser et al., PRL 115, 136402 (2015).                      %
     %   T. Thonhauser et al., PRB 76, 125112 (2007).                       %
     %   K. Berland et al., Rep. Prog. Phys. 78, 066501 (2015).             %
     %   D.C. Langreth et al., J. Phys.: Condens. Matter 21, 084203 (2009). %
     %                                                                      %
     %                                                                      %
     % If you are calculating the stress with vdW-DF, please also cite:     %
     %                                                                      %
     %   R. Sabatini et al., J. Phys.: Condens. Matter 24, 424209 (2012).   %
     %                                                                      %
     %%%%%%%%%%%%%%%%%%%%%%%%%%%%%%%%%%%%%%%%%%%%%%%%%%%%%%%%%%%%%%%%%%%%%%%%

     Adding external electric field

     Computed dipole along edir(3) :
        Dipole               -4.5407 Ry au,        -11.5413 Debye
        Dipole field         -0.0057 Ry au,

        Potential amp.        0.5296 Ry
        Total length         46.3494 bohr

     Starting wfcs are  330 atomic wfcs
  @ DRIVER MODE: Message from server: STATUS
  @ DRIVER MODE: Message from server: POSDATA
  @ DRIVER MODE: Reading and sharing cell
  @ DRIVER MODE: Reading and sharing positions
  @ DRIVER MODE: Received positions

     Self-consistent Calculation

     iteration #  1     ecut=    29.40 Ry     beta= 0.05
     Davidson diagonalization with overlap
     c_bands:  3 eigenvalues not converged
     c_bands:  2 eigenvalues not converged
     c_bands:  3 eigenvalues not converged
     c_bands:  5 eigenvalues not converged
     c_bands:  5 eigenvalues not converged
     c_bands:  5 eigenvalues not converged
     c_bands:  1 eigenvalues not converged
     c_bands:  2 eigenvalues not converged
     ethr =  1.00E-05,  avg # of iterations = 23.6

[...]

     total energy              =   -3289.14928367 Ry
     estimated scf accuracy    <      57.83080496 Ry

     iteration #  2     ecut=    29.40 Ry     beta= 0.05
     Davidson diagonalization with overlap
     ethr =  1.00E-02,  avg # of iterations =  5.5

[...]

     iteration # 59     ecut=    29.40 Ry     beta= 0.05
     Davidson diagonalization with overlap
     c_bands:  1 eigenvalues not converged
     ethr =  3.23E-11,  avg # of iterations = 11.4

[...]

     total energy              =   -3290.76674091 Ry
     estimated scf accuracy    <       0.00000011 Ry

     iteration # 61     ecut=    29.40 Ry     beta= 0.05
     Davidson diagonalization with overlap
     ethr =  2.52E-11,  avg # of iterations =  7.8

     negative rho (up, down):  3.653E-02 0.000E+00

     Adding external electric field

     Computed dipole along edir(3) :
        Dipole                1.2048 Ry au,          3.0624 Debye
        Dipole field          0.0015 Ry au,

        Potential amp.       -0.1405 Ry
        Total length         46.3494 bohr

     End of self-consistent calculation

          k = 0.0000 0.0000 0.0000 ( 26871 PWs)   bands (ev):

   -57.9826 -57.9789 -57.9756 -57.9581 -57.9555 -57.9177 -57.8550 -57.8144
   -57.7905 -57.7812 -57.7111 -57.6888 -57.6578 -57.4021 -57.3653 -56.9231
   -56.8998 -56.8857 -34.3767 -34.3701 -34.3685 -34.3573 -34.3545 -34.3216
   -34.3111 -34.3032 -34.3014 -34.2944 -34.2546 -34.2499 -34.1940 -34.1887
   -34.1795 -34.1793 -34.1667 -34.1568 -34.1529 -34.1488 -34.1279 -34.1077
   -34.0986 -34.0801 -34.0781 -34.0727 -34.0681 -34.0416 -34.0224 -33.9753
   -33.9745 -33.9641 -33.9472 -33.9399 -33.9358 -33.9317 -33.9038 -33.8807
   -33.8699 -33.8287 -33.6926 -33.6811 -33.6316 -33.6057 -33.5877 -33.2449
   -33.2373 -33.2282 -33.2220 -33.2156 -33.1445 -33.0856 -33.0699 -32.9422
   -20.7656 -19.3933 -18.8152 -18.4162 -18.2289 -18.2128 -18.2037 -18.1469
   -18.0703 -18.0666 -17.8860 -17.7958 -17.7730 -17.7471 -17.7289 -17.6961
   -17.6381 -17.6187 -17.5987 -17.5887 -17.5687 -17.5630 -17.4845 -17.4197
   -17.3962 -17.3874 -17.3798 -17.3761 -17.3057 -17.2236 -17.1294 -17.0717
   -17.0370 -15.3875 -15.3340 -15.3287 -11.2476  -7.6602  -7.1588  -6.1377
    -5.9268  -5.8612  -5.7860  -5.4360  -5.4209  -5.4151  -5.3528  -5.3349
    -5.2954  -5.2845  -5.2353  -5.2153  -5.2141  -5.1847  -5.1113  -5.0887
    -5.0619  -4.9868  -4.9382  -4.9074  -4.8588  -4.8453  -4.7455  -4.7442
    -4.7213  -4.7186  -4.7064  -4.6866  -4.6389  -4.6301  -4.5323  -4.5190
    -4.4748  -4.3540  -4.3305  -4.2721  -4.2556  -4.2256  -4.1424  -4.0796
    -4.0679  -4.0499  -4.0167  -3.9836  -3.9473  -3.9152  -3.8654  -3.7870
    -3.7211  -3.6828  -3.5703  -3.5135  -3.4805  -3.4578  -3.3782  -3.3585
    -3.3201  -3.2478  -3.2001  -3.1593  -3.1240  -3.1213  -3.0855  -2.9889
    -2.9815  -2.9032  -2.8207  -2.7954  -2.7167  -2.7066  -2.6977  -2.6806
    -2.6609  -2.6331  -2.6046  -2.5748  -2.4967  -2.4802  -2.4570  -2.4039
    -2.2970  -2.2802  -2.2753  -2.2590  -2.2544  -2.1877  -2.0889  -1.9802
    -1.9800  -1.9710  -1.8274  -1.8019  -1.7481  -1.7447  -1.6958  -1.6257
    -1.5685  -1.1794  -0.9411  -0.6551  -0.6227  -0.6142  -0.3758  -0.3660
    -0.2477  -0.0004   0.9947   1.2637   1.3451   1.4307   1.4809   1.4865
     1.6122   1.6350   1.6680   1.7126   1.7631

[...]

          k = 0.0380-0.0280 0.0000 ( 26873 PWs)   bands (ev):

[...]

          k =-0.0760-0.0000 0.0000 ( 26902 PWs)   bands (ev):

[...]

          k =-0.0760-0.0559 0.0000 ( 26868 PWs)   bands (ev):

   -57.9772 -57.9769 -57.9752 -57.9726 -57.9482 -57.9183 -57.8547 -57.8102
   -57.7989 -57.7768 -57.7090 -57.6922 -57.6566 -57.4022 -57.3652 -56.9192
   -56.9070 -56.8823 -34.4490 -34.4360 -34.3820 -34.3701 -34.3361 -34.3150
   -34.3115 -34.3002 -34.2733 -34.2648 -34.2267 -34.2054 -34.2054 -34.1680
   -34.1668 -34.1658 -34.1636 -34.1447 -34.1248 -34.1226 -34.1179 -34.1075
   -34.1073 -34.0682 -34.0653 -34.0558 -34.0356 -34.0304 -34.0078 -34.0018
   -33.9960 -33.9958 -33.9829 -33.9798 -33.9516 -33.9355 -33.9310 -33.8797
   -33.8633 -33.7866 -33.7317 -33.6843 -33.6327 -33.6077 -33.5892 -33.3215
   -33.2467 -33.2352 -33.2121 -33.1300 -33.1153 -33.0569 -33.0452 -33.0317
   -20.7645 -19.3876 -18.5074 -18.4947 -18.1815 -18.1125 -18.0783 -18.0480
   -18.0083 -17.9720 -17.9422 -17.9297 -17.9005 -17.8070 -17.7971 -17.7260
   -17.7018 -17.6789 -17.6659 -17.6376 -17.6027 -17.5987 -17.5852 -17.4786
   -17.4658 -17.3845 -17.3647 -17.3227 -17.2641 -17.2211 -17.1176 -17.1062
   -17.0058 -15.3900 -15.3822 -15.2685 -11.2450  -7.6435  -7.1407  -5.7663
    -5.7604  -5.7258  -5.7007  -5.6359  -5.3704  -5.3410  -5.2187  -5.2135
    -5.2071  -5.1745  -5.1531  -5.1129  -5.0965  -5.0858  -5.0723  -5.0672
    -5.0019  -4.9971  -4.9466  -4.9155  -4.8691  -4.8627  -4.8537  -4.7972
    -4.7728  -4.7350  -4.7293  -4.6866  -4.5754  -4.5546  -4.5303  -4.4896
    -4.4534  -4.4353  -4.3505  -4.2983  -4.2278  -4.1148  -4.0909  -4.0865
    -4.0319  -3.9892  -3.9294  -3.8798  -3.7255  -3.6893  -3.6631  -3.5980
    -3.5698  -3.5555  -3.5397  -3.5184  -3.5045  -3.4515  -3.4466  -3.3925
    -3.3565  -3.3274  -3.3086  -3.2168  -3.1656  -3.1329  -3.0935  -3.0757
    -3.0643  -3.0533  -3.0263  -3.0202  -3.0179  -2.9524  -2.9426  -2.9024
    -2.8570  -2.7698  -2.7397  -2.7008  -2.6420  -2.5380  -2.5192  -2.4685
    -2.4542  -2.3972  -2.2133  -2.2010  -2.1827  -2.1396  -2.0916  -2.0541
    -2.0438  -2.0235  -1.9768  -1.8657  -1.7333  -1.7140  -1.5534  -1.4847
    -1.4776  -1.4568  -1.2554  -0.8386  -0.5542  -0.5261  -0.5209  -0.3792
    -0.3759  -0.0001   1.1551   1.1794   1.2463   1.3181   1.3533   1.3617
     1.3819   1.4845   1.4882   1.5915   1.6545

     the Fermi energy is     1.0939 ev

!    total energy              =   -3290.76677759 Ry
     estimated scf accuracy    <       0.00000004 Ry
     smearing contrib. (-TS)   =      -0.03255439 Ry
     internal energy E=F+TS    =   -3290.73422321 Ry

     The total energy is F=E-TS. E is the sum of the following terms:
     one-electron contribution =  -34498.95982509 Ry
     hartree contribution      =   17310.82410788 Ry
     xc contribution           =    -540.51041242 Ry
     ewald contribution        =   14437.91008014 Ry
     electric field correction =       0.00182628 Ry

     convergence has been achieved in  61 iterations

     Forces acting on atoms (cartesian axes, Ry/au):

     atom    1 type  1   force =    -0.00000280    0.00296476    0.06147129
     atom    2 type  1   force =     0.00005574    0.00056877   -0.00874573
     atom    3 type  1   force =     0.00000667   -0.00489663    0.00107238
     atom    4 type  1   force =     0.00004899   -0.00105778    0.10516719
     atom    5 type  1   force =     0.00004994   -0.00000622    0.01002368
     atom    6 type  1   force =    -0.00003349   -0.00464348    0.00651587
     atom    7 type  1   force =     0.07080058   -0.00017937   -0.02970179
     atom    8 type  1   force =     0.00426646   -0.02876541    0.00203240
     atom    9 type  1   force =     0.00656005   -0.02306963    0.00253247
     atom   10 type  2   force =    -0.00005797   -0.00534907   -0.17417819
     atom   11 type  2   force =    -0.00025160    0.02019773   -0.00522494
     atom   12 type  2   force =    -0.00005418    0.02524001   -0.00765478
     atom   13 type  1   force =    -0.07089436   -0.00062777   -0.02964219
     atom   14 type  1   force =    -0.00456011   -0.02847010    0.00200927
     atom   15 type  1   force =    -0.00645092   -0.02312519    0.00250663
     atom   16 type  2   force =     0.00010868   -0.00200948    0.06352700
     atom   17 type  2   force =     0.00046968    0.03495157    0.00345964
     atom   18 type  2   force =    -0.00005341    0.01806763   -0.00066997
     atom   19 type  1   force =    -0.00001218    0.00862139    0.05624256
     atom   20 type  1   force =     0.00004041    0.00032579   -0.00816904
     atom   21 type  1   force =     0.00004745    0.00236548    0.10556570
     atom   22 type  1   force =     0.00004520   -0.00046330    0.00965625
     atom   23 type  1   force =    -0.00001446   -0.00134987    0.00395085
     atom   24 type  1   force =     0.06932598   -0.00029094   -0.02956221
     atom   25 type  1   force =     0.00473122   -0.02811126    0.00245867
     atom   26 type  1   force =     0.00596947   -0.01518750   -0.00029918
     atom   27 type  2   force =    -0.00005820   -0.00795253   -0.18329647
     atom   28 type  2   force =    -0.00026673    0.02037688   -0.00599430
     atom   29 type  2   force =    -0.00008730    0.02260516    0.00520641
     atom   30 type  1   force =    -0.06942170   -0.00074600   -0.02950793
     atom   31 type  1   force =    -0.00500266   -0.02781806    0.00242468
     atom   32 type  1   force =    -0.00570661   -0.01504445   -0.00029275
     atom   33 type  2   force =     0.00007842   -0.00101559    0.06382410
     atom   34 type  2   force =     0.00047538    0.03468134    0.00481383
     atom   35 type  2   force =    -0.00012820    0.02165462    0.00151227
     atom   36 type  1   force =    -0.00001219    0.00374477    0.05854432
     atom   37 type  1   force =     0.00004769   -0.00065552   -0.00666054
     atom   38 type  1   force =     0.00000136   -0.00208743    0.00005160
     atom   39 type  1   force =     0.00005464   -0.00052404    0.10666783
     atom   40 type  1   force =     0.00004849   -0.00051200    0.00897484
     atom   41 type  1   force =    -0.00000932   -0.00438419   -0.00070516
     atom   42 type  1   force =     0.06973109   -0.00120637   -0.03000390
     atom   43 type  1   force =     0.00449111   -0.02933573    0.00147529
     atom   44 type  1   force =     0.00984718   -0.02506632    0.00502495
     atom   45 type  2   force =    -0.00006742    0.00914286   -0.17961575
     atom   46 type  2   force =    -0.00025159    0.02121946   -0.00514560
     atom   47 type  2   force =    -0.00011612    0.02515239   -0.00979815
     atom   48 type  1   force =    -0.06983054   -0.00165750   -0.02995464
     atom   49 type  1   force =    -0.00477336   -0.02902813    0.00144693
     atom   50 type  1   force =    -0.00959634   -0.02496812    0.00505072
     atom   51 type  2   force =     0.00011473   -0.00180409    0.06382530
     atom   52 type  2   force =     0.00047548    0.03631938    0.00344307
     atom   53 type  2   force =    -0.00015108    0.03628572    0.00382833
     atom   54 type  3   force =    -0.00000310   -0.00108981   -0.00089705
     atom   55 type  4   force =     0.00000591   -0.00063306   -0.00366328
     atom   56 type  4   force =    -0.00000096   -0.00078278    0.00352971
     atom   57 type  3   force =    -0.00002911   -0.00057098    0.00154750

     Total force =     0.453258     Total SCF correction =     0.000519
  @ DRIVER MODE: Message from server: STATUS
  @ DRIVER MODE: Message from server: GETFORCE
  @ DRIVER MODE: Returning v,forces,stress,ensemble

     Writing output data file ./calc.save/
  @ DRIVER MODE: Message from server: EXIT
  @ DRIVE MODE: Exiting

     General routines

     Parallel routines

   This run was terminated on:  19:55:44  18Oct2021

   JOB DONE.