     Program PWSCF v.6.7GPU starts on 16Sep2021 at  5: 3:17

     R & G space division:  proc/nbgrp/npool/nimage =      10
     Reading input from /storage/home/hcoda1/3/ntian30/research/carbon/CxH_vib/H2O_calc/ads_slab/CHOHH2O_a/out_0040/pw.inp
Warning: card &CELL ignored
Warning: card   CELL_DYNAMICS='IPI', ignored
Warning: card / ignored

     Current dimensions of program PWSCF are:
     Max number of different atomic species (ntypx) = 10
     Max number of k-points (npk) =  40000
     Max angular momentum in pseudopotentials (lmaxx) =  3
     Presently no symmetry can be used with electric field

     Message from routine cell_base_init:
     DEPRECATED: use true lattice parameter, not A to a.u. conversion factor

     IMPORTANT: XC functional enforced from input :
     Exchange-correlation= BEEF-VDW
                           (   1   4  43  14   2   0   0)
     Any further DFT definition will be discarded
     Please, verify this is what you really want

  @ DRIVER MODE: Connecting to
 qe_1139763_2852632.sched-torque.pace.gatech.edu9y617zr3_scratch
  using UNIX socket
  @ DRIVER MODE: Message from server: STATUS
  @ DRIVER MODE: Message from server: INIT
  @ DRIVER MODE: Receiving replica           0          -1
  @ DRIVER MODE: Receiving encoded integer          25
  @ DRIVER MODE:  SCF:  T  FORCE:  T  STRESS:  F  VC:  F  ENSEMBLE:  F
  @ DRIVER MODE:  SCF:  T  FORCE:  T  STRESS:  F  VC:  F  ENSEMBLE:  F

     Using Slab Decomposition

     bravais-lattice index     =            0
     lattice parameter (alat)  =       1.8897  a.u.
     unit-cell volume          =    6658.9804 (a.u.)^3
     number of atoms/cell      =           54
     number of atomic types    =            4
     number of electrons       =       398.00
     number of Kohn-Sham states=          209
     kinetic-energy cutoff     =      29.3995  Ry
     charge density cutoff     =     293.9946  Ry
     scf convergence threshold =      7.3E-08
     mixing beta               =       0.0500
     number of iterations used =            8  plain     mixing
     Exchange-correlation= BEEF-VDW
                           (   1   4  43  14   2   0   0)

     celldm(1)=   1.889726  celldm(2)=   0.000000  celldm(3)=   0.000000
     celldm(4)=   0.000000  celldm(5)=   0.000000  celldm(6)=   0.000000

     crystal axes: (cart. coord. in units of alat)
               a(1) = (   6.579727   0.000000   0.000000 )
               a(2) = (  -0.000775   5.961596   0.000000 )
               a(3) = (   0.000000   0.000000  25.155947 )

     reciprocal axes: (cart. coord. in units 2 pi/alat)
               b(1) = (  0.151982  0.000020  0.000000 )
               b(2) = (  0.000000  0.167740  0.000000 )
               b(3) = (  0.000000  0.000000  0.039752 )

     PseudoPot. # 1 for Ti read from file:
     /storage/coda1/p-amedford6/0/shared/rich_project_chbe-medford/medford-share/data/pseudos_module/espresso/nninc/pbe/van/Ti.UPF
     MD5 check sum: 8e4df49b7f0d34bbd5052bf3f5ea0213
     Pseudo is Ultrasoft, Zval = 12.0
     Generated by new atomic code, or converted to UPF format
     Using radial grid of  851 points,  6 beta functions with:
                l(1) =   0
                l(2) =   0
                l(3) =   1
                l(4) =   1
                l(5) =   2
                l(6) =   2
     Q(r) pseudized with  8 coefficients,  rinner =    1.000   1.000   1.000
                                                       1.000   1.000

     PseudoPot. # 2 for O  read from file:
     /storage/coda1/p-amedford6/0/shared/rich_project_chbe-medford/medford-share/data/pseudos_module/espresso/nninc/pbe/van/O.UPF
     MD5 check sum: 78c19812648e8988a0fe644b0f25305e
     Pseudo is Ultrasoft, Zval =  6.0
     Generated by new atomic code, or converted to UPF format
     Using radial grid of  737 points,  4 beta functions with:
                l(1) =   0
                l(2) =   0
                l(3) =   1
                l(4) =   1
     Q(r) pseudized with  8 coefficients,  rinner =    0.800   0.800   0.800

     PseudoPot. # 3 for C  read from file:
     /storage/coda1/p-amedford6/0/shared/rich_project_chbe-medford/medford-share/data/pseudos_module/espresso/nninc/pbe/van/C.UPF
     MD5 check sum: 1a69bf6b8db32088f5b2163dbdb77a27
     Pseudo is Ultrasoft, Zval =  4.0
     Generated by new atomic code, or converted to UPF format
     Using radial grid of  721 points,  4 beta functions with:
                l(1) =   0
                l(2) =   0
                l(3) =   1
                l(4) =   1
     Q(r) pseudized with  8 coefficients,  rinner =    0.800   0.800   0.800

     PseudoPot. # 4 for H  read from file:
     /storage/coda1/p-amedford6/0/shared/rich_project_chbe-medford/medford-share/data/pseudos_module/espresso/nninc/pbe/van/H.UPF
     MD5 check sum: b5ee9d7bfd3a09ee7748110bda690ff7
     Pseudo is Ultrasoft, Zval =  1.0
     Generated by new atomic code, or converted to UPF format
     Using radial grid of  615 points,  1 beta functions with:
                l(1) =   0
     Q(r) pseudized with  8 coefficients,  rinner =    0.800

     atomic species   valence    mass     pseudopotential
        Ti1           12.00    47.86700     Ti( 1.00)
        O1             6.00    15.99900     O ( 1.00)
        C1             4.00    12.01100     C ( 1.00)
        H1             1.00     1.00800     H ( 1.00)

     No symmetry found

   Cartesian axes

     site n.     atom                  positions (alat units)
         1           Ti1 tau(   1) = (   0.0004258   2.9801865   6.0000000  )
         2           Ti1 tau(   2) = (   3.2906075   1.4906267   6.0002472  )
         3           O1  tau(   3) = (   0.0006271   0.0005054   7.9858123  )
         4           O1  tau(   4) = (   3.2906025   0.0005020   7.3038282  )
         5           O1  tau(   5) = (   4.5942328   1.4918067   9.2879030  )
         6           O1  tau(   6) = (   1.9868534   1.4903216   9.2879459  )
         7           Ti1 tau(   7) = (   3.3203992   3.0065636   9.1614972  )
         8           Ti1 tau(   8) = (   0.0364112   1.5055733   9.2692997  )
         9           O1  tau(   9) = (   3.3037507   0.0048223  11.3846665  )
        10           O1  tau(  10) = (   0.0023770   0.0017864  10.5989407  )
        11           O1  tau(  11) = (   1.2986710   1.4943985  12.6419360  )
        12           O1  tau(  12) = (   5.3019195   1.4930987  12.6558330  )
        13           Ti1 tau(  13) = (   0.0201679   2.9954199  12.5459836  )
        14           Ti1 tau(  14) = (   3.3085843   1.4996073  12.5278567  )
        15           O1  tau(  15) = (   0.0306707   0.0063333  14.6434371  )
        16           O1  tau(  16) = (   3.2901280   5.9588824  14.0411263  )
        17           O1  tau(  17) = (   4.5937705   1.5245028  16.1210063  )
        18           O1  tau(  18) = (   2.0412355   1.5396885  16.1535958  )
        19           Ti1 tau(  19) = (   3.3250740   2.9785215  15.7238461  )
        20           Ti1 tau(  20) = (   0.0142243   1.3716099  15.9029131  )
        21           O1  tau(  21) = (   3.2904802   0.0005063   4.7018136  )
        22           O1  tau(  22) = (   0.0234726   5.9563001  17.1693433  )
        23           O1  tau(  23) = (   1.3043587   1.4918075   6.0039043  )
        24           O1  tau(  24) = (   5.2767064   1.4903225   6.0039473  )
        25           Ti1 tau(  25) = (   0.0000382   5.9609847   6.0000000  )
        26           Ti1 tau(  26) = (   3.2902200   4.4714249   6.0002472  )
        27           O1  tau(  27) = (   0.0002396   2.9813036   7.9858123  )
        28           O1  tau(  28) = (   3.2902150   2.9813002   7.3038282  )
        29           O1  tau(  29) = (   4.5938453   4.4726049   9.2879030  )
        30           O1  tau(  30) = (   1.9864658   4.4711199   9.2879459  )
        31           Ti1 tau(  31) = (   3.3166040   0.0254347   9.1556988  )
        32           Ti1 tau(  32) = (   0.0362352   4.4699824   9.2670842  )
        33           O1  tau(  33) = (   3.3035804   2.9865095  11.3763011  )
        34           O1  tau(  34) = (   0.0042610   2.9829788  10.6236548  )
        35           O1  tau(  35) = (   1.2977823   4.4749822  12.6434080  )
        36           O1  tau(  36) = (   5.3021498   4.4756442  12.6578133  )
        37           Ti1 tau(  37) = (   0.0128731   0.0155586  12.4748574  )
        38           Ti1 tau(  38) = (   3.3087006   4.4877506  12.5360639  )
        39           O1  tau(  39) = (   0.0289868   2.9802581  14.8446641  )
        40           O1  tau(  40) = (   3.2975897   2.9808645  13.9396156  )
        41           O1  tau(  41) = (   4.5936103   4.4348319  16.1149158  )
        42           O1  tau(  42) = (   2.0365336   4.4144103  16.1518429  )
        43           Ti1 tau(  43) = (   3.2980932   5.9591119  15.8729608  )
        44           Ti1 tau(  44) = (   0.0070259   4.5936845  15.8821292  )
        45           O1  tau(  45) = (   3.2900926   2.9813045   4.7018136  )
        46           O1  tau(  46) = (   1.3039711   4.4726057   6.0039043  )
        47           O1  tau(  47) = (   5.2763189   4.4711207   6.0039473  )
        48           C1  tau(  48) = (   6.0563806   2.9601134  19.0478501  )
        49           O1  tau(  49) = (   0.1703025   2.9720528  17.8813388  )
        50           H1  tau(  50) = (   5.0099104   2.8626262  18.6876999  )
        51           H1  tau(  51) = (   1.1251272   3.0566160  18.0647747  )
        52           O1  tau(  52) = (   3.2803433   5.9178330  18.2983259  )
        53           H1  tau(  53) = (   4.0549949   5.9397654  18.8787675  )
        54           H1  tau(  54) = (   2.4787048   0.0362026  18.8357284  )

     number of k points=    10  Fermi-Dirac smearing, width (Ry)=  0.0073
                       cart. coord. in units 2pi/alat
        k(    1) = (   0.0000000   0.0000000   0.0000000), wk =   0.1250000
        k(    2) = (   0.0000000   0.0419351   0.0000000), wk =   0.2500000
        k(    3) = (   0.0000000  -0.0838702   0.0000000), wk =   0.1250000
        k(    4) = (   0.0379955   0.0000049   0.0000000), wk =   0.2500000
        k(    5) = (   0.0379955   0.0419400   0.0000000), wk =   0.2500000
        k(    6) = (   0.0379955  -0.0838652   0.0000000), wk =   0.2500000
        k(    7) = (   0.0379955  -0.0419301   0.0000000), wk =   0.2500000
        k(    8) = (  -0.0759910  -0.0000099   0.0000000), wk =   0.1250000
        k(    9) = (  -0.0759910   0.0419252   0.0000000), wk =   0.2500000
        k(   10) = (  -0.0759910  -0.0838800   0.0000000), wk =   0.1250000

     Initial potential from superposition of free atoms

     starting charge  381.99917, renormalised to  398.00000

     negative rho (up, down):  1.670E-02 0.000E+00

     %%%%%%%%%%%%%%%%%%%%%%%%%%%%%%%%%%%%%%%%%%%%%%%%%%%%%%%%%%%%%%%%%%%%%%%%
     %                                                                      %
     % You are using vdW-DF, which was implemented by the Thonhauser group. %
     % Please cite the following two papers that made this development      %
     % possible and the two reviews that describe the various versions:     %
     %                                                                      %
     %   T. Thonhauser et al., PRL 115, 136402 (2015).                      %
     %   T. Thonhauser et al., PRB 76, 125112 (2007).                       %
     %   K. Berland et al., Rep. Prog. Phys. 78, 066501 (2015).             %
     %   D.C. Langreth et al., J. Phys.: Condens. Matter 21, 084203 (2009). %
     %                                                                      %
     %                                                                      %
     % If you are calculating the stress with vdW-DF, please also cite:     %
     %                                                                      %
     %   R. Sabatini et al., J. Phys.: Condens. Matter 24, 424209 (2012).   %
     %                                                                      %
     %%%%%%%%%%%%%%%%%%%%%%%%%%%%%%%%%%%%%%%%%%%%%%%%%%%%%%%%%%%%%%%%%%%%%%%%

     Adding external electric field

     Computed dipole along edir(3) :
        Dipole              -10.5131 Ry au,        -26.7216 Debye
        Dipole field         -0.0198 Ry au,

        Potential amp.        1.8391 Ry
        Total length         46.3494 bohr

     Starting wfcs are  300 atomic wfcs
  @ DRIVER MODE: Message from server: STATUS
  @ DRIVER MODE: Message from server: POSDATA
  @ DRIVER MODE: Reading and sharing cell
  @ DRIVER MODE: Reading and sharing positions
  @ DRIVER MODE: Received positions

     Self-consistent Calculation

     iteration #  1     ecut=    29.40 Ry     beta= 0.05
     Davidson diagonalization with overlap
     c_bands:  2 eigenvalues not converged
     c_bands:  3 eigenvalues not converged
     c_bands:  1 eigenvalues not converged
     c_bands:  4 eigenvalues not converged
     c_bands:  4 eigenvalues not converged
     c_bands:  4 eigenvalues not converged
     c_bands:  1 eigenvalues not converged
     c_bands:  3 eigenvalues not converged
     c_bands:  4 eigenvalues not converged
     ethr =  1.00E-05,  avg # of iterations = 19.9

[...]

     total energy              =   -2479.43119035 Ry
     estimated scf accuracy    <    5441.08420675 Ry

     iteration #  2     ecut=    29.40 Ry     beta= 0.05
     Davidson diagonalization with overlap
     ethr =  1.00E-02,  avg # of iterations = 25.0

[...]

     iteration # 84     ecut=    29.40 Ry     beta= 0.05
     Davidson diagonalization with overlap
     c_bands:  3 eigenvalues not converged
     c_bands:  2 eigenvalues not converged
     ethr =  3.76E-11,  avg # of iterations = 14.4

[...]

     total energy              =   -2964.77951300 Ry
     estimated scf accuracy    <       0.00000008 Ry

     iteration # 87     ecut=    29.40 Ry     beta= 0.05
     Davidson diagonalization with overlap
     ethr =  1.90E-11,  avg # of iterations = 11.7

     negative rho (up, down):  1.518E-02 0.000E+00

     Adding external electric field

     Computed dipole along edir(3) :
        Dipole                0.7084 Ry au,          1.8006 Debye
        Dipole field          0.0013 Ry au,

        Potential amp.       -0.1239 Ry
        Total length         46.3494 bohr

     End of self-consistent calculation

          k = 0.0000 0.0000 0.0000 ( 18029 PWs)   bands (ev):

   -55.7047 -55.6918 -55.6684 -55.6663 -55.6573 -55.6065 -55.5549 -55.5534
   -55.5409 -55.5205 -55.5077 -55.4863 -55.4854 -55.4738 -54.7724 -54.7383
   -32.2652 -32.1858 -32.1824 -32.0876 -32.0504 -32.0305 -32.0194 -32.0092
   -31.9808 -31.9454 -31.9354 -31.9205 -31.8960 -31.8890 -31.8817 -31.8628
   -31.8453 -31.8447 -31.8416 -31.8340 -31.8181 -31.8069 -31.8067 -31.7974
   -31.7953 -31.7801 -31.7768 -31.7487 -31.7367 -31.7231 -31.7117 -31.7107
   -31.7058 -31.7017 -31.6952 -31.6872 -31.6550 -31.6537 -31.6486 -31.6449
   -31.6185 -31.5622 -31.1841 -31.0826 -31.0610 -31.0003 -30.9139 -30.8030
   -21.1373 -19.2563 -16.5234 -16.2813 -16.1386 -16.0354 -15.9306 -15.7981
   -15.7112 -15.5877 -15.5245 -15.3976 -15.3583 -15.3527 -15.3462 -15.3179
   -15.2967 -15.2735 -15.2496 -15.2089 -15.2044 -15.2008 -15.1718 -15.1596
   -15.1020 -15.0893 -15.0454 -14.9275 -14.8758 -14.8148 -14.4967 -13.2733
   -13.1541 -10.3415  -7.2154  -5.7017  -4.7268  -4.0161  -3.9433  -3.8139
    -3.7172  -3.6486  -3.6113  -3.5430  -3.4638  -3.2607  -3.1304  -3.1224
    -2.9897  -2.9529  -2.9084  -2.8071  -2.7413  -2.6791  -2.6689  -2.5932
    -2.5889  -2.5808  -2.5675  -2.4753  -2.4688  -2.4204  -2.3790  -2.2999
    -2.2643  -2.1470  -2.1163  -2.1075  -2.0637  -2.0479  -2.0412  -2.0287
    -1.9790  -1.9533  -1.9354  -1.9340  -1.7922  -1.7503  -1.6044  -1.4794
    -1.4466  -1.4327  -1.3036  -1.2664  -1.2500  -1.1922  -1.1718  -1.1618
    -1.1229  -1.0419  -0.9588  -0.9346  -0.8626  -0.8197  -0.7155  -0.6213
    -0.5767  -0.5281  -0.5055  -0.4961  -0.4768  -0.4121  -0.3643  -0.2777
    -0.2237  -0.1606  -0.1337  -0.1269  -0.0722  -0.0421   0.0378   0.0846
     0.1190   0.1331   0.2189   0.2334   0.2460   0.2773   0.2796   0.3927
     0.4466   0.5036   0.5101   0.6586   0.8255   0.8508   0.9302   1.1448
     1.2531   1.2556   1.4165   1.4729   1.8382   1.8925   3.3829   3.4529
     3.4875   3.5016   3.5109   3.5887   3.8184   3.8707   3.9023   3.9212
     3.9310

[...]

          k = 0.0380-0.0419 0.0000 ( 17876 PWs)   bands (ev):

[...]

          k =-0.0760-0.0000 0.0000 ( 17886 PWs)   bands (ev):

[...]

          k =-0.0760-0.0839 0.0000 ( 17948 PWs)   bands (ev):

   -55.6892 -55.6838 -55.6769 -55.6721 -55.6647 -55.6002 -55.5597 -55.5395
   -55.5354 -55.5341 -55.4921 -55.4919 -55.4897 -55.4878 -54.7554 -54.7553
   -32.1074 -32.0755 -32.0644 -32.0030 -31.9984 -31.9796 -31.9709 -31.9615
   -31.9594 -31.9351 -31.9340 -31.9092 -31.8998 -31.8714 -31.8578 -31.8560
   -31.8545 -31.8464 -31.8414 -31.8375 -31.8296 -31.8220 -31.8049 -31.8020
   -31.7993 -31.7970 -31.7968 -31.7958 -31.7923 -31.7844 -31.7821 -31.7528
   -31.7380 -31.7376 -31.7222 -31.7132 -31.7113 -31.7059 -31.6807 -31.6759
   -31.6746 -31.6515 -31.0736 -31.0735 -30.9970 -30.9966 -30.9572 -30.9570
   -21.1361 -19.2558 -16.1543 -15.9592 -15.8087 -15.7244 -15.7177 -15.6586
   -15.5785 -15.5373 -15.4915 -15.4796 -15.4693 -15.4348 -15.4258 -15.4141
   -15.3518 -15.3016 -15.2982 -15.2828 -15.2334 -15.2259 -15.2155 -15.2099
   -15.2011 -15.1581 -15.1539 -15.1392 -15.1284 -14.9850 -14.8284 -13.2556
   -13.2547 -10.3448  -7.2130  -5.7048  -4.7056  -3.9455  -3.8712  -3.2344
    -3.2318  -2.9702  -2.9480  -2.8895  -2.8779  -2.8138  -2.7826  -2.7067
    -2.7004  -2.6552  -2.6148  -2.6065  -2.5935  -2.5693  -2.5360  -2.5227
    -2.4807  -2.4709  -2.4451  -2.4406  -2.4214  -2.4055  -2.3805  -2.3746
    -2.3423  -2.3222  -2.3145  -2.3104  -2.2337  -2.1715  -2.0485  -2.0267
    -1.9860  -1.9367  -1.9211  -1.8506  -1.8148  -1.8000  -1.7424  -1.7080
    -1.6815  -1.5083  -1.4965  -1.4760  -1.3850  -1.3524  -1.3394  -1.3115
    -1.2551  -1.2263  -1.2222  -1.1445  -1.0333  -1.0105  -0.9117  -0.8665
    -0.8650  -0.7767  -0.7431  -0.7046  -0.7025  -0.6656  -0.6090  -0.5873
    -0.5302  -0.5245  -0.4770  -0.4563  -0.4328  -0.4019  -0.2292  -0.1741
    -0.1185  -0.0212   0.0075   0.2351   0.2661   0.2731   0.3387   0.3693
     0.4754   0.4969   0.5598   0.5748   0.6760   0.7075   0.7244   0.7293
     0.7755   1.4797   1.6049   1.6076   1.7065   1.7102   3.5322   3.5465
     3.6480   3.6999   3.7373   3.8409   3.8897   3.9219   3.9295   3.9446
     4.0298

     the Fermi energy is     3.4309 ev

!    total energy              =   -2964.77952099 Ry
     estimated scf accuracy    <       0.00000007 Ry
     smearing contrib. (-TS)   =      -0.03745430 Ry
     internal energy E=F+TS    =   -2964.74206670 Ry

     The total energy is F=E-TS. E is the sum of the following terms:
     one-electron contribution =  -24112.38741214 Ry
     hartree contribution      =   12146.40798305 Ry
     xc contribution           =    -490.02019187 Ry
     ewald contribution        =    9491.25660725 Ry
     electric field correction =       0.00094702 Ry

     convergence has been achieved in  87 iterations

     Forces acting on atoms (cartesian axes, Ry/au):

     atom    1 type  1   force =    -0.00035251   -0.00002404    0.09252747
     atom    2 type  1   force =    -0.00033727    0.00121925   -0.18263984
     atom    3 type  2   force =     0.00043855    0.00022573   -0.02457447
     atom    4 type  2   force =     0.00073338    0.00044756    0.05163474
     atom    5 type  2   force =    -0.01465900   -0.00007673    0.00465203
     atom    6 type  2   force =     0.01552995   -0.00056754    0.00540578
     atom    7 type  1   force =    -0.00050160   -0.00017072    0.00009856
     atom    8 type  1   force =     0.00021268    0.00002825    0.00020748
     atom    9 type  2   force =    -0.00017001   -0.00017935   -0.00032589
     atom   10 type  2   force =     0.00006096   -0.00005256    0.00032218
     atom   11 type  2   force =    -0.00031143    0.00020556    0.00003635
     atom   12 type  2   force =     0.00038334    0.00007807   -0.00020973
     atom   13 type  1   force =    -0.00020519   -0.00025378    0.00024081
     atom   14 type  1   force =     0.00013056   -0.00021415   -0.00044637
     atom   15 type  2   force =    -0.00032043    0.00033409   -0.00013570
     atom   16 type  2   force =     0.00008257    0.00002030   -0.00027990
     atom   17 type  2   force =    -0.00009089   -0.00010408    0.00014708
     atom   18 type  2   force =     0.00014085   -0.00008842   -0.00020407
     atom   19 type  1   force =    -0.00096316    0.00009834   -0.00034495
     atom   20 type  1   force =     0.00032960    0.00006373   -0.00001896
     atom   21 type  2   force =    -0.00009618    0.00005718    0.10492301
     atom   22 type  2   force =    -0.00033105    0.00001186    0.00047009
     atom   23 type  2   force =    -0.06834796    0.00002859   -0.02692416
     atom   24 type  2   force =     0.06804395    0.00046332   -0.02700114
     atom   25 type  1   force =    -0.00030175   -0.00000986    0.09718133
     atom   26 type  1   force =    -0.00030210   -0.00120001   -0.18268487
     atom   27 type  2   force =     0.00035071    0.00024148   -0.02298844
     atom   28 type  2   force =     0.00081383    0.00042585    0.05202383
     atom   29 type  2   force =    -0.01464201    0.00064875    0.00458100
     atom   30 type  2   force =     0.01565297    0.00039794    0.00531031
     atom   31 type  1   force =    -0.00046298    0.00001113    0.00012441
     atom   32 type  1   force =     0.00021310    0.00008751    0.00018903
     atom   33 type  2   force =    -0.00008523    0.00012997    0.00014732
     atom   34 type  2   force =     0.00001389    0.00002452    0.00015874
     atom   35 type  2   force =    -0.00015194   -0.00030150    0.00012567
     atom   36 type  2   force =     0.00022003   -0.00019785   -0.00010484
     atom   37 type  1   force =    -0.00028844    0.00017110   -0.00045452
     atom   38 type  1   force =     0.00012205    0.00037947   -0.00033771
     atom   39 type  2   force =    -0.00035429   -0.00027753   -0.00022031
     atom   40 type  2   force =     0.00018215   -0.00008533   -0.00002091
     atom   41 type  2   force =    -0.00035967   -0.00009683   -0.00014842
     atom   42 type  2   force =     0.00036329   -0.00017447   -0.00066648
     atom   43 type  1   force =    -0.00088757   -0.00029227    0.00004351
     atom   44 type  1   force =     0.00040892   -0.00063715    0.00006889
     atom   45 type  2   force =    -0.00007086    0.00005332    0.10482512
     atom   46 type  2   force =    -0.06834412   -0.00060379   -0.02691838
     atom   47 type  2   force =     0.06803993   -0.00013912   -0.02699318
     atom   48 type  3   force =    -0.00006148   -0.00012622   -0.00019144
     atom   49 type  2   force =    -0.00013872   -0.00001656   -0.00013450
     atom   50 type  4   force =     0.00016911    0.00020319   -0.00015138
     atom   51 type  4   force =     0.00019007   -0.00001067   -0.00013183
     atom   52 type  2   force =    -0.00125090   -0.00113560    0.00167155
     atom   53 type  4   force =    -0.00017518    0.00067956   -0.00042088
     atom   54 type  4   force =     0.00173748    0.00030048   -0.00144303

     Total force =     0.368496     Total SCF correction =     0.001255
  @ DRIVER MODE: Message from server: STATUS
  @ DRIVER MODE: Message from server: GETFORCE
  @ DRIVER MODE: Returning v,forces,stress,ensemble

     Writing output data file ./calc.save/
  @ DRIVER MODE: Message from server: EXIT
  @ DRIVE MODE: Exiting

     General routines

     Parallel routines

   This run was terminated on:   5:25: 3  16Sep2021

   JOB DONE.