     Program PWSCF v.6.7GPU starts on 24Sep2021 at  2:17:54

     R & G space division:  proc/nbgrp/npool/nimage =       8
     Reading input from /storage/home/hcoda1/3/ntian30/research/carbon/CxH_vib/H2O_calc/ads_slab/CH2ON2HO_b/out_0035/pw.inp
Warning: card &CELL ignored
Warning: card   CELL_DYNAMICS='IPI', ignored
Warning: card / ignored

     Current dimensions of program PWSCF are:
     Max number of different atomic species (ntypx) = 10
     Max number of k-points (npk) =  40000
     Max angular momentum in pseudopotentials (lmaxx) =  3
     Presently no symmetry can be used with electric field

     Message from routine cell_base_init:
     DEPRECATED: use true lattice parameter, not A to a.u. conversion factor

     IMPORTANT: XC functional enforced from input :
     Exchange-correlation= BEEF-VDW
                           (   1   4  43  14   2   0   0)
     Any further DFT definition will be discarded
     Please, verify this is what you really want

  @ DRIVER MODE: Connecting to
 qe_1139763_2947315.sched-torque.pace.gatech.eduti7ecm9t_scratch
  using UNIX socket
  @ DRIVER MODE: Message from server: STATUS
  @ DRIVER MODE: Message from server: INIT
  @ DRIVER MODE: Receiving replica           0          -1
  @ DRIVER MODE: Receiving encoded integer          25
  @ DRIVER MODE:  SCF:  T  FORCE:  T  STRESS:  F  VC:  F  ENSEMBLE:  F
  @ DRIVER MODE:  SCF:  T  FORCE:  T  STRESS:  F  VC:  F  ENSEMBLE:  F

     Using Slab Decomposition

     bravais-lattice index     =            0
     lattice parameter (alat)  =       1.8897  a.u.
     unit-cell volume          =    6658.9804 (a.u.)^3
     number of atoms/cell      =           55
     number of atomic types    =            5
     number of electrons       =       407.00
     number of Kohn-Sham states=          213
     kinetic-energy cutoff     =      29.3995  Ry
     charge density cutoff     =     293.9946  Ry
     scf convergence threshold =      7.3E-08
     mixing beta               =       0.0500
     number of iterations used =            8  plain     mixing
     Exchange-correlation= BEEF-VDW
                           (   1   4  43  14   2   0   0)

     celldm(1)=   1.889726  celldm(2)=   0.000000  celldm(3)=   0.000000
     celldm(4)=   0.000000  celldm(5)=   0.000000  celldm(6)=   0.000000

     crystal axes: (cart. coord. in units of alat)
               a(1) = (   6.579727   0.000000   0.000000 )
               a(2) = (  -0.000775   5.961596   0.000000 )
               a(3) = (   0.000000   0.000000  25.155947 )

     reciprocal axes: (cart. coord. in units 2 pi/alat)
               b(1) = (  0.151982  0.000020  0.000000 )
               b(2) = (  0.000000  0.167740  0.000000 )
               b(3) = (  0.000000  0.000000  0.039752 )

     PseudoPot. # 1 for C  read from file:
     /storage/coda1/p-amedford6/0/shared/rich_project_chbe-medford/medford-share/data/pseudos_module/espresso/nninc/pbe/van/C.UPF
     MD5 check sum: 1a69bf6b8db32088f5b2163dbdb77a27
     Pseudo is Ultrasoft, Zval =  4.0
     Generated by new atomic code, or converted to UPF format
     Using radial grid of  721 points,  4 beta functions with:
                l(1) =   0
                l(2) =   0
                l(3) =   1
                l(4) =   1
     Q(r) pseudized with  8 coefficients,  rinner =    0.800   0.800   0.800

     PseudoPot. # 2 for H  read from file:
     /storage/coda1/p-amedford6/0/shared/rich_project_chbe-medford/medford-share/data/pseudos_module/espresso/nninc/pbe/van/H.UPF
     MD5 check sum: b5ee9d7bfd3a09ee7748110bda690ff7
     Pseudo is Ultrasoft, Zval =  1.0
     Generated by new atomic code, or converted to UPF format
     Using radial grid of  615 points,  1 beta functions with:
                l(1) =   0
     Q(r) pseudized with  8 coefficients,  rinner =    0.800

     PseudoPot. # 3 for O  read from file:
     /storage/coda1/p-amedford6/0/shared/rich_project_chbe-medford/medford-share/data/pseudos_module/espresso/nninc/pbe/van/O.UPF
     MD5 check sum: 78c19812648e8988a0fe644b0f25305e
     Pseudo is Ultrasoft, Zval =  6.0
     Generated by new atomic code, or converted to UPF format
     Using radial grid of  737 points,  4 beta functions with:
                l(1) =   0
                l(2) =   0
                l(3) =   1
                l(4) =   1
     Q(r) pseudized with  8 coefficients,  rinner =    0.800   0.800   0.800

     PseudoPot. # 4 for Ti read from file:
     /storage/coda1/p-amedford6/0/shared/rich_project_chbe-medford/medford-share/data/pseudos_module/espresso/nninc/pbe/van/Ti.UPF
     MD5 check sum: 8e4df49b7f0d34bbd5052bf3f5ea0213
     Pseudo is Ultrasoft, Zval = 12.0
     Generated by new atomic code, or converted to UPF format
     Using radial grid of  851 points,  6 beta functions with:
                l(1) =   0
                l(2) =   0
                l(3) =   1
                l(4) =   1
                l(5) =   2
                l(6) =   2
     Q(r) pseudized with  8 coefficients,  rinner =    1.000   1.000   1.000
                                                       1.000   1.000

     PseudoPot. # 5 for N  read from file:
     /storage/coda1/p-amedford6/0/shared/rich_project_chbe-medford/medford-share/data/pseudos_module/espresso/nninc/pbe/van/N.UPF
     MD5 check sum: 90d10febe142ad51ac9d5be1deb811c4
     Pseudo is Ultrasoft, Zval =  5.0
     Generated by new atomic code, or converted to UPF format
     Using radial grid of  729 points,  4 beta functions with:
                l(1) =   0
                l(2) =   0
                l(3) =   1
                l(4) =   1
     Q(r) pseudized with  8 coefficients,  rinner =    0.800   0.800   0.800

     atomic species   valence    mass     pseudopotential
        C1             4.00    12.01100     C ( 1.00)
        H1             1.00     1.00800     H ( 1.00)
        O1             6.00    15.99900     O ( 1.00)
        Ti1           12.00    47.86700     Ti( 1.00)
        N1             5.00    14.00700     N ( 1.00)

     No symmetry found

   Cartesian axes

     site n.     atom                  positions (alat units)
         1           C1  tau(   1) = (   6.3959394   2.9948767  18.7016815  )
         2           H1  tau(   2) = (   6.3118651   3.9496324  19.2181435  )
         3           H1  tau(   3) = (   6.2946090   2.0524817  19.2375006  )
         4           O1  tau(   4) = (   3.2904802   0.0005063   4.7018136  )
         5           O1  tau(   5) = (   3.2900926   2.9813045   4.7018136  )
         6           O1  tau(   6) = (   1.3043587   1.4918075   6.0039043  )
         7           O1  tau(   7) = (   1.3039711   4.4726057   6.0039043  )
         8           O1  tau(   8) = (   5.2767064   1.4903225   6.0039473  )
         9           O1  tau(   9) = (   5.2763189   4.4711207   6.0039473  )
        10           O1  tau(  10) = (   3.2906025   0.0005020   7.3038282  )
        11           O1  tau(  11) = (   3.2902150   2.9813002   7.3038282  )
        12           O1  tau(  12) = (   0.0006271   0.0005054   7.9858123  )
        13           O1  tau(  13) = (   0.0002396   2.9813036   7.9858123  )
        14           O1  tau(  14) = (   4.5942328   1.4918067   9.2879030  )
        15           O1  tau(  15) = (   4.5938453   4.4726049   9.2879030  )
        16           O1  tau(  16) = (   1.9868534   1.4903216   9.2879459  )
        17           O1  tau(  17) = (   1.9864658   4.4711199   9.2879459  )
        18           O1  tau(  18) = (   0.0129981   2.9922367  10.5657274  )
        19           O1  tau(  19) = (   0.0144279   0.0091559  10.5889743  )
        20           O1  tau(  20) = (   3.3117767   2.9674386  11.3102582  )
        21           O1  tau(  21) = (   3.3129298   0.0243810  11.3450129  )
        22           O1  tau(  22) = (   5.3345884   1.4970258  12.6342112  )
        23           O1  tau(  23) = (   5.3394917   4.4808886  12.6396439  )
        24           O1  tau(  24) = (   1.3039726   1.5040805  12.6380785  )
        25           O1  tau(  25) = (   1.3005587   4.4728597  12.6427203  )
        26           O1  tau(  26) = (   3.3397831   2.9746101  13.9049785  )
        27           O1  tau(  27) = (   3.3223070   5.9049495  13.9699414  )
        28           O1  tau(  28) = (   0.0408547   5.9558716  14.6791314  )
        29           O1  tau(  29) = (   0.0240783   2.9814708  14.7219997  )
        30           O1  tau(  30) = (   4.6055448   4.4181431  16.1204950  )
        31           O1  tau(  31) = (   4.6084482   1.5084077  16.0967128  )
        32           O1  tau(  32) = (   2.0524258   4.3896087  16.0537013  )
        33           O1  tau(  33) = (   2.0565100   1.5382275  16.0573534  )
        34           O1  tau(  34) = (   0.0881354   5.9599038  17.1931241  )
        35           O1  tau(  35) = (   0.0264254   2.9794292  17.4619454  )
        36           Ti1 tau(  36) = (   0.0004258   2.9801865   6.0000000  )
        37           Ti1 tau(  37) = (   0.0000382   5.9609847   6.0000000  )
        38           Ti1 tau(  38) = (   3.2906075   1.4906267   6.0002472  )
        39           Ti1 tau(  39) = (   3.2902200   4.4714249   6.0002472  )
        40           Ti1 tau(  40) = (   3.3176177   0.0844252   9.1703869  )
        41           Ti1 tau(  41) = (   3.3271239   3.0668301   9.1994626  )
        42           Ti1 tau(  42) = (   0.0459265   4.5214211   9.2633915  )
        43           Ti1 tau(  43) = (   0.0410032   1.6055327   9.3499854  )
        44           Ti1 tau(  44) = (   3.3214603   4.6642404  12.6916750  )
        45           Ti1 tau(  45) = (   3.3199143   1.5801738  12.4350604  )
        46           Ti1 tau(  46) = (   0.0219714   0.0386744  12.4748393  )
        47           Ti1 tau(  47) = (   0.0368166   3.0234317  12.7766128  )
        48           Ti1 tau(  48) = (   3.3281430   2.9430002  15.6816790  )
        49           Ti1 tau(  49) = (   3.4175200   5.9218210  16.2589141  )
        50           Ti1 tau(  50) = (   0.0864224   1.3736379  15.9343534  )
        51           Ti1 tau(  51) = (   0.1056494   4.5744356  15.9464672  )
        52           N1  tau(  52) = (   3.6299987   3.2157240  20.3374172  )
        53           N1  tau(  53) = (   2.7220030   2.6454082  20.0595964  )
        54           O1  tau(  54) = (   3.1925635   5.9265077  18.0938652  )
        55           H1  tau(  55) = (   2.2801939   0.0950383  18.3989923  )

     number of k points=    10  Fermi-Dirac smearing, width (Ry)=  0.0073
                       cart. coord. in units 2pi/alat
        k(    1) = (   0.0000000   0.0000000   0.0000000), wk =   0.1250000
        k(    2) = (   0.0000000   0.0419351   0.0000000), wk =   0.2500000
        k(    3) = (   0.0000000  -0.0838702   0.0000000), wk =   0.1250000
        k(    4) = (   0.0379955   0.0000049   0.0000000), wk =   0.2500000
        k(    5) = (   0.0379955   0.0419400   0.0000000), wk =   0.2500000
        k(    6) = (   0.0379955  -0.0838652   0.0000000), wk =   0.2500000
        k(    7) = (   0.0379955  -0.0419301   0.0000000), wk =   0.2500000
        k(    8) = (  -0.0759910  -0.0000099   0.0000000), wk =   0.1250000
        k(    9) = (  -0.0759910   0.0419252   0.0000000), wk =   0.2500000
        k(   10) = (  -0.0759910  -0.0838800   0.0000000), wk =   0.1250000

     Initial potential from superposition of free atoms

     starting charge  390.99916, renormalised to  407.00000

     negative rho (up, down):  1.490E-02 0.000E+00

     %%%%%%%%%%%%%%%%%%%%%%%%%%%%%%%%%%%%%%%%%%%%%%%%%%%%%%%%%%%%%%%%%%%%%%%%
     %                                                                      %
     % You are using vdW-DF, which was implemented by the Thonhauser group. %
     % Please cite the following two papers that made this development      %
     % possible and the two reviews that describe the various versions:     %
     %                                                                      %
     %   T. Thonhauser et al., PRL 115, 136402 (2015).                      %
     %   T. Thonhauser et al., PRB 76, 125112 (2007).                       %
     %   K. Berland et al., Rep. Prog. Phys. 78, 066501 (2015).             %
     %   D.C. Langreth et al., J. Phys.: Condens. Matter 21, 084203 (2009). %
     %                                                                      %
     %                                                                      %
     % If you are calculating the stress with vdW-DF, please also cite:     %
     %                                                                      %
     %   R. Sabatini et al., J. Phys.: Condens. Matter 24, 424209 (2012).   %
     %                                                                      %
     %%%%%%%%%%%%%%%%%%%%%%%%%%%%%%%%%%%%%%%%%%%%%%%%%%%%%%%%%%%%%%%%%%%%%%%%

     Adding external electric field

     Computed dipole along edir(3) :
        Dipole              -15.3748 Ry au,        -39.0788 Debye
        Dipole field         -0.0290 Ry au,

        Potential amp.        2.6896 Ry
        Total length         46.3494 bohr

     Starting wfcs are  307 atomic wfcs
  @ DRIVER MODE: Message from server: STATUS
  @ DRIVER MODE: Message from server: POSDATA
  @ DRIVER MODE: Reading and sharing cell
  @ DRIVER MODE: Reading and sharing positions
  @ DRIVER MODE: Received positions

     Self-consistent Calculation

     iteration #  1     ecut=    29.40 Ry     beta= 0.05
     Davidson diagonalization with overlap
     c_bands:  1 eigenvalues not converged
     c_bands:  1 eigenvalues not converged
     c_bands:  1 eigenvalues not converged
     c_bands:  1 eigenvalues not converged
     c_bands:  3 eigenvalues not converged
     ethr =  1.00E-05,  avg # of iterations = 34.7

[...]

     total energy              =   -2231.73033825 Ry
     estimated scf accuracy    <    8831.83971412 Ry

     iteration #  2     ecut=    29.40 Ry     beta= 0.05
     Davidson diagonalization with overlap
     ethr =  1.00E-02,  avg # of iterations = 31.2

[...]

     iteration # 50     ecut=    29.40 Ry     beta= 0.05
     Davidson diagonalization with overlap
     c_bands:  1 eigenvalues not converged
     ethr =  4.96E-07,  avg # of iterations =  9.1

[...]

     total energy              =   -3003.97506372 Ry
     estimated scf accuracy    <       0.00000013 Ry

     iteration # 73     ecut=    29.40 Ry     beta= 0.05
     Davidson diagonalization with overlap
     ethr =  3.07E-11,  avg # of iterations =  6.3

     negative rho (up, down):  1.522E-02 0.000E+00

     Adding external electric field

     Computed dipole along edir(3) :
        Dipole                0.9006 Ry au,          2.2890 Debye
        Dipole field          0.0017 Ry au,

        Potential amp.       -0.1575 Ry
        Total length         46.3494 bohr

     End of self-consistent calculation

          k = 0.0000 0.0000 0.0000 ( 18029 PWs)   bands (ev):

   -55.6612 -55.6186 -55.5438 -55.4583 -55.4238 -55.4128 -55.4004 -55.3622
   -55.3066 -55.2738 -55.2686 -55.2356 -55.1923 -55.1000 -54.5097 -54.4757
   -32.1130 -32.0116 -31.9557 -31.9279 -31.9151 -31.8728 -31.8668 -31.8228
   -31.8193 -31.7619 -31.7562 -31.7439 -31.7360 -31.7290 -31.7243 -31.7015
   -31.6807 -31.6753 -31.6348 -31.6241 -31.6115 -31.6000 -31.5979 -31.5965
   -31.5598 -31.5543 -31.5156 -31.5107 -31.5082 -31.4983 -31.4969 -31.4887
   -31.4642 -31.4624 -31.4352 -31.4324 -31.4301 -31.3851 -31.3847 -31.3472
   -31.3085 -31.3052 -30.9124 -30.8358 -30.8125 -30.7293 -30.6433 -30.5320
   -21.0919 -20.0511 -16.3325 -16.1572 -15.9903 -15.8021 -15.7030 -15.6409
   -15.4341 -15.3752 -15.2984 -15.1430 -15.1157 -15.0789 -15.0502 -15.0285
   -15.0198 -14.9960 -14.9863 -14.9454 -14.9216 -14.9179 -14.8727 -14.8092
   -14.7635 -14.7545 -14.7104 -14.6519 -14.6056 -14.5934 -14.5356 -14.3459
   -13.0107 -12.8968  -9.2724  -6.4195  -5.5873  -5.5537  -4.2727  -4.2540
    -3.9028  -3.5545  -3.5146  -3.4700  -3.3869  -3.3646  -3.2361  -3.0691
    -3.0515  -2.8894  -2.7594  -2.6869  -2.6531  -2.6181  -2.5028  -2.4550
    -2.4285  -2.3908  -2.3590  -2.3347  -2.2953  -2.2779  -2.2439  -2.1990
    -2.1700  -2.0794  -2.0758  -2.0293  -1.9484  -1.9128  -1.9069  -1.9033
    -1.8817  -1.8359  -1.7961  -1.7505  -1.7232  -1.6725  -1.5663  -1.5467
    -1.5414  -1.4729  -1.2287  -1.0929  -1.0649  -0.9918  -0.9552  -0.9378
    -0.8994  -0.8943  -0.8797  -0.8440  -0.8158  -0.6968  -0.6345  -0.5732
    -0.5675  -0.5467  -0.5026  -0.4018  -0.3404  -0.3060  -0.2622  -0.2483
    -0.1784  -0.1610  -0.0808  -0.0473   0.0208   0.1256   0.1695   0.1991
     0.2186   0.2330   0.2824   0.3372   0.3910   0.4224   0.4344   0.4633
     0.5335   0.5570   0.5704   0.5970   0.6843   0.7500   0.7674   0.8286
     0.9120   0.9391   1.0349   1.1644   1.2381   1.4861   1.5122   1.5944
     1.7264   2.0744   2.1200   3.5535   3.6320   3.6617   3.7457   3.8083
     3.8354   3.9190   4.0031   4.0903   4.1243

[...]

          k = 0.0380-0.0419 0.0000 ( 17876 PWs)   bands (ev):

[...]

          k =-0.0760-0.0000 0.0000 ( 17886 PWs)   bands (ev):

[...]

          k =-0.0760-0.0839 0.0000 ( 17948 PWs)   bands (ev):

   -55.6528 -55.6269 -55.5429 -55.4463 -55.4356 -55.4059 -55.3980 -55.3690
   -55.3074 -55.2716 -55.2621 -55.2464 -55.1892 -55.1030 -54.4932 -54.4920
   -31.9502 -31.9390 -31.9229 -31.9169 -31.9098 -31.8133 -31.7964 -31.7791
   -31.7632 -31.7605 -31.7592 -31.7484 -31.7408 -31.6979 -31.6975 -31.6759
   -31.6600 -31.6526 -31.6405 -31.6316 -31.6258 -31.6230 -31.6109 -31.5957
   -31.5890 -31.5869 -31.5736 -31.5604 -31.5551 -31.5449 -31.5044 -31.5000
   -31.4936 -31.4764 -31.4715 -31.4668 -31.4531 -31.4497 -31.4195 -31.3876
   -31.3506 -31.3086 -30.8260 -30.8248 -30.7267 -30.7249 -30.6866 -30.6852
   -21.0916 -20.0454 -16.3028 -15.6736 -15.6119 -15.4675 -15.4462 -15.3881
   -15.3577 -15.2818 -15.2384 -15.2288 -15.2000 -15.1816 -15.1561 -15.1380
   -15.0992 -15.0777 -15.0272 -15.0213 -14.9709 -14.9661 -14.9572 -14.9337
   -14.8853 -14.8315 -14.8247 -14.8221 -14.7592 -14.7512 -14.6531 -14.4801
   -13.0004 -12.9981  -9.2808  -6.4163  -5.5761  -5.5091  -4.2802  -4.2548
    -3.8607  -3.6234  -3.0422  -2.9021  -2.8278  -2.6875  -2.5995  -2.5393
    -2.5278  -2.5067  -2.4704  -2.3981  -2.3870  -2.3325  -2.3283  -2.3210
    -2.3100  -2.2910  -2.2470  -2.2245  -2.2093  -2.1998  -2.1739  -2.1510
    -2.1370  -2.1246  -2.1168  -2.1047  -2.0914  -2.0479  -1.9824  -1.9158
    -1.8801  -1.8650  -1.7232  -1.7098  -1.6429  -1.6281  -1.6180  -1.5918
    -1.5841  -1.5054  -1.4545  -1.3113  -1.2881  -1.2544  -1.1960  -1.1523
    -1.0689  -1.0624  -1.0362  -0.9776  -0.9578  -0.9277  -0.9122  -0.8156
    -0.7381  -0.6932  -0.6558  -0.5422  -0.5251  -0.5101  -0.4491  -0.4227
    -0.4149  -0.4007  -0.3559  -0.2840  -0.2374  -0.2158  -0.1787  -0.1670
    -0.1041  -0.0563   0.0140   0.0840   0.1665   0.1860   0.2922   0.3668
     0.4141   0.5274   0.5844   0.6131   0.6439   0.7169   0.7655   0.7792
     0.8776   0.9366   0.9567   1.0250   1.0535   1.0943   1.1288   1.8832
     1.8962   1.9292   1.9414   3.5039   4.0408   4.0509   4.0647   4.0869
     4.1110   4.1349   4.2096   4.2500   4.2655

     the Fermi energy is     3.4947 ev

!    total energy              =   -3003.97508758 Ry
     estimated scf accuracy    <       0.00000003 Ry
     smearing contrib. (-TS)   =      -0.01899876 Ry
     internal energy E=F+TS    =   -3003.95608882 Ry

     The total energy is F=E-TS. E is the sum of the following terms:
     one-electron contribution =  -23048.68982792 Ry
     hartree contribution      =   11621.44010166 Ry
     xc contribution           =    -499.45949848 Ry
     ewald contribution        =    8922.75160545 Ry
     electric field correction =       0.00153047 Ry

     convergence has been achieved in  73 iterations

     Forces acting on atoms (cartesian axes, Ry/au):

     atom    1 type  1   force =    -0.00037082   -0.00002773    0.00057956
     atom    2 type  2   force =    -0.00045939   -0.00006742   -0.00021919
     atom    3 type  2   force =    -0.00053397    0.00007813   -0.00027432
     atom    4 type  3   force =    -0.00006416    0.00012087    0.10178140
     atom    5 type  3   force =    -0.00006442    0.00014788    0.10145016
     atom    6 type  3   force =    -0.07459195    0.00082506   -0.03019950
     atom    7 type  3   force =    -0.07406044   -0.00148390   -0.03018905
     atom    8 type  3   force =     0.07427074    0.00138508   -0.03025076
     atom    9 type  3   force =     0.07391195   -0.00108428   -0.03029799
     atom   10 type  3   force =     0.00081997    0.00107483    0.04835935
     atom   11 type  3   force =     0.00087709    0.00075792    0.05011684
     atom   12 type  3   force =     0.00040561   -0.00629482   -0.03721318
     atom   13 type  3   force =     0.00063856    0.00422395   -0.03094813
     atom   14 type  3   force =    -0.01077048   -0.00220233    0.00090848
     atom   15 type  3   force =    -0.01064588    0.00459850    0.00171671
     atom   16 type  3   force =     0.01297860   -0.00502396    0.00200716
     atom   17 type  3   force =     0.01233682    0.00211917    0.00232578
     atom   18 type  3   force =    -0.00037368    0.00005248    0.00006168
     atom   19 type  3   force =    -0.00020684    0.00027747    0.00000086
     atom   20 type  3   force =     0.00003143   -0.00075615    0.00006415
     atom   21 type  3   force =    -0.00022349   -0.00039578   -0.00001220
     atom   22 type  3   force =     0.00024730   -0.00047549   -0.00004082
     atom   23 type  3   force =     0.00005490    0.00035901    0.00060868
     atom   24 type  3   force =    -0.00047060   -0.00034778   -0.00034977
     atom   25 type  3   force =    -0.00014935    0.00044364    0.00016021
     atom   26 type  3   force =    -0.00040301   -0.00025344   -0.00027525
     atom   27 type  3   force =    -0.00011249    0.00012203    0.00008416
     atom   28 type  3   force =     0.00047570    0.00009056    0.00010244
     atom   29 type  3   force =    -0.00011676   -0.00023445    0.00016282
     atom   30 type  3   force =    -0.00049167   -0.00010092   -0.00048600
     atom   31 type  3   force =    -0.00047057    0.00005638   -0.00024132
     atom   32 type  3   force =    -0.00022195    0.00030819   -0.00003585
     atom   33 type  3   force =    -0.00041594   -0.00015095    0.00003928
     atom   34 type  3   force =    -0.00067365   -0.00023616   -0.00043315
     atom   35 type  3   force =    -0.00025448   -0.00010465    0.00045163
     atom   36 type  4   force =    -0.00032340   -0.00159473    0.10371156
     atom   37 type  4   force =    -0.00012237    0.00149926    0.11780408
     atom   38 type  4   force =    -0.00038988    0.00606163   -0.16915379
     atom   39 type  4   force =    -0.00010614   -0.00504032   -0.16940483
     atom   40 type  4   force =     0.00030948    0.00007357   -0.00053110
     atom   41 type  4   force =     0.00003622   -0.00020396   -0.00018218
     atom   42 type  4   force =    -0.00017338    0.00084060   -0.00000735
     atom   43 type  4   force =    -0.00019755   -0.00053116    0.00000338
     atom   44 type  4   force =    -0.00006683   -0.00025507    0.00031383
     atom   45 type  4   force =     0.00000488   -0.00018366   -0.00108575
     atom   46 type  4   force =    -0.00034125    0.00031639    0.00058423
     atom   47 type  4   force =    -0.00079433    0.00066293   -0.00000977
     atom   48 type  4   force =     0.00049715   -0.00023058    0.00007306
     atom   49 type  4   force =     0.00073735    0.00009751   -0.00033135
     atom   50 type  4   force =     0.00041593    0.00006468   -0.00030631
     atom   51 type  4   force =     0.00017877   -0.00017118   -0.00048629
     atom   52 type  5   force =    -0.01273142   -0.00814190   -0.00419470
     atom   53 type  5   force =     0.01226038    0.00810753    0.00379779
     atom   54 type  3   force =    -0.00107738    0.00086184   -0.00000812
     atom   55 type  2   force =     0.00098109   -0.00003432   -0.00010128

     Total force =     0.369755     Total SCF correction =     0.000538
  @ DRIVER MODE: Message from server: STATUS
  @ DRIVER MODE: Message from server: GETFORCE
  @ DRIVER MODE: Returning v,forces,stress,ensemble

     Writing output data file ./calc.save/
  @ DRIVER MODE: Message from server: EXIT
  @ DRIVE MODE: Exiting

     General routines

     Parallel routines

   This run was terminated on:   2:45:55  24Sep2021

   JOB DONE.