     Program PWSCF v.6.7GPU starts on  8Sep2021 at 23:33:55

     R & G space division:  proc/nbgrp/npool/nimage =      10
     Reading input from /storage/home/hcoda1/3/ntian30/research/carbon/CxH_vib/CH2_calc/ads_slab/CH2NH_a/out_0006/pw.inp
Warning: card &CELL ignored
Warning: card   CELL_DYNAMICS='IPI', ignored
Warning: card / ignored

     Current dimensions of program PWSCF are:
     Max number of different atomic species (ntypx) = 10
     Max number of k-points (npk) =  40000
     Max angular momentum in pseudopotentials (lmaxx) =  3
     Presently no symmetry can be used with electric field

     Message from routine cell_base_init:
     DEPRECATED: use true lattice parameter, not A to a.u. conversion factor

     IMPORTANT: XC functional enforced from input :
     Exchange-correlation= BEEF-VDW
                           (   1   4  43  14   2   0   0)
     Any further DFT definition will be discarded
     Please, verify this is what you really want

  @ DRIVER MODE: Connecting to
 qe_1139763_2767389.sched-torque.pace.gatech.edu2rd2l1n0_scratch
  using UNIX socket
  @ DRIVER MODE: Message from server: STATUS
  @ DRIVER MODE: Message from server: INIT
  @ DRIVER MODE: Receiving replica           0          -1
  @ DRIVER MODE: Receiving encoded integer          25
  @ DRIVER MODE:  SCF:  T  FORCE:  T  STRESS:  F  VC:  F  ENSEMBLE:  F
  @ DRIVER MODE:  SCF:  T  FORCE:  T  STRESS:  F  VC:  F  ENSEMBLE:  F

     Using Slab Decomposition

     bravais-lattice index     =            0
     lattice parameter (alat)  =       1.8897  a.u.
     unit-cell volume          =    6658.9804 (a.u.)^3
     number of atoms/cell      =           52
     number of atomic types    =            5
     number of electrons       =       390.00
     number of Kohn-Sham states=          205
     kinetic-energy cutoff     =      29.3995  Ry
     charge density cutoff     =     293.9946  Ry
     scf convergence threshold =      7.3E-08
     mixing beta               =       0.0500
     number of iterations used =            8  plain     mixing
     Exchange-correlation= BEEF-VDW
                           (   1   4  43  14   2   0   0)

     celldm(1)=   1.889726  celldm(2)=   0.000000  celldm(3)=   0.000000
     celldm(4)=   0.000000  celldm(5)=   0.000000  celldm(6)=   0.000000

     crystal axes: (cart. coord. in units of alat)
               a(1) = (   6.579727   0.000000   0.000000 )
               a(2) = (  -0.000775   5.961596   0.000000 )
               a(3) = (   0.000000   0.000000  25.155947 )

     reciprocal axes: (cart. coord. in units 2 pi/alat)
               b(1) = (  0.151982  0.000020  0.000000 )
               b(2) = (  0.000000  0.167740  0.000000 )
               b(3) = (  0.000000  0.000000  0.039752 )

     PseudoPot. # 1 for Ti read from file:
     /storage/coda1/p-amedford6/0/shared/rich_project_chbe-medford/medford-share/data/pseudos_module/espresso/nninc/pbe/van/Ti.UPF
     MD5 check sum: 8e4df49b7f0d34bbd5052bf3f5ea0213
     Pseudo is Ultrasoft, Zval = 12.0
     Generated by new atomic code, or converted to UPF format
     Using radial grid of  851 points,  6 beta functions with:
                l(1) =   0
                l(2) =   0
                l(3) =   1
                l(4) =   1
                l(5) =   2
                l(6) =   2
     Q(r) pseudized with  8 coefficients,  rinner =    1.000   1.000   1.000
                                                       1.000   1.000

     PseudoPot. # 2 for O  read from file:
     /storage/coda1/p-amedford6/0/shared/rich_project_chbe-medford/medford-share/data/pseudos_module/espresso/nninc/pbe/van/O.UPF
     MD5 check sum: 78c19812648e8988a0fe644b0f25305e
     Pseudo is Ultrasoft, Zval =  6.0
     Generated by new atomic code, or converted to UPF format
     Using radial grid of  737 points,  4 beta functions with:
                l(1) =   0
                l(2) =   0
                l(3) =   1
                l(4) =   1
     Q(r) pseudized with  8 coefficients,  rinner =    0.800   0.800   0.800

     PseudoPot. # 3 for N  read from file:
     /storage/coda1/p-amedford6/0/shared/rich_project_chbe-medford/medford-share/data/pseudos_module/espresso/nninc/pbe/van/N.UPF
     MD5 check sum: 90d10febe142ad51ac9d5be1deb811c4
     Pseudo is Ultrasoft, Zval =  5.0
     Generated by new atomic code, or converted to UPF format
     Using radial grid of  729 points,  4 beta functions with:
                l(1) =   0
                l(2) =   0
                l(3) =   1
                l(4) =   1
     Q(r) pseudized with  8 coefficients,  rinner =    0.800   0.800   0.800

     PseudoPot. # 4 for C  read from file:
     /storage/coda1/p-amedford6/0/shared/rich_project_chbe-medford/medford-share/data/pseudos_module/espresso/nninc/pbe/van/C.UPF
     MD5 check sum: 1a69bf6b8db32088f5b2163dbdb77a27
     Pseudo is Ultrasoft, Zval =  4.0
     Generated by new atomic code, or converted to UPF format
     Using radial grid of  721 points,  4 beta functions with:
                l(1) =   0
                l(2) =   0
                l(3) =   1
                l(4) =   1
     Q(r) pseudized with  8 coefficients,  rinner =    0.800   0.800   0.800

     PseudoPot. # 5 for H  read from file:
     /storage/coda1/p-amedford6/0/shared/rich_project_chbe-medford/medford-share/data/pseudos_module/espresso/nninc/pbe/van/H.UPF
     MD5 check sum: b5ee9d7bfd3a09ee7748110bda690ff7
     Pseudo is Ultrasoft, Zval =  1.0
     Generated by new atomic code, or converted to UPF format
     Using radial grid of  615 points,  1 beta functions with:
                l(1) =   0
     Q(r) pseudized with  8 coefficients,  rinner =    0.800

     atomic species   valence    mass     pseudopotential
        Ti1           12.00    47.86700     Ti( 1.00)
        O1             6.00    15.99900     O ( 1.00)
        N1             5.00    14.00700     N ( 1.00)
        C1             4.00    12.01100     C ( 1.00)
        H1             1.00     1.00800     H ( 1.00)

     No symmetry found

   Cartesian axes

     site n.     atom                  positions (alat units)
         1           Ti1 tau(   1) = (   0.0004258   2.9801865   6.0000000  )
         2           Ti1 tau(   2) = (   3.2906075   1.4906267   6.0002472  )
         3           O1  tau(   3) = (   0.0006271   0.0005054   7.9858123  )
         4           O1  tau(   4) = (   3.2906025   0.0005020   7.3038282  )
         5           O1  tau(   5) = (   4.5942328   1.4918067   9.2879030  )
         6           O1  tau(   6) = (   1.9868534   1.4903216   9.2879459  )
         7           Ti1 tau(   7) = (   3.2907910   2.8959150   9.1758416  )
         8           Ti1 tau(   8) = (   0.0015273   1.4827037   9.2680791  )
         9           O1  tau(   9) = (   3.2859541   5.9290403  11.3715426  )
        10           O1  tau(  10) = (   0.0116148   5.9584955  10.6183126  )
        11           O1  tau(  11) = (   1.2917987   1.4688796  12.6526629  )
        12           O1  tau(  12) = (   5.2888266   1.4686376  12.6403033  )
        13           Ti1 tau(  13) = (   0.0074927   2.9495069  12.5376589  )
        14           Ti1 tau(  14) = (   3.2957121   1.4606513  12.5174744  )
        15           O1  tau(  15) = (   6.5702453   0.0264740  14.6787910  )
        16           O1  tau(  16) = (   3.3001739   5.9406727  13.9930656  )
        17           O1  tau(  17) = (   4.5367710   1.4643441  16.2106543  )
        18           O1  tau(  18) = (   2.0349547   1.4576396  16.1973481  )
        19           Ti1 tau(  19) = (   3.2821410   2.9383233  15.7467721  )
        20           Ti1 tau(  20) = (   6.5624771   1.3975196  16.0657228  )
        21           O1  tau(  21) = (   3.2904802   0.0005063   4.7018136  )
        22           O1  tau(  22) = (   0.0049924   5.8117904  17.2112648  )
        23           O1  tau(  23) = (   1.3043587   1.4918075   6.0039043  )
        24           O1  tau(  24) = (   5.2767064   1.4903225   6.0039473  )
        25           Ti1 tau(  25) = (   0.0000382   5.9609847   6.0000000  )
        26           Ti1 tau(  26) = (   3.2902200   4.4714249   6.0002472  )
        27           O1  tau(  27) = (   0.0002396   2.9813036   7.9858123  )
        28           O1  tau(  28) = (   3.2902150   2.9813002   7.3038282  )
        29           O1  tau(  29) = (   4.5938453   4.4726049   9.2879030  )
        30           O1  tau(  30) = (   1.9864658   4.4711199   9.2879459  )
        31           Ti1 tau(  31) = (   3.2891106   5.8743827   9.1763621  )
        32           Ti1 tau(  32) = (   0.0006254   4.4649316   9.2693709  )
        33           O1  tau(  33) = (   3.2878059   2.9597088  11.3652031  )
        34           O1  tau(  34) = (   0.0092240   2.9805883  10.6323155  )
        35           O1  tau(  35) = (   1.2887225   4.4431869  12.6829221  )
        36           O1  tau(  36) = (   5.2901277   4.4428847  12.6690855  )
        37           Ti1 tau(  37) = (   0.0035388   5.9380168  12.5099366  )
        38           Ti1 tau(  38) = (   3.2962120   4.4389810  12.5267566  )
        39           O1  tau(  39) = (   6.5655450   2.9014274  14.9049457  )
        40           O1  tau(  40) = (   3.2937888   2.9365130  13.9572806  )
        41           O1  tau(  41) = (   4.5374039   4.4072578  16.1608974  )
        42           O1  tau(  42) = (   2.0345115   4.4188705  16.1151926  )
        43           Ti1 tau(  43) = (   3.2925710   5.9161036  15.7896908  )
        44           Ti1 tau(  44) = (   0.0121651   4.6006060  15.8502786  )
        45           O1  tau(  45) = (   3.2900926   2.9813045   4.7018136  )
        46           O1  tau(  46) = (   1.3039711   4.4726057   6.0039043  )
        47           O1  tau(  47) = (   5.2763189   4.4711207   6.0039473  )
        48           N1  tau(  48) = (   6.5581919   2.6818180  17.9622317  )
        49           C1  tau(  49) = (   0.8403426   2.5546117  18.8965076  )
        50           H1  tau(  50) = (   0.6793733   2.9585088  19.8916666  )
        51           H1  tau(  51) = (   1.7584391   2.0155774  18.6961775  )
        52           H1  tau(  52) = (   5.7198555   3.1867788  18.2393814  )

     number of k points=    10  Fermi-Dirac smearing, width (Ry)=  0.0073
                       cart. coord. in units 2pi/alat
        k(    1) = (   0.0000000   0.0000000   0.0000000), wk =   0.1250000
        k(    2) = (   0.0000000   0.0419351   0.0000000), wk =   0.2500000
        k(    3) = (   0.0000000  -0.0838702   0.0000000), wk =   0.1250000
        k(    4) = (   0.0379955   0.0000049   0.0000000), wk =   0.2500000
        k(    5) = (   0.0379955   0.0419400   0.0000000), wk =   0.2500000
        k(    6) = (   0.0379955  -0.0838652   0.0000000), wk =   0.2500000
        k(    7) = (   0.0379955  -0.0419301   0.0000000), wk =   0.2500000
        k(    8) = (  -0.0759910  -0.0000099   0.0000000), wk =   0.1250000
        k(    9) = (  -0.0759910   0.0419252   0.0000000), wk =   0.2500000
        k(   10) = (  -0.0759910  -0.0838800   0.0000000), wk =   0.1250000

     Initial potential from superposition of free atoms

     starting charge  373.99917, renormalised to  390.00000

     negative rho (up, down):  1.700E-02 0.000E+00

     %%%%%%%%%%%%%%%%%%%%%%%%%%%%%%%%%%%%%%%%%%%%%%%%%%%%%%%%%%%%%%%%%%%%%%%%
     %                                                                      %
     % You are using vdW-DF, which was implemented by the Thonhauser group. %
     % Please cite the following two papers that made this development      %
     % possible and the two reviews that describe the various versions:     %
     %                                                                      %
     %   T. Thonhauser et al., PRL 115, 136402 (2015).                      %
     %   T. Thonhauser et al., PRB 76, 125112 (2007).                       %
     %   K. Berland et al., Rep. Prog. Phys. 78, 066501 (2015).             %
     %   D.C. Langreth et al., J. Phys.: Condens. Matter 21, 084203 (2009). %
     %                                                                      %
     %                                                                      %
     % If you are calculating the stress with vdW-DF, please also cite:     %
     %                                                                      %
     %   R. Sabatini et al., J. Phys.: Condens. Matter 24, 424209 (2012).   %
     %                                                                      %
     %%%%%%%%%%%%%%%%%%%%%%%%%%%%%%%%%%%%%%%%%%%%%%%%%%%%%%%%%%%%%%%%%%%%%%%%

     Adding external electric field

     Computed dipole along edir(3) :
        Dipole               -6.0520 Ry au,        -15.3828 Debye
        Dipole field         -0.0114 Ry au,

        Potential amp.        1.0587 Ry
        Total length         46.3494 bohr

     Starting wfcs are  295 atomic wfcs
  @ DRIVER MODE: Message from server: STATUS
  @ DRIVER MODE: Message from server: POSDATA
  @ DRIVER MODE: Reading and sharing cell
  @ DRIVER MODE: Reading and sharing positions
  @ DRIVER MODE: Received positions

     Self-consistent Calculation

     iteration #  1     ecut=    29.40 Ry     beta= 0.05
     Davidson diagonalization with overlap
     c_bands:  1 eigenvalues not converged
     c_bands:  1 eigenvalues not converged
     ethr =  1.00E-05,  avg # of iterations = 16.8

[...]

     total energy              =   -2758.70442566 Ry
     estimated scf accuracy    <    1761.09155873 Ry

     iteration #  2     ecut=    29.40 Ry     beta= 0.05
     Davidson diagonalization with overlap
     ethr =  1.00E-02,  avg # of iterations = 18.7

[...]

     iteration # 64     ecut=    29.40 Ry     beta= 0.05
     Davidson diagonalization with overlap
     c_bands:  2 eigenvalues not converged
     ethr =  3.16E-10,  avg # of iterations = 12.4

[...]

     total energy              =   -2919.11571584 Ry
     estimated scf accuracy    <       0.00000009 Ry

     iteration # 73     ecut=    29.40 Ry     beta= 0.05
     Davidson diagonalization with overlap
     ethr =  2.21E-11,  avg # of iterations = 10.1

     negative rho (up, down):  1.721E-02 0.000E+00

     Adding external electric field

     Computed dipole along edir(3) :
        Dipole                1.2714 Ry au,          3.2316 Debye
        Dipole field          0.0024 Ry au,

        Potential amp.       -0.2224 Ry
        Total length         46.3494 bohr

     End of self-consistent calculation

          k = 0.0000 0.0000 0.0000 ( 18029 PWs)   bands (ev):

   -55.5362 -55.4995 -55.4980 -55.4639 -55.4292 -55.4121 -55.3744 -55.3516
   -55.3514 -55.3263 -55.3169 -55.3121 -55.2929 -55.1291 -54.5188 -54.4848
   -32.1030 -31.9889 -31.8996 -31.8582 -31.8518 -31.8407 -31.8376 -31.8288
   -31.7877 -31.7769 -31.7446 -31.7433 -31.7428 -31.7071 -31.6896 -31.6716
   -31.6680 -31.6591 -31.6524 -31.6484 -31.6104 -31.6077 -31.5920 -31.5816
   -31.5579 -31.5551 -31.5534 -31.5434 -31.5385 -31.5357 -31.5232 -31.5149
   -31.5103 -31.5046 -31.5003 -31.4741 -31.4672 -31.4657 -31.4548 -31.4360
   -31.3517 -31.2711 -30.9278 -30.8346 -30.8125 -30.7443 -30.6576 -30.5466
   -16.6281 -16.3359 -16.0682 -15.8965 -15.7883 -15.7258 -15.5900 -15.5175
   -15.4366 -15.3333 -15.2431 -15.1766 -15.1635 -15.1449 -15.1376 -15.0735
   -15.0697 -15.0534 -15.0287 -15.0271 -14.9737 -14.9649 -14.9332 -14.9213
   -14.9101 -14.8434 -14.7547 -14.6849 -14.6245 -14.2089 -13.0215 -12.9043
    -9.3374  -6.3204  -4.7462  -3.6917  -3.5381  -3.4451  -3.4322  -3.4168
    -3.2626  -3.1258  -2.9211  -2.8427  -2.7933  -2.7441  -2.7151  -2.6981
    -2.6308  -2.5117  -2.4414  -2.3952  -2.3726  -2.3597  -2.3430  -2.3155
    -2.3072  -2.2704  -2.2362  -2.2020  -2.0870  -1.9978  -1.9605  -1.9217
    -1.8657  -1.8568  -1.8277  -1.8203  -1.8136  -1.7954  -1.7556  -1.7486
    -1.6975  -1.5626  -1.5445  -1.4280  -1.3892  -1.2761  -1.1740  -1.1706
    -1.0848  -1.0817  -1.0123  -0.9637  -0.9323  -0.9194  -0.8690  -0.8270
    -0.7319  -0.6409  -0.5798  -0.5377  -0.5022  -0.4740  -0.4092  -0.3127
    -0.3086  -0.2970  -0.2011  -0.1182  -0.0938  -0.0443  -0.0091   0.0346
     0.0511   0.1599   0.2014   0.2458   0.2611   0.3397   0.3641   0.4201
     0.4248   0.4604   0.4677   0.5301   0.5826   0.6024   0.6449   0.6706
     0.8277   1.0825   1.0865   1.1287   1.4127   1.4422   1.5036   1.6886
     2.0791   2.1269   3.5631   3.6354   3.7007   3.7136   3.7529   3.8000
     3.9714   4.0478   4.0643   4.0687   4.0996

[...]

          k = 0.0380-0.0419 0.0000 ( 17876 PWs)   bands (ev):

[...]

          k =-0.0760-0.0000 0.0000 ( 17886 PWs)   bands (ev):

[...]

          k =-0.0760-0.0839 0.0000 ( 17948 PWs)   bands (ev):

   -55.5216 -55.5139 -55.4809 -55.4809 -55.4251 -55.4011 -55.3854 -55.3554
   -55.3353 -55.3325 -55.3104 -55.3099 -55.3095 -55.1307 -54.5018 -54.5017
   -31.9094 -31.9042 -31.8212 -31.8040 -31.8040 -31.7960 -31.7731 -31.7730
   -31.7581 -31.7435 -31.7359 -31.7341 -31.7291 -31.6913 -31.6689 -31.6655
   -31.6615 -31.6571 -31.6536 -31.6487 -31.6445 -31.6254 -31.6108 -31.6101
   -31.6004 -31.6004 -31.5981 -31.5805 -31.5681 -31.5650 -31.5572 -31.5495
   -31.5485 -31.5458 -31.5350 -31.5344 -31.5101 -31.4897 -31.4893 -31.4859
   -31.3571 -31.3519 -30.8252 -30.8251 -30.7404 -30.7403 -30.7010 -30.7009
   -16.6100 -15.7720 -15.7434 -15.7224 -15.5177 -15.5101 -15.5025 -15.4849
   -15.3253 -15.3139 -15.2868 -15.2682 -15.2354 -15.2327 -15.2068 -15.1743
   -15.1161 -15.1120 -15.1036 -15.1014 -15.0406 -15.0363 -15.0162 -14.9875
   -14.9854 -14.9794 -14.8845 -14.8826 -14.7189 -14.5297 -13.0058 -13.0058
    -9.3418  -6.3159  -4.7298  -3.0467  -2.9854  -2.9270  -2.7277  -2.7246
    -2.6932  -2.6136  -2.5539  -2.5419  -2.5037  -2.4856  -2.4771  -2.4247
    -2.3815  -2.3725  -2.3599  -2.3559  -2.3360  -2.3215  -2.2918  -2.2531
    -2.2442  -2.2175  -2.2051  -2.1765  -2.1736  -2.1384  -2.1133  -2.1011
    -2.0879  -2.0363  -1.9269  -1.8724  -1.7897  -1.7676  -1.7301  -1.7241
    -1.6391  -1.6161  -1.5886  -1.5490  -1.5363  -1.5062  -1.3010  -1.2682
    -1.2604  -1.2474  -1.2250  -1.0722  -1.0653  -1.0135  -0.9818  -0.9411
    -0.8791  -0.8411  -0.8279  -0.7462  -0.7137  -0.6709  -0.6304  -0.5077
    -0.5038  -0.4959  -0.4931  -0.4793  -0.3893  -0.3779  -0.3344  -0.3004
    -0.2593  -0.2451  -0.1820   0.0011   0.0155   0.0813   0.1904   0.2791
     0.3758   0.4569   0.4745   0.5272   0.5691   0.5932   0.6705   0.7660
     0.7779   0.8392   0.8898   0.9335   0.9377   0.9416   1.8615   1.8621
     1.9468   1.9470   3.6877   3.8095   3.8306   3.8704   3.8877   4.0345
     4.0828   4.1186   4.1426   4.1449   4.2226

     the Fermi energy is     3.6186 ev

!    total energy              =   -2919.11573011 Ry
     estimated scf accuracy    <       0.00000003 Ry
     smearing contrib. (-TS)   =      -0.03735511 Ry
     internal energy E=F+TS    =   -2919.07837500 Ry

     The total energy is F=E-TS. E is the sum of the following terms:
     one-electron contribution =  -24304.94781981 Ry
     hartree contribution      =   12239.94902469 Ry
     xc contribution           =    -480.02691060 Ry
     ewald contribution        =    9625.94428028 Ry
     electric field correction =       0.00305044 Ry

     convergence has been achieved in  73 iterations

     Forces acting on atoms (cartesian axes, Ry/au):

     atom    1 type  1   force =     0.00005218   -0.00015846    0.09378718
     atom    2 type  1   force =    -0.00018385   -0.00018371   -0.17778712
     atom    3 type  2   force =     0.00002518   -0.00021594   -0.02115414
     atom    4 type  2   force =    -0.00001622   -0.00198865    0.05776145
     atom    5 type  2   force =    -0.01108636   -0.00164749    0.00749581
     atom    6 type  2   force =     0.01244849   -0.00098218    0.00637762
     atom    7 type  1   force =    -0.00048157    0.00245400   -0.01335249
     atom    8 type  1   force =     0.00029757    0.00291323    0.00273413
     atom    9 type  2   force =     0.00007648   -0.00007556    0.00014240
     atom   10 type  2   force =    -0.00176386   -0.00226934   -0.00361501
     atom   11 type  2   force =     0.00015411    0.00059426   -0.00022426
     atom   12 type  2   force =     0.00045666    0.00053444   -0.00004366
     atom   13 type  1   force =    -0.00072658   -0.00094450   -0.00060525
     atom   14 type  1   force =     0.00082001    0.00026321   -0.00061053
     atom   15 type  2   force =     0.00026664    0.00036728    0.00039421
     atom   16 type  2   force =    -0.00007970    0.00034184   -0.00049604
     atom   17 type  2   force =     0.00045085    0.00024846    0.00064814
     atom   18 type  2   force =     0.00017335    0.00013385    0.00049236
     atom   19 type  1   force =     0.00023593   -0.00102567   -0.00006803
     atom   20 type  1   force =    -0.00011711    0.00026035    0.00015431
     atom   21 type  2   force =     0.00004502   -0.00002296    0.10381863
     atom   22 type  2   force =     0.00000747   -0.00061091    0.00044621
     atom   23 type  2   force =    -0.07060263   -0.00014407   -0.02706306
     atom   24 type  2   force =     0.07048299    0.00032196   -0.02710644
     atom   25 type  1   force =     0.00008579   -0.00018790    0.09359588
     atom   26 type  1   force =    -0.00009838   -0.00026234   -0.17782986
     atom   27 type  2   force =     0.00008301   -0.00045507   -0.02018046
     atom   28 type  2   force =     0.00002556   -0.00169252    0.05724854
     atom   29 type  2   force =    -0.01117900   -0.00114413    0.00695587
     atom   30 type  2   force =     0.01243055   -0.00080188    0.00581871
     atom   31 type  1   force =    -0.00038755    0.00467484   -0.01444347
     atom   32 type  1   force =     0.00037344   -0.00360495    0.00244913
     atom   33 type  2   force =    -0.00000405    0.00057152    0.00040467
     atom   34 type  2   force =    -0.00117683   -0.00059193   -0.00098281
     atom   35 type  2   force =     0.00038371    0.00025551    0.00026976
     atom   36 type  2   force =     0.00015600    0.00032977    0.00024229
     atom   37 type  1   force =    -0.00052955    0.00132184   -0.00019165
     atom   38 type  1   force =     0.00086625    0.00006708   -0.00094418
     atom   39 type  2   force =     0.00015617    0.00041680    0.00098954
     atom   40 type  2   force =     0.00017921    0.00020411   -0.00040640
     atom   41 type  2   force =     0.00064024   -0.00004757   -0.00039920
     atom   42 type  2   force =    -0.00047839   -0.00005934   -0.00046543
     atom   43 type  1   force =     0.00000026    0.00111723   -0.00016847
     atom   44 type  1   force =    -0.00012802    0.00068366   -0.00140217
     atom   45 type  2   force =     0.00004502   -0.00004059    0.10378828
     atom   46 type  2   force =    -0.07062107   -0.00007063   -0.02705738
     atom   47 type  2   force =     0.07049655    0.00034827   -0.02708800
     atom   48 type  3   force =    -0.00614044   -0.00262226   -0.01763261
     atom   49 type  4   force =     0.00550651    0.00023057    0.01187199
     atom   50 type  5   force =     0.00093562    0.00125349    0.00135660
     atom   51 type  5   force =     0.00000561   -0.00009520   -0.00001277
     atom   52 type  5   force =    -0.00256124    0.00203815    0.00208718

     Total force =     0.366658     Total SCF correction =     0.000419
  @ DRIVER MODE: Message from server: STATUS
  @ DRIVER MODE: Message from server: GETFORCE
  @ DRIVER MODE: Returning v,forces,stress,ensemble

     Writing output data file ./calc.save/
  @ DRIVER MODE: Message from server: EXIT
  @ DRIVE MODE: Exiting

     General routines

     Parallel routines

   This run was terminated on:  23:52:18   8Sep2021

   JOB DONE.