     Program PWSCF v.6.7GPU starts on 19Oct2021 at  5: 3:43

     R & G space division:  proc/nbgrp/npool/nimage =       8
     Reading input from /storage/home/hcoda1/3/ntian30/research/carbon/CxH_vib/Thiel_calc/ads_slab/NH3NH3_perslab/out_0037/pw.inp
Warning: card &CELL ignored
Warning: card   CELL_DYNAMICS='IPI', ignored
Warning: card / ignored

     Current dimensions of program PWSCF are:
     Max number of different atomic species (ntypx) = 10
     Max number of k-points (npk) =  40000
     Max angular momentum in pseudopotentials (lmaxx) =  3
     Presently no symmetry can be used with electric field

     Message from routine cell_base_init:
     DEPRECATED: use true lattice parameter, not A to a.u. conversion factor

     IMPORTANT: XC functional enforced from input :
     Exchange-correlation= BEEF-VDW
                           (   1   4  43  14   2   0   0)
     Any further DFT definition will be discarded
     Please, verify this is what you really want

  @ DRIVER MODE: Connecting to
 qe_1139763_3255140.sched-torque.pace.gatech.edujv4m45hk_scratch
  using UNIX socket
  @ DRIVER MODE: Message from server: STATUS
  @ DRIVER MODE: Message from server: INIT
  @ DRIVER MODE: Receiving replica           0          -1
  @ DRIVER MODE: Receiving encoded integer          25
  @ DRIVER MODE:  SCF:  T  FORCE:  T  STRESS:  F  VC:  F  ENSEMBLE:  F
  @ DRIVER MODE:  SCF:  T  FORCE:  T  STRESS:  F  VC:  F  ENSEMBLE:  F

     Using Slab Decomposition

     bravais-lattice index     =            0
     lattice parameter (alat)  =       1.8897  a.u.
     unit-cell volume          =    9988.4706 (a.u.)^3
     number of atoms/cell      =           61
     number of atomic types    =            4
     number of electrons       =       442.00
     number of Kohn-Sham states=          231
     kinetic-energy cutoff     =      29.3995  Ry
     charge density cutoff     =     293.9946  Ry
     scf convergence threshold =      7.3E-08
     mixing beta               =       0.0500
     number of iterations used =            8  plain     mixing
     Exchange-correlation= BEEF-VDW
                           (   1   4  43  14   2   0   0)

     celldm(1)=   1.889726  celldm(2)=   0.000000  celldm(3)=   0.000000
     celldm(4)=   0.000000  celldm(5)=   0.000000  celldm(6)=   0.000000

     crystal axes: (cart. coord. in units of alat)
               a(1) = (   6.579727   0.000000   0.000000 )
               a(2) = (  -0.001163   8.942395   0.000000 )
               a(3) = (   0.000000   0.000000  25.155947 )

     reciprocal axes: (cart. coord. in units 2 pi/alat)
               b(1) = (  0.151982  0.000020  0.000000 )
               b(2) = (  0.000000  0.111827  0.000000 )
               b(3) = (  0.000000  0.000000  0.039752 )

     PseudoPot. # 1 for O  read from file:
     /storage/coda1/p-amedford6/0/shared/rich_project_chbe-medford/medford-share/data/pseudos_module/espresso/nninc/pbe/van/O.UPF
     MD5 check sum: 78c19812648e8988a0fe644b0f25305e
     Pseudo is Ultrasoft, Zval =  6.0
     Generated by new atomic code, or converted to UPF format
     Using radial grid of  737 points,  4 beta functions with:
                l(1) =   0
                l(2) =   0
                l(3) =   1
                l(4) =   1
     Q(r) pseudized with  8 coefficients,  rinner =    0.800   0.800   0.800

     PseudoPot. # 2 for Ti read from file:
     /storage/coda1/p-amedford6/0/shared/rich_project_chbe-medford/medford-share/data/pseudos_module/espresso/nninc/pbe/van/Ti.UPF
     MD5 check sum: 8e4df49b7f0d34bbd5052bf3f5ea0213
     Pseudo is Ultrasoft, Zval = 12.0
     Generated by new atomic code, or converted to UPF format
     Using radial grid of  851 points,  6 beta functions with:
                l(1) =   0
                l(2) =   0
                l(3) =   1
                l(4) =   1
                l(5) =   2
                l(6) =   2
     Q(r) pseudized with  8 coefficients,  rinner =    1.000   1.000   1.000
                                                       1.000   1.000

     PseudoPot. # 3 for N  read from file:
     /storage/coda1/p-amedford6/0/shared/rich_project_chbe-medford/medford-share/data/pseudos_module/espresso/nninc/pbe/van/N.UPF
     MD5 check sum: 90d10febe142ad51ac9d5be1deb811c4
     Pseudo is Ultrasoft, Zval =  5.0
     Generated by new atomic code, or converted to UPF format
     Using radial grid of  729 points,  4 beta functions with:
                l(1) =   0
                l(2) =   0
                l(3) =   1
                l(4) =   1
     Q(r) pseudized with  8 coefficients,  rinner =    0.800   0.800   0.800

     PseudoPot. # 4 for H  read from file:
     /storage/coda1/p-amedford6/0/shared/rich_project_chbe-medford/medford-share/data/pseudos_module/espresso/nninc/pbe/van/H.UPF
     MD5 check sum: b5ee9d7bfd3a09ee7748110bda690ff7
     Pseudo is Ultrasoft, Zval =  1.0
     Generated by new atomic code, or converted to UPF format
     Using radial grid of  615 points,  1 beta functions with:
                l(1) =   0
     Q(r) pseudized with  8 coefficients,  rinner =    0.800

     atomic species   valence    mass     pseudopotential
        O1             6.00    15.99900     O ( 1.00)
        Ti1           12.00    47.86700     Ti( 1.00)
        N1             5.00    14.00700     N ( 1.00)
        H1             1.00     1.00800     H ( 1.00)

     No symmetry found

   Cartesian axes

     site n.     atom                  positions (alat units)
         1           O1  tau(   1) = (   0.0007354   0.0005023  10.5931620  )
         2           O1  tau(   2) = (   3.2905679   0.0262843  13.8966672  )
         3           O1  tau(   3) = (   0.0007290   0.0579300  17.2579193  )
         4           O1  tau(   4) = (   0.0006271   0.0005054   7.9858123  )
         5           O1  tau(   5) = (   3.2893100   8.9214726  11.1892856  )
         6           O1  tau(   6) = (   0.0005199   0.0455907  14.6396817  )
         7           O1  tau(   7) = (   1.9868534   1.4903216   9.2879459  )
         8           O1  tau(   8) = (   5.2380180   1.6024468  12.5713634  )
         9           O1  tau(   9) = (   2.0277759   1.4975965  16.1012153  )
        10           Ti1 tau(  10) = (   0.0007404   1.4906270   9.2895810  )
        11           Ti1 tau(  11) = (   3.2903786   1.3551844  12.4711573  )
        12           Ti1 tau(  12) = (   0.0003174   1.4440192  15.7330511  )
        13           O1  tau(  13) = (   4.5942328   1.4918067   9.2879030  )
        14           O1  tau(  14) = (   1.3426987   1.6023923  12.5713351  )
        15           O1  tau(  15) = (   4.5529958   1.4977110  16.1013444  )
        16           Ti1 tau(  16) = (   3.2902859   2.9801868   9.2893338  )
        17           Ti1 tau(  17) = (   0.0005333   2.8255407  12.4640987  )
        18           Ti1 tau(  18) = (   3.2895849   3.0341113  15.6952405  )
        19           O1  tau(  19) = (   0.0003479   2.9813005  10.5931620  )
        20           O1  tau(  20) = (   3.2900438   2.9627632  13.8881152  )
        21           O1  tau(  21) = (   0.0002396   2.9813036   7.9858123  )
        22           O1  tau(  22) = (   3.2902621   2.9759438  11.1922459  )
        23           O1  tau(  23) = (   0.0002943   2.9805036  14.7119039  )
        24           O1  tau(  24) = (   1.9864658   4.4711199   9.2879459  )
        25           O1  tau(  25) = (   5.2407125   4.5787950  12.5855407  )
        26           O1  tau(  26) = (   1.9842138   4.3634165  16.0604883  )
        27           Ti1 tau(  27) = (   0.0003529   4.4714252   9.2895810  )
        28           Ti1 tau(  28) = (   3.2904166   4.3402611  12.5252975  )
        29           Ti1 tau(  29) = (  -0.0003584   4.7219071  15.7914592  )
        30           O1  tau(  30) = (   4.5938453   4.4726049   9.2879030  )
        31           O1  tau(  31) = (   1.3394863   4.5787101  12.5854501  )
        32           O1  tau(  32) = (   4.5953883   4.3633133  16.0606172  )
        33           Ti1 tau(  33) = (   3.2898983   5.9609850   9.2893338  )
        34           Ti1 tau(  34) = (   0.0004309   5.8055675  12.4642027  )
        35           Ti1 tau(  35) = (   3.2895961   6.0676247  15.8182862  )
        36           O1  tau(  36) = (  -0.0000397   5.9620987  10.5931620  )
        37           O1  tau(  37) = (   3.2897974   5.9491097  13.9522666  )
        38           O1  tau(  38) = (  -0.0001005   5.9419674  17.2168411  )
        39           O1  tau(  39) = (  -0.0001480   5.9621018   7.9858123  )
        40           O1  tau(  40) = (   3.2898294   5.9516608  11.2068290  )
        41           O1  tau(  41) = (  -0.0002620   6.0093330  14.6024556  )
        42           O1  tau(  42) = (   1.9860782   7.4519181   9.2879459  )
        43           O1  tau(  43) = (   5.2335766   7.5615516  12.5803788  )
        44           O1  tau(  44) = (   2.0229086   7.4656171  16.0362607  )
        45           Ti1 tau(  45) = (  -0.0000347   7.4522234   9.2895810  )
        46           Ti1 tau(  46) = (   3.2895523   7.2794780  12.5477951  )
        47           Ti1 tau(  47) = (  -0.0001499   7.5569733  16.2601047  )
        48           O1  tau(  48) = (   4.5934577   7.4534031   9.2879030  )
        49           O1  tau(  49) = (   1.3453152   7.5613653  12.5804751  )
        50           O1  tau(  50) = (   4.5562564   7.4656138  16.0364310  )
        51           Ti1 tau(  51) = (   3.2895107   8.9417832   9.2893338  )
        52           Ti1 tau(  52) = (  -0.0004710   8.7769229  12.4586551  )
        53           Ti1 tau(  53) = (   3.2909234   0.0582169  15.6986445  )
        54           N1  tau(  54) = (   3.2892347   5.9685454  18.1810142  )
        55           H1  tau(  55) = (   3.2893406   5.0219839  18.5418895  )
        56           H1  tau(  56) = (   2.4590131   6.4368771  18.5304692  )
        57           H1  tau(  57) = (   4.1190552   6.4372901  18.5310312  )
        58           N1  tau(  58) = (  -0.0003436   2.9015831  17.9177722  )
        59           H1  tau(  59) = (   6.5794260   1.9611702  18.3102355  )
        60           H1  tau(  60) = (   5.7493157   3.3919262  18.2600543  )
        61           H1  tau(  61) = (   0.8192290   3.3923488  18.2608005  )

     number of k points=    10  Fermi-Dirac smearing, width (Ry)=  0.0073
                       cart. coord. in units 2pi/alat
        k(    1) = (   0.0000000   0.0000000   0.0000000), wk =   0.1250000
        k(    2) = (   0.0000000   0.0279567   0.0000000), wk =   0.2500000
        k(    3) = (   0.0000000  -0.0559134   0.0000000), wk =   0.1250000
        k(    4) = (   0.0379955   0.0000049   0.0000000), wk =   0.2500000
        k(    5) = (   0.0379955   0.0279617   0.0000000), wk =   0.2500000
        k(    6) = (   0.0379955  -0.0559085   0.0000000), wk =   0.2500000
        k(    7) = (   0.0379955  -0.0279518   0.0000000), wk =   0.2500000
        k(    8) = (  -0.0759910  -0.0000099   0.0000000), wk =   0.1250000
        k(    9) = (  -0.0759910   0.0279468   0.0000000), wk =   0.2500000
        k(   10) = (  -0.0759910  -0.0559233   0.0000000), wk =   0.1250000

     Initial potential from superposition of free atoms

     starting charge  423.99908, renormalised to  442.00000

     negative rho (up, down):  3.646E-02 0.000E+00

     %%%%%%%%%%%%%%%%%%%%%%%%%%%%%%%%%%%%%%%%%%%%%%%%%%%%%%%%%%%%%%%%%%%%%%%%
     %                                                                      %
     % You are using vdW-DF, which was implemented by the Thonhauser group. %
     % Please cite the following two papers that made this development      %
     % possible and the two reviews that describe the various versions:     %
     %                                                                      %
     %   T. Thonhauser et al., PRL 115, 136402 (2015).                      %
     %   T. Thonhauser et al., PRB 76, 125112 (2007).                       %
     %   K. Berland et al., Rep. Prog. Phys. 78, 066501 (2015).             %
     %   D.C. Langreth et al., J. Phys.: Condens. Matter 21, 084203 (2009). %
     %                                                                      %
     %                                                                      %
     % If you are calculating the stress with vdW-DF, please also cite:     %
     %                                                                      %
     %   R. Sabatini et al., J. Phys.: Condens. Matter 24, 424209 (2012).   %
     %                                                                      %
     %%%%%%%%%%%%%%%%%%%%%%%%%%%%%%%%%%%%%%%%%%%%%%%%%%%%%%%%%%%%%%%%%%%%%%%%

     Adding external electric field

     Computed dipole along edir(3) :
        Dipole               -6.4271 Ry au,        -16.3360 Debye
        Dipole field         -0.0081 Ry au,

        Potential amp.        0.7495 Ry
        Total length         46.3494 bohr

     Starting wfcs are  334 atomic wfcs
  @ DRIVER MODE: Message from server: STATUS
  @ DRIVER MODE: Message from server: POSDATA
  @ DRIVER MODE: Reading and sharing cell
  @ DRIVER MODE: Reading and sharing positions
  @ DRIVER MODE: Received positions

     Self-consistent Calculation

     iteration #  1     ecut=    29.40 Ry     beta= 0.05
     Davidson diagonalization with overlap
     c_bands:  1 eigenvalues not converged
     c_bands:  2 eigenvalues not converged
     c_bands:  2 eigenvalues not converged
     c_bands:  1 eigenvalues not converged
     c_bands:  3 eigenvalues not converged
     c_bands:  5 eigenvalues not converged
     c_bands:  3 eigenvalues not converged
     c_bands:  2 eigenvalues not converged
     c_bands:  3 eigenvalues not converged
     ethr =  1.00E-05,  avg # of iterations = 19.8

[...]

     total energy              =   -3273.09682240 Ry
     estimated scf accuracy    <     292.52654074 Ry

[...]

     iteration #  3     ecut=    29.40 Ry     beta= 0.05
     Davidson diagonalization with overlap
     ethr =  1.00E-02,  avg # of iterations = 12.6

[...]

     iteration # 25     ecut=    29.40 Ry     beta= 0.05
     Davidson diagonalization with overlap
     c_bands:  1 eigenvalues not converged
     ethr =  1.01E-06,  avg # of iterations = 16.1

[...]

     total energy              =   -3295.91272670 Ry
     estimated scf accuracy    <       0.00000019 Ry

     iteration # 64     ecut=    29.40 Ry     beta= 0.05
     Davidson diagonalization with overlap
     ethr =  2.51E-11,  avg # of iterations =  9.0

     negative rho (up, down):  3.469E-02 0.000E+00

     Adding external electric field

     Computed dipole along edir(3) :
        Dipole                1.8675 Ry au,          4.7466 Debye
        Dipole field          0.0023 Ry au,

        Potential amp.       -0.2178 Ry
        Total length         46.3494 bohr

     End of self-consistent calculation

          k = 0.0000 0.0000 0.0000 ( 26871 PWs)   bands (ev):

   -57.5947 -57.5546 -57.5310 -57.5250 -57.4947 -57.3954 -57.3879 -57.3670
   -57.3523 -57.3273 -57.3010 -57.2819 -57.2181 -57.1589 -57.0618 -56.5665
   -56.5414 -56.5403 -33.9755 -33.9361 -33.9317 -33.9054 -33.8874 -33.8688
   -33.8667 -33.8572 -33.8306 -33.8202 -33.8094 -33.7941 -33.7776 -33.7597
   -33.7496 -33.7358 -33.7216 -33.6888 -33.6810 -33.6772 -33.6678 -33.6531
   -33.6479 -33.6451 -33.6387 -33.6076 -33.5891 -33.5856 -33.5754 -33.5612
   -33.5580 -33.5523 -33.5381 -33.5368 -33.5335 -33.5194 -33.5152 -33.5015
   -33.4996 -33.4710 -33.4122 -33.3669 -33.3387 -33.3329 -33.2391 -32.8818
   -32.8795 -32.8780 -32.8652 -32.8641 -32.7923 -32.7283 -32.7273 -32.5921
   -18.3900 -18.0515 -17.8391 -17.7848 -17.7620 -17.6887 -17.6393 -17.6222
   -17.5548 -17.4846 -17.3631 -17.3275 -17.3219 -17.3085 -17.2878 -17.2362
   -17.2233 -17.2036 -17.1990 -17.1867 -17.1818 -17.1383 -17.0670 -17.0574
   -17.0165 -17.0025 -16.9819 -16.9792 -16.9313 -16.8791 -16.8685 -16.6746
   -16.6347 -16.4810 -15.0333 -14.9761 -14.9738  -7.7454  -7.7260  -7.4992
    -7.4314  -5.7138  -5.5312  -5.4662  -5.3718  -4.9995  -4.9419  -4.9275
    -4.9014  -4.8597  -4.8186  -4.8033  -4.7785  -4.7774  -4.7336  -4.6901
    -4.6647  -4.6453  -4.5456  -4.5085  -4.4703  -4.4402  -4.4339  -4.3824
    -4.3666  -4.3271  -4.3266  -4.2782  -4.2377  -4.2272  -4.2063  -4.1391
    -4.1198  -4.0162  -3.9282  -3.8707  -3.8636  -3.8225  -3.8095  -3.7636
    -3.7409  -3.7030  -3.6817  -3.6353  -3.6113  -3.5432  -3.4912  -3.3904
    -3.2948  -3.2680  -3.2417  -3.2196  -3.1744  -3.1213  -3.0018  -2.9612
    -2.9294  -2.9068  -2.8178  -2.8147  -2.7271  -2.7094  -2.6966  -2.6526
    -2.6011  -2.5866  -2.5527  -2.4357  -2.4152  -2.3216  -2.3133  -2.3114
    -2.2818  -2.2202  -2.2085  -2.1845  -2.1624  -2.1351  -2.1207  -2.0818
    -2.0787  -1.9799  -1.9584  -1.9022  -1.8795  -1.8792  -1.7807  -1.7633
    -1.7379  -1.7254  -1.6577  -1.5739  -1.4634  -1.4131  -1.3879  -1.3849
    -1.2855  -1.2572  -1.2141  -1.1335  -0.7979  -0.6014  -0.3143  -0.2701
    -0.2697  -0.0072  -0.0055   0.1231   1.4457   1.6609   1.6823   1.8743
     1.8966   1.9406   2.0269   2.0350   2.0969   2.1966   2.2129

[...]

          k = 0.0380-0.0280 0.0000 ( 26873 PWs)   bands (ev):

[...]

          k =-0.0760-0.0000 0.0000 ( 26902 PWs)   bands (ev):

[...]

          k =-0.0760-0.0559 0.0000 ( 26868 PWs)   bands (ev):

   -57.5945 -57.5484 -57.5430 -57.5192 -57.4949 -57.3930 -57.3878 -57.3718
   -57.3495 -57.3252 -57.3054 -57.2798 -57.2179 -57.1592 -57.0617 -56.5584
   -56.5573 -56.5324 -34.0271 -34.0150 -33.9185 -33.8933 -33.8834 -33.8788
   -33.8772 -33.8556 -33.8270 -33.8138 -33.7789 -33.7446 -33.7392 -33.7360
   -33.7243 -33.6973 -33.6937 -33.6889 -33.6834 -33.6804 -33.6429 -33.6368
   -33.6339 -33.6269 -33.6081 -33.6080 -33.6056 -33.6034 -33.5996 -33.5869
   -33.5796 -33.5715 -33.5700 -33.5607 -33.5401 -33.5280 -33.5237 -33.5159
   -33.4999 -33.4252 -33.4185 -33.3723 -33.3392 -33.3346 -33.2721 -32.9704
   -32.8809 -32.8799 -32.8561 -32.7714 -32.7704 -32.7062 -32.6897 -32.6884
   -18.0798 -18.0165 -17.7607 -17.7063 -17.6898 -17.6531 -17.6388 -17.5615
   -17.5414 -17.5261 -17.5048 -17.4231 -17.3866 -17.3375 -17.3354 -17.3287
   -17.2586 -17.2527 -17.2460 -17.2414 -17.1953 -17.1811 -17.1477 -17.1137
   -17.0373 -16.9677 -16.9551 -16.9479 -16.9090 -16.8942 -16.8429 -16.7084
   -16.6994 -16.4081 -15.0318 -15.0293 -14.9127  -7.7548  -7.7096  -7.5071
    -7.4326  -5.3366  -5.3064  -5.2769  -5.2125  -5.0217  -4.8616  -4.8312
    -4.8246  -4.7870  -4.7374  -4.7104  -4.7036  -4.6948  -4.6775  -4.6627
    -4.6144  -4.6104  -4.5849  -4.5121  -4.4711  -4.4663  -4.4473  -4.4333
    -4.4272  -4.3592  -4.2845  -4.2172  -4.1710  -4.1565  -4.1399  -4.0922
    -4.0556  -4.0258  -3.9826  -3.9725  -3.9039  -3.7937  -3.7124  -3.6725
    -3.6719  -3.6313  -3.5823  -3.5815  -3.4799  -3.4186  -3.3424  -3.2117
    -3.2059  -3.1931  -3.1685  -3.1544  -3.1145  -3.1047  -3.0803  -3.0290
    -3.0190  -2.9974  -2.9366  -2.8705  -2.7851  -2.7570  -2.7234  -2.7177
    -2.6921  -2.6820  -2.6543  -2.6511  -2.6173  -2.6082  -2.5542  -2.5272
    -2.4758  -2.4487  -2.4050  -2.3197  -2.3038  -2.2815  -2.1890  -2.1273
    -2.1103  -2.1058  -2.0766  -2.0285  -1.9324  -1.8383  -1.8029  -1.7587
    -1.6468  -1.6461  -1.6427  -1.6268  -1.5534  -1.5387  -1.3352  -1.3230
    -1.2635  -1.1884  -1.1488  -1.1132  -1.1108  -0.8934  -0.4831  -0.1996
    -0.1865  -0.1629  -0.0102  -0.0051   1.5919   1.6738   1.7087   1.7583
     1.7940   1.7973   1.8034   1.8670   1.9308   1.9406   2.1607

     the Fermi energy is     1.5300 ev

!    total energy              =   -3295.91275301 Ry
     estimated scf accuracy    <       0.00000006 Ry
     smearing contrib. (-TS)   =      -0.03397301 Ry
     internal energy E=F+TS    =   -3295.87878000 Ry

     The total energy is F=E-TS. E is the sum of the following terms:
     one-electron contribution =  -34427.40198673 Ry
     hartree contribution      =   17282.21210502 Ry
     xc contribution           =    -543.75021772 Ry
     ewald contribution        =   14393.05693191 Ry
     electric field correction =       0.00438752 Ry

     convergence has been achieved in  64 iterations

     Forces acting on atoms (cartesian axes, Ry/au):

     atom    1 type  1   force =     0.00001628    0.00450629    0.05615875
     atom    2 type  1   force =     0.00000003   -0.00094571   -0.00072554
     atom    3 type  1   force =    -0.00001515    0.00147936   -0.00023358
     atom    4 type  1   force =     0.00005833    0.00031293    0.10699077
     atom    5 type  1   force =     0.00000228    0.00080806    0.00979629
     atom    6 type  1   force =     0.00000560   -0.00266900    0.00103410
     atom    7 type  1   force =     0.06728814   -0.00023349   -0.02910905
     atom    8 type  1   force =     0.00475144   -0.02827570    0.00257181
     atom    9 type  1   force =     0.00734481   -0.00157464   -0.00301708
     atom   10 type  2   force =    -0.00005179   -0.00148131   -0.18423571
     atom   11 type  2   force =     0.00003888    0.02164631   -0.00779804
     atom   12 type  2   force =     0.00004274   -0.00239471    0.01232867
     atom   13 type  1   force =    -0.06738968   -0.00069559   -0.02907377
     atom   14 type  1   force =    -0.00477716   -0.02827668    0.00257211
     atom   15 type  1   force =    -0.00736427   -0.00157014   -0.00302845
     atom   16 type  2   force =     0.00009533    0.00012809    0.06631210
     atom   17 type  2   force =    -0.00001275    0.03586750    0.00371360
     atom   18 type  2   force =    -0.00000880   -0.01057376   -0.00441220
     atom   19 type  1   force =     0.00001984    0.00443866    0.05987931
     atom   20 type  1   force =    -0.00000115    0.00082821   -0.00593743
     atom   21 type  1   force =     0.00005879    0.00018716    0.10722477
     atom   22 type  1   force =    -0.00000104   -0.00066167    0.00885348
     atom   23 type  1   force =    -0.00000933    0.00498394    0.00313218
     atom   24 type  1   force =     0.06803860    0.00051474   -0.02900654
     atom   25 type  1   force =     0.00341850   -0.02997197    0.00208538
     atom   26 type  1   force =     0.01012081    0.02028281    0.00206640
     atom   27 type  2   force =    -0.00005843    0.00002844   -0.18365402
     atom   28 type  2   force =     0.00003460    0.02158279   -0.00596539
     atom   29 type  2   force =     0.00002541   -0.02175444   -0.00585309
     atom   30 type  1   force =    -0.06813755    0.00006709   -0.02897489
     atom   31 type  1   force =    -0.00345060   -0.02995867    0.00209289
     atom   32 type  1   force =    -0.01016840    0.02029896    0.00206408
     atom   33 type  2   force =     0.00010283   -0.00026534    0.06933226
     atom   34 type  2   force =    -0.00001547    0.03686375    0.00370751
     atom   35 type  2   force =    -0.00000507   -0.02926313    0.01039560
     atom   36 type  1   force =     0.00002616    0.00481983    0.05628670
     atom   37 type  1   force =    -0.00000946    0.00204235   -0.00518501
     atom   38 type  1   force =    -0.00000083    0.00430151   -0.00016479
     atom   39 type  1   force =     0.00005624    0.00002749    0.10682289
     atom   40 type  1   force =    -0.00000499   -0.00060872    0.00811967
     atom   41 type  1   force =     0.00000146    0.00071288    0.00246124
     atom   42 type  1   force =     0.06806224   -0.00121351   -0.02960415
     atom   43 type  1   force =     0.00352795   -0.02805138    0.00204809
     atom   44 type  1   force =     0.01055208    0.01132875    0.00282715
     atom   45 type  2   force =    -0.00005896   -0.00196892   -0.18353149
     atom   46 type  2   force =     0.00003398    0.01959129   -0.00655365
     atom   47 type  2   force =    -0.00000753   -0.01031674   -0.01265563
     atom   48 type  1   force =    -0.06815627   -0.00165335   -0.02956815
     atom   49 type  1   force =    -0.00354256   -0.02805271    0.00204579
     atom   50 type  1   force =    -0.01057061    0.01133256    0.00281556
     atom   51 type  2   force =     0.00009719   -0.00307825    0.06760829
     atom   52 type  2   force =    -0.00002097    0.03494771    0.00627028
     atom   53 type  2   force =     0.00000075    0.00510235    0.00130771
     atom   54 type  3   force =     0.00008532    0.00065242   -0.00248526
     atom   55 type  4   force =    -0.00002613   -0.00141557   -0.00037576
     atom   56 type  4   force =    -0.00130237    0.00056497    0.00023021
     atom   57 type  4   force =     0.00120306    0.00053214    0.00019394
     atom   58 type  3   force =    -0.01049493    0.00304613    0.00446771
     atom   59 type  4   force =     0.00005162   -0.00016884    0.00022097
     atom   60 type  4   force =     0.01216162   -0.00643358   -0.00461892
     atom   61 type  4   force =    -0.00166065   -0.00029996   -0.00027072

     Total force =     0.455160     Total SCF correction =     0.000693
  @ DRIVER MODE: Message from server: STATUS
  @ DRIVER MODE: Message from server: GETFORCE
  @ DRIVER MODE: Returning v,forces,stress,ensemble

     Writing output data file ./calc.save/
  @ DRIVER MODE: Message from server: EXIT
  @ DRIVE MODE: Exiting

     General routines

     Parallel routines

   This run was terminated on:   5:35:57  19Oct2021

   JOB DONE.