     Program PWSCF v.6.7GPU starts on 24Aug2021 at  9:51: 6

     R & G space division:  proc/nbgrp/npool/nimage =      72
     Reading input from /storage/home/hcoda1/3/ntian30/research/carbon/CH2_vib/ads_slab/CH2NHH_a/out_0000/pw.inp
Warning: card &CELL ignored
Warning: card   CELL_DYNAMICS='IPI', ignored
Warning: card / ignored

     Current dimensions of program PWSCF are:
     Max number of different atomic species (ntypx) = 10
     Max number of k-points (npk) =  40000
     Max angular momentum in pseudopotentials (lmaxx) =  3
     Presently no symmetry can be used with electric field

     Message from routine cell_base_init:
     DEPRECATED: use true lattice parameter, not A to a.u. conversion factor

     IMPORTANT: XC functional enforced from input :
     Exchange-correlation= BEEF-VDW
                           (   1   4  43  14   2   0   0)
     Any further DFT definition will be discarded
     Please, verify this is what you really want

  @ DRIVER MODE: Connecting to
 qe_1139763_2641439.sched-torque.pace.gatech.edur31a6hkw_scratch
  using UNIX socket
  @ DRIVER MODE: Message from server: STATUS
  @ DRIVER MODE: Message from server: INIT
  @ DRIVER MODE: Receiving replica           0          -1
  @ DRIVER MODE: Receiving encoded integer          25
  @ DRIVER MODE:  SCF:  T  FORCE:  T  STRESS:  F  VC:  F  ENSEMBLE:  F
  @ DRIVER MODE:  SCF:  T  FORCE:  T  STRESS:  F  VC:  F  ENSEMBLE:  F

     Using Slab Decomposition

     bravais-lattice index     =            0
     lattice parameter (alat)  =       1.8897  a.u.
     unit-cell volume          =    6658.9804 (a.u.)^3
     number of atoms/cell      =           53
     number of atomic types    =            5
     number of electrons       =       391.00
     number of Kohn-Sham states=          205
     kinetic-energy cutoff     =      29.3995  Ry
     charge density cutoff     =     293.9946  Ry
     scf convergence threshold =      7.3E-08
     mixing beta               =       0.0500
     number of iterations used =            8  plain     mixing
     Exchange-correlation= BEEF-VDW
                           (   1   4  43  14   2   0   0)

     celldm(1)=   1.889726  celldm(2)=   0.000000  celldm(3)=   0.000000
     celldm(4)=   0.000000  celldm(5)=   0.000000  celldm(6)=   0.000000

     crystal axes: (cart. coord. in units of alat)
               a(1) = (   6.579727   0.000000   0.000000 )
               a(2) = (  -0.000775   5.961596   0.000000 )
               a(3) = (   0.000000   0.000000  25.155947 )

     reciprocal axes: (cart. coord. in units 2 pi/alat)
               b(1) = (  0.151982  0.000020  0.000000 )
               b(2) = (  0.000000  0.167740  0.000000 )
               b(3) = (  0.000000  0.000000  0.039752 )

     PseudoPot. # 1 for Ti read from file:
     /storage/coda1/p-amedford6/0/shared/rich_project_chbe-medford/medford-share/data/pseudos_module/espresso/nninc/pbe/van/Ti.UPF
     MD5 check sum: 8e4df49b7f0d34bbd5052bf3f5ea0213
     Pseudo is Ultrasoft, Zval = 12.0
     Generated by new atomic code, or converted to UPF format
     Using radial grid of  851 points,  6 beta functions with:
                l(1) =   0
                l(2) =   0
                l(3) =   1
                l(4) =   1
                l(5) =   2
                l(6) =   2
     Q(r) pseudized with  8 coefficients,  rinner =    1.000   1.000   1.000
                                                       1.000   1.000

     PseudoPot. # 2 for O  read from file:
     /storage/coda1/p-amedford6/0/shared/rich_project_chbe-medford/medford-share/data/pseudos_module/espresso/nninc/pbe/van/O.UPF
     MD5 check sum: 78c19812648e8988a0fe644b0f25305e
     Pseudo is Ultrasoft, Zval =  6.0
     Generated by new atomic code, or converted to UPF format
     Using radial grid of  737 points,  4 beta functions with:
                l(1) =   0
                l(2) =   0
                l(3) =   1
                l(4) =   1
     Q(r) pseudized with  8 coefficients,  rinner =    0.800   0.800   0.800

     PseudoPot. # 3 for N  read from file:
     /storage/coda1/p-amedford6/0/shared/rich_project_chbe-medford/medford-share/data/pseudos_module/espresso/nninc/pbe/van/N.UPF
     MD5 check sum: 90d10febe142ad51ac9d5be1deb811c4
     Pseudo is Ultrasoft, Zval =  5.0
     Generated by new atomic code, or converted to UPF format
     Using radial grid of  729 points,  4 beta functions with:
                l(1) =   0
                l(2) =   0
                l(3) =   1
                l(4) =   1
     Q(r) pseudized with  8 coefficients,  rinner =    0.800   0.800   0.800

     PseudoPot. # 4 for C  read from file:
     /storage/coda1/p-amedford6/0/shared/rich_project_chbe-medford/medford-share/data/pseudos_module/espresso/nninc/pbe/van/C.UPF
     MD5 check sum: 1a69bf6b8db32088f5b2163dbdb77a27
     Pseudo is Ultrasoft, Zval =  4.0
     Generated by new atomic code, or converted to UPF format
     Using radial grid of  721 points,  4 beta functions with:
                l(1) =   0
                l(2) =   0
                l(3) =   1
                l(4) =   1
     Q(r) pseudized with  8 coefficients,  rinner =    0.800   0.800   0.800

     PseudoPot. # 5 for H  read from file:
     /storage/coda1/p-amedford6/0/shared/rich_project_chbe-medford/medford-share/data/pseudos_module/espresso/nninc/pbe/van/H.UPF
     MD5 check sum: b5ee9d7bfd3a09ee7748110bda690ff7
     Pseudo is Ultrasoft, Zval =  1.0
     Generated by new atomic code, or converted to UPF format
     Using radial grid of  615 points,  1 beta functions with:
                l(1) =   0
     Q(r) pseudized with  8 coefficients,  rinner =    0.800

     atomic species   valence    mass     pseudopotential
        Ti1           12.00    47.86700     Ti( 1.00)
        O1             6.00    15.99900     O ( 1.00)
        N1             5.00    14.00700     N ( 1.00)
        C1             4.00    12.01100     C ( 1.00)
        H1             1.00     1.00800     H ( 1.00)

     No symmetry found

   Cartesian axes

     site n.     atom                  positions (alat units)
         1           Ti1 tau(   1) = (   0.0004258   2.9801865   6.0000000  )
         2           Ti1 tau(   2) = (   3.2906075   1.4906267   6.0002472  )
         3           O1  tau(   3) = (   0.0006271   0.0005054   7.9858123  )
         4           O1  tau(   4) = (   3.2906025   0.0005020   7.3038282  )
         5           O1  tau(   5) = (   4.5942328   1.4918067   9.2879030  )
         6           O1  tau(   6) = (   1.9868534   1.4903216   9.2879459  )
         7           Ti1 tau(   7) = (   3.2907910   2.8959150   9.1758416  )
         8           Ti1 tau(   8) = (   0.0015273   1.4827037   9.2680791  )
         9           O1  tau(   9) = (   3.2941312   5.9515177  11.3840049  )
        10           O1  tau(  10) = (   0.0116148   5.9584955  10.6183126  )
        11           O1  tau(  11) = (   1.2915503   1.4777401  12.6967708  )
        12           O1  tau(  12) = (   5.3002239   1.4803738  12.6794006  )
        13           Ti1 tau(  13) = (   0.0161863   2.9610389  12.5056540  )
        14           Ti1 tau(  14) = (   3.3199580   1.4690355  12.5397617  )
        15           O1  tau(  15) = (   6.5577523   5.8663973  14.6994336  )
        16           O1  tau(  16) = (   3.3105950   5.9380289  14.0083265  )
        17           O1  tau(  17) = (   4.5355139   1.5078041  16.1868020  )
        18           O1  tau(  18) = (   2.0231344   1.4922588  16.1350940  )
        19           Ti1 tau(  19) = (   3.2781988   2.9761027  15.7713632  )
        20           Ti1 tau(  20) = (   0.0162001   1.2772015  15.8797579  )
        21           O1  tau(  21) = (   3.2904802   0.0005063   4.7018136  )
        22           O1  tau(  22) = (   6.5682446   0.1140876  17.2519115  )
        23           O1  tau(  23) = (   1.3043587   1.4918075   6.0039043  )
        24           O1  tau(  24) = (   5.2767064   1.4903225   6.0039473  )
        25           Ti1 tau(  25) = (   0.0000382   5.9609847   6.0000000  )
        26           Ti1 tau(  26) = (   3.2902200   4.4714249   6.0002472  )
        27           O1  tau(  27) = (   0.0002396   2.9813036   7.9858123  )
        28           O1  tau(  28) = (   3.2902150   2.9813002   7.3038282  )
        29           O1  tau(  29) = (   4.5938453   4.4726049   9.2879030  )
        30           O1  tau(  30) = (   1.9864658   4.4711199   9.2879459  )
        31           Ti1 tau(  31) = (   3.2891106   5.8743827   9.1763621  )
        32           Ti1 tau(  32) = (   0.0006254   4.4649316   9.2693709  )
        33           O1  tau(  33) = (   3.2958891   2.9587481  11.3780895  )
        34           O1  tau(  34) = (   0.0092240   2.9805883  10.6323155  )
        35           O1  tau(  35) = (   1.2947421   4.4484190  12.6652604  )
        36           O1  tau(  36) = (   5.2996063   4.4466420  12.6515021  )
        37           Ti1 tau(  37) = (   0.0283143   5.9336383  12.5061025  )
        38           Ti1 tau(  38) = (   3.3214233   4.4478814  12.5310514  )
        39           O1  tau(  39) = (   6.5589476   3.0029366  14.9874712  )
        40           O1  tau(  40) = (   3.3011147   2.9794859  13.9794371  )
        41           O1  tau(  41) = (   4.5155863   4.4560770  16.2359875  )
        42           O1  tau(  42) = (   2.0187475   4.4548860  16.2131175  )
        43           Ti1 tau(  43) = (   3.3138217   5.9556645  15.8088081  )
        44           Ti1 tau(  44) = (   0.0451788   4.5003401  16.0524233  )
        45           O1  tau(  45) = (   3.2900926   2.9813045   4.7018136  )
        46           O1  tau(  46) = (   1.3039711   4.4726057   6.0039043  )
        47           O1  tau(  47) = (   5.2763189   4.4711207   6.0039473  )
        48           N1  tau(  48) = (   6.2013940   3.4221407  18.2524812  )
        49           C1  tau(  49) = (   0.6861764   3.1362451  19.0985974  )
        50           H1  tau(  50) = (   1.2250757   3.9700495  19.5149693  )
        51           H1  tau(  51) = (   1.1126790   2.1486344  19.0481404  )
        52           H1  tau(  52) = (   5.7034377   4.2789310  18.4761913  )
        53           H1  tau(  53) = (   5.5430662   2.6552022  18.1284619  )

     number of k points=    10  Fermi-Dirac smearing, width (Ry)=  0.0073
                       cart. coord. in units 2pi/alat
        k(    1) = (   0.0000000   0.0000000   0.0000000), wk =   0.1250000
        k(    2) = (   0.0000000   0.0419351   0.0000000), wk =   0.2500000
        k(    3) = (   0.0000000  -0.0838702   0.0000000), wk =   0.1250000
        k(    4) = (   0.0379955   0.0000049   0.0000000), wk =   0.2500000
        k(    5) = (   0.0379955   0.0419400   0.0000000), wk =   0.2500000
        k(    6) = (   0.0379955  -0.0838652   0.0000000), wk =   0.2500000
        k(    7) = (   0.0379955  -0.0419301   0.0000000), wk =   0.2500000
        k(    8) = (  -0.0759910  -0.0000099   0.0000000), wk =   0.1250000
        k(    9) = (  -0.0759910   0.0419252   0.0000000), wk =   0.2500000
        k(   10) = (  -0.0759910  -0.0838800   0.0000000), wk =   0.1250000

     Initial potential from superposition of free atoms

     starting charge  374.99916, renormalised to  391.00000

     negative rho (up, down):  1.684E-02 0.000E+00

     %%%%%%%%%%%%%%%%%%%%%%%%%%%%%%%%%%%%%%%%%%%%%%%%%%%%%%%%%%%%%%%%%%%%%%%%
     %                                                                      %
     % You are using vdW-DF, which was implemented by the Thonhauser group. %
     % Please cite the following two papers that made this development      %
     % possible and the two reviews that describe the various versions:     %
     %                                                                      %
     %   T. Thonhauser et al., PRL 115, 136402 (2015).                      %
     %   T. Thonhauser et al., PRB 76, 125112 (2007).                       %
     %   K. Berland et al., Rep. Prog. Phys. 78, 066501 (2015).             %
     %   D.C. Langreth et al., J. Phys.: Condens. Matter 21, 084203 (2009). %
     %                                                                      %
     %                                                                      %
     % If you are calculating the stress with vdW-DF, please also cite:     %
     %                                                                      %
     %   R. Sabatini et al., J. Phys.: Condens. Matter 24, 424209 (2012).   %
     %                                                                      %
     %%%%%%%%%%%%%%%%%%%%%%%%%%%%%%%%%%%%%%%%%%%%%%%%%%%%%%%%%%%%%%%%%%%%%%%%

     Adding external electric field

     Computed dipole along edir(3) :
        Dipole               -6.9321 Ry au,        -17.6197 Debye
        Dipole field         -0.0131 Ry au,

        Potential amp.        1.2127 Ry
        Total length         46.3494 bohr

     Starting wfcs are  296 atomic wfcs
  @ DRIVER MODE: Message from server: STATUS
  @ DRIVER MODE: Message from server: POSDATA
  @ DRIVER MODE: Reading and sharing cell
  @ DRIVER MODE: Reading and sharing positions
  @ DRIVER MODE: Received positions

     Self-consistent Calculation

     iteration #  1     ecut=    29.40 Ry     beta= 0.05
     Davidson diagonalization with overlap
     ethr =  1.00E-02,  avg # of iterations =  2.2

[...]

     total energy              =   -2715.12629662 Ry
     estimated scf accuracy    <    2260.80219508 Ry

     iteration #  2     ecut=    29.40 Ry     beta= 0.05
     Davidson diagonalization with overlap
     c_bands:  2 eigenvalues not converged
     ethr =  1.00E-02,  avg # of iterations = 19.2

[...]

     iteration # 74     ecut=    29.40 Ry     beta= 0.05
     Davidson diagonalization with overlap
     ethr =  9.78E-11,  avg # of iterations = 14.5

[...]

     total energy              =   -2920.25697162 Ry
     estimated scf accuracy    <       0.00000043 Ry

     iteration # 76     ecut=    29.40 Ry     beta= 0.05
     Davidson diagonalization with overlap
     c_bands:  1 eigenvalues not converged
     ethr =  5.91E-11,  avg # of iterations = 12.1

     negative rho (up, down):  1.610E-02 0.000E+00

     Adding external electric field

     Computed dipole along edir(3) :
        Dipole                0.8923 Ry au,          2.2680 Debye
        Dipole field          0.0017 Ry au,

        Potential amp.       -0.1561 Ry
        Total length         46.3494 bohr

     End of self-consistent calculation

          k = 0.0000 0.0000 0.0000 ( 18029 PWs)   bands (ev):

   -55.7226 -55.6867 -55.6746 -55.6405 -55.6121 -55.6029 -55.5685 -55.5470
   -55.5391 -55.5126 -55.5062 -55.4725 -55.4652 -55.3049 -54.7066 -54.6725
   -32.2879 -32.1677 -32.0908 -32.0577 -32.0435 -32.0360 -32.0326 -32.0122
   -31.9634 -31.9576 -31.9344 -31.9287 -31.9194 -31.8916 -31.8762 -31.8743
   -31.8614 -31.8503 -31.8425 -31.8271 -31.8215 -31.7891 -31.7814 -31.7777
   -31.7494 -31.7452 -31.7350 -31.7317 -31.7258 -31.7215 -31.7055 -31.7038
   -31.6955 -31.6926 -31.6719 -31.6604 -31.6579 -31.6427 -31.6341 -31.6177
   -31.5256 -31.4728 -31.1162 -31.0215 -30.9994 -30.9325 -30.8457 -30.7348
   -16.6735 -16.5295 -16.2739 -16.1139 -16.0190 -15.9224 -15.7909 -15.7633
   -15.6472 -15.5705 -15.4290 -15.3983 -15.3827 -15.3610 -15.3437 -15.3315
   -15.2703 -15.2643 -15.2442 -15.2189 -15.2155 -15.1686 -15.1639 -15.1234
   -15.0995 -15.0467 -14.9687 -14.8845 -14.8116 -14.4897 -13.2094 -13.0919
    -9.5216  -6.8580  -4.9449  -3.8870  -3.7436  -3.6752  -3.6253  -3.6164
    -3.4750  -3.3011  -3.1573  -3.1400  -3.0904  -2.9955  -2.9278  -2.9139
    -2.8895  -2.7484  -2.7341  -2.6803  -2.6525  -2.5754  -2.5707  -2.5277
    -2.5087  -2.4740  -2.4699  -2.4399  -2.3004  -2.2926  -2.2522  -2.1911
    -2.1319  -2.1290  -2.0740  -2.0548  -2.0134  -2.0042  -1.9953  -1.9523
    -1.9477  -1.9137  -1.8187  -1.7483  -1.6214  -1.5848  -1.4421  -1.3640
    -1.3162  -1.2959  -1.2153  -1.2081  -1.1486  -1.1035  -1.1020  -1.0617
    -0.9503  -0.8686  -0.8162  -0.7587  -0.7246  -0.7081  -0.6234  -0.5258
    -0.5024  -0.4899  -0.4537  -0.3541  -0.3291  -0.2681  -0.2041  -0.1918
    -0.1788  -0.0936  -0.0563   0.0162   0.0663   0.0862   0.1633   0.1855
     0.2092   0.2150   0.2457   0.2614   0.3332   0.3524   0.3772   0.4647
     0.5853   0.8277   0.8864   0.8953   1.2154   1.2203   1.3160   1.4991
     1.8926   1.9409   3.3701   3.3877   3.4520   3.5201   3.5239   3.5860
     3.6108   3.8574   3.8767   3.8847   3.9024

[...]

          k = 0.0380-0.0419 0.0000 ( 17876 PWs)   bands (ev):

[...]

          k =-0.0760-0.0000 0.0000 ( 17886 PWs)   bands (ev):

[...]

          k =-0.0760-0.0839 0.0000 ( 17948 PWs)   bands (ev):

   -55.7060 -55.7031 -55.6577 -55.6573 -55.6078 -55.5864 -55.5849 -55.5432
   -55.5316 -55.5276 -55.4897 -55.4891 -55.4631 -55.3070 -54.6896 -54.6894
   -32.0936 -32.0910 -32.0005 -31.9829 -31.9827 -31.9794 -31.9696 -31.9487
   -31.9486 -31.9324 -31.9258 -31.9189 -31.9144 -31.8751 -31.8667 -31.8638
   -31.8595 -31.8546 -31.8502 -31.8453 -31.8317 -31.8127 -31.8009 -31.8000
   -31.7815 -31.7776 -31.7773 -31.7769 -31.7646 -31.7606 -31.7442 -31.7421
   -31.7402 -31.7305 -31.7227 -31.7199 -31.6860 -31.6699 -31.6695 -31.6505
   -31.5650 -31.5277 -31.0122 -31.0120 -30.9288 -30.9286 -30.8891 -30.8890
   -16.6403 -16.0388 -15.9463 -15.9082 -15.7603 -15.7226 -15.6876 -15.6753
   -15.5526 -15.5266 -15.5010 -15.4799 -15.4445 -15.4284 -15.4214 -15.3738
   -15.3420 -15.3225 -15.3168 -15.3047 -15.2419 -15.2340 -15.2301 -15.2230
   -15.1736 -15.1700 -15.0791 -15.0761 -15.0636 -14.7751 -13.1934 -13.1933
    -9.5232  -6.8404  -4.9258  -3.2155  -3.1919  -3.1614  -3.1334  -2.9790
    -2.9108  -2.8975  -2.8750  -2.7978  -2.7564  -2.7353  -2.6944  -2.6836
    -2.6312  -2.6046  -2.5771  -2.5612  -2.5566  -2.5401  -2.5192  -2.4849
    -2.4563  -2.4535  -2.4429  -2.4026  -2.3755  -2.3616  -2.3277  -2.3180
    -2.3106  -2.2812  -2.2213  -2.1153  -2.0913  -2.0592  -1.9652  -1.9319
    -1.9270  -1.8468  -1.8166  -1.7583  -1.7553  -1.7442  -1.5975  -1.5155
    -1.4724  -1.4698  -1.4477  -1.3207  -1.3114  -1.2266  -1.2042  -1.1944
    -1.1056  -1.0814  -1.0436  -1.0182  -0.9355  -0.9104  -0.8445  -0.7563
    -0.7200  -0.7120  -0.6804  -0.6776  -0.6284  -0.6169  -0.5358  -0.4935
    -0.4574  -0.4472  -0.4061  -0.2213  -0.2044  -0.1614  -0.0329   0.0129
     0.1449   0.1625   0.2273   0.3037   0.3359   0.3900   0.4261   0.5722
     0.5820   0.6146   0.6588   0.6682   0.7279   0.7370   1.6721   1.6728
     1.7608   1.7610   3.3922   3.6189   3.6256   3.6645   3.6873   3.8400
     3.8906   3.9288   3.9545   3.9597   3.9757

     the Fermi energy is     3.4380 ev

!    total energy              =   -2920.25698679 Ry
     estimated scf accuracy    <       0.00000007 Ry
     smearing contrib. (-TS)   =      -0.04300400 Ry
     internal energy E=F+TS    =   -2920.21398279 Ry

     The total energy is F=E-TS. E is the sum of the following terms:
     one-electron contribution =  -24044.00326702 Ry
     hartree contribution      =   12108.13239407 Ry
     xc contribution           =    -480.85716992 Ry
     ewald contribution        =    9496.51255750 Ry
     electric field correction =       0.00150258 Ry

     convergence has been achieved in  76 iterations

     Forces acting on atoms (cartesian axes, Ry/au):

     atom    1 type  1   force =     0.00008355   -0.00016317    0.09319669
     atom    2 type  1   force =    -0.00020086   -0.00024379   -0.17847557
     atom    3 type  2   force =     0.00003735   -0.00036774   -0.02007887
     atom    4 type  2   force =    -0.00002034   -0.00199469    0.05915739
     atom    5 type  2   force =    -0.01040621   -0.00113784    0.00788844
     atom    6 type  2   force =     0.01196415   -0.00052028    0.00731378
     atom    7 type  1   force =    -0.00041727    0.00230109   -0.01386587
     atom    8 type  1   force =     0.00003932   -0.00144979   -0.00478624
     atom    9 type  2   force =     0.00000454   -0.00028692   -0.00034437
     atom   10 type  2   force =    -0.00082700    0.00066281    0.00150592
     atom   11 type  2   force =     0.00010164   -0.00003900    0.00024601
     atom   12 type  2   force =    -0.00007712    0.00008858    0.00033112
     atom   13 type  1   force =    -0.00057692    0.00062135   -0.00009287
     atom   14 type  1   force =     0.00026230    0.00022392    0.00008658
     atom   15 type  2   force =    -0.00017200    0.00053933    0.00039564
     atom   16 type  2   force =    -0.00016223   -0.00006770   -0.00011286
     atom   17 type  2   force =    -0.00013433   -0.00005366   -0.00003560
     atom   18 type  2   force =    -0.00018988   -0.00013579   -0.00045062
     atom   19 type  1   force =    -0.00006077    0.00007362   -0.00009173
     atom   20 type  1   force =    -0.00008308   -0.00013322   -0.00009865
     atom   21 type  2   force =     0.00001380   -0.00001395    0.10399252
     atom   22 type  2   force =    -0.00001600    0.00040011    0.00065967
     atom   23 type  2   force =    -0.07038200   -0.00010452   -0.02688963
     atom   24 type  2   force =     0.07019928    0.00032632   -0.02694970
     atom   25 type  1   force =    -0.00001351   -0.00012179    0.09258313
     atom   26 type  1   force =    -0.00017563   -0.00038735   -0.17851447
     atom   27 type  2   force =     0.00009563   -0.00026777   -0.01916200
     atom   28 type  2   force =     0.00002830   -0.00176340    0.05848075
     atom   29 type  2   force =    -0.01089562   -0.00132975    0.00842425
     atom   30 type  2   force =     0.01235003   -0.00099177    0.00777292
     atom   31 type  1   force =    -0.00022843    0.00598596   -0.01473718
     atom   32 type  1   force =     0.00005711    0.00098819   -0.00536855
     atom   33 type  2   force =    -0.00030564    0.00024120    0.00014993
     atom   34 type  2   force =    -0.00022327   -0.00291211    0.00009096
     atom   35 type  2   force =     0.00060015    0.00021852   -0.00004209
     atom   36 type  2   force =    -0.00065071    0.00017857   -0.00026914
     atom   37 type  1   force =    -0.00055737   -0.00046761   -0.00007298
     atom   38 type  1   force =     0.00016575   -0.00050442    0.00010760
     atom   39 type  2   force =     0.00003246   -0.00022954    0.00036160
     atom   40 type  2   force =    -0.00000813    0.00045310   -0.00058722
     atom   41 type  2   force =    -0.00004944    0.00048647   -0.00018839
     atom   42 type  2   force =     0.00008941    0.00055046   -0.00013578
     atom   43 type  1   force =    -0.00009534    0.00030944   -0.00064828
     atom   44 type  1   force =    -0.00051140   -0.00022869    0.00014917
     atom   45 type  2   force =     0.00000247   -0.00002594    0.10395702
     atom   46 type  2   force =    -0.07036020   -0.00005325   -0.02685539
     atom   47 type  2   force =     0.07019311    0.00037735   -0.02690387
     atom   48 type  3   force =    -0.00082344   -0.00006659    0.00015793
     atom   49 type  4   force =     0.00131789   -0.00032885   -0.00093927
     atom   50 type  5   force =     0.00026506   -0.00011925   -0.00049145
     atom   51 type  5   force =    -0.00030717    0.00060771    0.00009520
     atom   52 type  5   force =     0.00054174   -0.00026273    0.00020601
     atom   53 type  5   force =     0.00048623    0.00113879   -0.00012159

     Total force =     0.366409     Total SCF correction =     0.000664
  @ DRIVER MODE: Message from server: STATUS
  @ DRIVER MODE: Message from server: GETFORCE
  @ DRIVER MODE: Returning v,forces,stress,ensemble

     Writing output data file ./calc.save/
  @ DRIVER MODE: Message from server: EXIT
  @ DRIVE MODE: Exiting

     General routines

     Parallel routines

   This run was terminated on:  10:13: 6  24Aug2021

   JOB DONE.