     Program PWSCF v.6.8 starts on 15Oct2021 at 16:12:45

     R & G space division:  proc/nbgrp/npool/nimage =       4

     Reading input from /storage/home/hcoda1/3/ntian30/research/carbon/Thiel_calc/ads_slab/H2O_perslab/Thiel_calc.log/pw.inp
Warning: card &CELL ignored
Warning: card   CELL_DYNAMICS='IPI', ignored
Warning: card / ignored

     Current dimensions of program PWSCF are:
     Max number of different atomic species (ntypx) = 10
     Max number of k-points (npk) =  40000
     Max angular momentum in pseudopotentials (lmaxx) =  4
     Presently no symmetry can be used with electric field

     Message from routine cell_base_init:
     DEPRECATED: use true lattice parameter, not A to a.u. conversion factor

     IMPORTANT: XC functional enforced from input :
     Exchange-correlation= BEEF-VDW
                           (   1   4  43  14   2   0   0)
     Any further DFT definition will be discarded
     Please, verify this is what you really want

  @ DRIVER MODE: Connecting to
 qe_1139763_3223915.sched-torque.pace.gatech.edux2sc9nxn_scratch
  using UNIX socket
  @ DRIVER MODE: Message from server: STATUS
  @ DRIVER MODE: Message from server: INIT
  @ DRIVER MODE: Receiving replica           0          -1
  @ DRIVER MODE: Receiving encoded integer          25
  @ DRIVER MODE:  SCF:  T  FORCE:  T  STRESS:  F  VC:  F  ENSEMBLE:  F
  @ DRIVER MODE:  SCF:  T  FORCE:  T  STRESS:  F  VC:  F  ENSEMBLE:  F

     Using Slab Decomposition

     bravais-lattice index     =            0
     lattice parameter (alat)  =       1.8897  a.u.
     unit-cell volume          =    9988.4706 (a.u.)^3
     number of atoms/cell      =           56
     number of atomic types    =            3
     number of electrons       =       434.00
     number of Kohn-Sham states=          227
     kinetic-energy cutoff     =      29.3995  Ry
     charge density cutoff     =     293.9946  Ry
     scf convergence threshold =      7.3E-08
     mixing beta               =       0.0500
     number of iterations used =            8  plain     mixing
     Exchange-correlation= BEEF-VDW
                           (   1   4  43  14   2   0   0)

     celldm(1)=   1.889726  celldm(2)=   0.000000  celldm(3)=   0.000000
     celldm(4)=   0.000000  celldm(5)=   0.000000  celldm(6)=   0.000000

     crystal axes: (cart. coord. in units of alat)
               a(1) = (   6.579727   0.000000   0.000000 )
               a(2) = (  -0.001163   8.942395   0.000000 )
               a(3) = (   0.000000   0.000000  25.155947 )

     reciprocal axes: (cart. coord. in units 2 pi/alat)
               b(1) = (  0.151982  0.000020  0.000000 )
               b(2) = (  0.000000  0.111827  0.000000 )
               b(3) = (  0.000000  0.000000  0.039752 )

     PseudoPot. # 1 for O  read from file:
     /storage/coda1/p-amedford6/0/shared/rich_project_chbe-medford/medford-share/data/pseudos_module/espresso/nninc/pbe/van/O.UPF
     MD5 check sum: 78c19812648e8988a0fe644b0f25305e
     Pseudo is Ultrasoft, Zval =  6.0
     Generated by new atomic code, or converted to UPF format
     Using radial grid of  737 points,  4 beta functions with:
                l(1) =   0
                l(2) =   0
                l(3) =   1
                l(4) =   1
     Q(r) pseudized with  8 coefficients,  rinner =    0.800   0.800   0.800

     PseudoPot. # 2 for Ti read from file:
     /storage/coda1/p-amedford6/0/shared/rich_project_chbe-medford/medford-share/data/pseudos_module/espresso/nninc/pbe/van/Ti.UPF
     MD5 check sum: 8e4df49b7f0d34bbd5052bf3f5ea0213
     Pseudo is Ultrasoft, Zval = 12.0
     Generated by new atomic code, or converted to UPF format
     Using radial grid of  851 points,  6 beta functions with:
                l(1) =   0
                l(2) =   0
                l(3) =   1
                l(4) =   1
                l(5) =   2
                l(6) =   2
     Q(r) pseudized with  8 coefficients,  rinner =    1.000   1.000   1.000
                                                       1.000   1.000

     PseudoPot. # 3 for H  read from file:
     /storage/coda1/p-amedford6/0/shared/rich_project_chbe-medford/medford-share/data/pseudos_module/espresso/nninc/pbe/van/H.UPF
     MD5 check sum: b5ee9d7bfd3a09ee7748110bda690ff7
     Pseudo is Ultrasoft, Zval =  1.0
     Generated by new atomic code, or converted to UPF format
     Using radial grid of  615 points,  1 beta functions with:
                l(1) =   0
     Q(r) pseudized with  8 coefficients,  rinner =    0.800

     atomic species   valence    mass     pseudopotential
        O1             6.00    15.99900     O ( 1.00)
        Ti1           12.00    47.86700     Ti( 1.00)
        H1             1.00     1.00800     H ( 1.00)

     No symmetry found

   Cartesian axes

     site n.     atom                  positions (alat units)
         1           O1  tau(   1) = (   0.0007354   0.0005023  10.5931620  )
         2           O1  tau(   2) = (   3.2905955   0.0005026  13.8824958  )
         3           O1  tau(   3) = (   0.0007284   0.0005029  17.1718295  )
         4           O1  tau(   4) = (   0.0006271   0.0005054   7.9858123  )
         5           O1  tau(   5) = (   3.2904872   0.0005057  11.2751460  )
         6           O1  tau(   6) = (   0.0006201   0.0005060  14.5644798  )
         7           O1  tau(   7) = (   1.9868534   1.4903216   9.2879459  )
         8           O1  tau(   8) = (   5.2767135   1.4903219  12.5772797  )
         9           O1  tau(   9) = (   1.9868463   1.4903222  15.8666135  )
        10           Ti1 tau(  10) = (   0.0007404   1.4906270   9.2895810  )
        11           Ti1 tau(  11) = (   3.2906005   1.4906273  12.5789147  )
        12           Ti1 tau(  12) = (   0.0007334   1.4906276  15.8682485  )
        13           O1  tau(  13) = (   4.5942328   1.4918067   9.2879030  )
        14           O1  tau(  14) = (   1.3043657   1.4918069  12.5772368  )
        15           O1  tau(  15) = (   4.5942258   1.4918072  15.8665706  )
        16           Ti1 tau(  16) = (   3.2902859   2.9801868   9.2893338  )
        17           Ti1 tau(  17) = (   0.0004188   2.9801870  12.5786675  )
        18           Ti1 tau(  18) = (   3.2902789   2.9801873  15.8680013  )
        19           O1  tau(  19) = (   0.0003479   2.9813005  10.5931620  )
        20           O1  tau(  20) = (   3.2902079   2.9813008  13.8824958  )
        21           O1  tau(  21) = (   0.0002396   2.9813036   7.9858123  )
        22           O1  tau(  22) = (   3.2900997   2.9813039  11.2751460  )
        23           O1  tau(  23) = (   0.0002325   2.9813042  14.5644798  )
        24           O1  tau(  24) = (   1.9864658   4.4711199   9.2879459  )
        25           O1  tau(  25) = (   5.2763259   4.4711201  12.5772797  )
        26           O1  tau(  26) = (   1.9864588   4.4711204  15.8666135  )
        27           Ti1 tau(  27) = (   0.0003529   4.4714252   9.2895810  )
        28           Ti1 tau(  28) = (   3.2902129   4.4714255  12.5789147  )
        29           Ti1 tau(  29) = (   0.0003458   4.4714258  15.8682485  )
        30           O1  tau(  30) = (   4.5938453   4.4726049   9.2879030  )
        31           O1  tau(  31) = (   1.3039782   4.4726052  12.5772368  )
        32           O1  tau(  32) = (   4.5938383   4.4726054  15.8665706  )
        33           Ti1 tau(  33) = (   3.2898983   5.9609850   9.2893338  )
        34           Ti1 tau(  34) = (   0.0000312   5.9609853  12.5786675  )
        35           Ti1 tau(  35) = (   3.2898913   5.9609855  15.8680013  )
        36           O1  tau(  36) = (  -0.0000397   5.9620987  10.5931620  )
        37           O1  tau(  37) = (   3.2898204   5.9620990  13.8824958  )
        38           O1  tau(  38) = (  -0.0000467   5.9620993  17.1718295  )
        39           O1  tau(  39) = (  -0.0001480   5.9621018   7.9858123  )
        40           O1  tau(  40) = (   3.2897121   5.9621021  11.2751460  )
        41           O1  tau(  41) = (  -0.0001550   5.9621024  14.5644798  )
        42           O1  tau(  42) = (   1.9860782   7.4519181   9.2879459  )
        43           O1  tau(  43) = (   5.2759383   7.4519184  12.5772797  )
        44           O1  tau(  44) = (   1.9860712   7.4519187  15.8666135  )
        45           Ti1 tau(  45) = (  -0.0000347   7.4522234   9.2895810  )
        46           Ti1 tau(  46) = (   3.2898254   7.4522237  12.5789147  )
        47           Ti1 tau(  47) = (  -0.0000417   7.4522240  15.8682485  )
        48           O1  tau(  48) = (   4.5934577   7.4534031   9.2879030  )
        49           O1  tau(  49) = (   1.3035906   7.4534034  12.5772368  )
        50           O1  tau(  50) = (   4.5934507   7.4534037  15.8665706  )
        51           Ti1 tau(  51) = (   3.2895107   8.9417832   9.2893338  )
        52           Ti1 tau(  52) = (  -0.0003564   8.9417835  12.5786675  )
        53           Ti1 tau(  53) = (   3.2895037   8.9417838  15.8680013  )
        54           O1  tau(  54) = (   0.0003408   2.9813011  17.1718295  )
        55           H1  tau(  55) = (   0.0003408   2.2180621  17.7681385  )
        56           H1  tau(  56) = (   0.0003408   3.7445401  17.7681385  )

     number of k points=     1  Fermi-Dirac smearing, width (Ry)=  0.0073
                       cart. coord. in units 2pi/alat
        k(    1) = (   0.0000000   0.0000000   0.0000000), wk =   2.0000000

     Initial potential from superposition of free atoms

     starting charge  415.99913, renormalised to  434.00000

     negative rho (up, down):  3.809E-02 0.000E+00

     %%%%%%%%%%%%%%%%%%%%%%%%%%%%%%%%%%%%%%%%%%%%%%%%%%%%%%%%%%%%%%%%%%%%%%%%
     %                                                                      %
     % You are using vdW-DF, which was implemented by the Thonhauser group. %
     % Please cite the following two papers that made this development      %
     % possible and the two reviews that describe the various versions:     %
     %                                                                      %
     %   T. Thonhauser et al., PRL 115, 136402 (2015).                      %
     %   T. Thonhauser et al., PRB 76, 125112 (2007).                       %
     %   K. Berland et al., Rep. Prog. Phys. 78, 066501 (2015).             %
     %   D.C. Langreth et al., J. Phys.: Condens. Matter 21, 084203 (2009). %
     %                                                                      %
     %                                                                      %
     % If you are calculating the stress with vdW-DF, please also cite:     %
     %                                                                      %
     %   R. Sabatini et al., J. Phys.: Condens. Matter 24, 424209 (2012).   %
     %                                                                      %
     %%%%%%%%%%%%%%%%%%%%%%%%%%%%%%%%%%%%%%%%%%%%%%%%%%%%%%%%%%%%%%%%%%%%%%%%

     Adding external electric field

     Computed dipole along edir(3) :
        Dipole               -0.8353 Ry au,         -2.1231 Debye
        Dipole field         -0.0011 Ry au,

        Potential amp.        0.0974 Ry
        Total length         46.3494 bohr

[...]
     atom   25 type  1   force =    -0.00759282   -0.00008527    0.00881099
     atom   26 type  1   force =     0.01151996   -0.01917969    0.05632138
     atom   27 type  2   force =    -0.00005375    0.00068105   -0.15084263
     atom   28 type  2   force =    -0.00002725   -0.00009685   -0.01147760
     atom   29 type  2   force =    -0.00008780    0.22212307   -0.14846633
     atom   30 type  1   force =    -0.08239323    0.00015468   -0.03198608
     atom   31 type  1   force =     0.00748343   -0.00050569    0.00883895
     atom   32 type  1   force =    -0.01166552   -0.01954980    0.05630585
     atom   33 type  2   force =     0.00007803   -0.00046498    0.10898682
     atom   34 type  2   force =     0.00008465   -0.00100266   -0.06152303
     atom   35 type  2   force =     0.00007269    0.02763191   -0.13023167
     atom   36 type  1   force =     0.00000467   -0.00034109    0.06554584
     atom   37 type  1   force =     0.00001486   -0.00213924    0.04521701
     atom   38 type  1   force =     0.00003247   -0.06015752   -0.04558436
     atom   39 type  1   force =     0.00004763   -0.00003158    0.10039328
     atom   40 type  1   force =     0.00005069    0.00016763   -0.03012450
     atom   41 type  1   force =     0.00005452   -0.02884041    0.03386790
     atom   42 type  1   force =     0.08236742    0.00044968   -0.03203602
     atom   43 type  1   force =    -0.00740666    0.00051361    0.00953428
     atom   44 type  1   force =     0.04208009    0.00027023    0.04066611
     atom   45 type  2   force =    -0.00005107   -0.00029797   -0.15039029
     atom   46 type  2   force =    -0.00003172   -0.00023229   -0.01053947
     atom   47 type  2   force =    -0.00004642   -0.00024152    0.07514461
     atom   48 type  1   force =    -0.08246387    0.00014061   -0.03199794
     atom   49 type  1   force =     0.00729768    0.00009243    0.00956323
     atom   50 type  1   force =    -0.04218495   -0.00009448    0.04067299
     atom   51 type  2   force =     0.00007583   -0.00043640    0.10897429
     atom   52 type  2   force =     0.00008768    0.00010939   -0.06152489
     atom   53 type  2   force =     0.00014100   -0.02755623   -0.13019925
     atom   54 type  1   force =    -0.00000774   -0.00006530    0.14243798
     atom   55 type  3   force =    -0.00002876   -0.03733092    0.04398419
     atom   56 type  3   force =    -0.00000959    0.03732697    0.04401563

     Total force =     0.698404     Total SCF correction =     0.000411
  @ DRIVER MODE: Message from server: STATUS
  @ DRIVER MODE: Message from server: GETFORCE
  @ DRIVER MODE: Returning v,forces,stress,ensemble

     Writing config to output data dir ./calc.save/
     Message from routine punch:
     wavefunctions written to file
  @ DRIVER MODE: Message from server: STATUS
  @ DRIVER MODE: Message from server: INIT
  @ DRIVER MODE: Receiving replica           0           0
  @ DRIVER MODE: Receiving encoded integer          25
  @ DRIVER MODE:  SCF:  T  FORCE:  T  STRESS:  F  VC:  F  ENSEMBLE:  F
  @ DRIVER MODE:  SCF:  T  FORCE:  T  STRESS:  F  VC:  F  ENSEMBLE:  F
  @ DRIVER MODE: Message from server: STATUS
  @ DRIVER MODE: Message from server: POSDATA
  @ DRIVER MODE: Reading and sharing positions
  @ DRIVER MODE: Received positions
     NEW-OLD atomic charge density approx. for the potential

[...]

     Self-consistent Calculation

[...]

     iteration # 13     ecut=    29.40 Ry     beta= 0.05
     Davidson diagonalization with overlap
     c_bands:  1 eigenvalues not converged
     ethr =  5.39E-10,  avg # of iterations = 20.0

[...]

     total energy              =   -3282.99778238 Ry
     estimated scf accuracy    <       0.00000021 Ry

     iteration # 20     ecut=    29.40 Ry     beta= 0.05
     Davidson diagonalization with overlap
     ethr =  4.84E-11,  avg # of iterations = 16.0

[...]

     End of self-consistent calculation

          k = 0.0000 0.0000 0.0000 ( 26871 PWs)   bands (ev):

   -57.9792 -57.9479 -57.9420 -57.9334 -57.9211 -57.9165 -57.9162 -57.9003
   -57.8718 -57.8284 -57.8054 -57.7993 -57.7264 -57.6643 -57.5717 -57.0982
   -57.0750 -57.0679 -34.3976 -34.3915 -34.3794 -34.3654 -34.3439 -34.3373
   -34.3248 -34.3204 -34.3181 -34.3110 -34.2861 -34.2848 -34.2803 -34.2145
   -34.2095 -34.1987 -34.1970 -34.1955 -34.1953 -34.1580 -34.1397 -34.1282
   -34.1257 -34.1226 -34.1181 -34.1170 -34.1079 -34.1060 -34.0856 -34.0847
   -34.0594 -34.0325 -34.0259 -34.0126 -34.0125 -33.9918 -33.9684 -33.9429
   -33.9400 -33.9341 -33.9294 -33.8722 -33.8333 -33.8321 -33.7361 -33.4105
   -33.4037 -33.4030 -33.3895 -33.3831 -33.3211 -33.2600 -33.2521 -33.1207
   -21.2817 -18.9054 -18.4241 -18.2897 -18.2688 -18.2594 -18.2124 -18.1000
   -18.0964 -17.8608 -17.8560 -17.8538 -17.8422 -17.8261 -17.8040 -17.7597
   -17.7167 -17.6533 -17.6359 -17.6259 -17.6245 -17.6114 -17.5329 -17.5076
   -17.4336 -17.3993 -17.3435 -17.3126 -17.3106 -17.3036 -17.0324 -17.0048
   -16.9519 -15.5041 -15.4464 -15.4424  -9.2966  -6.2605  -6.0398  -5.8967
    -5.8159  -5.7425  -5.5055  -5.4925  -5.4187  -5.3932  -5.3591  -5.3494
    -5.3426  -5.2841  -5.2411  -5.2333  -5.1890  -5.1876  -5.0550  -4.9727
    -4.9708  -4.9447  -4.9186  -4.8990  -4.8381  -4.8033  -4.7805  -4.7677
    -4.7470  -4.7190  -4.6993  -4.6782  -4.6007  -4.5360  -4.3930  -4.3581
    -4.3401  -4.3218  -4.3093  -4.2522  -4.2017  -4.1496  -4.0869  -4.0646
    -4.0184  -3.9742  -3.9287  -3.8815  -3.8539  -3.8304  -3.8182  -3.7466
    -3.6294  -3.6042  -3.5625  -3.4685  -3.3915  -3.3857  -3.3670  -3.3228
    -3.2458  -3.2197  -3.1735  -3.1257  -3.1134  -3.0148  -3.0097  -2.9460
    -2.8902  -2.8298  -2.7952  -2.7607  -2.7228  -2.6773  -2.6479  -2.6426
    -2.6281  -2.6160  -2.5728  -2.5566  -2.4903  -2.4449  -2.4309  -2.4249
    -2.4024  -2.3541  -2.3024  -2.2526  -2.2478  -2.2058  -2.1084  -1.9054
    -1.8907  -1.8883  -1.8540  -1.8511  -1.7400  -1.6981  -1.6422  -1.4935
    -1.2741  -1.0993  -0.7928  -0.7542  -0.7524  -0.4482  -0.4430  -0.3035
     0.9961   1.2693   1.2899   1.4562   1.4600   1.4969   1.5265   1.6192
     1.6420   1.6658   1.6990

     the Fermi energy is     1.0755 ev

!    total energy              =   -3282.99778483 Ry
     estimated scf accuracy    <       0.00000004 Ry
     smearing contrib. (-TS)   =      -0.02588296 Ry
     internal energy E=F+TS    =   -3282.97190187 Ry

     The total energy is F=E-TS. E is the sum of the following terms:
     one-electron contribution =  -34306.45384849 Ry
     hartree contribution      =   17213.56067355 Ry
     xc contribution           =    -537.45180870 Ry
     ewald contribution        =   14347.37091517 Ry
     electric field correction =       0.00216660 Ry

     convergence has been achieved in  20 iterations

     Forces acting on atoms (cartesian axes, Ry/au):

     atom    1 type  1   force =     0.00003095    0.00454187    0.06957372
     atom    2 type  1   force =    -0.00000146    0.00031401    0.00042235
     atom    3 type  1   force =     0.00000134   -0.00093061   -0.00079428
     atom    4 type  1   force =     0.00005475   -0.00057155    0.10874489
     atom    5 type  1   force =    -0.00001394   -0.00030775   -0.00060684
     atom    6 type  1   force =    -0.00001632   -0.00017064    0.00062376
     atom    7 type  1   force =     0.05668341   -0.00012955   -0.03030716
     atom    8 type  1   force =     0.00064863    0.00022833    0.00015255
     atom    9 type  1   force =    -0.00033556    0.00022473   -0.00027956
     atom   10 type  2   force =    -0.00006321   -0.00357747   -0.19062375
     atom   11 type  2   force =    -0.00007566    0.00026490    0.00011841
     atom   12 type  2   force =     0.00002368   -0.00084963    0.00027656
     atom   13 type  1   force =    -0.05677562   -0.00048276   -0.03029860
     atom   14 type  1   force =    -0.00064949    0.00023848    0.00015572
     atom   15 type  1   force =     0.00035144    0.00020667   -0.00026103
     atom   16 type  2   force =     0.00012301   -0.00205049    0.07185481
     atom   17 type  2   force =     0.00006429    0.00067969    0.00036218
     atom   18 type  2   force =    -0.00002589    0.00059492    0.00071739
     atom   19 type  1   force =     0.00000430    0.00253792    0.07697231
     atom   20 type  1   force =     0.00000128    0.00047724    0.00008042
     atom   21 type  1   force =     0.00005485    0.00108614    0.10949550
     atom   22 type  1   force =    -0.00000475    0.00014030   -0.00048330
     atom   23 type  1   force =    -0.00001944   -0.00042034   -0.00058520
     atom   24 type  1   force =     0.05606552   -0.00026744   -0.03014911
     atom   25 type  1   force =     0.00101397    0.00017251   -0.00006630
     atom   26 type  1   force =     0.00074769    0.00060507   -0.00018645
     atom   27 type  2   force =    -0.00007066   -0.00315177   -0.19551635
     atom   28 type  2   force =    -0.00006394    0.00042555   -0.00000195
     atom   29 type  2   force =     0.00001206   -0.00169892    0.00063031
     atom   30 type  1   force =    -0.05615664   -0.00063513   -0.03014494
     atom   31 type  1   force =    -0.00102701    0.00018142   -0.00006577
     atom   32 type  1   force =    -0.00072835    0.00059937   -0.00016832
     atom   33 type  2   force =     0.00012654   -0.00224207    0.07174669
     atom   34 type  2   force =     0.00008393    0.00102701   -0.00045038
     atom   35 type  2   force =    -0.00002897   -0.00103113   -0.00034460
     atom   36 type  1   force =     0.00002742    0.00132037    0.06810417
     atom   37 type  1   force =     0.00000072    0.00002166    0.00092373
     atom   38 type  1   force =    -0.00000021    0.00042320    0.00009208
     atom   39 type  1   force =     0.00005540   -0.00058539    0.10960388
     atom   40 type  1   force =    -0.00001213    0.00029653   -0.00065191
     atom   41 type  1   force =    -0.00001397    0.00097368   -0.00014027
     atom   42 type  1   force =     0.05627123   -0.00081646   -0.02984243
     atom   43 type  1   force =    -0.00068425    0.00024920    0.00031457
     atom   44 type  1   force =     0.00041610    0.00005924    0.00006015
     atom   45 type  2   force =    -0.00008908    0.00389492   -0.19308776
     atom   46 type  2   force =    -0.00008576    0.00030508    0.00061676
     atom   47 type  2   force =     0.00000401   -0.00089778    0.00098006
     atom   48 type  1   force =    -0.05636366   -0.00117093   -0.02984132
     atom   49 type  1   force =     0.00067767    0.00025579    0.00031893
     atom   50 type  1   force =    -0.00038388    0.00004356    0.00007926
     atom   51 type  2   force =     0.00012415   -0.00124276    0.07248056
     atom   52 type  2   force =     0.00007157   -0.00132165   -0.00001081
     atom   53 type  2   force =    -0.00003134    0.00121975   -0.00056873
     atom   54 type  1   force =     0.00003330    0.00021753   -0.00022795
     atom   55 type  3   force =    -0.00002605   -0.00009261    0.00035850
     atom   56 type  3   force =    -0.00002598    0.00081817   -0.00015516

     Total force =     0.450849     Total SCF correction =     0.000895
  @ DRIVER MODE: Message from server: STATUS
  @ DRIVER MODE: Message from server: GETFORCE
  @ DRIVER MODE: Returning v,forces,stress,ensemble

     Writing config to output data dir ./calc.save/
     Message from routine punch:
     wavefunctions written to file
  @ DRIVER MODE: Message from server: STATUS
  @ DRIVER MODE: Message from server: INIT
  @ DRIVER MODE: Receiving replica           0           0
  @ DRIVER MODE: Receiving encoded integer           2
  @ DRIVER MODE:  SCF:  T  FORCE:  T  STRESS:  F  VC:  F  ENSEMBLE:  F
  @ DRIVER MODE:  SCF:  F  FORCE:  F  STRESS:  F  VC:  F  ENSEMBLE:  T
  @ DRIVER MODE: Message from server: STATUS
  @ DRIVER MODE: Message from server: POSDATA
  @ DRIVER MODE: Reading and sharing positions
  @ DRIVER MODE: Received positions
     NEW-OLD atomic charge density approx. for the potential

[...]

     Adding external electric field

     Computed dipole along edir(3) :
        Dipole                1.3123 Ry au,          3.3355 Debye
        Dipole field          0.0017 Ry au,

        Potential amp.       -0.1530 Ry
        Total length         46.3494 bohr

  @ DRIVER MODE: BEEF-vdw

[...]

     negative rho (up, down):  3.731E-02 0.000E+00

     negative rho (up, down):  3.731E-02 0.000E+00
 BEEFens 2000 ensemble energies
             -0.385976873778445E+02
             -0.225309903488504E+01
             -0.797421069070460E+01
              0.267810421288673E+02
             -0.132865290499465E+02
             -0.102726236010156E+02
             -0.267994951474956E+02
             -0.560252538857169E+02
             -0.240048175461256E+02
             -0.251899689250851E+02
             -0.233476746032740E+02
              0.477154057527623E+01
              0.221888405253081E+01
             -0.116711478375275E+01
              0.192501926130377E+01
              0.294977987967148E+02
             -0.113909393687138E+02
             -0.805950608384092E+01
              0.129857760698967E+02
             -0.689850050357661E+02
              0.345542962156176E+02
             -0.148011543040130E+02
             -0.266855289596528E+01
             -0.625104432067427E+01
             -0.108883088645439E+01
             -0.241307259386593E+01
              0.534877596356590E+02
             -0.166645663164250E+02
             -0.451728879152654E+01
             -0.337768361799061E+02
              0.437229134865436E+02
             -0.488656181597649E+01
             -0.237523100115782E+02
              0.125556272521851E+02
             -0.228633385802249E+01
              0.144285971813540E+02
             -0.609455131936045E+00
              0.310458024258492E+01
              0.209882029212532E+02
             -0.608907998069771E+02
              0.338952228876830E+02
              0.905842927396479E+01
             -0.694990625947389E+01
             -0.195147103750536E+02
              0.765572179059700E+01
             -0.122023218025164E+02
              0.276676981281703E+02
              0.221773577378567E+02
             -0.142893033307033E+02
             -0.182099037112555E+02
             -0.191825118351716E+02
             -0.231504223756382E+02
              0.116945693402297E+02
             -0.301724539270818E+02
              0.923949346442373E+01
              0.385869188591584E+02
              0.443933588992515E+02
              0.207313744718310E+02
              0.929097061328508E+01
              0.192953702003685E+02
[...]
             -0.454038431492747E+02
              0.306258469446607E+01
             -0.159002069733876E+01
             -0.632850740513368E+01
              0.764871392420332E-01
             -0.404449523054768E+02
             -0.784781594920734E+01
              0.547229213790249E+01
              0.823603935883239E+01
              0.302633762705804E+02
             -0.264485746403452E+02
              0.346500062011564E+02
             -0.247414709574315E+02
              0.158838636105229E+02
              0.250322097940374E+02

 BEEF-vdW xc energy contributions
           1 :   -455.540719559532
           2 :    396.739504836002
           3 :   -302.081387004283
           4 :    203.562137060993
           5 :   -126.347199915912
           6 :    80.1469775702523
           7 :   -60.6534751250291
           8 :    56.8572283660575
           9 :   -58.5323116313856
          10 :    59.9911278755544
          11 :   -59.8040248023208
          12 :    58.4047102462187
          13 :   -56.0875768554478
          14 :    52.5121481183029
          15 :   -47.3562446394353
          16 :    41.0049247622806
          17 :   -34.6173191783107
          18 :    29.5613403024884
          19 :   -26.7165240827840
          20 :    26.1095938814664
          21 :   -27.0768019664680
          22 :    28.7128622942209
          23 :   -30.2550832292393
          24 :    31.1996567482079
          25 :   -31.2441295068694
          26 :    30.2270200621132
          27 :   -28.1533220424851
          28 :    25.2590652495847
          29 :   -22.0352813783974
          30 :    19.1336235547569
          31 :   -53.2899817618595
          32 :   -36.1144758409859
  @ DRIVER MODE: Message from server: STATUS
  @ DRIVER MODE: Message from server: GETFORCE
  @ DRIVER MODE: Returning v,forces,stress,ensemble
  @ DRIVE MODE: Returning Ensemble Energies

     Writing config to output data dir ./calc.save/
     Message from routine punch:
     wavefunctions written to file
  @ DRIVER MODE: Message from server: EXIT
  @ DRIVE MODE: Exiting

     General routines

     Parallel routines

   This run was terminated on:  19:33: 1  15Oct2021

   JOB DONE.