     Program PWSCF v.6.7GPU starts on 22Sep2021 at 20:21:28

     R & G space division:  proc/nbgrp/npool/nimage =      10
     Reading input from /storage/home/hcoda1/3/ntian30/research/carbon/CxH_vib/CH_calc/ads_slab/CHN2OH_a/out_0029/pw.inp
Warning: card &CELL ignored
Warning: card   CELL_DYNAMICS='IPI', ignored
Warning: card / ignored

     Current dimensions of program PWSCF are:
     Max number of different atomic species (ntypx) = 10
     Max number of k-points (npk) =  40000
     Max angular momentum in pseudopotentials (lmaxx) =  3
     Presently no symmetry can be used with electric field

     Message from routine cell_base_init:
     DEPRECATED: use true lattice parameter, not A to a.u. conversion factor

     IMPORTANT: XC functional enforced from input :
     Exchange-correlation= BEEF-VDW
                           (   1   4  43  14   2   0   0)
     Any further DFT definition will be discarded
     Please, verify this is what you really want

  @ DRIVER MODE: Connecting to
 qe_1139763_2934093.sched-torque.pace.gatech.edullmw076p_scratch
  using UNIX socket
  @ DRIVER MODE: Message from server: STATUS
  @ DRIVER MODE: Message from server: INIT
  @ DRIVER MODE: Receiving replica           0          -1
  @ DRIVER MODE: Receiving encoded integer          25
  @ DRIVER MODE:  SCF:  T  FORCE:  T  STRESS:  F  VC:  F  ENSEMBLE:  F
  @ DRIVER MODE:  SCF:  T  FORCE:  T  STRESS:  F  VC:  F  ENSEMBLE:  F

     Using Slab Decomposition

     bravais-lattice index     =            0
     lattice parameter (alat)  =       1.8897  a.u.
     unit-cell volume          =    6658.9804 (a.u.)^3
     number of atoms/cell      =           53
     number of atomic types    =            5
     number of electrons       =       400.00
     number of Kohn-Sham states=          210
     kinetic-energy cutoff     =      29.3995  Ry
     charge density cutoff     =     293.9946  Ry
     scf convergence threshold =      7.3E-08
     mixing beta               =       0.0500
     number of iterations used =            8  plain     mixing
     Exchange-correlation= BEEF-VDW
                           (   1   4  43  14   2   0   0)

     celldm(1)=   1.889726  celldm(2)=   0.000000  celldm(3)=   0.000000
     celldm(4)=   0.000000  celldm(5)=   0.000000  celldm(6)=   0.000000

     crystal axes: (cart. coord. in units of alat)
               a(1) = (   6.579727   0.000000   0.000000 )
               a(2) = (  -0.000775   5.961596   0.000000 )
               a(3) = (   0.000000   0.000000  25.155947 )

     reciprocal axes: (cart. coord. in units 2 pi/alat)
               b(1) = (  0.151982  0.000020  0.000000 )
               b(2) = (  0.000000  0.167740  0.000000 )
               b(3) = (  0.000000  0.000000  0.039752 )

     PseudoPot. # 1 for Ti read from file:
     /storage/coda1/p-amedford6/0/shared/rich_project_chbe-medford/medford-share/data/pseudos_module/espresso/nninc/pbe/van/Ti.UPF
     MD5 check sum: 8e4df49b7f0d34bbd5052bf3f5ea0213
     Pseudo is Ultrasoft, Zval = 12.0
     Generated by new atomic code, or converted to UPF format
     Using radial grid of  851 points,  6 beta functions with:
                l(1) =   0
                l(2) =   0
                l(3) =   1
                l(4) =   1
                l(5) =   2
                l(6) =   2
     Q(r) pseudized with  8 coefficients,  rinner =    1.000   1.000   1.000
                                                       1.000   1.000

     PseudoPot. # 2 for O  read from file:
     /storage/coda1/p-amedford6/0/shared/rich_project_chbe-medford/medford-share/data/pseudos_module/espresso/nninc/pbe/van/O.UPF
     MD5 check sum: 78c19812648e8988a0fe644b0f25305e
     Pseudo is Ultrasoft, Zval =  6.0
     Generated by new atomic code, or converted to UPF format
     Using radial grid of  737 points,  4 beta functions with:
                l(1) =   0
                l(2) =   0
                l(3) =   1
                l(4) =   1
     Q(r) pseudized with  8 coefficients,  rinner =    0.800   0.800   0.800

     PseudoPot. # 3 for N  read from file:
     /storage/coda1/p-amedford6/0/shared/rich_project_chbe-medford/medford-share/data/pseudos_module/espresso/nninc/pbe/van/N.UPF
     MD5 check sum: 90d10febe142ad51ac9d5be1deb811c4
     Pseudo is Ultrasoft, Zval =  5.0
     Generated by new atomic code, or converted to UPF format
     Using radial grid of  729 points,  4 beta functions with:
                l(1) =   0
                l(2) =   0
                l(3) =   1
                l(4) =   1
     Q(r) pseudized with  8 coefficients,  rinner =    0.800   0.800   0.800

     PseudoPot. # 4 for C  read from file:
     /storage/coda1/p-amedford6/0/shared/rich_project_chbe-medford/medford-share/data/pseudos_module/espresso/nninc/pbe/van/C.UPF
     MD5 check sum: 1a69bf6b8db32088f5b2163dbdb77a27
     Pseudo is Ultrasoft, Zval =  4.0
     Generated by new atomic code, or converted to UPF format
     Using radial grid of  721 points,  4 beta functions with:
                l(1) =   0
                l(2) =   0
                l(3) =   1
                l(4) =   1
     Q(r) pseudized with  8 coefficients,  rinner =    0.800   0.800   0.800

     PseudoPot. # 5 for H  read from file:
     /storage/coda1/p-amedford6/0/shared/rich_project_chbe-medford/medford-share/data/pseudos_module/espresso/nninc/pbe/van/H.UPF
     MD5 check sum: b5ee9d7bfd3a09ee7748110bda690ff7
     Pseudo is Ultrasoft, Zval =  1.0
     Generated by new atomic code, or converted to UPF format
     Using radial grid of  615 points,  1 beta functions with:
                l(1) =   0
     Q(r) pseudized with  8 coefficients,  rinner =    0.800

     atomic species   valence    mass     pseudopotential
        Ti1           12.00    47.86700     Ti( 1.00)
        O1             6.00    15.99900     O ( 1.00)
        N1             5.00    14.00700     N ( 1.00)
        C1             4.00    12.01100     C ( 1.00)
        H1             1.00     1.00800     H ( 1.00)

     No symmetry found

   Cartesian axes

     site n.     atom                  positions (alat units)
         1           Ti1 tau(   1) = (   0.0004258   2.9801865   6.0000000  )
         2           Ti1 tau(   2) = (   3.2906075   1.4906267   6.0002472  )
         3           O1  tau(   3) = (   0.0006271   0.0005054   7.9858123  )
         4           O1  tau(   4) = (   3.2906025   0.0005020   7.3038282  )
         5           O1  tau(   5) = (   4.5942328   1.4918067   9.2879030  )
         6           O1  tau(   6) = (   1.9868534   1.4903216   9.2879459  )
         7           Ti1 tau(   7) = (   3.2907910   2.8959150   9.1758416  )
         8           Ti1 tau(   8) = (   0.0015273   1.4827037   9.2680791  )
         9           O1  tau(   9) = (   3.2947431   5.9554071  11.2675382  )
        10           O1  tau(  10) = (   0.0116148   5.9584955  10.6183126  )
        11           O1  tau(  11) = (   1.2939190   1.5012022  12.6324650  )
        12           O1  tau(  12) = (   5.3075194   1.4952059  12.6199201  )
        13           Ti1 tau(  13) = (   0.0106221   2.8553259  12.7114016  )
        14           Ti1 tau(  14) = (   3.3038960   1.3182849  12.6556579  )
        15           O1  tau(  15) = (   6.5780848   0.0092190  14.6493773  )
        16           O1  tau(  16) = (   3.3025004   0.0387551  13.8658611  )
        17           O1  tau(  17) = (   4.5583283   1.5306594  16.0644060  )
        18           O1  tau(  18) = (   2.0361898   1.5392772  16.0217891  )
        19           Ti1 tau(  19) = (   3.3091865   3.0111069  15.6373089  )
        20           Ti1 tau(  20) = (   0.0377650   1.3505479  16.0707495  )
        21           O1  tau(  21) = (   3.2904802   0.0005063   4.7018136  )
        22           O1  tau(  22) = (   0.0439016   5.9493915  17.1867805  )
        23           O1  tau(  23) = (   1.3043587   1.4918075   6.0039043  )
        24           O1  tau(  24) = (   5.2767064   1.4903225   6.0039473  )
        25           Ti1 tau(  25) = (   0.0000382   5.9609847   6.0000000  )
        26           Ti1 tau(  26) = (   3.2902200   4.4714249   6.0002472  )
        27           O1  tau(  27) = (   0.0002396   2.9813036   7.9858123  )
        28           O1  tau(  28) = (   3.2902150   2.9813002   7.3038282  )
        29           O1  tau(  29) = (   4.5938453   4.4726049   9.2879030  )
        30           O1  tau(  30) = (   1.9864658   4.4711199   9.2879459  )
        31           Ti1 tau(  31) = (   3.2891106   5.8743827   9.1763621  )
        32           Ti1 tau(  32) = (   0.0006254   4.4649316   9.2693709  )
        33           O1  tau(  33) = (   3.2958776   3.0336607  11.2353185  )
        34           O1  tau(  34) = (   0.0092240   2.9805883  10.6323155  )
        35           O1  tau(  35) = (   1.3000586   4.4853303  12.6229424  )
        36           O1  tau(  36) = (   5.2993189   4.4901910  12.6110906  )
        37           Ti1 tau(  37) = (   0.0093010   5.8444503  12.6145921  )
        38           Ti1 tau(  38) = (   3.2999333   4.4129019  12.4053696  )
        39           O1  tau(  39) = (   6.5685983   3.0141634  14.6646344  )
        40           O1  tau(  40) = (   3.3157979   2.9893391  13.8470085  )
        41           O1  tau(  41) = (   4.5469136   4.4558096  16.0384726  )
        42           O1  tau(  42) = (   2.0285042   4.4377151  15.9822253  )
        43           Ti1 tau(  43) = (   3.3362675   0.0317196  16.2890182  )
        44           Ti1 tau(  44) = (   0.0499865   4.4862307  15.8577502  )
        45           O1  tau(  45) = (   3.2900926   2.9813045   4.7018136  )
        46           O1  tau(  46) = (   1.3039711   4.4726057   6.0039043  )
        47           O1  tau(  47) = (   5.2763189   4.4711207   6.0039473  )
        48           N1  tau(  48) = (   0.0045878   3.1533891  18.5964175  )
        49           N1  tau(  49) = (   0.0147781   3.0160983  17.3860304  )
        50           C1  tau(  50) = (   0.1535999   3.3096653  19.7680592  )
        51           H1  tau(  51) = (   6.1193577   3.4501394  20.6313668  )
        52           O1  tau(  52) = (   3.1701150   5.9596689  18.0925665  )
        53           H1  tau(  53) = (   2.2867615   0.0439400  18.5018857  )

     number of k points=    10  Fermi-Dirac smearing, width (Ry)=  0.0073
                       cart. coord. in units 2pi/alat
        k(    1) = (   0.0000000   0.0000000   0.0000000), wk =   0.1250000
        k(    2) = (   0.0000000   0.0419351   0.0000000), wk =   0.2500000
        k(    3) = (   0.0000000  -0.0838702   0.0000000), wk =   0.1250000
        k(    4) = (   0.0379955   0.0000049   0.0000000), wk =   0.2500000
        k(    5) = (   0.0379955   0.0419400   0.0000000), wk =   0.2500000
        k(    6) = (   0.0379955  -0.0838652   0.0000000), wk =   0.2500000
        k(    7) = (   0.0379955  -0.0419301   0.0000000), wk =   0.2500000
        k(    8) = (  -0.0759910  -0.0000099   0.0000000), wk =   0.1250000
        k(    9) = (  -0.0759910   0.0419252   0.0000000), wk =   0.2500000
        k(   10) = (  -0.0759910  -0.0838800   0.0000000), wk =   0.1250000

     Initial potential from superposition of free atoms

     starting charge  383.99917, renormalised to  400.00000

     negative rho (up, down):  1.461E-02 0.000E+00

     %%%%%%%%%%%%%%%%%%%%%%%%%%%%%%%%%%%%%%%%%%%%%%%%%%%%%%%%%%%%%%%%%%%%%%%%
     %                                                                      %
     % You are using vdW-DF, which was implemented by the Thonhauser group. %
     % Please cite the following two papers that made this development      %
     % possible and the two reviews that describe the various versions:     %
     %                                                                      %
     %   T. Thonhauser et al., PRL 115, 136402 (2015).                      %
     %   T. Thonhauser et al., PRB 76, 125112 (2007).                       %
     %   K. Berland et al., Rep. Prog. Phys. 78, 066501 (2015).             %
     %   D.C. Langreth et al., J. Phys.: Condens. Matter 21, 084203 (2009). %
     %                                                                      %
     %                                                                      %
     % If you are calculating the stress with vdW-DF, please also cite:     %
     %                                                                      %
     %   R. Sabatini et al., J. Phys.: Condens. Matter 24, 424209 (2012).   %
     %                                                                      %
     %%%%%%%%%%%%%%%%%%%%%%%%%%%%%%%%%%%%%%%%%%%%%%%%%%%%%%%%%%%%%%%%%%%%%%%%

     Adding external electric field

     Computed dipole along edir(3) :
        Dipole              -10.4104 Ry au,        -26.4605 Debye
        Dipole field         -0.0196 Ry au,

        Potential amp.        1.8211 Ry
        Total length         46.3494 bohr

     Starting wfcs are  302 atomic wfcs
  @ DRIVER MODE: Message from server: STATUS
  @ DRIVER MODE: Message from server: POSDATA
  @ DRIVER MODE: Reading and sharing cell
  @ DRIVER MODE: Reading and sharing positions
  @ DRIVER MODE: Received positions

     Self-consistent Calculation

     iteration #  1     ecut=    29.40 Ry     beta= 0.05
     Davidson diagonalization with overlap
     c_bands:  1 eigenvalues not converged
     c_bands:  2 eigenvalues not converged
     c_bands:  1 eigenvalues not converged
     c_bands:  1 eigenvalues not converged
     c_bands:  3 eigenvalues not converged
     c_bands:  2 eigenvalues not converged
     c_bands:  3 eigenvalues not converged
     c_bands:  2 eigenvalues not converged
     c_bands:  4 eigenvalues not converged
     c_bands:  2 eigenvalues not converged
     ethr =  1.00E-05,  avg # of iterations = 20.0

[...]

     total energy              =   -2482.40556171 Ry
     estimated scf accuracy    <    5428.97359178 Ry

     iteration #  2     ecut=    29.40 Ry     beta= 0.05
     Davidson diagonalization with overlap
     ethr =  1.00E-02,  avg # of iterations = 22.6

[...]

     iteration # 34     ecut=    29.40 Ry     beta= 0.05
     Davidson diagonalization with overlap
     c_bands:  1 eigenvalues not converged
     c_bands:  1 eigenvalues not converged
     c_bands:  1 eigenvalues not converged
     c_bands:  1 eigenvalues not converged
     ethr =  4.27E-06,  avg # of iterations = 13.5

[...]

     total energy              =   -2970.22393146 Ry
     estimated scf accuracy    <       0.00000009 Ry

     iteration # 69     ecut=    29.40 Ry     beta= 0.05
     Davidson diagonalization with overlap
     ethr =  2.35E-11,  avg # of iterations =  2.0

     negative rho (up, down):  1.522E-02 0.000E+00

     Adding external electric field

     Computed dipole along edir(3) :
        Dipole                0.3155 Ry au,          0.8019 Debye
        Dipole field          0.0006 Ry au,

        Potential amp.       -0.0552 Ry
        Total length         46.3494 bohr

     End of self-consistent calculation

          k = 0.0000 0.0000 0.0000 ( 18029 PWs)   bands (ev):

   -56.8374 -56.8038 -55.9956 -55.9604 -55.7360 -55.6716 -55.4060 -55.3798
   -55.3722 -55.3541 -55.2998 -55.2474 -55.2465 -55.2331 -55.0535 -55.0489
   -33.2588 -33.1126 -33.0846 -33.0131 -32.9227 -32.8856 -32.4800 -32.2163
   -32.2140 -32.1855 -32.1365 -32.1345 -32.1059 -31.9676 -31.9556 -31.9032
   -31.8766 -31.8606 -31.8359 -31.7871 -31.7522 -31.7352 -31.7277 -31.7276
   -31.7048 -31.6434 -31.6395 -31.6125 -31.6099 -31.5991 -31.5908 -31.5304
   -31.5165 -31.4989 -31.4959 -31.4717 -31.4661 -31.4515 -31.4384 -31.4188
   -31.4089 -31.3844 -31.3141 -31.2996 -31.2971 -31.2675 -31.2628 -31.2530
   -19.0023 -16.9580 -16.4334 -16.1998 -16.1647 -16.0713 -16.0423 -16.0304
   -15.9487 -15.7558 -15.6932 -15.6210 -15.5978 -15.5036 -15.3804 -15.2839
   -15.1538 -15.0789 -15.0147 -15.0064 -14.9959 -14.9748 -14.8610 -14.8561
   -14.8508 -14.8074 -14.7650 -14.6054 -14.5154 -14.3596 -14.3223 -13.9036
   -13.7962 -13.6271  -6.2858  -5.0447  -4.5276  -3.9452  -3.9065  -3.8871
    -3.7328  -3.5766  -3.5625  -3.4324  -3.3672  -3.2423  -3.2325  -3.2164
    -3.1457  -3.1309  -2.9846  -2.9353  -2.9198  -2.8140  -2.7833  -2.6304
    -2.6037  -2.5090  -2.4602  -2.4256  -2.3706  -2.3441  -2.2680  -2.2611
    -2.2420  -2.1557  -2.1546  -2.1206  -2.0446  -2.0295  -1.9617  -1.9146
    -1.8765  -1.8162  -1.7883  -1.7178  -1.7147  -1.5938  -1.5119  -1.4697
    -1.4273  -1.4181  -1.3576  -1.3029  -1.1939  -1.1670  -1.0774  -1.0312
    -1.0175  -0.9706  -0.8817  -0.8598  -0.7818  -0.7101  -0.6929  -0.6163
    -0.5804  -0.5536  -0.4478  -0.4290  -0.3740  -0.3479  -0.3174  -0.3105
    -0.2286  -0.1134  -0.0965  -0.0428   0.0177   0.0475   0.1363   0.2307
     0.2770   0.3287   0.3581   0.3767   0.4481   0.4799   0.5027   0.5513
     0.5845   0.6156   0.6175   0.7236   0.7574   0.8197   0.8789   0.8978
     1.0073   1.0373   1.1045   1.1527   1.1936   1.5380   1.6359   1.8804
     2.4503   2.6169   2.8929   3.0262   3.3513   3.4368   3.4454   3.4512
     3.6897   3.8268

[...]

          k = 0.0380-0.0419 0.0000 ( 17876 PWs)   bands (ev):

[...]

          k =-0.0760-0.0000 0.0000 ( 17886 PWs)   bands (ev):

[...]

          k =-0.0760-0.0839 0.0000 ( 17948 PWs)   bands (ev):

   -56.8212 -56.8199 -55.9832 -55.9726 -55.7311 -55.6763 -55.3896 -55.3884
   -55.3759 -55.3525 -55.3036 -55.2460 -55.2449 -55.2346 -55.0549 -55.0502
   -33.0990 -33.0977 -33.0766 -33.0753 -32.9669 -32.9660 -32.3047 -32.2961
   -32.1782 -32.1661 -32.1633 -32.1563 -32.0384 -31.9946 -31.9610 -31.9518
   -31.9041 -31.8989 -31.7412 -31.7404 -31.7073 -31.6517 -31.6503 -31.6436
   -31.6344 -31.6223 -31.6104 -31.6088 -31.5964 -31.5943 -31.5809 -31.5715
   -31.5707 -31.5614 -31.5392 -31.5122 -31.4998 -31.4871 -31.4540 -31.4457
   -31.4407 -31.4344 -31.4024 -31.3730 -31.3187 -31.2888 -31.2668 -31.2556
   -18.9997 -16.3241 -16.3215 -16.2662 -16.2646 -16.1815 -16.0248 -16.0191
   -15.7708 -15.7410 -15.5431 -15.5052 -15.4562 -15.4025 -15.3639 -15.3620
   -15.2226 -15.2111 -15.1075 -15.0268 -15.0047 -14.9727 -14.9615 -14.9415
   -14.9350 -14.8628 -14.7800 -14.7166 -14.7033 -14.5378 -14.4551 -13.9007
   -13.9000 -13.6316  -6.2844  -5.0129  -3.9600  -3.8045  -3.5979  -3.3890
    -3.3870  -3.3820  -3.3738  -3.1451  -3.1346  -2.9595  -2.9537  -2.9277
    -2.8670  -2.8548  -2.7485  -2.6801  -2.6754  -2.6663  -2.6397  -2.6149
    -2.6092  -2.5445  -2.4882  -2.3799  -2.3561  -2.3210  -2.3015  -2.2876
    -2.1676  -2.1420  -2.1310  -2.1017  -2.0865  -2.0718  -2.0352  -2.0100
    -1.8554  -1.8210  -1.7123  -1.6987  -1.6777  -1.6339  -1.6164  -1.5957
    -1.5687  -1.5357  -1.5313  -1.4450  -1.4209  -1.3631  -1.2817  -1.2031
    -1.1556  -1.1422  -1.0808  -1.0303  -0.9197  -0.8951  -0.8594  -0.8398
    -0.8104  -0.7546  -0.7213  -0.6310  -0.5311  -0.5060  -0.4811  -0.4783
    -0.4419  -0.4131  -0.3851  -0.2687  -0.2555  -0.2444  -0.1436  -0.0483
     0.0353   0.0963   0.1105   0.1907   0.2842   0.3293   0.3933   0.4452
     0.4920   0.5136   0.6889   0.7396   0.8609   0.8792   0.9175   0.9789
     0.9921   0.9964   1.0187   1.0298   1.0573   1.1368   1.5560   1.7942
     3.0377   3.0406   3.0967   3.1029   3.4067   3.4101   3.5153   3.5179
     3.8013   3.8128

     the Fermi energy is     2.2248 ev

!    total energy              =   -2970.22395747 Ry
     estimated scf accuracy    <       0.00000007 Ry
     smearing contrib. (-TS)   =      -0.00324291 Ry
     internal energy E=F+TS    =   -2970.22071456 Ry

     The total energy is F=E-TS. E is the sum of the following terms:
     one-electron contribution =  -23878.32900992 Ry
     hartree contribution      =   12030.41035435 Ry
     xc contribution           =    -491.46231496 Ry
     ewald contribution        =    9369.16006812 Ry
     electric field correction =       0.00018785 Ry

     convergence has been achieved in  69 iterations

     Forces acting on atoms (cartesian axes, Ry/au):

     atom    1 type  1   force =     0.00005978   -0.00042447    0.12344036
     atom    2 type  1   force =    -0.00004346    0.00024884   -0.15533197
     atom    3 type  2   force =     0.00000856   -0.00007170   -0.06324333
     atom    4 type  2   force =     0.00000758    0.00024762    0.01786283
     atom    5 type  2   force =    -0.00299820   -0.00167723   -0.01291325
     atom    6 type  2   force =     0.00467734   -0.00105670   -0.01338497
     atom    7 type  1   force =    -0.00007469   -0.00671231    0.05756404
     atom    8 type  1   force =     0.00032739    0.01201696    0.09296259
     atom    9 type  2   force =    -0.00005587   -0.00009160   -0.00022955
     atom   10 type  2   force =    -0.00146710    0.00206325   -0.05868370
     atom   11 type  2   force =    -0.00006701    0.00037369   -0.00011223
     atom   12 type  2   force =    -0.00002927    0.00059256   -0.00005097
     atom   13 type  1   force =    -0.00017963    0.00089549   -0.00014301
     atom   14 type  1   force =    -0.00007651    0.00059381   -0.00023219
     atom   15 type  2   force =     0.00002034   -0.00067238   -0.00043752
     atom   16 type  2   force =    -0.00015003    0.00012806   -0.00135722
     atom   17 type  2   force =     0.00033491   -0.00004296   -0.00039466
     atom   18 type  2   force =    -0.00046628    0.00078848   -0.00052960
     atom   19 type  1   force =     0.00049673   -0.00026463    0.00108237
     atom   20 type  1   force =    -0.00040925    0.00073010   -0.00011397
     atom   21 type  2   force =     0.00003411    0.00021792    0.09799316
     atom   22 type  2   force =     0.00048580   -0.00017202    0.00112321
     atom   23 type  2   force =    -0.08220338    0.00004418   -0.03275602
     atom   24 type  2   force =     0.08208333    0.00048130   -0.03282797
     atom   25 type  1   force =     0.00009465   -0.00059783    0.12346327
     atom   26 type  1   force =    -0.00015836   -0.00150309   -0.15588939
     atom   27 type  2   force =     0.00006854   -0.00069477   -0.06146097
     atom   28 type  2   force =     0.00001974    0.00205759    0.01312604
     atom   29 type  2   force =    -0.00127996    0.00546887   -0.01608678
     atom   30 type  2   force =     0.00294762    0.00580167   -0.01653409
     atom   31 type  1   force =    -0.00011555    0.00211952    0.04139858
     atom   32 type  1   force =     0.00052829   -0.01544709    0.09265442
     atom   33 type  2   force =    -0.00021222   -0.00074306   -0.00066544
     atom   34 type  2   force =    -0.00141183    0.00203229   -0.07254762
     atom   35 type  2   force =     0.00016602   -0.00080422    0.00004498
     atom   36 type  2   force =    -0.00020975   -0.00091304    0.00009328
     atom   37 type  1   force =    -0.00023285   -0.00112129   -0.00023010
     atom   38 type  1   force =    -0.00008581   -0.00146353    0.00083852
     atom   39 type  2   force =     0.00036439   -0.00047002    0.00011429
     atom   40 type  2   force =    -0.00003915   -0.00067412   -0.00141027
     atom   41 type  2   force =     0.00065556   -0.00018990    0.00002313
     atom   42 type  2   force =    -0.00037014    0.00003127    0.00052345
     atom   43 type  1   force =     0.00048095    0.00002703   -0.00634863
     atom   44 type  1   force =    -0.00026845    0.00022501   -0.00113682
     atom   45 type  2   force =     0.00002557    0.00002427    0.09776356
     atom   46 type  2   force =    -0.08227371   -0.00001196   -0.03278856
     atom   47 type  2   force =     0.08212451    0.00043820   -0.03280216
     atom   48 type  3   force =    -0.00059701   -0.00059086   -0.00045876
     atom   49 type  3   force =     0.00031844    0.00056668    0.00107690
     atom   50 type  4   force =     0.00138763    0.00027274   -0.00081476
     atom   51 type  5   force =    -0.00130941   -0.00055099    0.00098099
     atom   52 type  2   force =    -0.00834983   -0.00017429    0.01118100
     atom   53 type  5   force =     0.00741696   -0.00135132   -0.00339446

     Total force =     0.412776     Total SCF correction =     0.000657
  @ DRIVER MODE: Message from server: STATUS
  @ DRIVER MODE: Message from server: GETFORCE
  @ DRIVER MODE: Returning v,forces,stress,ensemble

     Writing output data file ./calc.save/
  @ DRIVER MODE: Message from server: EXIT
  @ DRIVE MODE: Exiting

     General routines

     Parallel routines

   This run was terminated on:  20:40:12  22Sep2021

   JOB DONE.