     Program PWSCF v.6.7GPU starts on 16Sep2021 at 14:39:15

     R & G space division:  proc/nbgrp/npool/nimage =      10
     Reading input from /storage/home/hcoda1/3/ntian30/research/carbon/CxH_vib/H2O_calc/ads_slab/CH3NNH3H2O_a/out_0065/pw.inp
Warning: card &CELL ignored
Warning: card   CELL_DYNAMICS='IPI', ignored
Warning: card / ignored

     Current dimensions of program PWSCF are:
     Max number of different atomic species (ntypx) = 10
     Max number of k-points (npk) =  40000
     Max angular momentum in pseudopotentials (lmaxx) =  3
     Presently no symmetry can be used with electric field

     Message from routine cell_base_init:
     DEPRECATED: use true lattice parameter, not A to a.u. conversion factor

     IMPORTANT: XC functional enforced from input :
     Exchange-correlation= BEEF-VDW
                           (   1   4  43  14   2   0   0)
     Any further DFT definition will be discarded
     Please, verify this is what you really want

  @ DRIVER MODE: Connecting to
 qe_1139763_2852621.sched-torque.pace.gatech.edu1xa70_f6_scratch
  using UNIX socket
  @ DRIVER MODE: Message from server: STATUS
  @ DRIVER MODE: Message from server: INIT
  @ DRIVER MODE: Receiving replica           0          -1
  @ DRIVER MODE: Receiving encoded integer          25
  @ DRIVER MODE:  SCF:  T  FORCE:  T  STRESS:  F  VC:  F  ENSEMBLE:  F
  @ DRIVER MODE:  SCF:  T  FORCE:  T  STRESS:  F  VC:  F  ENSEMBLE:  F

     Using Slab Decomposition

     bravais-lattice index     =            0
     lattice parameter (alat)  =       1.8897  a.u.
     unit-cell volume          =    6658.9804 (a.u.)^3
     number of atoms/cell      =           59
     number of atomic types    =            5
     number of electrons       =       406.00
     number of Kohn-Sham states=          213
     kinetic-energy cutoff     =      29.3995  Ry
     charge density cutoff     =     293.9946  Ry
     scf convergence threshold =      7.3E-08
     mixing beta               =       0.0500
     number of iterations used =            8  plain     mixing
     Exchange-correlation= BEEF-VDW
                           (   1   4  43  14   2   0   0)

     celldm(1)=   1.889726  celldm(2)=   0.000000  celldm(3)=   0.000000
     celldm(4)=   0.000000  celldm(5)=   0.000000  celldm(6)=   0.000000

     crystal axes: (cart. coord. in units of alat)
               a(1) = (   6.579727   0.000000   0.000000 )
               a(2) = (  -0.000775   5.961596   0.000000 )
               a(3) = (   0.000000   0.000000  25.155947 )

     reciprocal axes: (cart. coord. in units 2 pi/alat)
               b(1) = (  0.151982  0.000020  0.000000 )
               b(2) = (  0.000000  0.167740  0.000000 )
               b(3) = (  0.000000  0.000000  0.039752 )

     PseudoPot. # 1 for Ti read from file:
     /storage/coda1/p-amedford6/0/shared/rich_project_chbe-medford/medford-share/data/pseudos_module/espresso/nninc/pbe/van/Ti.UPF
     MD5 check sum: 8e4df49b7f0d34bbd5052bf3f5ea0213
     Pseudo is Ultrasoft, Zval = 12.0
     Generated by new atomic code, or converted to UPF format
     Using radial grid of  851 points,  6 beta functions with:
                l(1) =   0
                l(2) =   0
                l(3) =   1
                l(4) =   1
                l(5) =   2
                l(6) =   2
     Q(r) pseudized with  8 coefficients,  rinner =    1.000   1.000   1.000
                                                       1.000   1.000

     PseudoPot. # 2 for O  read from file:
     /storage/coda1/p-amedford6/0/shared/rich_project_chbe-medford/medford-share/data/pseudos_module/espresso/nninc/pbe/van/O.UPF
     MD5 check sum: 78c19812648e8988a0fe644b0f25305e
     Pseudo is Ultrasoft, Zval =  6.0
     Generated by new atomic code, or converted to UPF format
     Using radial grid of  737 points,  4 beta functions with:
                l(1) =   0
                l(2) =   0
                l(3) =   1
                l(4) =   1
     Q(r) pseudized with  8 coefficients,  rinner =    0.800   0.800   0.800

     PseudoPot. # 3 for N  read from file:
     /storage/coda1/p-amedford6/0/shared/rich_project_chbe-medford/medford-share/data/pseudos_module/espresso/nninc/pbe/van/N.UPF
     MD5 check sum: 90d10febe142ad51ac9d5be1deb811c4
     Pseudo is Ultrasoft, Zval =  5.0
     Generated by new atomic code, or converted to UPF format
     Using radial grid of  729 points,  4 beta functions with:
                l(1) =   0
                l(2) =   0
                l(3) =   1
                l(4) =   1
     Q(r) pseudized with  8 coefficients,  rinner =    0.800   0.800   0.800

     PseudoPot. # 4 for C  read from file:
     /storage/coda1/p-amedford6/0/shared/rich_project_chbe-medford/medford-share/data/pseudos_module/espresso/nninc/pbe/van/C.UPF
     MD5 check sum: 1a69bf6b8db32088f5b2163dbdb77a27
     Pseudo is Ultrasoft, Zval =  4.0
     Generated by new atomic code, or converted to UPF format
     Using radial grid of  721 points,  4 beta functions with:
                l(1) =   0
                l(2) =   0
                l(3) =   1
                l(4) =   1
     Q(r) pseudized with  8 coefficients,  rinner =    0.800   0.800   0.800

     PseudoPot. # 5 for H  read from file:
     /storage/coda1/p-amedford6/0/shared/rich_project_chbe-medford/medford-share/data/pseudos_module/espresso/nninc/pbe/van/H.UPF
     MD5 check sum: b5ee9d7bfd3a09ee7748110bda690ff7
     Pseudo is Ultrasoft, Zval =  1.0
     Generated by new atomic code, or converted to UPF format
     Using radial grid of  615 points,  1 beta functions with:
                l(1) =   0
     Q(r) pseudized with  8 coefficients,  rinner =    0.800

     atomic species   valence    mass     pseudopotential
        Ti1           12.00    47.86700     Ti( 1.00)
        O1             6.00    15.99900     O ( 1.00)
        N1             5.00    14.00700     N ( 1.00)
        C1             4.00    12.01100     C ( 1.00)
        H1             1.00     1.00800     H ( 1.00)

     No symmetry found

   Cartesian axes

     site n.     atom                  positions (alat units)
         1           Ti1 tau(   1) = (   0.0004258   2.9801865   6.0000000  )
         2           Ti1 tau(   2) = (   3.2906075   1.4906267   6.0002472  )
         3           O1  tau(   3) = (   0.0006271   0.0005054   7.9858123  )
         4           O1  tau(   4) = (   3.2906025   0.0005020   7.3038282  )
         5           O1  tau(   5) = (   4.5942328   1.4918067   9.2879030  )
         6           O1  tau(   6) = (   1.9868534   1.4903216   9.2879459  )
         7           Ti1 tau(   7) = (   3.2907910   2.8959150   9.1758416  )
         8           Ti1 tau(   8) = (   0.0015273   1.4827037   9.2680791  )
         9           O1  tau(   9) = (   3.2954490   0.0159868  11.2922163  )
        10           O1  tau(  10) = (   0.0116148   5.9584955  10.6183126  )
        11           O1  tau(  11) = (   1.3242731   1.5050266  12.6143764  )
        12           O1  tau(  12) = (   5.3073597   1.5103589  12.6267567  )
        13           Ti1 tau(  13) = (   6.4831477   3.0011104  12.7364612  )
        14           Ti1 tau(  14) = (   3.1751638   1.4975352  12.4748964  )
        15           O1  tau(  15) = (   0.0212859   5.9607631  14.5987152  )
        16           O1  tau(  16) = (   3.3058086   0.0238703  13.8910224  )
        17           O1  tau(  17) = (   4.5539421   1.5574750  15.9960573  )
        18           O1  tau(  18) = (   2.0731809   1.5597727  15.9888445  )
        19           Ti1 tau(  19) = (   3.3176354   3.0289328  15.6523405  )
        20           Ti1 tau(  20) = (   0.0198791   1.6227889  16.0606591  )
        21           O1  tau(  21) = (   3.2904802   0.0005063   4.7018136  )
        22           O1  tau(  22) = (   0.0290054   0.0533443  17.2129705  )
        23           O1  tau(  23) = (   1.3043587   1.4918075   6.0039043  )
        24           O1  tau(  24) = (   5.2767064   1.4903225   6.0039473  )
        25           Ti1 tau(  25) = (   0.0000382   5.9609847   6.0000000  )
        26           Ti1 tau(  26) = (   3.2902200   4.4714249   6.0002472  )
        27           O1  tau(  27) = (   0.0002396   2.9813036   7.9858123  )
        28           O1  tau(  28) = (   3.2902150   2.9813002   7.3038282  )
        29           O1  tau(  29) = (   4.5938453   4.4726049   9.2879030  )
        30           O1  tau(  30) = (   1.9864658   4.4711199   9.2879459  )
        31           Ti1 tau(  31) = (   3.2891106   5.8743827   9.1763621  )
        32           Ti1 tau(  32) = (   0.0006254   4.4649316   9.2693709  )
        33           O1  tau(  33) = (   3.2918316   2.9938763  11.2915017  )
        34           O1  tau(  34) = (   0.0092240   2.9805883  10.6323155  )
        35           O1  tau(  35) = (   1.3226278   4.4784642  12.6110361  )
        36           O1  tau(  36) = (   5.3078083   4.4770455  12.6250823  )
        37           Ti1 tau(  37) = (   6.5141033   0.0190828  12.7620745  )
        38           Ti1 tau(  38) = (   3.1722404   4.4939287  12.4712879  )
        39           O1  tau(  39) = (   0.0035410   2.9850241  14.6487316  )
        40           O1  tau(  40) = (   3.3118331   3.0109266  13.8519036  )
        41           O1  tau(  41) = (   4.5522870   4.5059159  16.0259181  )
        42           O1  tau(  42) = (   2.0778134   4.5048723  16.0185459  )
        43           Ti1 tau(  43) = (   3.3116469   0.0596163  15.7453941  )
        44           Ti1 tau(  44) = (   0.0183239   4.5967015  16.1059876  )
        45           O1  tau(  45) = (   3.2900926   2.9813045   4.7018136  )
        46           O1  tau(  46) = (   1.3039711   4.4726057   6.0039043  )
        47           O1  tau(  47) = (   5.2763189   4.4711207   6.0039473  )
        48           N1  tau(  48) = (   0.0600715   3.0265251  17.3188267  )
        49           N1  tau(  49) = (   6.2826239   2.5295367  22.6224490  )
        50           C1  tau(  50) = (   0.2859397   3.0149959  18.7399364  )
        51           H1  tau(  51) = (   0.1411154   4.0060466  19.1894648  )
        52           H1  tau(  52) = (   6.1913215   2.3105648  19.2421896  )
        53           H1  tau(  53) = (   1.3125146   2.6868920  18.9691123  )
        54           H1  tau(  54) = (   6.1000088   3.2491606  23.3142794  )
        55           H1  tau(  55) = (   0.1456284   1.7586669  23.1118534  )
        56           H1  tau(  56) = (   0.3974265   2.9048463  21.9856970  )
        57           O1  tau(  57) = (   3.2908421   0.1144680  18.1630233  )
        58           H1  tau(  58) = (   4.0679411   5.5688996  18.4386002  )
        59           H1  tau(  59) = (   2.5060966   5.5711546  18.4327789  )

     number of k points=    10  Fermi-Dirac smearing, width (Ry)=  0.0073
                       cart. coord. in units 2pi/alat
        k(    1) = (   0.0000000   0.0000000   0.0000000), wk =   0.1250000
        k(    2) = (   0.0000000   0.0419351   0.0000000), wk =   0.2500000
        k(    3) = (   0.0000000  -0.0838702   0.0000000), wk =   0.1250000
        k(    4) = (   0.0379955   0.0000049   0.0000000), wk =   0.2500000
        k(    5) = (   0.0379955   0.0419400   0.0000000), wk =   0.2500000
        k(    6) = (   0.0379955  -0.0838652   0.0000000), wk =   0.2500000
        k(    7) = (   0.0379955  -0.0419301   0.0000000), wk =   0.2500000
        k(    8) = (  -0.0759910  -0.0000099   0.0000000), wk =   0.1250000
        k(    9) = (  -0.0759910   0.0419252   0.0000000), wk =   0.2500000
        k(   10) = (  -0.0759910  -0.0838800   0.0000000), wk =   0.1250000

     Initial potential from superposition of free atoms

     starting charge  389.99912, renormalised to  406.00000

     negative rho (up, down):  6.918E-03 0.000E+00

     %%%%%%%%%%%%%%%%%%%%%%%%%%%%%%%%%%%%%%%%%%%%%%%%%%%%%%%%%%%%%%%%%%%%%%%%
     %                                                                      %
     % You are using vdW-DF, which was implemented by the Thonhauser group. %
     % Please cite the following two papers that made this development      %
     % possible and the two reviews that describe the various versions:     %
     %                                                                      %
     %   T. Thonhauser et al., PRL 115, 136402 (2015).                      %
     %   T. Thonhauser et al., PRB 76, 125112 (2007).                       %
     %   K. Berland et al., Rep. Prog. Phys. 78, 066501 (2015).             %
     %   D.C. Langreth et al., J. Phys.: Condens. Matter 21, 084203 (2009). %
     %                                                                      %
     %                                                                      %
     % If you are calculating the stress with vdW-DF, please also cite:     %
     %                                                                      %
     %   R. Sabatini et al., J. Phys.: Condens. Matter 24, 424209 (2012).   %
     %                                                                      %
     %%%%%%%%%%%%%%%%%%%%%%%%%%%%%%%%%%%%%%%%%%%%%%%%%%%%%%%%%%%%%%%%%%%%%%%%

     Adding external electric field

     Computed dipole along edir(3) :
        Dipole              -16.2328 Ry au,        -41.2597 Debye
        Dipole field         -0.0306 Ry au,

        Potential amp.        2.8397 Ry
        Total length         46.3494 bohr

     Starting wfcs are  308 atomic wfcs
  @ DRIVER MODE: Message from server: STATUS
  @ DRIVER MODE: Message from server: POSDATA
  @ DRIVER MODE: Reading and sharing cell
  @ DRIVER MODE: Reading and sharing positions
  @ DRIVER MODE: Received positions

     Self-consistent Calculation

     iteration #  1     ecut=    29.40 Ry     beta= 0.05
     Davidson diagonalization with overlap
     c_bands:  2 eigenvalues not converged
     c_bands:  3 eigenvalues not converged
     c_bands:  5 eigenvalues not converged
     c_bands:  3 eigenvalues not converged
     c_bands:  3 eigenvalues not converged
     c_bands:  3 eigenvalues not converged
     c_bands:  1 eigenvalues not converged
     c_bands:  4 eigenvalues not converged
     c_bands:  3 eigenvalues not converged
     ethr =  1.00E-05,  avg # of iterations = 20.6

[...]

     total energy              =   -2253.94982936 Ry
     estimated scf accuracy    <    8257.87674571 Ry

     iteration #  2     ecut=    29.40 Ry     beta= 0.05
     Davidson diagonalization with overlap
     ethr =  1.00E-02,  avg # of iterations = 24.8

[...]

     iteration # 62     ecut=    29.40 Ry     beta= 0.05
     Davidson diagonalization with overlap
     c_bands:  1 eigenvalues not converged
     ethr =  2.24E-06,  avg # of iterations = 14.3

[...]

     total energy              =   -2977.74437642 Ry
     estimated scf accuracy    <       0.00000009 Ry

     iteration # 84     ecut=    29.40 Ry     beta= 0.05
     Davidson diagonalization with overlap
     ethr =  2.33E-11,  avg # of iterations =  4.7

     negative rho (up, down):  8.784E-03 0.000E+00

     Adding external electric field

     Computed dipole along edir(3) :
        Dipole                0.7614 Ry au,          1.9353 Debye
        Dipole field          0.0014 Ry au,

        Potential amp.       -0.1332 Ry
        Total length         46.3494 bohr

     End of self-consistent calculation

          k = 0.0000 0.0000 0.0000 ( 18029 PWs)   bands (ev):

   -56.2644 -56.2308 -55.3819 -55.3480 -55.3395 -55.3045 -55.1569 -55.1216
   -55.0348 -54.9143 -54.8961 -54.8947 -54.8804 -54.8097 -54.3936 -54.3437
   -32.6911 -32.5387 -32.5105 -32.4406 -32.3497 -32.3173 -31.8497 -31.8217
   -31.6923 -31.6476 -31.5989 -31.5808 -31.5508 -31.5415 -31.5126 -31.5076
   -31.4889 -31.4827 -31.4604 -31.4459 -31.4329 -31.3835 -31.3733 -31.3346
   -31.3221 -31.3052 -31.2966 -31.2832 -31.2591 -31.2582 -31.2537 -31.2295
   -31.1350 -31.1242 -31.0845 -31.0740 -31.0466 -31.0411 -31.0325 -31.0139
   -30.9832 -30.9302 -30.9081 -30.6372 -30.6151 -30.5837 -30.5628 -30.4540
   -18.4598 -16.4201 -15.9541 -15.7109 -15.6210 -15.5379 -15.4990 -15.4550
   -15.3034 -15.2355 -15.2128 -15.2125 -15.1420 -14.9939 -14.9464 -14.8485
   -14.7551 -14.6202 -14.6032 -14.5696 -14.5525 -14.5192 -14.5121 -14.4605
   -14.2971 -14.2614 -14.2131 -14.1505 -14.0648 -14.0351 -13.8399 -13.4126
   -13.3029 -12.6452  -7.4504  -6.2619  -4.1012  -4.0807  -3.9874  -3.4537
    -3.1843  -3.1568  -3.0281  -3.0235  -2.9781  -2.8372  -2.8268  -2.7564
    -2.7330  -2.6905  -2.6195  -2.5846  -2.5355  -2.4478  -2.4353  -2.4153
    -2.4014  -2.3859  -2.2649  -2.2230  -2.1711  -2.0676  -1.9593  -1.9164
    -1.8893  -1.8453  -1.8074  -1.7601  -1.7482  -1.7332  -1.7265  -1.6151
    -1.5009  -1.4685  -1.4537  -1.4070  -1.3895  -1.3801  -1.3586  -1.2731
    -1.1645  -1.0703  -1.0030  -0.9912  -0.9228  -0.9149  -0.8560  -0.7407
    -0.6794  -0.6749  -0.6588  -0.5550  -0.5285  -0.4573  -0.3947  -0.3363
    -0.2817  -0.2190  -0.1689  -0.1459  -0.1334  -0.0343   0.0374   0.0606
     0.1119   0.1214   0.1307   0.1511   0.2477   0.2833   0.3569   0.4014
     0.4378   0.4815   0.5650   0.6151   0.6830   0.7327   0.7557   0.8169
     0.8708   0.9263   1.0213   1.0747   1.0780   1.0856   1.1075   1.1676
     1.1815   1.2574   1.3405   1.3560   1.4282   1.4967   1.6575   1.6967
     1.9470   2.0178   2.6448   3.0129   3.1741   3.4692   3.6589   3.7964
     3.9919   4.0024   4.0095   4.2354   4.2592

[...]

          k = 0.0380-0.0419 0.0000 ( 17876 PWs)   bands (ev):

[...]

          k =-0.0760-0.0000 0.0000 ( 17886 PWs)   bands (ev):

[...]

          k =-0.0760-0.0839 0.0000 ( 17948 PWs)   bands (ev):

   -56.2478 -56.2472 -55.3669 -55.3626 -55.3269 -55.3172 -55.1403 -55.1380
   -55.0325 -54.8973 -54.8972 -54.8968 -54.8925 -54.8132 -54.3865 -54.3507
   -32.5246 -32.5242 -32.5082 -32.5079 -32.3938 -32.3934 -31.6733 -31.6675
   -31.6575 -31.6501 -31.5737 -31.5587 -31.5569 -31.5526 -31.5463 -31.5448
   -31.5388 -31.5302 -31.4984 -31.4819 -31.3859 -31.3838 -31.3501 -31.3444
   -31.3251 -31.2888 -31.2507 -31.2426 -31.2424 -31.2421 -31.2176 -31.1956
   -31.1527 -31.1221 -31.1219 -31.1186 -31.0958 -31.0829 -31.0828 -31.0683
   -31.0514 -31.0160 -30.7689 -30.7061 -30.6129 -30.5885 -30.5707 -30.5244
   -18.4589 -15.7707 -15.7687 -15.7335 -15.7328 -15.4659 -15.4626 -15.3693
   -15.3640 -15.2297 -15.1127 -15.0109 -14.9981 -14.9627 -14.9356 -14.8238
   -14.8030 -14.7938 -14.7837 -14.6725 -14.6523 -14.6066 -14.5956 -14.5796
   -14.5691 -14.2751 -14.2621 -14.1590 -14.1353 -14.0344 -13.9931 -13.4065
   -13.4065 -12.6638  -7.4441  -6.2544  -4.1112  -4.0825  -2.8659  -2.8601
    -2.8163  -2.8056  -2.8047  -2.7439  -2.6406  -2.6003  -2.5988  -2.5970
    -2.5134  -2.4492  -2.4413  -2.3697  -2.3370  -2.3177  -2.2594  -2.2485
    -2.1835  -2.1572  -2.1489  -2.1323  -2.1088  -2.1075  -2.0117  -1.9491
    -1.8972  -1.8938  -1.8265  -1.8089  -1.7444  -1.7232  -1.7117  -1.6800
    -1.6385  -1.6159  -1.5832  -1.5500  -1.5091  -1.4498  -1.2828  -1.2737
    -1.2645  -1.2430  -1.1181  -1.1119  -1.0796  -1.0494  -1.0437  -0.9702
    -0.9207  -0.8850  -0.8290  -0.7441  -0.7216  -0.6199  -0.5688  -0.5226
    -0.4663  -0.3603  -0.3427  -0.3323  -0.3228  -0.2926  -0.2264  -0.1972
    -0.1813  -0.0610  -0.0415   0.0118   0.0327   0.0896   0.1155   0.1792
     0.2068   0.2786   0.2903   0.3294   0.4033   0.4846   0.5189   0.5672
     0.5718   0.8479   0.9218   1.0524   1.0681   1.1195   1.1780   1.2497
     1.3091   1.3416   1.3682   1.4917   1.4960   1.5053   1.5058   1.5772
     1.5822   1.9247   2.5221   3.5886   3.5889   3.6555   3.6562   3.9768
     3.9831   4.0900   4.1003   4.2613   4.2761

     the Fermi energy is     2.8408 ev

!    total energy              =   -2977.74439558 Ry
     estimated scf accuracy    <       0.00000006 Ry
     smearing contrib. (-TS)   =      -0.00445846 Ry
     internal energy E=F+TS    =   -2977.73993712 Ry

     The total energy is F=E-TS. E is the sum of the following terms:
     one-electron contribution =  -22876.42987367 Ry
     hartree contribution      =   11535.90423721 Ry
     xc contribution           =    -496.32966806 Ry
     ewald contribution        =    8859.11427333 Ry
     electric field correction =       0.00109406 Ry

     convergence has been achieved in  84 iterations

     Forces acting on atoms (cartesian axes, Ry/au):

     atom    1 type  1   force =    -0.00003671   -0.00046604    0.12451679
     atom    2 type  1   force =    -0.00007940   -0.00049127   -0.15978173
     atom    3 type  2   force =     0.00019133   -0.00024418   -0.06791615
     atom    4 type  2   force =    -0.00000623   -0.00011641    0.02621632
     atom    5 type  2   force =    -0.01448630    0.00181658   -0.00991296
     atom    6 type  2   force =     0.01626566    0.00224145   -0.01025646
     atom    7 type  1   force =     0.00071884   -0.00387055    0.02887557
     atom    8 type  1   force =    -0.00035170   -0.00439611    0.10954085
     atom    9 type  2   force =     0.00023805   -0.00029169   -0.00050414
     atom   10 type  2   force =    -0.00231457    0.00256472   -0.07333114
     atom   11 type  2   force =    -0.00002475   -0.00033803   -0.00000569
     atom   12 type  2   force =    -0.00015613   -0.00082792    0.00001837
     atom   13 type  1   force =     0.00107133   -0.00040592    0.00012457
     atom   14 type  1   force =    -0.00065628    0.00063660   -0.00011395
     atom   15 type  2   force =    -0.00029387   -0.00039772   -0.00076215
     atom   16 type  2   force =    -0.00001256   -0.00011985    0.00066349
     atom   17 type  2   force =     0.00015725   -0.00093461   -0.00018334
     atom   18 type  2   force =     0.00050974   -0.00046516    0.00006746
     atom   19 type  1   force =    -0.00122357   -0.00020524   -0.00095046
     atom   20 type  1   force =     0.00084773   -0.00010384   -0.00043079
     atom   21 type  2   force =     0.00004589   -0.00003799    0.09939968
     atom   22 type  2   force =    -0.00002311   -0.00024722   -0.00042036
     atom   23 type  2   force =    -0.07967266   -0.00005892   -0.03248950
     atom   24 type  2   force =     0.07951844    0.00037796   -0.03253658
     atom   25 type  1   force =    -0.00001090   -0.00057203    0.12416482
     atom   26 type  1   force =    -0.00008059   -0.00061634   -0.15993044
     atom   27 type  2   force =     0.00030013   -0.00036421   -0.06696643
     atom   28 type  2   force =    -0.00001980    0.00015103    0.02515066
     atom   29 type  2   force =    -0.01511016    0.00192749   -0.00984914
     atom   30 type  2   force =     0.01678652    0.00242815   -0.01016204
     atom   31 type  1   force =     0.00074489   -0.00075533    0.02405204
     atom   32 type  1   force =    -0.00027577    0.00204720    0.11016673
     atom   33 type  2   force =     0.00007775    0.00029444    0.00059244
     atom   34 type  2   force =    -0.00193733    0.00199976   -0.07164690
     atom   35 type  2   force =    -0.00001697    0.00034359   -0.00001810
     atom   36 type  2   force =    -0.00053604    0.00061102   -0.00005894
     atom   37 type  1   force =     0.00120929    0.00043021    0.00029017
     atom   38 type  1   force =    -0.00055129   -0.00087806   -0.00023905
     atom   39 type  2   force =    -0.00028778   -0.00013624    0.00088372
     atom   40 type  2   force =     0.00018558   -0.00012201    0.00025617
     atom   41 type  2   force =     0.00101795    0.00022450    0.00030714
     atom   42 type  2   force =    -0.00045671   -0.00026135    0.00053487
     atom   43 type  1   force =    -0.00183490    0.00019135   -0.00039828
     atom   44 type  1   force =     0.00100373   -0.00017843   -0.00037067
     atom   45 type  2   force =     0.00002143   -0.00004635    0.09937305
     atom   46 type  2   force =    -0.07968857    0.00000512   -0.03250219
     atom   47 type  2   force =     0.07954122    0.00043783   -0.03252841
     atom   48 type  3   force =    -0.00088664   -0.00076080   -0.00049678
     atom   49 type  3   force =    -0.00034825   -0.00049186    0.00130230
     atom   50 type  4   force =    -0.00024153   -0.00008833    0.00011632
     atom   51 type  5   force =    -0.00021107    0.00036772    0.00027073
     atom   52 type  5   force =    -0.00006134   -0.00053377    0.00072243
     atom   53 type  5   force =     0.00051043   -0.00014872    0.00019414
     atom   54 type  5   force =     0.00006528   -0.00023599   -0.00060235
     atom   55 type  5   force =     0.00002963    0.00031746   -0.00029983
     atom   56 type  5   force =     0.00029229    0.00036516   -0.00181327
     atom   57 type  2   force =    -0.00281842    0.00281949   -0.00259813
     atom   58 type  5   force =     0.00364785   -0.00230771    0.00222586
     atom   59 type  5   force =    -0.00028635   -0.00008263    0.00004966

     Total force =     0.423535     Total SCF correction =     0.000723
  @ DRIVER MODE: Message from server: STATUS
  @ DRIVER MODE: Message from server: GETFORCE
  @ DRIVER MODE: Returning v,forces,stress,ensemble

     Writing output data file ./calc.save/
  @ DRIVER MODE: Message from server: EXIT
  @ DRIVE MODE: Exiting

     General routines

     Parallel routines

   This run was terminated on:  15: 1:42  16Sep2021

   JOB DONE.