     Program PWSCF v.6.7GPU starts on 23Sep2021 at  1:25:34

     R & G space division:  proc/nbgrp/npool/nimage =      10
     Reading input from /storage/home/hcoda1/3/ntian30/research/carbon/CxH_vib/H2O_calc/ads_slab/CH3OHO_a/out_0029/pw.inp
Warning: card &CELL ignored
Warning: card   CELL_DYNAMICS='IPI', ignored
Warning: card / ignored

     Current dimensions of program PWSCF are:
     Max number of different atomic species (ntypx) = 10
     Max number of k-points (npk) =  40000
     Max angular momentum in pseudopotentials (lmaxx) =  3
     Presently no symmetry can be used with electric field

     Message from routine cell_base_init:
     DEPRECATED: use true lattice parameter, not A to a.u. conversion factor

     IMPORTANT: XC functional enforced from input :
     Exchange-correlation= BEEF-VDW
                           (   1   4  43  14   2   0   0)
     Any further DFT definition will be discarded
     Please, verify this is what you really want

  @ DRIVER MODE: Connecting to
 qe_1139763_2937320.sched-torque.pace.gatech.eduo0rftscf_scratch
  using UNIX socket
  @ DRIVER MODE: Message from server: STATUS
  @ DRIVER MODE: Message from server: INIT
  @ DRIVER MODE: Receiving replica           0          -1
  @ DRIVER MODE: Receiving encoded integer          25
  @ DRIVER MODE:  SCF:  T  FORCE:  T  STRESS:  F  VC:  F  ENSEMBLE:  F
  @ DRIVER MODE:  SCF:  T  FORCE:  T  STRESS:  F  VC:  F  ENSEMBLE:  F

     Using Slab Decomposition

     bravais-lattice index     =            0
     lattice parameter (alat)  =       1.8897  a.u.
     unit-cell volume          =    6658.9804 (a.u.)^3
     number of atoms/cell      =           54
     number of atomic types    =            4
     number of electrons       =       398.00
     number of Kohn-Sham states=          209
     kinetic-energy cutoff     =      29.3995  Ry
     charge density cutoff     =     293.9946  Ry
     scf convergence threshold =      7.3E-08
     mixing beta               =       0.0500
     number of iterations used =            8  plain     mixing
     Exchange-correlation= BEEF-VDW
                           (   1   4  43  14   2   0   0)

     celldm(1)=   1.889726  celldm(2)=   0.000000  celldm(3)=   0.000000
     celldm(4)=   0.000000  celldm(5)=   0.000000  celldm(6)=   0.000000

     crystal axes: (cart. coord. in units of alat)
               a(1) = (   6.579727   0.000000   0.000000 )
               a(2) = (  -0.000775   5.961596   0.000000 )
               a(3) = (   0.000000   0.000000  25.155947 )

     reciprocal axes: (cart. coord. in units 2 pi/alat)
               b(1) = (  0.151982  0.000020  0.000000 )
               b(2) = (  0.000000  0.167740  0.000000 )
               b(3) = (  0.000000  0.000000  0.039752 )

     PseudoPot. # 1 for Ti read from file:
     /storage/coda1/p-amedford6/0/shared/rich_project_chbe-medford/medford-share/data/pseudos_module/espresso/nninc/pbe/van/Ti.UPF
     MD5 check sum: 8e4df49b7f0d34bbd5052bf3f5ea0213
     Pseudo is Ultrasoft, Zval = 12.0
     Generated by new atomic code, or converted to UPF format
     Using radial grid of  851 points,  6 beta functions with:
                l(1) =   0
                l(2) =   0
                l(3) =   1
                l(4) =   1
                l(5) =   2
                l(6) =   2
     Q(r) pseudized with  8 coefficients,  rinner =    1.000   1.000   1.000
                                                       1.000   1.000

     PseudoPot. # 2 for O  read from file:
     /storage/coda1/p-amedford6/0/shared/rich_project_chbe-medford/medford-share/data/pseudos_module/espresso/nninc/pbe/van/O.UPF
     MD5 check sum: 78c19812648e8988a0fe644b0f25305e
     Pseudo is Ultrasoft, Zval =  6.0
     Generated by new atomic code, or converted to UPF format
     Using radial grid of  737 points,  4 beta functions with:
                l(1) =   0
                l(2) =   0
                l(3) =   1
                l(4) =   1
     Q(r) pseudized with  8 coefficients,  rinner =    0.800   0.800   0.800

     PseudoPot. # 3 for C  read from file:
     /storage/coda1/p-amedford6/0/shared/rich_project_chbe-medford/medford-share/data/pseudos_module/espresso/nninc/pbe/van/C.UPF
     MD5 check sum: 1a69bf6b8db32088f5b2163dbdb77a27
     Pseudo is Ultrasoft, Zval =  4.0
     Generated by new atomic code, or converted to UPF format
     Using radial grid of  721 points,  4 beta functions with:
                l(1) =   0
                l(2) =   0
                l(3) =   1
                l(4) =   1
     Q(r) pseudized with  8 coefficients,  rinner =    0.800   0.800   0.800

     PseudoPot. # 4 for H  read from file:
     /storage/coda1/p-amedford6/0/shared/rich_project_chbe-medford/medford-share/data/pseudos_module/espresso/nninc/pbe/van/H.UPF
     MD5 check sum: b5ee9d7bfd3a09ee7748110bda690ff7
     Pseudo is Ultrasoft, Zval =  1.0
     Generated by new atomic code, or converted to UPF format
     Using radial grid of  615 points,  1 beta functions with:
                l(1) =   0
     Q(r) pseudized with  8 coefficients,  rinner =    0.800

     atomic species   valence    mass     pseudopotential
        Ti1           12.00    47.86700     Ti( 1.00)
        O1             6.00    15.99900     O ( 1.00)
        C1             4.00    12.01100     C ( 1.00)
        H1             1.00     1.00800     H ( 1.00)

     No symmetry found

   Cartesian axes

     site n.     atom                  positions (alat units)
         1           Ti1 tau(   1) = (   0.0004258   2.9801865   6.0000000  )
         2           Ti1 tau(   2) = (   3.2906075   1.4906267   6.0002472  )
         3           O1  tau(   3) = (   0.0006271   0.0005054   7.9858123  )
         4           O1  tau(   4) = (   3.2906025   0.0005020   7.3038282  )
         5           O1  tau(   5) = (   4.5942328   1.4918067   9.2879030  )
         6           O1  tau(   6) = (   1.9868534   1.4903216   9.2879459  )
         7           Ti1 tau(   7) = (   3.2957662   3.1068914   9.2181075  )
         8           Ti1 tau(   8) = (   0.0157633   1.6119101   9.3474628  )
         9           O1  tau(   9) = (   3.3075722   0.0245345  11.3221904  )
        10           O1  tau(  10) = (   0.0080709   0.0223756  10.5933645  )
        11           O1  tau(  11) = (   1.2996580   1.5014007  12.6293879  )
        12           O1  tau(  12) = (   5.3220639   1.4985920  12.6296061  )
        13           Ti1 tau(  13) = (   0.0338638   3.0995910  12.8036746  )
        14           Ti1 tau(  14) = (   3.3037623   1.5692239  12.4279754  )
        15           O1  tau(  15) = (   0.0261714   0.0103614  14.6808343  )
        16           O1  tau(  16) = (   3.3158872   5.9294016  13.9235834  )
        17           O1  tau(  17) = (   4.5845781   1.5190771  16.0542726  )
        18           O1  tau(  18) = (   2.0543804   1.5366111  16.0227792  )
        19           Ti1 tau(  19) = (   3.3281905   2.9581697  15.6655982  )
        20           Ti1 tau(  20) = (   0.0947853   1.4300879  15.9722461  )
        21           O1  tau(  21) = (   3.2904802   0.0005063   4.7018136  )
        22           O1  tau(  22) = (   0.0746355   0.0166105  17.2029963  )
        23           O1  tau(  23) = (   1.3043587   1.4918075   6.0039043  )
        24           O1  tau(  24) = (   5.2767064   1.4903225   6.0039473  )
        25           Ti1 tau(  25) = (   0.0000382   5.9609847   6.0000000  )
        26           Ti1 tau(  26) = (   3.2902200   4.4714249   6.0002472  )
        27           O1  tau(  27) = (   0.0002396   2.9813036   7.9858123  )
        28           O1  tau(  28) = (   3.2902150   2.9813002   7.3038282  )
        29           O1  tau(  29) = (   4.5938453   4.4726049   9.2879030  )
        30           O1  tau(  30) = (   1.9864658   4.4711199   9.2879459  )
        31           Ti1 tau(  31) = (   3.3049890   0.1224192   9.1815931  )
        32           Ti1 tau(  32) = (   0.0115838   4.5621182   9.3618056  )
        33           O1  tau(  33) = (   3.3056077   2.9569042  11.2892548  )
        34           O1  tau(  34) = (   0.0073068   3.0072357  10.5542745  )
        35           O1  tau(  35) = (   1.3032543   4.4799722  12.6367586  )
        36           O1  tau(  36) = (   5.3275811   4.4862388  12.6364370  )
        37           Ti1 tau(  37) = (   0.0060541   0.1153383  12.6179110  )
        38           Ti1 tau(  38) = (   3.3135592   4.6638430  12.6816895  )
        39           O1  tau(  39) = (   0.0323206   2.9919573  14.6814448  )
        40           O1  tau(  40) = (   3.3290587   2.9835885  13.8850256  )
        41           O1  tau(  41) = (   4.5809508   4.4372854  16.0867525  )
        42           O1  tau(  42) = (   2.0525355   4.4234120  16.0327814  )
        43           Ti1 tau(  43) = (   3.4083040   5.9395600  16.2643712  )
        44           Ti1 tau(  44) = (   0.1061243   4.5568233  16.0547075  )
        45           O1  tau(  45) = (   3.2900926   2.9813045   4.7018136  )
        46           O1  tau(  46) = (   1.3039711   4.4726057   6.0039043  )
        47           O1  tau(  47) = (   5.2763189   4.4711207   6.0039473  )
        48           C1  tau(  48) = (   6.0247352   2.9430639  18.6208924  )
        49           O1  tau(  49) = (   0.0129984   2.9830681  17.3098104  )
        50           H1  tau(  50) = (   4.9427965   2.8012130  18.5644550  )
        51           H1  tau(  51) = (   6.4567215   2.1053551  19.1708771  )
        52           H1  tau(  52) = (   6.2362830   3.8810018  19.1252789  )
        53           O1  tau(  53) = (   3.2195589   0.0134334  18.0862892  )
        54           H1  tau(  54) = (   2.3313237   0.1261415  18.4590370  )

     number of k points=    10  Fermi-Dirac smearing, width (Ry)=  0.0073
                       cart. coord. in units 2pi/alat
        k(    1) = (   0.0000000   0.0000000   0.0000000), wk =   0.1250000
        k(    2) = (   0.0000000   0.0419351   0.0000000), wk =   0.2500000
        k(    3) = (   0.0000000  -0.0838702   0.0000000), wk =   0.1250000
        k(    4) = (   0.0379955   0.0000049   0.0000000), wk =   0.2500000
        k(    5) = (   0.0379955   0.0419400   0.0000000), wk =   0.2500000
        k(    6) = (   0.0379955  -0.0838652   0.0000000), wk =   0.2500000
        k(    7) = (   0.0379955  -0.0419301   0.0000000), wk =   0.2500000
        k(    8) = (  -0.0759910  -0.0000099   0.0000000), wk =   0.1250000
        k(    9) = (  -0.0759910   0.0419252   0.0000000), wk =   0.2500000
        k(   10) = (  -0.0759910  -0.0838800   0.0000000), wk =   0.1250000

     Initial potential from superposition of free atoms

     starting charge  381.99917, renormalised to  398.00000

     negative rho (up, down):  1.724E-02 0.000E+00

     %%%%%%%%%%%%%%%%%%%%%%%%%%%%%%%%%%%%%%%%%%%%%%%%%%%%%%%%%%%%%%%%%%%%%%%%
     %                                                                      %
     % You are using vdW-DF, which was implemented by the Thonhauser group. %
     % Please cite the following two papers that made this development      %
     % possible and the two reviews that describe the various versions:     %
     %                                                                      %
     %   T. Thonhauser et al., PRL 115, 136402 (2015).                      %
     %   T. Thonhauser et al., PRB 76, 125112 (2007).                       %
     %   K. Berland et al., Rep. Prog. Phys. 78, 066501 (2015).             %
     %   D.C. Langreth et al., J. Phys.: Condens. Matter 21, 084203 (2009). %
     %                                                                      %
     %                                                                      %
     % If you are calculating the stress with vdW-DF, please also cite:     %
     %                                                                      %
     %   R. Sabatini et al., J. Phys.: Condens. Matter 24, 424209 (2012).   %
     %                                                                      %
     %%%%%%%%%%%%%%%%%%%%%%%%%%%%%%%%%%%%%%%%%%%%%%%%%%%%%%%%%%%%%%%%%%%%%%%%

     Adding external electric field

     Computed dipole along edir(3) :
        Dipole               -8.3444 Ry au,        -21.2093 Debye
        Dipole field         -0.0157 Ry au,

        Potential amp.        1.4597 Ry
        Total length         46.3494 bohr

     Starting wfcs are  300 atomic wfcs
  @ DRIVER MODE: Message from server: STATUS
  @ DRIVER MODE: Message from server: POSDATA
  @ DRIVER MODE: Reading and sharing cell
  @ DRIVER MODE: Reading and sharing positions
  @ DRIVER MODE: Received positions

     Self-consistent Calculation

     iteration #  1     ecut=    29.40 Ry     beta= 0.05
     Davidson diagonalization with overlap
     c_bands:  1 eigenvalues not converged
     c_bands:  1 eigenvalues not converged
     c_bands:  1 eigenvalues not converged
     c_bands:  1 eigenvalues not converged
     c_bands:  1 eigenvalues not converged
     ethr =  1.00E-05,  avg # of iterations = 18.3

[...]

     total energy              =   -2613.95033487 Ry
     estimated scf accuracy    <    3881.18108794 Ry

     iteration #  2     ecut=    29.40 Ry     beta= 0.05
     Davidson diagonalization with overlap
     ethr =  1.00E-02,  avg # of iterations = 22.8

[...]

     iteration # 40     ecut=    29.40 Ry     beta= 0.05
     Davidson diagonalization with overlap
     c_bands:  1 eigenvalues not converged
     c_bands:  1 eigenvalues not converged
     c_bands:  1 eigenvalues not converged
     c_bands:  2 eigenvalues not converged
     ethr =  1.89E-07,  avg # of iterations = 15.1

[...]

     total energy              =   -2965.10859070 Ry
     estimated scf accuracy    <       0.00000008 Ry

     iteration # 62     ecut=    29.40 Ry     beta= 0.05
     Davidson diagonalization with overlap
     ethr =  2.00E-11,  avg # of iterations =  4.6

     negative rho (up, down):  1.732E-02 0.000E+00

     Adding external electric field

     Computed dipole along edir(3) :
        Dipole                0.5370 Ry au,          1.3648 Debye
        Dipole field          0.0010 Ry au,

        Potential amp.       -0.0939 Ry
        Total length         46.3494 bohr

     End of self-consistent calculation

          k = 0.0000 0.0000 0.0000 ( 18029 PWs)   bands (ev):

   -56.4416 -56.3948 -55.8698 -55.8377 -55.8283 -55.8166 -55.7733 -55.7358
   -55.7109 -55.6972 -55.6590 -55.6168 -55.6129 -55.4662 -55.0450 -55.0111
   -32.8541 -32.7066 -32.6571 -32.6211 -32.5266 -32.4806 -32.3614 -32.3152
   -32.3088 -32.1938 -32.1566 -32.1334 -32.1314 -32.1111 -32.1055 -32.0689
   -32.0656 -32.0513 -32.0342 -32.0287 -32.0161 -31.9792 -31.9681 -31.9512
   -31.9432 -31.9305 -31.9279 -31.9176 -31.9157 -31.9046 -31.8997 -31.8869
   -31.8627 -31.8611 -31.8554 -31.8222 -31.8106 -31.8100 -31.7809 -31.7219
   -31.6914 -31.6724 -31.4392 -31.3859 -31.3615 -31.2560 -31.1711 -31.0605
   -17.6022 -16.6294 -16.5865 -16.4414 -16.2035 -16.0571 -15.9756 -15.7561
   -15.7534 -15.6342 -15.6232 -15.5882 -15.4504 -15.4379 -15.4308 -15.3758
   -15.3600 -15.3490 -15.3429 -15.3359 -15.3227 -15.2745 -15.2615 -15.2096
   -15.1513 -15.0845 -15.0552 -15.0115 -14.9928 -14.9565 -14.7261 -13.5475
   -13.4392  -9.3589  -4.3280  -4.2469  -4.1215  -4.0557  -3.8811  -3.7794
    -3.7499  -3.6666  -3.5775  -3.4680  -3.2694  -3.1077  -3.0506  -3.0141
    -2.9809  -2.9272  -2.8725  -2.8140  -2.7688  -2.7398  -2.7107  -2.6438
    -2.6277  -2.6163  -2.5882  -2.5800  -2.5442  -2.5108  -2.5002  -2.3685
    -2.3389  -2.3017  -2.2961  -2.2370  -2.2179  -2.1935  -2.1868  -2.1359
    -2.0431  -1.9622  -1.9265  -1.8875  -1.6982  -1.6421  -1.5731  -1.5068
    -1.4280  -1.3809  -1.3613  -1.3389  -1.2680  -1.2399  -1.1288  -1.1063
    -1.0606  -0.9974  -0.9937  -0.9540  -0.8973  -0.8707  -0.8060  -0.7736
    -0.7474  -0.6048  -0.5789  -0.5507  -0.5084  -0.5001  -0.4012  -0.3377
    -0.2889  -0.2690  -0.2214  -0.1873  -0.1493  -0.1013  -0.0838  -0.0572
     0.0316   0.0575   0.0821   0.1261   0.1615   0.1844   0.2037   0.2968
     0.3446   0.3626   0.3790   0.5347   0.5727   0.5896   0.7184   0.7308
     0.9029   0.9713   1.0090   1.1884   1.2345   1.5212   1.5635   2.8600
     3.0183   3.2894   3.4365   3.5047   3.5437   3.5974   3.6146   3.7562
     3.7887

[...]

          k = 0.0380-0.0419 0.0000 ( 17876 PWs)   bands (ev):

[...]

          k =-0.0760-0.0000 0.0000 ( 17886 PWs)   bands (ev):

[...]

          k =-0.0760-0.0839 0.0000 ( 17948 PWs)   bands (ev):

   -56.4345 -56.4018 -55.8679 -55.8320 -55.8273 -55.8126 -55.7783 -55.7396
   -55.7126 -55.6986 -55.6505 -55.6253 -55.6110 -55.4680 -55.0282 -55.0278
   -32.7020 -32.6849 -32.6612 -32.6571 -32.5863 -32.5585 -32.2493 -32.1856
   -32.1590 -32.1271 -32.1044 -32.1006 -32.0901 -32.0752 -32.0679 -32.0533
   -32.0488 -32.0410 -32.0355 -32.0279 -32.0278 -32.0199 -31.9978 -31.9972
   -31.9945 -31.9794 -31.9678 -31.9530 -31.9447 -31.9383 -31.9176 -31.9045
   -31.9007 -31.8881 -31.8748 -31.8603 -31.8599 -31.8258 -31.8150 -31.7959
   -31.7242 -31.6760 -31.3747 -31.3745 -31.2547 -31.2531 -31.2134 -31.2125
   -17.5644 -16.6016 -15.9835 -15.9039 -15.8997 -15.8884 -15.8618 -15.8197
   -15.7423 -15.7355 -15.6645 -15.5977 -15.5643 -15.5194 -15.4969 -15.4852
   -15.4478 -15.4433 -15.3857 -15.3420 -15.3257 -15.3144 -15.2946 -15.2513
   -15.2454 -15.2428 -15.2191 -15.2044 -15.1535 -15.0532 -14.8666 -13.5436
   -13.5424  -9.3591  -4.2614  -4.1675  -3.9894  -3.7412  -3.2157  -3.1400
    -3.0651  -3.0573  -2.9825  -2.9228  -2.9083  -2.8635  -2.8564  -2.8251
    -2.7529  -2.7424  -2.7296  -2.7191  -2.7117  -2.7030  -2.6802  -2.6352
    -2.6220  -2.6148  -2.5989  -2.5903  -2.5786  -2.5750  -2.5482  -2.5092
    -2.4391  -2.3791  -2.2550  -2.2474  -2.2125  -2.1962  -2.1553  -2.1431
    -2.0891  -1.9972  -1.9850  -1.9823  -1.8940  -1.8372  -1.6241  -1.6090
    -1.5919  -1.5252  -1.4531  -1.3863  -1.3626  -1.3397  -1.3070  -1.2842
    -1.2354  -1.1860  -1.1511  -1.1148  -1.0985  -1.0599  -1.0078  -0.9620
    -0.9067  -0.9026  -0.8596  -0.8122  -0.7813  -0.7013  -0.6955  -0.6721
    -0.6487  -0.6098  -0.5242  -0.4722  -0.4298  -0.3350  -0.2940  -0.2601
    -0.1201  -0.0610  -0.0240   0.0515   0.0952   0.1959   0.2204   0.2971
     0.3100   0.3390   0.3633   0.4385   0.5057   0.5618   0.6040   0.6477
     0.6590   0.7085   0.7715   1.3653   1.3658   1.3731   1.3808   3.4053
     3.4302   3.4379   3.4678   3.6941   3.7117   3.7839   3.8150   3.8324
     3.8818

     the Fermi energy is     2.2696 ev

!    total energy              =   -2965.10863716 Ry
     estimated scf accuracy    <       0.00000006 Ry
     smearing contrib. (-TS)   =      -0.00015918 Ry
     internal energy E=F+TS    =   -2965.10847798 Ry

     The total energy is F=E-TS. E is the sum of the following terms:
     one-electron contribution =  -24223.50148524 Ry
     hartree contribution      =   12201.05527898 Ry
     xc contribution           =    -490.03213771 Ry
     ewald contribution        =    9547.36932187 Ry
     electric field correction =       0.00054411 Ry

     convergence has been achieved in  62 iterations

     Forces acting on atoms (cartesian axes, Ry/au):

     atom    1 type  1   force =    -0.00001956    0.00003158    0.13239405
     atom    2 type  1   force =    -0.00019713    0.00778657   -0.15736631
     atom    3 type  2   force =     0.00008541   -0.00480472   -0.05217942
     atom    4 type  2   force =     0.00035857    0.00109135    0.04042874
     atom    5 type  2   force =    -0.00610606   -0.00278439   -0.00018379
     atom    6 type  2   force =     0.00839678   -0.00338388    0.00079510
     atom    7 type  1   force =    -0.00003045   -0.00014719   -0.00000858
     atom    8 type  1   force =     0.00020932   -0.00057059    0.00038979
     atom    9 type  2   force =    -0.00004476    0.00020459   -0.00003243
     atom   10 type  2   force =    -0.00014491   -0.00037856   -0.00016216
     atom   11 type  2   force =     0.00043768    0.00027187   -0.00017072
     atom   12 type  2   force =    -0.00027128    0.00017168   -0.00003629
     atom   13 type  1   force =    -0.00069233    0.00047863   -0.00029441
     atom   14 type  1   force =     0.00007833   -0.00032524   -0.00021881
     atom   15 type  2   force =    -0.00021716   -0.00000158   -0.00078672
     atom   16 type  2   force =    -0.00033075    0.00010377    0.00006579
     atom   17 type  2   force =     0.00006553   -0.00000903    0.00002190
     atom   18 type  2   force =    -0.00061783    0.00016968   -0.00016606
     atom   19 type  1   force =     0.00003217   -0.00042863   -0.00016110
     atom   20 type  1   force =    -0.00003407   -0.00002718    0.00020757
     atom   21 type  2   force =    -0.00002492    0.00002246    0.09909007
     atom   22 type  2   force =     0.00000038    0.00008399    0.00026920
     atom   23 type  2   force =    -0.08090569    0.00049222   -0.03409024
     atom   24 type  2   force =     0.08070439    0.00095680   -0.03415054
     atom   25 type  1   force =    -0.00001539   -0.00027141    0.14100967
     atom   26 type  1   force =    -0.00013348   -0.00647181   -0.15702442
     atom   27 type  2   force =     0.00016309    0.00109487   -0.05217953
     atom   28 type  2   force =     0.00018810    0.00033606    0.04176418
     atom   29 type  2   force =    -0.00752234    0.00512738    0.00202800
     atom   30 type  2   force =     0.00859448    0.00383391    0.00273047
     atom   31 type  1   force =    -0.00002800    0.00016827    0.00000866
     atom   32 type  1   force =     0.00030518   -0.00006264   -0.00052624
     atom   33 type  2   force =    -0.00005739    0.00039910    0.00022519
     atom   34 type  2   force =    -0.00011929    0.00019577    0.00039897
     atom   35 type  2   force =    -0.00048978   -0.00034976   -0.00005771
     atom   36 type  2   force =     0.00047454   -0.00044348    0.00017470
     atom   37 type  1   force =    -0.00055945   -0.00030379   -0.00010842
     atom   38 type  1   force =     0.00001798   -0.00002320   -0.00043996
     atom   39 type  2   force =    -0.00000972   -0.00014556   -0.00024172
     atom   40 type  2   force =    -0.00013985   -0.00014380   -0.00031418
     atom   41 type  2   force =    -0.00008563    0.00014714   -0.00039230
     atom   42 type  2   force =    -0.00002005    0.00034219   -0.00018779
     atom   43 type  1   force =    -0.00021371    0.00036001   -0.00018947
     atom   44 type  1   force =    -0.00000173   -0.00058544    0.00019501
     atom   45 type  2   force =    -0.00003106    0.00012364    0.09864194
     atom   46 type  2   force =    -0.08086394   -0.00164550   -0.03408745
     atom   47 type  2   force =     0.08067165   -0.00117381   -0.03415131
     atom   48 type  3   force =    -0.00111216   -0.00318028   -0.00352703
     atom   49 type  2   force =     0.00018995   -0.00067093   -0.00206697
     atom   50 type  4   force =    -0.00048624    0.00007244   -0.00003577
     atom   51 type  4   force =     0.00024508    0.00042157    0.00049200
     atom   52 type  4   force =     0.00072326    0.00453558    0.00457345
     atom   53 type  2   force =     0.00034282   -0.00027983   -0.00123010
     atom   54 type  4   force =    -0.00075857   -0.00041089    0.00086350

     Total force =     0.382746     Total SCF correction =     0.000611
  @ DRIVER MODE: Message from server: STATUS
  @ DRIVER MODE: Message from server: GETFORCE
  @ DRIVER MODE: Returning v,forces,stress,ensemble

     Writing output data file ./calc.save/
  @ DRIVER MODE: Message from server: EXIT
  @ DRIVE MODE: Exiting

     General routines

     Parallel routines

   This run was terminated on:   1:43:25  23Sep2021

   JOB DONE.