     Program PWSCF v.6.7GPU starts on 22Sep2021 at 18:32:24

     R & G space division:  proc/nbgrp/npool/nimage =      10
     Reading input from /storage/home/hcoda1/3/ntian30/research/carbon/CxH_vib/H2O_calc/ads_slab/CH2N2HHO_a/out_0006/pw.inp
Warning: card &CELL ignored
Warning: card   CELL_DYNAMICS='IPI', ignored
Warning: card / ignored

     Current dimensions of program PWSCF are:
     Max number of different atomic species (ntypx) = 10
     Max number of k-points (npk) =  40000
     Max angular momentum in pseudopotentials (lmaxx) =  3
     Presently no symmetry can be used with electric field

     Message from routine cell_base_init:
     DEPRECATED: use true lattice parameter, not A to a.u. conversion factor

     IMPORTANT: XC functional enforced from input :
     Exchange-correlation= BEEF-VDW
                           (   1   4  43  14   2   0   0)
     Any further DFT definition will be discarded
     Please, verify this is what you really want

  @ DRIVER MODE: Connecting to
 qe_1139763_2937323.sched-torque.pace.gatech.edup_ywq_1z_scratch
  using UNIX socket
  @ DRIVER MODE: Message from server: STATUS
  @ DRIVER MODE: Message from server: INIT
  @ DRIVER MODE: Receiving replica           0          -1
  @ DRIVER MODE: Receiving encoded integer          25
  @ DRIVER MODE:  SCF:  T  FORCE:  T  STRESS:  F  VC:  F  ENSEMBLE:  F
  @ DRIVER MODE:  SCF:  T  FORCE:  T  STRESS:  F  VC:  F  ENSEMBLE:  F

     Using Slab Decomposition

     bravais-lattice index     =            0
     lattice parameter (alat)  =       1.8897  a.u.
     unit-cell volume          =    6658.9804 (a.u.)^3
     number of atoms/cell      =           55
     number of atomic types    =            5
     number of electrons       =       402.00
     number of Kohn-Sham states=          211
     kinetic-energy cutoff     =      29.3995  Ry
     charge density cutoff     =     293.9946  Ry
     scf convergence threshold =      7.3E-08
     mixing beta               =       0.0500
     number of iterations used =            8  plain     mixing
     Exchange-correlation= BEEF-VDW
                           (   1   4  43  14   2   0   0)

     celldm(1)=   1.889726  celldm(2)=   0.000000  celldm(3)=   0.000000
     celldm(4)=   0.000000  celldm(5)=   0.000000  celldm(6)=   0.000000

     crystal axes: (cart. coord. in units of alat)
               a(1) = (   6.579727   0.000000   0.000000 )
               a(2) = (  -0.000775   5.961596   0.000000 )
               a(3) = (   0.000000   0.000000  25.155947 )

     reciprocal axes: (cart. coord. in units 2 pi/alat)
               b(1) = (  0.151982  0.000020  0.000000 )
               b(2) = (  0.000000  0.167740  0.000000 )
               b(3) = (  0.000000  0.000000  0.039752 )

     PseudoPot. # 1 for Ti read from file:
     /storage/coda1/p-amedford6/0/shared/rich_project_chbe-medford/medford-share/data/pseudos_module/espresso/nninc/pbe/van/Ti.UPF
     MD5 check sum: 8e4df49b7f0d34bbd5052bf3f5ea0213
     Pseudo is Ultrasoft, Zval = 12.0
     Generated by new atomic code, or converted to UPF format
     Using radial grid of  851 points,  6 beta functions with:
                l(1) =   0
                l(2) =   0
                l(3) =   1
                l(4) =   1
                l(5) =   2
                l(6) =   2
     Q(r) pseudized with  8 coefficients,  rinner =    1.000   1.000   1.000
                                                       1.000   1.000

     PseudoPot. # 2 for O  read from file:
     /storage/coda1/p-amedford6/0/shared/rich_project_chbe-medford/medford-share/data/pseudos_module/espresso/nninc/pbe/van/O.UPF
     MD5 check sum: 78c19812648e8988a0fe644b0f25305e
     Pseudo is Ultrasoft, Zval =  6.0
     Generated by new atomic code, or converted to UPF format
     Using radial grid of  737 points,  4 beta functions with:
                l(1) =   0
                l(2) =   0
                l(3) =   1
                l(4) =   1
     Q(r) pseudized with  8 coefficients,  rinner =    0.800   0.800   0.800

     PseudoPot. # 3 for N  read from file:
     /storage/coda1/p-amedford6/0/shared/rich_project_chbe-medford/medford-share/data/pseudos_module/espresso/nninc/pbe/van/N.UPF
     MD5 check sum: 90d10febe142ad51ac9d5be1deb811c4
     Pseudo is Ultrasoft, Zval =  5.0
     Generated by new atomic code, or converted to UPF format
     Using radial grid of  729 points,  4 beta functions with:
                l(1) =   0
                l(2) =   0
                l(3) =   1
                l(4) =   1
     Q(r) pseudized with  8 coefficients,  rinner =    0.800   0.800   0.800

     PseudoPot. # 4 for C  read from file:
     /storage/coda1/p-amedford6/0/shared/rich_project_chbe-medford/medford-share/data/pseudos_module/espresso/nninc/pbe/van/C.UPF
     MD5 check sum: 1a69bf6b8db32088f5b2163dbdb77a27
     Pseudo is Ultrasoft, Zval =  4.0
     Generated by new atomic code, or converted to UPF format
     Using radial grid of  721 points,  4 beta functions with:
                l(1) =   0
                l(2) =   0
                l(3) =   1
                l(4) =   1
     Q(r) pseudized with  8 coefficients,  rinner =    0.800   0.800   0.800

     PseudoPot. # 5 for H  read from file:
     /storage/coda1/p-amedford6/0/shared/rich_project_chbe-medford/medford-share/data/pseudos_module/espresso/nninc/pbe/van/H.UPF
     MD5 check sum: b5ee9d7bfd3a09ee7748110bda690ff7
     Pseudo is Ultrasoft, Zval =  1.0
     Generated by new atomic code, or converted to UPF format
     Using radial grid of  615 points,  1 beta functions with:
                l(1) =   0
     Q(r) pseudized with  8 coefficients,  rinner =    0.800

     atomic species   valence    mass     pseudopotential
        Ti1           12.00    47.86700     Ti( 1.00)
        O1             6.00    15.99900     O ( 1.00)
        N1             5.00    14.00700     N ( 1.00)
        C1             4.00    12.01100     C ( 1.00)
        H1             1.00     1.00800     H ( 1.00)

     No symmetry found

   Cartesian axes

     site n.     atom                  positions (alat units)
         1           Ti1 tau(   1) = (   0.0004258   2.9801865   6.0000000  )
         2           Ti1 tau(   2) = (   3.2906075   1.4906267   6.0002472  )
         3           O1  tau(   3) = (   0.0006271   0.0005054   7.9858123  )
         4           O1  tau(   4) = (   3.2906025   0.0005020   7.3038282  )
         5           O1  tau(   5) = (   4.5942328   1.4918067   9.2879030  )
         6           O1  tau(   6) = (   1.9868534   1.4903216   9.2879459  )
         7           Ti1 tau(   7) = (   3.2907910   2.8959150   9.1758416  )
         8           Ti1 tau(   8) = (   0.0015273   1.4827037   9.2680791  )
         9           O1  tau(   9) = (   3.3002520   5.9418316  11.2747492  )
        10           O1  tau(  10) = (   0.0116148   5.9584955  10.6183126  )
        11           O1  tau(  11) = (   1.2897458   1.4862980  12.6211975  )
        12           O1  tau(  12) = (   5.3051886   1.5023792  12.6347999  )
        13           Ti1 tau(  13) = (   0.0146078   2.8478158  12.7200684  )
        14           Ti1 tau(  14) = (   3.3063360   1.3081926  12.6482236  )
        15           O1  tau(  15) = (   0.0235978   5.9609164  14.6274833  )
        16           O1  tau(  16) = (   3.2983906   0.0399142  13.8749830  )
        17           O1  tau(  17) = (   4.5813539   1.5856785  16.0626423  )
        18           O1  tau(  18) = (   2.0324892   1.5097802  16.0098020  )
        19           Ti1 tau(  19) = (   3.2774956   2.9544257  15.6266065  )
        20           Ti1 tau(  20) = (   6.5530467   1.3151789  15.9772938  )
        21           O1  tau(  21) = (   3.2904802   0.0005063   4.7018136  )
        22           O1  tau(  22) = (   6.5059356   5.9265713  17.1294848  )
        23           O1  tau(  23) = (   1.3043587   1.4918075   6.0039043  )
        24           O1  tau(  24) = (   5.2767064   1.4903225   6.0039473  )
        25           Ti1 tau(  25) = (   0.0000382   5.9609847   6.0000000  )
        26           Ti1 tau(  26) = (   3.2902200   4.4714249   6.0002472  )
        27           O1  tau(  27) = (   0.0002396   2.9813036   7.9858123  )
        28           O1  tau(  28) = (   3.2902150   2.9813002   7.3038282  )
        29           O1  tau(  29) = (   4.5938453   4.4726049   9.2879030  )
        30           O1  tau(  30) = (   1.9864658   4.4711199   9.2879459  )
        31           Ti1 tau(  31) = (   3.2891106   5.8743827   9.1763621  )
        32           Ti1 tau(  32) = (   0.0006254   4.4649316   9.2693709  )
        33           O1  tau(  33) = (   3.2992753   3.0242338  11.2405823  )
        34           O1  tau(  34) = (   0.0092240   2.9805883  10.6323155  )
        35           O1  tau(  35) = (   1.2972400   4.4705050  12.6241655  )
        36           O1  tau(  36) = (   5.3008088   4.4694758  12.6340222  )
        37           Ti1 tau(  37) = (   0.0289225   5.8314391  12.5906285  )
        38           Ti1 tau(  38) = (   3.3189507   4.3956991  12.4097224  )
        39           O1  tau(  39) = (   0.0312427   2.9750824  14.7260556  )
        40           O1  tau(  40) = (   3.2762925   2.9668711  13.8358254  )
        41           O1  tau(  41) = (   4.5358187   4.4455929  15.9064879  )
        42           O1  tau(  42) = (   2.0572077   4.4429961  16.0439637  )
        43           Ti1 tau(  43) = (   3.2186928   5.9141907  16.2420754  )
        44           Ti1 tau(  44) = (   6.4642982   4.4840528  15.9061301  )
        45           O1  tau(  45) = (   3.2900926   2.9813045   4.7018136  )
        46           O1  tau(  46) = (   1.3039711   4.4726057   6.0039043  )
        47           O1  tau(  47) = (   5.2763189   4.4711207   6.0039473  )
        48           N1  tau(  48) = (   0.2499663   2.3419386  18.0013213  )
        49           C1  tau(  49) = (   0.6208863   1.8700663  19.1394302  )
        50           H1  tau(  50) = (   0.7431952   2.5333404  19.9929579  )
        51           H1  tau(  51) = (   0.8399735   0.8189210  19.2161768  )
        52           N1  tau(  52) = (   6.5658643   3.6116587  17.7752569  )
        53           H1  tau(  53) = (   0.1300021   4.2235620  18.5825096  )
        54           O1  tau(  54) = (   3.3713844   5.9089882  18.0735649  )
        55           H1  tau(  55) = (   4.1655974   0.3538959  18.4550359  )

     number of k points=    10  Fermi-Dirac smearing, width (Ry)=  0.0073
                       cart. coord. in units 2pi/alat
        k(    1) = (   0.0000000   0.0000000   0.0000000), wk =   0.1250000
        k(    2) = (   0.0000000   0.0419351   0.0000000), wk =   0.2500000
        k(    3) = (   0.0000000  -0.0838702   0.0000000), wk =   0.1250000
        k(    4) = (   0.0379955   0.0000049   0.0000000), wk =   0.2500000
        k(    5) = (   0.0379955   0.0419400   0.0000000), wk =   0.2500000
        k(    6) = (   0.0379955  -0.0838652   0.0000000), wk =   0.2500000
        k(    7) = (   0.0379955  -0.0419301   0.0000000), wk =   0.2500000
        k(    8) = (  -0.0759910  -0.0000099   0.0000000), wk =   0.1250000
        k(    9) = (  -0.0759910   0.0419252   0.0000000), wk =   0.2500000
        k(   10) = (  -0.0759910  -0.0838800   0.0000000), wk =   0.1250000

     Initial potential from superposition of free atoms

     starting charge  385.99915, renormalised to  402.00000

     negative rho (up, down):  1.591E-02 0.000E+00

     %%%%%%%%%%%%%%%%%%%%%%%%%%%%%%%%%%%%%%%%%%%%%%%%%%%%%%%%%%%%%%%%%%%%%%%%
     %                                                                      %
     % You are using vdW-DF, which was implemented by the Thonhauser group. %
     % Please cite the following two papers that made this development      %
     % possible and the two reviews that describe the various versions:     %
     %                                                                      %
     %   T. Thonhauser et al., PRL 115, 136402 (2015).                      %
     %   T. Thonhauser et al., PRB 76, 125112 (2007).                       %
     %   K. Berland et al., Rep. Prog. Phys. 78, 066501 (2015).             %
     %   D.C. Langreth et al., J. Phys.: Condens. Matter 21, 084203 (2009). %
     %                                                                      %
     %                                                                      %
     % If you are calculating the stress with vdW-DF, please also cite:     %
     %                                                                      %
     %   R. Sabatini et al., J. Phys.: Condens. Matter 24, 424209 (2012).   %
     %                                                                      %
     %%%%%%%%%%%%%%%%%%%%%%%%%%%%%%%%%%%%%%%%%%%%%%%%%%%%%%%%%%%%%%%%%%%%%%%%

     Adding external electric field

     Computed dipole along edir(3) :
        Dipole              -11.3566 Ry au,        -28.8657 Debye
        Dipole field         -0.0214 Ry au,

        Potential amp.        1.9867 Ry
        Total length         46.3494 bohr

     Starting wfcs are  304 atomic wfcs
  @ DRIVER MODE: Message from server: STATUS
  @ DRIVER MODE: Message from server: POSDATA
  @ DRIVER MODE: Reading and sharing cell
  @ DRIVER MODE: Reading and sharing positions
  @ DRIVER MODE: Received positions

     Self-consistent Calculation

     iteration #  1     ecut=    29.40 Ry     beta= 0.05
     Davidson diagonalization with overlap
     c_bands:  4 eigenvalues not converged
     c_bands:  3 eigenvalues not converged
     c_bands:  3 eigenvalues not converged
     c_bands:  5 eigenvalues not converged
     c_bands:  5 eigenvalues not converged
     c_bands:  1 eigenvalues not converged
     c_bands:  5 eigenvalues not converged
     c_bands:  4 eigenvalues not converged
     c_bands:  5 eigenvalues not converged
     c_bands:  1 eigenvalues not converged
     ethr =  1.00E-05,  avg # of iterations = 24.0

[...]

     total energy              =   -2410.13219383 Ry
     estimated scf accuracy    <    6308.64834850 Ry

     iteration #  2     ecut=    29.40 Ry     beta= 0.05
     Davidson diagonalization with overlap
     ethr =  1.00E-02,  avg # of iterations = 23.0

[...]

     iteration # 55     ecut=    29.40 Ry     beta= 0.05
     Davidson diagonalization with overlap
     c_bands:  1 eigenvalues not converged
     ethr =  3.10E-07,  avg # of iterations = 12.7

[...]

     total energy              =   -2972.72734236 Ry
     estimated scf accuracy    <       0.00000010 Ry

     iteration # 81     ecut=    29.40 Ry     beta= 0.05
     Davidson diagonalization with overlap
     ethr =  2.09E-11,  avg # of iterations =  6.0

     negative rho (up, down):  1.620E-02 0.000E+00

     Adding external electric field

     Computed dipole along edir(3) :
        Dipole                0.4540 Ry au,          1.1541 Debye
        Dipole field          0.0009 Ry au,

        Potential amp.       -0.0794 Ry
        Total length         46.3494 bohr

     End of self-consistent calculation

          k = 0.0000 0.0000 0.0000 ( 18029 PWs)   bands (ev):

   -56.5451 -56.5114 -55.8910 -55.8555 -55.6283 -55.5688 -55.3825 -55.3280
   -55.2998 -55.2327 -55.1994 -55.1952 -55.1613 -55.0344 -55.0329 -54.9855
   -32.9771 -32.8296 -32.8016 -32.7125 -32.6212 -32.6028 -32.3741 -32.1105
   -32.1088 -32.0813 -32.0342 -32.0305 -31.9975 -31.8717 -31.8570 -31.8492
   -31.7961 -31.7725 -31.7316 -31.7115 -31.6907 -31.6498 -31.6451 -31.5895
   -31.5858 -31.5835 -31.5794 -31.5366 -31.5361 -31.5250 -31.5119 -31.5080
   -31.4865 -31.4819 -31.4264 -31.4049 -31.4048 -31.3534 -31.3222 -31.2961
   -31.2884 -31.2814 -31.2448 -31.2428 -31.2181 -31.2104 -31.1762 -31.1561
   -17.8109 -16.7295 -16.2944 -16.1690 -15.9838 -15.9141 -15.8875 -15.8574
   -15.7922 -15.6140 -15.5394 -15.5116 -15.5055 -15.4451 -15.2774 -15.1808
   -15.1605 -15.0936 -15.0170 -14.9934 -14.9537 -14.9027 -14.8696 -14.8581
   -14.8433 -14.8049 -14.6867 -14.6046 -14.5029 -14.3255 -14.3059 -13.6928
   -13.5833 -12.0251  -7.6878  -5.1517  -4.3740  -4.2803  -3.8005  -3.7730
    -3.6108  -3.4290  -3.3756  -3.2256  -3.1691  -3.1231  -3.0661  -3.0515
    -2.9482  -2.8049  -2.7950  -2.7440  -2.7236  -2.7175  -2.6977  -2.5963
    -2.5310  -2.5227  -2.4272  -2.3352  -2.3130  -2.2753  -2.2363  -2.2281
    -2.1849  -2.1441  -2.0906  -2.0548  -2.0344  -1.9388  -1.9196  -1.8112
    -1.7910  -1.7586  -1.7506  -1.7216  -1.6835  -1.6242  -1.5517  -1.4348
    -1.3462  -1.3269  -1.2548  -1.2363  -1.2246  -1.0614  -1.0202  -1.0180
    -0.9579  -0.8812  -0.8544  -0.7960  -0.7569  -0.7139  -0.6592  -0.6126
    -0.5830  -0.4584  -0.4533  -0.3997  -0.3132  -0.2960  -0.2652  -0.2423
    -0.1626  -0.1059  -0.0676   0.0066   0.0637   0.0719   0.1186   0.1726
     0.2826   0.3262   0.3496   0.3808   0.4220   0.4484   0.5144   0.5615
     0.5921   0.6019   0.6783   0.7793   0.7972   0.8279   0.9222   0.9434
     1.0341   1.0697   1.0823   1.1847   1.1970   1.3659   1.4043   1.5780
     2.3760   2.7198   2.8699   3.1525   3.1686   3.4614   3.6825   3.7098
     3.7128   3.7946   3.9329

[...]

          k = 0.0380-0.0419 0.0000 ( 17876 PWs)   bands (ev):

[...]

          k =-0.0760-0.0000 0.0000 ( 17886 PWs)   bands (ev):

[...]

          k =-0.0760-0.0839 0.0000 ( 17948 PWs)   bands (ev):

   -56.5285 -56.5278 -55.8790 -55.8673 -55.6230 -55.5740 -55.3764 -55.3339
   -55.2978 -55.2313 -55.2012 -55.1788 -55.1776 -55.0358 -55.0257 -54.9926
   -32.8156 -32.8148 -32.7943 -32.7933 -32.6655 -32.6652 -32.2001 -32.1906
   -32.0727 -32.0598 -32.0595 -32.0516 -31.9311 -31.8923 -31.8508 -31.8442
   -31.8010 -31.7949 -31.7056 -31.6727 -31.6281 -31.6129 -31.5946 -31.5894
   -31.5741 -31.5665 -31.5492 -31.5388 -31.5254 -31.5245 -31.5221 -31.5117
   -31.4746 -31.4688 -31.4327 -31.4096 -31.4028 -31.4013 -31.3890 -31.3644
   -31.3632 -31.3007 -31.2815 -31.2595 -31.2481 -31.2443 -31.2206 -31.1785
   -17.7972 -16.1491 -16.1127 -16.1085 -16.0255 -16.0231 -15.8191 -15.8120
   -15.6303 -15.6060 -15.5303 -15.4627 -15.3549 -15.3207 -15.2975 -15.2467
   -15.1987 -15.1719 -15.1135 -15.0811 -14.9992 -14.9671 -14.9522 -14.9414
   -14.9075 -14.8534 -14.7229 -14.6899 -14.6711 -14.5868 -14.4557 -13.6874
   -13.6866 -11.9828  -7.6173  -5.2132  -4.4466  -3.7468  -3.2244  -3.1964
    -3.1480  -3.1390  -2.9402  -2.9004  -2.8761  -2.8268  -2.7886  -2.7699
    -2.7303  -2.7242  -2.6418  -2.5892  -2.5578  -2.5455  -2.5218  -2.4609
    -2.4383  -2.4108  -2.3992  -2.3648  -2.3533  -2.3435  -2.3194  -2.2536
    -2.2015  -2.1511  -2.1153  -2.0745  -2.0217  -2.0159  -1.9814  -1.9722
    -1.8926  -1.7985  -1.7612  -1.6886  -1.6068  -1.5728  -1.5459  -1.5267
    -1.4824  -1.4294  -1.4017  -1.3533  -1.3262  -1.2712  -1.2393  -1.2275
    -1.1600  -1.1233  -1.0546  -1.0323  -0.9529  -0.8424  -0.7852  -0.7638
    -0.7351  -0.7240  -0.6533  -0.5875  -0.5431  -0.5237  -0.4510  -0.4419
    -0.4154  -0.3655  -0.3506  -0.3151  -0.2039  -0.1372  -0.0822   0.0017
     0.0426   0.0804   0.1662   0.2215   0.2373   0.3152   0.3960   0.4767
     0.4909   0.5341   0.5376   0.7058   0.7341   0.8489   0.8766   0.9500
     0.9856   1.0253   1.1465   1.1945   1.2159   1.2173   1.2382   1.2570
     2.3209   3.2897   3.2924   3.3422   3.3503   3.6185   3.6270   3.7640
     3.7660   3.8868   3.9259

     the Fermi energy is     2.5982 ev

!    total energy              =   -2972.72735564 Ry
     estimated scf accuracy    <       0.00000005 Ry
     smearing contrib. (-TS)   =      -0.00740038 Ry
     internal energy E=F+TS    =   -2972.71995526 Ry

     The total energy is F=E-TS. E is the sum of the following terms:
     one-electron contribution =  -24029.18166873 Ry
     hartree contribution      =   12108.20873564 Ry
     xc contribution           =    -493.29030083 Ry
     ewald contribution        =    9441.54288961 Ry
     electric field correction =       0.00038905 Ry

     convergence has been achieved in  81 iterations

     Forces acting on atoms (cartesian axes, Ry/au):

     atom    1 type  1   force =    -0.00000037   -0.00043955    0.11623143
     atom    2 type  1   force =    -0.00007290    0.00013904   -0.15932466
     atom    3 type  2   force =     0.00002620    0.00000614   -0.05265750
     atom    4 type  2   force =     0.00005256   -0.00013381    0.02459563
     atom    5 type  2   force =    -0.00347966   -0.00224514   -0.01045095
     atom    6 type  2   force =     0.00527671   -0.00174742   -0.01064951
     atom    7 type  1   force =     0.00000684   -0.00613645    0.04640482
     atom    8 type  1   force =     0.00041853    0.01612596    0.08051334
     atom    9 type  2   force =    -0.00001123   -0.00062613    0.00002455
     atom   10 type  2   force =    -0.00257581    0.00058991   -0.04987961
     atom   11 type  2   force =    -0.00056928   -0.00014764   -0.00018975
     atom   12 type  2   force =     0.00061102   -0.00029191   -0.00003151
     atom   13 type  1   force =    -0.00017823    0.00041911    0.00017819
     atom   14 type  1   force =     0.00017432    0.00010911   -0.00095132
     atom   15 type  2   force =    -0.00026496   -0.00022274   -0.00040698
     atom   16 type  2   force =     0.00012548   -0.00063462    0.00064262
     atom   17 type  2   force =     0.00009648    0.00054260    0.00005896
     atom   18 type  2   force =    -0.00014847    0.00068734   -0.00013608
     atom   19 type  1   force =    -0.00058334   -0.00020840   -0.00027292
     atom   20 type  1   force =     0.00074442    0.00085587    0.00114387
     atom   21 type  2   force =     0.00004550    0.00021726    0.09895926
     atom   22 type  2   force =    -0.00000019   -0.00061482   -0.00056643
     atom   23 type  2   force =    -0.07987948    0.00004331   -0.03165611
     atom   24 type  2   force =     0.07977746    0.00047796   -0.03171427
     atom   25 type  1   force =     0.00007289   -0.00058522    0.11654288
     atom   26 type  1   force =    -0.00011998   -0.00142662   -0.15985026
     atom   27 type  2   force =     0.00007180   -0.00069977   -0.05066946
     atom   28 type  2   force =     0.00005405    0.00167053    0.02013117
     atom   29 type  2   force =    -0.00168338    0.00505798   -0.01374127
     atom   30 type  2   force =     0.00359654    0.00547839   -0.01387036
     atom   31 type  1   force =    -0.00017323    0.00219003    0.03189756
     atom   32 type  1   force =     0.00032212   -0.01973069    0.08017499
     atom   33 type  2   force =     0.00014308   -0.00037842    0.00003596
     atom   34 type  2   force =    -0.00158600    0.00085865   -0.06342177
     atom   35 type  2   force =     0.00038562    0.00004831   -0.00020114
     atom   36 type  2   force =     0.00017392   -0.00003614   -0.00027533
     atom   37 type  1   force =    -0.00014253   -0.00021412   -0.00047994
     atom   38 type  1   force =     0.00013417    0.00043795    0.00023580
     atom   39 type  2   force =    -0.00028095    0.00053958   -0.00004388
     atom   40 type  2   force =     0.00023762    0.00010853    0.00046253
     atom   41 type  2   force =     0.00119079    0.00006245   -0.00021599
     atom   42 type  2   force =    -0.00111430   -0.00045707   -0.00008874
     atom   43 type  1   force =    -0.00049567    0.00035337   -0.00019974
     atom   44 type  1   force =     0.00005692    0.00005004    0.00076191
     atom   45 type  2   force =     0.00004994    0.00003178    0.09876002
     atom   46 type  2   force =    -0.07993464    0.00000568   -0.03166008
     atom   47 type  2   force =     0.07982688    0.00043562   -0.03172935
     atom   48 type  3   force =    -0.00524505    0.00429081   -0.02194809
     atom   49 type  4   force =     0.00370140   -0.00287040    0.01474739
     atom   50 type  5   force =     0.00040255   -0.00067314    0.00121022
     atom   51 type  5   force =     0.00008455   -0.00000790   -0.00013933
     atom   52 type  3   force =     0.00038691   -0.00262905    0.00433618
     atom   53 type  5   force =    -0.00044865    0.00144624   -0.00038596
     atom   54 type  2   force =    -0.00036788   -0.00014484   -0.00088382
     atom   55 type  5   force =     0.00110894    0.00002246    0.00064282

     Total force =     0.397853     Total SCF correction =     0.000769
  @ DRIVER MODE: Message from server: STATUS
  @ DRIVER MODE: Message from server: GETFORCE
  @ DRIVER MODE: Returning v,forces,stress,ensemble

     Writing output data file ./calc.save/
  @ DRIVER MODE: Message from server: EXIT
  @ DRIVE MODE: Exiting

     General routines

     Parallel routines

   This run was terminated on:  18:53:17  22Sep2021

   JOB DONE.