     Program PWSCF v.6.7GPU starts on 23Jul2021 at 10: 9:17

     R & G space division:  proc/nbgrp/npool/nimage =      16
     Reading input from /storage/home/hcoda1/3/ntian30/research/carbon/1Jul_vib/slab/rutile_O_br_vacant/out_0036/pw.inp
Warning: card &CELL ignored
Warning: card   CELL_DYNAMICS='IPI', ignored
Warning: card / ignored

     Current dimensions of program PWSCF are:
     Max number of different atomic species (ntypx) = 10
     Max number of k-points (npk) =  40000
     Max angular momentum in pseudopotentials (lmaxx) =  3
     Presently no symmetry can be used with electric field

     Message from routine cell_base_init:
     DEPRECATED: use true lattice parameter, not A to a.u. conversion factor

     IMPORTANT: XC functional enforced from input :
     Exchange-correlation= BEEF-VDW
                           (   1   4  43  14   2   0   0)
     Any further DFT definition will be discarded
     Please, verify this is what you really want

  @ DRIVER MODE: Connecting to
 qe_1139763_2402406.sched-torque.pace.gatech.edu2dscwp6s_scratch
  using UNIX socket
  @ DRIVER MODE: Message from server: STATUS
  @ DRIVER MODE: Message from server: INIT
  @ DRIVER MODE: Receiving replica           0          -1
  @ DRIVER MODE: Receiving encoded integer          25
  @ DRIVER MODE:  SCF:  T  FORCE:  T  STRESS:  F  VC:  F  ENSEMBLE:  F
  @ DRIVER MODE:  SCF:  T  FORCE:  T  STRESS:  F  VC:  F  ENSEMBLE:  F

     Using Slab Decomposition

     bravais-lattice index     =            0
     lattice parameter (alat)  =       1.8897  a.u.
     unit-cell volume          =    6658.9804 (a.u.)^3
     number of atoms/cell      =           47
     number of atomic types    =            2
     number of electrons       =       378.00
     number of Kohn-Sham states=          199
     kinetic-energy cutoff     =      29.3995  Ry
     charge density cutoff     =     293.9946  Ry
     scf convergence threshold =      7.3E-08
     mixing beta               =       0.0500
     number of iterations used =            8  plain     mixing
     Exchange-correlation= BEEF-VDW
                           (   1   4  43  14   2   0   0)

     celldm(1)=   1.889726  celldm(2)=   0.000000  celldm(3)=   0.000000
     celldm(4)=   0.000000  celldm(5)=   0.000000  celldm(6)=   0.000000

     crystal axes: (cart. coord. in units of alat)
               a(1) = (   6.579727   0.000000   0.000000 )
               a(2) = (  -0.000775   5.961596   0.000000 )
               a(3) = (   0.000000   0.000000  25.155947 )

     reciprocal axes: (cart. coord. in units 2 pi/alat)
               b(1) = (  0.151982  0.000020  0.000000 )
               b(2) = (  0.000000  0.167740  0.000000 )
               b(3) = (  0.000000  0.000000  0.039752 )

     PseudoPot. # 1 for Ti read from file:
     /storage/coda1/p-amedford6/0/shared/rich_project_chbe-medford/medford-share/data/pseudos_module/espresso/nninc/pbe/van/Ti.UPF
     MD5 check sum: 8e4df49b7f0d34bbd5052bf3f5ea0213
     Pseudo is Ultrasoft, Zval = 12.0
     Generated by new atomic code, or converted to UPF format
     Using radial grid of  851 points,  6 beta functions with:
                l(1) =   0
                l(2) =   0
                l(3) =   1
                l(4) =   1
                l(5) =   2
                l(6) =   2
     Q(r) pseudized with  8 coefficients,  rinner =    1.000   1.000   1.000
                                                       1.000   1.000

     PseudoPot. # 2 for O  read from file:
     /storage/coda1/p-amedford6/0/shared/rich_project_chbe-medford/medford-share/data/pseudos_module/espresso/nninc/pbe/van/O.UPF
     MD5 check sum: 78c19812648e8988a0fe644b0f25305e
     Pseudo is Ultrasoft, Zval =  6.0
     Generated by new atomic code, or converted to UPF format
     Using radial grid of  737 points,  4 beta functions with:
                l(1) =   0
                l(2) =   0
                l(3) =   1
                l(4) =   1
     Q(r) pseudized with  8 coefficients,  rinner =    0.800   0.800   0.800

     atomic species   valence    mass     pseudopotential
        Ti1           12.00    47.86700     Ti( 1.00)
        O1             6.00    15.99900     O ( 1.00)

     Starting magnetic structure
     atomic species   magnetization
        Ti1          0.000
        O1           0.000

     No symmetry found

   Cartesian axes

     site n.     atom                  positions (alat units)
         1           Ti1 tau(   1) = (   0.0004258   2.9801865   6.0000000  )
         2           Ti1 tau(   2) = (   3.2906075   1.4906267   6.0002472  )
         3           O1  tau(   3) = (   0.0006271   0.0005054   7.9858123  )
         4           O1  tau(   4) = (   3.2906025   0.0005020   7.3038282  )
         5           O1  tau(   5) = (   4.5942328   1.4918067   9.2879030  )
         6           O1  tau(   6) = (   1.9868534   1.4903216   9.2879459  )
         7           Ti1 tau(   7) = (   3.2895655   2.9803496   9.1561551  )
         8           Ti1 tau(   8) = (   6.5792279   1.4901203   9.2542590  )
         9           O1  tau(   9) = (   3.2908496   0.0003861  11.3974292  )
        10           O1  tau(  10) = (   0.0009741   0.0005107  10.6121890  )
        11           O1  tau(  11) = (   1.2851668   1.4970119  12.6717501  )
        12           O1  tau(  12) = (   5.2960956   1.4969944  12.6716611  )
        13           Ti1 tau(  13) = (   0.0014209   2.9817635  12.4865077  )
        14           Ti1 tau(  14) = (   3.2920103   1.4923710  12.5431595  )
        15           O1  tau(  15) = (   0.0005111   0.0003601  14.6908606  )
        16           O1  tau(  16) = (   3.2907661   0.0003422  14.0280135  )
        17           O1  tau(  17) = (   4.5563287   1.5043111  16.1972802  )
        18           O1  tau(  18) = (   2.0238984   1.5042417  16.1969189  )
        19           Ti1 tau(  19) = (   3.2900530   2.9812534  15.7923096  )
        20           Ti1 tau(  20) = (   0.0002900   1.3462356  15.9516996  )
        21           O1  tau(  21) = (   3.2904802   0.0005063   4.7018136  )
        22           O1  tau(  22) = (   0.0005067   0.0002908  17.2230471  )
        23           O1  tau(  23) = (   1.3043587   1.4918075   6.0039043  )
        24           O1  tau(  24) = (   5.2767064   1.4903225   6.0039473  )
        25           Ti1 tau(  25) = (   0.0000382   5.9609847   6.0000000  )
        26           Ti1 tau(  26) = (   3.2902200   4.4714249   6.0002472  )
        27           O1  tau(  27) = (   0.0002396   2.9813036   7.9858123  )
        28           O1  tau(  28) = (   3.2902150   2.9813002   7.3038282  )
        29           O1  tau(  29) = (   4.5938453   4.4726049   9.2879030  )
        30           O1  tau(  30) = (   1.9864658   4.4711199   9.2879459  )
        31           Ti1 tau(  31) = (   3.2890184   5.9611387   9.1545655  )
        32           Ti1 tau(  32) = (   6.5788211   4.4731772   9.2541010  )
        33           O1  tau(  33) = (   3.2904314   2.9811918  11.3932170  )
        34           O1  tau(  34) = (   0.0006808   2.9813391  10.6259032  )
        35           O1  tau(  35) = (   1.2847872   4.4655815  12.6717948  )
        36           O1  tau(  36) = (   5.2956760   4.4653813  12.6716352  )
        37           Ti1 tau(  37) = (   0.0020938   0.0010105  12.4782417  )
        38           Ti1 tau(  38) = (   3.2917349   4.4701355  12.5431901  )
        39           O1  tau(  39) = (   0.0000992   2.9811129  15.0245885  )
        40           O1  tau(  40) = (   3.2903432   2.9811263  13.9978513  )
        41           O1  tau(  41) = (   4.5559250   4.4580163  16.1971803  )
        42           O1  tau(  42) = (   2.0234811   4.4579909  16.1969720  )
        43           Ti1 tau(  43) = (   3.2904469   0.0004528  15.8318627  )
        44           Ti1 tau(  44) = (   0.0000435   4.6159127  15.9515978  )
        45           O1  tau(  45) = (   3.2900926   2.9813045   4.7018136  )
        46           O1  tau(  46) = (   1.3039711   4.4726057   6.0039043  )
        47           O1  tau(  47) = (   5.2763189   4.4711207   6.0139473  )

     number of k points=    10  Fermi-Dirac smearing, width (Ry)=  0.0073
                       cart. coord. in units 2pi/alat
        k(    1) = (   0.0000000   0.0000000   0.0000000), wk =   0.0625000
        k(    2) = (   0.0000000   0.0419351   0.0000000), wk =   0.1250000
        k(    3) = (   0.0000000  -0.0838702   0.0000000), wk =   0.0625000
        k(    4) = (   0.0379955   0.0000049   0.0000000), wk =   0.1250000
        k(    5) = (   0.0379955   0.0419400   0.0000000), wk =   0.1250000
        k(    6) = (   0.0379955  -0.0838652   0.0000000), wk =   0.1250000
        k(    7) = (   0.0379955  -0.0419301   0.0000000), wk =   0.1250000
        k(    8) = (  -0.0759910  -0.0000099   0.0000000), wk =   0.0625000
        k(    9) = (  -0.0759910   0.0419252   0.0000000), wk =   0.1250000
        k(   10) = (  -0.0759910  -0.0838800   0.0000000), wk =   0.0625000

     Initial potential from superposition of free atoms

     starting charge  361.99925, renormalised to  378.00000

     negative rho (up, down):  1.184E-02 1.184E-02

     %%%%%%%%%%%%%%%%%%%%%%%%%%%%%%%%%%%%%%%%%%%%%%%%%%%%%%%%%%%%%%%%%%%%%%%%
     %                                                                      %
     % You are using vdW-DF, which was implemented by the Thonhauser group. %
     % Please cite the following two papers that made this development      %
     % possible and the two reviews that describe the various versions:     %
     %                                                                      %
     %   T. Thonhauser et al., PRL 115, 136402 (2015).                      %
     %   T. Thonhauser et al., PRB 76, 125112 (2007).                       %
     %   K. Berland et al., Rep. Prog. Phys. 78, 066501 (2015).             %
     %   D.C. Langreth et al., J. Phys.: Condens. Matter 21, 084203 (2009). %
     %                                                                      %
     %                                                                      %
     % If you are calculating the stress with vdW-DF, please also cite:     %
     %                                                                      %
     %   R. Sabatini et al., J. Phys.: Condens. Matter 24, 424209 (2012).   %
     %                                                                      %
     %%%%%%%%%%%%%%%%%%%%%%%%%%%%%%%%%%%%%%%%%%%%%%%%%%%%%%%%%%%%%%%%%%%%%%%%

     Adding external electric field

     Computed dipole along edir(3) :
        Dipole                1.1365 Ry au,          2.8888 Debye
        Dipole field          0.0021 Ry au,

        Potential amp.       -0.1988 Ry
        Total length         46.3494 bohr

[...]

     Starting wfcs are  284 atomic wfcs
  @ DRIVER MODE: Message from server: STATUS
  @ DRIVER MODE: Message from server: POSDATA
  @ DRIVER MODE: Reading and sharing cell
  @ DRIVER MODE: Reading and sharing positions
  @ DRIVER MODE: Received positions

     Self-consistent Calculation

     iteration #  1     ecut=    29.40 Ry     beta= 0.05
     Davidson diagonalization with overlap
     c_bands:  2 eigenvalues not converged
     c_bands:  3 eigenvalues not converged
     c_bands:  2 eigenvalues not converged
     c_bands:  3 eigenvalues not converged
     c_bands:  1 eigenvalues not converged
     c_bands:  2 eigenvalues not converged
     c_bands:  1 eigenvalues not converged
     c_bands:  1 eigenvalues not converged
     c_bands:  3 eigenvalues not converged
     c_bands:  2 eigenvalues not converged
     c_bands:  2 eigenvalues not converged
     c_bands:  3 eigenvalues not converged
     c_bands:  2 eigenvalues not converged
     c_bands:  3 eigenvalues not converged
     c_bands:  1 eigenvalues not converged
     c_bands:  2 eigenvalues not converged
     c_bands:  1 eigenvalues not converged
     c_bands:  1 eigenvalues not converged
     c_bands:  3 eigenvalues not converged
     c_bands:  2 eigenvalues not converged
     ethr =  1.00E-05,  avg # of iterations = 20.0

[...]

     total energy              =   -2885.09589962 Ry
     estimated scf accuracy    <      12.51372772 Ry

     total magnetization       =     0.00 Bohr mag/cell
     absolute magnetization    =     0.00 Bohr mag/cell

     iteration #  2     ecut=    29.40 Ry     beta= 0.05
     Davidson diagonalization with overlap
     ethr =  3.31E-03,  avg # of iterations =  1.0

[...]

     iteration # 56     ecut=    29.40 Ry     beta= 0.05
     Davidson diagonalization with overlap
     c_bands:  1 eigenvalues not converged
     c_bands:  1 eigenvalues not converged
     ethr =  2.81E-11,  avg # of iterations = 14.9

[...]

     total energy              =   -2883.85274935 Ry
     estimated scf accuracy    <       0.00000012 Ry

[...]

     iteration # 58     ecut=    29.40 Ry     beta= 0.05
     Davidson diagonalization with overlap
     ethr =  2.81E-11,  avg # of iterations =  9.5

     negative rho (up, down):  1.071E-02 1.071E-02

[...]

     Adding external electric field

     Computed dipole along edir(3) :
        Dipole                0.5563 Ry au,          1.4140 Debye
        Dipole field          0.0010 Ry au,

        Potential amp.       -0.0973 Ry
        Total length         46.3494 bohr

     Magnetic moment per site  (integrated on atomic sphere of radius R)
     atom   1 (R=0.740)  charge=  8.0666  magn=  0.0000
     atom   2 (R=0.740)  charge=  8.0460  magn=  0.0000
     atom   3 (R=0.740)  charge=  5.0351  magn= -0.0000
     atom   4 (R=0.740)  charge=  5.0740  magn=  0.0000
     atom   5 (R=0.740)  charge=  5.0337  magn=  0.0000
     atom   6 (R=0.740)  charge=  5.0338  magn=  0.0000
     atom   7 (R=0.740)  charge=  8.0460  magn= -0.0000
     atom   8 (R=0.740)  charge=  8.0493  magn=  0.0000
     atom   9 (R=0.740)  charge=  5.0395  magn= -0.0000
     atom  10 (R=0.740)  charge=  5.0477  magn= -0.0000
     atom  11 (R=0.740)  charge=  5.0325  magn=  0.0000
     atom  12 (R=0.740)  charge=  5.0326  magn= -0.0000
     atom  13 (R=0.740)  charge=  8.0562  magn= -0.0000
     atom  14 (R=0.740)  charge=  8.0499  magn=  0.0000
     atom  15 (R=0.740)  charge=  5.0483  magn=  0.0000
     atom  16 (R=0.740)  charge=  5.0335  magn=  0.0000
     atom  17 (R=0.740)  charge=  5.0152  magn=  0.0000
     atom  18 (R=0.740)  charge=  5.0151  magn=  0.0000
     atom  19 (R=0.740)  charge=  8.0776  magn=  0.0000
     atom  20 (R=0.740)  charge=  8.0902  magn= -0.0000
     atom  21 (R=0.740)  charge=  4.9132  magn=  0.0000
     atom  22 (R=0.740)  charge=  4.9955  magn= -0.0000
     atom  23 (R=0.740)  charge=  5.0274  magn=  0.0000
     atom  24 (R=0.740)  charge=  5.0275  magn= -0.0000
     atom  25 (R=0.740)  charge=  8.0668  magn=  0.0000
     atom  26 (R=0.740)  charge=  8.0460  magn= -0.0000
     atom  27 (R=0.740)  charge=  5.0345  magn=  0.0000
     atom  28 (R=0.740)  charge=  5.0735  magn=  0.0000
     atom  29 (R=0.740)  charge=  5.0337  magn= -0.0000
     atom  30 (R=0.740)  charge=  5.0338  magn= -0.0000
     atom  31 (R=0.740)  charge=  8.0465  magn= -0.0000
     atom  32 (R=0.740)  charge=  8.0493  magn=  0.0000
     atom  33 (R=0.740)  charge=  5.0395  magn=  0.0000
     atom  34 (R=0.740)  charge=  5.0426  magn=  0.0000
     atom  35 (R=0.740)  charge=  5.0324  magn=  0.0000
     atom  36 (R=0.740)  charge=  5.0325  magn=  0.0000
     atom  37 (R=0.740)  charge=  8.0520  magn= -0.0000
     atom  38 (R=0.740)  charge=  8.0499  magn= -0.0000
     atom  39 (R=0.740)  charge=  5.0311  magn= -0.0000
     atom  40 (R=0.740)  charge=  5.0467  magn= -0.0000
     atom  41 (R=0.740)  charge=  5.0152  magn=  0.0000
     atom  42 (R=0.740)  charge=  5.0151  magn=  0.0000
     atom  43 (R=0.740)  charge=  8.0771  magn= -0.0000
     atom  44 (R=0.740)  charge=  8.0902  magn= -0.0000
     atom  45 (R=0.740)  charge=  4.9132  magn=  0.0000
     atom  46 (R=0.740)  charge=  5.0274  magn= -0.0000
     atom  47 (R=0.740)  charge=  5.0276  magn=  0.0000

     End of self-consistent calculation

 ------ SPIN UP ------------

          k = 0.0000 0.0000 0.0000 ( 18029 PWs)   bands (ev):

   -56.2734 -56.2375 -56.2220 -56.1878 -56.1537 -56.1403 -56.1109 -56.1057
   -56.0879 -56.0786 -56.0768 -56.0502 -56.0239 -56.0162 -55.3377 -55.3036
   -32.8355 -32.7899 -32.7245 -32.6252 -32.5836 -32.5788 -32.5756 -32.5648
   -32.5123 -32.4994 -32.4787 -32.4722 -32.4671 -32.4436 -32.4427 -32.4233
   -32.4107 -32.4094 -32.3965 -32.3864 -32.3746 -32.3735 -32.3704 -32.3697
   -32.3449 -32.3424 -32.3208 -32.2770 -32.2709 -32.2616 -32.2602 -32.2542
   -32.2483 -32.2395 -32.2382 -32.2339 -32.2293 -32.2079 -32.1994 -32.1831
   -32.1655 -32.1062 -31.7506 -31.6456 -31.6242 -31.5662 -31.4798 -31.3694
   -17.1042 -16.8815 -16.7394 -16.6030 -16.5008 -16.3973 -16.2740 -16.2227
   -16.1687 -16.0231 -15.9633 -15.9375 -15.8988 -15.8747 -15.8671 -15.8523
   -15.8295 -15.8121 -15.7912 -15.7841 -15.7675 -15.7659 -15.7195 -15.6665
   -15.5736 -15.5060 -15.4356 -15.3777 -15.0532 -13.8400 -13.7202  -4.4245
    -4.2892  -4.2151  -4.2004  -4.1488  -4.0380  -3.8181  -3.7942  -3.7286
    -3.5725  -3.5246  -3.4671  -3.4077  -3.3379  -3.2807  -3.2696  -3.1686
    -3.1441  -3.1394  -3.1341  -3.0519  -3.0497  -3.0272  -3.0008  -2.9617
    -2.8709  -2.7496  -2.7059  -2.6708  -2.6510  -2.6416  -2.6204  -2.5913
    -2.5590  -2.5246  -2.5229  -2.4860  -2.4463  -2.3209  -2.1750  -2.1310
    -2.0612  -1.9696  -1.8983  -1.8329  -1.7926  -1.7548  -1.7299  -1.6815
    -1.6496  -1.6170  -1.5399  -1.4506  -1.4095  -1.3046  -1.2881  -1.2212
    -1.1856  -1.1124  -1.0695  -1.0659  -1.0249  -0.9361  -0.9094  -0.7852
    -0.7587  -0.7509  -0.7386  -0.7287  -0.6172  -0.5150  -0.4847  -0.4762
    -0.4751  -0.3897  -0.3404  -0.3329  -0.3174  -0.3108  -0.2603  -0.1863
    -0.1446  -0.0936   0.0486   0.2731   0.2754   0.3406   0.5711   0.6445
     0.6871   0.8447   1.2712   1.3240   2.8245   2.8907   2.9218   2.9561
     2.9830   3.0311   3.3213   3.3351   3.3587   3.3866   3.4045

[...]

          k =-0.0760-0.0000 0.0000 ( 17886 PWs)   bands (ev):

[...]

 ------ SPIN DOWN ----------

[...]

          k = 0.0380-0.0419 0.0000 ( 17876 PWs)   bands (ev):

[...]

          k =-0.0760-0.0839 0.0000 ( 17948 PWs)   bands (ev):

   -56.2556 -56.2551 -56.2050 -56.2046 -56.1494 -56.1252 -56.1207 -56.0942
   -56.0932 -56.0827 -56.0813 -56.0334 -56.0330 -56.0304 -55.3213 -55.3198
   -32.7134 -32.6412 -32.6383 -32.5394 -32.5390 -32.5388 -32.5242 -32.4975
   -32.4975 -32.4710 -32.4672 -32.4669 -32.4606 -32.4181 -32.4156 -32.4149
   -32.4088 -32.4083 -32.3948 -32.3892 -32.3881 -32.3841 -32.3726 -32.3567
   -32.3536 -32.3507 -32.3489 -32.3452 -32.3227 -32.3223 -32.3178 -32.3134
   -32.2899 -32.2891 -32.2636 -32.2634 -32.2631 -32.2625 -32.2328 -32.2190
   -32.2187 -32.2110 -31.6376 -31.6360 -31.5638 -31.5626 -31.5237 -31.5224
   -16.8120 -16.4574 -16.4187 -16.3323 -16.3246 -16.2261 -16.2063 -16.1171
   -16.0756 -16.0522 -16.0514 -15.9986 -15.9791 -15.9586 -15.9558 -15.8933
   -15.8777 -15.8491 -15.8463 -15.7911 -15.7889 -15.7872 -15.7859 -15.7496
   -15.7465 -15.7081 -15.7048 -15.6036 -15.4368 -13.8213 -13.8210  -3.8282
    -3.7266  -3.6720  -3.5554  -3.4819  -3.4464  -3.4000  -3.3900  -3.3163
    -3.2728  -3.2688  -3.1862  -3.1749  -3.1746  -3.1617  -3.0995  -3.0847
    -3.0602  -3.0357  -3.0098  -2.9819  -2.9692  -2.9675  -2.9479  -2.9389
    -2.9188  -2.9178  -2.8885  -2.8628  -2.8405  -2.8247  -2.6641  -2.6599
    -2.5739  -2.5137  -2.5123  -2.4329  -2.4239  -2.3808  -2.3485  -2.2920
    -2.2520  -2.0959  -2.0739  -2.0717  -2.0058  -1.9795  -1.9109  -1.8524
    -1.8376  -1.7893  -1.7325  -1.6153  -1.5962  -1.5719  -1.4654  -1.4649
    -1.3906  -1.3152  -1.2713  -1.2676  -1.2640  -1.2325  -1.2297  -1.2255
    -1.1161  -1.0631  -1.0168  -1.0090  -0.9965  -0.7942  -0.7342  -0.7208
    -0.6082  -0.5548  -0.3709  -0.3657  -0.3239  -0.2107  -0.2069  -0.2064
    -0.1564  -0.0312  -0.0188   0.0489   0.0917   0.1049   0.1448   0.1464
     1.0361   1.0372   1.1421   1.1428   2.9958   3.0780   3.0836   3.1328
     3.2732   3.3243   3.3297   3.3751   3.3763   3.3799   3.4588

     the Fermi energy is     2.8904 ev

!    total energy              =   -2883.85279236 Ry
     estimated scf accuracy    <       0.00000004 Ry
     smearing contrib. (-TS)   =      -0.03660558 Ry
     internal energy E=F+TS    =   -2883.81618678 Ry

     The total energy is F=E-TS. E is the sum of the following terms:
     one-electron contribution =  -24917.48150625 Ry
     hartree contribution      =   12533.61360191 Ry
     xc contribution           =    -468.94587488 Ry
     ewald contribution        =    9968.99700838 Ry
     electric field correction =       0.00058405 Ry

     total magnetization       =    -0.00 Bohr mag/cell
     absolute magnetization    =     0.00 Bohr mag/cell

     convergence has been achieved in  58 iterations

     Forces acting on atoms (cartesian axes, Ry/au):

     atom    1 type  1   force =    -0.00002964    0.00003728    0.09033267
     atom    2 type  1   force =    -0.00004109    0.00029937   -0.18414176
     atom    3 type  2   force =     0.00029039    0.00029800   -0.02385158
     atom    4 type  2   force =    -0.00023409    0.00017993    0.05194134
     atom    5 type  2   force =    -0.01339683   -0.00027081    0.00586489
     atom    6 type  2   force =     0.01336612    0.00021069    0.00585463
     atom    7 type  1   force =    -0.00001374    0.00003905    0.00033869
     atom    8 type  1   force =     0.00003207    0.00043899    0.00021243
     atom    9 type  2   force =     0.00000863    0.00001881    0.00086002
     atom   10 type  2   force =     0.00000030   -0.00000403   -0.00035435
     atom   11 type  2   force =     0.00016955   -0.00023795    0.00049992
     atom   12 type  2   force =    -0.00019130   -0.00025170    0.00050186
     atom   13 type  1   force =    -0.00000642   -0.00000007   -0.00078943
     atom   14 type  1   force =     0.00004103   -0.00074637    0.00053203
     atom   15 type  2   force =    -0.00000329   -0.00001426   -0.00070587
     atom   16 type  2   force =     0.00001778    0.00001287    0.00014272
     atom   17 type  2   force =    -0.00003569    0.00023866    0.00002381
     atom   18 type  2   force =     0.00005076    0.00023741    0.00002984
     atom   19 type  1   force =    -0.00001670   -0.00000484   -0.00081235
     atom   20 type  1   force =     0.00003084    0.00016505   -0.00003545
     atom   21 type  2   force =     0.00032378   -0.00011814    0.10519087
     atom   22 type  2   force =    -0.00001564   -0.00000336    0.00047516
     atom   23 type  2   force =    -0.06749668   -0.00026674   -0.02594074
     atom   24 type  2   force =     0.06745601    0.00016956   -0.02616112
     atom   25 type  1   force =    -0.00003069   -0.00003285    0.08942617
     atom   26 type  1   force =     0.00013364   -0.00039227   -0.18414795
     atom   27 type  2   force =     0.00029392   -0.00032553   -0.02280729
     atom   28 type  2   force =    -0.00023009   -0.00022279    0.05200453
     atom   29 type  2   force =    -0.01340694   -0.00027322    0.00589970
     atom   30 type  2   force =     0.01336157    0.00022563    0.00582912
     atom   31 type  1   force =    -0.00001304   -0.00000187    0.00069724
     atom   32 type  1   force =    -0.00004634   -0.00043113    0.00021651
     atom   33 type  2   force =     0.00001410    0.00000899   -0.00029500
     atom   34 type  2   force =    -0.00001318    0.00001380    0.00015626
     atom   35 type  2   force =     0.00016033    0.00026148    0.00050214
     atom   36 type  2   force =    -0.00018652    0.00025490    0.00050432
     atom   37 type  1   force =    -0.00000262   -0.00002233    0.00077850
     atom   38 type  1   force =     0.00002792    0.00076439    0.00052349
     atom   39 type  2   force =    -0.00001775    0.00000073   -0.00041708
     atom   40 type  2   force =     0.00001562    0.00001302   -0.00048359
     atom   41 type  2   force =    -0.00003361   -0.00022770    0.00002242
     atom   42 type  2   force =     0.00005638   -0.00023374    0.00002750
     atom   43 type  1   force =    -0.00001151   -0.00000473    0.00041356
     atom   44 type  1   force =    -0.00003409   -0.00015720   -0.00003449
     atom   45 type  2   force =     0.00032362    0.00026949    0.10516491
     atom   46 type  2   force =    -0.06758930   -0.00017815   -0.02620976
     atom   47 type  2   force =     0.06692246    0.00026368   -0.02777944

     Total force =     0.366640     Total SCF correction =     0.000345
  @ DRIVER MODE: Message from server: STATUS
  @ DRIVER MODE: Message from server: GETFORCE
  @ DRIVER MODE: Returning v,forces,stress,ensemble

     Writing output data file ./calc.save/
  @ DRIVER MODE: Message from server: EXIT
  @ DRIVE MODE: Exiting

     General routines

     Parallel routines

   This run was terminated on:  10:57:47  23Jul2021

   JOB DONE.