     Program PWSCF v.6.7GPU starts on 18Oct2021 at 11:58:23

     R & G space division:  proc/nbgrp/npool/nimage =       8
     Reading input from /storage/home/hcoda1/3/ntian30/research/carbon/CxH_vib/Thiel_calc/ads_slab/N2HH_perslab/out_0001/pw.inp
Warning: card &CELL ignored
Warning: card   CELL_DYNAMICS='IPI', ignored
Warning: card / ignored

     Current dimensions of program PWSCF are:
     Max number of different atomic species (ntypx) = 10
     Max number of k-points (npk) =  40000
     Max angular momentum in pseudopotentials (lmaxx) =  3
     Presently no symmetry can be used with electric field

     Message from routine cell_base_init:
     DEPRECATED: use true lattice parameter, not A to a.u. conversion factor

     IMPORTANT: XC functional enforced from input :
     Exchange-correlation= BEEF-VDW
                           (   1   4  43  14   2   0   0)
     Any further DFT definition will be discarded
     Please, verify this is what you really want

  @ DRIVER MODE: Connecting to
 qe_1139763_3255130.sched-torque.pace.gatech.edu7tmxrzhn_scratch
  using UNIX socket
  @ DRIVER MODE: Message from server: STATUS
  @ DRIVER MODE: Message from server: INIT
  @ DRIVER MODE: Receiving replica           0          -1
  @ DRIVER MODE: Receiving encoded integer          25
  @ DRIVER MODE:  SCF:  T  FORCE:  T  STRESS:  F  VC:  F  ENSEMBLE:  F
  @ DRIVER MODE:  SCF:  T  FORCE:  T  STRESS:  F  VC:  F  ENSEMBLE:  F

     Using Slab Decomposition

     bravais-lattice index     =            0
     lattice parameter (alat)  =       1.8897  a.u.
     unit-cell volume          =    9988.4706 (a.u.)^3
     number of atoms/cell      =           57
     number of atomic types    =            4
     number of electrons       =       438.00
     number of Kohn-Sham states=          229
     kinetic-energy cutoff     =      29.3995  Ry
     charge density cutoff     =     293.9946  Ry
     scf convergence threshold =      7.3E-08
     mixing beta               =       0.0500
     number of iterations used =            8  plain     mixing
     Exchange-correlation= BEEF-VDW
                           (   1   4  43  14   2   0   0)

     celldm(1)=   1.889726  celldm(2)=   0.000000  celldm(3)=   0.000000
     celldm(4)=   0.000000  celldm(5)=   0.000000  celldm(6)=   0.000000

     crystal axes: (cart. coord. in units of alat)
               a(1) = (   6.579727   0.000000   0.000000 )
               a(2) = (  -0.001163   8.942395   0.000000 )
               a(3) = (   0.000000   0.000000  25.155947 )

     reciprocal axes: (cart. coord. in units 2 pi/alat)
               b(1) = (  0.151982  0.000020  0.000000 )
               b(2) = (  0.000000  0.111827  0.000000 )
               b(3) = (  0.000000  0.000000  0.039752 )

     PseudoPot. # 1 for O  read from file:
     /storage/coda1/p-amedford6/0/shared/rich_project_chbe-medford/medford-share/data/pseudos_module/espresso/nninc/pbe/van/O.UPF
     MD5 check sum: 78c19812648e8988a0fe644b0f25305e
     Pseudo is Ultrasoft, Zval =  6.0
     Generated by new atomic code, or converted to UPF format
     Using radial grid of  737 points,  4 beta functions with:
                l(1) =   0
                l(2) =   0
                l(3) =   1
                l(4) =   1
     Q(r) pseudized with  8 coefficients,  rinner =    0.800   0.800   0.800

     PseudoPot. # 2 for Ti read from file:
     /storage/coda1/p-amedford6/0/shared/rich_project_chbe-medford/medford-share/data/pseudos_module/espresso/nninc/pbe/van/Ti.UPF
     MD5 check sum: 8e4df49b7f0d34bbd5052bf3f5ea0213
     Pseudo is Ultrasoft, Zval = 12.0
     Generated by new atomic code, or converted to UPF format
     Using radial grid of  851 points,  6 beta functions with:
                l(1) =   0
                l(2) =   0
                l(3) =   1
                l(4) =   1
                l(5) =   2
                l(6) =   2
     Q(r) pseudized with  8 coefficients,  rinner =    1.000   1.000   1.000
                                                       1.000   1.000

     PseudoPot. # 3 for H  read from file:
     /storage/coda1/p-amedford6/0/shared/rich_project_chbe-medford/medford-share/data/pseudos_module/espresso/nninc/pbe/van/H.UPF
     MD5 check sum: b5ee9d7bfd3a09ee7748110bda690ff7
     Pseudo is Ultrasoft, Zval =  1.0
     Generated by new atomic code, or converted to UPF format
     Using radial grid of  615 points,  1 beta functions with:
                l(1) =   0
     Q(r) pseudized with  8 coefficients,  rinner =    0.800

     PseudoPot. # 4 for N  read from file:
     /storage/coda1/p-amedford6/0/shared/rich_project_chbe-medford/medford-share/data/pseudos_module/espresso/nninc/pbe/van/N.UPF
     MD5 check sum: 90d10febe142ad51ac9d5be1deb811c4
     Pseudo is Ultrasoft, Zval =  5.0
     Generated by new atomic code, or converted to UPF format
     Using radial grid of  729 points,  4 beta functions with:
                l(1) =   0
                l(2) =   0
                l(3) =   1
                l(4) =   1
     Q(r) pseudized with  8 coefficients,  rinner =    0.800   0.800   0.800

     atomic species   valence    mass     pseudopotential
        O1             6.00    15.99900     O ( 1.00)
        Ti1           12.00    47.86700     Ti( 1.00)
        H1             1.00     1.00800     H ( 1.00)
        N1             5.00    14.00700     N ( 1.00)

     No symmetry found

   Cartesian axes

     site n.     atom                  positions (alat units)
         1           O1  tau(   1) = (   0.0007354   0.0005023  10.5931620  )
         2           O1  tau(   2) = (   3.3150156   8.9360210  13.9574341  )
         3           O1  tau(   3) = (   6.5771809   0.1322222  17.3752006  )
         4           O1  tau(   4) = (   0.0006271   0.0005054   7.9858123  )
         5           O1  tau(   5) = (   3.2854428   8.9395983  11.2048121  )
         6           O1  tau(   6) = (   6.5534721   0.0059909  14.6304568  )
         7           O1  tau(   7) = (   1.9868534   1.4903216   9.2879459  )
         8           O1  tau(   8) = (   5.2434221   1.6171961  12.5999149  )
         9           O1  tau(   9) = (   1.9662201   1.5518754  16.1237639  )
        10           Ti1 tau(  10) = (   0.0007404   1.4906270   9.2895810  )
        11           Ti1 tau(  11) = (   3.2893977   1.3594553  12.5356033  )
        12           Ti1 tau(  12) = (   0.0178951   1.3769434  15.7441411  )
        13           O1  tau(  13) = (   4.5942328   1.4918067   9.2879030  )
        14           O1  tau(  14) = (   1.3385959   1.6247007  12.6234478  )
        15           O1  tau(  15) = (   4.5909775   1.5586907  16.1788856  )
        16           Ti1 tau(  16) = (   3.2902859   2.9801868   9.2893338  )
        17           Ti1 tau(  17) = (   6.5767353   2.8476438  12.4354253  )
        18           Ti1 tau(  18) = (   3.2855622   3.0003959  15.7804328  )
        19           O1  tau(  19) = (   0.0003479   2.9813005  10.5931620  )
        20           O1  tau(  20) = (   3.3036998   2.9877085  13.9702655  )
        21           O1  tau(  21) = (   0.0002396   2.9813036   7.9858123  )
        22           O1  tau(  22) = (   3.2849372   2.9737507  11.2063419  )
        23           O1  tau(  23) = (   6.5394694   3.0167582  14.8135819  )
        24           O1  tau(  24) = (   1.9864658   4.4711199   9.2879459  )
        25           O1  tau(  25) = (   5.2427600   4.5794291  12.6037842  )
        26           O1  tau(  26) = (   1.9458942   4.4597853  16.1214517  )
        27           Ti1 tau(  27) = (   0.0003529   4.4714252   9.2895810  )
        28           Ti1 tau(  28) = (   3.2810590   4.3307370  12.5385870  )
        29           Ti1 tau(  29) = (   6.5544800   4.6619433  15.7291082  )
        30           O1  tau(  30) = (   4.5938453   4.4726049   9.2879030  )
        31           O1  tau(  31) = (   1.3254974   4.5864429  12.6215760  )
        32           O1  tau(  32) = (   4.5799584   4.4820416  16.1880388  )
        33           Ti1 tau(  33) = (   3.2898983   5.9609850   9.2893338  )
        34           Ti1 tau(  34) = (   6.5675573   5.8255355  12.4420054  )
        35           Ti1 tau(  35) = (   3.2444431   5.9917870  15.7690220  )
        36           O1  tau(  36) = (  -0.0000397   5.9620987  10.5931620  )
        37           O1  tau(  37) = (   3.2928066   5.9693490  13.9649938  )
        38           O1  tau(  38) = (   6.5603845   5.9023223  17.3786232  )
        39           O1  tau(  39) = (  -0.0001480   5.9621018   7.9858123  )
        40           O1  tau(  40) = (   3.2839194   5.9454927  11.2056182  )
        41           O1  tau(  41) = (   6.5420590   6.0665053  14.6296390  )
        42           O1  tau(  42) = (   1.9860782   7.4519181   9.2879459  )
        43           O1  tau(  43) = (   5.2396418   7.5574700  12.5673505  )
        44           O1  tau(  44) = (   1.9576089   7.5211923  16.0792554  )
        45           Ti1 tau(  45) = (  -0.0000347   7.4522234   9.2895810  )
        46           Ti1 tau(  46) = (   3.2826699   7.3152331  12.5262848  )
        47           Ti1 tau(  47) = (   0.0069763   7.4761561  16.0760502  )
        48           O1  tau(  48) = (   4.5934577   7.4534031   9.2879030  )
        49           O1  tau(  49) = (   1.3370172   7.5712087  12.5877691  )
        50           O1  tau(  50) = (   4.5576284   7.4668559  16.1934357  )
        51           Ti1 tau(  51) = (   3.2895107   8.9417832   9.2893338  )
        52           Ti1 tau(  52) = (   6.5702701   8.7900240  12.4479541  )
        53           Ti1 tau(  53) = (   3.3076380   0.0053799  15.7629688  )
        54           H1  tau(  54) = (   5.7581615   5.8474147  17.9327380  )
        55           H1  tau(  55) = (   5.8019348   0.2260023  17.9463436  )
        56           N1  tau(  56) = (   6.2964029   3.7918275  19.8857669  )
        57           N1  tau(  57) = (   6.3580303   2.9648886  19.1553858  )

     number of k points=    10  Fermi-Dirac smearing, width (Ry)=  0.0073
                       cart. coord. in units 2pi/alat
        k(    1) = (   0.0000000   0.0000000   0.0000000), wk =   0.1250000
        k(    2) = (   0.0000000   0.0279567   0.0000000), wk =   0.2500000
        k(    3) = (   0.0000000  -0.0559134   0.0000000), wk =   0.1250000
        k(    4) = (   0.0379955   0.0000049   0.0000000), wk =   0.2500000
        k(    5) = (   0.0379955   0.0279617   0.0000000), wk =   0.2500000
        k(    6) = (   0.0379955  -0.0559085   0.0000000), wk =   0.2500000
        k(    7) = (   0.0379955  -0.0279518   0.0000000), wk =   0.2500000
        k(    8) = (  -0.0759910  -0.0000099   0.0000000), wk =   0.1250000
        k(    9) = (  -0.0759910   0.0279468   0.0000000), wk =   0.2500000
        k(   10) = (  -0.0759910  -0.0559233   0.0000000), wk =   0.1250000

     Initial potential from superposition of free atoms

     starting charge  419.99912, renormalised to  438.00000

     negative rho (up, down):  3.691E-02 0.000E+00

     %%%%%%%%%%%%%%%%%%%%%%%%%%%%%%%%%%%%%%%%%%%%%%%%%%%%%%%%%%%%%%%%%%%%%%%%
     %                                                                      %
     % You are using vdW-DF, which was implemented by the Thonhauser group. %
     % Please cite the following two papers that made this development      %
     % possible and the two reviews that describe the various versions:     %
     %                                                                      %
     %   T. Thonhauser et al., PRL 115, 136402 (2015).                      %
     %   T. Thonhauser et al., PRB 76, 125112 (2007).                       %
     %   K. Berland et al., Rep. Prog. Phys. 78, 066501 (2015).             %
     %   D.C. Langreth et al., J. Phys.: Condens. Matter 21, 084203 (2009). %
     %                                                                      %
     %                                                                      %
     % If you are calculating the stress with vdW-DF, please also cite:     %
     %                                                                      %
     %   R. Sabatini et al., J. Phys.: Condens. Matter 24, 424209 (2012).   %
     %                                                                      %
     %%%%%%%%%%%%%%%%%%%%%%%%%%%%%%%%%%%%%%%%%%%%%%%%%%%%%%%%%%%%%%%%%%%%%%%%

     Adding external electric field

     Computed dipole along edir(3) :
        Dipole               -6.4270 Ry au,        -16.3359 Debye
        Dipole field         -0.0081 Ry au,

        Potential amp.        0.7495 Ry
        Total length         46.3494 bohr

     Starting wfcs are  330 atomic wfcs
  @ DRIVER MODE: Message from server: STATUS
  @ DRIVER MODE: Message from server: POSDATA
  @ DRIVER MODE: Reading and sharing cell
  @ DRIVER MODE: Reading and sharing positions
  @ DRIVER MODE: Received positions

     Self-consistent Calculation

     iteration #  1     ecut=    29.40 Ry     beta= 0.05
     Davidson diagonalization with overlap
     c_bands:  2 eigenvalues not converged
     c_bands:  2 eigenvalues not converged
     c_bands:  5 eigenvalues not converged
     c_bands:  2 eigenvalues not converged
     c_bands:  4 eigenvalues not converged
     c_bands:  4 eigenvalues not converged
     c_bands:  3 eigenvalues not converged
     c_bands:  4 eigenvalues not converged
     c_bands:  5 eigenvalues not converged
     ethr =  1.00E-05,  avg # of iterations = 20.8

[...]

     total energy              =   -3266.82616701 Ry
     estimated scf accuracy    <     310.77266872 Ry

[...]

     iteration #  3     ecut=    29.40 Ry     beta= 0.05
     Davidson diagonalization with overlap
     ethr =  1.00E-02,  avg # of iterations = 13.4

[...]

     iteration # 40     ecut=    29.40 Ry     beta= 0.05
     Davidson diagonalization with overlap
     ethr =  1.63E-08,  avg # of iterations =  3.4

[...]

     total energy              =   -3290.82337982 Ry
     estimated scf accuracy    <       0.00000029 Ry

     iteration # 56     ecut=    29.40 Ry     beta= 0.05
     Davidson diagonalization with overlap
     c_bands:  1 eigenvalues not converged
     c_bands:  1 eigenvalues not converged
     c_bands:  1 eigenvalues not converged
     c_bands:  1 eigenvalues not converged
     c_bands:  1 eigenvalues not converged
     ethr =  2.58E-11,  avg # of iterations = 18.2

     negative rho (up, down):  3.510E-02 0.000E+00

     Adding external electric field

     Computed dipole along edir(3) :
        Dipole                1.4928 Ry au,          3.7943 Debye
        Dipole field          0.0019 Ry au,

        Potential amp.       -0.1741 Ry
        Total length         46.3494 bohr

     End of self-consistent calculation

          k = 0.0000 0.0000 0.0000 ( 26871 PWs)   bands (ev):

   -57.5957 -57.5706 -57.5692 -57.5056 -57.4833 -57.4661 -57.4409 -57.4387
   -57.4196 -57.4141 -57.3972 -57.3865 -57.3788 -57.3559 -57.3520 -56.7225
   -56.6987 -56.6926 -33.9877 -33.9859 -33.9693 -33.9648 -33.9449 -33.9318
   -33.9145 -33.9027 -33.8989 -33.8917 -33.8892 -33.8768 -33.8444 -33.8370
   -33.8195 -33.7939 -33.7652 -33.7414 -33.7365 -33.7347 -33.7212 -33.7176
   -33.7147 -33.7081 -33.6978 -33.6972 -33.6935 -33.6927 -33.6731 -33.6667
   -33.6401 -33.6369 -33.6323 -33.6284 -33.6223 -33.6150 -33.6003 -33.5978
   -33.5831 -33.5609 -33.5349 -33.5319 -33.5267 -33.4961 -33.4822 -33.0429
   -33.0348 -33.0286 -33.0133 -33.0081 -32.9527 -32.8914 -32.8845 -32.7518
   -23.7128 -19.4952 -19.3841 -18.4811 -18.1096 -17.9387 -17.9266 -17.9043
   -17.8702 -17.7262 -17.7002 -17.6564 -17.6269 -17.6105 -17.4612 -17.4415
   -17.4246 -17.4219 -17.3752 -17.3703 -17.3640 -17.3348 -17.3281 -17.3164
   -17.2930 -17.2654 -17.1650 -17.1460 -17.1409 -17.1083 -17.0694 -17.0675
   -16.7632 -15.1866 -15.1267 -15.1220  -8.9454  -7.1858  -7.0724  -6.8490
    -6.8324  -5.8026  -5.6738  -5.6119  -5.5596  -5.4277  -5.1308  -5.0923
    -5.0582  -5.0379  -5.0213  -4.9685  -4.9173  -4.9085  -4.8903  -4.8603
    -4.8540  -4.7901  -4.7726  -4.7578  -4.6679  -4.6322  -4.6243  -4.5899
    -4.5679  -4.5037  -4.4921  -4.4718  -4.4344  -4.4258  -4.3993  -4.3824
    -4.2668  -4.1576  -4.1372  -4.0931  -4.0752  -3.9653  -3.9499  -3.9140
    -3.8932  -3.8333  -3.7966  -3.7757  -3.7589  -3.6902  -3.6357  -3.6129
    -3.5751  -3.5210  -3.4707  -3.4480  -3.4267  -3.4100  -3.3507  -3.2935
    -3.2579  -3.1923  -3.1421  -3.0536  -3.0487  -2.9620  -2.9114  -2.7803
    -2.7435  -2.6837  -2.6659  -2.6175  -2.5956  -2.4499  -2.4376  -2.4220
    -2.4187  -2.3848  -2.3303  -2.3098  -2.3072  -2.2854  -2.2567  -2.2085
    -2.1910  -2.1243  -2.0826  -2.0594  -2.0443  -2.0105  -1.9476  -1.9211
    -1.8413  -1.7805  -1.7593  -1.6641  -1.5497  -1.5323  -1.5319  -1.4195
    -1.3957  -1.0222  -0.7954  -0.4980  -0.4325  -0.4304  -0.1458  -0.1405
    -0.0021   1.3419   1.4150   1.5863   1.6095   1.6748   1.8154   1.8388
     1.9185   1.9575   1.9756   1.9885   1.9961

[...]

          k = 0.0380-0.0280 0.0000 ( 26873 PWs)   bands (ev):

[...]

          k =-0.0760-0.0000 0.0000 ( 26902 PWs)   bands (ev):

[...]

          k =-0.0760-0.0559 0.0000 ( 26868 PWs)   bands (ev):

   -57.5878 -57.5863 -57.5614 -57.5020 -57.4892 -57.4634 -57.4372 -57.4368
   -57.4253 -57.4175 -57.3950 -57.3848 -57.3726 -57.3689 -57.3457 -56.7167
   -56.7102 -56.6868 -34.0809 -34.0278 -33.9841 -33.9704 -33.9501 -33.9271
   -33.9111 -33.9071 -33.9045 -33.8858 -33.8624 -33.8187 -33.8107 -33.7959
   -33.7937 -33.7483 -33.7387 -33.7369 -33.7362 -33.7242 -33.7184 -33.7056
   -33.7046 -33.6840 -33.6754 -33.6725 -33.6695 -33.6691 -33.6657 -33.6627
   -33.6605 -33.6570 -33.6525 -33.6419 -33.6363 -33.6301 -33.6219 -33.6016
   -33.5802 -33.5755 -33.5726 -33.5615 -33.5593 -33.5115 -33.4956 -33.1304
   -33.0302 -33.0245 -33.0021 -32.9349 -32.9276 -32.8665 -32.8523 -32.8451
   -23.7128 -19.4727 -19.3955 -18.1331 -18.0997 -17.9797 -17.9176 -17.7975
   -17.7806 -17.7003 -17.6870 -17.6784 -17.6430 -17.6049 -17.5656 -17.5502
   -17.4724 -17.4427 -17.4167 -17.4053 -17.3956 -17.3888 -17.3820 -17.3674
   -17.2617 -17.2595 -17.2548 -17.2246 -17.1570 -17.1033 -17.0508 -17.0352
   -16.7954 -15.1840 -15.1786 -15.0631  -8.9453  -7.2300  -7.0429  -6.8500
    -6.8364  -5.6515  -5.4015  -5.3398  -5.3182  -5.2708  -5.1701  -5.1019
    -5.0594  -5.0018  -4.9419  -4.8905  -4.8575  -4.7940  -4.7803  -4.7678
    -4.7567  -4.7067  -4.6672  -4.6502  -4.6359  -4.6203  -4.6038  -4.5756
    -4.5651  -4.5334  -4.4658  -4.4267  -4.3389  -4.3303  -4.3000  -4.2636
    -4.2385  -4.2178  -4.1595  -4.1441  -4.1140  -4.0909  -3.9709  -3.8550
    -3.8406  -3.8056  -3.7995  -3.7688  -3.7305  -3.7244  -3.6216  -3.5464
    -3.4109  -3.3844  -3.3809  -3.3683  -3.3475  -3.2799  -3.2707  -3.2343
    -3.2024  -3.1878  -3.1663  -3.1122  -3.0836  -3.0058  -2.9736  -2.9160
    -2.8627  -2.8298  -2.7716  -2.7609  -2.7382  -2.7272  -2.7222  -2.7107
    -2.6910  -2.6443  -2.6347  -2.4857  -2.4513  -2.4462  -2.4324  -2.3227
    -2.3044  -2.2061  -2.1965  -2.1629  -2.1518  -2.0633  -2.0444  -1.9379
    -1.9180  -1.8594  -1.8122  -1.7633  -1.4507  -1.4394  -1.4109  -1.3780
    -1.2921  -1.2855  -1.0352  -0.6333  -0.3744  -0.3549  -0.3093  -0.1375
    -0.1356   1.4679   1.5345   1.5591   1.5768   1.6747   1.6875   1.7124
     1.7282   1.7652   1.7777   1.8832   1.9465

     the Fermi energy is     1.4865 ev

!    total energy              =   -3290.82343581 Ry
     estimated scf accuracy    <       0.00000005 Ry
     smearing contrib. (-TS)   =      -0.05469597 Ry
     internal energy E=F+TS    =   -3290.76873984 Ry

     The total energy is F=E-TS. E is the sum of the following terms:
     one-electron contribution =  -33575.56078414 Ry
     hartree contribution      =   16851.46981746 Ry
     xc contribution           =    -540.38645140 Ry
     ewald contribution        =   13973.70587474 Ry
     electric field correction =       0.00280350 Ry

     convergence has been achieved in  56 iterations

     Forces acting on atoms (cartesian axes, Ry/au):

     atom    1 type  1   force =     0.00049451    0.00768148    0.05389167
     atom    2 type  1   force =     0.00022869    0.00346718    0.00202656
     atom    3 type  1   force =    -0.00214348   -0.00161482   -0.00182777
     atom    4 type  1   force =     0.00004149    0.00063116    0.10809969
     atom    5 type  1   force =     0.00011806   -0.00052108    0.01008723
     atom    6 type  1   force =    -0.00049168   -0.00864908   -0.00248592
     atom    7 type  1   force =     0.06411713    0.00022487   -0.02868581
     atom    8 type  1   force =     0.00332935   -0.02901422    0.00415496
     atom    9 type  1   force =     0.01264349   -0.00964230   -0.00137802
     atom   10 type  2   force =     0.00006204   -0.00638224   -0.19200782
     atom   11 type  2   force =    -0.00025219    0.01997158   -0.01153593
     atom   12 type  2   force =    -0.00130815    0.01562296    0.01036283
     atom   13 type  1   force =    -0.06425265   -0.00020612   -0.02810569
     atom   14 type  1   force =    -0.00399017   -0.02855502    0.00378584
     atom   15 type  1   force =    -0.01070128   -0.01192466    0.00082302
     atom   16 type  2   force =    -0.00027403   -0.00085845    0.07230780
     atom   17 type  2   force =     0.00033367    0.03631301    0.00478812
     atom   18 type  2   force =    -0.00024399    0.00082164   -0.00732667
     atom   19 type  1   force =     0.00076863    0.00326852    0.05941429
     atom   20 type  1   force =    -0.00031353    0.00182541   -0.00317161
     atom   21 type  1   force =     0.00006500    0.00073595    0.10922919
     atom   22 type  1   force =     0.00005636   -0.00032706    0.01010814
     atom   23 type  1   force =    -0.00003929    0.00076874    0.00146614
     atom   24 type  1   force =     0.06378526   -0.00058101   -0.02865318
     atom   25 type  1   force =     0.00305933   -0.02882077    0.00380845
     atom   26 type  1   force =     0.00998956    0.01243828    0.00072538
     atom   27 type  2   force =     0.00003557    0.00225304   -0.19417479
     atom   28 type  2   force =     0.00013814    0.01852602   -0.01070607
     atom   29 type  2   force =     0.00014444   -0.01692021    0.00901362
     atom   30 type  1   force =    -0.06394628   -0.00101015   -0.02802746
     atom   31 type  1   force =    -0.00268314   -0.02914010    0.00378365
     atom   32 type  1   force =    -0.01244093    0.00756143   -0.00160865
     atom   33 type  2   force =    -0.00026457   -0.00103534    0.07251767
     atom   34 type  2   force =    -0.00010967    0.03449992    0.00418908
     atom   35 type  2   force =     0.00282359   -0.01383108   -0.00305374
     atom   36 type  1   force =     0.00026375    0.00299911    0.05373949
     atom   37 type  1   force =    -0.00022066    0.00130180    0.00205899
     atom   38 type  1   force =    -0.01318245    0.00009555    0.00798083
     atom   39 type  1   force =     0.00007597   -0.00111686    0.10847488
     atom   40 type  1   force =     0.00000168   -0.00028033    0.00993819
     atom   41 type  1   force =     0.00092257    0.00811626   -0.00133467
     atom   42 type  1   force =     0.06452639   -0.00058709   -0.02831295
     atom   43 type  1   force =     0.00210456   -0.02819204    0.00292113
     atom   44 type  1   force =     0.01352710   -0.00751386    0.00867115
     atom   45 type  2   force =     0.00016168    0.00153898   -0.18904284
     atom   46 type  2   force =    -0.00007060    0.01915075   -0.01213093
     atom   47 type  2   force =     0.00038119    0.00387441   -0.00949093
     atom   48 type  1   force =    -0.06469764   -0.00107724   -0.02775386
     atom   49 type  1   force =    -0.00262584   -0.02847435    0.00286380
     atom   50 type  1   force =    -0.01370366    0.00196077    0.00424451
     atom   51 type  2   force =    -0.00025899   -0.00040742    0.07290510
     atom   52 type  2   force =     0.00057367    0.03496551    0.00443751
     atom   53 type  2   force =    -0.00219059    0.01513717   -0.00250721
     atom   54 type  3   force =     0.01455924    0.00111956   -0.00992773
     atom   55 type  3   force =     0.00094970   -0.00009859   -0.00039990
     atom   56 type  4   force =     0.00017977   -0.00268322   -0.00045617
     atom   57 type  4   force =    -0.00005614    0.00259363    0.00128743

     Total force =     0.463425     Total SCF correction =     0.000451
  @ DRIVER MODE: Message from server: STATUS
  @ DRIVER MODE: Message from server: GETFORCE
  @ DRIVER MODE: Returning v,forces,stress,ensemble

     Writing output data file ./calc.save/
  @ DRIVER MODE: Message from server: EXIT
  @ DRIVE MODE: Exiting

     General routines

     Parallel routines

   This run was terminated on:  12:29:21  18Oct2021

   JOB DONE.