     Program PWSCF v.6.7GPU starts on 15Sep2021 at 19: 8:52

     R & G space division:  proc/nbgrp/npool/nimage =      10
     Reading input from /storage/home/hcoda1/3/ntian30/research/carbon/CxH_vib/H2O_calc/ads_slab/CH2NH2O_a/out_0011/pw.inp
Warning: card &CELL ignored
Warning: card   CELL_DYNAMICS='IPI', ignored
Warning: card / ignored

     Current dimensions of program PWSCF are:
     Max number of different atomic species (ntypx) = 10
     Max number of k-points (npk) =  40000
     Max angular momentum in pseudopotentials (lmaxx) =  3
     Presently no symmetry can be used with electric field

     Message from routine cell_base_init:
     DEPRECATED: use true lattice parameter, not A to a.u. conversion factor

     IMPORTANT: XC functional enforced from input :
     Exchange-correlation= BEEF-VDW
                           (   1   4  43  14   2   0   0)
     Any further DFT definition will be discarded
     Please, verify this is what you really want

  @ DRIVER MODE: Connecting to
 qe_1139763_2852607.sched-torque.pace.gatech.edug4iffbyn_scratch
  using UNIX socket
  @ DRIVER MODE: Message from server: STATUS
  @ DRIVER MODE: Message from server: INIT
  @ DRIVER MODE: Receiving replica           0          -1
  @ DRIVER MODE: Receiving encoded integer          25
  @ DRIVER MODE:  SCF:  T  FORCE:  T  STRESS:  F  VC:  F  ENSEMBLE:  F
  @ DRIVER MODE:  SCF:  T  FORCE:  T  STRESS:  F  VC:  F  ENSEMBLE:  F

     Using Slab Decomposition

     bravais-lattice index     =            0
     lattice parameter (alat)  =       1.8897  a.u.
     unit-cell volume          =    6658.9804 (a.u.)^3
     number of atoms/cell      =           54
     number of atomic types    =            5
     number of electrons       =       397.00
     number of Kohn-Sham states=          208
     kinetic-energy cutoff     =      29.3995  Ry
     charge density cutoff     =     293.9946  Ry
     scf convergence threshold =      7.3E-08
     mixing beta               =       0.0500
     number of iterations used =            8  plain     mixing
     Exchange-correlation= BEEF-VDW
                           (   1   4  43  14   2   0   0)

     celldm(1)=   1.889726  celldm(2)=   0.000000  celldm(3)=   0.000000
     celldm(4)=   0.000000  celldm(5)=   0.000000  celldm(6)=   0.000000

     crystal axes: (cart. coord. in units of alat)
               a(1) = (   6.579727   0.000000   0.000000 )
               a(2) = (  -0.000775   5.961596   0.000000 )
               a(3) = (   0.000000   0.000000  25.155947 )

     reciprocal axes: (cart. coord. in units 2 pi/alat)
               b(1) = (  0.151982  0.000020  0.000000 )
               b(2) = (  0.000000  0.167740  0.000000 )
               b(3) = (  0.000000  0.000000  0.039752 )

     PseudoPot. # 1 for Ti read from file:
     /storage/coda1/p-amedford6/0/shared/rich_project_chbe-medford/medford-share/data/pseudos_module/espresso/nninc/pbe/van/Ti.UPF
     MD5 check sum: 8e4df49b7f0d34bbd5052bf3f5ea0213
     Pseudo is Ultrasoft, Zval = 12.0
     Generated by new atomic code, or converted to UPF format
     Using radial grid of  851 points,  6 beta functions with:
                l(1) =   0
                l(2) =   0
                l(3) =   1
                l(4) =   1
                l(5) =   2
                l(6) =   2
     Q(r) pseudized with  8 coefficients,  rinner =    1.000   1.000   1.000
                                                       1.000   1.000

     PseudoPot. # 2 for O  read from file:
     /storage/coda1/p-amedford6/0/shared/rich_project_chbe-medford/medford-share/data/pseudos_module/espresso/nninc/pbe/van/O.UPF
     MD5 check sum: 78c19812648e8988a0fe644b0f25305e
     Pseudo is Ultrasoft, Zval =  6.0
     Generated by new atomic code, or converted to UPF format
     Using radial grid of  737 points,  4 beta functions with:
                l(1) =   0
                l(2) =   0
                l(3) =   1
                l(4) =   1
     Q(r) pseudized with  8 coefficients,  rinner =    0.800   0.800   0.800

     PseudoPot. # 3 for N  read from file:
     /storage/coda1/p-amedford6/0/shared/rich_project_chbe-medford/medford-share/data/pseudos_module/espresso/nninc/pbe/van/N.UPF
     MD5 check sum: 90d10febe142ad51ac9d5be1deb811c4
     Pseudo is Ultrasoft, Zval =  5.0
     Generated by new atomic code, or converted to UPF format
     Using radial grid of  729 points,  4 beta functions with:
                l(1) =   0
                l(2) =   0
                l(3) =   1
                l(4) =   1
     Q(r) pseudized with  8 coefficients,  rinner =    0.800   0.800   0.800

     PseudoPot. # 4 for C  read from file:
     /storage/coda1/p-amedford6/0/shared/rich_project_chbe-medford/medford-share/data/pseudos_module/espresso/nninc/pbe/van/C.UPF
     MD5 check sum: 1a69bf6b8db32088f5b2163dbdb77a27
     Pseudo is Ultrasoft, Zval =  4.0
     Generated by new atomic code, or converted to UPF format
     Using radial grid of  721 points,  4 beta functions with:
                l(1) =   0
                l(2) =   0
                l(3) =   1
                l(4) =   1
     Q(r) pseudized with  8 coefficients,  rinner =    0.800   0.800   0.800

     PseudoPot. # 5 for H  read from file:
     /storage/coda1/p-amedford6/0/shared/rich_project_chbe-medford/medford-share/data/pseudos_module/espresso/nninc/pbe/van/H.UPF
     MD5 check sum: b5ee9d7bfd3a09ee7748110bda690ff7
     Pseudo is Ultrasoft, Zval =  1.0
     Generated by new atomic code, or converted to UPF format
     Using radial grid of  615 points,  1 beta functions with:
                l(1) =   0
     Q(r) pseudized with  8 coefficients,  rinner =    0.800

     atomic species   valence    mass     pseudopotential
        Ti1           12.00    47.86700     Ti( 1.00)
        O1             6.00    15.99900     O ( 1.00)
        N1             5.00    14.00700     N ( 1.00)
        C1             4.00    12.01100     C ( 1.00)
        H1             1.00     1.00800     H ( 1.00)

     No symmetry found

   Cartesian axes

     site n.     atom                  positions (alat units)
         1           Ti1 tau(   1) = (   0.0004258   2.9801865   6.0000000  )
         2           Ti1 tau(   2) = (   3.2906075   1.4906267   6.0002472  )
         3           O1  tau(   3) = (   0.0006271   0.0005054   7.9858123  )
         4           O1  tau(   4) = (   3.2906025   0.0005020   7.3038282  )
         5           O1  tau(   5) = (   4.5942328   1.4918067   9.2879030  )
         6           O1  tau(   6) = (   1.9868534   1.4903216   9.2879459  )
         7           Ti1 tau(   7) = (   3.2907910   2.8959150   9.1758416  )
         8           Ti1 tau(   8) = (   0.0015273   1.4827037   9.2680791  )
         9           O1  tau(   9) = (   3.3024300   0.0156651  11.3362489  )
        10           O1  tau(  10) = (   0.0116148   5.9584955  10.6183126  )
        11           O1  tau(  11) = (   1.3202942   1.5021919  12.6211084  )
        12           O1  tau(  12) = (   5.3089492   1.4933221  12.6244093  )
        13           Ti1 tau(  13) = (   6.5318549   2.9554166  12.6004298  )
        14           Ti1 tau(  14) = (   3.2163550   1.4959796  12.4995714  )
        15           O1  tau(  15) = (   0.0198598   0.0281632  14.6562685  )
        16           O1  tau(  16) = (   3.3115091   0.0214956  13.9462002  )
        17           O1  tau(  17) = (   4.5768415   1.5604546  16.0171077  )
        18           O1  tau(  18) = (   2.0579415   1.5629007  16.0064375  )
        19           Ti1 tau(  19) = (   3.3180608   3.0267156  15.6839788  )
        20           Ti1 tau(  20) = (   0.0373526   1.5614015  15.8096867  )
        21           O1  tau(  21) = (   3.2904802   0.0005063   4.7018136  )
        22           O1  tau(  22) = (   0.0417102   0.0258274  17.2400240  )
        23           O1  tau(  23) = (   1.3043587   1.4918075   6.0039043  )
        24           O1  tau(  24) = (   5.2767064   1.4903225   6.0039473  )
        25           Ti1 tau(  25) = (   0.0000382   5.9609847   6.0000000  )
        26           Ti1 tau(  26) = (   3.2902200   4.4714249   6.0002472  )
        27           O1  tau(  27) = (   0.0002396   2.9813036   7.9858123  )
        28           O1  tau(  28) = (   3.2902150   2.9813002   7.3038282  )
        29           O1  tau(  29) = (   4.5938453   4.4726049   9.2879030  )
        30           O1  tau(  30) = (   1.9864658   4.4711199   9.2879459  )
        31           Ti1 tau(  31) = (   3.2891106   5.8743827   9.1763621  )
        32           Ti1 tau(  32) = (   0.0006254   4.4649316   9.2693709  )
        33           O1  tau(  33) = (   3.2972593   2.9937737  11.3378417  )
        34           O1  tau(  34) = (   0.0092240   2.9805883  10.6323155  )
        35           O1  tau(  35) = (   1.3143161   4.4928581  12.6237603  )
        36           O1  tau(  36) = (   5.3098643   4.4818631  12.6293382  )
        37           Ti1 tau(  37) = (   6.5333161   5.9285706  12.5502982  )
        38           Ti1 tau(  38) = (   3.2144982   4.4885123  12.4917375  )
        39           O1  tau(  39) = (   0.0198576   2.9709144  14.6477637  )
        40           O1  tau(  40) = (   3.3145585   3.0140958  13.8917140  )
        41           O1  tau(  41) = (   4.5688195   4.4932876  16.0791699  )
        42           O1  tau(  42) = (   2.0650477   4.4875755  16.0663885  )
        43           Ti1 tau(  43) = (   3.3331689   0.0560974  15.7812046  )
        44           Ti1 tau(  44) = (   0.0348837   4.6827776  16.0884590  )
        45           O1  tau(  45) = (   3.2900926   2.9813045   4.7018136  )
        46           O1  tau(  46) = (   1.3039711   4.4726057   6.0039043  )
        47           O1  tau(  47) = (   5.2763189   4.4711207   6.0039473  )
        48           N1  tau(  48) = (   0.0359943   2.9709886  17.3934402  )
        49           C1  tau(  49) = (   0.0487696   2.8543938  18.6343550  )
        50           H1  tau(  50) = (   0.0551173   3.7295775  19.3121947  )
        51           H1  tau(  51) = (   0.0550652   1.8705629  19.1311967  )
        52           O1  tau(  52) = (   3.2796845   0.1561466  18.1797653  )
        53           H1  tau(  53) = (   4.0301203   5.5808867  18.4795516  )
        54           H1  tau(  54) = (   2.4663764   5.6445902  18.4210942  )

     number of k points=    10  Fermi-Dirac smearing, width (Ry)=  0.0073
                       cart. coord. in units 2pi/alat
        k(    1) = (   0.0000000   0.0000000   0.0000000), wk =   0.1250000
        k(    2) = (   0.0000000   0.0419351   0.0000000), wk =   0.2500000
        k(    3) = (   0.0000000  -0.0838702   0.0000000), wk =   0.1250000
        k(    4) = (   0.0379955   0.0000049   0.0000000), wk =   0.2500000
        k(    5) = (   0.0379955   0.0419400   0.0000000), wk =   0.2500000
        k(    6) = (   0.0379955  -0.0838652   0.0000000), wk =   0.2500000
        k(    7) = (   0.0379955  -0.0419301   0.0000000), wk =   0.2500000
        k(    8) = (  -0.0759910  -0.0000099   0.0000000), wk =   0.1250000
        k(    9) = (  -0.0759910   0.0419252   0.0000000), wk =   0.2500000
        k(   10) = (  -0.0759910  -0.0838800   0.0000000), wk =   0.1250000

     Initial potential from superposition of free atoms

     starting charge  380.99916, renormalised to  397.00000

     negative rho (up, down):  1.695E-02 0.000E+00

     %%%%%%%%%%%%%%%%%%%%%%%%%%%%%%%%%%%%%%%%%%%%%%%%%%%%%%%%%%%%%%%%%%%%%%%%
     %                                                                      %
     % You are using vdW-DF, which was implemented by the Thonhauser group. %
     % Please cite the following two papers that made this development      %
     % possible and the two reviews that describe the various versions:     %
     %                                                                      %
     %   T. Thonhauser et al., PRL 115, 136402 (2015).                      %
     %   T. Thonhauser et al., PRB 76, 125112 (2007).                       %
     %   K. Berland et al., Rep. Prog. Phys. 78, 066501 (2015).             %
     %   D.C. Langreth et al., J. Phys.: Condens. Matter 21, 084203 (2009). %
     %                                                                      %
     %                                                                      %
     % If you are calculating the stress with vdW-DF, please also cite:     %
     %                                                                      %
     %   R. Sabatini et al., J. Phys.: Condens. Matter 24, 424209 (2012).   %
     %                                                                      %
     %%%%%%%%%%%%%%%%%%%%%%%%%%%%%%%%%%%%%%%%%%%%%%%%%%%%%%%%%%%%%%%%%%%%%%%%

     Adding external electric field

     Computed dipole along edir(3) :
        Dipole               -9.2233 Ry au,        -23.4432 Debye
        Dipole field         -0.0174 Ry au,

        Potential amp.        1.6135 Ry
        Total length         46.3494 bohr

     Starting wfcs are  300 atomic wfcs
  @ DRIVER MODE: Message from server: STATUS
  @ DRIVER MODE: Message from server: POSDATA
  @ DRIVER MODE: Reading and sharing cell
  @ DRIVER MODE: Reading and sharing positions
  @ DRIVER MODE: Received positions

     Self-consistent Calculation

     iteration #  1     ecut=    29.40 Ry     beta= 0.05
     Davidson diagonalization with overlap
     c_bands:  1 eigenvalues not converged
     c_bands:  1 eigenvalues not converged
     c_bands:  1 eigenvalues not converged
     c_bands:  1 eigenvalues not converged
     c_bands:  1 eigenvalues not converged
     c_bands:  1 eigenvalues not converged
     c_bands:  1 eigenvalues not converged
     ethr =  1.00E-05,  avg # of iterations = 19.0

[...]

     total energy              =   -2550.58494454 Ry
     estimated scf accuracy    <    4466.86279026 Ry

     iteration #  2     ecut=    29.40 Ry     beta= 0.05
     Davidson diagonalization with overlap
     ethr =  1.00E-02,  avg # of iterations = 24.9

[...]

     iteration # 70     ecut=    29.40 Ry     beta= 0.05
     Davidson diagonalization with overlap
     c_bands:  1 eigenvalues not converged
     ethr =  1.39E-10,  avg # of iterations = 12.5

[...]

     total energy              =   -2952.76114181 Ry
     estimated scf accuracy    <       0.00000009 Ry

     iteration # 73     ecut=    29.40 Ry     beta= 0.05
     Davidson diagonalization with overlap
     ethr =  2.19E-11,  avg # of iterations =  4.8

     negative rho (up, down):  1.681E-02 0.000E+00

     Adding external electric field

     Computed dipole along edir(3) :
        Dipole                1.0172 Ry au,          2.5856 Debye
        Dipole field          0.0019 Ry au,

        Potential amp.       -0.1780 Ry
        Total length         46.3494 bohr

     End of self-consistent calculation

          k = 0.0000 0.0000 0.0000 ( 18029 PWs)   bands (ev):

   -55.6910 -55.6603 -55.6569 -55.6326 -55.6244 -55.5396 -55.5052 -55.5045
   -55.4743 -55.4711 -55.4679 -55.4342 -55.2209 -55.0043 -54.6707 -54.6367
   -32.2046 -32.1741 -32.0470 -32.0428 -32.0035 -31.9838 -31.9650 -31.9581
   -31.9350 -31.8951 -31.8863 -31.8562 -31.8436 -31.8432 -31.8384 -31.8180
   -31.7960 -31.7898 -31.7866 -31.7539 -31.7481 -31.7415 -31.7087 -31.6965
   -31.6961 -31.6946 -31.6849 -31.6681 -31.6673 -31.6605 -31.6540 -31.6448
   -31.6374 -31.6350 -31.6214 -31.6133 -31.5802 -31.4696 -31.4171 -31.2766
   -31.2565 -31.2189 -31.0778 -30.9894 -30.9670 -30.8946 -30.8081 -30.6969
   -19.1471 -16.4084 -16.1656 -15.9498 -15.8485 -15.8117 -15.6137 -15.5114
   -15.4239 -15.3148 -15.2502 -15.2330 -15.2284 -15.2036 -15.1934 -15.1513
   -15.1376 -15.1342 -15.1137 -15.0973 -15.0435 -15.0343 -15.0269 -14.9427
   -14.8783 -14.8637 -14.8281 -14.8128 -14.8026 -14.7499 -14.3066 -13.1728
   -13.0564  -7.4535  -6.9572  -4.2463  -3.8370  -3.7573  -3.6474  -3.5982
    -3.5568  -3.4153  -3.3548  -3.2699  -3.1497  -2.9382  -2.8792  -2.8391
    -2.8118  -2.7508  -2.6003  -2.5559  -2.5041  -2.4966  -2.4828  -2.4700
    -2.4425  -2.4273  -2.3318  -2.2914  -2.2495  -2.2337  -2.0954  -2.0830
    -2.0551  -2.0043  -1.9725  -1.9583  -1.9511  -1.9400  -1.9256  -1.9023
    -1.8773  -1.7773  -1.6844  -1.6139  -1.5040  -1.4587  -1.4323  -1.3153
    -1.3061  -1.2360  -1.1596  -1.1459  -1.1216  -1.0928  -1.0835  -0.9690
    -0.8644  -0.8498  -0.7510  -0.6969  -0.6140  -0.5844  -0.5298  -0.4834
    -0.4546  -0.4512  -0.4348  -0.3840  -0.2448  -0.2152  -0.1784  -0.0975
    -0.0418  -0.0294   0.0169   0.0579   0.1122   0.1361   0.1921   0.2011
     0.2339   0.2776   0.2816   0.3002   0.3176   0.3422   0.5168   0.5580
     0.5700   0.6454   0.6550   0.8229   0.8349   0.9631   1.0728   1.2784
     1.3517   1.4373   1.5439   1.6554   1.9229   1.9686   3.4372   3.5289
     3.5714   3.6018   3.6802   3.6841   3.8952   3.9124   3.9330   4.0169

[...]

          k = 0.0380-0.0419 0.0000 ( 17876 PWs)   bands (ev):

[...]

          k =-0.0760-0.0000 0.0000 ( 17886 PWs)   bands (ev):

[...]

          k =-0.0760-0.0839 0.0000 ( 17948 PWs)   bands (ev):

   -55.6743 -55.6735 -55.6434 -55.6412 -55.6306 -55.5250 -55.5191 -55.4882
   -55.4875 -55.4761 -55.4524 -55.4499 -55.2196 -55.0054 -54.6537 -54.6535
   -32.0169 -32.0024 -31.9896 -31.9890 -31.9696 -31.9688 -31.9269 -31.9217
   -31.9087 -31.8861 -31.8777 -31.8562 -31.8395 -31.8251 -31.8101 -31.8068
   -31.8035 -31.8001 -31.7938 -31.7932 -31.7912 -31.7884 -31.7778 -31.7427
   -31.7353 -31.7234 -31.7130 -31.6889 -31.6878 -31.6827 -31.6778 -31.6759
   -31.6680 -31.6651 -31.6622 -31.6599 -31.5905 -31.4731 -31.4118 -31.3507
   -31.2582 -31.2404 -30.9797 -30.9797 -30.8906 -30.8904 -30.8514 -30.8514
   -19.1463 -15.8600 -15.7615 -15.6466 -15.6159 -15.5651 -15.5007 -15.4890
   -15.4229 -15.3764 -15.3732 -15.3046 -15.2990 -15.2657 -15.2558 -15.2204
   -15.2186 -15.2127 -15.1616 -15.1481 -15.1324 -15.1303 -15.1236 -15.0479
   -15.0113 -15.0063 -14.9996 -14.9164 -14.9134 -14.7768 -14.4645 -13.1582
   -13.1581  -7.4502  -6.9501  -4.2185  -3.5559  -3.4447  -3.1448  -2.9740
    -2.8887  -2.8225  -2.7971  -2.7721  -2.6218  -2.6003  -2.5475  -2.5440
    -2.5209  -2.5169  -2.5133  -2.4944  -2.4900  -2.4647  -2.4360  -2.3952
    -2.3691  -2.3623  -2.3501  -2.3379  -2.3133  -2.3005  -2.2923  -2.2442
    -2.2413  -2.2225  -2.1302  -2.0612  -1.9158  -1.8974  -1.8549  -1.8322
    -1.8197  -1.7858  -1.7589  -1.7415  -1.6893  -1.6167  -1.5169  -1.4256
    -1.3843  -1.3727  -1.3158  -1.2891  -1.1954  -1.1699  -1.0946  -1.0767
    -0.9978  -0.9792  -0.8891  -0.8467  -0.8267  -0.7920  -0.7582  -0.7505
    -0.7150  -0.6588  -0.6465  -0.5948  -0.5681  -0.5060  -0.4428  -0.4218
    -0.4100  -0.3736  -0.3538  -0.3276  -0.1896  -0.1572  -0.1523  -0.1015
     0.0351   0.0669   0.2746   0.3614   0.3826   0.4601   0.5117   0.5922
     0.6168   0.6255   0.6429   0.6772   0.7681   0.8407   0.8521   0.8843
     0.9847   1.4969   1.7152   1.7161   1.7884   1.7885   3.7282   3.7696
     3.8050   3.8274   3.9248   3.9551   3.9762   3.9782   4.0330   4.1094

     the Fermi energy is     3.4407 ev

!    total energy              =   -2952.76115954 Ry
     estimated scf accuracy    <       0.00000007 Ry
     smearing contrib. (-TS)   =      -0.02154639 Ry
     internal energy E=F+TS    =   -2952.73961314 Ry

     The total energy is F=E-TS. E is the sum of the following terms:
     one-electron contribution =  -24474.78365879 Ry
     hartree contribution      =   12328.45861211 Ry
     xc contribution           =    -488.07239343 Ry
     ewald contribution        =    9681.65587420 Ry
     electric field correction =       0.00195276 Ry

     convergence has been achieved in  73 iterations

     Forces acting on atoms (cartesian axes, Ry/au):

     atom    1 type  1   force =    -0.00001394   -0.00028424    0.09606265
     atom    2 type  1   force =     0.00008528   -0.00044839   -0.17563740
     atom    3 type  2   force =     0.00011068   -0.00004954   -0.02420386
     atom    4 type  2   force =     0.00000980   -0.00136650    0.05327847
     atom    5 type  2   force =    -0.01133846    0.00005561    0.00284188
     atom    6 type  2   force =     0.01308904    0.00040112    0.00285030
     atom    7 type  1   force =     0.00079609    0.00048014   -0.00793777
     atom    8 type  1   force =     0.00007451    0.00682649    0.02439425
     atom    9 type  2   force =    -0.00025325   -0.00079769    0.00034011
     atom   10 type  2   force =    -0.00266154    0.00235113   -0.01475412
     atom   11 type  2   force =    -0.00022136   -0.00012214   -0.00053075
     atom   12 type  2   force =     0.00053697   -0.00002302   -0.00059898
     atom   13 type  1   force =    -0.00054814   -0.00159604    0.00037208
     atom   14 type  1   force =     0.00046177   -0.00022168   -0.00033472
     atom   15 type  2   force =     0.00000476   -0.00078855   -0.00049270
     atom   16 type  2   force =    -0.00005708   -0.00043190   -0.00025459
     atom   17 type  2   force =    -0.00097385   -0.00066621    0.00008668
     atom   18 type  2   force =     0.00139577   -0.00041982    0.00013897
     atom   19 type  1   force =    -0.00038054    0.00057974    0.00002324
     atom   20 type  1   force =     0.00040539   -0.00104814   -0.00122022
     atom   21 type  2   force =     0.00005250   -0.00001462    0.10322331
     atom   22 type  2   force =    -0.00009376   -0.00037108    0.00070051
     atom   23 type  2   force =    -0.07148899   -0.00012102   -0.02770240
     atom   24 type  2   force =     0.07140740    0.00035573   -0.02777750
     atom   25 type  1   force =     0.00017531   -0.00025842    0.09579196
     atom   26 type  1   force =     0.00006421   -0.00033377   -0.17585509
     atom   27 type  2   force =     0.00014618   -0.00004044   -0.02328567
     atom   28 type  2   force =     0.00001048   -0.00107183    0.05288726
     atom   29 type  2   force =    -0.01167683    0.00074960    0.00298162
     atom   30 type  2   force =     0.01330824    0.00126210    0.00300938
     atom   31 type  1   force =     0.00071464    0.00395118   -0.01083526
     atom   32 type  1   force =     0.00009790   -0.00902537    0.02486804
     atom   33 type  2   force =    -0.00007178    0.00060829   -0.00010652
     atom   34 type  2   force =    -0.00202972    0.00169360   -0.02181036
     atom   35 type  2   force =     0.00003542   -0.00025664   -0.00024540
     atom   36 type  2   force =    -0.00007973   -0.00006914   -0.00058366
     atom   37 type  1   force =    -0.00028620    0.00155744   -0.00006195
     atom   38 type  1   force =     0.00054512    0.00041414    0.00016983
     atom   39 type  2   force =    -0.00009127   -0.00013844   -0.00109009
     atom   40 type  2   force =     0.00012916    0.00012254    0.00040210
     atom   41 type  2   force =     0.00022238   -0.00026118    0.00011187
     atom   42 type  2   force =     0.00034037   -0.00034534    0.00016821
     atom   43 type  1   force =    -0.00105391   -0.00056435    0.00051735
     atom   44 type  1   force =     0.00039203    0.00050441   -0.00044496
     atom   45 type  2   force =     0.00004520   -0.00005473    0.10321089
     atom   46 type  2   force =    -0.07151074   -0.00006122   -0.02772074
     atom   47 type  2   force =     0.07142325    0.00037023   -0.02777876
     atom   48 type  3   force =    -0.00056862    0.00164418   -0.02400601
     atom   49 type  4   force =     0.00012631   -0.00157344    0.03310603
     atom   50 type  5   force =    -0.00016507   -0.00308633   -0.00398111
     atom   51 type  5   force =    -0.00018239    0.00268167   -0.00228450
     atom   52 type  2   force =     0.00152106    0.00035344   -0.00049558
     atom   53 type  5   force =    -0.00045650   -0.00040543    0.00003638
     atom   54 type  5   force =    -0.00152354   -0.00064615    0.00045728

     Total force =     0.369326     Total SCF correction =     0.000906
  @ DRIVER MODE: Message from server: STATUS
  @ DRIVER MODE: Message from server: GETFORCE
  @ DRIVER MODE: Returning v,forces,stress,ensemble

     Writing output data file ./calc.save/
  @ DRIVER MODE: Message from server: EXIT
  @ DRIVE MODE: Exiting

     General routines

     Parallel routines

   This run was terminated on:  19:30: 2  15Sep2021

   JOB DONE.