     Program PWSCF v.6.7GPU starts on 24Sep2021 at 18:53:48

     R & G space division:  proc/nbgrp/npool/nimage =       8
     Reading input from /storage/home/hcoda1/3/ntian30/research/carbon/CxH_vib/H2O_calc/ads_slab/CH3NHNH2HO_a/out_0062/pw.inp
Warning: card &CELL ignored
Warning: card   CELL_DYNAMICS='IPI', ignored
Warning: card / ignored

     Current dimensions of program PWSCF are:
     Max number of different atomic species (ntypx) = 10
     Max number of k-points (npk) =  40000
     Max angular momentum in pseudopotentials (lmaxx) =  3
     Presently no symmetry can be used with electric field

     Message from routine cell_base_init:
     DEPRECATED: use true lattice parameter, not A to a.u. conversion factor

     IMPORTANT: XC functional enforced from input :
     Exchange-correlation= BEEF-VDW
                           (   1   4  43  14   2   0   0)
     Any further DFT definition will be discarded
     Please, verify this is what you really want

  @ DRIVER MODE: Connecting to
 qe_1139763_2947307.sched-torque.pace.gatech.edujhg6drmx_scratch
  using UNIX socket
  @ DRIVER MODE: Message from server: STATUS
  @ DRIVER MODE: Message from server: INIT
  @ DRIVER MODE: Receiving replica           0          -1
  @ DRIVER MODE: Receiving encoded integer          25
  @ DRIVER MODE:  SCF:  T  FORCE:  T  STRESS:  F  VC:  F  ENSEMBLE:  F
  @ DRIVER MODE:  SCF:  T  FORCE:  T  STRESS:  F  VC:  F  ENSEMBLE:  F

     Using Slab Decomposition

     bravais-lattice index     =            0
     lattice parameter (alat)  =       1.8897  a.u.
     unit-cell volume          =    6658.9804 (a.u.)^3
     number of atoms/cell      =           58
     number of atomic types    =            5
     number of electrons       =       405.00
     number of Kohn-Sham states=          212
     kinetic-energy cutoff     =      29.3995  Ry
     charge density cutoff     =     293.9946  Ry
     scf convergence threshold =      7.3E-08
     mixing beta               =       0.0500
     number of iterations used =            8  plain     mixing
     Exchange-correlation= BEEF-VDW
                           (   1   4  43  14   2   0   0)

     celldm(1)=   1.889726  celldm(2)=   0.000000  celldm(3)=   0.000000
     celldm(4)=   0.000000  celldm(5)=   0.000000  celldm(6)=   0.000000

     crystal axes: (cart. coord. in units of alat)
               a(1) = (   6.579727   0.000000   0.000000 )
               a(2) = (  -0.000775   5.961596   0.000000 )
               a(3) = (   0.000000   0.000000  25.155947 )

     reciprocal axes: (cart. coord. in units 2 pi/alat)
               b(1) = (  0.151982  0.000020  0.000000 )
               b(2) = (  0.000000  0.167740  0.000000 )
               b(3) = (  0.000000  0.000000  0.039752 )

     PseudoPot. # 1 for Ti read from file:
     /storage/coda1/p-amedford6/0/shared/rich_project_chbe-medford/medford-share/data/pseudos_module/espresso/nninc/pbe/van/Ti.UPF
     MD5 check sum: 8e4df49b7f0d34bbd5052bf3f5ea0213
     Pseudo is Ultrasoft, Zval = 12.0
     Generated by new atomic code, or converted to UPF format
     Using radial grid of  851 points,  6 beta functions with:
                l(1) =   0
                l(2) =   0
                l(3) =   1
                l(4) =   1
                l(5) =   2
                l(6) =   2
     Q(r) pseudized with  8 coefficients,  rinner =    1.000   1.000   1.000
                                                       1.000   1.000

     PseudoPot. # 2 for O  read from file:
     /storage/coda1/p-amedford6/0/shared/rich_project_chbe-medford/medford-share/data/pseudos_module/espresso/nninc/pbe/van/O.UPF
     MD5 check sum: 78c19812648e8988a0fe644b0f25305e
     Pseudo is Ultrasoft, Zval =  6.0
     Generated by new atomic code, or converted to UPF format
     Using radial grid of  737 points,  4 beta functions with:
                l(1) =   0
                l(2) =   0
                l(3) =   1
                l(4) =   1
     Q(r) pseudized with  8 coefficients,  rinner =    0.800   0.800   0.800

     PseudoPot. # 3 for N  read from file:
     /storage/coda1/p-amedford6/0/shared/rich_project_chbe-medford/medford-share/data/pseudos_module/espresso/nninc/pbe/van/N.UPF
     MD5 check sum: 90d10febe142ad51ac9d5be1deb811c4
     Pseudo is Ultrasoft, Zval =  5.0
     Generated by new atomic code, or converted to UPF format
     Using radial grid of  729 points,  4 beta functions with:
                l(1) =   0
                l(2) =   0
                l(3) =   1
                l(4) =   1
     Q(r) pseudized with  8 coefficients,  rinner =    0.800   0.800   0.800

     PseudoPot. # 4 for C  read from file:
     /storage/coda1/p-amedford6/0/shared/rich_project_chbe-medford/medford-share/data/pseudos_module/espresso/nninc/pbe/van/C.UPF
     MD5 check sum: 1a69bf6b8db32088f5b2163dbdb77a27
     Pseudo is Ultrasoft, Zval =  4.0
     Generated by new atomic code, or converted to UPF format
     Using radial grid of  721 points,  4 beta functions with:
                l(1) =   0
                l(2) =   0
                l(3) =   1
                l(4) =   1
     Q(r) pseudized with  8 coefficients,  rinner =    0.800   0.800   0.800

     PseudoPot. # 5 for H  read from file:
     /storage/coda1/p-amedford6/0/shared/rich_project_chbe-medford/medford-share/data/pseudos_module/espresso/nninc/pbe/van/H.UPF
     MD5 check sum: b5ee9d7bfd3a09ee7748110bda690ff7
     Pseudo is Ultrasoft, Zval =  1.0
     Generated by new atomic code, or converted to UPF format
     Using radial grid of  615 points,  1 beta functions with:
                l(1) =   0
     Q(r) pseudized with  8 coefficients,  rinner =    0.800

     atomic species   valence    mass     pseudopotential
        Ti1           12.00    47.86700     Ti( 1.00)
        O1             6.00    15.99900     O ( 1.00)
        N1             5.00    14.00700     N ( 1.00)
        C1             4.00    12.01100     C ( 1.00)
        H1             1.00     1.00800     H ( 1.00)

     No symmetry found

   Cartesian axes

     site n.     atom                  positions (alat units)
         1           Ti1 tau(   1) = (   0.0004258   2.9801865   6.0000000  )
         2           Ti1 tau(   2) = (   3.2906075   1.4906267   6.0002472  )
         3           O1  tau(   3) = (   0.0006271   0.0005054   7.9858123  )
         4           O1  tau(   4) = (   3.2906025   0.0005020   7.3038282  )
         5           O1  tau(   5) = (   4.5942328   1.4918067   9.2879030  )
         6           O1  tau(   6) = (   1.9868534   1.4903216   9.2879459  )
         7           Ti1 tau(   7) = (   3.2907910   2.8959150   9.1758416  )
         8           Ti1 tau(   8) = (   0.0015273   1.4827037   9.2680791  )
         9           O1  tau(   9) = (   3.3003128   0.0493987  11.3625472  )
        10           O1  tau(  10) = (   0.0116148   5.9584955  10.6183126  )
        11           O1  tau(  11) = (   1.2863924   1.5188706  12.6959087  )
        12           O1  tau(  12) = (   5.3173592   1.5183023  12.6957539  )
        13           Ti1 tau(  13) = (   0.0130489   2.9571150  12.5182267  )
        14           Ti1 tau(  14) = (   3.3124343   1.5987737  12.4587140  )
        15           O1  tau(  15) = (   0.0455642   5.8537743  14.6515032  )
        16           O1  tau(  16) = (   3.3135256   5.8999501  14.0036581  )
        17           O1  tau(  17) = (   4.5824137   1.5787328  16.0473457  )
        18           O1  tau(  18) = (   2.0456054   1.5356268  16.0652349  )
        19           Ti1 tau(  19) = (   3.2855744   2.9948502  15.7047272  )
        20           Ti1 tau(  20) = (   0.0729980   1.3194477  15.7501807  )
        21           O1  tau(  21) = (   3.2904802   0.0005063   4.7018136  )
        22           O1  tau(  22) = (   6.5643345   0.1786488  17.1561759  )
        23           O1  tau(  23) = (   1.3043587   1.4918075   6.0039043  )
        24           O1  tau(  24) = (   5.2767064   1.4903225   6.0039473  )
        25           Ti1 tau(  25) = (   0.0000382   5.9609847   6.0000000  )
        26           Ti1 tau(  26) = (   3.2902200   4.4714249   6.0002472  )
        27           O1  tau(  27) = (   0.0002396   2.9813036   7.9858123  )
        28           O1  tau(  28) = (   3.2902150   2.9813002   7.3038282  )
        29           O1  tau(  29) = (   4.5938453   4.4726049   9.2879030  )
        30           O1  tau(  30) = (   1.9864658   4.4711199   9.2879459  )
        31           Ti1 tau(  31) = (   3.2891106   5.8743827   9.1763621  )
        32           Ti1 tau(  32) = (   0.0006254   4.4649316   9.2693709  )
        33           O1  tau(  33) = (   3.3044115   2.9646987  11.3227374  )
        34           O1  tau(  34) = (   0.0092240   2.9805883  10.6323155  )
        35           O1  tau(  35) = (   1.2889249   4.4812606  12.6373974  )
        36           O1  tau(  36) = (   5.3198440   4.4849614  12.6453916  )
        37           Ti1 tau(  37) = (   0.0274371   5.9167426  12.5032498  )
        38           Ti1 tau(  38) = (   3.3124303   4.6827448  12.7121475  )
        39           O1  tau(  39) = (   0.0064664   3.0605765  14.9143048  )
        40           O1  tau(  40) = (   3.2921723   3.0190953  13.9337278  )
        41           O1  tau(  41) = (   4.5343043   4.4484976  16.2223827  )
        42           O1  tau(  42) = (   2.0055671   4.4324605  16.2273083  )
        43           Ti1 tau(  43) = (   3.3963104   0.0511244  16.3072024  )
        44           Ti1 tau(  44) = (   0.1011521   4.5293608  16.0606835  )
        45           O1  tau(  45) = (   3.2900926   2.9813045   4.7018136  )
        46           O1  tau(  46) = (   1.3039711   4.4726057   6.0039043  )
        47           O1  tau(  47) = (   5.2763189   4.4711207   6.0039473  )
        48           N1  tau(  48) = (   0.7799224   3.1460235  19.0808133  )
        49           N1  tau(  49) = (   6.3029119   3.3142126  18.0946246  )
        50           C1  tau(  50) = (   0.9829876   4.3811599  19.8296872  )
        51           H1  tau(  51) = (   0.0599524   4.7630682  20.2995108  )
        52           H1  tau(  52) = (   1.7087173   4.1728717  20.6153690  )
        53           H1  tau(  53) = (   1.3778604   5.1510331  19.1745456  )
        54           H1  tau(  54) = (   0.4845774   2.4057476  19.7140978  )
        55           H1  tau(  55) = (   5.5451363   3.8924421  18.4761980  )
        56           H1  tau(  56) = (   5.8791802   2.3931312  17.9634808  )
        57           O1  tau(  57) = (   3.3895457   0.1916509  18.1699706  )
        58           H1  tau(  58) = (   3.8228180   5.4341384  18.6581559  )

     number of k points=    10  Fermi-Dirac smearing, width (Ry)=  0.0073
                       cart. coord. in units 2pi/alat
        k(    1) = (   0.0000000   0.0000000   0.0000000), wk =   0.1250000
        k(    2) = (   0.0000000   0.0419351   0.0000000), wk =   0.2500000
        k(    3) = (   0.0000000  -0.0838702   0.0000000), wk =   0.1250000
        k(    4) = (   0.0379955   0.0000049   0.0000000), wk =   0.2500000
        k(    5) = (   0.0379955   0.0419400   0.0000000), wk =   0.2500000
        k(    6) = (   0.0379955  -0.0838652   0.0000000), wk =   0.2500000
        k(    7) = (   0.0379955  -0.0419301   0.0000000), wk =   0.2500000
        k(    8) = (  -0.0759910  -0.0000099   0.0000000), wk =   0.1250000
        k(    9) = (  -0.0759910   0.0419252   0.0000000), wk =   0.2500000
        k(   10) = (  -0.0759910  -0.0838800   0.0000000), wk =   0.1250000

     Initial potential from superposition of free atoms

     starting charge  388.99913, renormalised to  405.00000

     negative rho (up, down):  1.368E-02 0.000E+00

     %%%%%%%%%%%%%%%%%%%%%%%%%%%%%%%%%%%%%%%%%%%%%%%%%%%%%%%%%%%%%%%%%%%%%%%%
     %                                                                      %
     % You are using vdW-DF, which was implemented by the Thonhauser group. %
     % Please cite the following two papers that made this development      %
     % possible and the two reviews that describe the various versions:     %
     %                                                                      %
     %   T. Thonhauser et al., PRL 115, 136402 (2015).                      %
     %   T. Thonhauser et al., PRB 76, 125112 (2007).                       %
     %   K. Berland et al., Rep. Prog. Phys. 78, 066501 (2015).             %
     %   D.C. Langreth et al., J. Phys.: Condens. Matter 21, 084203 (2009). %
     %                                                                      %
     %                                                                      %
     % If you are calculating the stress with vdW-DF, please also cite:     %
     %                                                                      %
     %   R. Sabatini et al., J. Phys.: Condens. Matter 24, 424209 (2012).   %
     %                                                                      %
     %%%%%%%%%%%%%%%%%%%%%%%%%%%%%%%%%%%%%%%%%%%%%%%%%%%%%%%%%%%%%%%%%%%%%%%%

     Adding external electric field

     Computed dipole along edir(3) :
        Dipole              -14.8124 Ry au,        -37.6493 Debye
        Dipole field         -0.0280 Ry au,

        Potential amp.        2.5912 Ry
        Total length         46.3494 bohr

     Starting wfcs are  307 atomic wfcs
  @ DRIVER MODE: Message from server: STATUS
  @ DRIVER MODE: Message from server: POSDATA
  @ DRIVER MODE: Reading and sharing cell
  @ DRIVER MODE: Reading and sharing positions
  @ DRIVER MODE: Received positions

     Self-consistent Calculation

     iteration #  1     ecut=    29.40 Ry     beta= 0.05
     Davidson diagonalization with overlap
     c_bands:  4 eigenvalues not converged
     c_bands:  4 eigenvalues not converged
     c_bands:  5 eigenvalues not converged
     c_bands:  2 eigenvalues not converged
     c_bands:  2 eigenvalues not converged
     c_bands:  3 eigenvalues not converged
     c_bands:  2 eigenvalues not converged
     ethr =  1.00E-05,  avg # of iterations = 22.9

[...]

     total energy              =   -2203.00217005 Ry
     estimated scf accuracy    <    8803.85785142 Ry

     iteration #  2     ecut=    29.40 Ry     beta= 0.05
     Davidson diagonalization with overlap
     ethr =  1.00E-02,  avg # of iterations = 30.2

[...]

     iteration # 47     ecut=    29.40 Ry     beta= 0.05
     Davidson diagonalization with overlap
     c_bands:  1 eigenvalues not converged
     ethr =  6.28E-07,  avg # of iterations = 14.2

[...]

     total energy              =   -2976.46398967 Ry
     estimated scf accuracy    <       0.00000015 Ry

     iteration # 67     ecut=    29.40 Ry     beta= 0.05
     Davidson diagonalization with overlap
     ethr =  2.06E-11,  avg # of iterations = 14.4

     negative rho (up, down):  1.441E-02 0.000E+00

     Adding external electric field

     Computed dipole along edir(3) :
        Dipole                1.2258 Ry au,          3.1157 Debye
        Dipole field          0.0023 Ry au,

        Potential amp.       -0.2144 Ry
        Total length         46.3494 bohr

     End of self-consistent calculation

          k = 0.0000 0.0000 0.0000 ( 18029 PWs)   bands (ev):

   -55.4445 -55.3569 -55.3228 -55.2185 -55.2152 -55.1877 -55.1854 -55.1776
   -55.1536 -55.1307 -55.0876 -54.9853 -54.9377 -54.8936 -54.3320 -54.2980
   -31.8421 -31.7908 -31.7223 -31.7044 -31.6904 -31.6754 -31.6545 -31.6477
   -31.6168 -31.6031 -31.5970 -31.5094 -31.4943 -31.4873 -31.4675 -31.4640
   -31.4600 -31.4511 -31.4506 -31.4205 -31.4143 -31.3925 -31.3857 -31.3758
   -31.3710 -31.3549 -31.3538 -31.3221 -31.3219 -31.3151 -31.3144 -31.3086
   -31.3003 -31.2823 -31.2581 -31.2400 -31.1744 -31.1534 -31.1410 -31.1333
   -31.1119 -31.1028 -30.7380 -30.6517 -30.6292 -30.5555 -30.4691 -30.3573
   -17.7436 -16.3411 -16.0108 -15.8469 -15.6323 -15.5399 -15.5128 -15.3140
   -15.2189 -15.1608 -14.9597 -14.9324 -14.8948 -14.8818 -14.8730 -14.8519
   -14.8482 -14.7968 -14.7814 -14.7714 -14.7678 -14.7375 -14.7105 -14.6712
   -14.6118 -14.5978 -14.4954 -14.4399 -14.4000 -14.1586 -14.1391 -13.1769
   -12.8306 -12.7142  -9.4400  -6.4464  -5.7425  -4.2711  -3.9206  -3.3692
    -3.2678  -3.2562  -3.1997  -3.1322  -2.9795  -2.8843  -2.7823  -2.7431
    -2.6098  -2.5974  -2.4924  -2.4438  -2.3706  -2.3245  -2.2833  -2.2487
    -2.2209  -2.1648  -2.1426  -2.1167  -2.1054  -2.0326  -2.0143  -1.9247
    -1.8917  -1.8781  -1.7606  -1.7260  -1.6912  -1.6781  -1.6690  -1.6626
    -1.6190  -1.6087  -1.5979  -1.5560  -1.4554  -1.4475  -1.4296  -1.3393
    -1.2420  -0.9918  -0.9606  -0.9100  -0.8987  -0.8203  -0.7818  -0.7502
    -0.7178  -0.6476  -0.6361  -0.6102  -0.5487  -0.4735  -0.4194  -0.3718
    -0.3380  -0.2256  -0.1759  -0.1318  -0.0992  -0.0623   0.0002   0.0401
     0.0646   0.1077   0.1952   0.2580   0.2857   0.3039   0.3534   0.3955
     0.4327   0.4731   0.5449   0.5676   0.5776   0.6170   0.6258   0.6465
     0.7420   0.7604   0.8196   0.8480   0.9351   0.9660   1.0102   1.1794
     1.2489   1.3076   1.3858   1.4771   1.6400   1.6944   1.7194   1.8884
     2.2617   2.3071   3.7269   3.8743   3.8905   3.9683   3.9852   4.0494
     4.2158   4.2743   4.4134   4.4218

[...]

          k = 0.0380-0.0419 0.0000 ( 17876 PWs)   bands (ev):

[...]

          k =-0.0760-0.0000 0.0000 ( 17886 PWs)   bands (ev):

[...]

          k =-0.0760-0.0839 0.0000 ( 17948 PWs)   bands (ev):

   -55.4437 -55.3399 -55.3397 -55.2173 -55.2037 -55.1891 -55.1861 -55.1719
   -55.1690 -55.1226 -55.0957 -54.9822 -54.9387 -54.8966 -54.3150 -54.3149
   -31.7295 -31.6694 -31.6574 -31.6573 -31.6561 -31.6423 -31.6334 -31.6331
   -31.5759 -31.5310 -31.5096 -31.4988 -31.4934 -31.4882 -31.4656 -31.4597
   -31.4592 -31.4564 -31.4499 -31.4372 -31.4307 -31.4279 -31.4161 -31.3900
   -31.3855 -31.3834 -31.3762 -31.3683 -31.3500 -31.3445 -31.3412 -31.3407
   -31.3382 -31.3178 -31.3162 -31.2514 -31.2344 -31.2074 -31.1786 -31.1556
   -31.1489 -31.1076 -30.6419 -30.6419 -30.5510 -30.5507 -30.5124 -30.5122
   -17.7395 -16.3301 -15.5921 -15.4467 -15.3385 -15.3281 -15.2041 -15.1369
   -15.1273 -15.0934 -15.0708 -15.0487 -15.0306 -15.0153 -14.9607 -14.9208
   -14.8894 -14.8620 -14.8574 -14.8144 -14.8047 -14.7933 -14.7755 -14.7639
   -14.7086 -14.6725 -14.6629 -14.6045 -14.4651 -14.4455 -14.2888 -13.1782
   -12.8161 -12.8159  -9.4590  -6.4308  -5.7485  -4.2567  -3.9094  -2.9653
    -2.8013  -2.6582  -2.6039  -2.5629  -2.4493  -2.4253  -2.3673  -2.3168
    -2.2926  -2.2710  -2.2192  -2.2090  -2.1630  -2.1469  -2.1228  -2.1079
    -2.0915  -2.0851  -2.0571  -2.0413  -2.0310  -2.0180  -1.9910  -1.9798
    -1.9616  -1.9329  -1.9127  -1.9037  -1.8703  -1.8278  -1.7666  -1.6562
    -1.5821  -1.5711  -1.5273  -1.5025  -1.4862  -1.4452  -1.4326  -1.3916
    -1.3742  -1.3079  -1.1500  -1.1253  -1.1107  -0.9680  -0.9608  -0.9317
    -0.8577  -0.8160  -0.7942  -0.7362  -0.7064  -0.6662  -0.5893  -0.5460
    -0.4917  -0.4250  -0.3257  -0.3180  -0.3021  -0.2822  -0.2658  -0.2579
    -0.2245  -0.1876  -0.1149  -0.0681  -0.0594  -0.0533  -0.0022   0.0783
     0.1289   0.2429   0.3891   0.3937   0.4607   0.4614   0.6608   0.6690
     0.7464   0.7828   0.8164   0.8436   0.9378   0.9553   0.9935   1.0753
     1.1394   1.1690   1.1899   1.1947   1.2477   1.4597   2.0568   2.0646
     2.1274   2.1276   3.9684   4.2009   4.2413   4.2544   4.2727   4.2993
     4.3128   4.3271   4.3939   4.4172

     the Fermi energy is     3.7642 ev

!    total energy              =   -2976.46402308 Ry
     estimated scf accuracy    <       0.00000003 Ry
     smearing contrib. (-TS)   =      -0.01955715 Ry
     internal energy E=F+TS    =   -2976.44446593 Ry

     The total energy is F=E-TS. E is the sum of the following terms:
     one-electron contribution =  -23037.21583120 Ry
     hartree contribution      =   11616.32806819 Ry
     xc contribution           =    -495.72177754 Ry
     ewald contribution        =    8940.16223903 Ry
     electric field correction =       0.00283559 Ry

     convergence has been achieved in  67 iterations

     Forces acting on atoms (cartesian axes, Ry/au):

     atom    1 type  1   force =     0.00016211   -0.00022666    0.09415895
     atom    2 type  1   force =    -0.00010017    0.00018320   -0.17536944
     atom    3 type  2   force =     0.00005462   -0.00049264   -0.02103683
     atom    4 type  2   force =    -0.00002451   -0.00093623    0.05425464
     atom    5 type  2   force =    -0.00488354   -0.00216001    0.00107081
     atom    6 type  2   force =     0.00670709   -0.00138599    0.00108690
     atom    7 type  1   force =     0.00005839    0.00330872    0.00865824
     atom    8 type  1   force =    -0.00010145    0.00120066    0.00271827
     atom    9 type  2   force =    -0.00021954   -0.00030470   -0.00059392
     atom   10 type  2   force =    -0.00111978    0.00429315   -0.01026558
     atom   11 type  2   force =    -0.00007465   -0.00054697   -0.00010081
     atom   12 type  2   force =     0.00061970   -0.00031158   -0.00026607
     atom   13 type  1   force =    -0.00143715    0.00020509   -0.00058153
     atom   14 type  1   force =     0.00071194    0.00017172   -0.00046644
     atom   15 type  2   force =     0.00013515   -0.00000779    0.00006488
     atom   16 type  2   force =    -0.00008859   -0.00068624   -0.00031417
     atom   17 type  2   force =    -0.00035320    0.00074823    0.00002044
     atom   18 type  2   force =    -0.00074829    0.00023950   -0.00014449
     atom   19 type  1   force =     0.00044076   -0.00090052    0.00059811
     atom   20 type  1   force =    -0.00073667   -0.00002911    0.00047669
     atom   21 type  2   force =     0.00003801   -0.00000801    0.10318920
     atom   22 type  2   force =    -0.00014467    0.00002470    0.00050838
     atom   23 type  2   force =    -0.07199353   -0.00020006   -0.02725626
     atom   24 type  2   force =     0.07187055    0.00025638   -0.02732765
     atom   25 type  1   force =     0.00007249   -0.00016551    0.09388690
     atom   26 type  1   force =    -0.00011947   -0.00136597   -0.17551239
     atom   27 type  2   force =     0.00011081   -0.00005435   -0.01984666
     atom   28 type  2   force =     0.00006454   -0.00105223    0.04980401
     atom   29 type  2   force =    -0.00746492    0.00209562    0.00339596
     atom   30 type  2   force =     0.00906943    0.00223716    0.00331473
     atom   31 type  1   force =     0.00019657    0.00151981    0.00005561
     atom   32 type  1   force =    -0.00008736   -0.00227095    0.00302973
     atom   33 type  2   force =    -0.00017673   -0.00030351   -0.00003162
     atom   34 type  2   force =    -0.00117098   -0.00218508   -0.00965585
     atom   35 type  2   force =     0.00063639    0.00004901   -0.00021926
     atom   36 type  2   force =     0.00037804    0.00010889   -0.00034676
     atom   37 type  1   force =    -0.00097368    0.00025113    0.00034688
     atom   38 type  1   force =     0.00096452   -0.00024981    0.00020378
     atom   39 type  2   force =    -0.00016847   -0.00054253    0.00011611
     atom   40 type  2   force =    -0.00020256   -0.00019443   -0.00015691
     atom   41 type  2   force =     0.00030107   -0.00029513   -0.00011100
     atom   42 type  2   force =    -0.00072974    0.00002880   -0.00016346
     atom   43 type  1   force =     0.00015966    0.00084388    0.00044900
     atom   44 type  1   force =    -0.00032903    0.00080497    0.00002911
     atom   45 type  2   force =     0.00002480    0.00003306    0.10300676
     atom   46 type  2   force =    -0.07194491   -0.00007994   -0.02721071
     atom   47 type  2   force =     0.07183524    0.00035183   -0.02729442
     atom   48 type  3   force =    -0.00002673   -0.00095994   -0.00075233
     atom   49 type  3   force =    -0.00027001   -0.00024318   -0.00044794
     atom   50 type  4   force =     0.00008123   -0.00013351    0.00015710
     atom   51 type  5   force =    -0.00107491   -0.00020777    0.00050406
     atom   52 type  5   force =     0.00057836   -0.00006871    0.00036497
     atom   53 type  5   force =    -0.00015366    0.00061936   -0.00046422
     atom   54 type  5   force =     0.00064507   -0.00025870    0.00002631
     atom   55 type  5   force =     0.00053050   -0.00063167    0.00007814
     atom   56 type  5   force =     0.00062919   -0.00002106   -0.00006349
     atom   57 type  2   force =     0.00450162   -0.00742089    0.00453788
     atom   58 type  5   force =    -0.00465894    0.00732650   -0.00411238

     Total force =     0.362237     Total SCF correction =     0.000395
  @ DRIVER MODE: Message from server: STATUS
  @ DRIVER MODE: Message from server: GETFORCE
  @ DRIVER MODE: Returning v,forces,stress,ensemble

     Writing output data file ./calc.save/
  @ DRIVER MODE: Message from server: EXIT
  @ DRIVE MODE: Exiting

     General routines

     Parallel routines

   This run was terminated on:  19:23:50  24Sep2021

   JOB DONE.