     Program PWSCF v.6.7GPU starts on 18Oct2021 at 16:54:26

     R & G space division:  proc/nbgrp/npool/nimage =       8
     Reading input from /storage/home/hcoda1/3/ntian30/research/carbon/CxH_vib/Thiel_calc/ads_slab/NH3NH2H_perslab/out_0011/pw.inp
Warning: card &CELL ignored
Warning: card   CELL_DYNAMICS='IPI', ignored
Warning: card / ignored

     Current dimensions of program PWSCF are:
     Max number of different atomic species (ntypx) = 10
     Max number of k-points (npk) =  40000
     Max angular momentum in pseudopotentials (lmaxx) =  3
     Presently no symmetry can be used with electric field

     Message from routine cell_base_init:
     DEPRECATED: use true lattice parameter, not A to a.u. conversion factor

     IMPORTANT: XC functional enforced from input :
     Exchange-correlation= BEEF-VDW
                           (   1   4  43  14   2   0   0)
     Any further DFT definition will be discarded
     Please, verify this is what you really want

  @ DRIVER MODE: Connecting to
 qe_1139763_3255139.sched-torque.pace.gatech.eduwau7l987_scratch
  using UNIX socket
  @ DRIVER MODE: Message from server: STATUS
  @ DRIVER MODE: Message from server: INIT
  @ DRIVER MODE: Receiving replica           0          -1
  @ DRIVER MODE: Receiving encoded integer          25
  @ DRIVER MODE:  SCF:  T  FORCE:  T  STRESS:  F  VC:  F  ENSEMBLE:  F
  @ DRIVER MODE:  SCF:  T  FORCE:  T  STRESS:  F  VC:  F  ENSEMBLE:  F

     Using Slab Decomposition

     bravais-lattice index     =            0
     lattice parameter (alat)  =       1.8897  a.u.
     unit-cell volume          =    9988.4706 (a.u.)^3
     number of atoms/cell      =           61
     number of atomic types    =            4
     number of electrons       =       442.00
     number of Kohn-Sham states=          231
     kinetic-energy cutoff     =      29.3995  Ry
     charge density cutoff     =     293.9946  Ry
     scf convergence threshold =      7.3E-08
     mixing beta               =       0.0500
     number of iterations used =            8  plain     mixing
     Exchange-correlation= BEEF-VDW
                           (   1   4  43  14   2   0   0)

     celldm(1)=   1.889726  celldm(2)=   0.000000  celldm(3)=   0.000000
     celldm(4)=   0.000000  celldm(5)=   0.000000  celldm(6)=   0.000000

     crystal axes: (cart. coord. in units of alat)
               a(1) = (   6.579727   0.000000   0.000000 )
               a(2) = (  -0.001163   8.942395   0.000000 )
               a(3) = (   0.000000   0.000000  25.155947 )

     reciprocal axes: (cart. coord. in units 2 pi/alat)
               b(1) = (  0.151982  0.000020  0.000000 )
               b(2) = (  0.000000  0.111827  0.000000 )
               b(3) = (  0.000000  0.000000  0.039752 )

     PseudoPot. # 1 for O  read from file:
     /storage/coda1/p-amedford6/0/shared/rich_project_chbe-medford/medford-share/data/pseudos_module/espresso/nninc/pbe/van/O.UPF
     MD5 check sum: 78c19812648e8988a0fe644b0f25305e
     Pseudo is Ultrasoft, Zval =  6.0
     Generated by new atomic code, or converted to UPF format
     Using radial grid of  737 points,  4 beta functions with:
                l(1) =   0
                l(2) =   0
                l(3) =   1
                l(4) =   1
     Q(r) pseudized with  8 coefficients,  rinner =    0.800   0.800   0.800

     PseudoPot. # 2 for Ti read from file:
     /storage/coda1/p-amedford6/0/shared/rich_project_chbe-medford/medford-share/data/pseudos_module/espresso/nninc/pbe/van/Ti.UPF
     MD5 check sum: 8e4df49b7f0d34bbd5052bf3f5ea0213
     Pseudo is Ultrasoft, Zval = 12.0
     Generated by new atomic code, or converted to UPF format
     Using radial grid of  851 points,  6 beta functions with:
                l(1) =   0
                l(2) =   0
                l(3) =   1
                l(4) =   1
                l(5) =   2
                l(6) =   2
     Q(r) pseudized with  8 coefficients,  rinner =    1.000   1.000   1.000
                                                       1.000   1.000

     PseudoPot. # 3 for H  read from file:
     /storage/coda1/p-amedford6/0/shared/rich_project_chbe-medford/medford-share/data/pseudos_module/espresso/nninc/pbe/van/H.UPF
     MD5 check sum: b5ee9d7bfd3a09ee7748110bda690ff7
     Pseudo is Ultrasoft, Zval =  1.0
     Generated by new atomic code, or converted to UPF format
     Using radial grid of  615 points,  1 beta functions with:
                l(1) =   0
     Q(r) pseudized with  8 coefficients,  rinner =    0.800

     PseudoPot. # 4 for N  read from file:
     /storage/coda1/p-amedford6/0/shared/rich_project_chbe-medford/medford-share/data/pseudos_module/espresso/nninc/pbe/van/N.UPF
     MD5 check sum: 90d10febe142ad51ac9d5be1deb811c4
     Pseudo is Ultrasoft, Zval =  5.0
     Generated by new atomic code, or converted to UPF format
     Using radial grid of  729 points,  4 beta functions with:
                l(1) =   0
                l(2) =   0
                l(3) =   1
                l(4) =   1
     Q(r) pseudized with  8 coefficients,  rinner =    0.800   0.800   0.800

     atomic species   valence    mass     pseudopotential
        O1             6.00    15.99900     O ( 1.00)
        Ti1           12.00    47.86700     Ti( 1.00)
        H1             1.00     1.00800     H ( 1.00)
        N1             5.00    14.00700     N ( 1.00)

     No symmetry found

   Cartesian axes

     site n.     atom                  positions (alat units)
         1           O1  tau(   1) = (   0.0007354   0.0005023  10.5931620  )
         2           O1  tau(   2) = (   3.2892937   8.9423630  13.8814308  )
         3           O1  tau(   3) = (   6.5785080   0.0907754  17.2996570  )
         4           O1  tau(   4) = (   0.0006271   0.0005054   7.9858123  )
         5           O1  tau(   5) = (   3.2892617   8.9274694  11.1867540  )
         6           O1  tau(   6) = (   0.0001068   0.0384811  14.5856928  )
         7           O1  tau(   7) = (   1.9868534   1.4903216   9.2879459  )
         8           O1  tau(   8) = (   5.2392332   1.6199063  12.5840971  )
         9           O1  tau(   9) = (   2.0046145   1.5651943  16.0652335  )
        10           Ti1 tau(  10) = (   0.0007404   1.4906270   9.2895810  )
        11           Ti1 tau(  11) = (   3.2903033   1.3475644  12.4784176  )
        12           Ti1 tau(  12) = (   0.0002083   1.2954417  15.7753146  )
        13           O1  tau(  13) = (   4.5942328   1.4918067   9.2879030  )
        14           O1  tau(  14) = (   1.3408909   1.6195689  12.5841697  )
        15           O1  tau(  15) = (   4.5747373   1.5650701  16.0650860  )
        16           Ti1 tau(  16) = (   3.2902859   2.9801868   9.2893338  )
        17           Ti1 tau(  17) = (   0.0003213   2.8429885  12.4272127  )
        18           Ti1 tau(  18) = (   3.2894782   2.8703589  15.6911549  )
        19           O1  tau(  19) = (   0.0003479   2.9813005  10.5931620  )
        20           O1  tau(  20) = (   3.2897922   2.9583395  13.9032781  )
        21           O1  tau(  21) = (   0.0002396   2.9813036   7.9858123  )
        22           O1  tau(  22) = (   3.2900450   2.9730570  11.1907869  )
        23           O1  tau(  23) = (   0.0001206   2.9807552  14.9070210  )
        24           O1  tau(  24) = (   1.9864658   4.4711199   9.2879459  )
        25           O1  tau(  25) = (   5.2482068   4.5640541  12.6028892  )
        26           O1  tau(  26) = (   2.0118887   4.5193519  16.0312246  )
        27           Ti1 tau(  27) = (   0.0003529   4.4714252   9.2895810  )
        28           Ti1 tau(  28) = (   3.2901403   4.3402809  12.5217819  )
        29           Ti1 tau(  29) = (   0.0009811   4.3515161  16.1888847  )
        30           O1  tau(  30) = (   4.5938453   4.4726049   9.2879030  )
        31           O1  tau(  31) = (   1.3314901   4.5639303  12.6028828  )
        32           O1  tau(  32) = (   4.5682806   4.5188618  16.0312494  )
        33           Ti1 tau(  33) = (   3.2898983   5.9609850   9.2893338  )
        34           Ti1 tau(  34) = (   0.0001002   5.8006911  12.4939615  )
        35           Ti1 tau(  35) = (   3.2910898   5.8128663  15.8108673  )
        36           O1  tau(  36) = (  -0.0000397   5.9620987  10.5931620  )
        37           O1  tau(  37) = (   3.2898758   5.9691391  13.9384534  )
        38           O1  tau(  38) = (   0.0001572   5.9906873  17.2924393  )
        39           O1  tau(  39) = (  -0.0001480   5.9621018   7.9858123  )
        40           O1  tau(  40) = (   3.2897271   5.9334558  11.2049738  )
        41           O1  tau(  41) = (   0.0000685   5.9641935  14.6703060  )
        42           O1  tau(  42) = (   1.9860782   7.4519181   9.2879459  )
        43           O1  tau(  43) = (   5.2398882   7.5535610  12.5750285  )
        44           O1  tau(  44) = (   1.9879998   7.5809304  16.0172394  )
        45           Ti1 tau(  45) = (  -0.0000347   7.4522234   9.2895810  )
        46           Ti1 tau(  46) = (   3.2896426   7.2731609  12.5447809  )
        47           Ti1 tau(  47) = (   0.0002275   7.1890881  15.9781391  )
        48           O1  tau(  48) = (   4.5934577   7.4534031   9.2879030  )
        49           O1  tau(  49) = (   1.3388943   7.5534522  12.5751898  )
        50           O1  tau(  50) = (   4.5903976   7.5792304  16.0166626  )
        51           Ti1 tau(  51) = (   3.2895107   8.9417832   9.2893338  )
        52           Ti1 tau(  52) = (  -0.0003648   8.7758640  12.4444508  )
        53           Ti1 tau(  53) = (   3.2897763   8.8353469  15.6829021  )
        54           H1  tau(  54) = (   0.0028024   0.0378429  18.2586218  )
        55           N1  tau(  55) = (   0.0000016   3.3024973  17.8330138  )
        56           H1  tau(  56) = (   6.5772996   2.3364033  18.1430564  )
        57           H1  tau(  57) = (   6.5785254   3.8921159  18.6668881  )
        58           N1  tau(  58) = (   3.2892544   5.9906839  18.1401779  )
        59           H1  tau(  59) = (   3.2890604   5.0659402  18.5578254  )
        60           H1  tau(  60) = (   2.4549486   6.4784715  18.4500629  )
        61           H1  tau(  61) = (   4.1227990   6.4789769  18.4516084  )

     number of k points=    10  Fermi-Dirac smearing, width (Ry)=  0.0073
                       cart. coord. in units 2pi/alat
        k(    1) = (   0.0000000   0.0000000   0.0000000), wk =   0.1250000
        k(    2) = (   0.0000000   0.0279567   0.0000000), wk =   0.2500000
        k(    3) = (   0.0000000  -0.0559134   0.0000000), wk =   0.1250000
        k(    4) = (   0.0379955   0.0000049   0.0000000), wk =   0.2500000
        k(    5) = (   0.0379955   0.0279617   0.0000000), wk =   0.2500000
        k(    6) = (   0.0379955  -0.0559085   0.0000000), wk =   0.2500000
        k(    7) = (   0.0379955  -0.0279518   0.0000000), wk =   0.2500000
        k(    8) = (  -0.0759910  -0.0000099   0.0000000), wk =   0.1250000
        k(    9) = (  -0.0759910   0.0279468   0.0000000), wk =   0.2500000
        k(   10) = (  -0.0759910  -0.0559233   0.0000000), wk =   0.1250000

     Initial potential from superposition of free atoms

     starting charge  423.99908, renormalised to  442.00000

     negative rho (up, down):  3.655E-02 0.000E+00

     %%%%%%%%%%%%%%%%%%%%%%%%%%%%%%%%%%%%%%%%%%%%%%%%%%%%%%%%%%%%%%%%%%%%%%%%
     %                                                                      %
     % You are using vdW-DF, which was implemented by the Thonhauser group. %
     % Please cite the following two papers that made this development      %
     % possible and the two reviews that describe the various versions:     %
     %                                                                      %
     %   T. Thonhauser et al., PRL 115, 136402 (2015).                      %
     %   T. Thonhauser et al., PRB 76, 125112 (2007).                       %
     %   K. Berland et al., Rep. Prog. Phys. 78, 066501 (2015).             %
     %   D.C. Langreth et al., J. Phys.: Condens. Matter 21, 084203 (2009). %
     %                                                                      %
     %                                                                      %
     % If you are calculating the stress with vdW-DF, please also cite:     %
     %                                                                      %
     %   R. Sabatini et al., J. Phys.: Condens. Matter 24, 424209 (2012).   %
     %                                                                      %
     %%%%%%%%%%%%%%%%%%%%%%%%%%%%%%%%%%%%%%%%%%%%%%%%%%%%%%%%%%%%%%%%%%%%%%%%

     Adding external electric field

     Computed dipole along edir(3) :
        Dipole               -6.3634 Ry au,        -16.1741 Debye
        Dipole field         -0.0080 Ry au,

        Potential amp.        0.7421 Ry
        Total length         46.3494 bohr

     Starting wfcs are  334 atomic wfcs
  @ DRIVER MODE: Message from server: STATUS
  @ DRIVER MODE: Message from server: POSDATA
  @ DRIVER MODE: Reading and sharing cell
  @ DRIVER MODE: Reading and sharing positions
  @ DRIVER MODE: Received positions

     Self-consistent Calculation

     iteration #  1     ecut=    29.40 Ry     beta= 0.05
     Davidson diagonalization with overlap
     c_bands:  2 eigenvalues not converged
     c_bands:  3 eigenvalues not converged
     c_bands:  3 eigenvalues not converged
     c_bands:  2 eigenvalues not converged
     c_bands:  1 eigenvalues not converged
     c_bands:  4 eigenvalues not converged
     c_bands:  1 eigenvalues not converged
     c_bands:  1 eigenvalues not converged
     c_bands:  5 eigenvalues not converged
     ethr =  1.00E-05,  avg # of iterations = 20.0

[...]

     total energy              =   -3277.48087422 Ry
     estimated scf accuracy    <     248.22942839 Ry

     iteration #  2     ecut=    29.40 Ry     beta= 0.05
     Davidson diagonalization with overlap
     ethr =  1.00E-02,  avg # of iterations = 16.1

[...]

     iteration # 57     ecut=    29.40 Ry     beta= 0.05
     Davidson diagonalization with overlap
     c_bands:  1 eigenvalues not converged
     c_bands:  1 eigenvalues not converged
     c_bands:  2 eigenvalues not converged
     ethr =  1.97E-10,  avg # of iterations = 17.9

[...]

     total energy              =   -3295.81865140 Ry
     estimated scf accuracy    <       0.00000010 Ry

     iteration # 62     ecut=    29.40 Ry     beta= 0.05
     Davidson diagonalization with overlap
     ethr =  2.37E-11,  avg # of iterations =  6.6

     negative rho (up, down):  3.513E-02 0.000E+00

     Adding external electric field

     Computed dipole along edir(3) :
        Dipole                2.0206 Ry au,          5.1358 Debye
        Dipole field          0.0025 Ry au,

        Potential amp.       -0.2356 Ry
        Total length         46.3494 bohr

     End of self-consistent calculation

          k = 0.0000 0.0000 0.0000 ( 26871 PWs)   bands (ev):

   -57.4392 -57.4161 -57.4076 -57.4004 -57.3576 -57.3425 -57.3060 -57.3010
   -57.2860 -57.2566 -57.2362 -57.2277 -57.2189 -57.1841 -57.0045 -56.5042
   -56.4775 -56.4610 -33.8372 -33.8255 -33.8186 -33.8143 -33.8044 -33.7724
   -33.7616 -33.7549 -33.7462 -33.7304 -33.7281 -33.7081 -33.6867 -33.6738
   -33.6464 -33.6431 -33.6309 -33.6283 -33.6076 -33.6059 -33.5859 -33.5739
   -33.5499 -33.5485 -33.5463 -33.5371 -33.5335 -33.5309 -33.5264 -33.5197
   -33.5115 -33.4987 -33.4835 -33.4685 -33.4603 -33.4491 -33.4345 -33.4324
   -33.4280 -33.4255 -33.3969 -33.3735 -33.3338 -33.2987 -33.2261 -32.8237
   -32.8164 -32.8028 -32.7957 -32.7815 -32.7286 -32.6698 -32.6498 -32.5248
   -19.1377 -18.2945 -17.9680 -17.7510 -17.7038 -17.6810 -17.6015 -17.5357
   -17.5302 -17.4604 -17.3787 -17.2988 -17.2705 -17.2662 -17.2307 -17.2032
   -17.1838 -17.1597 -17.1584 -17.1188 -17.1074 -17.0883 -17.0612 -17.0134
   -16.9404 -16.9284 -16.8938 -16.8862 -16.8806 -16.8803 -16.7360 -16.6592
   -16.5781 -15.2558 -14.9644 -14.9080 -14.9007  -7.7076  -7.6451  -7.2311
    -6.7032  -5.6181  -5.4584  -5.3722  -5.2702  -4.9318  -4.8656  -4.8448
    -4.8307  -4.7868  -4.7476  -4.7454  -4.6878  -4.6794  -4.6616  -4.5810
    -4.5659  -4.5429  -4.4923  -4.4703  -4.4189  -4.4189  -4.3687  -4.3204
    -4.2659  -4.2551  -4.2541  -4.2323  -4.2285  -4.2064  -4.2007  -4.0892
    -4.0849  -4.0089  -3.9066  -3.9005  -3.8493  -3.7701  -3.7640  -3.7348
    -3.7072  -3.6447  -3.5987  -3.5447  -3.5366  -3.5236  -3.4617  -3.4354
    -3.3564  -3.2502  -3.2380  -3.2058  -3.1606  -3.1468  -3.1015  -3.0691
    -2.9976  -2.9219  -2.8432  -2.8163  -2.7117  -2.6657  -2.6471  -2.6139
    -2.6060  -2.5329  -2.5290  -2.5031  -2.3511  -2.2494  -2.2378  -2.2181
    -2.2075  -2.1802  -2.1766  -2.1487  -2.0838  -2.0378  -2.0304  -2.0141
    -1.9949  -1.9823  -1.8930  -1.8338  -1.8065  -1.7772  -1.7619  -1.6683
    -1.6292  -1.5946  -1.5830  -1.4775  -1.4237  -1.3161  -1.3113  -1.2985
    -1.2264  -1.1805  -1.1082  -0.7968  -0.6407  -0.5493  -0.2623  -0.2043
    -0.1963   0.0637   0.0760   0.2041   1.5496   1.7807   1.9808   1.9836
     1.9993   2.0701   2.1385   2.1505   2.2151   2.2674   2.2854

[...]

          k = 0.0380-0.0280 0.0000 ( 26873 PWs)   bands (ev):

[...]

          k =-0.0760-0.0000 0.0000 ( 26902 PWs)   bands (ev):

[...]

          k =-0.0760-0.0559 0.0000 ( 26868 PWs)   bands (ev):

   -57.4337 -57.4266 -57.4026 -57.3996 -57.3586 -57.3425 -57.3050 -57.3017
   -57.2851 -57.2551 -57.2389 -57.2296 -57.2172 -57.1835 -57.0045 -56.5016
   -56.4828 -56.4582 -33.9158 -33.8982 -33.8467 -33.8166 -33.8004 -33.7764
   -33.7674 -33.7589 -33.7174 -33.7007 -33.6877 -33.6582 -33.6348 -33.6310
   -33.6266 -33.6062 -33.5926 -33.5924 -33.5909 -33.5827 -33.5808 -33.5748
   -33.5631 -33.5552 -33.5501 -33.5426 -33.5299 -33.5230 -33.5167 -33.5111
   -33.5102 -33.5070 -33.4981 -33.4952 -33.4883 -33.4810 -33.4500 -33.4491
   -33.4408 -33.4289 -33.4273 -33.3883 -33.3550 -33.2982 -33.2295 -32.9051
   -32.8193 -32.8017 -32.7788 -32.7167 -32.6955 -32.6399 -32.6301 -32.6112
   -19.1312 -17.9880 -17.9167 -17.6798 -17.6207 -17.6085 -17.5929 -17.5579
   -17.5017 -17.4708 -17.4349 -17.4054 -17.3667 -17.3227 -17.3075 -17.2328
   -17.2281 -17.2244 -17.1581 -17.1561 -17.1387 -17.0936 -17.0803 -17.0579
   -17.0084 -16.9679 -16.9547 -16.8748 -16.8497 -16.8090 -16.7138 -16.6461
   -16.6114 -15.2532 -14.9657 -14.9554 -14.8425  -7.6896  -7.6434  -7.2216
    -6.7063  -5.2400  -5.2085  -5.1742  -5.1455  -5.0411  -4.8567  -4.7788
    -4.7454  -4.7429  -4.6763  -4.6571  -4.6492  -4.6053  -4.5932  -4.5682
    -4.5452  -4.5192  -4.4812  -4.4732  -4.4375  -4.4060  -4.3899  -4.3685
    -4.3510  -4.3473  -4.3317  -4.2436  -4.1873  -4.1809  -4.1120  -4.0864
    -4.0588  -4.0201  -4.0027  -3.9665  -3.9428  -3.7062  -3.6189  -3.6032
    -3.6025  -3.5758  -3.5402  -3.4844  -3.4256  -3.3972  -3.3641  -3.2387
    -3.1990  -3.1845  -3.1787  -3.1462  -3.0614  -3.0357  -3.0064  -2.9725
    -2.9582  -2.9088  -2.8966  -2.8558  -2.8156  -2.7467  -2.7001  -2.6631
    -2.6320  -2.5971  -2.5863  -2.5595  -2.5304  -2.5261  -2.4998  -2.4804
    -2.4080  -2.4057  -2.3670  -2.3099  -2.2366  -2.2032  -2.1851  -2.1065
    -2.0281  -1.9772  -1.9538  -1.9348  -1.8563  -1.7387  -1.7128  -1.7041
    -1.6709  -1.6222  -1.5718  -1.5371  -1.4875  -1.3972  -1.2642  -1.2439
    -1.1757  -1.0795  -1.0585  -1.0382  -0.8172  -0.7538  -0.4132  -0.1543
    -0.1095  -0.0903   0.0686   0.0762   1.7101   1.7772   1.8396   1.8730
     1.8893   1.9206   1.9234   1.9928   2.0478   2.1184   2.1347

     the Fermi energy is     1.6491 ev

!    total energy              =   -3295.81868350 Ry
     estimated scf accuracy    <       0.00000004 Ry
     smearing contrib. (-TS)   =      -0.03294732 Ry
     internal energy E=F+TS    =   -3295.78573618 Ry

     The total energy is F=E-TS. E is the sum of the following terms:
     one-electron contribution =  -34385.56081968 Ry
     hartree contribution      =   17262.15884972 Ry
     xc contribution           =    -543.89248277 Ry
     ewald contribution        =   14371.50358010 Ry
     electric field correction =       0.00513644 Ry

     convergence has been achieved in  62 iterations

     Forces acting on atoms (cartesian axes, Ry/au):

     atom    1 type  1   force =     0.00000551    0.00791244    0.05043150
     atom    2 type  1   force =    -0.00000872    0.00035100   -0.00964069
     atom    3 type  1   force =    -0.00002693   -0.00478064   -0.00031547
     atom    4 type  1   force =     0.00005789    0.00282406    0.10762628
     atom    5 type  1   force =     0.00000389    0.00069685    0.00921284
     atom    6 type  1   force =    -0.00000608   -0.00165144    0.00015307
     atom    7 type  1   force =     0.06463984    0.00007668   -0.02899290
     atom    8 type  1   force =     0.00389898   -0.02786516    0.00323576
     atom    9 type  1   force =     0.00832031   -0.01838015    0.00248205
     atom   10 type  2   force =    -0.00004972   -0.00797149   -0.19371503
     atom   11 type  2   force =    -0.00002252    0.02061833   -0.00638584
     atom   12 type  2   force =    -0.00005363    0.02245777   -0.00316982
     atom   13 type  1   force =    -0.06473429   -0.00037684   -0.02894130
     atom   14 type  1   force =    -0.00389618   -0.02784577    0.00323085
     atom   15 type  1   force =    -0.00831089   -0.01836454    0.00246971
     atom   16 type  2   force =     0.00009920    0.00060167    0.06676870
     atom   17 type  2   force =     0.00002229    0.03325952    0.00618043
     atom   18 type  2   force =     0.00000987    0.02098830    0.00171254
     atom   19 type  1   force =     0.00000466    0.00225911    0.05627587
     atom   20 type  1   force =    -0.00000526   -0.00132388   -0.00682850
     atom   21 type  1   force =     0.00006032   -0.00139182    0.10886347
     atom   22 type  1   force =     0.00000811   -0.00023777    0.00987060
     atom   23 type  1   force =     0.00000972   -0.00491710    0.00086209
     atom   24 type  1   force =     0.06620478   -0.00050525   -0.02949776
     atom   25 type  1   force =     0.00418279   -0.03009450    0.00218902
     atom   26 type  1   force =     0.01025114   -0.02408593    0.00224717
     atom   27 type  2   force =    -0.00006759    0.01376245   -0.18652996
     atom   28 type  2   force =    -0.00002272    0.02335374   -0.00584047
     atom   29 type  2   force =    -0.00004781    0.01908469   -0.01270621
     atom   30 type  1   force =    -0.06631027   -0.00095707   -0.02945181
     atom   31 type  1   force =    -0.00417671   -0.03006672    0.00218967
     atom   32 type  1   force =    -0.01018750   -0.02406232    0.00223950
     atom   33 type  2   force =     0.00009953   -0.00141542    0.06835497
     atom   34 type  2   force =     0.00002301    0.03781894    0.00408569
     atom   35 type  2   force =    -0.00002469    0.03573804    0.00751733
     atom   36 type  1   force =     0.00001615    0.00057093    0.06523299
     atom   37 type  1   force =    -0.00000957    0.00226552   -0.01092905
     atom   38 type  1   force =    -0.00000184   -0.00067730    0.00190253
     atom   39 type  1   force =     0.00005855   -0.00143295    0.10681202
     atom   40 type  1   force =     0.00000113   -0.00039783    0.00776471
     atom   41 type  1   force =    -0.00000124   -0.00005114    0.00566568
     atom   42 type  1   force =     0.06733191   -0.00097213   -0.02906485
     atom   43 type  1   force =     0.00311491   -0.02829615    0.00236523
     atom   44 type  1   force =     0.00712756   -0.02151455    0.00461274
     atom   45 type  2   force =    -0.00006860   -0.00850372   -0.18088502
     atom   46 type  2   force =    -0.00000452    0.01745693   -0.00237631
     atom   47 type  2   force =    -0.00004516    0.02033744   -0.00661919
     atom   48 type  1   force =    -0.06742688   -0.00141966   -0.02902038
     atom   49 type  1   force =    -0.00308237   -0.02829488    0.00236301
     atom   50 type  1   force =    -0.00709975   -0.02147531    0.00458209
     atom   51 type  2   force =     0.00012215   -0.00305368    0.06678806
     atom   52 type  2   force =     0.00000239    0.03510297    0.00727849
     atom   53 type  2   force =    -0.00002766    0.02419396    0.00288783
     atom   54 type  3   force =     0.00011048   -0.00023450    0.00054028
     atom   55 type  4   force =    -0.00004551   -0.00012824    0.01910142
     atom   56 type  3   force =    -0.00002231    0.00418314   -0.00274657
     atom   57 type  3   force =     0.00002089   -0.00532000   -0.01027499
     atom   58 type  4   force =     0.00012341    0.00076359   -0.00132409
     atom   59 type  3   force =    -0.00000147   -0.00004716    0.00001977
     atom   60 type  3   force =    -0.00056633    0.00075442   -0.00041034
     atom   61 type  3   force =     0.00042334    0.00068052   -0.00044939

     Total force =     0.462360     Total SCF correction =     0.000446
  @ DRIVER MODE: Message from server: STATUS
  @ DRIVER MODE: Message from server: GETFORCE
  @ DRIVER MODE: Returning v,forces,stress,ensemble

     Writing output data file ./calc.save/
  @ DRIVER MODE: Message from server: EXIT
  @ DRIVE MODE: Exiting

     General routines

     Parallel routines

   This run was terminated on:  17:26:57  18Oct2021

   JOB DONE.