     Program PWSCF v.6.7GPU starts on 15Sep2021 at 18:20:27

     R & G space division:  proc/nbgrp/npool/nimage =      10
     Reading input from /storage/home/hcoda1/3/ntian30/research/carbon/CxH_vib/H2O_calc/ads_slab/CH3N2HH2O_a/out_0009/pw.inp
Warning: card &CELL ignored
Warning: card   CELL_DYNAMICS='IPI', ignored
Warning: card / ignored

     Current dimensions of program PWSCF are:
     Max number of different atomic species (ntypx) = 10
     Max number of k-points (npk) =  40000
     Max angular momentum in pseudopotentials (lmaxx) =  3
     Presently no symmetry can be used with electric field

     Message from routine cell_base_init:
     DEPRECATED: use true lattice parameter, not A to a.u. conversion factor

     IMPORTANT: XC functional enforced from input :
     Exchange-correlation= BEEF-VDW
                           (   1   4  43  14   2   0   0)
     Any further DFT definition will be discarded
     Please, verify this is what you really want

  @ DRIVER MODE: Connecting to
 qe_1139763_2852617.sched-torque.pace.gatech.eduy2b4j69n_scratch
  using UNIX socket
  @ DRIVER MODE: Message from server: STATUS
  @ DRIVER MODE: Message from server: INIT
  @ DRIVER MODE: Receiving replica           0          -1
  @ DRIVER MODE: Receiving encoded integer          25
  @ DRIVER MODE:  SCF:  T  FORCE:  T  STRESS:  F  VC:  F  ENSEMBLE:  F
  @ DRIVER MODE:  SCF:  T  FORCE:  T  STRESS:  F  VC:  F  ENSEMBLE:  F

     Using Slab Decomposition

     bravais-lattice index     =            0
     lattice parameter (alat)  =       1.8897  a.u.
     unit-cell volume          =    6658.9804 (a.u.)^3
     number of atoms/cell      =           57
     number of atomic types    =            5
     number of electrons       =       404.00
     number of Kohn-Sham states=          212
     kinetic-energy cutoff     =      29.3995  Ry
     charge density cutoff     =     293.9946  Ry
     scf convergence threshold =      7.3E-08
     mixing beta               =       0.0500
     number of iterations used =            8  plain     mixing
     Exchange-correlation= BEEF-VDW
                           (   1   4  43  14   2   0   0)

     celldm(1)=   1.889726  celldm(2)=   0.000000  celldm(3)=   0.000000
     celldm(4)=   0.000000  celldm(5)=   0.000000  celldm(6)=   0.000000

     crystal axes: (cart. coord. in units of alat)
               a(1) = (   6.579727   0.000000   0.000000 )
               a(2) = (  -0.000775   5.961596   0.000000 )
               a(3) = (   0.000000   0.000000  25.155947 )

     reciprocal axes: (cart. coord. in units 2 pi/alat)
               b(1) = (  0.151982  0.000020  0.000000 )
               b(2) = (  0.000000  0.167740  0.000000 )
               b(3) = (  0.000000  0.000000  0.039752 )

     PseudoPot. # 1 for Ti read from file:
     /storage/coda1/p-amedford6/0/shared/rich_project_chbe-medford/medford-share/data/pseudos_module/espresso/nninc/pbe/van/Ti.UPF
     MD5 check sum: 8e4df49b7f0d34bbd5052bf3f5ea0213
     Pseudo is Ultrasoft, Zval = 12.0
     Generated by new atomic code, or converted to UPF format
     Using radial grid of  851 points,  6 beta functions with:
                l(1) =   0
                l(2) =   0
                l(3) =   1
                l(4) =   1
                l(5) =   2
                l(6) =   2
     Q(r) pseudized with  8 coefficients,  rinner =    1.000   1.000   1.000
                                                       1.000   1.000

     PseudoPot. # 2 for O  read from file:
     /storage/coda1/p-amedford6/0/shared/rich_project_chbe-medford/medford-share/data/pseudos_module/espresso/nninc/pbe/van/O.UPF
     MD5 check sum: 78c19812648e8988a0fe644b0f25305e
     Pseudo is Ultrasoft, Zval =  6.0
     Generated by new atomic code, or converted to UPF format
     Using radial grid of  737 points,  4 beta functions with:
                l(1) =   0
                l(2) =   0
                l(3) =   1
                l(4) =   1
     Q(r) pseudized with  8 coefficients,  rinner =    0.800   0.800   0.800

     PseudoPot. # 3 for N  read from file:
     /storage/coda1/p-amedford6/0/shared/rich_project_chbe-medford/medford-share/data/pseudos_module/espresso/nninc/pbe/van/N.UPF
     MD5 check sum: 90d10febe142ad51ac9d5be1deb811c4
     Pseudo is Ultrasoft, Zval =  5.0
     Generated by new atomic code, or converted to UPF format
     Using radial grid of  729 points,  4 beta functions with:
                l(1) =   0
                l(2) =   0
                l(3) =   1
                l(4) =   1
     Q(r) pseudized with  8 coefficients,  rinner =    0.800   0.800   0.800

     PseudoPot. # 4 for C  read from file:
     /storage/coda1/p-amedford6/0/shared/rich_project_chbe-medford/medford-share/data/pseudos_module/espresso/nninc/pbe/van/C.UPF
     MD5 check sum: 1a69bf6b8db32088f5b2163dbdb77a27
     Pseudo is Ultrasoft, Zval =  4.0
     Generated by new atomic code, or converted to UPF format
     Using radial grid of  721 points,  4 beta functions with:
                l(1) =   0
                l(2) =   0
                l(3) =   1
                l(4) =   1
     Q(r) pseudized with  8 coefficients,  rinner =    0.800   0.800   0.800

     PseudoPot. # 5 for H  read from file:
     /storage/coda1/p-amedford6/0/shared/rich_project_chbe-medford/medford-share/data/pseudos_module/espresso/nninc/pbe/van/H.UPF
     MD5 check sum: b5ee9d7bfd3a09ee7748110bda690ff7
     Pseudo is Ultrasoft, Zval =  1.0
     Generated by new atomic code, or converted to UPF format
     Using radial grid of  615 points,  1 beta functions with:
                l(1) =   0
     Q(r) pseudized with  8 coefficients,  rinner =    0.800

     atomic species   valence    mass     pseudopotential
        Ti1           12.00    47.86700     Ti( 1.00)
        O1             6.00    15.99900     O ( 1.00)
        N1             5.00    14.00700     N ( 1.00)
        C1             4.00    12.01100     C ( 1.00)
        H1             1.00     1.00800     H ( 1.00)

     No symmetry found

   Cartesian axes

     site n.     atom                  positions (alat units)
         1           Ti1 tau(   1) = (   0.0004258   2.9801865   6.0000000  )
         2           Ti1 tau(   2) = (   3.2906075   1.4906267   6.0002472  )
         3           O1  tau(   3) = (   0.0006271   0.0005054   7.9858123  )
         4           O1  tau(   4) = (   3.2906025   0.0005020   7.3038282  )
         5           O1  tau(   5) = (   4.5942328   1.4918067   9.2879030  )
         6           O1  tau(   6) = (   1.9868534   1.4903216   9.2879459  )
         7           Ti1 tau(   7) = (   3.2907910   2.8959150   9.1758416  )
         8           Ti1 tau(   8) = (   0.0015273   1.4827037   9.2680791  )
         9           O1  tau(   9) = (   3.2846840   0.0164488  11.3171736  )
        10           O1  tau(  10) = (   0.0116148   5.9584955  10.6183126  )
        11           O1  tau(  11) = (   1.2780696   1.4966870  12.6228330  )
        12           O1  tau(  12) = (   5.2671132   1.5021727  12.6038655  )
        13           Ti1 tau(  13) = (   0.0814623   2.9703834  12.6092300  )
        14           Ti1 tau(  14) = (   3.3984034   1.5042134  12.4754612  )
        15           O1  tau(  15) = (   6.5611900   5.9602394  14.6246442  )
        16           O1  tau(  16) = (   3.2847170   0.0117735  13.9091713  )
        17           O1  tau(  17) = (   4.5127615   1.5439160  15.9886145  )
        18           O1  tau(  18) = (   2.0245574   1.5486524  15.9865356  )
        19           Ti1 tau(  19) = (   3.2678410   3.0292036  15.6627315  )
        20           Ti1 tau(  20) = (   6.5437773   1.5790868  15.8036792  )
        21           O1  tau(  21) = (   3.2904802   0.0005063   4.7018136  )
        22           O1  tau(  22) = (   6.5616667   0.0409992  17.2467836  )
        23           O1  tau(  23) = (   1.3043587   1.4918075   6.0039043  )
        24           O1  tau(  24) = (   5.2767064   1.4903225   6.0039473  )
        25           Ti1 tau(  25) = (   0.0000382   5.9609847   6.0000000  )
        26           Ti1 tau(  26) = (   3.2902200   4.4714249   6.0002472  )
        27           O1  tau(  27) = (   0.0002396   2.9813036   7.9858123  )
        28           O1  tau(  28) = (   3.2902150   2.9813002   7.3038282  )
        29           O1  tau(  29) = (   4.5938453   4.4726049   9.2879030  )
        30           O1  tau(  30) = (   1.9864658   4.4711199   9.2879459  )
        31           Ti1 tau(  31) = (   3.2891106   5.8743827   9.1763621  )
        32           Ti1 tau(  32) = (   0.0006254   4.4649316   9.2693709  )
        33           O1  tau(  33) = (   3.2886753   2.9955121  11.3174028  )
        34           O1  tau(  34) = (   0.0092240   2.9805883  10.6323155  )
        35           O1  tau(  35) = (   1.2771457   4.4765085  12.6200386  )
        36           O1  tau(  36) = (   5.2716127   4.4859779  12.5990880  )
        37           Ti1 tau(  37) = (   0.0719143   5.9417653  12.6408960  )
        38           Ti1 tau(  38) = (   3.4009286   4.4967646  12.4819834  )
        39           O1  tau(  39) = (   6.5633752   2.9851081  14.6229342  )
        40           O1  tau(  40) = (   3.2806164   3.0132077  13.8636590  )
        41           O1  tau(  41) = (   4.5054435   4.4842064  16.0752605  )
        42           O1  tau(  42) = (   2.0287922   4.4846499  16.0567397  )
        43           Ti1 tau(  43) = (   3.2585180   0.0608266  15.7494983  )
        44           Ti1 tau(  44) = (   6.5556145   4.6328118  16.1363011  )
        45           O1  tau(  45) = (   3.2900926   2.9813045   4.7018136  )
        46           O1  tau(  46) = (   1.3039711   4.4726057   6.0039043  )
        47           O1  tau(  47) = (   5.2763189   4.4711207   6.0039473  )
        48           N1  tau(  48) = (   6.4582227   2.6263240  18.5734135  )
        49           N1  tau(  49) = (   6.5493832   2.9396485  17.3103279  )
        50           C1  tau(  50) = (   0.1600853   3.5596473  19.6455425  )
        51           H1  tau(  51) = (   6.1911903   4.4878083  19.4849519  )
        52           H1  tau(  52) = (   6.4401482   3.1080517  20.5902855  )
        53           H1  tau(  53) = (   1.2308410   3.8049764  19.6956042  )
        54           H1  tau(  54) = (   6.5044843   1.6253530  18.7706356  )
        55           O1  tau(  55) = (   3.2415852   0.0755412  18.2049893  )
        56           H1  tau(  56) = (   4.0109045   5.4607113  18.3409029  )
        57           H1  tau(  57) = (   2.4534619   5.4803556  18.3240773  )

     number of k points=    10  Fermi-Dirac smearing, width (Ry)=  0.0073
                       cart. coord. in units 2pi/alat
        k(    1) = (   0.0000000   0.0000000   0.0000000), wk =   0.1250000
        k(    2) = (   0.0000000   0.0419351   0.0000000), wk =   0.2500000
        k(    3) = (   0.0000000  -0.0838702   0.0000000), wk =   0.1250000
        k(    4) = (   0.0379955   0.0000049   0.0000000), wk =   0.2500000
        k(    5) = (   0.0379955   0.0419400   0.0000000), wk =   0.2500000
        k(    6) = (   0.0379955  -0.0838652   0.0000000), wk =   0.2500000
        k(    7) = (   0.0379955  -0.0419301   0.0000000), wk =   0.2500000
        k(    8) = (  -0.0759910  -0.0000099   0.0000000), wk =   0.1250000
        k(    9) = (  -0.0759910   0.0419252   0.0000000), wk =   0.2500000
        k(   10) = (  -0.0759910  -0.0838800   0.0000000), wk =   0.1250000

     Initial potential from superposition of free atoms

     starting charge  387.99913, renormalised to  404.00000

     negative rho (up, down):  1.445E-02 0.000E+00

     %%%%%%%%%%%%%%%%%%%%%%%%%%%%%%%%%%%%%%%%%%%%%%%%%%%%%%%%%%%%%%%%%%%%%%%%
     %                                                                      %
     % You are using vdW-DF, which was implemented by the Thonhauser group. %
     % Please cite the following two papers that made this development      %
     % possible and the two reviews that describe the various versions:     %
     %                                                                      %
     %   T. Thonhauser et al., PRL 115, 136402 (2015).                      %
     %   T. Thonhauser et al., PRB 76, 125112 (2007).                       %
     %   K. Berland et al., Rep. Prog. Phys. 78, 066501 (2015).             %
     %   D.C. Langreth et al., J. Phys.: Condens. Matter 21, 084203 (2009). %
     %                                                                      %
     %                                                                      %
     % If you are calculating the stress with vdW-DF, please also cite:     %
     %                                                                      %
     %   R. Sabatini et al., J. Phys.: Condens. Matter 24, 424209 (2012).   %
     %                                                                      %
     %%%%%%%%%%%%%%%%%%%%%%%%%%%%%%%%%%%%%%%%%%%%%%%%%%%%%%%%%%%%%%%%%%%%%%%%

     Adding external electric field

     Computed dipole along edir(3) :
        Dipole              -13.5668 Ry au,        -34.4835 Debye
        Dipole field         -0.0256 Ry au,

        Potential amp.        2.3733 Ry
        Total length         46.3494 bohr

     Starting wfcs are  306 atomic wfcs
  @ DRIVER MODE: Message from server: STATUS
  @ DRIVER MODE: Message from server: POSDATA
  @ DRIVER MODE: Reading and sharing cell
  @ DRIVER MODE: Reading and sharing positions
  @ DRIVER MODE: Received positions

     Self-consistent Calculation

     iteration #  1     ecut=    29.40 Ry     beta= 0.05
     Davidson diagonalization with overlap
     c_bands:  4 eigenvalues not converged
     c_bands:  4 eigenvalues not converged
     c_bands:  4 eigenvalues not converged
     c_bands:  4 eigenvalues not converged
     c_bands:  3 eigenvalues not converged
     c_bands:  3 eigenvalues not converged
     ethr =  1.00E-05,  avg # of iterations = 25.3

[...]

     total energy              =   -2340.95844904 Ry
     estimated scf accuracy    <    7231.95244077 Ry

     iteration #  2     ecut=    29.40 Ry     beta= 0.05
     Davidson diagonalization with overlap
     ethr =  1.00E-02,  avg # of iterations = 24.2

[...]

     iteration # 66     ecut=    29.40 Ry     beta= 0.05
     Davidson diagonalization with overlap
     c_bands:  1 eigenvalues not converged
     c_bands:  1 eigenvalues not converged
     ethr =  3.12E-07,  avg # of iterations = 11.4

[...]

     total energy              =   -2975.23047227 Ry
     estimated scf accuracy    <       0.00000016 Ry

     iteration # 86     ecut=    29.40 Ry     beta= 0.05
     Davidson diagonalization with overlap
     ethr =  3.99E-11,  avg # of iterations =  5.9

     negative rho (up, down):  1.506E-02 0.000E+00

     Adding external electric field

     Computed dipole along edir(3) :
        Dipole                1.1657 Ry au,          2.9630 Debye
        Dipole field          0.0022 Ry au,

        Potential amp.       -0.2039 Ry
        Total length         46.3494 bohr

     End of self-consistent calculation

          k = 0.0000 0.0000 0.0000 ( 18029 PWs)   bands (ev):

   -55.5004 -55.4664 -55.3282 -55.2917 -55.2578 -55.2241 -55.1976 -55.1960
   -55.1830 -55.1603 -55.1486 -55.0119 -54.5369 -54.4309 -54.3991 -54.3969
   -31.9734 -31.8636 -31.7947 -31.7797 -31.7166 -31.7079 -31.6721 -31.6536
   -31.6174 -31.6018 -31.5958 -31.5694 -31.5593 -31.5153 -31.5075 -31.4964
   -31.4782 -31.4763 -31.4513 -31.4336 -31.4227 -31.4124 -31.4094 -31.3934
   -31.3879 -31.3801 -31.3705 -31.3633 -31.3612 -31.3587 -31.3368 -31.3258
   -31.3130 -31.2955 -31.2040 -31.1769 -31.0399 -30.8359 -30.7640 -30.7529
   -30.7475 -30.7301 -30.7285 -30.6529 -30.6097 -30.5724 -30.5667 -30.4556
   -18.7924 -17.7827 -16.0696 -15.8774 -15.6052 -15.4837 -15.4549 -15.2710
   -15.1945 -15.1426 -15.0102 -14.9640 -14.9340 -14.9043 -14.8912 -14.8341
   -14.8074 -14.7802 -14.7528 -14.7460 -14.7263 -14.7050 -14.6662 -14.6052
   -14.5810 -14.5194 -14.4690 -14.4472 -14.3574 -14.3498 -13.9304 -12.9322
   -12.8167 -11.9240  -8.8011  -6.5624  -5.6244  -4.3337  -4.1029  -3.4544
    -3.3782  -3.3196  -3.2041  -3.1314  -2.9854  -2.9503  -2.8874  -2.7752
    -2.6005  -2.5426  -2.5176  -2.4879  -2.4038  -2.2697  -2.2580  -2.2109
    -2.1824  -2.1618  -2.1485  -2.1315  -2.0380  -1.9979  -1.9602  -1.8556
    -1.8164  -1.7906  -1.7745  -1.7664  -1.7500  -1.6852  -1.6538  -1.6354
    -1.6238  -1.5866  -1.5535  -1.5440  -1.4149  -1.3947  -1.2793  -1.1574
    -1.1283  -1.0689  -1.0421  -0.8831  -0.8789  -0.8546  -0.8148  -0.8071
    -0.7359  -0.6627  -0.6223  -0.5457  -0.4273  -0.4179  -0.3846  -0.2376
    -0.2340  -0.2108  -0.1726  -0.1613  -0.1117  -0.1030  -0.0557   0.0018
     0.1006   0.1670   0.2748   0.2797   0.3319   0.3718   0.3835   0.4416
     0.4591   0.5082   0.5208   0.5280   0.5802   0.6147   0.6276   0.6838
     0.7363   0.8535   0.9224   0.9480   0.9943   1.1167   1.1922   1.2375
     1.2443   1.4119   1.5364   1.5571   1.5916   1.7918   1.8225   2.1584
     2.2022   3.6736   3.6905   3.7800   3.8390   3.9530   4.0244   4.1132
     4.1909   4.2619   4.3551   4.4139

[...]

          k = 0.0380-0.0419 0.0000 ( 17876 PWs)   bands (ev):

[...]

          k =-0.0760-0.0000 0.0000 ( 17886 PWs)   bands (ev):

[...]

          k =-0.0760-0.0839 0.0000 ( 17948 PWs)   bands (ev):

   -55.4835 -55.4831 -55.3136 -55.3061 -55.2409 -55.2407 -55.1943 -55.1859
   -55.1719 -55.1691 -55.1626 -55.0135 -54.5350 -54.4139 -54.4138 -54.4008
   -31.7890 -31.7889 -31.7799 -31.7799 -31.6767 -31.6596 -31.6045 -31.6040
   -31.5659 -31.5615 -31.5578 -31.5529 -31.5503 -31.5448 -31.5121 -31.5071
   -31.4854 -31.4780 -31.4740 -31.4679 -31.4340 -31.4319 -31.4238 -31.4212
   -31.4103 -31.4100 -31.3972 -31.3950 -31.3911 -31.3853 -31.3845 -31.3786
   -31.3509 -31.3275 -31.3140 -31.2118 -30.9444 -30.8064 -30.7500 -30.7429
   -30.7428 -30.7313 -30.6490 -30.6488 -30.6270 -30.6100 -30.6099 -30.6098
   -18.7914 -17.7769 -15.4933 -15.4269 -15.3556 -15.3517 -15.2473 -15.1943
   -15.0994 -15.0888 -15.0818 -15.0788 -14.9778 -14.9743 -14.9095 -14.9003
   -14.8618 -14.8538 -14.8499 -14.8338 -14.8190 -14.8136 -14.8001 -14.7556
   -14.7342 -14.7284 -14.5650 -14.5413 -14.4249 -14.4057 -14.0561 -12.9188
   -12.9187 -11.9252  -8.8118  -6.5463  -5.6160  -4.2844  -4.1232  -2.9419
    -2.9176  -2.7847  -2.6582  -2.5239  -2.5117  -2.4913  -2.4548  -2.2881
    -2.2755  -2.2599  -2.2502  -2.2092  -2.1979  -2.1789  -2.1648  -2.1108
    -2.0941  -2.0743  -2.0707  -2.0597  -2.0556  -2.0430  -2.0346  -2.0254
    -2.0017  -1.9563  -1.9346  -1.8544  -1.7678  -1.7580  -1.6805  -1.5505
    -1.5432  -1.5313  -1.5297  -1.5183  -1.5083  -1.4671  -1.4352  -1.3769
    -1.2746  -1.1501  -1.0980  -1.0796  -1.0289  -1.0067  -0.9179  -0.8365
    -0.8017  -0.7835  -0.6979  -0.6495  -0.5717  -0.5565  -0.5197  -0.4687
    -0.4442  -0.4300  -0.4129  -0.4050  -0.3459  -0.2992  -0.2321  -0.2189
    -0.1607  -0.1295  -0.1021  -0.0791  -0.0372   0.0558   0.0634   0.0890
     0.1192   0.1343   0.2070   0.3585   0.3998   0.6393   0.6489   0.7177
     0.8486   0.8715   0.8786   0.9531   0.9669   1.0034   1.0262   1.1468
     1.1700   1.1903   1.3229   1.3577   1.4458   1.9614   1.9623   2.0212
     2.0217   3.5367   4.1368   4.1474   4.1644   4.1779   4.2035   4.2101
     4.2516   4.2651   4.3989   4.4212

     the Fermi energy is     3.6495 ev

!    total energy              =   -2975.23048039 Ry
     estimated scf accuracy    <       0.00000006 Ry
     smearing contrib. (-TS)   =      -0.02110038 Ry
     internal energy E=F+TS    =   -2975.20938001 Ry

     The total energy is F=E-TS. E is the sum of the following terms:
     one-electron contribution =  -23878.73269283 Ry
     hartree contribution      =   12036.80718231 Ry
     xc contribution           =    -494.92999131 Ry
     ewald contribution        =    9361.64355739 Ry
     electric field correction =       0.00256443 Ry

     convergence has been achieved in  86 iterations

     Forces acting on atoms (cartesian axes, Ry/au):

     atom    1 type  1   force =     0.00017359   -0.00023388    0.09947320
     atom    2 type  1   force =    -0.00014719   -0.00039016   -0.17312896
     atom    3 type  2   force =    -0.00006778   -0.00000195   -0.02911450
     atom    4 type  2   force =     0.00003967   -0.00102591    0.04893557
     atom    5 type  2   force =    -0.01225046    0.00099318    0.00048930
     atom    6 type  2   force =     0.01355943    0.00186469   -0.00110830
     atom    7 type  1   force =    -0.00136215   -0.00053402   -0.00302944
     atom    8 type  1   force =     0.00094838   -0.00607548    0.04539756
     atom    9 type  2   force =     0.00000108   -0.00022352    0.00001257
     atom   10 type  2   force =    -0.00155359    0.00261482   -0.03089161
     atom   11 type  2   force =    -0.00016424   -0.00048577    0.00006420
     atom   12 type  2   force =     0.00008096   -0.00025751    0.00017469
     atom   13 type  1   force =    -0.00021653   -0.00054057   -0.00028778
     atom   14 type  1   force =     0.00031017   -0.00016509    0.00017246
     atom   15 type  2   force =    -0.00000921   -0.00124616    0.00019763
     atom   16 type  2   force =    -0.00021845    0.00001338    0.00024992
     atom   17 type  2   force =    -0.00032990   -0.00037070    0.00004977
     atom   18 type  2   force =     0.00042235   -0.00043880   -0.00009376
     atom   19 type  1   force =     0.00007568   -0.00078135    0.00010441
     atom   20 type  1   force =    -0.00001396   -0.00077064   -0.00024182
     atom   21 type  2   force =     0.00008784   -0.00000655    0.10259514
     atom   22 type  2   force =     0.00008504   -0.00161669    0.00014660
     atom   23 type  2   force =    -0.07248711   -0.00009015   -0.02845413
     atom   24 type  2   force =     0.07245115    0.00034267   -0.02843700
     atom   25 type  1   force =     0.00009553   -0.00027390    0.09897790
     atom   26 type  1   force =    -0.00006681   -0.00041480   -0.17329541
     atom   27 type  2   force =    -0.00003366    0.00000457   -0.02842285
     atom   28 type  2   force =     0.00009526   -0.00076002    0.04810340
     atom   29 type  2   force =    -0.01261887    0.00063084    0.00052404
     atom   30 type  2   force =     0.01385396    0.00096037   -0.00104578
     atom   31 type  1   force =    -0.00145952    0.00225400   -0.00575091
     atom   32 type  1   force =     0.00112106    0.00383168    0.04592298
     atom   33 type  2   force =    -0.00006118   -0.00027620   -0.00006580
     atom   34 type  2   force =    -0.00096506    0.00134220   -0.03379134
     atom   35 type  2   force =    -0.00027938    0.00006865   -0.00023527
     atom   36 type  2   force =     0.00047599    0.00011549   -0.00003308
     atom   37 type  1   force =    -0.00031491    0.00004396    0.00007560
     atom   38 type  1   force =     0.00018959   -0.00028108   -0.00001260
     atom   39 type  2   force =     0.00004133   -0.00009344    0.00027298
     atom   40 type  2   force =    -0.00005388    0.00020876   -0.00014083
     atom   41 type  2   force =     0.00041459   -0.00034181    0.00036852
     atom   42 type  2   force =    -0.00031296   -0.00027020    0.00025397
     atom   43 type  1   force =     0.00009631    0.00059054   -0.00031937
     atom   44 type  1   force =    -0.00000793   -0.00044190   -0.00035551
     atom   45 type  2   force =     0.00009640   -0.00000959    0.10258913
     atom   46 type  2   force =    -0.07250727   -0.00000836   -0.02844826
     atom   47 type  2   force =     0.07246897    0.00037833   -0.02843988
     atom   48 type  3   force =    -0.00070991   -0.00448729    0.00235589
     atom   49 type  3   force =     0.00053022    0.00607741   -0.00359185
     atom   50 type  4   force =     0.00028197    0.00022920   -0.00048798
     atom   51 type  5   force =     0.00018901   -0.00005313    0.00022807
     atom   52 type  5   force =    -0.00014181    0.00016343    0.00003406
     atom   53 type  5   force =     0.00010772   -0.00006354    0.00012700
     atom   54 type  5   force =     0.00013742   -0.00011597    0.00172121
     atom   55 type  2   force =     0.00060653    0.00057918   -0.00021048
     atom   56 type  5   force =    -0.00020322   -0.00037370   -0.00026373
     atom   57 type  5   force =    -0.00048027    0.00021250    0.00008046

     Total force =     0.372196     Total SCF correction =     0.000434
  @ DRIVER MODE: Message from server: STATUS
  @ DRIVER MODE: Message from server: GETFORCE
  @ DRIVER MODE: Returning v,forces,stress,ensemble

     Writing output data file ./calc.save/
  @ DRIVER MODE: Message from server: EXIT
  @ DRIVE MODE: Exiting

     General routines

     Parallel routines

   This run was terminated on:  18:42:37  15Sep2021

   JOB DONE.