     Program PWSCF v.6.7GPU starts on 16Sep2021 at  6:43:34

     R & G space division:  proc/nbgrp/npool/nimage =      10
     Reading input from /storage/home/hcoda1/3/ntian30/research/carbon/CxH_vib/H2O_calc/ads_slab/CH3OHH2O_e/out_0047/pw.inp
Warning: card &CELL ignored
Warning: card   CELL_DYNAMICS='IPI', ignored
Warning: card / ignored

     Current dimensions of program PWSCF are:
     Max number of different atomic species (ntypx) = 10
     Max number of k-points (npk) =  40000
     Max angular momentum in pseudopotentials (lmaxx) =  3
     Presently no symmetry can be used with electric field

     Message from routine cell_base_init:
     DEPRECATED: use true lattice parameter, not A to a.u. conversion factor

     IMPORTANT: XC functional enforced from input :
     Exchange-correlation= BEEF-VDW
                           (   1   4  43  14   2   0   0)
     Any further DFT definition will be discarded
     Please, verify this is what you really want

  @ DRIVER MODE: Connecting to
 qe_1139763_2852623.sched-torque.pace.gatech.edu8cn2xix0_scratch
  using UNIX socket
  @ DRIVER MODE: Message from server: STATUS
  @ DRIVER MODE: Message from server: INIT
  @ DRIVER MODE: Receiving replica           0          -1
  @ DRIVER MODE: Receiving encoded integer          25
  @ DRIVER MODE:  SCF:  T  FORCE:  T  STRESS:  F  VC:  F  ENSEMBLE:  F
  @ DRIVER MODE:  SCF:  T  FORCE:  T  STRESS:  F  VC:  F  ENSEMBLE:  F

     Using Slab Decomposition

     bravais-lattice index     =            0
     lattice parameter (alat)  =       1.8897  a.u.
     unit-cell volume          =    6658.9804 (a.u.)^3
     number of atoms/cell      =           56
     number of atomic types    =            4
     number of electrons       =       400.00
     number of Kohn-Sham states=          210
     kinetic-energy cutoff     =      29.3995  Ry
     charge density cutoff     =     293.9946  Ry
     scf convergence threshold =      7.3E-08
     mixing beta               =       0.0500
     number of iterations used =            8  plain     mixing
     Exchange-correlation= BEEF-VDW
                           (   1   4  43  14   2   0   0)

     celldm(1)=   1.889726  celldm(2)=   0.000000  celldm(3)=   0.000000
     celldm(4)=   0.000000  celldm(5)=   0.000000  celldm(6)=   0.000000

     crystal axes: (cart. coord. in units of alat)
               a(1) = (   6.579727   0.000000   0.000000 )
               a(2) = (  -0.000775   5.961596   0.000000 )
               a(3) = (   0.000000   0.000000  25.155947 )

     reciprocal axes: (cart. coord. in units 2 pi/alat)
               b(1) = (  0.151982  0.000020  0.000000 )
               b(2) = (  0.000000  0.167740  0.000000 )
               b(3) = (  0.000000  0.000000  0.039752 )

     PseudoPot. # 1 for Ti read from file:
     /storage/coda1/p-amedford6/0/shared/rich_project_chbe-medford/medford-share/data/pseudos_module/espresso/nninc/pbe/van/Ti.UPF
     MD5 check sum: 8e4df49b7f0d34bbd5052bf3f5ea0213
     Pseudo is Ultrasoft, Zval = 12.0
     Generated by new atomic code, or converted to UPF format
     Using radial grid of  851 points,  6 beta functions with:
                l(1) =   0
                l(2) =   0
                l(3) =   1
                l(4) =   1
                l(5) =   2
                l(6) =   2
     Q(r) pseudized with  8 coefficients,  rinner =    1.000   1.000   1.000
                                                       1.000   1.000

     PseudoPot. # 2 for O  read from file:
     /storage/coda1/p-amedford6/0/shared/rich_project_chbe-medford/medford-share/data/pseudos_module/espresso/nninc/pbe/van/O.UPF
     MD5 check sum: 78c19812648e8988a0fe644b0f25305e
     Pseudo is Ultrasoft, Zval =  6.0
     Generated by new atomic code, or converted to UPF format
     Using radial grid of  737 points,  4 beta functions with:
                l(1) =   0
                l(2) =   0
                l(3) =   1
                l(4) =   1
     Q(r) pseudized with  8 coefficients,  rinner =    0.800   0.800   0.800

     PseudoPot. # 3 for C  read from file:
     /storage/coda1/p-amedford6/0/shared/rich_project_chbe-medford/medford-share/data/pseudos_module/espresso/nninc/pbe/van/C.UPF
     MD5 check sum: 1a69bf6b8db32088f5b2163dbdb77a27
     Pseudo is Ultrasoft, Zval =  4.0
     Generated by new atomic code, or converted to UPF format
     Using radial grid of  721 points,  4 beta functions with:
                l(1) =   0
                l(2) =   0
                l(3) =   1
                l(4) =   1
     Q(r) pseudized with  8 coefficients,  rinner =    0.800   0.800   0.800

     PseudoPot. # 4 for H  read from file:
     /storage/coda1/p-amedford6/0/shared/rich_project_chbe-medford/medford-share/data/pseudos_module/espresso/nninc/pbe/van/H.UPF
     MD5 check sum: b5ee9d7bfd3a09ee7748110bda690ff7
     Pseudo is Ultrasoft, Zval =  1.0
     Generated by new atomic code, or converted to UPF format
     Using radial grid of  615 points,  1 beta functions with:
                l(1) =   0
     Q(r) pseudized with  8 coefficients,  rinner =    0.800

     atomic species   valence    mass     pseudopotential
        Ti1           12.00    47.86700     Ti( 1.00)
        O1             6.00    15.99900     O ( 1.00)
        C1             4.00    12.01100     C ( 1.00)
        H1             1.00     1.00800     H ( 1.00)

     No symmetry found

   Cartesian axes

     site n.     atom                  positions (alat units)
         1           Ti1 tau(   1) = (   0.0004258   2.9801865   6.0000000  )
         2           Ti1 tau(   2) = (   3.2906075   1.4906267   6.0002472  )
         3           O1  tau(   3) = (   0.0006271   0.0005054   7.9858123  )
         4           O1  tau(   4) = (   3.2906025   0.0005020   7.3038282  )
         5           O1  tau(   5) = (   4.5942328   1.4918067   9.2879030  )
         6           O1  tau(   6) = (   1.9868534   1.4903216   9.2879459  )
         7           Ti1 tau(   7) = (   3.3179988   2.9667087   9.1587561  )
         8           Ti1 tau(   8) = (   0.0368451   1.4888401   9.2646154  )
         9           O1  tau(   9) = (   3.2981896   5.9413050  11.3756853  )
        10           O1  tau(  10) = (   0.0022081   5.9550161  10.6068466  )
        11           O1  tau(  11) = (   1.2930414   1.4711740  12.6526869  )
        12           O1  tau(  12) = (   5.2963464   1.4745835  12.6500758  )
        13           Ti1 tau(  13) = (   0.0229324   2.9590759  12.5385950  )
        14           Ti1 tau(  14) = (   3.3157970   1.4644123  12.5194148  )
        15           O1  tau(  15) = (   6.5691168   5.9481840  14.6869282  )
        16           O1  tau(  16) = (   3.2964787   5.9455965  14.0277316  )
        17           O1  tau(  17) = (   4.5665908   1.5027878  16.2081754  )
        18           O1  tau(  18) = (   2.0283028   1.5092035  16.1774433  )
        19           Ti1 tau(  19) = (   3.2999954   2.9453206  15.7178785  )
        20           Ti1 tau(  20) = (   6.5724188   1.3235339  15.9896992  )
        21           O1  tau(  21) = (   3.2904802   0.0005063   4.7018136  )
        22           O1  tau(  22) = (   0.0286320   5.9425150  17.2304330  )
        23           O1  tau(  23) = (   1.3043587   1.4918075   6.0039043  )
        24           O1  tau(  24) = (   5.2767064   1.4903225   6.0039473  )
        25           Ti1 tau(  25) = (   0.0000382   5.9609847   6.0000000  )
        26           Ti1 tau(  26) = (   3.2902200   4.4714249   6.0002472  )
        27           O1  tau(  27) = (   0.0002396   2.9813036   7.9858123  )
        28           O1  tau(  28) = (   3.2902150   2.9813002   7.3038282  )
        29           O1  tau(  29) = (   4.5938453   4.4726049   9.2879030  )
        30           O1  tau(  30) = (   1.9864658   4.4711199   9.2879459  )
        31           Ti1 tau(  31) = (   3.3176359   5.9492212   9.1540102  )
        32           Ti1 tau(  32) = (   0.0367062   4.4560090   9.2708352  )
        33           O1  tau(  33) = (   3.2951800   2.9650663  11.3684769  )
        34           O1  tau(  34) = (   0.0080098   2.9764013  10.6279654  )
        35           O1  tau(  35) = (   1.2931912   4.4560454  12.6592269  )
        36           O1  tau(  36) = (   5.2946864   4.4524020  12.6579832  )
        37           Ti1 tau(  37) = (   0.0159028   5.9413441  12.4831893  )
        38           Ti1 tau(  38) = (   3.3151975   4.4500431  12.5204281  )
        39           O1  tau(  39) = (   0.0034497   2.9621527  14.8596962  )
        40           O1  tau(  40) = (   3.2989893   2.9535984  13.9376031  )
        41           O1  tau(  41) = (   4.5724332   4.4114593  16.1445292  )
        42           O1  tau(  42) = (   2.0255208   4.3883007  16.1585022  )
        43           Ti1 tau(  43) = (   3.2821299   5.9114753  15.8432964  )
        44           Ti1 tau(  44) = (   6.5414858   4.5242847  15.8739915  )
        45           O1  tau(  45) = (   3.2900926   2.9813045   4.7018136  )
        46           O1  tau(  46) = (   1.3039711   4.4726057   6.0039043  )
        47           O1  tau(  47) = (   5.2763189   4.4711207   6.0039473  )
        48           C1  tau(  48) = (   5.9754720   3.1749164  18.9278073  )
        49           O1  tau(  49) = (   0.1533887   3.0270296  17.7012840  )
        50           H1  tau(  50) = (   4.9293134   3.0706859  18.6584277  )
        51           H1  tau(  51) = (   1.0910173   3.2466920  17.8500278  )
        52           H1  tau(  52) = (   6.2690755   2.3937635  19.6305738  )
        53           H1  tau(  53) = (   6.1431946   4.1694627  19.3379575  )
        54           O1  tau(  54) = (   3.1723115   5.9428592  18.3689464  )
        55           H1  tau(  55) = (   3.8852673   0.6353712  18.4482360  )
        56           H1  tau(  56) = (   2.3406934   0.4831942  18.3201771  )

     number of k points=    10  Fermi-Dirac smearing, width (Ry)=  0.0073
                       cart. coord. in units 2pi/alat
        k(    1) = (   0.0000000   0.0000000   0.0000000), wk =   0.1250000
        k(    2) = (   0.0000000   0.0419351   0.0000000), wk =   0.2500000
        k(    3) = (   0.0000000  -0.0838702   0.0000000), wk =   0.1250000
        k(    4) = (   0.0379955   0.0000049   0.0000000), wk =   0.2500000
        k(    5) = (   0.0379955   0.0419400   0.0000000), wk =   0.2500000
        k(    6) = (   0.0379955  -0.0838652   0.0000000), wk =   0.2500000
        k(    7) = (   0.0379955  -0.0419301   0.0000000), wk =   0.2500000
        k(    8) = (  -0.0759910  -0.0000099   0.0000000), wk =   0.1250000
        k(    9) = (  -0.0759910   0.0419252   0.0000000), wk =   0.2500000
        k(   10) = (  -0.0759910  -0.0838800   0.0000000), wk =   0.1250000

     Initial potential from superposition of free atoms

     starting charge  383.99915, renormalised to  400.00000

     negative rho (up, down):  1.599E-02 0.000E+00

     %%%%%%%%%%%%%%%%%%%%%%%%%%%%%%%%%%%%%%%%%%%%%%%%%%%%%%%%%%%%%%%%%%%%%%%%
     %                                                                      %
     % You are using vdW-DF, which was implemented by the Thonhauser group. %
     % Please cite the following two papers that made this development      %
     % possible and the two reviews that describe the various versions:     %
     %                                                                      %
     %   T. Thonhauser et al., PRL 115, 136402 (2015).                      %
     %   T. Thonhauser et al., PRB 76, 125112 (2007).                       %
     %   K. Berland et al., Rep. Prog. Phys. 78, 066501 (2015).             %
     %   D.C. Langreth et al., J. Phys.: Condens. Matter 21, 084203 (2009). %
     %                                                                      %
     %                                                                      %
     % If you are calculating the stress with vdW-DF, please also cite:     %
     %                                                                      %
     %   R. Sabatini et al., J. Phys.: Condens. Matter 24, 424209 (2012).   %
     %                                                                      %
     %%%%%%%%%%%%%%%%%%%%%%%%%%%%%%%%%%%%%%%%%%%%%%%%%%%%%%%%%%%%%%%%%%%%%%%%

     Adding external electric field

     Computed dipole along edir(3) :
        Dipole              -11.7393 Ry au,        -29.8382 Debye
        Dipole field         -0.0222 Ry au,

        Potential amp.        2.0536 Ry
        Total length         46.3494 bohr

     Starting wfcs are  302 atomic wfcs
  @ DRIVER MODE: Message from server: STATUS
  @ DRIVER MODE: Message from server: POSDATA
  @ DRIVER MODE: Reading and sharing cell
  @ DRIVER MODE: Reading and sharing positions
  @ DRIVER MODE: Received positions

     Self-consistent Calculation

     iteration #  1     ecut=    29.40 Ry     beta= 0.05
     Davidson diagonalization with overlap
     c_bands:  2 eigenvalues not converged
     c_bands:  2 eigenvalues not converged
     c_bands:  4 eigenvalues not converged
     c_bands:  3 eigenvalues not converged
     c_bands:  4 eigenvalues not converged
     c_bands:  4 eigenvalues not converged
     c_bands:  3 eigenvalues not converged
     c_bands:  2 eigenvalues not converged
     ethr =  1.00E-05,  avg # of iterations = 21.3

[...]

     total energy              =   -2420.22283596 Ry
     estimated scf accuracy    <    6189.10926978 Ry

     iteration #  2     ecut=    29.40 Ry     beta= 0.05
     Davidson diagonalization with overlap
     ethr =  1.00E-02,  avg # of iterations = 28.7

[...]

     iteration # 71     ecut=    29.40 Ry     beta= 0.05
     Davidson diagonalization with overlap
     c_bands:  1 eigenvalues not converged
     ethr =  2.09E-10,  avg # of iterations = 10.7

[...]

     total energy              =   -2967.47601164 Ry
     estimated scf accuracy    <       0.00000008 Ry

     iteration # 78     ecut=    29.40 Ry     beta= 0.05
     Davidson diagonalization with overlap
     ethr =  2.02E-11,  avg # of iterations = 10.7

     negative rho (up, down):  1.588E-02 0.000E+00

     Adding external electric field

     Computed dipole along edir(3) :
        Dipole                1.3728 Ry au,          3.4893 Debye
        Dipole field          0.0026 Ry au,

        Potential amp.       -0.2401 Ry
        Total length         46.3494 bohr

     End of self-consistent calculation

          k = 0.0000 0.0000 0.0000 ( 18029 PWs)   bands (ev):

   -55.2530 -55.2253 -55.2170 -55.1909 -55.1593 -55.1513 -55.1460 -55.0991
   -55.0987 -55.0925 -55.0582 -55.0405 -55.0107 -55.0065 -54.3147 -54.2807
   -31.8197 -31.7690 -31.7204 -31.6304 -31.5679 -31.5579 -31.5531 -31.5506
   -31.5140 -31.4849 -31.4684 -31.4664 -31.4551 -31.4453 -31.4311 -31.4166
   -31.3995 -31.3932 -31.3901 -31.3857 -31.3793 -31.3706 -31.3478 -31.3432
   -31.3412 -31.3215 -31.3187 -31.3168 -31.2962 -31.2825 -31.2670 -31.2463
   -31.2449 -31.2441 -31.2328 -31.2237 -31.2053 -31.1918 -31.1799 -31.1753
   -31.1623 -31.1516 -30.7268 -30.6243 -30.6027 -30.5430 -30.4567 -30.3456
   -20.1688 -19.0882 -16.0823 -15.8352 -15.6954 -15.5970 -15.4760 -15.3425
   -15.2824 -15.1675 -15.0765 -14.9871 -14.9717 -14.9526 -14.9236 -14.9010
   -14.8763 -14.8380 -14.8118 -14.7681 -14.7593 -14.7428 -14.7360 -14.6992
   -14.6967 -14.6512 -14.6428 -14.4859 -14.4156 -14.3555 -14.1331 -12.8152
   -12.6959 -11.1856  -6.9260  -6.8526  -5.1358  -5.0141  -3.4217  -3.2652
    -3.2281  -3.2023  -3.1857  -3.1442  -3.0603  -2.9624  -2.7904  -2.6817
    -2.5437  -2.5372  -2.4904  -2.4639  -2.4069  -2.3244  -2.2367  -2.2099
    -2.1738  -2.1418  -2.1386  -2.1228  -2.1124  -2.0562  -2.0208  -1.9628
    -1.8659  -1.8160  -1.7754  -1.7578  -1.6977  -1.6541  -1.6191  -1.5914
    -1.5849  -1.5784  -1.5198  -1.5178  -1.5097  -1.4985  -1.4811  -1.2921
    -1.2520  -1.1201  -1.0289  -0.9878  -0.9742  -0.8203  -0.8136  -0.7694
    -0.7357  -0.7018  -0.6612  -0.6037  -0.5063  -0.4740  -0.4242  -0.3860
    -0.2779  -0.2458  -0.2144  -0.1603  -0.0527  -0.0443  -0.0186   0.0007
     0.0747   0.1705   0.1996   0.2209   0.2979   0.3031   0.3645   0.4050
     0.4384   0.5135   0.5589   0.5701   0.6617   0.6786   0.6923   0.7188
     0.7223   0.8208   0.8570   0.9015   0.9199   1.0715   1.1660   1.3054
     1.3340   1.6007   1.6960   1.7114   1.8717   2.2973   2.3521   3.8383
     3.9066   3.9450   3.9527   3.9661   4.0457   4.3294   4.3446   4.3565
     4.3661   4.3843

[...]

          k = 0.0380-0.0419 0.0000 ( 17876 PWs)   bands (ev):

[...]

          k =-0.0760-0.0000 0.0000 ( 17886 PWs)   bands (ev):

[...]

          k =-0.0760-0.0839 0.0000 ( 17948 PWs)   bands (ev):

   -55.2359 -55.2339 -55.2101 -55.2060 -55.1563 -55.1455 -55.1386 -55.1065
   -55.1054 -55.0766 -55.0737 -55.0253 -55.0217 -55.0126 -54.2977 -54.2976
   -31.6860 -31.6268 -31.6198 -31.5372 -31.5333 -31.5200 -31.5083 -31.5032
   -31.4955 -31.4752 -31.4569 -31.4514 -31.4474 -31.4336 -31.4080 -31.4055
   -31.3939 -31.3914 -31.3844 -31.3835 -31.3800 -31.3767 -31.3639 -31.3500
   -31.3421 -31.3371 -31.3363 -31.3298 -31.3266 -31.3266 -31.3261 -31.3079
   -31.3005 -31.2981 -31.2796 -31.2749 -31.2743 -31.2504 -31.2465 -31.2115
   -31.2072 -31.1944 -30.6153 -30.6153 -30.5396 -30.5393 -30.4999 -30.4998
   -20.1655 -19.0875 -15.6406 -15.5420 -15.3917 -15.2684 -15.2561 -15.2435
   -15.1914 -15.1273 -15.1130 -15.0635 -15.0501 -15.0198 -15.0035 -14.9978
   -14.9617 -14.8531 -14.8491 -14.8387 -14.8181 -14.7730 -14.7620 -14.7549
   -14.7426 -14.7066 -14.6981 -14.6838 -14.6734 -14.5816 -14.4423 -12.7972
   -12.7965 -11.1875  -6.9219  -6.8531  -5.1369  -4.9928  -3.1797  -2.9833
    -2.8100  -2.7311  -2.6340  -2.4863  -2.4717  -2.3905  -2.3785  -2.3281
    -2.2574  -2.2544  -2.2507  -2.1693  -2.1572  -2.1571  -2.1359  -2.1160
    -2.0758  -2.0673  -2.0432  -2.0334  -1.9923  -1.9614  -1.9483  -1.9311
    -1.9208  -1.9169  -1.8857  -1.8709  -1.8554  -1.8141  -1.7915  -1.7308
    -1.6428  -1.6059  -1.4829  -1.4805  -1.4427  -1.4155  -1.3900  -1.3494
    -1.3296  -1.2819  -1.2618  -1.2359  -1.0526  -1.0366  -0.9821  -0.9418
    -0.9220  -0.9090  -0.8470  -0.7752  -0.7481  -0.7168  -0.6511  -0.5779
    -0.4819  -0.4578  -0.4493  -0.3429  -0.2911  -0.2516  -0.2473  -0.2378
    -0.2140  -0.1654  -0.1457  -0.0838  -0.0447  -0.0011   0.0244   0.0412
     0.2223   0.2608   0.3191   0.4107   0.4395   0.5841   0.6331   0.6847
     0.7452   0.8217   0.8327   0.8987   1.0130   1.0252   1.0551   1.1321
     1.1755   1.1812   1.2062   2.0627   2.0648   2.1663   2.1693   3.9680
     4.0755   4.0941   4.1730   4.2393   4.3474   4.3606   4.3898   4.4002
     4.4454   4.4772

     the Fermi energy is     3.8947 ev

!    total energy              =   -2967.47601967 Ry
     estimated scf accuracy    <       0.00000003 Ry
     smearing contrib. (-TS)   =      -0.03654019 Ry
     internal energy E=F+TS    =   -2967.43947948 Ry

     The total energy is F=E-TS. E is the sum of the following terms:
     one-electron contribution =  -23963.26659885 Ry
     hartree contribution      =   12077.20614752 Ry
     xc contribution           =    -491.86070393 Ry
     ewald contribution        =    9410.47811936 Ry
     electric field correction =       0.00355642 Ry

     convergence has been achieved in  78 iterations

     Forces acting on atoms (cartesian axes, Ry/au):

     atom    1 type  1   force =    -0.00026264    0.00020018    0.09243644
     atom    2 type  1   force =    -0.00035842    0.00104830   -0.18341389
     atom    3 type  2   force =     0.00050570   -0.00072585   -0.02348352
     atom    4 type  2   force =     0.00072332   -0.00018448    0.05071040
     atom    5 type  2   force =    -0.01404872   -0.00131752    0.00494824
     atom    6 type  2   force =     0.01521560   -0.00065363    0.00509112
     atom    7 type  1   force =    -0.00048241    0.00106467   -0.00012764
     atom    8 type  1   force =     0.00015632   -0.00052686    0.00039474
     atom    9 type  2   force =    -0.00043957    0.00017713    0.00040369
     atom   10 type  2   force =     0.00040918    0.00016738    0.00046588
     atom   11 type  2   force =     0.00036161    0.00044089    0.00034096
     atom   12 type  2   force =     0.00005255    0.00014044    0.00027071
     atom   13 type  1   force =    -0.00087560   -0.00118489   -0.00009120
     atom   14 type  1   force =     0.00058976   -0.00005201    0.00020474
     atom   15 type  2   force =     0.00050782    0.00077068    0.00005149
     atom   16 type  2   force =    -0.00061011   -0.00035879    0.00005225
     atom   17 type  2   force =     0.00001239    0.00013065   -0.00020196
     atom   18 type  2   force =    -0.00010662    0.00029671   -0.00015572
     atom   19 type  1   force =     0.00054520    0.00007436   -0.00032397
     atom   20 type  1   force =     0.00007715    0.00017740   -0.00009275
     atom   21 type  2   force =    -0.00004169    0.00015836    0.10498125
     atom   22 type  2   force =    -0.00038174    0.00060967   -0.00093995
     atom   23 type  2   force =    -0.06801590    0.00013941   -0.02681601
     atom   24 type  2   force =     0.06773095    0.00053149   -0.02687758
     atom   25 type  1   force =    -0.00038590   -0.00008723    0.09621794
     atom   26 type  1   force =    -0.00035717   -0.00099526   -0.18321857
     atom   27 type  2   force =     0.00041677   -0.00124796   -0.02225574
     atom   28 type  2   force =     0.00070307   -0.00033351    0.05102913
     atom   29 type  2   force =    -0.01423793   -0.00105796    0.00466348
     atom   30 type  2   force =     0.01518623    0.00021665    0.00484675
     atom   31 type  1   force =    -0.00049803   -0.00146182    0.00017075
     atom   32 type  1   force =     0.00012678    0.00070835   -0.00027371
     atom   33 type  2   force =     0.00001975   -0.00020546    0.00007222
     atom   34 type  2   force =     0.00002348   -0.00007053   -0.00009200
     atom   35 type  2   force =     0.00021548    0.00008494    0.00030997
     atom   36 type  2   force =     0.00039359    0.00045265    0.00005488
     atom   37 type  1   force =    -0.00106061    0.00124785   -0.00004548
     atom   38 type  1   force =     0.00037552    0.00011017   -0.00044129
     atom   39 type  2   force =     0.00037399    0.00021412   -0.00034914
     atom   40 type  2   force =    -0.00007585    0.00019208    0.00007200
     atom   41 type  2   force =    -0.00021004    0.00021462   -0.00050092
     atom   42 type  2   force =     0.00012869   -0.00006243    0.00012372
     atom   43 type  1   force =    -0.00080095   -0.00008419    0.00001945
     atom   44 type  1   force =    -0.00000556    0.00001234   -0.00080423
     atom   45 type  2   force =    -0.00005623    0.00015345    0.10491907
     atom   46 type  2   force =    -0.06805808   -0.00038695   -0.02679540
     atom   47 type  2   force =     0.06778040    0.00004872   -0.02688233
     atom   48 type  3   force =    -0.00006822    0.00052314   -0.00016031
     atom   49 type  2   force =    -0.00108475    0.00032090    0.00078676
     atom   50 type  4   force =     0.00049272    0.00056847    0.00010277
     atom   51 type  4   force =     0.00071404    0.00085526   -0.00001663
     atom   52 type  4   force =    -0.00044278    0.00061242   -0.00024151
     atom   53 type  4   force =    -0.00018858   -0.00024895    0.00010987
     atom   54 type  2   force =    -0.00034345   -0.00123871    0.00072936
     atom   55 type  4   force =     0.00056684    0.00086802   -0.00009419
     atom   56 type  4   force =    -0.00090732   -0.00104690    0.00011562

     Total force =     0.368213     Total SCF correction =     0.000496
  @ DRIVER MODE: Message from server: STATUS
  @ DRIVER MODE: Message from server: GETFORCE
  @ DRIVER MODE: Returning v,forces,stress,ensemble

     Writing output data file ./calc.save/
  @ DRIVER MODE: Message from server: EXIT
  @ DRIVE MODE: Exiting

     General routines

     Parallel routines

   This run was terminated on:   7: 3:45  16Sep2021

   JOB DONE.