     Program PWSCF v.6.7GPU starts on 15Sep2021 at 19: 5: 7

     R & G space division:  proc/nbgrp/npool/nimage =      10
     Reading input from /storage/home/hcoda1/3/ntian30/research/carbon/CxH_vib/H2O_calc/ads_slab/CH3NH2O_a/out_0012/pw.inp
Warning: card &CELL ignored
Warning: card   CELL_DYNAMICS='IPI', ignored
Warning: card / ignored

     Current dimensions of program PWSCF are:
     Max number of different atomic species (ntypx) = 10
     Max number of k-points (npk) =  40000
     Max angular momentum in pseudopotentials (lmaxx) =  3
     Presently no symmetry can be used with electric field

     Message from routine cell_base_init:
     DEPRECATED: use true lattice parameter, not A to a.u. conversion factor

     IMPORTANT: XC functional enforced from input :
     Exchange-correlation= BEEF-VDW
                           (   1   4  43  14   2   0   0)
     Any further DFT definition will be discarded
     Please, verify this is what you really want

  @ DRIVER MODE: Connecting to
 qe_1139763_2852618.sched-torque.pace.gatech.edu_ip5aic9_scratch
  using UNIX socket
  @ DRIVER MODE: Message from server: STATUS
  @ DRIVER MODE: Message from server: INIT
  @ DRIVER MODE: Receiving replica           0          -1
  @ DRIVER MODE: Receiving encoded integer          25
  @ DRIVER MODE:  SCF:  T  FORCE:  T  STRESS:  F  VC:  F  ENSEMBLE:  F
  @ DRIVER MODE:  SCF:  T  FORCE:  T  STRESS:  F  VC:  F  ENSEMBLE:  F

     Using Slab Decomposition

     bravais-lattice index     =            0
     lattice parameter (alat)  =       1.8897  a.u.
     unit-cell volume          =    6658.9804 (a.u.)^3
     number of atoms/cell      =           55
     number of atomic types    =            5
     number of electrons       =       398.00
     number of Kohn-Sham states=          209
     kinetic-energy cutoff     =      29.3995  Ry
     charge density cutoff     =     293.9946  Ry
     scf convergence threshold =      7.3E-08
     mixing beta               =       0.0500
     number of iterations used =            8  plain     mixing
     Exchange-correlation= BEEF-VDW
                           (   1   4  43  14   2   0   0)

     celldm(1)=   1.889726  celldm(2)=   0.000000  celldm(3)=   0.000000
     celldm(4)=   0.000000  celldm(5)=   0.000000  celldm(6)=   0.000000

     crystal axes: (cart. coord. in units of alat)
               a(1) = (   6.579727   0.000000   0.000000 )
               a(2) = (  -0.000775   5.961596   0.000000 )
               a(3) = (   0.000000   0.000000  25.155947 )

     reciprocal axes: (cart. coord. in units 2 pi/alat)
               b(1) = (  0.151982  0.000020  0.000000 )
               b(2) = (  0.000000  0.167740  0.000000 )
               b(3) = (  0.000000  0.000000  0.039752 )

     PseudoPot. # 1 for Ti read from file:
     /storage/coda1/p-amedford6/0/shared/rich_project_chbe-medford/medford-share/data/pseudos_module/espresso/nninc/pbe/van/Ti.UPF
     MD5 check sum: 8e4df49b7f0d34bbd5052bf3f5ea0213
     Pseudo is Ultrasoft, Zval = 12.0
     Generated by new atomic code, or converted to UPF format
     Using radial grid of  851 points,  6 beta functions with:
                l(1) =   0
                l(2) =   0
                l(3) =   1
                l(4) =   1
                l(5) =   2
                l(6) =   2
     Q(r) pseudized with  8 coefficients,  rinner =    1.000   1.000   1.000
                                                       1.000   1.000

     PseudoPot. # 2 for O  read from file:
     /storage/coda1/p-amedford6/0/shared/rich_project_chbe-medford/medford-share/data/pseudos_module/espresso/nninc/pbe/van/O.UPF
     MD5 check sum: 78c19812648e8988a0fe644b0f25305e
     Pseudo is Ultrasoft, Zval =  6.0
     Generated by new atomic code, or converted to UPF format
     Using radial grid of  737 points,  4 beta functions with:
                l(1) =   0
                l(2) =   0
                l(3) =   1
                l(4) =   1
     Q(r) pseudized with  8 coefficients,  rinner =    0.800   0.800   0.800

     PseudoPot. # 3 for N  read from file:
     /storage/coda1/p-amedford6/0/shared/rich_project_chbe-medford/medford-share/data/pseudos_module/espresso/nninc/pbe/van/N.UPF
     MD5 check sum: 90d10febe142ad51ac9d5be1deb811c4
     Pseudo is Ultrasoft, Zval =  5.0
     Generated by new atomic code, or converted to UPF format
     Using radial grid of  729 points,  4 beta functions with:
                l(1) =   0
                l(2) =   0
                l(3) =   1
                l(4) =   1
     Q(r) pseudized with  8 coefficients,  rinner =    0.800   0.800   0.800

     PseudoPot. # 4 for C  read from file:
     /storage/coda1/p-amedford6/0/shared/rich_project_chbe-medford/medford-share/data/pseudos_module/espresso/nninc/pbe/van/C.UPF
     MD5 check sum: 1a69bf6b8db32088f5b2163dbdb77a27
     Pseudo is Ultrasoft, Zval =  4.0
     Generated by new atomic code, or converted to UPF format
     Using radial grid of  721 points,  4 beta functions with:
                l(1) =   0
                l(2) =   0
                l(3) =   1
                l(4) =   1
     Q(r) pseudized with  8 coefficients,  rinner =    0.800   0.800   0.800

     PseudoPot. # 5 for H  read from file:
     /storage/coda1/p-amedford6/0/shared/rich_project_chbe-medford/medford-share/data/pseudos_module/espresso/nninc/pbe/van/H.UPF
     MD5 check sum: b5ee9d7bfd3a09ee7748110bda690ff7
     Pseudo is Ultrasoft, Zval =  1.0
     Generated by new atomic code, or converted to UPF format
     Using radial grid of  615 points,  1 beta functions with:
                l(1) =   0
     Q(r) pseudized with  8 coefficients,  rinner =    0.800

     atomic species   valence    mass     pseudopotential
        Ti1           12.00    47.86700     Ti( 1.00)
        O1             6.00    15.99900     O ( 1.00)
        N1             5.00    14.00700     N ( 1.00)
        C1             4.00    12.01100     C ( 1.00)
        H1             1.00     1.00800     H ( 1.00)

     No symmetry found

   Cartesian axes

     site n.     atom                  positions (alat units)
         1           Ti1 tau(   1) = (   0.0004258   2.9801865   6.0000000  )
         2           Ti1 tau(   2) = (   3.2906075   1.4906267   6.0002472  )
         3           O1  tau(   3) = (   0.0006271   0.0005054   7.9858123  )
         4           O1  tau(   4) = (   3.2906025   0.0005020   7.3038282  )
         5           O1  tau(   5) = (   4.5942328   1.4918067   9.2879030  )
         6           O1  tau(   6) = (   1.9868534   1.4903216   9.2879459  )
         7           Ti1 tau(   7) = (   3.2907910   2.8959150   9.1758416  )
         8           Ti1 tau(   8) = (   0.0015273   1.4827037   9.2680791  )
         9           O1  tau(   9) = (   3.2951577   0.0167633  11.2896499  )
        10           O1  tau(  10) = (   0.0116148   5.9584955  10.6183126  )
        11           O1  tau(  11) = (   1.3222759   1.5071707  12.6129440  )
        12           O1  tau(  12) = (   5.3060066   1.5095485  12.6267335  )
        13           Ti1 tau(  13) = (   6.4824898   3.0013615  12.7357613  )
        14           Ti1 tau(  14) = (   3.1735365   1.4973312  12.4739500  )
        15           O1  tau(  15) = (   0.0245190   0.0017265  14.5963640  )
        16           O1  tau(  16) = (   3.2983568   0.0259644  13.8884976  )
        17           O1  tau(  17) = (   4.5535709   1.5599051  15.9919625  )
        18           O1  tau(  18) = (   2.0723989   1.5598234  15.9883263  )
        19           Ti1 tau(  19) = (   3.3263631   3.0313633  15.6478355  )
        20           Ti1 tau(  20) = (   0.0083359   1.6222165  16.0589653  )
        21           O1  tau(  21) = (   3.2904802   0.0005063   4.7018136  )
        22           O1  tau(  22) = (   0.0206953   0.0548308  17.2083480  )
        23           O1  tau(  23) = (   1.3043587   1.4918075   6.0039043  )
        24           O1  tau(  24) = (   5.2767064   1.4903225   6.0039473  )
        25           Ti1 tau(  25) = (   0.0000382   5.9609847   6.0000000  )
        26           Ti1 tau(  26) = (   3.2902200   4.4714249   6.0002472  )
        27           O1  tau(  27) = (   0.0002396   2.9813036   7.9858123  )
        28           O1  tau(  28) = (   3.2902150   2.9813002   7.3038282  )
        29           O1  tau(  29) = (   4.5938453   4.4726049   9.2879030  )
        30           O1  tau(  30) = (   1.9864658   4.4711199   9.2879459  )
        31           Ti1 tau(  31) = (   3.2891106   5.8743827   9.1763621  )
        32           Ti1 tau(  32) = (   0.0006254   4.4649316   9.2693709  )
        33           O1  tau(  33) = (   3.2909539   2.9954008  11.2901670  )
        34           O1  tau(  34) = (   0.0092240   2.9805883  10.6323155  )
        35           O1  tau(  35) = (   1.3211080   4.4795309  12.6092917  )
        36           O1  tau(  36) = (   5.3058445   4.4798052  12.6251394  )
        37           Ti1 tau(  37) = (   6.5140999   0.0198189  12.7603067  )
        38           Ti1 tau(  38) = (   3.1705570   4.4938763  12.4677136  )
        39           O1  tau(  39) = (   0.0016069   2.9863809  14.6467327  )
        40           O1  tau(  40) = (   3.3112668   3.0122049  13.8485686  )
        41           O1  tau(  41) = (   4.5534170   4.5051619  16.0179686  )
        42           O1  tau(  42) = (   2.0797414   4.5084034  16.0201905  )
        43           Ti1 tau(  43) = (   3.2815144   0.0627375  15.7417980  )
        44           Ti1 tau(  44) = (   0.0076503   4.5954094  16.1032789  )
        45           O1  tau(  45) = (   3.2900926   2.9813045   4.7018136  )
        46           O1  tau(  46) = (   1.3039711   4.4726057   6.0039043  )
        47           O1  tau(  47) = (   5.2763189   4.4711207   6.0039473  )
        48           N1  tau(  48) = (   0.0651939   3.0276870  17.3150544  )
        49           C1  tau(  49) = (   0.3375872   3.0185870  18.7384822  )
        50           H1  tau(  50) = (   0.4544735   4.0311245  19.1352477  )
        51           H1  tau(  51) = (   6.1015407   2.5302758  19.2785169  )
        52           H1  tau(  52) = (   1.2508204   2.4494767  18.9518403  )
        53           O1  tau(  53) = (   3.3357083   0.1159715  18.1615364  )
        54           H1  tau(  54) = (   4.1514219   5.6051498  18.3929375  )
        55           H1  tau(  55) = (   2.5926282   5.5337384  18.4710493  )

     number of k points=    10  Fermi-Dirac smearing, width (Ry)=  0.0073
                       cart. coord. in units 2pi/alat
        k(    1) = (   0.0000000   0.0000000   0.0000000), wk =   0.1250000
        k(    2) = (   0.0000000   0.0419351   0.0000000), wk =   0.2500000
        k(    3) = (   0.0000000  -0.0838702   0.0000000), wk =   0.1250000
        k(    4) = (   0.0379955   0.0000049   0.0000000), wk =   0.2500000
        k(    5) = (   0.0379955   0.0419400   0.0000000), wk =   0.2500000
        k(    6) = (   0.0379955  -0.0838652   0.0000000), wk =   0.2500000
        k(    7) = (   0.0379955  -0.0419301   0.0000000), wk =   0.2500000
        k(    8) = (  -0.0759910  -0.0000099   0.0000000), wk =   0.1250000
        k(    9) = (  -0.0759910   0.0419252   0.0000000), wk =   0.2500000
        k(   10) = (  -0.0759910  -0.0838800   0.0000000), wk =   0.1250000

     Initial potential from superposition of free atoms

     starting charge  381.99915, renormalised to  398.00000

     negative rho (up, down):  1.656E-02 0.000E+00

     %%%%%%%%%%%%%%%%%%%%%%%%%%%%%%%%%%%%%%%%%%%%%%%%%%%%%%%%%%%%%%%%%%%%%%%%
     %                                                                      %
     % You are using vdW-DF, which was implemented by the Thonhauser group. %
     % Please cite the following two papers that made this development      %
     % possible and the two reviews that describe the various versions:     %
     %                                                                      %
     %   T. Thonhauser et al., PRL 115, 136402 (2015).                      %
     %   T. Thonhauser et al., PRB 76, 125112 (2007).                       %
     %   K. Berland et al., Rep. Prog. Phys. 78, 066501 (2015).             %
     %   D.C. Langreth et al., J. Phys.: Condens. Matter 21, 084203 (2009). %
     %                                                                      %
     %                                                                      %
     % If you are calculating the stress with vdW-DF, please also cite:     %
     %                                                                      %
     %   R. Sabatini et al., J. Phys.: Condens. Matter 24, 424209 (2012).   %
     %                                                                      %
     %%%%%%%%%%%%%%%%%%%%%%%%%%%%%%%%%%%%%%%%%%%%%%%%%%%%%%%%%%%%%%%%%%%%%%%%

     Adding external electric field

     Computed dipole along edir(3) :
        Dipole               -9.1111 Ry au,        -23.1580 Debye
        Dipole field         -0.0172 Ry au,

        Potential amp.        1.5938 Ry
        Total length         46.3494 bohr

     Starting wfcs are  301 atomic wfcs
  @ DRIVER MODE: Message from server: STATUS
  @ DRIVER MODE: Message from server: POSDATA
  @ DRIVER MODE: Reading and sharing cell
  @ DRIVER MODE: Reading and sharing positions
  @ DRIVER MODE: Received positions

     Self-consistent Calculation

     iteration #  1     ecut=    29.40 Ry     beta= 0.05
     Davidson diagonalization with overlap
     c_bands:  1 eigenvalues not converged
     c_bands:  1 eigenvalues not converged
     c_bands:  1 eigenvalues not converged
     c_bands:  1 eigenvalues not converged
     c_bands:  1 eigenvalues not converged
     c_bands:  1 eigenvalues not converged
     c_bands:  1 eigenvalues not converged
     c_bands:  2 eigenvalues not converged
     ethr =  1.00E-05,  avg # of iterations = 19.6

[...]

     total energy              =   -2564.49305221 Ry
     estimated scf accuracy    <    4317.54592488 Ry

     iteration #  2     ecut=    29.40 Ry     beta= 0.05
     Davidson diagonalization with overlap
     ethr =  1.00E-02,  avg # of iterations = 23.6

[...]

     iteration # 40     ecut=    29.40 Ry     beta= 0.05
     Davidson diagonalization with overlap
     c_bands:  1 eigenvalues not converged
     c_bands:  1 eigenvalues not converged
     ethr =  2.96E-06,  avg # of iterations = 16.7

[...]

     total energy              =   -2953.97094766 Ry
     estimated scf accuracy    <       0.00000009 Ry

     iteration # 68     ecut=    29.40 Ry     beta= 0.05
     Davidson diagonalization with overlap
     ethr =  2.16E-11,  avg # of iterations =  6.0

     negative rho (up, down):  1.668E-02 0.000E+00

     Adding external electric field

     Computed dipole along edir(3) :
        Dipole                0.5365 Ry au,          1.3637 Debye
        Dipole field          0.0010 Ry au,

        Potential amp.       -0.0939 Ry
        Total length         46.3494 bohr

     End of self-consistent calculation

          k = 0.0000 0.0000 0.0000 ( 18029 PWs)   bands (ev):

   -56.5918 -56.5582 -55.7086 -55.6747 -55.6643 -55.6296 -55.4867 -55.4505
   -55.3558 -55.2397 -55.2240 -55.2223 -55.2058 -55.1268 -54.7184 -54.6686
   -33.0184 -32.8662 -32.8380 -32.7682 -32.6773 -32.6446 -32.1765 -32.1469
   -32.0223 -31.9735 -31.9257 -31.9064 -31.8774 -31.8670 -31.8395 -31.8334
   -31.8142 -31.8095 -31.7850 -31.7711 -31.7626 -31.7061 -31.7018 -31.6643
   -31.6507 -31.6306 -31.6209 -31.6129 -31.5893 -31.5807 -31.5794 -31.5552
   -31.4603 -31.4497 -31.4135 -31.4006 -31.3736 -31.3666 -31.3510 -31.3319
   -31.3041 -31.2556 -31.2333 -30.9618 -30.9408 -30.9106 -30.8871 -30.7775
   -18.7887 -16.7468 -16.2823 -16.0406 -15.9477 -15.8646 -15.8257 -15.7820
   -15.6322 -15.5613 -15.5407 -15.5395 -15.4700 -15.3256 -15.2726 -15.1748
   -15.0875 -14.9460 -14.9346 -14.8958 -14.8803 -14.8443 -14.8402 -14.7895
   -14.6213 -14.5856 -14.5408 -14.4805 -14.3895 -14.1680 -13.7380 -13.6283
   -12.9055  -7.7976  -6.5831  -4.3141  -3.7808  -3.5151  -3.4833  -3.3556
    -3.3498  -3.3046  -3.1796  -3.1618  -3.0871  -3.0601  -3.0257  -2.9462
    -2.9193  -2.8662  -2.7751  -2.7622  -2.7421  -2.7155  -2.7070  -2.5949
    -2.5513  -2.5003  -2.3976  -2.2876  -2.2445  -2.2176  -2.1722  -2.1382
    -2.0877  -2.0758  -2.0639  -2.0525  -1.9471  -1.8276  -1.8014  -1.7772
    -1.7327  -1.7161  -1.7093  -1.6845  -1.5959  -1.4918  -1.3961  -1.3317
    -1.3240  -1.2497  -1.2410  -1.1799  -1.0720  -1.0089  -1.0036  -0.9852
    -0.8815  -0.8535  -0.7833  -0.7204  -0.6623  -0.6091  -0.5473  -0.4942
    -0.4727  -0.4626  -0.3639  -0.2946  -0.2695  -0.2153  -0.2068  -0.2023
    -0.1750  -0.0789  -0.0436   0.0314   0.0683   0.1166   0.1517   0.2305
     0.2907   0.3558   0.4028   0.4255   0.4913   0.5462   0.6004   0.6937
     0.7498   0.7556   0.7820   0.8417   0.8551   0.9303   1.0118   1.0305
     1.0984   1.1696   1.3318   1.3708   1.6124   1.6920   2.3136   2.6857
     2.8469   3.1421   3.3324   3.4707   3.6651   3.6753   3.6825   3.9059
     3.9333

[...]

          k = 0.0380-0.0419 0.0000 ( 17876 PWs)   bands (ev):

[...]

          k =-0.0760-0.0000 0.0000 ( 17886 PWs)   bands (ev):

[...]

          k =-0.0760-0.0839 0.0000 ( 17948 PWs)   bands (ev):

   -56.5751 -56.5747 -55.6936 -55.6893 -55.6515 -55.6425 -55.4727 -55.4644
   -55.3534 -55.2262 -55.2227 -55.2226 -55.2190 -55.1300 -54.7113 -54.6755
   -32.8521 -32.8517 -32.8354 -32.8352 -32.7214 -32.7210 -32.0001 -31.9943
   -31.9827 -31.9757 -31.8993 -31.8847 -31.8838 -31.8795 -31.8727 -31.8712
   -31.8637 -31.8557 -31.8282 -31.8111 -31.7177 -31.7113 -31.6797 -31.6719
   -31.6481 -31.6129 -31.5806 -31.5683 -31.5682 -31.5641 -31.5431 -31.5249
   -31.4742 -31.4475 -31.4473 -31.4413 -31.4252 -31.4084 -31.4083 -31.3954
   -31.3689 -31.3334 -31.0943 -31.0315 -30.9384 -30.9121 -30.8966 -30.8490
   -18.7879 -16.0975 -16.0955 -16.0601 -16.0595 -15.7928 -15.7894 -15.6988
   -15.6933 -15.5612 -15.4408 -15.3372 -15.3246 -15.2904 -15.2636 -15.1531
   -15.1321 -15.1202 -15.1099 -15.0018 -14.9827 -14.9346 -14.9208 -14.9047
   -14.8977 -14.6031 -14.5867 -14.4869 -14.4609 -14.3206 -13.7319 -13.7319
   -12.9236  -7.7913  -6.5762  -3.1948  -3.1873  -3.1538  -3.1326  -3.1319
    -3.0932  -2.9732  -2.9346  -2.9258  -2.9251  -2.8480  -2.7784  -2.7705
    -2.6918  -2.6638  -2.6462  -2.5892  -2.5578  -2.5107  -2.4845  -2.4758
    -2.4540  -2.4349  -2.4342  -2.3376  -2.2725  -2.2267  -2.2213  -2.1616
    -2.1326  -2.0725  -2.0485  -2.0373  -2.0082  -1.9658  -1.9544  -1.9151
    -1.8717  -1.8331  -1.7745  -1.6096  -1.6002  -1.5903  -1.5700  -1.4492
    -1.4412  -1.4066  -1.3760  -1.3705  -1.2984  -1.2505  -1.2121  -1.1611
    -1.0727  -1.0514  -0.9465  -0.8941  -0.8517  -0.7960  -0.6903  -0.6698
    -0.6623  -0.6515  -0.6198  -0.5504  -0.5164  -0.5127  -0.3890  -0.3650
    -0.3265  -0.2973  -0.2397  -0.2097  -0.1531  -0.1197  -0.0497  -0.0364
     0.0033   0.0791   0.1564   0.1893   0.2405   0.2469   0.5218   0.5954
     0.7250   0.7888   0.8512   0.9190   0.9836   1.0126   1.0424   1.1663
     1.1706   1.1796   1.1801   1.2516   1.2569   1.5939   2.1911   3.2619
     3.2621   3.3284   3.3290   3.6500   3.6562   3.7634   3.7736   3.9349
     3.9494

     the Fermi energy is     2.5120 ev

!    total energy              =   -2953.97096711 Ry
     estimated scf accuracy    <       0.00000001 Ry
     smearing contrib. (-TS)   =      -0.00440594 Ry
     internal energy E=F+TS    =   -2953.96656118 Ry

     The total energy is F=E-TS. E is the sum of the following terms:
     one-electron contribution =  -24342.01009973 Ry
     hartree contribution      =   12262.95429855 Ry
     xc contribution           =    -488.77043803 Ry
     ewald contribution        =    9613.85913479 Ry
     electric field correction =       0.00054323 Ry

     convergence has been achieved in  68 iterations

     Forces acting on atoms (cartesian axes, Ry/au):

     atom    1 type  1   force =    -0.00002691   -0.00048599    0.12445270
     atom    2 type  1   force =    -0.00003604   -0.00049196   -0.15977398
     atom    3 type  2   force =     0.00020015   -0.00023629   -0.06789169
     atom    4 type  2   force =     0.00000210   -0.00008868    0.02609452
     atom    5 type  2   force =    -0.01437359    0.00191553   -0.00991541
     atom    6 type  2   force =     0.01615662    0.00232710   -0.01029221
     atom    7 type  1   force =     0.00071969   -0.00389817    0.02855185
     atom    8 type  1   force =    -0.00033693   -0.00435481    0.10943416
     atom    9 type  2   force =     0.00002447    0.00001524    0.00003332
     atom   10 type  2   force =    -0.00225601    0.00266859   -0.07367793
     atom   11 type  2   force =     0.00082103   -0.00002843   -0.00025240
     atom   12 type  2   force =    -0.00043876    0.00005245   -0.00021305
     atom   13 type  1   force =    -0.00000695    0.00013424   -0.00000034
     atom   14 type  1   force =    -0.00034954    0.00048665   -0.00035946
     atom   15 type  2   force =     0.00002261   -0.00064752   -0.00038289
     atom   16 type  2   force =    -0.00018690   -0.00000401    0.00038811
     atom   17 type  2   force =    -0.00076099   -0.00036593   -0.00033724
     atom   18 type  2   force =     0.00042131   -0.00024157    0.00007790
     atom   19 type  1   force =     0.00043874   -0.00003046   -0.00028574
     atom   20 type  1   force =    -0.00015332   -0.00017543   -0.00013133
     atom   21 type  2   force =     0.00006553   -0.00003800    0.09950923
     atom   22 type  2   force =     0.00006696   -0.00051355    0.00042749
     atom   23 type  2   force =    -0.07971180   -0.00006310   -0.03247481
     atom   24 type  2   force =     0.07958344    0.00037699   -0.03253257
     atom   25 type  1   force =    -0.00000278   -0.00058221    0.12407785
     atom   26 type  1   force =    -0.00011037   -0.00062632   -0.15990005
     atom   27 type  2   force =     0.00033275   -0.00035913   -0.06696228
     atom   28 type  2   force =    -0.00002446    0.00017983    0.02511675
     atom   29 type  2   force =    -0.01496358    0.00189886   -0.00989127
     atom   30 type  2   force =     0.01665074    0.00242672   -0.01022461
     atom   31 type  1   force =     0.00078371   -0.00077562    0.02383021
     atom   32 type  1   force =    -0.00022894    0.00200683    0.11006956
     atom   33 type  2   force =     0.00004666   -0.00027021    0.00029470
     atom   34 type  2   force =    -0.00212080    0.00207033   -0.07179800
     atom   35 type  2   force =     0.00024574   -0.00012382   -0.00010431
     atom   36 type  2   force =    -0.00016902   -0.00024990   -0.00017406
     atom   37 type  1   force =     0.00043825   -0.00002634    0.00049692
     atom   38 type  1   force =     0.00000817   -0.00057429   -0.00013540
     atom   39 type  2   force =     0.00007838    0.00021198    0.00053893
     atom   40 type  2   force =    -0.00008947   -0.00023705    0.00022597
     atom   41 type  2   force =     0.00062250   -0.00029675    0.00011254
     atom   42 type  2   force =    -0.00087385   -0.00035140    0.00059134
     atom   43 type  1   force =     0.00001671   -0.00032995   -0.00008597
     atom   44 type  1   force =    -0.00023648   -0.00042215   -0.00045484
     atom   45 type  2   force =     0.00005570   -0.00004620    0.09947082
     atom   46 type  2   force =    -0.07972165    0.00000312   -0.03249584
     atom   47 type  2   force =     0.07960047    0.00043066   -0.03252253
     atom   48 type  3   force =     0.00048194   -0.00015531    0.00670888
     atom   49 type  4   force =     0.00032551   -0.00024113   -0.01537998
     atom   50 type  5   force =    -0.00024639    0.00268931    0.00262985
     atom   51 type  5   force =    -0.00326661   -0.00240101    0.00388784
     atom   52 type  5   force =     0.00163772   -0.00047226    0.00187451
     atom   53 type  2   force =    -0.00064897   -0.00009415   -0.00052401
     atom   54 type  5   force =     0.00081745    0.00036744    0.00060458
     atom   55 type  5   force =     0.00067604    0.00003723   -0.00032635

     Total force =     0.423847     Total SCF correction =     0.000325
  @ DRIVER MODE: Message from server: STATUS
  @ DRIVER MODE: Message from server: GETFORCE
  @ DRIVER MODE: Returning v,forces,stress,ensemble

     Writing output data file ./calc.save/
  @ DRIVER MODE: Message from server: EXIT
  @ DRIVE MODE: Exiting

     General routines

     Parallel routines

   This run was terminated on:  19:23: 5  15Sep2021

   JOB DONE.