     Program PWSCF v.6.7GPU starts on 28Sep2021 at  2: 9:34

     R & G space division:  proc/nbgrp/npool/nimage =       8
     Reading input from /storage/home/hcoda1/3/ntian30/research/carbon/CxH_vib/H2O_calc/ads_slab/CH3OHN2H2O_a/out_0020/pw.inp
Warning: card &CELL ignored
Warning: card   CELL_DYNAMICS='IPI', ignored
Warning: card / ignored

     Current dimensions of program PWSCF are:
     Max number of different atomic species (ntypx) = 10
     Max number of k-points (npk) =  40000
     Max angular momentum in pseudopotentials (lmaxx) =  3
     Presently no symmetry can be used with electric field

     Message from routine cell_base_init:
     DEPRECATED: use true lattice parameter, not A to a.u. conversion factor

     IMPORTANT: XC functional enforced from input :
     Exchange-correlation= BEEF-VDW
                           (   1   4  43  14   2   0   0)
     Any further DFT definition will be discarded
     Please, verify this is what you really want

  @ DRIVER MODE: Connecting to
 qe_1139763_3000313.sched-torque.pace.gatech.eduh3bnqf0i_scratch
  using UNIX socket
  @ DRIVER MODE: Message from server: STATUS
  @ DRIVER MODE: Message from server: INIT
  @ DRIVER MODE: Receiving replica           0          -1
  @ DRIVER MODE: Receiving encoded integer          25
  @ DRIVER MODE:  SCF:  T  FORCE:  T  STRESS:  F  VC:  F  ENSEMBLE:  F
  @ DRIVER MODE:  SCF:  T  FORCE:  T  STRESS:  F  VC:  F  ENSEMBLE:  F

     Using Slab Decomposition

     bravais-lattice index     =            0
     lattice parameter (alat)  =       1.8897  a.u.
     unit-cell volume          =    6658.9804 (a.u.)^3
     number of atoms/cell      =           58
     number of atomic types    =            5
     number of electrons       =       410.00
     number of Kohn-Sham states=          215
     kinetic-energy cutoff     =      29.3995  Ry
     charge density cutoff     =     293.9946  Ry
     scf convergence threshold =      7.3E-08
     mixing beta               =       0.0500
     number of iterations used =            8  plain     mixing
     Exchange-correlation= BEEF-VDW
                           (   1   4  43  14   2   0   0)

     celldm(1)=   1.889726  celldm(2)=   0.000000  celldm(3)=   0.000000
     celldm(4)=   0.000000  celldm(5)=   0.000000  celldm(6)=   0.000000

     crystal axes: (cart. coord. in units of alat)
               a(1) = (   6.579727   0.000000   0.000000 )
               a(2) = (  -0.000775   5.961596   0.000000 )
               a(3) = (   0.000000   0.000000  25.155947 )

     reciprocal axes: (cart. coord. in units 2 pi/alat)
               b(1) = (  0.151982  0.000020  0.000000 )
               b(2) = (  0.000000  0.167740  0.000000 )
               b(3) = (  0.000000  0.000000  0.039752 )

     PseudoPot. # 1 for Ti read from file:
     /storage/coda1/p-amedford6/0/shared/rich_project_chbe-medford/medford-share/data/pseudos_module/espresso/nninc/pbe/van/Ti.UPF
     MD5 check sum: 8e4df49b7f0d34bbd5052bf3f5ea0213
     Pseudo is Ultrasoft, Zval = 12.0
     Generated by new atomic code, or converted to UPF format
     Using radial grid of  851 points,  6 beta functions with:
                l(1) =   0
                l(2) =   0
                l(3) =   1
                l(4) =   1
                l(5) =   2
                l(6) =   2
     Q(r) pseudized with  8 coefficients,  rinner =    1.000   1.000   1.000
                                                       1.000   1.000

     PseudoPot. # 2 for O  read from file:
     /storage/coda1/p-amedford6/0/shared/rich_project_chbe-medford/medford-share/data/pseudos_module/espresso/nninc/pbe/van/O.UPF
     MD5 check sum: 78c19812648e8988a0fe644b0f25305e
     Pseudo is Ultrasoft, Zval =  6.0
     Generated by new atomic code, or converted to UPF format
     Using radial grid of  737 points,  4 beta functions with:
                l(1) =   0
                l(2) =   0
                l(3) =   1
                l(4) =   1
     Q(r) pseudized with  8 coefficients,  rinner =    0.800   0.800   0.800

     PseudoPot. # 3 for C  read from file:
     /storage/coda1/p-amedford6/0/shared/rich_project_chbe-medford/medford-share/data/pseudos_module/espresso/nninc/pbe/van/C.UPF
     MD5 check sum: 1a69bf6b8db32088f5b2163dbdb77a27
     Pseudo is Ultrasoft, Zval =  4.0
     Generated by new atomic code, or converted to UPF format
     Using radial grid of  721 points,  4 beta functions with:
                l(1) =   0
                l(2) =   0
                l(3) =   1
                l(4) =   1
     Q(r) pseudized with  8 coefficients,  rinner =    0.800   0.800   0.800

     PseudoPot. # 4 for H  read from file:
     /storage/coda1/p-amedford6/0/shared/rich_project_chbe-medford/medford-share/data/pseudos_module/espresso/nninc/pbe/van/H.UPF
     MD5 check sum: b5ee9d7bfd3a09ee7748110bda690ff7
     Pseudo is Ultrasoft, Zval =  1.0
     Generated by new atomic code, or converted to UPF format
     Using radial grid of  615 points,  1 beta functions with:
                l(1) =   0
     Q(r) pseudized with  8 coefficients,  rinner =    0.800

     PseudoPot. # 5 for N  read from file:
     /storage/coda1/p-amedford6/0/shared/rich_project_chbe-medford/medford-share/data/pseudos_module/espresso/nninc/pbe/van/N.UPF
     MD5 check sum: 90d10febe142ad51ac9d5be1deb811c4
     Pseudo is Ultrasoft, Zval =  5.0
     Generated by new atomic code, or converted to UPF format
     Using radial grid of  729 points,  4 beta functions with:
                l(1) =   0
                l(2) =   0
                l(3) =   1
                l(4) =   1
     Q(r) pseudized with  8 coefficients,  rinner =    0.800   0.800   0.800

     atomic species   valence    mass     pseudopotential
        Ti1           12.00    47.86700     Ti( 1.00)
        O1             6.00    15.99900     O ( 1.00)
        C1             4.00    12.01100     C ( 1.00)
        H1             1.00     1.00800     H ( 1.00)
        N1             5.00    14.00700     N ( 1.00)

     No symmetry found

   Cartesian axes

     site n.     atom                  positions (alat units)
         1           Ti1 tau(   1) = (   0.0004258   2.9801865   6.0000000  )
         2           Ti1 tau(   2) = (   3.2906075   1.4906267   6.0002472  )
         3           O1  tau(   3) = (   0.0006271   0.0005054   7.9858123  )
         4           O1  tau(   4) = (   3.2906025   0.0005020   7.3038282  )
         5           O1  tau(   5) = (   4.5942328   1.4918067   9.2879030  )
         6           O1  tau(   6) = (   1.9868534   1.4903216   9.2879459  )
         7           Ti1 tau(   7) = (   3.3250738   2.9918783   9.1599549  )
         8           Ti1 tau(   8) = (   0.0412716   1.4903975   9.2658274  )
         9           O1  tau(   9) = (   3.2852344   0.0116916  11.3753809  )
        10           O1  tau(  10) = (   6.5701620   0.0027176  10.6052010  )
        11           O1  tau(  11) = (   1.2758103   1.4969824  12.6410148  )
        12           O1  tau(  12) = (   5.2796941   1.4985041  12.6691897  )
        13           Ti1 tau(  13) = (   6.5531116   2.9870417  12.5348353  )
        14           Ti1 tau(  14) = (   3.2504356   1.4995581  12.5215122  )
        15           O1  tau(  15) = (   0.0383206   0.0046779  14.6787597  )
        16           O1  tau(  16) = (   3.2537876   0.0095675  14.0320577  )
        17           O1  tau(  17) = (   4.5855444   1.5609978  16.0639115  )
        18           O1  tau(  18) = (   2.0343745   1.5440679  16.2001998  )
        19           Ti1 tau(  19) = (   3.3058624   3.0043567  15.7064231  )
        20           Ti1 tau(  20) = (   6.5549511   1.4266458  15.8675638  )
        21           O1  tau(  21) = (   3.2904802   0.0005063   4.7018136  )
        22           O1  tau(  22) = (   6.4974171   0.0126247  17.2237355  )
        23           O1  tau(  23) = (   1.3043587   1.4918075   6.0039043  )
        24           O1  tau(  24) = (   5.2767064   1.4903225   6.0039473  )
        25           Ti1 tau(  25) = (   0.0000382   5.9609847   6.0000000  )
        26           Ti1 tau(  26) = (   3.2902200   4.4714249   6.0002472  )
        27           O1  tau(  27) = (   0.0002396   2.9813036   7.9858123  )
        28           O1  tau(  28) = (   3.2902150   2.9813002   7.3038282  )
        29           O1  tau(  29) = (   4.5938453   4.4726049   9.2879030  )
        30           O1  tau(  30) = (   1.9864658   4.4711199   9.2879459  )
        31           Ti1 tau(  31) = (   3.3194574   0.0113313   9.1541029  )
        32           Ti1 tau(  32) = (   0.0414074   4.4589881   9.2683624  )
        33           O1  tau(  33) = (   3.2821265   2.9896323  11.3676027  )
        34           O1  tau(  34) = (   6.5712111   2.9825298  10.6251173  )
        35           O1  tau(  35) = (   1.2751242   4.4805681  12.6359318  )
        36           O1  tau(  36) = (   5.2791817   4.4782367  12.6627471  )
        37           Ti1 tau(  37) = (   6.5506445   0.0032150  12.4806913  )
        38           Ti1 tau(  38) = (   3.2507345   4.4881811  12.5195668  )
        39           O1  tau(  39) = (   0.0469291   2.9928743  14.8464778  )
        40           O1  tau(  40) = (   3.2514374   2.9975957  13.9281162  )
        41           O1  tau(  41) = (   4.5866068   4.4203933  16.0984022  )
        42           O1  tau(  42) = (   2.0418857   4.4579080  16.2200674  )
        43           Ti1 tau(  43) = (   3.2648600   0.0292614  15.8571223  )
        44           Ti1 tau(  44) = (   6.5763064   4.6169283  15.9626260  )
        45           O1  tau(  45) = (   3.2900926   2.9813045   4.7018136  )
        46           O1  tau(  46) = (   1.3039711   4.4726057   6.0039043  )
        47           O1  tau(  47) = (   5.2763189   4.4711207   6.0039473  )
        48           C1  tau(  48) = (   6.0301898   2.9050411  18.9351799  )
        49           O1  tau(  49) = (   0.1575529   2.9516393  17.6723866  )
        50           H1  tau(  50) = (   4.9714676   2.8818909  18.6991823  )
        51           H1  tau(  51) = (   1.1232637   2.8218831  17.8130049  )
        52           H1  tau(  52) = (   6.2985093   1.9952365  19.4696065  )
        53           H1  tau(  53) = (   6.2732381   3.7939772  19.5169533  )
        54           N1  tau(  54) = (   4.8840950   3.1052494  22.6850861  )
        55           N1  tau(  55) = (   4.2680757   3.3403818  21.7970487  )
        56           O1  tau(  56) = (   3.8772584   0.1141246  18.3039653  )
        57           H1  tau(  57) = (   4.8407149   0.0692883  18.0716375  )
        58           H1  tau(  58) = (   3.6680196   5.2122673  18.6877519  )

     number of k points=    10  Fermi-Dirac smearing, width (Ry)=  0.0073
                       cart. coord. in units 2pi/alat
        k(    1) = (   0.0000000   0.0000000   0.0000000), wk =   0.1250000
        k(    2) = (   0.0000000   0.0419351   0.0000000), wk =   0.2500000
        k(    3) = (   0.0000000  -0.0838702   0.0000000), wk =   0.1250000
        k(    4) = (   0.0379955   0.0000049   0.0000000), wk =   0.2500000
        k(    5) = (   0.0379955   0.0419400   0.0000000), wk =   0.2500000
        k(    6) = (   0.0379955  -0.0838652   0.0000000), wk =   0.2500000
        k(    7) = (   0.0379955  -0.0419301   0.0000000), wk =   0.2500000
        k(    8) = (  -0.0759910  -0.0000099   0.0000000), wk =   0.1250000
        k(    9) = (  -0.0759910   0.0419252   0.0000000), wk =   0.2500000
        k(   10) = (  -0.0759910  -0.0838800   0.0000000), wk =   0.1250000

     Initial potential from superposition of free atoms

     starting charge  393.99913, renormalised to  410.00000

     negative rho (up, down):  9.554E-03 0.000E+00

     %%%%%%%%%%%%%%%%%%%%%%%%%%%%%%%%%%%%%%%%%%%%%%%%%%%%%%%%%%%%%%%%%%%%%%%%
     %                                                                      %
     % You are using vdW-DF, which was implemented by the Thonhauser group. %
     % Please cite the following two papers that made this development      %
     % possible and the two reviews that describe the various versions:     %
     %                                                                      %
     %   T. Thonhauser et al., PRL 115, 136402 (2015).                      %
     %   T. Thonhauser et al., PRB 76, 125112 (2007).                       %
     %   K. Berland et al., Rep. Prog. Phys. 78, 066501 (2015).             %
     %   D.C. Langreth et al., J. Phys.: Condens. Matter 21, 084203 (2009). %
     %                                                                      %
     %                                                                      %
     % If you are calculating the stress with vdW-DF, please also cite:     %
     %                                                                      %
     %   R. Sabatini et al., J. Phys.: Condens. Matter 24, 424209 (2012).   %
     %                                                                      %
     %%%%%%%%%%%%%%%%%%%%%%%%%%%%%%%%%%%%%%%%%%%%%%%%%%%%%%%%%%%%%%%%%%%%%%%%

     Adding external electric field

     Computed dipole along edir(3) :
        Dipole              -20.0784 Ry au,        -51.0342 Debye
        Dipole field         -0.0379 Ry au,

        Potential amp.        3.5124 Ry
        Total length         46.3494 bohr

     Starting wfcs are  310 atomic wfcs
  @ DRIVER MODE: Message from server: STATUS
  @ DRIVER MODE: Message from server: POSDATA
  @ DRIVER MODE: Reading and sharing cell
  @ DRIVER MODE: Reading and sharing positions
  @ DRIVER MODE: Received positions

     Self-consistent Calculation

     iteration #  1     ecut=    29.40 Ry     beta= 0.05
     Davidson diagonalization with overlap
     c_bands:  1 eigenvalues not converged
     c_bands:  5 eigenvalues not converged
     c_bands:  1 eigenvalues not converged
     c_bands:  4 eigenvalues not converged
     c_bands:  4 eigenvalues not converged
     c_bands:  4 eigenvalues not converged
     c_bands:  3 eigenvalues not converged
     ethr =  1.00E-05,  avg # of iterations = 29.2

[...]

     total energy              =   -2098.65506605 Ry
     estimated scf accuracy    <   10668.21530428 Ry

     iteration #  2     ecut=    29.40 Ry     beta= 0.05
     Davidson diagonalization with overlap
     ethr =  1.00E-02,  avg # of iterations = 30.5

[...]

     iteration # 93     ecut=    29.40 Ry     beta= 0.05
     Davidson diagonalization with overlap
     c_bands:  2 eigenvalues not converged
     c_bands:  1 eigenvalues not converged
     ethr =  2.03E-11,  avg # of iterations = 12.2

[...]

     total energy              =   -3007.66305559 Ry
     estimated scf accuracy    <       0.00000008 Ry

     iteration # 95     ecut=    29.40 Ry     beta= 0.05
     Davidson diagonalization with overlap
     ethr =  2.02E-11,  avg # of iterations =  5.7

     negative rho (up, down):  1.050E-02 0.000E+00

     Adding external electric field

     Computed dipole along edir(3) :
        Dipole                1.2334 Ry au,          3.1350 Debye
        Dipole field          0.0023 Ry au,

        Potential amp.       -0.2158 Ry
        Total length         46.3494 bohr

     End of self-consistent calculation

          k = 0.0000 0.0000 0.0000 ( 18029 PWs)   bands (ev):

   -54.9344 -54.9102 -54.8984 -54.8758 -54.8612 -54.8557 -54.8286 -54.8091
   -54.7812 -54.7785 -54.7440 -54.7236 -54.6923 -54.6897 -53.9987 -53.9646
   -31.5002 -31.4738 -31.4058 -31.3133 -31.2541 -31.2486 -31.2366 -31.2346
   -31.1989 -31.1647 -31.1552 -31.1530 -31.1489 -31.1260 -31.1191 -31.1132
   -31.0964 -31.0781 -31.0723 -31.0705 -31.0636 -31.0559 -31.0331 -31.0267
   -31.0265 -31.0209 -31.0060 -31.0038 -31.0027 -30.9667 -30.9497 -30.9299
   -30.9283 -30.9273 -30.9190 -30.9178 -30.9080 -30.8776 -30.8637 -30.8592
   -30.8547 -30.8352 -30.4106 -30.3083 -30.2867 -30.2268 -30.1405 -30.0295
   -21.6282 -19.7505 -18.2748 -15.7676 -15.5215 -15.3822 -15.2850 -15.1611
   -15.0310 -14.9572 -14.8368 -14.7647 -14.6709 -14.6574 -14.6393 -14.6193
   -14.5848 -14.5588 -14.5018 -14.4965 -14.4421 -14.4386 -14.4279 -14.4171
   -14.3841 -14.3691 -14.3378 -14.3286 -14.1663 -14.1004 -14.0408 -13.8961
   -12.4991 -12.3798 -10.7973  -6.8775  -6.5220  -6.0325  -4.8506  -4.7844
    -4.7229  -4.6244  -3.5503  -3.1006  -2.9496  -2.9127  -2.8912  -2.8703
    -2.7422  -2.6536  -2.6223  -2.4658  -2.3716  -2.2360  -2.2075  -2.1768
    -2.1376  -2.0707  -2.0145  -1.9275  -1.8983  -1.8584  -1.8384  -1.8146
    -1.7996  -1.7733  -1.7426  -1.6710  -1.6328  -1.5478  -1.5304  -1.4413
    -1.3915  -1.3832  -1.3401  -1.2771  -1.2737  -1.2630  -1.2230  -1.2090
    -1.2011  -1.1909  -1.1840  -1.0240  -0.9778  -0.9427  -0.8206  -0.7106
    -0.6185  -0.6064  -0.5049  -0.4915  -0.4285  -0.4239  -0.3844  -0.3448
    -0.2828  -0.1860  -0.1281  -0.0819  -0.0688   0.0418   0.1078   0.1226
     0.1836   0.2590   0.2741   0.2955   0.3255   0.4117   0.4797   0.5216
     0.5556   0.6209   0.6306   0.6781   0.7070   0.7476   0.8336   0.8874
     0.8912   0.9779   0.9952   1.0085   1.0338   1.0394   1.1375   1.1716
     1.2157   1.2436   1.3948   1.4304   1.6212   1.6567   1.9169   2.0153
     2.0273   2.1886   2.6132   2.6677   4.1557   4.2235   4.2600   4.2673
     4.2821   4.3617   4.6440   4.6491   4.6639   4.6758   4.6836

[...]

          k = 0.0380-0.0419 0.0000 ( 17876 PWs)   bands (ev):

[...]

          k =-0.0760-0.0000 0.0000 ( 17886 PWs)   bands (ev):

[...]

          k =-0.0760-0.0839 0.0000 ( 17948 PWs)   bands (ev):

   -54.9173 -54.9153 -54.8948 -54.8911 -54.8564 -54.8510 -54.8214 -54.8166
   -54.7884 -54.7635 -54.7587 -54.7080 -54.7053 -54.6940 -53.9816 -53.9815
   -31.3865 -31.3090 -31.2988 -31.2225 -31.2190 -31.1971 -31.1898 -31.1877
   -31.1808 -31.1582 -31.1437 -31.1415 -31.1338 -31.1281 -31.1089 -31.0951
   -31.0795 -31.0775 -31.0686 -31.0674 -31.0656 -31.0646 -31.0590 -31.0536
   -31.0287 -31.0235 -31.0192 -31.0140 -31.0137 -31.0110 -31.0103 -31.0098
   -31.0097 -30.9809 -30.9725 -30.9616 -30.9603 -30.9332 -30.9308 -30.8949
   -30.8917 -30.8773 -30.2993 -30.2993 -30.2234 -30.2231 -30.1837 -30.1835
   -21.6280 -19.7468 -18.2738 -15.3424 -15.2294 -15.0634 -14.9548 -14.9451
   -14.9167 -14.8576 -14.8143 -14.7840 -14.7431 -14.7336 -14.7037 -14.6856
   -14.6803 -14.6228 -14.5386 -14.5330 -14.5192 -14.4840 -14.4567 -14.4427
   -14.4407 -14.4263 -14.3894 -14.3876 -14.3684 -14.3572 -14.3006 -14.2079
   -12.4811 -12.4805 -10.7999  -6.8767  -6.5241  -6.0349  -4.8484  -4.7914
    -4.7160  -4.6122  -3.5419  -2.7553  -2.5338  -2.4968  -2.4237  -2.2577
    -2.1781  -2.1574  -2.0812  -2.0575  -2.0221  -1.9439  -1.9400  -1.9061
    -1.8662  -1.8415  -1.8358  -1.8176  -1.7991  -1.7656  -1.7456  -1.7242
    -1.7107  -1.6955  -1.6490  -1.6401  -1.6042  -1.6006  -1.5860  -1.5742
    -1.5551  -1.5441  -1.4631  -1.4356  -1.3946  -1.3076  -1.2921  -1.1625
    -1.1568  -1.1068  -1.0745  -1.0357  -1.0170  -0.9958  -0.9706  -0.9383
    -0.9091  -0.7367  -0.7157  -0.6726  -0.6210  -0.6150  -0.5425  -0.5266
    -0.4723  -0.4401  -0.3506  -0.3094  -0.2696  -0.1614  -0.1345  -0.1222
     0.0162   0.0220   0.0674   0.0690   0.1111   0.1496   0.1619   0.1691
     0.2438   0.2764   0.3128   0.3388   0.3623   0.5404   0.5767   0.6353
     0.7258   0.7431   0.9211   0.9516   0.9957   1.0765   1.1381   1.1917
     1.2141   1.3225   1.3300   1.3534   1.4449   1.4933   1.4946   1.5245
     2.3785   2.3815   2.4822   2.4850   4.2801   4.4108   4.4170   4.4970
     4.5696   4.6635   4.6640   4.6779   4.7084   4.7181   4.7186

     the Fermi energy is     4.2116 ev

!    total energy              =   -3007.66305801 Ry
     estimated scf accuracy    <       0.00000002 Ry
     smearing contrib. (-TS)   =      -0.03686006 Ry
     internal energy E=F+TS    =   -3007.62619795 Ry

     The total energy is F=E-TS. E is the sum of the following terms:
     one-electron contribution =  -22338.98795161 Ry
     hartree contribution      =   11271.29869261 Ry
     xc contribution           =    -502.07230129 Ry
     ewald contribution        =    8562.13249154 Ry
     electric field correction =       0.00287080 Ry

     convergence has been achieved in  95 iterations

     Forces acting on atoms (cartesian axes, Ry/au):

     atom    1 type  1   force =    -0.00027627   -0.00000750    0.09249519
     atom    2 type  1   force =    -0.00013234    0.00114385   -0.18324532
     atom    3 type  2   force =     0.00054858   -0.00040305   -0.02388856
     atom    4 type  2   force =     0.00079779    0.00021115    0.05085905
     atom    5 type  2   force =    -0.01547934   -0.00014493    0.00437833
     atom    6 type  2   force =     0.01419497   -0.00033003    0.00506181
     atom    7 type  1   force =    -0.00010875    0.00020722    0.00005227
     atom    8 type  1   force =    -0.00007402    0.00017235   -0.00000496
     atom    9 type  2   force =     0.00007465    0.00004470    0.00012875
     atom   10 type  2   force =     0.00000035    0.00001802   -0.00005783
     atom   11 type  2   force =     0.00018071    0.00001341   -0.00013804
     atom   12 type  2   force =     0.00003146    0.00003276   -0.00006351
     atom   13 type  1   force =     0.00016835    0.00011705   -0.00002397
     atom   14 type  1   force =     0.00027479    0.00016985   -0.00012136
     atom   15 type  2   force =     0.00029786    0.00039950   -0.00003200
     atom   16 type  2   force =     0.00014293   -0.00001124    0.00020928
     atom   17 type  2   force =    -0.00002745    0.00013570    0.00012902
     atom   18 type  2   force =     0.00023190    0.00010629    0.00042266
     atom   19 type  1   force =     0.00023571   -0.00009500   -0.00002824
     atom   20 type  1   force =     0.00014210    0.00007842    0.00007125
     atom   21 type  2   force =     0.00003037    0.00001690    0.10488460
     atom   22 type  2   force =    -0.00024106   -0.00005569    0.00005746
     atom   23 type  2   force =    -0.06802207   -0.00011396   -0.02684149
     atom   24 type  2   force =     0.06788820    0.00033728   -0.02688337
     atom   25 type  1   force =    -0.00012072   -0.00002671    0.09594782
     atom   26 type  1   force =    -0.00011015   -0.00143870   -0.18315795
     atom   27 type  2   force =     0.00049881   -0.00019540   -0.02269232
     atom   28 type  2   force =     0.00086401    0.00017942    0.05125191
     atom   29 type  2   force =    -0.01539602    0.00050260    0.00454910
     atom   30 type  2   force =     0.01414750    0.00078090    0.00524907
     atom   31 type  1   force =    -0.00010005    0.00006076   -0.00001029
     atom   32 type  1   force =    -0.00007279    0.00016169   -0.00004763
     atom   33 type  2   force =     0.00012336   -0.00002929    0.00017121
     atom   34 type  2   force =    -0.00000090    0.00007226    0.00002808
     atom   35 type  2   force =     0.00013788   -0.00000298   -0.00003455
     atom   36 type  2   force =     0.00007249   -0.00000078    0.00008917
     atom   37 type  1   force =     0.00016111    0.00006870   -0.00009466
     atom   38 type  1   force =     0.00015855   -0.00003843    0.00002787
     atom   39 type  2   force =     0.00017675   -0.00009607   -0.00023510
     atom   40 type  2   force =     0.00001909   -0.00018346    0.00004739
     atom   41 type  2   force =     0.00015973    0.00000286    0.00004986
     atom   42 type  2   force =    -0.00000912   -0.00002654    0.00019000
     atom   43 type  1   force =     0.00007471   -0.00023894    0.00110717
     atom   44 type  1   force =     0.00003788    0.00001986    0.00054787
     atom   45 type  2   force =     0.00003502    0.00001844    0.10481066
     atom   46 type  2   force =    -0.06803248   -0.00050443   -0.02682924
     atom   47 type  2   force =     0.06789339   -0.00008812   -0.02690905
     atom   48 type  3   force =     0.00045106   -0.00012096   -0.00024982
     atom   49 type  2   force =     0.01612743   -0.00221088    0.00212610
     atom   50 type  4   force =    -0.00014451   -0.00041667   -0.00000031
     atom   51 type  4   force =    -0.01696533    0.00194122   -0.00232722
     atom   52 type  4   force =     0.00025290   -0.00035873    0.00013046
     atom   53 type  4   force =     0.00006552    0.00016596   -0.00012886
     atom   54 type  5   force =    -0.00092650    0.00003642   -0.00108697
     atom   55 type  5   force =     0.00035913   -0.00007808    0.00019625
     atom   56 type  2   force =     0.00127735    0.00056136   -0.00080007
     atom   57 type  4   force =    -0.00099240   -0.00043960    0.00022893
     atom   58 type  4   force =    -0.00110216   -0.00012074    0.00043409

     Total force =     0.368903     Total SCF correction =     0.000534
  @ DRIVER MODE: Message from server: STATUS
  @ DRIVER MODE: Message from server: GETFORCE
  @ DRIVER MODE: Returning v,forces,stress,ensemble

     Writing output data file ./calc.save/
  @ DRIVER MODE: Message from server: EXIT
  @ DRIVE MODE: Exiting

     General routines

     Parallel routines

   This run was terminated on:   2:43:27  28Sep2021

   JOB DONE.