     Program PWSCF v.6.7GPU starts on  3Aug2021 at  0:58:12

     R & G space division:  proc/nbgrp/npool/nimage =      16
     Reading input from /storage/home/hcoda1/3/ntian30/research/carbon/02Aug_vib_paired/ads_slab/CH3NNHH_a/out_0045/pw.inp
Warning: card &CELL ignored
Warning: card   CELL_DYNAMICS='IPI', ignored
Warning: card / ignored

     Current dimensions of program PWSCF are:
     Max number of different atomic species (ntypx) = 10
     Max number of k-points (npk) =  40000
     Max angular momentum in pseudopotentials (lmaxx) =  3
     Presently no symmetry can be used with electric field

     Message from routine cell_base_init:
     DEPRECATED: use true lattice parameter, not A to a.u. conversion factor

     IMPORTANT: XC functional enforced from input :
     Exchange-correlation= BEEF-VDW
                           (   1   4  43  14   2   0   0)
     Any further DFT definition will be discarded
     Please, verify this is what you really want

  @ DRIVER MODE: Connecting to
 qe_1139763_2482543.sched-torque.pace.gatech.eduyd7ny9vf_scratch
  using UNIX socket
  @ DRIVER MODE: Message from server: STATUS
  @ DRIVER MODE: Message from server: INIT
  @ DRIVER MODE: Receiving replica           0          -1
  @ DRIVER MODE: Receiving encoded integer          25
  @ DRIVER MODE:  SCF:  T  FORCE:  T  STRESS:  F  VC:  F  ENSEMBLE:  F
  @ DRIVER MODE:  SCF:  T  FORCE:  T  STRESS:  F  VC:  F  ENSEMBLE:  F

     Using Slab Decomposition

     bravais-lattice index     =            0
     lattice parameter (alat)  =       1.8897  a.u.
     unit-cell volume          =    6658.9804 (a.u.)^3
     number of atoms/cell      =           55
     number of atomic types    =            5
     number of electrons       =       397.00
     number of Kohn-Sham states=          208
     kinetic-energy cutoff     =      29.3995  Ry
     charge density cutoff     =     293.9946  Ry
     scf convergence threshold =      7.3E-08
     mixing beta               =       0.0500
     number of iterations used =            8  plain     mixing
     Exchange-correlation= BEEF-VDW
                           (   1   4  43  14   2   0   0)

     celldm(1)=   1.889726  celldm(2)=   0.000000  celldm(3)=   0.000000
     celldm(4)=   0.000000  celldm(5)=   0.000000  celldm(6)=   0.000000

     crystal axes: (cart. coord. in units of alat)
               a(1) = (   6.579727   0.000000   0.000000 )
               a(2) = (  -0.000775   5.961596   0.000000 )
               a(3) = (   0.000000   0.000000  25.155947 )

     reciprocal axes: (cart. coord. in units 2 pi/alat)
               b(1) = (  0.151982  0.000020  0.000000 )
               b(2) = (  0.000000  0.167740  0.000000 )
               b(3) = (  0.000000  0.000000  0.039752 )

     PseudoPot. # 1 for Ti read from file:
     /storage/coda1/p-amedford6/0/shared/rich_project_chbe-medford/medford-share/data/pseudos_module/espresso/nninc/pbe/van/Ti.UPF
     MD5 check sum: 8e4df49b7f0d34bbd5052bf3f5ea0213
     Pseudo is Ultrasoft, Zval = 12.0
     Generated by new atomic code, or converted to UPF format
     Using radial grid of  851 points,  6 beta functions with:
                l(1) =   0
                l(2) =   0
                l(3) =   1
                l(4) =   1
                l(5) =   2
                l(6) =   2
     Q(r) pseudized with  8 coefficients,  rinner =    1.000   1.000   1.000
                                                       1.000   1.000

     PseudoPot. # 2 for O  read from file:
     /storage/coda1/p-amedford6/0/shared/rich_project_chbe-medford/medford-share/data/pseudos_module/espresso/nninc/pbe/van/O.UPF
     MD5 check sum: 78c19812648e8988a0fe644b0f25305e
     Pseudo is Ultrasoft, Zval =  6.0
     Generated by new atomic code, or converted to UPF format
     Using radial grid of  737 points,  4 beta functions with:
                l(1) =   0
                l(2) =   0
                l(3) =   1
                l(4) =   1
     Q(r) pseudized with  8 coefficients,  rinner =    0.800   0.800   0.800

     PseudoPot. # 3 for N  read from file:
     /storage/coda1/p-amedford6/0/shared/rich_project_chbe-medford/medford-share/data/pseudos_module/espresso/nninc/pbe/van/N.UPF
     MD5 check sum: 90d10febe142ad51ac9d5be1deb811c4
     Pseudo is Ultrasoft, Zval =  5.0
     Generated by new atomic code, or converted to UPF format
     Using radial grid of  729 points,  4 beta functions with:
                l(1) =   0
                l(2) =   0
                l(3) =   1
                l(4) =   1
     Q(r) pseudized with  8 coefficients,  rinner =    0.800   0.800   0.800

     PseudoPot. # 4 for C  read from file:
     /storage/coda1/p-amedford6/0/shared/rich_project_chbe-medford/medford-share/data/pseudos_module/espresso/nninc/pbe/van/C.UPF
     MD5 check sum: 1a69bf6b8db32088f5b2163dbdb77a27
     Pseudo is Ultrasoft, Zval =  4.0
     Generated by new atomic code, or converted to UPF format
     Using radial grid of  721 points,  4 beta functions with:
                l(1) =   0
                l(2) =   0
                l(3) =   1
                l(4) =   1
     Q(r) pseudized with  8 coefficients,  rinner =    0.800   0.800   0.800

     PseudoPot. # 5 for H  read from file:
     /storage/coda1/p-amedford6/0/shared/rich_project_chbe-medford/medford-share/data/pseudos_module/espresso/nninc/pbe/van/H.UPF
     MD5 check sum: b5ee9d7bfd3a09ee7748110bda690ff7
     Pseudo is Ultrasoft, Zval =  1.0
     Generated by new atomic code, or converted to UPF format
     Using radial grid of  615 points,  1 beta functions with:
                l(1) =   0
     Q(r) pseudized with  8 coefficients,  rinner =    0.800

     atomic species   valence    mass     pseudopotential
        Ti1           12.00    47.86700     Ti( 1.00)
        O1             6.00    15.99900     O ( 1.00)
        N1             5.00    14.00700     N ( 1.00)
        C1             4.00    12.01100     C ( 1.00)
        H1             1.00     1.00800     H ( 1.00)

     No symmetry found

   Cartesian axes

     site n.     atom                  positions (alat units)
         1           Ti1 tau(   1) = (   0.0004258   2.9801865   6.0000000  )
         2           Ti1 tau(   2) = (   3.2906075   1.4906267   6.0002472  )
         3           O1  tau(   3) = (   0.0006271   0.0005054   7.9858123  )
         4           O1  tau(   4) = (   3.2906025   0.0005020   7.3038282  )
         5           O1  tau(   5) = (   4.5942328   1.4918067   9.2879030  )
         6           O1  tau(   6) = (   1.9868534   1.4903216   9.2879459  )
         7           Ti1 tau(   7) = (   3.2907910   2.8959150   9.1758416  )
         8           Ti1 tau(   8) = (   0.0015273   1.4827037   9.2680791  )
         9           O1  tau(   9) = (   3.3049802   0.0007868  11.3057318  )
        10           O1  tau(  10) = (   0.0116148   5.9584955  10.6183126  )
        11           O1  tau(  11) = (   1.3244024   1.4905818  12.6109357  )
        12           O1  tau(  12) = (   5.3168099   1.4893704  12.6271843  )
        13           Ti1 tau(  13) = (   6.5373159   3.0114403  12.6515439  )
        14           Ti1 tau(  14) = (   3.2156784   1.4952808  12.4541107  )
        15           O1  tau(  15) = (   0.0550716   5.9579553  14.6769760  )
        16           O1  tau(  16) = (   3.3119233   0.0240268  13.8744051  )
        17           O1  tau(  17) = (   4.5754650   1.5399768  16.1198157  )
        18           O1  tau(  18) = (   2.0928293   1.5118261  15.9950610  )
        19           Ti1 tau(  19) = (   3.3312717   3.0210965  15.6459898  )
        20           Ti1 tau(  20) = (   0.0837956   1.4057146  15.8023643  )
        21           O1  tau(  21) = (   3.2904802   0.0005063   4.7018136  )
        22           O1  tau(  22) = (   0.0662678   0.0194342  17.2484716  )
        23           O1  tau(  23) = (   1.3043587   1.4918075   6.0039043  )
        24           O1  tau(  24) = (   5.2767064   1.4903225   6.0039473  )
        25           Ti1 tau(  25) = (   0.0000382   5.9609847   6.0000000  )
        26           Ti1 tau(  26) = (   3.2902200   4.4714249   6.0002472  )
        27           O1  tau(  27) = (   0.0002396   2.9813036   7.9858123  )
        28           O1  tau(  28) = (   3.2902150   2.9813002   7.3038282  )
        29           O1  tau(  29) = (   4.5938453   4.4726049   9.2879030  )
        30           O1  tau(  30) = (   1.9864658   4.4711199   9.2879459  )
        31           Ti1 tau(  31) = (   3.2891106   5.8743827   9.1763621  )
        32           Ti1 tau(  32) = (   0.0006254   4.4649316   9.2693709  )
        33           O1  tau(  33) = (   3.3066024   2.9928613  11.3071500  )
        34           O1  tau(  34) = (   0.0092240   2.9805883  10.6323155  )
        35           O1  tau(  35) = (   1.3207996   4.4694119  12.6241097  )
        36           O1  tau(  36) = (   5.3140488   4.4801720  12.6365454  )
        37           Ti1 tau(  37) = (   6.5381296   0.0208815  12.5444857  )
        38           Ti1 tau(  38) = (   3.2183512   4.4801350  12.4586296  )
        39           O1  tau(  39) = (   0.0202472   2.9427232  14.7250097  )
        40           O1  tau(  40) = (   3.3152672   2.9848540  13.8607131  )
        41           O1  tau(  41) = (   4.5737023   4.5140360  15.9163038  )
        42           O1  tau(  42) = (   2.1295162   4.4918226  16.0779194  )
        43           Ti1 tau(  43) = (   3.3279662   0.0229233  15.6733299  )
        44           Ti1 tau(  44) = (   6.5520288   4.5036137  16.2892914  )
        45           O1  tau(  45) = (   3.2900926   2.9813045   4.7018136  )
        46           O1  tau(  46) = (   1.3039711   4.4726057   6.0039043  )
        47           O1  tau(  47) = (   5.2763189   4.4711207   6.0039473  )
        48           N1  tau(  48) = (   0.3708600   2.9881754  17.6030774  )
        49           C1  tau(  49) = (   1.3543844   2.7351176  18.6431602  )
        50           H1  tau(  50) = (   1.5086739   3.6319226  19.2591966  )
        51           H1  tau(  51) = (   1.0320479   1.9069190  19.2840631  )
        52           H1  tau(  52) = (   2.3019873   2.4496563  18.1994378  )
        53           N1  tau(  53) = (   5.7269228   3.4566738  18.1314761  )
        54           H1  tau(  54) = (   5.8315057   4.0292447  18.9662490  )
        55           H1  tau(  55) = (   5.0361168   2.7072796  18.2515220  )

     number of k points=    10  Fermi-Dirac smearing, width (Ry)=  0.0073
                       cart. coord. in units 2pi/alat
        k(    1) = (   0.0000000   0.0000000   0.0000000), wk =   0.1250000
        k(    2) = (   0.0000000   0.0419351   0.0000000), wk =   0.2500000
        k(    3) = (   0.0000000  -0.0838702   0.0000000), wk =   0.1250000
        k(    4) = (   0.0379955   0.0000049   0.0000000), wk =   0.2500000
        k(    5) = (   0.0379955   0.0419400   0.0000000), wk =   0.2500000
        k(    6) = (   0.0379955  -0.0838652   0.0000000), wk =   0.2500000
        k(    7) = (   0.0379955  -0.0419301   0.0000000), wk =   0.2500000
        k(    8) = (  -0.0759910  -0.0000099   0.0000000), wk =   0.1250000
        k(    9) = (  -0.0759910   0.0419252   0.0000000), wk =   0.2500000
        k(   10) = (  -0.0759910  -0.0838800   0.0000000), wk =   0.1250000

     Initial potential from superposition of free atoms

     starting charge  380.99914, renormalised to  397.00000

     negative rho (up, down):  1.665E-02 0.000E+00

     %%%%%%%%%%%%%%%%%%%%%%%%%%%%%%%%%%%%%%%%%%%%%%%%%%%%%%%%%%%%%%%%%%%%%%%%
     %                                                                      %
     % You are using vdW-DF, which was implemented by the Thonhauser group. %
     % Please cite the following two papers that made this development      %
     % possible and the two reviews that describe the various versions:     %
     %                                                                      %
     %   T. Thonhauser et al., PRL 115, 136402 (2015).                      %
     %   T. Thonhauser et al., PRB 76, 125112 (2007).                       %
     %   K. Berland et al., Rep. Prog. Phys. 78, 066501 (2015).             %
     %   D.C. Langreth et al., J. Phys.: Condens. Matter 21, 084203 (2009). %
     %                                                                      %
     %                                                                      %
     % If you are calculating the stress with vdW-DF, please also cite:     %
     %                                                                      %
     %   R. Sabatini et al., J. Phys.: Condens. Matter 24, 424209 (2012).   %
     %                                                                      %
     %%%%%%%%%%%%%%%%%%%%%%%%%%%%%%%%%%%%%%%%%%%%%%%%%%%%%%%%%%%%%%%%%%%%%%%%

     Adding external electric field

     Computed dipole along edir(3) :
        Dipole               -9.2540 Ry au,        -23.5213 Debye
        Dipole field         -0.0175 Ry au,

        Potential amp.        1.6188 Ry
        Total length         46.3494 bohr

     Starting wfcs are  301 atomic wfcs
  @ DRIVER MODE: Message from server: STATUS
  @ DRIVER MODE: Message from server: POSDATA
  @ DRIVER MODE: Reading and sharing cell
  @ DRIVER MODE: Reading and sharing positions
  @ DRIVER MODE: Received positions

     Self-consistent Calculation

     iteration #  1     ecut=    29.40 Ry     beta= 0.05
     Davidson diagonalization with overlap
     c_bands:  1 eigenvalues not converged
     c_bands:  2 eigenvalues not converged
     c_bands:  1 eigenvalues not converged
     c_bands:  2 eigenvalues not converged
     c_bands:  2 eigenvalues not converged
     c_bands:  1 eigenvalues not converged
     c_bands:  2 eigenvalues not converged
     c_bands:  2 eigenvalues not converged
     c_bands:  4 eigenvalues not converged
     ethr =  1.00E-05,  avg # of iterations = 19.7

[...]

     total energy              =   -2525.59853570 Ry
     estimated scf accuracy    <    4612.76528682 Ry

     iteration #  2     ecut=    29.40 Ry     beta= 0.05
     Davidson diagonalization with overlap
     ethr =  1.00E-02,  avg # of iterations = 23.0

[...]

     iteration # 59     ecut=    29.40 Ry     beta= 0.05
     Davidson diagonalization with overlap
     c_bands:  1 eigenvalues not converged
     ethr =  1.77E-10,  avg # of iterations = 12.5

[...]

     total energy              =   -2941.63739449 Ry
     estimated scf accuracy    <       0.00000019 Ry

     iteration # 64     ecut=    29.40 Ry     beta= 0.05
     Davidson diagonalization with overlap
     ethr =  4.70E-11,  avg # of iterations =  6.0

     negative rho (up, down):  1.674E-02 0.000E+00

     Adding external electric field

     Computed dipole along edir(3) :
        Dipole                1.1487 Ry au,          2.9198 Debye
        Dipole field          0.0022 Ry au,

        Potential amp.       -0.2010 Ry
        Total length         46.3494 bohr

     End of self-consistent calculation

          k = 0.0000 0.0000 0.0000 ( 18029 PWs)   bands (ev):

   -55.5727 -55.5701 -55.5360 -55.5359 -55.4593 -55.4228 -55.4214 -55.3876
   -55.3703 -55.3363 -55.3250 -55.2911 -55.0324 -54.8885 -54.5363 -54.5022
   -32.1355 -32.0514 -31.9566 -31.8921 -31.8871 -31.8724 -31.8625 -31.8175
   -31.8105 -31.8041 -31.7837 -31.7586 -31.7547 -31.7253 -31.7223 -31.7146
   -31.6734 -31.6598 -31.6571 -31.6479 -31.6471 -31.6274 -31.6111 -31.5954
   -31.5686 -31.5675 -31.5659 -31.5579 -31.5554 -31.5288 -31.5053 -31.5045
   -31.4992 -31.4920 -31.4794 -31.4737 -31.4386 -31.3088 -31.2573 -31.1593
   -31.1413 -31.0492 -30.9426 -30.8561 -30.8335 -30.7596 -30.6732 -30.5618
   -17.5841 -16.3615 -16.0483 -15.8370 -15.7260 -15.7215 -15.6376 -15.4165
   -15.2965 -15.2810 -15.1648 -15.1600 -15.1013 -15.0605 -15.0541 -15.0484
   -15.0137 -15.0013 -14.9833 -14.9531 -14.9143 -14.8966 -14.8770 -14.7708
   -14.7091 -14.6990 -14.6831 -14.6160 -14.5724 -14.2087 -13.0382 -12.9220
   -12.5257  -9.1948  -6.3293  -5.0898  -4.2000  -3.7398  -3.5488  -3.4732
    -3.4381  -3.3737  -3.3545  -3.1821  -3.1747  -2.7967  -2.7758  -2.7567
    -2.7351  -2.7325  -2.4644  -2.4111  -2.3952  -2.3927  -2.3752  -2.3574
    -2.3362  -2.3253  -2.2970  -2.2902  -2.1554  -2.1108  -2.0319  -2.0016
    -1.9913  -1.8782  -1.8547  -1.8333  -1.8223  -1.8078  -1.7796  -1.7718
    -1.7515  -1.6424  -1.5336  -1.4607  -1.4134  -1.3604  -1.3422  -1.1618
    -1.1109  -1.0524  -1.0272  -1.0024  -0.9872  -0.9536  -0.8793  -0.8552
    -0.7136  -0.6752  -0.6226  -0.5963  -0.5656  -0.5091  -0.4747  -0.4469
    -0.3500  -0.3377  -0.3261  -0.3133  -0.2537  -0.0653  -0.0178   0.0003
     0.0159   0.1161   0.1556   0.1790   0.2153   0.2710   0.2971   0.3637
     0.3938   0.4133   0.4232   0.4473   0.4696   0.6012   0.6298   0.6588
     0.7179   0.7718   0.8482   0.9609   1.0465   1.0996   1.2008   1.4192
     1.4863   1.5703   1.6801   1.7016   2.0557   2.1007   3.5652   3.6555
     3.6938   3.7079   3.8149   3.8664   4.0140   4.0240   4.0667   4.0960

[...]

          k = 0.0380-0.0419 0.0000 ( 17876 PWs)   bands (ev):

[...]

          k =-0.0760-0.0000 0.0000 ( 17886 PWs)   bands (ev):

[...]

          k =-0.0760-0.0839 0.0000 ( 17948 PWs)   bands (ev):

   -55.5575 -55.5536 -55.5524 -55.5509 -55.4485 -55.4321 -55.4077 -55.4026
   -55.3548 -55.3514 -55.3097 -55.3065 -55.0309 -54.8899 -54.5193 -54.5191
   -31.9404 -31.9317 -31.8671 -31.8663 -31.8484 -31.8474 -31.8426 -31.8274
   -31.8007 -31.7870 -31.7673 -31.7486 -31.7205 -31.7120 -31.7067 -31.6818
   -31.6796 -31.6732 -31.6718 -31.6673 -31.6644 -31.6511 -31.6479 -31.6443
   -31.6251 -31.6129 -31.6028 -31.6010 -31.5520 -31.5498 -31.5426 -31.5409
   -31.5341 -31.5305 -31.5250 -31.5234 -31.4142 -31.3212 -31.2591 -31.2202
   -31.1470 -31.0612 -30.8463 -30.8462 -30.7555 -30.7552 -30.7165 -30.7164
   -17.5722 -15.8192 -15.7836 -15.5258 -15.5184 -15.5166 -15.4750 -15.3524
   -15.3037 -15.2770 -15.2657 -15.2466 -15.2404 -15.1356 -15.1230 -15.1057
   -15.0959 -15.0701 -15.0261 -15.0203 -15.0133 -15.0030 -14.9910 -14.9266
   -14.8715 -14.8678 -14.7596 -14.6648 -14.5225 -14.4391 -13.0240 -13.0237
   -12.5449  -9.1558  -6.2879  -5.1193  -4.1326  -3.4248  -3.1203  -3.0764
    -2.7877  -2.7685  -2.7548  -2.6384  -2.5183  -2.5095  -2.4847  -2.4615
    -2.4287  -2.4144  -2.4059  -2.3974  -2.3793  -2.3604  -2.3494  -2.3109
    -2.2416  -2.2342  -2.2256  -2.2166  -2.2002  -2.1763  -2.1664  -2.1383
    -2.1140  -2.0808  -2.0215  -1.9906  -1.8401  -1.7938  -1.7395  -1.6951
    -1.6868  -1.6578  -1.6242  -1.6166  -1.5088  -1.4942  -1.4589  -1.3288
    -1.2673  -1.2594  -1.2269  -1.1417  -1.1017  -0.9726  -0.9597  -0.9238
    -0.8696  -0.8588  -0.8219  -0.7844  -0.7320  -0.6804  -0.6361  -0.6121
    -0.5958  -0.5237  -0.5229  -0.4767  -0.4193  -0.3505  -0.3260  -0.3183
    -0.2870  -0.2425  -0.1971  -0.1321  -0.0573  -0.0355  -0.0215   0.0762
     0.1524   0.3685   0.4140   0.5159   0.5356   0.5609   0.6236   0.6725
     0.7420   0.7561   0.7853   0.8594   0.8817   0.9724   0.9829   0.9994
     1.1779   1.6327   1.8518   1.8527   1.9203   1.9209   3.8594   3.8730
     3.8991   3.9232   4.0845   4.0884   4.1003   4.1031   4.2237   4.2539

     the Fermi energy is     3.5640 ev

!    total energy              =   -2941.63743455 Ry
     estimated scf accuracy    <       0.00000005 Ry
     smearing contrib. (-TS)   =      -0.02170641 Ry
     internal energy E=F+TS    =   -2941.61572814 Ry

     The total energy is F=E-TS. E is the sum of the following terms:
     one-electron contribution =  -24405.22935566 Ry
     hartree contribution      =   12294.56485426 Ry
     xc contribution           =    -486.93916293 Ry
     ewald contribution        =    9655.98544593 Ry
     electric field correction =       0.00249026 Ry

     convergence has been achieved in  64 iterations

     Forces acting on atoms (cartesian axes, Ry/au):

     atom    1 type  1   force =     0.00003381   -0.00018997    0.09686124
     atom    2 type  1   force =     0.00010785   -0.00066671   -0.17454380
     atom    3 type  2   force =     0.00019943   -0.00005166   -0.02507164
     atom    4 type  2   force =     0.00001285   -0.00122151    0.05106284
     atom    5 type  2   force =    -0.01106833   -0.00078234    0.00212903
     atom    6 type  2   force =     0.01302105   -0.00028238    0.00280655
     atom    7 type  1   force =     0.00114059    0.00020303   -0.01336644
     atom    8 type  1   force =    -0.00018724    0.01540620    0.02795848
     atom    9 type  2   force =    -0.00011678    0.00045158    0.00002961
     atom   10 type  2   force =    -0.00221758    0.00097933   -0.01127147
     atom   11 type  2   force =     0.00029420   -0.00011355    0.00016858
     atom   12 type  2   force =    -0.00025899   -0.00012281    0.00039616
     atom   13 type  1   force =    -0.00007483   -0.00027332    0.00009946
     atom   14 type  1   force =     0.00011291    0.00012671   -0.00004636
     atom   15 type  2   force =     0.00011204   -0.00053971   -0.00033451
     atom   16 type  2   force =    -0.00044021    0.00017194    0.00028535
     atom   17 type  2   force =    -0.00014283   -0.00008880   -0.00006144
     atom   18 type  2   force =    -0.00037948   -0.00002637    0.00016830
     atom   19 type  1   force =    -0.00000023    0.00043485   -0.00018725
     atom   20 type  1   force =    -0.00026912    0.00004265    0.00012651
     atom   21 type  2   force =     0.00005076   -0.00009872    0.10298663
     atom   22 type  2   force =    -0.00080970   -0.00039826    0.00043372
     atom   23 type  2   force =    -0.07180526   -0.00022239   -0.02779163
     atom   24 type  2   force =     0.07177298    0.00023023   -0.02784499
     atom   25 type  1   force =     0.00003776   -0.00022484    0.09639534
     atom   26 type  1   force =    -0.00001041   -0.00030682   -0.17479798
     atom   27 type  2   force =     0.00020163   -0.00025344   -0.02391278
     atom   28 type  2   force =     0.00007600   -0.00096168    0.05128653
     atom   29 type  2   force =    -0.01106613    0.00095984    0.00149211
     atom   30 type  2   force =     0.01287130    0.00120211    0.00212298
     atom   31 type  1   force =     0.00114932    0.00257626   -0.01567910
     atom   32 type  1   force =    -0.00001886   -0.01668952    0.02887869
     atom   33 type  2   force =    -0.00017998   -0.00045480    0.00045118
     atom   34 type  2   force =    -0.00258475    0.00114566   -0.01891711
     atom   35 type  2   force =    -0.00011080   -0.00011052    0.00003490
     atom   36 type  2   force =    -0.00003136   -0.00018876    0.00022081
     atom   37 type  1   force =    -0.00023765   -0.00017129    0.00047861
     atom   38 type  1   force =     0.00009936   -0.00053543    0.00034561
     atom   39 type  2   force =     0.00004767    0.00045305    0.00020820
     atom   40 type  2   force =    -0.00032157   -0.00013603   -0.00069573
     atom   41 type  2   force =     0.00017592    0.00006325    0.00000171
     atom   42 type  2   force =    -0.00016139    0.00020841    0.00017884
     atom   43 type  1   force =     0.00004345   -0.00052280   -0.00078950
     atom   44 type  1   force =    -0.00055929    0.00124829   -0.00042676
     atom   45 type  2   force =     0.00006182   -0.00010886    0.10296711
     atom   46 type  2   force =    -0.07182578   -0.00016332   -0.02780361
     atom   47 type  2   force =     0.07178175    0.00021921   -0.02784959
     atom   48 type  3   force =     0.00024597   -0.00061978    0.00005148
     atom   49 type  4   force =     0.00021081    0.00096587    0.00038388
     atom   50 type  5   force =     0.00008460   -0.00012137    0.00034539
     atom   51 type  5   force =    -0.00089511   -0.00067357   -0.00005363
     atom   52 type  5   force =     0.00140140   -0.00030300    0.00003856
     atom   53 type  3   force =    -0.00652754   -0.00855721    0.00067839
     atom   54 type  5   force =     0.00033108   -0.00067781    0.00148063
     atom   55 type  5   force =     0.00662290    0.00977090   -0.00210810

     Total force =     0.367426     Total SCF correction =     0.000414
  @ DRIVER MODE: Message from server: STATUS
  @ DRIVER MODE: Message from server: GETFORCE
  @ DRIVER MODE: Returning v,forces,stress,ensemble

     Writing output data file ./calc.save/
  @ DRIVER MODE: Message from server: EXIT
  @ DRIVE MODE: Exiting

     General routines

     Parallel routines

   This run was terminated on:   1:13:41   3Aug2021

   JOB DONE.