     Program PWSCF v.6.7GPU starts on  9Sep2021 at  7:20:10

     R & G space division:  proc/nbgrp/npool/nimage =      10
     Reading input from /storage/home/hcoda1/3/ntian30/research/carbon/CxH_vib/CH2_calc/ads_slab/CH2NNHHH_a/out_0028/pw.inp
Warning: card &CELL ignored
Warning: card   CELL_DYNAMICS='IPI', ignored
Warning: card / ignored

     Current dimensions of program PWSCF are:
     Max number of different atomic species (ntypx) = 10
     Max number of k-points (npk) =  40000
     Max angular momentum in pseudopotentials (lmaxx) =  3
     Presently no symmetry can be used with electric field

     Message from routine cell_base_init:
     DEPRECATED: use true lattice parameter, not A to a.u. conversion factor

     IMPORTANT: XC functional enforced from input :
     Exchange-correlation= BEEF-VDW
                           (   1   4  43  14   2   0   0)
     Any further DFT definition will be discarded
     Please, verify this is what you really want

  @ DRIVER MODE: Connecting to
 qe_1139763_2767390.sched-torque.pace.gatech.eduzqw8f60m_scratch
  using UNIX socket
  @ DRIVER MODE: Message from server: STATUS
  @ DRIVER MODE: Message from server: INIT
  @ DRIVER MODE: Receiving replica           0          -1
  @ DRIVER MODE: Receiving encoded integer          25
  @ DRIVER MODE:  SCF:  T  FORCE:  T  STRESS:  F  VC:  F  ENSEMBLE:  F
  @ DRIVER MODE:  SCF:  T  FORCE:  T  STRESS:  F  VC:  F  ENSEMBLE:  F

     Using Slab Decomposition

     bravais-lattice index     =            0
     lattice parameter (alat)  =       1.8897  a.u.
     unit-cell volume          =    6658.9804 (a.u.)^3
     number of atoms/cell      =           55
     number of atomic types    =            5
     number of electrons       =       397.00
     number of Kohn-Sham states=          208
     kinetic-energy cutoff     =      29.3995  Ry
     charge density cutoff     =     293.9946  Ry
     scf convergence threshold =      7.3E-08
     mixing beta               =       0.0500
     number of iterations used =            8  plain     mixing
     Exchange-correlation= BEEF-VDW
                           (   1   4  43  14   2   0   0)

     celldm(1)=   1.889726  celldm(2)=   0.000000  celldm(3)=   0.000000
     celldm(4)=   0.000000  celldm(5)=   0.000000  celldm(6)=   0.000000

     crystal axes: (cart. coord. in units of alat)
               a(1) = (   6.579727   0.000000   0.000000 )
               a(2) = (  -0.000775   5.961596   0.000000 )
               a(3) = (   0.000000   0.000000  25.155947 )

     reciprocal axes: (cart. coord. in units 2 pi/alat)
               b(1) = (  0.151982  0.000020  0.000000 )
               b(2) = (  0.000000  0.167740  0.000000 )
               b(3) = (  0.000000  0.000000  0.039752 )

     PseudoPot. # 1 for Ti read from file:
     /storage/coda1/p-amedford6/0/shared/rich_project_chbe-medford/medford-share/data/pseudos_module/espresso/nninc/pbe/van/Ti.UPF
     MD5 check sum: 8e4df49b7f0d34bbd5052bf3f5ea0213
     Pseudo is Ultrasoft, Zval = 12.0
     Generated by new atomic code, or converted to UPF format
     Using radial grid of  851 points,  6 beta functions with:
                l(1) =   0
                l(2) =   0
                l(3) =   1
                l(4) =   1
                l(5) =   2
                l(6) =   2
     Q(r) pseudized with  8 coefficients,  rinner =    1.000   1.000   1.000
                                                       1.000   1.000

     PseudoPot. # 2 for O  read from file:
     /storage/coda1/p-amedford6/0/shared/rich_project_chbe-medford/medford-share/data/pseudos_module/espresso/nninc/pbe/van/O.UPF
     MD5 check sum: 78c19812648e8988a0fe644b0f25305e
     Pseudo is Ultrasoft, Zval =  6.0
     Generated by new atomic code, or converted to UPF format
     Using radial grid of  737 points,  4 beta functions with:
                l(1) =   0
                l(2) =   0
                l(3) =   1
                l(4) =   1
     Q(r) pseudized with  8 coefficients,  rinner =    0.800   0.800   0.800

     PseudoPot. # 3 for N  read from file:
     /storage/coda1/p-amedford6/0/shared/rich_project_chbe-medford/medford-share/data/pseudos_module/espresso/nninc/pbe/van/N.UPF
     MD5 check sum: 90d10febe142ad51ac9d5be1deb811c4
     Pseudo is Ultrasoft, Zval =  5.0
     Generated by new atomic code, or converted to UPF format
     Using radial grid of  729 points,  4 beta functions with:
                l(1) =   0
                l(2) =   0
                l(3) =   1
                l(4) =   1
     Q(r) pseudized with  8 coefficients,  rinner =    0.800   0.800   0.800

     PseudoPot. # 4 for C  read from file:
     /storage/coda1/p-amedford6/0/shared/rich_project_chbe-medford/medford-share/data/pseudos_module/espresso/nninc/pbe/van/C.UPF
     MD5 check sum: 1a69bf6b8db32088f5b2163dbdb77a27
     Pseudo is Ultrasoft, Zval =  4.0
     Generated by new atomic code, or converted to UPF format
     Using radial grid of  721 points,  4 beta functions with:
                l(1) =   0
                l(2) =   0
                l(3) =   1
                l(4) =   1
     Q(r) pseudized with  8 coefficients,  rinner =    0.800   0.800   0.800

     PseudoPot. # 5 for H  read from file:
     /storage/coda1/p-amedford6/0/shared/rich_project_chbe-medford/medford-share/data/pseudos_module/espresso/nninc/pbe/van/H.UPF
     MD5 check sum: b5ee9d7bfd3a09ee7748110bda690ff7
     Pseudo is Ultrasoft, Zval =  1.0
     Generated by new atomic code, or converted to UPF format
     Using radial grid of  615 points,  1 beta functions with:
                l(1) =   0
     Q(r) pseudized with  8 coefficients,  rinner =    0.800

     atomic species   valence    mass     pseudopotential
        Ti1           12.00    47.86700     Ti( 1.00)
        O1             6.00    15.99900     O ( 1.00)
        N1             5.00    14.00700     N ( 1.00)
        C1             4.00    12.01100     C ( 1.00)
        H1             1.00     1.00800     H ( 1.00)

     No symmetry found

   Cartesian axes

     site n.     atom                  positions (alat units)
         1           Ti1 tau(   1) = (   0.0004258   2.9801865   6.0000000  )
         2           Ti1 tau(   2) = (   3.2906075   1.4906267   6.0002472  )
         3           O1  tau(   3) = (   0.0006271   0.0005054   7.9858123  )
         4           O1  tau(   4) = (   3.2906025   0.0005020   7.3038282  )
         5           O1  tau(   5) = (   4.5942328   1.4918067   9.2879030  )
         6           O1  tau(   6) = (   1.9868534   1.4903216   9.2879459  )
         7           Ti1 tau(   7) = (   3.2907910   2.8959150   9.1758416  )
         8           Ti1 tau(   8) = (   0.0015273   1.4827037   9.2680791  )
         9           O1  tau(   9) = (   3.2797308   5.9473376  11.3602069  )
        10           O1  tau(  10) = (   0.0116148   5.9584955  10.6183126  )
        11           O1  tau(  11) = (   1.2902197   1.4970218  12.6485984  )
        12           O1  tau(  12) = (   5.2825647   1.4998509  12.6204812  )
        13           Ti1 tau(  13) = (   6.5707130   2.9731531  12.5352273  )
        14           Ti1 tau(  14) = (   3.2824754   1.4851695  12.4964603  )
        15           O1  tau(  15) = (   6.5335774   0.0914421  14.6722524  )
        16           O1  tau(  16) = (   3.3157438   0.0180770  13.9903400  )
        17           O1  tau(  17) = (   4.5084513   1.5196572  16.2619966  )
        18           O1  tau(  18) = (   2.0062152   1.4815140  16.1839734  )
        19           Ti1 tau(  19) = (   3.2259906   2.9465836  15.7211513  )
        20           Ti1 tau(  20) = (   6.5090593   1.4075841  16.1508600  )
        21           O1  tau(  21) = (   3.2904802   0.0005063   4.7018136  )
        22           O1  tau(  22) = (   6.5630310   5.8123487  17.2302531  )
        23           O1  tau(  23) = (   1.3043587   1.4918075   6.0039043  )
        24           O1  tau(  24) = (   5.2767064   1.4903225   6.0039473  )
        25           Ti1 tau(  25) = (   0.0000382   5.9609847   6.0000000  )
        26           Ti1 tau(  26) = (   3.2902200   4.4714249   6.0002472  )
        27           O1  tau(  27) = (   0.0002396   2.9813036   7.9858123  )
        28           O1  tau(  28) = (   3.2902150   2.9813002   7.3038282  )
        29           O1  tau(  29) = (   4.5938453   4.4726049   9.2879030  )
        30           O1  tau(  30) = (   1.9864658   4.4711199   9.2879459  )
        31           Ti1 tau(  31) = (   3.2891106   5.8743827   9.1763621  )
        32           Ti1 tau(  32) = (   0.0006254   4.4649316   9.2693709  )
        33           O1  tau(  33) = (   3.2783824   2.9878764  11.3535400  )
        34           O1  tau(  34) = (   0.0092240   2.9805883  10.6323155  )
        35           O1  tau(  35) = (   1.2857266   4.4729298  12.7006550  )
        36           O1  tau(  36) = (   5.2845514   4.4687958  12.6640455  )
        37           Ti1 tau(  37) = (   6.5734551   0.0101047  12.5124135  )
        38           Ti1 tau(  38) = (   3.2852174   4.4611384  12.5175569  )
        39           O1  tau(  39) = (   6.5279837   2.9480221  14.9030702  )
        40           O1  tau(  40) = (   3.2956390   2.9588503  13.9390168  )
        41           O1  tau(  41) = (   4.4992944   4.4159585  16.2207858  )
        42           O1  tau(  42) = (   2.0104883   4.4624356  16.0673450  )
        43           Ti1 tau(  43) = (   3.2790961   0.0058003  15.7788240  )
        44           Ti1 tau(  44) = (   0.0606790   4.6093333  15.7554573  )
        45           O1  tau(  45) = (   3.2900926   2.9813045   4.7018136  )
        46           O1  tau(  46) = (   1.3039711   4.4726057   6.0039043  )
        47           O1  tau(  47) = (   5.2763189   4.4711207   6.0039473  )
        48           N1  tau(  48) = (   0.0403274   2.7191540  18.0026804  )
        49           C1  tau(  49) = (   0.9398849   2.4944932  18.9664025  )
        50           H1  tau(  50) = (   0.9073005   3.0183022  19.9142263  )
        51           H1  tau(  51) = (   1.7098349   1.7704235  18.7615287  )
        52           N1  tau(  52) = (   5.5765855   3.6154979  18.4816711  )
        53           H1  tau(  53) = (   5.9881759   4.5320851  18.7147717  )
        54           H1  tau(  54) = (   4.9344470   3.8465857  17.6610935  )
        55           H1  tau(  55) = (   5.0674124   3.1947177  19.2767304  )

     number of k points=    10  Fermi-Dirac smearing, width (Ry)=  0.0073
                       cart. coord. in units 2pi/alat
        k(    1) = (   0.0000000   0.0000000   0.0000000), wk =   0.1250000
        k(    2) = (   0.0000000   0.0419351   0.0000000), wk =   0.2500000
        k(    3) = (   0.0000000  -0.0838702   0.0000000), wk =   0.1250000
        k(    4) = (   0.0379955   0.0000049   0.0000000), wk =   0.2500000
        k(    5) = (   0.0379955   0.0419400   0.0000000), wk =   0.2500000
        k(    6) = (   0.0379955  -0.0838652   0.0000000), wk =   0.2500000
        k(    7) = (   0.0379955  -0.0419301   0.0000000), wk =   0.2500000
        k(    8) = (  -0.0759910  -0.0000099   0.0000000), wk =   0.1250000
        k(    9) = (  -0.0759910   0.0419252   0.0000000), wk =   0.2500000
        k(   10) = (  -0.0759910  -0.0838800   0.0000000), wk =   0.1250000

     Initial potential from superposition of free atoms

     starting charge  380.99914, renormalised to  397.00000

     negative rho (up, down):  1.588E-02 0.000E+00

     %%%%%%%%%%%%%%%%%%%%%%%%%%%%%%%%%%%%%%%%%%%%%%%%%%%%%%%%%%%%%%%%%%%%%%%%
     %                                                                      %
     % You are using vdW-DF, which was implemented by the Thonhauser group. %
     % Please cite the following two papers that made this development      %
     % possible and the two reviews that describe the various versions:     %
     %                                                                      %
     %   T. Thonhauser et al., PRL 115, 136402 (2015).                      %
     %   T. Thonhauser et al., PRB 76, 125112 (2007).                       %
     %   K. Berland et al., Rep. Prog. Phys. 78, 066501 (2015).             %
     %   D.C. Langreth et al., J. Phys.: Condens. Matter 21, 084203 (2009). %
     %                                                                      %
     %                                                                      %
     % If you are calculating the stress with vdW-DF, please also cite:     %
     %                                                                      %
     %   R. Sabatini et al., J. Phys.: Condens. Matter 24, 424209 (2012).   %
     %                                                                      %
     %%%%%%%%%%%%%%%%%%%%%%%%%%%%%%%%%%%%%%%%%%%%%%%%%%%%%%%%%%%%%%%%%%%%%%%%

     Adding external electric field

     Computed dipole along edir(3) :
        Dipole              -10.3122 Ry au,        -26.2111 Debye
        Dipole field         -0.0195 Ry au,

        Potential amp.        1.8040 Ry
        Total length         46.3494 bohr

     Starting wfcs are  301 atomic wfcs
  @ DRIVER MODE: Message from server: STATUS
  @ DRIVER MODE: Message from server: POSDATA
  @ DRIVER MODE: Reading and sharing cell
  @ DRIVER MODE: Reading and sharing positions
  @ DRIVER MODE: Received positions

     Self-consistent Calculation

     iteration #  1     ecut=    29.40 Ry     beta= 0.05
     Davidson diagonalization with overlap
     c_bands:  3 eigenvalues not converged
     c_bands:  2 eigenvalues not converged
     c_bands:  3 eigenvalues not converged
     c_bands:  2 eigenvalues not converged
     c_bands:  3 eigenvalues not converged
     c_bands:  2 eigenvalues not converged
     c_bands:  3 eigenvalues not converged
     c_bands:  2 eigenvalues not converged
     c_bands:  2 eigenvalues not converged
     c_bands:  3 eigenvalues not converged
     ethr =  1.00E-05,  avg # of iterations = 20.0

[...]

     total energy              =   -2480.06396672 Ry
     estimated scf accuracy    <    5159.10730534 Ry

     iteration #  2     ecut=    29.40 Ry     beta= 0.05
     Davidson diagonalization with overlap
     ethr =  1.00E-02,  avg # of iterations = 22.3

[...]

     iteration # 77     ecut=    29.40 Ry     beta= 0.05
     Davidson diagonalization with overlap
     c_bands:  1 eigenvalues not converged
     ethr =  3.89E-10,  avg # of iterations = 12.6

[...]

     total energy              =   -2941.49071733 Ry
     estimated scf accuracy    <       0.00000009 Ry

     iteration # 84     ecut=    29.40 Ry     beta= 0.05
     Davidson diagonalization with overlap
     ethr =  2.30E-11,  avg # of iterations =  6.7

     negative rho (up, down):  1.342E-02 0.000E+00

     Adding external electric field

     Computed dipole along edir(3) :
        Dipole                1.3646 Ry au,          3.4686 Debye
        Dipole field          0.0026 Ry au,

        Potential amp.       -0.2387 Ry
        Total length         46.3494 bohr

     End of self-consistent calculation

          k = 0.0000 0.0000 0.0000 ( 18029 PWs)   bands (ev):

   -55.2826 -55.2438 -55.2436 -55.2096 -55.1582 -55.1563 -55.1197 -55.0929
   -55.0755 -55.0744 -55.0582 -55.0411 -54.9550 -54.7904 -54.2621 -54.2281
   -31.8548 -31.7345 -31.6447 -31.6095 -31.5827 -31.5801 -31.5776 -31.5334
   -31.5306 -31.4905 -31.4888 -31.4881 -31.4563 -31.4530 -31.4390 -31.4175
   -31.4023 -31.3974 -31.3931 -31.3918 -31.3560 -31.3506 -31.3370 -31.3236
   -31.3007 -31.2955 -31.2892 -31.2851 -31.2726 -31.2694 -31.2597 -31.2497
   -31.2429 -31.2375 -31.2079 -31.2034 -31.1964 -31.1842 -31.1473 -31.1044
   -31.0609 -30.9316 -30.6709 -30.5781 -30.5560 -30.4874 -30.4006 -30.2897
   -19.2004 -16.1244 -15.8621 -15.7341 -15.5428 -15.4765 -15.3810 -15.2436
   -15.1920 -15.1313 -15.0814 -15.0414 -15.0280 -14.9624 -14.9053 -14.8168
   -14.8151 -14.7993 -14.7883 -14.7765 -14.7729 -14.7107 -14.7080 -14.6807
   -14.6662 -14.6559 -14.5153 -14.4313 -14.3697 -14.2932 -14.0248 -12.7646
   -12.6474  -9.1210  -7.8078  -7.1044  -5.9977  -3.8344  -3.4621  -3.2893
    -3.2429  -3.2023  -3.1774  -3.0089  -2.9273  -2.6599  -2.5920  -2.5524
    -2.5047  -2.4935  -2.4679  -2.2960  -2.2660  -2.2258  -2.1894  -2.1658
    -2.1255  -2.0975  -2.0816  -2.0524  -2.0394  -2.0373  -1.8555  -1.7844
    -1.7645  -1.7039  -1.6837  -1.6674  -1.6101  -1.5809  -1.5679  -1.5656
    -1.5430  -1.5256  -1.5038  -1.4601  -1.3736  -1.2817  -1.2373  -1.2170
    -1.1037  -1.0392  -0.9141  -0.8713  -0.8576  -0.8302  -0.7586  -0.6924
    -0.6643  -0.6287  -0.4895  -0.4844  -0.3997  -0.3899  -0.3166  -0.3000
    -0.2599  -0.2141  -0.1032  -0.0693  -0.0477   0.0032   0.0673   0.0891
     0.1712   0.2254   0.2820   0.2960   0.3754   0.4150   0.4532   0.4749
     0.5614   0.6036   0.6631   0.6694   0.7065   0.7099   0.7345   0.8214
     0.8348   0.8544   0.8954   1.0646   1.2652   1.3171   1.3378   1.6706
     1.6898   1.7606   1.9460   2.3354   2.3830   3.8185   3.8840   3.9545
     3.9689   3.9794   4.0505   4.0946   4.2859   4.3149   4.3179   4.3386

[...]

          k = 0.0380-0.0419 0.0000 ( 17876 PWs)   bands (ev):

[...]

          k =-0.0760-0.0000 0.0000 ( 17886 PWs)   bands (ev):

[...]

          k =-0.0760-0.0839 0.0000 ( 17948 PWs)   bands (ev):

   -55.2705 -55.2555 -55.2267 -55.2266 -55.1545 -55.1444 -55.1315 -55.0791
   -55.0766 -55.0737 -55.0584 -55.0577 -54.9534 -54.7919 -54.2451 -54.2450
   -31.6643 -31.6514 -31.5774 -31.5496 -31.5496 -31.5458 -31.5188 -31.5188
   -31.4913 -31.4828 -31.4782 -31.4744 -31.4200 -31.4112 -31.4111 -31.4076
   -31.4056 -31.4014 -31.3948 -31.3798 -31.3674 -31.3569 -31.3526 -31.3460
   -31.3459 -31.3439 -31.3425 -31.3267 -31.3101 -31.3070 -31.2907 -31.2879
   -31.2831 -31.2814 -31.2813 -31.2499 -31.2387 -31.2374 -31.1646 -31.0911
   -31.0618 -31.0094 -30.5687 -30.5687 -30.4835 -30.4834 -30.4440 -30.4440
   -19.1966 -15.5895 -15.5130 -15.4577 -15.3672 -15.2893 -15.2693 -15.2595
   -15.2261 -15.1594 -15.1361 -15.0711 -15.0360 -14.9902 -14.9873 -14.9723
   -14.8876 -14.8684 -14.8533 -14.8491 -14.7880 -14.7866 -14.7597 -14.7372
   -14.7305 -14.7268 -14.6271 -14.6261 -14.4628 -14.4390 -14.2062 -12.7489
   -12.7489  -9.1085  -7.8171  -7.0892  -6.0079  -3.8568  -2.8508  -2.7642
    -2.6748  -2.5182  -2.4809  -2.4710  -2.4157  -2.3250  -2.2992  -2.2859
    -2.2655  -2.2583  -2.1856  -2.1804  -2.1365  -2.1147  -2.1037  -2.0979
    -2.0641  -2.0510  -2.0377  -2.0005  -1.9920  -1.9762  -1.9417  -1.9219
    -1.8976  -1.8700  -1.8558  -1.8262  -1.7024  -1.6733  -1.6300  -1.5698
    -1.5429  -1.4757  -1.4704  -1.3748  -1.3562  -1.3456  -1.3043  -1.2901
    -1.2731  -1.1078  -1.0626  -1.0275  -1.0157  -1.0099  -0.8542  -0.8375
    -0.7694  -0.7543  -0.7390  -0.6627  -0.6210  -0.6068  -0.5249  -0.4851
    -0.4550  -0.4344  -0.2922  -0.2798  -0.2541  -0.2394  -0.2328  -0.1402
    -0.1198  -0.0838  -0.0496  -0.0116   0.0048   0.0639   0.2170   0.2437
     0.2808   0.4253   0.4401   0.5255   0.5729   0.6998   0.7647   0.7668
     0.8481   0.9181   1.0201   1.0326   1.0519   1.1378   1.1839   1.1889
     1.1901   2.1187   2.1195   2.2029   2.2032   3.6965   3.9580   4.0803
     4.0866   4.1289   4.2513   4.3353   4.3586   4.3965   4.3989   4.4725

     the Fermi energy is     3.8734 ev

!    total energy              =   -2941.49072374 Ry
     estimated scf accuracy    <       0.00000005 Ry
     smearing contrib. (-TS)   =      -0.04235757 Ry
     internal energy E=F+TS    =   -2941.44836616 Ry

     The total energy is F=E-TS. E is the sum of the following terms:
     one-electron contribution =  -23921.92720375 Ry
     hartree contribution      =   12054.14962018 Ry
     xc contribution           =    -486.85972161 Ry
     ewald contribution        =    9413.18542471 Ry
     electric field correction =       0.00351431 Ry

     convergence has been achieved in  84 iterations

     Forces acting on atoms (cartesian axes, Ry/au):

     atom    1 type  1   force =     0.00016600   -0.00016959    0.09405483
     atom    2 type  1   force =    -0.00005348   -0.00043134   -0.17754819
     atom    3 type  2   force =     0.00006567   -0.00004736   -0.02099324
     atom    4 type  2   force =     0.00001710   -0.00180273    0.05733367
     atom    5 type  2   force =    -0.01085842   -0.00091044    0.00783087
     atom    6 type  2   force =     0.01206982   -0.00034008    0.00622795
     atom    7 type  1   force =    -0.00065506    0.00290007   -0.01527488
     atom    8 type  1   force =     0.00058987    0.00234046    0.00236135
     atom    9 type  2   force =    -0.00010391    0.00013299    0.00093213
     atom   10 type  2   force =    -0.00165413   -0.00049852   -0.00378801
     atom   11 type  2   force =    -0.00004734   -0.00023591    0.00020512
     atom   12 type  2   force =    -0.00019163   -0.00039855    0.00027584
     atom   13 type  1   force =     0.00042251    0.00108753    0.00059804
     atom   14 type  1   force =     0.00019978   -0.00061761    0.00036470
     atom   15 type  2   force =    -0.00017139    0.00033735    0.00054078
     atom   16 type  2   force =    -0.00016914   -0.00024039   -0.00119633
     atom   17 type  2   force =     0.00000592   -0.00023228    0.00016515
     atom   18 type  2   force =    -0.00079765   -0.00033293    0.00013503
     atom   19 type  1   force =    -0.00047484    0.00113427   -0.00049567
     atom   20 type  1   force =    -0.00046783    0.00125575   -0.00120170
     atom   21 type  2   force =     0.00010819   -0.00004052    0.10376580
     atom   22 type  2   force =     0.00032139    0.00068645    0.00015392
     atom   23 type  2   force =    -0.07063498   -0.00018774   -0.02706481
     atom   24 type  2   force =     0.07057998    0.00028835   -0.02710208
     atom   25 type  1   force =     0.00014510   -0.00024768    0.09337522
     atom   26 type  1   force =    -0.00001333   -0.00037266   -0.17776150
     atom   27 type  2   force =     0.00010888   -0.00039954   -0.02000562
     atom   28 type  2   force =     0.00003423   -0.00146683    0.05681488
     atom   29 type  2   force =    -0.01075773   -0.00066174    0.00675037
     atom   30 type  2   force =     0.01187469   -0.00016719    0.00510604
     atom   31 type  1   force =    -0.00062789    0.00410323   -0.01559563
     atom   32 type  1   force =     0.00067221   -0.00278886    0.00212444
     atom   33 type  2   force =     0.00015416   -0.00022204   -0.00058117
     atom   34 type  2   force =    -0.00109104    0.00272382   -0.00201490
     atom   35 type  2   force =     0.00009083    0.00019792    0.00009849
     atom   36 type  2   force =    -0.00033083    0.00033808   -0.00007354
     atom   37 type  1   force =     0.00046762   -0.00008498    0.00029898
     atom   38 type  1   force =     0.00009819    0.00088989    0.00015497
     atom   39 type  2   force =    -0.00003876   -0.00094870    0.00041383
     atom   40 type  2   force =    -0.00024125   -0.00043756    0.00060652
     atom   41 type  2   force =    -0.00052922   -0.00008825   -0.00067939
     atom   42 type  2   force =     0.00010548   -0.00000149    0.00025156
     atom   43 type  1   force =     0.00006602   -0.00149219    0.00083107
     atom   44 type  1   force =    -0.00009973   -0.00081723   -0.00140147
     atom   45 type  2   force =     0.00009622   -0.00008195    0.10374722
     atom   46 type  2   force =    -0.07065020   -0.00008817   -0.02707255
     atom   47 type  2   force =     0.07060085    0.00029593   -0.02710889
     atom   48 type  3   force =    -0.00230471    0.00324819    0.00043921
     atom   49 type  4   force =    -0.00058754    0.00010053    0.00156822
     atom   50 type  5   force =     0.00100907    0.00005959   -0.00106520
     atom   51 type  5   force =    -0.00036514    0.00040442   -0.00021713
     atom   52 type  3   force =    -0.00332633   -0.02049647    0.00316284
     atom   53 type  5   force =     0.00442350    0.00832776    0.00169384
     atom   54 type  5   force =    -0.00027524    0.00201332    0.00004540
     atom   55 type  5   force =     0.00302547    0.00448360   -0.00418639

     Total force =     0.366524     Total SCF correction =     0.000427
  @ DRIVER MODE: Message from server: STATUS
  @ DRIVER MODE: Message from server: GETFORCE
  @ DRIVER MODE: Returning v,forces,stress,ensemble

     Writing output data file ./calc.save/
  @ DRIVER MODE: Message from server: EXIT
  @ DRIVE MODE: Exiting

     General routines

     Parallel routines

   This run was terminated on:   7:42:11   9Sep2021

   JOB DONE.