     Program PWSCF v.6.7GPU starts on 28Sep2021 at  6:14:47

     R & G space division:  proc/nbgrp/npool/nimage =       8
     Reading input from /storage/home/hcoda1/3/ntian30/research/carbon/CxH_vib/H2O_calc/ads_slab/CHN2HO_c/out_0022/pw.inp
Warning: card &CELL ignored
Warning: card   CELL_DYNAMICS='IPI', ignored
Warning: card / ignored

     Current dimensions of program PWSCF are:
     Max number of different atomic species (ntypx) = 10
     Max number of k-points (npk) =  40000
     Max angular momentum in pseudopotentials (lmaxx) =  3
     Presently no symmetry can be used with electric field

     Message from routine cell_base_init:
     DEPRECATED: use true lattice parameter, not A to a.u. conversion factor

     IMPORTANT: XC functional enforced from input :
     Exchange-correlation= BEEF-VDW
                           (   1   4  43  14   2   0   0)
     Any further DFT definition will be discarded
     Please, verify this is what you really want

  @ DRIVER MODE: Connecting to
 qe_1139763_3003540.sched-torque.pace.gatech.edupon55i4n_scratch
  using UNIX socket
  @ DRIVER MODE: Message from server: STATUS
  @ DRIVER MODE: Message from server: INIT
  @ DRIVER MODE: Receiving replica           0          -1
  @ DRIVER MODE: Receiving encoded integer          25
  @ DRIVER MODE:  SCF:  T  FORCE:  T  STRESS:  F  VC:  F  ENSEMBLE:  F
  @ DRIVER MODE:  SCF:  T  FORCE:  T  STRESS:  F  VC:  F  ENSEMBLE:  F

     Using Slab Decomposition

     bravais-lattice index     =            0
     lattice parameter (alat)  =       1.8897  a.u.
     unit-cell volume          =    6658.9804 (a.u.)^3
     number of atoms/cell      =           53
     number of atomic types    =            5
     number of electrons       =       400.00
     number of Kohn-Sham states=          210
     kinetic-energy cutoff     =      29.3995  Ry
     charge density cutoff     =     293.9946  Ry
     scf convergence threshold =      7.3E-08
     mixing beta               =       0.0500
     number of iterations used =            8  plain     mixing
     Exchange-correlation= BEEF-VDW
                           (   1   4  43  14   2   0   0)

     celldm(1)=   1.889726  celldm(2)=   0.000000  celldm(3)=   0.000000
     celldm(4)=   0.000000  celldm(5)=   0.000000  celldm(6)=   0.000000

     crystal axes: (cart. coord. in units of alat)
               a(1) = (   6.579727   0.000000   0.000000 )
               a(2) = (  -0.000775   5.961596   0.000000 )
               a(3) = (   0.000000   0.000000  25.155947 )

     reciprocal axes: (cart. coord. in units 2 pi/alat)
               b(1) = (  0.151982  0.000020  0.000000 )
               b(2) = (  0.000000  0.167740  0.000000 )
               b(3) = (  0.000000  0.000000  0.039752 )

     PseudoPot. # 1 for Ti read from file:
     /storage/coda1/p-amedford6/0/shared/rich_project_chbe-medford/medford-share/data/pseudos_module/espresso/nninc/pbe/van/Ti.UPF
     MD5 check sum: 8e4df49b7f0d34bbd5052bf3f5ea0213
     Pseudo is Ultrasoft, Zval = 12.0
     Generated by new atomic code, or converted to UPF format
     Using radial grid of  851 points,  6 beta functions with:
                l(1) =   0
                l(2) =   0
                l(3) =   1
                l(4) =   1
                l(5) =   2
                l(6) =   2
     Q(r) pseudized with  8 coefficients,  rinner =    1.000   1.000   1.000
                                                       1.000   1.000

     PseudoPot. # 2 for O  read from file:
     /storage/coda1/p-amedford6/0/shared/rich_project_chbe-medford/medford-share/data/pseudos_module/espresso/nninc/pbe/van/O.UPF
     MD5 check sum: 78c19812648e8988a0fe644b0f25305e
     Pseudo is Ultrasoft, Zval =  6.0
     Generated by new atomic code, or converted to UPF format
     Using radial grid of  737 points,  4 beta functions with:
                l(1) =   0
                l(2) =   0
                l(3) =   1
                l(4) =   1
     Q(r) pseudized with  8 coefficients,  rinner =    0.800   0.800   0.800

     PseudoPot. # 3 for C  read from file:
     /storage/coda1/p-amedford6/0/shared/rich_project_chbe-medford/medford-share/data/pseudos_module/espresso/nninc/pbe/van/C.UPF
     MD5 check sum: 1a69bf6b8db32088f5b2163dbdb77a27
     Pseudo is Ultrasoft, Zval =  4.0
     Generated by new atomic code, or converted to UPF format
     Using radial grid of  721 points,  4 beta functions with:
                l(1) =   0
                l(2) =   0
                l(3) =   1
                l(4) =   1
     Q(r) pseudized with  8 coefficients,  rinner =    0.800   0.800   0.800

     PseudoPot. # 4 for H  read from file:
     /storage/coda1/p-amedford6/0/shared/rich_project_chbe-medford/medford-share/data/pseudos_module/espresso/nninc/pbe/van/H.UPF
     MD5 check sum: b5ee9d7bfd3a09ee7748110bda690ff7
     Pseudo is Ultrasoft, Zval =  1.0
     Generated by new atomic code, or converted to UPF format
     Using radial grid of  615 points,  1 beta functions with:
                l(1) =   0
     Q(r) pseudized with  8 coefficients,  rinner =    0.800

     PseudoPot. # 5 for N  read from file:
     /storage/coda1/p-amedford6/0/shared/rich_project_chbe-medford/medford-share/data/pseudos_module/espresso/nninc/pbe/van/N.UPF
     MD5 check sum: 90d10febe142ad51ac9d5be1deb811c4
     Pseudo is Ultrasoft, Zval =  5.0
     Generated by new atomic code, or converted to UPF format
     Using radial grid of  729 points,  4 beta functions with:
                l(1) =   0
                l(2) =   0
                l(3) =   1
                l(4) =   1
     Q(r) pseudized with  8 coefficients,  rinner =    0.800   0.800   0.800

     atomic species   valence    mass     pseudopotential
        Ti1           12.00    47.86700     Ti( 1.00)
        O1             6.00    15.99900     O ( 1.00)
        C1             4.00    12.01100     C ( 1.00)
        H1             1.00     1.00800     H ( 1.00)
        N1             5.00    14.00700     N ( 1.00)

     No symmetry found

   Cartesian axes

     site n.     atom                  positions (alat units)
         1           Ti1 tau(   1) = (   0.0004258   2.9801865   6.0000000  )
         2           Ti1 tau(   2) = (   3.2906075   1.4906267   6.0002472  )
         3           O1  tau(   3) = (   0.0006271   0.0005054   7.9858123  )
         4           O1  tau(   4) = (   3.2906025   0.0005020   7.3038282  )
         5           O1  tau(   5) = (   4.5942328   1.4918067   9.2879030  )
         6           O1  tau(   6) = (   1.9868534   1.4903216   9.2879459  )
         7           Ti1 tau(   7) = (   3.2907910   2.8959150   9.1758416  )
         8           Ti1 tau(   8) = (   0.0015273   1.4827037   9.2680791  )
         9           O1  tau(   9) = (   3.2766663   5.9464886  11.2681881  )
        10           O1  tau(  10) = (   0.0116148   5.9584955  10.6183126  )
        11           O1  tau(  11) = (   1.2752176   1.4923442  12.6271229  )
        12           O1  tau(  12) = (   5.2852060   1.4859299  12.6156521  )
        13           Ti1 tau(  13) = (   6.5717068   2.8472942  12.7124165  )
        14           Ti1 tau(  14) = (   3.2754330   1.3122793  12.6492615  )
        15           O1  tau(  15) = (   6.5604847   5.9612185  14.6398873  )
        16           O1  tau(  16) = (   3.2770837   0.0341078  13.8632434  )
        17           O1  tau(  17) = (   4.5026011   1.5263741  16.0779633  )
        18           O1  tau(  18) = (   1.9856211   1.5373541  16.0544900  )
        19           Ti1 tau(  19) = (   3.2645371   3.0024783  15.6402076  )
        20           Ti1 tau(  20) = (   0.0306923   1.4636683  15.8866077  )
        21           O1  tau(  21) = (   3.2904802   0.0005063   4.7018136  )
        22           O1  tau(  22) = (   6.5250562   0.0096470  17.1651689  )
        23           O1  tau(  23) = (   1.3043587   1.4918075   6.0039043  )
        24           O1  tau(  24) = (   5.2767064   1.4903225   6.0039473  )
        25           Ti1 tau(  25) = (   0.0000382   5.9609847   6.0000000  )
        26           Ti1 tau(  26) = (   3.2902200   4.4714249   6.0002472  )
        27           O1  tau(  27) = (   0.0002396   2.9813036   7.9858123  )
        28           O1  tau(  28) = (   3.2902150   2.9813002   7.3038282  )
        29           O1  tau(  29) = (   4.5938453   4.4726049   9.2879030  )
        30           O1  tau(  30) = (   1.9864658   4.4711199   9.2879459  )
        31           Ti1 tau(  31) = (   3.2891106   5.8743827   9.1763621  )
        32           Ti1 tau(  32) = (   0.0006254   4.4649316   9.2693709  )
        33           O1  tau(  33) = (   3.2790072   3.0290766  11.2406627  )
        34           O1  tau(  34) = (   0.0092240   2.9805883  10.6323155  )
        35           O1  tau(  35) = (   1.2722205   4.4691906  12.6310473  )
        36           O1  tau(  36) = (   5.2766839   4.4717175  12.6187613  )
        37           Ti1 tau(  37) = (   6.5522158   5.8291752  12.6058762  )
        38           Ti1 tau(  38) = (   3.2615408   4.4097241  12.4102932  )
        39           O1  tau(  39) = (   6.5509886   2.9451087  14.6802276  )
        40           O1  tau(  40) = (   3.2772003   2.9821494  13.8576607  )
        41           O1  tau(  41) = (   4.5331312   4.4179464  16.0511208  )
        42           O1  tau(  42) = (   2.0062445   4.4387243  16.0647957  )
        43           Ti1 tau(  43) = (   3.2965114   0.0079596  16.3395523  )
        44           Ti1 tau(  44) = (   6.5556523   4.6042306  16.0453395  )
        45           O1  tau(  45) = (   3.2900926   2.9813045   4.7018136  )
        46           O1  tau(  46) = (   1.3039711   4.4726057   6.0039043  )
        47           O1  tau(  47) = (   5.2763189   4.4711207   6.0039473  )
        48           C1  tau(  48) = (   0.0539703   2.9674629  17.6512085  )
        49           H1  tau(  49) = (   1.0088706   2.9548903  18.1741722  )
        50           N1  tau(  50) = (   5.6350074   2.8816608  18.4775489  )
        51           N1  tau(  51) = (   4.6939826   2.7987373  19.1166784  )
        52           O1  tau(  52) = (   3.2898008   5.9156070  18.1392511  )
        53           H1  tau(  53) = (   3.8410492   0.4763436  18.7420070  )

     number of k points=    10  Fermi-Dirac smearing, width (Ry)=  0.0073
                       cart. coord. in units 2pi/alat
        k(    1) = (   0.0000000   0.0000000   0.0000000), wk =   0.1250000
        k(    2) = (   0.0000000   0.0419351   0.0000000), wk =   0.2500000
        k(    3) = (   0.0000000  -0.0838702   0.0000000), wk =   0.1250000
        k(    4) = (   0.0379955   0.0000049   0.0000000), wk =   0.2500000
        k(    5) = (   0.0379955   0.0419400   0.0000000), wk =   0.2500000
        k(    6) = (   0.0379955  -0.0838652   0.0000000), wk =   0.2500000
        k(    7) = (   0.0379955  -0.0419301   0.0000000), wk =   0.2500000
        k(    8) = (  -0.0759910  -0.0000099   0.0000000), wk =   0.1250000
        k(    9) = (  -0.0759910   0.0419252   0.0000000), wk =   0.2500000
        k(   10) = (  -0.0759910  -0.0838800   0.0000000), wk =   0.1250000

     Initial potential from superposition of free atoms

     starting charge  383.99917, renormalised to  400.00000

     negative rho (up, down):  1.800E-02 0.000E+00

     %%%%%%%%%%%%%%%%%%%%%%%%%%%%%%%%%%%%%%%%%%%%%%%%%%%%%%%%%%%%%%%%%%%%%%%%
     %                                                                      %
     % You are using vdW-DF, which was implemented by the Thonhauser group. %
     % Please cite the following two papers that made this development      %
     % possible and the two reviews that describe the various versions:     %
     %                                                                      %
     %   T. Thonhauser et al., PRL 115, 136402 (2015).                      %
     %   T. Thonhauser et al., PRB 76, 125112 (2007).                       %
     %   K. Berland et al., Rep. Prog. Phys. 78, 066501 (2015).             %
     %   D.C. Langreth et al., J. Phys.: Condens. Matter 21, 084203 (2009). %
     %                                                                      %
     %                                                                      %
     % If you are calculating the stress with vdW-DF, please also cite:     %
     %                                                                      %
     %   R. Sabatini et al., J. Phys.: Condens. Matter 24, 424209 (2012).   %
     %                                                                      %
     %%%%%%%%%%%%%%%%%%%%%%%%%%%%%%%%%%%%%%%%%%%%%%%%%%%%%%%%%%%%%%%%%%%%%%%%

     Adding external electric field

     Computed dipole along edir(3) :
        Dipole              -10.2460 Ry au,        -26.0427 Debye
        Dipole field         -0.0193 Ry au,

        Potential amp.        1.7924 Ry
        Total length         46.3494 bohr

     Starting wfcs are  302 atomic wfcs
  @ DRIVER MODE: Message from server: STATUS
  @ DRIVER MODE: Message from server: POSDATA
  @ DRIVER MODE: Reading and sharing cell
  @ DRIVER MODE: Reading and sharing positions
  @ DRIVER MODE: Received positions

     Self-consistent Calculation

     iteration #  1     ecut=    29.40 Ry     beta= 0.05
     Davidson diagonalization with overlap
     c_bands:  2 eigenvalues not converged
     c_bands:  1 eigenvalues not converged
     c_bands:  2 eigenvalues not converged
     c_bands:  2 eigenvalues not converged
     c_bands:  3 eigenvalues not converged
     c_bands:  2 eigenvalues not converged
     c_bands:  1 eigenvalues not converged
     c_bands:  1 eigenvalues not converged
     ethr =  1.00E-05,  avg # of iterations = 19.5

[...]

     total energy              =   -2480.02582502 Ry
     estimated scf accuracy    <    5461.73773550 Ry

     iteration #  2     ecut=    29.40 Ry     beta= 0.05
     Davidson diagonalization with overlap
     ethr =  1.00E-02,  avg # of iterations = 24.9

[...]

     iteration # 60     ecut=    29.40 Ry     beta= 0.05
     Davidson diagonalization with overlap
     c_bands:  2 eigenvalues not converged
     ethr =  4.37E-10,  avg # of iterations =  3.8

[...]

     total energy              =   -2970.23703111 Ry
     estimated scf accuracy    <       0.00000012 Ry

     iteration # 66     ecut=    29.40 Ry     beta= 0.05
     Davidson diagonalization with overlap
     ethr =  3.03E-11,  avg # of iterations =  5.7

     negative rho (up, down):  1.779E-02 0.000E+00

     Adding external electric field

     Computed dipole along edir(3) :
        Dipole                0.0362 Ry au,          0.0921 Debye
        Dipole field          0.0001 Ry au,

        Potential amp.       -0.0063 Ry
        Total length         46.3494 bohr

     End of self-consistent calculation

          k = 0.0000 0.0000 0.0000 ( 18029 PWs)   bands (ev):

   -56.8985 -56.8649 -56.1321 -56.0963 -55.8744 -55.8130 -55.7061 -55.5577
   -55.5015 -55.4932 -55.4810 -55.4676 -55.4413 -55.4278 -55.2431 -55.2282
   -33.3240 -33.1777 -33.1496 -33.0709 -32.9802 -32.9503 -32.6151 -32.3536
   -32.3520 -32.3229 -32.2735 -32.2713 -32.2402 -32.1055 -32.0942 -32.0412
   -32.0389 -32.0380 -32.0170 -31.9760 -31.9699 -31.9278 -31.9273 -31.8990
   -31.8863 -31.8542 -31.8454 -31.8256 -31.8210 -31.7659 -31.7113 -31.7096
   -31.6973 -31.6921 -31.6819 -31.6755 -31.6527 -31.6463 -31.6328 -31.6269
   -31.6192 -31.5151 -31.4935 -31.4804 -31.4721 -31.4673 -31.4373 -31.4331
   -20.4063 -17.0442 -16.5569 -16.5168 -16.2428 -16.2162 -16.1406 -16.1266
   -16.1206 -15.8609 -15.8341 -15.8104 -15.7433 -15.6937 -15.5199 -15.4233
   -15.3576 -15.2654 -15.1983 -15.1786 -15.1741 -15.1450 -15.1241 -15.1204
   -15.0325 -15.0248 -14.9141 -14.8177 -14.7721 -14.5219 -14.4780 -13.9988
   -13.8905 -13.4228  -5.5831  -4.6071  -4.5517  -4.4135  -4.1862  -4.0427
    -3.8630  -3.6683  -3.6157  -3.4613  -3.4489  -3.3888  -3.3441  -3.3273
    -3.2351  -3.1424  -3.0586  -3.0585  -3.0342  -2.9658  -2.9394  -2.7806
    -2.7788  -2.7679  -2.6445  -2.5934  -2.5392  -2.4922  -2.4805  -2.4348
    -2.4110  -2.3999  -2.3517  -2.3027  -2.2958  -2.1640  -2.1215  -2.0975
    -2.0455  -1.9867  -1.9704  -1.8956  -1.8777  -1.8545  -1.6863  -1.6196
    -1.5785  -1.5269  -1.4970  -1.4712  -1.3321  -1.3006  -1.2026  -1.1997
    -1.1613  -1.1124  -1.0555  -1.0347  -0.9658  -0.8754  -0.8611  -0.8500
    -0.7760  -0.6971  -0.6190  -0.5756  -0.5088  -0.4988  -0.4812  -0.4489
    -0.4388  -0.3460  -0.3002  -0.2530  -0.1662  -0.1383  -0.0117  -0.0019
     0.0632   0.1114   0.1312   0.1631   0.1760   0.2061   0.2762   0.3435
     0.3692   0.3968   0.5206   0.5289   0.5796   0.5951   0.7107   0.7338
     0.7430   0.7921   0.8580   0.9313   1.0565   1.0976   1.3642   1.9260
     2.3803   2.5400   2.8200   2.9063   3.2147   3.3626   3.3681   3.3776
     3.5534   3.6795

[...]

          k = 0.0380-0.0419 0.0000 ( 17876 PWs)   bands (ev):

[...]

          k =-0.0760-0.0000 0.0000 ( 17886 PWs)   bands (ev):

[...]

          k =-0.0760-0.0839 0.0000 ( 17948 PWs)   bands (ev):

   -56.8821 -56.8811 -56.1204 -56.1078 -55.8693 -55.8180 -55.7052 -55.5536
   -55.4938 -55.4850 -55.4849 -55.4839 -55.4400 -55.4263 -55.2445 -55.2294
   -33.1639 -33.1628 -33.1415 -33.1403 -33.0244 -33.0238 -32.4411 -32.4306
   -32.3145 -32.3016 -32.3010 -32.2928 -32.1764 -32.1358 -32.0992 -32.0899
   -32.0452 -32.0390 -31.9958 -31.9551 -31.9155 -31.8843 -31.8614 -31.8345
   -31.8337 -31.8252 -31.8142 -31.8123 -31.7798 -31.7735 -31.7570 -31.7203
   -31.7073 -31.7056 -31.7009 -31.6823 -31.6790 -31.6685 -31.6672 -31.6564
   -31.6407 -31.6167 -31.5798 -31.5322 -31.4936 -31.4826 -31.4623 -31.4411
   -20.4058 -16.5076 -16.4162 -16.4130 -16.3481 -16.3462 -16.1216 -16.1155
   -15.8964 -15.8639 -15.7561 -15.6646 -15.5969 -15.5441 -15.5393 -15.4982
   -15.4029 -15.3879 -15.3237 -15.2836 -15.2688 -15.2034 -15.1793 -15.1372
   -15.1298 -15.0948 -14.9542 -14.8973 -14.8715 -14.7295 -14.6184 -13.9948
   -13.9941 -13.4290  -5.5853  -4.5563  -4.3667  -4.1709  -3.4994  -3.4804
    -3.4692  -3.4627  -3.2351  -3.2206  -3.2081  -3.1055  -3.0835  -3.0528
    -2.9909  -2.9881  -2.8859  -2.8306  -2.8004  -2.7919  -2.7760  -2.7199
    -2.7176  -2.6973  -2.6504  -2.5575  -2.5482  -2.5164  -2.4943  -2.4424
    -2.3628  -2.3302  -2.3099  -2.2866  -2.2763  -2.2685  -2.2452  -2.2103
    -2.1453  -1.9604  -1.9234  -1.8826  -1.8427  -1.7998  -1.7889  -1.7211
    -1.7117  -1.6928  -1.6497  -1.5659  -1.5408  -1.5029  -1.4979  -1.4172
    -1.3668  -1.3444  -1.2885  -1.2279  -1.1179  -1.0579  -1.0237  -1.0136
    -0.9995  -0.9725  -0.9006  -0.8273  -0.7784  -0.7023  -0.6724  -0.6533
    -0.6195  -0.5947  -0.5309  -0.5178  -0.4264  -0.3719  -0.2723  -0.2041
    -0.1728  -0.1232  -0.0933  -0.0182   0.0527   0.1400   0.1699   0.2371
     0.2474   0.3000   0.3365   0.5177   0.6244   0.6512   0.6835   0.8045
     0.8169   0.8499   0.9013   0.9050   0.9058   0.9440   0.9886   1.8856
     2.9603   2.9630   3.0176   3.0243   3.3167   3.3248   3.4329   3.4371
     3.6550   3.6781

     the Fermi energy is     2.2110 ev

!    total energy              =   -2970.23706033 Ry
     estimated scf accuracy    <       0.00000007 Ry
     smearing contrib. (-TS)   =      -0.00496010 Ry
     internal energy E=F+TS    =   -2970.23210022 Ry

     The total energy is F=E-TS. E is the sum of the following terms:
     one-electron contribution =  -23890.98273980 Ry
     hartree contribution      =   12034.97074075 Ry
     xc contribution           =    -491.37738978 Ry
     ewald contribution        =    9377.15728613 Ry
     electric field correction =       0.00000248 Ry

     convergence has been achieved in  66 iterations

     Forces acting on atoms (cartesian axes, Ry/au):

     atom    1 type  1   force =     0.00016476   -0.00041991    0.12033855
     atom    2 type  1   force =    -0.00005495    0.00015754   -0.15700365
     atom    3 type  2   force =     0.00002008   -0.00007332   -0.05923296
     atom    4 type  2   force =     0.00000275    0.00008460    0.02056204
     atom    5 type  2   force =    -0.00370479   -0.00202114   -0.01102584
     atom    6 type  2   force =     0.00483101   -0.00123521   -0.01301880
     atom    7 type  1   force =    -0.00068498   -0.00618278    0.05340476
     atom    8 type  1   force =     0.00116341    0.01366805    0.08840388
     atom    9 type  2   force =    -0.00013057   -0.00125841    0.00077980
     atom   10 type  2   force =    -0.00301390    0.00052641   -0.05509827
     atom   11 type  2   force =    -0.00000186    0.00031019    0.00022055
     atom   12 type  2   force =    -0.00048513   -0.00023467   -0.00030496
     atom   13 type  1   force =    -0.00070802    0.00115459   -0.00084949
     atom   14 type  1   force =    -0.00005350   -0.00122083   -0.00013682
     atom   15 type  2   force =     0.00015781    0.00044092   -0.00029862
     atom   16 type  2   force =     0.00059518   -0.00076548   -0.00061881
     atom   17 type  2   force =     0.00049788    0.00047443   -0.00024661
     atom   18 type  2   force =     0.00012744    0.00042115   -0.00083886
     atom   19 type  1   force =     0.00016076    0.00002653    0.00059368
     atom   20 type  1   force =     0.00058869   -0.00056855    0.00030425
     atom   21 type  2   force =     0.00009678    0.00021658    0.09833748
     atom   22 type  2   force =     0.00022780   -0.00005412    0.00081523
     atom   23 type  2   force =    -0.08117464    0.00005311   -0.03238184
     atom   24 type  2   force =     0.08116304    0.00049825   -0.03237635
     atom   25 type  1   force =     0.00015777   -0.00060317    0.12072242
     atom   26 type  1   force =     0.00007236   -0.00143549   -0.15746724
     atom   27 type  2   force =     0.00009899   -0.00078274   -0.05736838
     atom   28 type  2   force =     0.00003843    0.00183093    0.01624643
     atom   29 type  2   force =    -0.00203989    0.00509094   -0.01430450
     atom   30 type  2   force =     0.00292334    0.00551902   -0.01631925
     atom   31 type  1   force =    -0.00058321    0.00198955    0.03656418
     atom   32 type  1   force =     0.00117326   -0.01696545    0.08809043
     atom   33 type  2   force =    -0.00003364    0.00049884    0.00107930
     atom   34 type  2   force =    -0.00260333    0.00100834   -0.07063555
     atom   35 type  2   force =     0.00135508   -0.00051096    0.00039202
     atom   36 type  2   force =    -0.00024029   -0.00017942    0.00025473
     atom   37 type  1   force =    -0.00061311   -0.00039158    0.00013761
     atom   38 type  1   force =     0.00106722   -0.00062480   -0.00020686
     atom   39 type  2   force =    -0.00062913   -0.00077147    0.00039289
     atom   40 type  2   force =    -0.00014490   -0.00008028   -0.00059210
     atom   41 type  2   force =     0.00092387    0.00029594   -0.00005939
     atom   42 type  2   force =     0.00006507    0.00001134   -0.00024094
     atom   43 type  1   force =    -0.00001914    0.00059451    0.00026093
     atom   44 type  1   force =     0.00023607    0.00066613   -0.00067332
     atom   45 type  2   force =     0.00010220    0.00002466    0.09815957
     atom   46 type  2   force =    -0.08121457    0.00000866   -0.03236186
     atom   47 type  2   force =     0.08120914    0.00042228   -0.03237767
     atom   48 type  3   force =     0.00093521   -0.00206185   -0.00014374
     atom   49 type  4   force =    -0.00044837    0.00006215    0.00070879
     atom   50 type  5   force =     0.00277293    0.00199868   -0.00223660
     atom   51 type  5   force =    -0.00315841   -0.00202868    0.00156693
     atom   52 type  2   force =    -0.00086761    0.00087989   -0.00055601
     atom   53 type  4   force =    -0.00032037    0.00153610    0.00063882

     Total force =     0.406358     Total SCF correction =     0.000428
  @ DRIVER MODE: Message from server: STATUS
  @ DRIVER MODE: Message from server: GETFORCE
  @ DRIVER MODE: Returning v,forces,stress,ensemble

     Writing output data file ./calc.save/
  @ DRIVER MODE: Message from server: EXIT
  @ DRIVE MODE: Exiting

     General routines

     Parallel routines

   This run was terminated on:   6:35:29  28Sep2021

   JOB DONE.