     Program PWSCF v.6.7GPU starts on 12Oct2021 at 13:45:37

     R & G space division:  proc/nbgrp/npool/nimage =       8
     Reading input from /storage/home/hcoda1/3/ntian30/research/carbon/ACS_vib/ads_slab/NH2/out_0013/pw.inp
Warning: card &CELL ignored
Warning: card   CELL_DYNAMICS='IPI', ignored
Warning: card / ignored

     Current dimensions of program PWSCF are:
     Max number of different atomic species (ntypx) = 10
     Max number of k-points (npk) =  40000
     Max angular momentum in pseudopotentials (lmaxx) =  3
     Presently no symmetry can be used with electric field

     Message from routine cell_base_init:
     DEPRECATED: use true lattice parameter, not A to a.u. conversion factor

     IMPORTANT: XC functional enforced from input :
     Exchange-correlation= BEEF-VDW
                           (   1   4  43  14   2   0   0)
     Any further DFT definition will be discarded
     Please, verify this is what you really want

  @ DRIVER MODE: Connecting to
 qe_1139763_3181316.sched-torque.pace.gatech.eduoqwb6290_scratch
  using UNIX socket
  @ DRIVER MODE: Message from server: STATUS
  @ DRIVER MODE: Message from server: INIT
  @ DRIVER MODE: Receiving replica           0          -1
  @ DRIVER MODE: Receiving encoded integer          25
  @ DRIVER MODE:  SCF:  T  FORCE:  T  STRESS:  F  VC:  F  ENSEMBLE:  F
  @ DRIVER MODE:  SCF:  T  FORCE:  T  STRESS:  F  VC:  F  ENSEMBLE:  F

     Using Slab Decomposition

     bravais-lattice index     =            0
     lattice parameter (alat)  =       1.8897  a.u.
     unit-cell volume          =    6658.9804 (a.u.)^3
     number of atoms/cell      =           50
     number of atomic types    =            4
     number of electrons       =       385.00
     number of Kohn-Sham states=          202
     kinetic-energy cutoff     =      29.3995  Ry
     charge density cutoff     =     293.9946  Ry
     scf convergence threshold =      7.3E-08
     mixing beta               =       0.0500
     number of iterations used =            8  plain     mixing
     Exchange-correlation= BEEF-VDW
                           (   1   4  43  14   2   0   0)

     celldm(1)=   1.889726  celldm(2)=   0.000000  celldm(3)=   0.000000
     celldm(4)=   0.000000  celldm(5)=   0.000000  celldm(6)=   0.000000

     crystal axes: (cart. coord. in units of alat)
               a(1) = (   6.579727   0.000000   0.000000 )
               a(2) = (  -0.000775   5.961596   0.000000 )
               a(3) = (   0.000000   0.000000  25.155947 )

     reciprocal axes: (cart. coord. in units 2 pi/alat)
               b(1) = (  0.151982  0.000020  0.000000 )
               b(2) = (  0.000000  0.167740  0.000000 )
               b(3) = (  0.000000  0.000000  0.039752 )

     PseudoPot. # 1 for Ti read from file:
     /storage/coda1/p-amedford6/0/shared/rich_project_chbe-medford/medford-share/data/pseudos_module/espresso/nninc/pbe/van/Ti.UPF
     MD5 check sum: 8e4df49b7f0d34bbd5052bf3f5ea0213
     Pseudo is Ultrasoft, Zval = 12.0
     Generated by new atomic code, or converted to UPF format
     Using radial grid of  851 points,  6 beta functions with:
                l(1) =   0
                l(2) =   0
                l(3) =   1
                l(4) =   1
                l(5) =   2
                l(6) =   2
     Q(r) pseudized with  8 coefficients,  rinner =    1.000   1.000   1.000
                                                       1.000   1.000

     PseudoPot. # 2 for O  read from file:
     /storage/coda1/p-amedford6/0/shared/rich_project_chbe-medford/medford-share/data/pseudos_module/espresso/nninc/pbe/van/O.UPF
     MD5 check sum: 78c19812648e8988a0fe644b0f25305e
     Pseudo is Ultrasoft, Zval =  6.0
     Generated by new atomic code, or converted to UPF format
     Using radial grid of  737 points,  4 beta functions with:
                l(1) =   0
                l(2) =   0
                l(3) =   1
                l(4) =   1
     Q(r) pseudized with  8 coefficients,  rinner =    0.800   0.800   0.800

     PseudoPot. # 3 for H  read from file:
     /storage/coda1/p-amedford6/0/shared/rich_project_chbe-medford/medford-share/data/pseudos_module/espresso/nninc/pbe/van/H.UPF
     MD5 check sum: b5ee9d7bfd3a09ee7748110bda690ff7
     Pseudo is Ultrasoft, Zval =  1.0
     Generated by new atomic code, or converted to UPF format
     Using radial grid of  615 points,  1 beta functions with:
                l(1) =   0
     Q(r) pseudized with  8 coefficients,  rinner =    0.800

     PseudoPot. # 4 for N  read from file:
     /storage/coda1/p-amedford6/0/shared/rich_project_chbe-medford/medford-share/data/pseudos_module/espresso/nninc/pbe/van/N.UPF
     MD5 check sum: 90d10febe142ad51ac9d5be1deb811c4
     Pseudo is Ultrasoft, Zval =  5.0
     Generated by new atomic code, or converted to UPF format
     Using radial grid of  729 points,  4 beta functions with:
                l(1) =   0
                l(2) =   0
                l(3) =   1
                l(4) =   1
     Q(r) pseudized with  8 coefficients,  rinner =    0.800   0.800   0.800

     atomic species   valence    mass     pseudopotential
        Ti1           12.00    47.86700     Ti( 1.00)
        O1             6.00    15.99900     O ( 1.00)
        H1             1.00     1.00800     H ( 1.00)
        N1             5.00    14.00700     N ( 1.00)

     No symmetry found

   Cartesian axes

     site n.     atom                  positions (alat units)
         1           Ti1 tau(   1) = (   0.0004258   2.9801865   6.0000000  )
         2           Ti1 tau(   2) = (   3.2906075   1.4906267   6.0002472  )
         3           O1  tau(   3) = (   0.0006271   0.0005054   7.9858123  )
         4           O1  tau(   4) = (   3.2906025   0.0005020   7.3038282  )
         5           O1  tau(   5) = (   4.5942328   1.4918067   9.2879030  )
         6           O1  tau(   6) = (   1.9868534   1.4903216   9.2879459  )
         7           Ti1 tau(   7) = (   3.2907910   2.8959150   9.1758416  )
         8           Ti1 tau(   8) = (   0.0015273   1.4827037   9.2680791  )
         9           O1  tau(   9) = (   3.3258991   5.9546141  11.3332578  )
        10           O1  tau(  10) = (   0.0116148   5.9584955  10.6183126  )
        11           O1  tau(  11) = (   1.3488932   1.4798543  12.6053297  )
        12           O1  tau(  12) = (   5.3234149   1.4779677  12.6259018  )
        13           Ti1 tau(  13) = (   0.0250334   2.9927558  12.6206450  )
        14           Ti1 tau(  14) = (   3.3016322   1.4795038  12.4820857  )
        15           O1  tau(  15) = (   0.0664024   0.0157593  14.6586037  )
        16           O1  tau(  16) = (   3.3323282   0.0041071  13.9289915  )
        17           O1  tau(  17) = (   4.5995015   1.5314437  16.0640773  )
        18           O1  tau(  18) = (   2.1161456   1.5293183  16.0749432  )
        19           Ti1 tau(  19) = (   3.3498380   3.0088313  15.6963580  )
        20           Ti1 tau(  20) = (   0.0530739   1.5396549  15.8437714  )
        21           O1  tau(  21) = (   3.2904802   0.0005063   4.7018136  )
        22           O1  tau(  22) = (   0.0625368   0.0441461  17.2188842  )
        23           O1  tau(  23) = (   1.3043587   1.4918075   6.0039043  )
        24           O1  tau(  24) = (   5.2767064   1.4903225   6.0039473  )
        25           Ti1 tau(  25) = (   0.0000382   5.9609847   6.0000000  )
        26           Ti1 tau(  26) = (   3.2902200   4.4714249   6.0002472  )
        27           O1  tau(  27) = (   0.0002396   2.9813036   7.9858123  )
        28           O1  tau(  28) = (   3.2902150   2.9813002   7.3038282  )
        29           O1  tau(  29) = (   4.5938453   4.4726049   9.2879030  )
        30           O1  tau(  30) = (   1.9864658   4.4711199   9.2879459  )
        31           Ti1 tau(  31) = (   3.2891106   5.8743827   9.1763621  )
        32           Ti1 tau(  32) = (   0.0006254   4.4649316   9.2693709  )
        33           O1  tau(  33) = (   3.3263537   2.9785333  11.3304563  )
        34           O1  tau(  34) = (   0.0092240   2.9805883  10.6323155  )
        35           O1  tau(  35) = (   1.3430786   4.4678698  12.6172051  )
        36           O1  tau(  36) = (   5.3277099   4.4710525  12.6377626  )
        37           Ti1 tau(  37) = (   0.0170098   0.0068522  12.5677129  )
        38           Ti1 tau(  38) = (   3.3012998   4.4598595  12.4837504  )
        39           O1  tau(  39) = (   0.0613649   2.9331972  14.6385027  )
        40           O1  tau(  40) = (   3.3336062   2.9900835  13.9042222  )
        41           O1  tau(  41) = (   4.5971590   4.4874278  16.0927711  )
        42           O1  tau(  42) = (   2.1143488   4.4887574  16.1000639  )
        43           Ti1 tau(  43) = (   3.3470598   0.0240971  15.7232225  )
        44           Ti1 tau(  44) = (   0.0592690   4.6672874  16.1350517  )
        45           O1  tau(  45) = (   3.2900926   2.9813045   4.7018136  )
        46           O1  tau(  46) = (   1.3039711   4.4726057   6.0039043  )
        47           O1  tau(  47) = (   5.2763189   4.4711207   6.0039473  )
        48           H1  tau(  48) = (   5.8602933   2.9036204  18.0417654  )
        49           H1  tau(  49) = (   0.9096825   2.8932289  17.9980414  )
        50           N1  tau(  50) = (   0.0697844   2.9726167  17.4194980  )

     number of k points=    10  Fermi-Dirac smearing, width (Ry)=  0.0073
                       cart. coord. in units 2pi/alat
        k(    1) = (   0.0000000   0.0000000   0.0000000), wk =   0.1250000
        k(    2) = (   0.0000000   0.0419351   0.0000000), wk =   0.2500000
        k(    3) = (   0.0000000  -0.0838702   0.0000000), wk =   0.1250000
        k(    4) = (   0.0379955   0.0000049   0.0000000), wk =   0.2500000
        k(    5) = (   0.0379955   0.0419400   0.0000000), wk =   0.2500000
        k(    6) = (   0.0379955  -0.0838652   0.0000000), wk =   0.2500000
        k(    7) = (   0.0379955  -0.0419301   0.0000000), wk =   0.2500000
        k(    8) = (  -0.0759910  -0.0000099   0.0000000), wk =   0.1250000
        k(    9) = (  -0.0759910   0.0419252   0.0000000), wk =   0.2500000
        k(   10) = (  -0.0759910  -0.0838800   0.0000000), wk =   0.1250000

     Initial potential from superposition of free atoms

     starting charge  368.99922, renormalised to  385.00000

     negative rho (up, down):  2.142E-02 0.000E+00

     %%%%%%%%%%%%%%%%%%%%%%%%%%%%%%%%%%%%%%%%%%%%%%%%%%%%%%%%%%%%%%%%%%%%%%%%
     %                                                                      %
     % You are using vdW-DF, which was implemented by the Thonhauser group. %
     % Please cite the following two papers that made this development      %
     % possible and the two reviews that describe the various versions:     %
     %                                                                      %
     %   T. Thonhauser et al., PRL 115, 136402 (2015).                      %
     %   T. Thonhauser et al., PRB 76, 125112 (2007).                       %
     %   K. Berland et al., Rep. Prog. Phys. 78, 066501 (2015).             %
     %   D.C. Langreth et al., J. Phys.: Condens. Matter 21, 084203 (2009). %
     %                                                                      %
     %                                                                      %
     % If you are calculating the stress with vdW-DF, please also cite:     %
     %                                                                      %
     %   R. Sabatini et al., J. Phys.: Condens. Matter 24, 424209 (2012).   %
     %                                                                      %
     %%%%%%%%%%%%%%%%%%%%%%%%%%%%%%%%%%%%%%%%%%%%%%%%%%%%%%%%%%%%%%%%%%%%%%%%

     Adding external electric field

     Computed dipole along edir(3) :
        Dipole               -1.9920 Ry au,         -5.0631 Debye
        Dipole field         -0.0038 Ry au,

        Potential amp.        0.3485 Ry
        Total length         46.3494 bohr

     Starting wfcs are  290 atomic wfcs
  @ DRIVER MODE: Message from server: STATUS
  @ DRIVER MODE: Message from server: POSDATA
  @ DRIVER MODE: Reading and sharing cell
  @ DRIVER MODE: Reading and sharing positions
  @ DRIVER MODE: Received positions

     Self-consistent Calculation

     iteration #  1     ecut=    29.40 Ry     beta= 0.05
     Davidson diagonalization with overlap
     c_bands:  2 eigenvalues not converged
     c_bands:  1 eigenvalues not converged
     c_bands:  4 eigenvalues not converged
     c_bands:  1 eigenvalues not converged
     c_bands:  3 eigenvalues not converged
     ethr =  1.00E-05,  avg # of iterations = 18.3

[...]

     total energy              =   -2907.97561675 Ry
     estimated scf accuracy    <      12.38719278 Ry

     iteration #  2     ecut=    29.40 Ry     beta= 0.05
     Davidson diagonalization with overlap
     ethr =  3.22E-03,  avg # of iterations =  1.0

[...]

     iteration # 66     ecut=    29.40 Ry     beta= 0.05
     Davidson diagonalization with overlap
     c_bands:  1 eigenvalues not converged
     ethr =  2.43E-09,  avg # of iterations = 15.8

[...]

     total energy              =   -2906.48787105 Ry
     estimated scf accuracy    <       0.00000011 Ry

     iteration # 76     ecut=    29.40 Ry     beta= 0.05
     Davidson diagonalization with overlap
     ethr =  2.79E-11,  avg # of iterations = 13.4

     negative rho (up, down):  2.070E-02 0.000E+00

     Adding external electric field

     Computed dipole along edir(3) :
        Dipole                0.6492 Ry au,          1.6500 Debye
        Dipole field          0.0012 Ry au,

        Potential amp.       -0.1136 Ry
        Total length         46.3494 bohr

     End of self-consistent calculation

          k = 0.0000 0.0000 0.0000 ( 18029 PWs)   bands (ev):

   -56.1965 -56.1895 -56.1624 -56.1535 -56.0918 -56.0194 -56.0107 -56.0017
   -55.9758 -55.9679 -55.9630 -55.9293 -55.7390 -55.4391 -55.1706 -55.1365
   -32.7503 -32.6780 -32.5330 -32.5080 -32.5010 -32.4968 -32.4897 -32.4534
   -32.4381 -32.4267 -32.3881 -32.3853 -32.3700 -32.3486 -32.3346 -32.3213
   -32.3180 -32.2999 -32.2803 -32.2536 -32.2357 -32.2139 -32.2058 -32.1936
   -32.1879 -32.1795 -32.1683 -32.1657 -32.1600 -32.1415 -32.1387 -32.1324
   -32.1303 -32.1181 -32.1158 -32.1082 -32.0751 -31.9935 -31.9218 -31.7303
   -31.7050 -31.6413 -31.5777 -31.4896 -31.4671 -31.3944 -31.3079 -31.1969
   -16.9239 -16.6653 -16.4496 -16.3437 -16.2714 -16.2143 -16.0226 -15.9058
   -15.8664 -15.7683 -15.7313 -15.6960 -15.6939 -15.6683 -15.6464 -15.6252
   -15.6149 -15.5956 -15.5591 -15.5503 -15.5137 -15.4589 -15.3553 -15.3394
   -15.3302 -15.2850 -15.2346 -15.2212 -14.7540 -13.6733 -13.5570 -13.5030
    -4.7162  -4.3008  -4.1107  -4.0956  -4.0612  -4.0235  -3.7945  -3.7526
    -3.3994  -3.3613  -3.3538  -3.3183  -3.2990  -3.2650  -3.0838  -3.0139
    -3.0056  -2.9659  -2.9641  -2.9494  -2.9480  -2.9175  -2.9127  -2.7952
    -2.7263  -2.6109  -2.5883  -2.5067  -2.4936  -2.4751  -2.4444  -2.4238
    -2.4150  -2.4058  -2.3778  -2.3666  -2.2250  -2.1924  -2.0405  -1.9928
    -1.9782  -1.8445  -1.7990  -1.6652  -1.6482  -1.6164  -1.5918  -1.5821
    -1.4888  -1.4687  -1.3768  -1.3321  -1.2622  -1.2595  -1.1942  -1.1767
    -1.0689  -1.0590  -1.0442  -0.9525  -0.9346  -0.9246  -0.8745  -0.7851
    -0.6311  -0.5936  -0.5899  -0.5668  -0.4944  -0.4508  -0.3718  -0.3513
    -0.3419  -0.2868  -0.2571  -0.2179  -0.1853  -0.1680  -0.1606  -0.1115
     0.0704   0.1073   0.1617   0.1959   0.2034   0.3535   0.3960   0.4724
     0.5768   0.7773   0.8065   0.8510   0.9694   1.0439   1.4224   1.4678
     2.9461   3.0229   3.0275   3.0794   3.1885   3.2042   3.3959   3.4184
     3.4411   3.4462

[...]

          k = 0.0380-0.0419 0.0000 ( 17876 PWs)   bands (ev):

[...]

          k =-0.0760-0.0000 0.0000 ( 17886 PWs)   bands (ev):

[...]

          k =-0.0760-0.0839 0.0000 ( 17948 PWs)   bands (ev):

   -56.1797 -56.1791 -56.1721 -56.1707 -56.0874 -56.0237 -55.9968 -55.9896
   -55.9854 -55.9837 -55.9465 -55.9459 -55.7382 -55.4399 -55.1535 -55.1535
   -32.5542 -32.5516 -32.4935 -32.4931 -32.4753 -32.4747 -32.4729 -32.4494
   -32.3939 -32.3858 -32.3661 -32.3604 -32.3513 -32.3139 -32.3026 -32.2991
   -32.2985 -32.2973 -32.2882 -32.2867 -32.2859 -32.2835 -32.2791 -32.2279
   -32.2057 -32.2024 -32.2020 -32.1882 -32.1824 -32.1820 -32.1785 -32.1782
   -32.1613 -32.1605 -32.1528 -32.1450 -32.0777 -31.9962 -31.9186 -31.7888
   -31.7066 -31.6637 -31.4799 -31.4798 -31.3905 -31.3904 -31.3512 -31.3511
   -16.3791 -16.3462 -16.1249 -16.1158 -16.1030 -16.1003 -15.9198 -15.8895
   -15.8865 -15.8535 -15.8361 -15.8021 -15.7639 -15.7321 -15.6989 -15.6879
   -15.6788 -15.6657 -15.6425 -15.6285 -15.6226 -15.6148 -15.5065 -15.5023
   -15.4720 -15.4094 -15.3347 -15.1960 -14.9133 -13.6588 -13.6588 -13.5221
    -4.7396  -3.6754  -3.6384  -3.3561  -3.3471  -3.3395  -3.2877  -3.1255
    -3.0786  -3.0510  -3.0428  -3.0021  -2.9981  -2.9855  -2.9722  -2.9427
    -2.9246  -2.9185  -2.8962  -2.8558  -2.8469  -2.8429  -2.8101  -2.8078
    -2.8015  -2.7599  -2.7288  -2.7161  -2.6998  -2.6773  -2.6434  -2.4006
    -2.3848  -2.3284  -2.3243  -2.3184  -2.2742  -2.2527  -2.2467  -2.2390
    -2.1466  -2.0418  -1.9143  -1.8826  -1.8726  -1.7898  -1.7412  -1.6299
    -1.5928  -1.5621  -1.5586  -1.4952  -1.4440  -1.3982  -1.3840  -1.3130
    -1.2781  -1.2659  -1.1650  -1.1474  -1.1436  -1.1392  -1.0311  -0.9524
    -0.9488  -0.9412  -0.9069  -0.8991  -0.8006  -0.7981  -0.7529  -0.6809
    -0.6741  -0.6529  -0.5084  -0.3777  -0.1839  -0.1475  -0.1138  -0.0448
     0.0334   0.0908   0.1197   0.1286   0.1409   0.2010   0.2392   0.3487
     0.3521   0.4593   0.5585   0.8000   1.2152   1.2159   1.2875   1.2877
     3.2284   3.2368   3.2673   3.2948   3.4477   3.4523   3.4738   3.4747
     3.6186   3.6329

     the Fermi energy is     2.9402 ev

!    total energy              =   -2906.48789860 Ry
     estimated scf accuracy    <       0.00000004 Ry
     smearing contrib. (-TS)   =      -0.02175886 Ry
     internal energy E=F+TS    =   -2906.46613974 Ry

     The total energy is F=E-TS. E is the sum of the following terms:
     one-electron contribution =  -25125.46262437 Ry
     hartree contribution      =   12642.93449823 Ry
     xc contribution           =    -475.65730084 Ry
     ewald contribution        =   10051.71849197 Ry
     electric field correction =       0.00079528 Ry

     convergence has been achieved in  76 iterations

     Forces acting on atoms (cartesian axes, Ry/au):

     atom    1 type  1   force =     0.00015241   -0.00026404    0.09708686
     atom    2 type  1   force =    -0.00009580   -0.00053435   -0.17531247
     atom    3 type  2   force =     0.00014794   -0.00009355   -0.02537833
     atom    4 type  2   force =     0.00004824   -0.00152198    0.05271487
     atom    5 type  2   force =    -0.01199079   -0.00048839    0.00189963
     atom    6 type  2   force =     0.01458846   -0.00002574    0.00351575
     atom    7 type  1   force =     0.00108918    0.00034820   -0.01156135
     atom    8 type  1   force =    -0.00051724    0.00755395    0.03126383
     atom    9 type  2   force =     0.00006431    0.00013843   -0.00039937
     atom   10 type  2   force =    -0.00054405    0.00072956   -0.01782645
     atom   11 type  2   force =     0.00025008   -0.00021096   -0.00002015
     atom   12 type  2   force =    -0.00022143   -0.00006663   -0.00001761
     atom   13 type  1   force =    -0.00031508    0.00078290    0.00099695
     atom   14 type  1   force =    -0.00068410    0.00036249   -0.00172633
     atom   15 type  2   force =    -0.00046821   -0.00048871   -0.00032722
     atom   16 type  2   force =     0.00022609   -0.00000173    0.00098453
     atom   17 type  2   force =    -0.00057587   -0.00037669   -0.00007389
     atom   18 type  2   force =    -0.00071654    0.00018810    0.00022902
     atom   19 type  1   force =     0.00003429    0.00029299    0.00093027
     atom   20 type  1   force =    -0.00042017    0.00141783   -0.00040211
     atom   21 type  2   force =     0.00003332   -0.00008928    0.10317942
     atom   22 type  2   force =    -0.00014565    0.00082311    0.00142769
     atom   23 type  2   force =    -0.07154680   -0.00018953   -0.02782337
     atom   24 type  2   force =     0.07147131    0.00027615   -0.02787983
     atom   25 type  1   force =     0.00002732   -0.00024734    0.09660523
     atom   26 type  1   force =    -0.00009386   -0.00035599   -0.17546021
     atom   27 type  2   force =     0.00018801   -0.00020420   -0.02447158
     atom   28 type  2   force =     0.00009001   -0.00126159    0.05251067
     atom   29 type  2   force =    -0.01214736    0.00020051    0.00165558
     atom   30 type  2   force =     0.01463733    0.00047876    0.00330310
     atom   31 type  1   force =     0.00096617    0.00319415   -0.01213917
     atom   32 type  1   force =    -0.00070716   -0.00920776    0.03173775
     atom   33 type  2   force =     0.00010313    0.00002402    0.00009372
     atom   34 type  2   force =    -0.00009278    0.00026886   -0.02691354
     atom   35 type  2   force =     0.00045870    0.00017149    0.00019406
     atom   36 type  2   force =    -0.00040641    0.00018870    0.00022894
     atom   37 type  1   force =    -0.00055125    0.00019987    0.00031597
     atom   38 type  1   force =    -0.00072576   -0.00006507   -0.00170467
     atom   39 type  2   force =     0.00010859   -0.00010874    0.00011730
     atom   40 type  2   force =     0.00012331   -0.00012363    0.00051463
     atom   41 type  2   force =    -0.00097027    0.00037143   -0.00036835
     atom   42 type  2   force =    -0.00043238   -0.00009620    0.00000901
     atom   43 type  1   force =     0.00011626   -0.00005026    0.00085480
     atom   44 type  1   force =    -0.00051798   -0.00152652   -0.00080388
     atom   45 type  2   force =     0.00001553   -0.00009216    0.10316433
     atom   46 type  2   force =    -0.07154685   -0.00011264   -0.02780958
     atom   47 type  2   force =     0.07149653    0.00029785   -0.02788370
     atom   48 type  3   force =    -0.01078180   -0.00113022    0.00711059
     atom   49 type  3   force =    -0.01085193    0.00129366   -0.00654793
     atom   50 type  4   force =     0.02163103   -0.00066911    0.00020662

     Total force =     0.370065     Total SCF correction =     0.000564
  @ DRIVER MODE: Message from server: STATUS
  @ DRIVER MODE: Message from server: GETFORCE
  @ DRIVER MODE: Returning v,forces,stress,ensemble

     Writing output data file ./calc.save/
  @ DRIVER MODE: Message from server: EXIT
  @ DRIVE MODE: Exiting

     General routines

     Parallel routines

   This run was terminated on:  14:10: 5  12Oct2021

   JOB DONE.