     Program PWSCF v.6.7GPU starts on 18Oct2021 at 23:43:18

     R & G space division:  proc/nbgrp/npool/nimage =       8
     Reading input from /storage/home/hcoda1/3/ntian30/research/carbon/CxH_vib/Thiel_calc/ads_slab/NNH2HH_perslab/out_0025/pw.inp
Warning: card &CELL ignored
Warning: card   CELL_DYNAMICS='IPI', ignored
Warning: card / ignored

     Current dimensions of program PWSCF are:
     Max number of different atomic species (ntypx) = 10
     Max number of k-points (npk) =  40000
     Max angular momentum in pseudopotentials (lmaxx) =  3
     Presently no symmetry can be used with electric field

     Message from routine cell_base_init:
     DEPRECATED: use true lattice parameter, not A to a.u. conversion factor

     IMPORTANT: XC functional enforced from input :
     Exchange-correlation= BEEF-VDW
                           (   1   4  43  14   2   0   0)
     Any further DFT definition will be discarded
     Please, verify this is what you really want

  @ DRIVER MODE: Connecting to
 qe_1139763_3255133.sched-torque.pace.gatech.edua0u_8xgn_scratch
  using UNIX socket
  @ DRIVER MODE: Message from server: STATUS
  @ DRIVER MODE: Message from server: INIT
  @ DRIVER MODE: Receiving replica           0          -1
  @ DRIVER MODE: Receiving encoded integer          25
  @ DRIVER MODE:  SCF:  T  FORCE:  T  STRESS:  F  VC:  F  ENSEMBLE:  F
  @ DRIVER MODE:  SCF:  T  FORCE:  T  STRESS:  F  VC:  F  ENSEMBLE:  F

     Using Slab Decomposition

     bravais-lattice index     =            0
     lattice parameter (alat)  =       1.8897  a.u.
     unit-cell volume          =    9988.4706 (a.u.)^3
     number of atoms/cell      =           59
     number of atomic types    =            4
     number of electrons       =       440.00
     number of Kohn-Sham states=          230
     kinetic-energy cutoff     =      29.3995  Ry
     charge density cutoff     =     293.9946  Ry
     scf convergence threshold =      7.3E-08
     mixing beta               =       0.0500
     number of iterations used =            8  plain     mixing
     Exchange-correlation= BEEF-VDW
                           (   1   4  43  14   2   0   0)

     celldm(1)=   1.889726  celldm(2)=   0.000000  celldm(3)=   0.000000
     celldm(4)=   0.000000  celldm(5)=   0.000000  celldm(6)=   0.000000

     crystal axes: (cart. coord. in units of alat)
               a(1) = (   6.579727   0.000000   0.000000 )
               a(2) = (  -0.001163   8.942395   0.000000 )
               a(3) = (   0.000000   0.000000  25.155947 )

     reciprocal axes: (cart. coord. in units 2 pi/alat)
               b(1) = (  0.151982  0.000020  0.000000 )
               b(2) = (  0.000000  0.111827  0.000000 )
               b(3) = (  0.000000  0.000000  0.039752 )

     PseudoPot. # 1 for O  read from file:
     /storage/coda1/p-amedford6/0/shared/rich_project_chbe-medford/medford-share/data/pseudos_module/espresso/nninc/pbe/van/O.UPF
     MD5 check sum: 78c19812648e8988a0fe644b0f25305e
     Pseudo is Ultrasoft, Zval =  6.0
     Generated by new atomic code, or converted to UPF format
     Using radial grid of  737 points,  4 beta functions with:
                l(1) =   0
                l(2) =   0
                l(3) =   1
                l(4) =   1
     Q(r) pseudized with  8 coefficients,  rinner =    0.800   0.800   0.800

     PseudoPot. # 2 for Ti read from file:
     /storage/coda1/p-amedford6/0/shared/rich_project_chbe-medford/medford-share/data/pseudos_module/espresso/nninc/pbe/van/Ti.UPF
     MD5 check sum: 8e4df49b7f0d34bbd5052bf3f5ea0213
     Pseudo is Ultrasoft, Zval = 12.0
     Generated by new atomic code, or converted to UPF format
     Using radial grid of  851 points,  6 beta functions with:
                l(1) =   0
                l(2) =   0
                l(3) =   1
                l(4) =   1
                l(5) =   2
                l(6) =   2
     Q(r) pseudized with  8 coefficients,  rinner =    1.000   1.000   1.000
                                                       1.000   1.000

     PseudoPot. # 3 for H  read from file:
     /storage/coda1/p-amedford6/0/shared/rich_project_chbe-medford/medford-share/data/pseudos_module/espresso/nninc/pbe/van/H.UPF
     MD5 check sum: b5ee9d7bfd3a09ee7748110bda690ff7
     Pseudo is Ultrasoft, Zval =  1.0
     Generated by new atomic code, or converted to UPF format
     Using radial grid of  615 points,  1 beta functions with:
                l(1) =   0
     Q(r) pseudized with  8 coefficients,  rinner =    0.800

     PseudoPot. # 4 for N  read from file:
     /storage/coda1/p-amedford6/0/shared/rich_project_chbe-medford/medford-share/data/pseudos_module/espresso/nninc/pbe/van/N.UPF
     MD5 check sum: 90d10febe142ad51ac9d5be1deb811c4
     Pseudo is Ultrasoft, Zval =  5.0
     Generated by new atomic code, or converted to UPF format
     Using radial grid of  729 points,  4 beta functions with:
                l(1) =   0
                l(2) =   0
                l(3) =   1
                l(4) =   1
     Q(r) pseudized with  8 coefficients,  rinner =    0.800   0.800   0.800

     atomic species   valence    mass     pseudopotential
        O1             6.00    15.99900     O ( 1.00)
        Ti1           12.00    47.86700     Ti( 1.00)
        H1             1.00     1.00800     H ( 1.00)
        N1             5.00    14.00700     N ( 1.00)

     No symmetry found

   Cartesian axes

     site n.     atom                  positions (alat units)
         1           O1  tau(   1) = (   0.0007354   0.0005023  10.5931620  )
         2           O1  tau(   2) = (   3.3122003   8.9411730  13.9078397  )
         3           O1  tau(   3) = (   0.0119464   0.1585559  17.3480684  )
         4           O1  tau(   4) = (   0.0006271   0.0005054   7.9858123  )
         5           O1  tau(   5) = (   3.2844644   8.9346379  11.1901754  )
         6           O1  tau(   6) = (   6.5618141   0.0157575  14.6617184  )
         7           O1  tau(   7) = (   1.9868534   1.4903216   9.2879459  )
         8           O1  tau(   8) = (   5.2413352   1.5994427  12.5710249  )
         9           O1  tau(   9) = (   2.0249271   1.5994163  16.0383581  )
        10           Ti1 tau(  10) = (   0.0007404   1.4906270   9.2895810  )
        11           Ti1 tau(  11) = (   3.2875257   1.3541315  12.5031546  )
        12           Ti1 tau(  12) = (   0.1037617   1.4803996  15.8781706  )
        13           O1  tau(  13) = (   4.5942328   1.4918067   9.2879030  )
        14           O1  tau(  14) = (   1.3445879   1.6225681  12.6047105  )
        15           O1  tau(  15) = (   4.5270247   1.5277052  16.0690704  )
        16           Ti1 tau(  16) = (   3.2902859   2.9801868   9.2893338  )
        17           Ti1 tau(  17) = (   6.5717848   2.8351652  12.4611715  )
        18           Ti1 tau(  18) = (   3.3615503   2.9380122  15.7113248  )
        19           O1  tau(  19) = (   0.0003479   2.9813005  10.5931620  )
        20           O1  tau(  20) = (   3.3257229   2.9884659  13.9122956  )
        21           O1  tau(  21) = (   0.0002396   2.9813036   7.9858123  )
        22           O1  tau(  22) = (   3.2846765   2.9682620  11.1924388  )
        23           O1  tau(  23) = (   6.5193973   3.0012958  14.6893217  )
        24           O1  tau(  24) = (   1.9864658   4.4711199   9.2879459  )
        25           O1  tau(  25) = (   5.2358842   4.5821056  12.5715879  )
        26           O1  tau(  26) = (   1.9668816   4.5963109  15.9958849  )
        27           Ti1 tau(  27) = (   0.0003529   4.4714252   9.2895810  )
        28           Ti1 tau(  28) = (   3.2817300   4.3379106  12.5030846  )
        29           Ti1 tau(  29) = (   6.5286400   4.3105241  16.0387364  )
        30           O1  tau(  30) = (   4.5938453   4.4726049   9.2879030  )
        31           O1  tau(  31) = (   1.3350840   4.5883300  12.6034823  )
        32           O1  tau(  32) = (   4.4768606   4.5746599  16.1328061  )
        33           Ti1 tau(  33) = (   3.2898983   5.9609850   9.2893338  )
        34           Ti1 tau(  34) = (   6.5687693   5.8095266  12.4696282  )
        35           Ti1 tau(  35) = (   3.1936624   5.9077503  15.7132784  )
        36           O1  tau(  36) = (  -0.0000397   5.9620987  10.5931620  )
        37           O1  tau(  37) = (   3.2950800   5.9615338  13.9080848  )
        38           O1  tau(  38) = (   6.5705097   6.0321180  17.3127682  )
        39           O1  tau(  39) = (  -0.0001480   5.9621018   7.9858123  )
        40           O1  tau(  40) = (   3.2829949   5.9473389  11.1919414  )
        41           O1  tau(  41) = (   6.5313079   6.0695169  14.6234680  )
        42           O1  tau(  42) = (   1.9860782   7.4519181   9.2879459  )
        43           O1  tau(  43) = (   5.2305909   7.5696458  12.5615615  )
        44           O1  tau(  44) = (   1.9930026   7.5537276  16.0441964  )
        45           Ti1 tau(  45) = (  -0.0000347   7.4522234   9.2895810  )
        46           Ti1 tau(  46) = (   3.2809715   7.3153274  12.5063831  )
        47           Ti1 tau(  47) = (  -0.0000777   7.3827053  15.8005402  )
        48           O1  tau(  48) = (   4.5934577   7.4534031   9.2879030  )
        49           O1  tau(  49) = (   1.3440923   7.5800077  12.5804573  )
        50           O1  tau(  50) = (   4.5564015   7.5743432  16.1458831  )
        51           Ti1 tau(  51) = (   3.2895107   8.9417832   9.2893338  )
        52           Ti1 tau(  52) = (   6.5681474   8.7932977  12.4619754  )
        53           Ti1 tau(  53) = (   3.3227810   8.9003220  15.7121742  )
        54           H1  tau(  54) = (   5.8375475   6.1301351  17.9339333  )
        55           H1  tau(  55) = (   5.7673184   0.1799947  17.8523786  )
        56           H1  tau(  56) = (   0.0490247   3.6154164  19.2291769  )
        57           N1  tau(  57) = (   6.4107751   2.7916545  18.6713363  )
        58           N1  tau(  58) = (   6.5344414   3.0434393  17.3342366  )
        59           H1  tau(  59) = (   0.3957958   1.9971216  18.9670883  )

     number of k points=    10  Fermi-Dirac smearing, width (Ry)=  0.0073
                       cart. coord. in units 2pi/alat
        k(    1) = (   0.0000000   0.0000000   0.0000000), wk =   0.1250000
        k(    2) = (   0.0000000   0.0279567   0.0000000), wk =   0.2500000
        k(    3) = (   0.0000000  -0.0559134   0.0000000), wk =   0.1250000
        k(    4) = (   0.0379955   0.0000049   0.0000000), wk =   0.2500000
        k(    5) = (   0.0379955   0.0279617   0.0000000), wk =   0.2500000
        k(    6) = (   0.0379955  -0.0559085   0.0000000), wk =   0.2500000
        k(    7) = (   0.0379955  -0.0279518   0.0000000), wk =   0.2500000
        k(    8) = (  -0.0759910  -0.0000099   0.0000000), wk =   0.1250000
        k(    9) = (  -0.0759910   0.0279468   0.0000000), wk =   0.2500000
        k(   10) = (  -0.0759910  -0.0559233   0.0000000), wk =   0.1250000

     Initial potential from superposition of free atoms

     starting charge  421.99910, renormalised to  440.00000

     negative rho (up, down):  3.725E-02 0.000E+00

     %%%%%%%%%%%%%%%%%%%%%%%%%%%%%%%%%%%%%%%%%%%%%%%%%%%%%%%%%%%%%%%%%%%%%%%%
     %                                                                      %
     % You are using vdW-DF, which was implemented by the Thonhauser group. %
     % Please cite the following two papers that made this development      %
     % possible and the two reviews that describe the various versions:     %
     %                                                                      %
     %   T. Thonhauser et al., PRL 115, 136402 (2015).                      %
     %   T. Thonhauser et al., PRB 76, 125112 (2007).                       %
     %   K. Berland et al., Rep. Prog. Phys. 78, 066501 (2015).             %
     %   D.C. Langreth et al., J. Phys.: Condens. Matter 21, 084203 (2009). %
     %                                                                      %
     %                                                                      %
     % If you are calculating the stress with vdW-DF, please also cite:     %
     %                                                                      %
     %   R. Sabatini et al., J. Phys.: Condens. Matter 24, 424209 (2012).   %
     %                                                                      %
     %%%%%%%%%%%%%%%%%%%%%%%%%%%%%%%%%%%%%%%%%%%%%%%%%%%%%%%%%%%%%%%%%%%%%%%%

     Adding external electric field

     Computed dipole along edir(3) :
        Dipole               -5.7841 Ry au,        -14.7017 Debye
        Dipole field         -0.0073 Ry au,

        Potential amp.        0.6746 Ry
        Total length         46.3494 bohr

     Starting wfcs are  332 atomic wfcs
  @ DRIVER MODE: Message from server: STATUS
  @ DRIVER MODE: Message from server: POSDATA
  @ DRIVER MODE: Reading and sharing cell
  @ DRIVER MODE: Reading and sharing positions
  @ DRIVER MODE: Received positions

     Self-consistent Calculation

     iteration #  1     ecut=    29.40 Ry     beta= 0.05
     Davidson diagonalization with overlap
     c_bands:  1 eigenvalues not converged
     c_bands:  2 eigenvalues not converged
     c_bands:  4 eigenvalues not converged
     c_bands:  1 eigenvalues not converged
     c_bands:  1 eigenvalues not converged
     c_bands:  5 eigenvalues not converged
     c_bands:  1 eigenvalues not converged
     c_bands:  4 eigenvalues not converged
     c_bands:  4 eigenvalues not converged
     c_bands:  4 eigenvalues not converged
     ethr =  1.00E-05,  avg # of iterations = 20.0

[...]

     total energy              =   -3276.44804492 Ry
     estimated scf accuracy    <     229.11217623 Ry

     iteration #  2     ecut=    29.40 Ry     beta= 0.05
     Davidson diagonalization with overlap
     ethr =  1.00E-02,  avg # of iterations = 15.8

[...]

     iteration # 57     ecut=    29.40 Ry     beta= 0.05
     Davidson diagonalization with overlap
     c_bands:  1 eigenvalues not converged
     ethr =  1.76E-11,  avg # of iterations = 11.6

[...]

     total energy              =   -3293.24436132 Ry
     estimated scf accuracy    <       0.00000010 Ry

     iteration # 58     ecut=    29.40 Ry     beta= 0.05
     Davidson diagonalization with overlap
     ethr =  1.76E-11,  avg # of iterations =  8.7

     negative rho (up, down):  3.572E-02 0.000E+00

     Adding external electric field

     Computed dipole along edir(3) :
        Dipole                1.5624 Ry au,          3.9711 Debye
        Dipole field          0.0020 Ry au,

        Potential amp.       -0.1822 Ry
        Total length         46.3494 bohr

     End of self-consistent calculation

          k = 0.0000 0.0000 0.0000 ( 26871 PWs)   bands (ev):

   -57.7041 -57.6968 -57.6792 -57.6774 -57.6536 -57.6119 -57.5656 -57.5268
   -57.5028 -57.4995 -57.4991 -57.4944 -57.4661 -57.4560 -56.7842 -56.7250
   -56.7008 -56.6973 -34.1010 -34.0866 -34.0847 -34.0828 -34.0588 -34.0406
   -34.0350 -34.0209 -34.0161 -33.9972 -33.9648 -33.9613 -33.9511 -33.9456
   -33.9004 -33.8977 -33.8914 -33.8842 -33.8712 -33.8488 -33.8420 -33.8302
   -33.8266 -33.8216 -33.8007 -33.7995 -33.7972 -33.7802 -33.7652 -33.7431
   -33.7385 -33.7343 -33.7229 -33.7152 -33.7067 -33.6921 -33.6875 -33.6861
   -33.6830 -33.6778 -33.6716 -33.6428 -33.2406 -33.0397 -33.0395 -33.0354
   -33.0238 -33.0206 -32.9945 -32.9775 -32.9511 -32.8884 -32.8844 -32.7507
   -19.1788 -19.0158 -18.8626 -18.5624 -18.1593 -17.9918 -17.9692 -17.9513
   -17.9114 -17.8118 -17.8106 -17.6319 -17.5728 -17.5404 -17.5112 -17.5051
   -17.4341 -17.3962 -17.3808 -17.3624 -17.3565 -17.3501 -17.3330 -17.2889
   -17.2529 -17.1978 -17.1829 -17.1472 -17.1358 -17.1341 -17.1329 -17.0641
   -16.8290 -15.1915 -15.1338 -15.1322 -12.1194  -7.8994  -6.7952  -6.5432
    -6.3438  -5.8910  -5.6746  -5.6218  -5.5405  -5.1843  -5.1704  -5.1023
    -5.0904  -5.0636  -4.9971  -4.9831  -4.9792  -4.9642  -4.8830  -4.8467
    -4.8346  -4.7881  -4.7686  -4.7104  -4.6457  -4.6358  -4.5759  -4.5395
    -4.5041  -4.4985  -4.4930  -4.4846  -4.4686  -4.4347  -4.3606  -4.3097
    -4.1756  -4.1699  -4.1174  -4.0515  -4.0236  -4.0154  -3.9548  -3.8797
    -3.8373  -3.8295  -3.7879  -3.7586  -3.7231  -3.7024  -3.6766  -3.5849
    -3.4924  -3.4581  -3.4532  -3.4119  -3.3988  -3.3462  -3.2311  -3.1781
    -3.1104  -3.0483  -2.9867  -2.9631  -2.9226  -2.8689  -2.8456  -2.7953
    -2.7743  -2.7219  -2.6771  -2.6263  -2.5342  -2.4760  -2.4706  -2.4587
    -2.4027  -2.3867  -2.3725  -2.3499  -2.3246  -2.2695  -2.2375  -2.2061
    -2.1728  -2.1419  -2.0966  -2.0615  -2.0506  -1.9423  -1.9084  -1.8803
    -1.7548  -1.7292  -1.6847  -1.6539  -1.5606  -1.5454  -1.5444  -1.4297
    -1.4141  -1.0987  -1.0004  -0.7458  -0.4747  -0.4294  -0.4286  -0.1648
    -0.1621  -0.0327   0.5299   1.2672   1.5224   1.6684   1.7268   1.7442
     1.7912   1.8759   1.8924   1.9228   1.9412   1.9762

[...]

          k = 0.0380-0.0280 0.0000 ( 26873 PWs)   bands (ev):

[...]

          k =-0.0760-0.0000 0.0000 ( 26902 PWs)   bands (ev):

[...]

          k =-0.0760-0.0559 0.0000 ( 26868 PWs)   bands (ev):

   -57.6963 -57.6961 -57.6946 -57.6698 -57.6549 -57.6112 -57.5656 -57.5201
   -57.5155 -57.4995 -57.4925 -57.4924 -57.4724 -57.4523 -56.7842 -56.7180
   -56.7146 -56.6904 -34.1792 -34.1714 -34.0861 -34.0599 -34.0508 -34.0358
   -34.0305 -34.0284 -33.9968 -33.9870 -33.9531 -33.9300 -33.9032 -33.8953
   -33.8933 -33.8795 -33.8731 -33.8453 -33.8444 -33.8401 -33.8362 -33.8346
   -33.8229 -33.8128 -33.7881 -33.7866 -33.7785 -33.7766 -33.7738 -33.7646
   -33.7554 -33.7490 -33.7341 -33.7325 -33.7204 -33.7179 -33.7149 -33.7095
   -33.6927 -33.6753 -33.6690 -33.6669 -33.2470 -33.1291 -33.0397 -33.0367
   -33.0136 -32.9956 -32.9786 -32.9317 -32.9276 -32.8648 -32.8495 -32.8457
   -19.0982 -19.0917 -18.8490 -18.2561 -18.2391 -17.9258 -17.8841 -17.8350
   -17.8310 -17.8069 -17.7366 -17.7201 -17.6858 -17.6226 -17.5390 -17.5100
   -17.4830 -17.4505 -17.4367 -17.4297 -17.4199 -17.3973 -17.3558 -17.3522
   -17.3015 -17.2552 -17.2200 -17.1702 -17.1395 -17.0895 -17.0639 -17.0368
   -16.8627 -15.1897 -15.1875 -15.0708 -12.1179  -7.9025  -6.7876  -6.5675
    -6.3009  -5.5040  -5.4948  -5.4868  -5.4382  -5.1500  -5.0390  -4.9914
    -4.9873  -4.9610  -4.9032  -4.8885  -4.8758  -4.8601  -4.8488  -4.8126
    -4.8079  -4.7639  -4.7524  -4.7383  -4.6883  -4.6304  -4.6249  -4.6004
    -4.5914  -4.5178  -4.5100  -4.4593  -4.3653  -4.3206  -4.3021  -4.2968
    -4.2588  -4.2258  -4.2180  -4.1469  -3.8987  -3.8897  -3.8667  -3.8488
    -3.8101  -3.7632  -3.7329  -3.7134  -3.6553  -3.5507  -3.4273  -3.3930
    -3.3797  -3.3633  -3.3379  -3.2987  -3.2867  -3.2767  -3.2322  -3.2008
    -3.1981  -3.1554  -3.1130  -3.0238  -2.9892  -2.9322  -2.8867  -2.8443
    -2.8324  -2.8207  -2.8142  -2.7973  -2.7681  -2.7536  -2.7396  -2.7012
    -2.6842  -2.6208  -2.5675  -2.5055  -2.4837  -2.4284  -2.3571  -2.2763
    -2.2529  -2.1905  -2.0974  -2.0403  -2.0003  -1.9675  -1.9482  -1.9277
    -1.8483  -1.8235  -1.7960  -1.7821  -1.5191  -1.5159  -1.3710  -1.3378
    -1.2868  -1.2784  -1.2128  -1.0519  -0.6410  -0.3554  -0.3485  -0.3201
    -0.1645  -0.1642   0.4804   1.4384   1.5033   1.5159   1.6072   1.6141
     1.6285   1.7256   1.7667   1.7701   1.9054   1.9720

     the Fermi energy is     1.3771 ev

!    total energy              =   -3293.24441180 Ry
     estimated scf accuracy    <       0.00000002 Ry
     smearing contrib. (-TS)   =      -0.03194956 Ry
     internal energy E=F+TS    =   -3293.21246224 Ry

     The total energy is F=E-TS. E is the sum of the following terms:
     one-electron contribution =  -34435.01741134 Ry
     hartree contribution      =   17282.67459490 Ry
     xc contribution           =    -542.29478262 Ry
     ewald contribution        =   14401.42206587 Ry
     electric field correction =       0.00307096 Ry

     convergence has been achieved in  58 iterations

     Forces acting on atoms (cartesian axes, Ry/au):

     atom    1 type  1   force =     0.00085147    0.00631713    0.05754449
     atom    2 type  1   force =    -0.00004302   -0.00070918   -0.00477829
     atom    3 type  1   force =     0.00003425   -0.00166197   -0.00127611
     atom    4 type  1   force =     0.00006928    0.00076463    0.10714116
     atom    5 type  1   force =    -0.00015398   -0.00059188    0.00932242
     atom    6 type  1   force =     0.00133038   -0.00267399    0.00350761
     atom    7 type  1   force =     0.06706291   -0.00000317   -0.02954449
     atom    8 type  1   force =     0.00334348   -0.02853450    0.00245338
     atom    9 type  1   force =     0.01182289   -0.01734383    0.00176746
     atom   10 type  2   force =     0.00007377   -0.00241785   -0.18535460
     atom   11 type  2   force =     0.00015063    0.02113938   -0.00709358
     atom   12 type  2   force =    -0.00579633    0.01494905   -0.00305819
     atom   13 type  1   force =    -0.06727630   -0.00039242   -0.02894352
     atom   14 type  1   force =    -0.00360288   -0.02912763    0.00250246
     atom   15 type  1   force =    -0.00730198   -0.01153074    0.00239513
     atom   16 type  2   force =    -0.00022025   -0.00127057    0.06487477
     atom   17 type  2   force =     0.00029479    0.03525844    0.00391010
     atom   18 type  2   force =    -0.00236459    0.02270312    0.00148361
     atom   19 type  1   force =     0.00074999    0.00408823    0.06081201
     atom   20 type  1   force =     0.00002438   -0.00008621   -0.00397676
     atom   21 type  1   force =     0.00005828   -0.00004594    0.10731368
     atom   22 type  1   force =     0.00002908   -0.00084954    0.00937276
     atom   23 type  1   force =    -0.00002502   -0.00357024    0.00457731
     atom   24 type  1   force =     0.06733961   -0.00051267   -0.02945918
     atom   25 type  1   force =     0.00347880   -0.02947035    0.00311591
     atom   26 type  1   force =     0.00625115   -0.02245418    0.00425197
     atom   27 type  2   force =    -0.00001191    0.00172539   -0.18405360
     atom   28 type  2   force =    -0.00038721    0.02139975   -0.00708008
     atom   29 type  2   force =    -0.00229718    0.02335477   -0.00337696
     atom   30 type  1   force =    -0.06753428   -0.00097398   -0.02877012
     atom   31 type  1   force =    -0.00415677   -0.02931587    0.00228827
     atom   32 type  1   force =    -0.00697658   -0.01826787   -0.00072671
     atom   33 type  2   force =    -0.00033834   -0.00092720    0.06450731
     atom   34 type  2   force =     0.00043105    0.03628974    0.00378217
     atom   35 type  2   force =     0.00249665    0.02408815    0.00258866
     atom   36 type  1   force =     0.00068588    0.00483872    0.05917001
     atom   37 type  1   force =    -0.00016053    0.00147837   -0.00766969
     atom   38 type  1   force =    -0.00030673   -0.00308005    0.00076320
     atom   39 type  1   force =     0.00010718   -0.00015534    0.10689843
     atom   40 type  1   force =     0.00007591   -0.00088899    0.00974995
     atom   41 type  1   force =     0.00087767   -0.00215391    0.00142978
     atom   42 type  1   force =     0.06758775   -0.00029369   -0.02941363
     atom   43 type  1   force =     0.00370114   -0.02888535    0.00186804
     atom   44 type  1   force =     0.00870900   -0.01704481    0.00066037
     atom   45 type  2   force =     0.00023057   -0.00246756   -0.18294269
     atom   46 type  2   force =     0.00024216    0.01986844   -0.00665819
     atom   47 type  2   force =    -0.00010359    0.02229323    0.00174828
     atom   48 type  1   force =    -0.06773398   -0.00079091   -0.02867410
     atom   49 type  1   force =    -0.00360829   -0.02859840    0.00243127
     atom   50 type  1   force =    -0.00823662   -0.01839789   -0.00139024
     atom   51 type  2   force =    -0.00036335   -0.00109355    0.06450010
     atom   52 type  2   force =    -0.00015612    0.03595446    0.00433815
     atom   53 type  2   force =    -0.00158116    0.01464333   -0.00203158
     atom   54 type  3   force =    -0.00069694   -0.00023821    0.00051671
     atom   55 type  3   force =    -0.00088752   -0.00081719    0.00173474
     atom   56 type  3   force =     0.00123837   -0.00137333   -0.00058339
     atom   57 type  4   force =    -0.00034222    0.00186460    0.00280025
     atom   58 type  4   force =     0.00371446   -0.00346685   -0.00099905
     atom   59 type  3   force =    -0.00039926   -0.00054112   -0.00026719

     Total force =     0.455696     Total SCF correction =     0.000306
  @ DRIVER MODE: Message from server: STATUS
  @ DRIVER MODE: Message from server: GETFORCE
  @ DRIVER MODE: Returning v,forces,stress,ensemble

     Writing output data file ./calc.save/
  @ DRIVER MODE: Message from server: EXIT
  @ DRIVE MODE: Exiting

     General routines

     Parallel routines

   This run was terminated on:   0:13:30  19Oct2021

   JOB DONE.