     Program PWSCF v.6.7GPU starts on  2Aug2021 at 21:27:43

     R & G space division:  proc/nbgrp/npool/nimage =      16
     Reading input from /storage/home/hcoda1/3/ntian30/research/carbon/02Aug_vib_paired/ads_slab/CH3NN_a/out_0029/pw.inp
Warning: card &CELL ignored
Warning: card   CELL_DYNAMICS='IPI', ignored
Warning: card / ignored

     Current dimensions of program PWSCF are:
     Max number of different atomic species (ntypx) = 10
     Max number of k-points (npk) =  40000
     Max angular momentum in pseudopotentials (lmaxx) =  3
     Presently no symmetry can be used with electric field

     Message from routine cell_base_init:
     DEPRECATED: use true lattice parameter, not A to a.u. conversion factor

     IMPORTANT: XC functional enforced from input :
     Exchange-correlation= BEEF-VDW
                           (   1   4  43  14   2   0   0)
     Any further DFT definition will be discarded
     Please, verify this is what you really want

  @ DRIVER MODE: Connecting to
 qe_1139763_2482546.sched-torque.pace.gatech.eduxhstqkg5_scratch
  using UNIX socket
  @ DRIVER MODE: Message from server: STATUS
  @ DRIVER MODE: Message from server: INIT
  @ DRIVER MODE: Receiving replica           0          -1
  @ DRIVER MODE: Receiving encoded integer          25
  @ DRIVER MODE:  SCF:  T  FORCE:  T  STRESS:  F  VC:  F  ENSEMBLE:  F
  @ DRIVER MODE:  SCF:  T  FORCE:  T  STRESS:  F  VC:  F  ENSEMBLE:  F

     Using Slab Decomposition

     bravais-lattice index     =            0
     lattice parameter (alat)  =       1.8897  a.u.
     unit-cell volume          =    6658.9804 (a.u.)^3
     number of atoms/cell      =           53
     number of atomic types    =            5
     number of electrons       =       395.00
     number of Kohn-Sham states=          207
     kinetic-energy cutoff     =      29.3995  Ry
     charge density cutoff     =     293.9946  Ry
     scf convergence threshold =      7.3E-08
     mixing beta               =       0.0500
     number of iterations used =            8  plain     mixing
     Exchange-correlation= BEEF-VDW
                           (   1   4  43  14   2   0   0)

     celldm(1)=   1.889726  celldm(2)=   0.000000  celldm(3)=   0.000000
     celldm(4)=   0.000000  celldm(5)=   0.000000  celldm(6)=   0.000000

     crystal axes: (cart. coord. in units of alat)
               a(1) = (   6.579727   0.000000   0.000000 )
               a(2) = (  -0.000775   5.961596   0.000000 )
               a(3) = (   0.000000   0.000000  25.155947 )

     reciprocal axes: (cart. coord. in units 2 pi/alat)
               b(1) = (  0.151982  0.000020  0.000000 )
               b(2) = (  0.000000  0.167740  0.000000 )
               b(3) = (  0.000000  0.000000  0.039752 )

     PseudoPot. # 1 for Ti read from file:
     /storage/coda1/p-amedford6/0/shared/rich_project_chbe-medford/medford-share/data/pseudos_module/espresso/nninc/pbe/van/Ti.UPF
     MD5 check sum: 8e4df49b7f0d34bbd5052bf3f5ea0213
     Pseudo is Ultrasoft, Zval = 12.0
     Generated by new atomic code, or converted to UPF format
     Using radial grid of  851 points,  6 beta functions with:
                l(1) =   0
                l(2) =   0
                l(3) =   1
                l(4) =   1
                l(5) =   2
                l(6) =   2
     Q(r) pseudized with  8 coefficients,  rinner =    1.000   1.000   1.000
                                                       1.000   1.000

     PseudoPot. # 2 for O  read from file:
     /storage/coda1/p-amedford6/0/shared/rich_project_chbe-medford/medford-share/data/pseudos_module/espresso/nninc/pbe/van/O.UPF
     MD5 check sum: 78c19812648e8988a0fe644b0f25305e
     Pseudo is Ultrasoft, Zval =  6.0
     Generated by new atomic code, or converted to UPF format
     Using radial grid of  737 points,  4 beta functions with:
                l(1) =   0
                l(2) =   0
                l(3) =   1
                l(4) =   1
     Q(r) pseudized with  8 coefficients,  rinner =    0.800   0.800   0.800

     PseudoPot. # 3 for N  read from file:
     /storage/coda1/p-amedford6/0/shared/rich_project_chbe-medford/medford-share/data/pseudos_module/espresso/nninc/pbe/van/N.UPF
     MD5 check sum: 90d10febe142ad51ac9d5be1deb811c4
     Pseudo is Ultrasoft, Zval =  5.0
     Generated by new atomic code, or converted to UPF format
     Using radial grid of  729 points,  4 beta functions with:
                l(1) =   0
                l(2) =   0
                l(3) =   1
                l(4) =   1
     Q(r) pseudized with  8 coefficients,  rinner =    0.800   0.800   0.800

     PseudoPot. # 4 for C  read from file:
     /storage/coda1/p-amedford6/0/shared/rich_project_chbe-medford/medford-share/data/pseudos_module/espresso/nninc/pbe/van/C.UPF
     MD5 check sum: 1a69bf6b8db32088f5b2163dbdb77a27
     Pseudo is Ultrasoft, Zval =  4.0
     Generated by new atomic code, or converted to UPF format
     Using radial grid of  721 points,  4 beta functions with:
                l(1) =   0
                l(2) =   0
                l(3) =   1
                l(4) =   1
     Q(r) pseudized with  8 coefficients,  rinner =    0.800   0.800   0.800

     PseudoPot. # 5 for H  read from file:
     /storage/coda1/p-amedford6/0/shared/rich_project_chbe-medford/medford-share/data/pseudos_module/espresso/nninc/pbe/van/H.UPF
     MD5 check sum: b5ee9d7bfd3a09ee7748110bda690ff7
     Pseudo is Ultrasoft, Zval =  1.0
     Generated by new atomic code, or converted to UPF format
     Using radial grid of  615 points,  1 beta functions with:
                l(1) =   0
     Q(r) pseudized with  8 coefficients,  rinner =    0.800

     atomic species   valence    mass     pseudopotential
        Ti1           12.00    47.86700     Ti( 1.00)
        O1             6.00    15.99900     O ( 1.00)
        N1             5.00    14.00700     N ( 1.00)
        C1             4.00    12.01100     C ( 1.00)
        H1             1.00     1.00800     H ( 1.00)

     No symmetry found

   Cartesian axes

     site n.     atom                  positions (alat units)
         1           Ti1 tau(   1) = (   0.0004258   2.9801865   6.0000000  )
         2           Ti1 tau(   2) = (   3.2906075   1.4906267   6.0002472  )
         3           O1  tau(   3) = (   0.0006271   0.0005054   7.9858123  )
         4           O1  tau(   4) = (   3.2906025   0.0005020   7.3038282  )
         5           O1  tau(   5) = (   4.5942328   1.4918067   9.2879030  )
         6           O1  tau(   6) = (   1.9868534   1.4903216   9.2879459  )
         7           Ti1 tau(   7) = (   3.2907910   2.8959150   9.1758416  )
         8           Ti1 tau(   8) = (   0.0015273   1.4827037   9.2680791  )
         9           O1  tau(   9) = (   3.2935944   5.9504131  11.3331737  )
        10           O1  tau(  10) = (   0.0116148   5.9584955  10.6183126  )
        11           O1  tau(  11) = (   1.3139784   1.4900993  12.6222913  )
        12           O1  tau(  12) = (   5.2991156   1.4868386  12.6236412  )
        13           Ti1 tau(  13) = (   6.5257823   2.9641578  12.6501544  )
        14           Ti1 tau(  14) = (   3.2087869   1.4768241  12.4812772  )
        15           O1  tau(  15) = (   0.0069532   0.0155221  14.6013729  )
        16           O1  tau(  16) = (   3.2989757   5.9447163  13.9218705  )
        17           O1  tau(  17) = (   4.5399408   1.4684032  16.0509043  )
        18           O1  tau(  18) = (   2.0534050   1.4785924  16.0487376  )
        19           Ti1 tau(  19) = (   3.3071538   2.9600697  15.7031993  )
        20           Ti1 tau(  20) = (   0.0179100   1.3679571  15.8029155  )
        21           O1  tau(  21) = (   3.2904802   0.0005063   4.7018136  )
        22           O1  tau(  22) = (   0.0297737   0.0076327  17.1327444  )
        23           O1  tau(  23) = (   1.3043587   1.4918075   6.0039043  )
        24           O1  tau(  24) = (   5.2767064   1.4903225   6.0039473  )
        25           Ti1 tau(  25) = (   0.0000382   5.9609847   6.0000000  )
        26           Ti1 tau(  26) = (   3.2902200   4.4714249   6.0002472  )
        27           O1  tau(  27) = (   0.0002396   2.9813036   7.9858123  )
        28           O1  tau(  28) = (   3.2902150   2.9813002   7.3038282  )
        29           O1  tau(  29) = (   4.5938453   4.4726049   9.2879030  )
        30           O1  tau(  30) = (   1.9864658   4.4711199   9.2879459  )
        31           Ti1 tau(  31) = (   3.2891106   5.8743827   9.1763621  )
        32           Ti1 tau(  32) = (   0.0006254   4.4649316   9.2693709  )
        33           O1  tau(  33) = (   3.2925666   2.9731923  11.3325550  )
        34           O1  tau(  34) = (   0.0092240   2.9805883  10.6323155  )
        35           O1  tau(  35) = (   1.3076969   4.4692784  12.6256357  )
        36           O1  tau(  36) = (   5.2992390   4.4652990  12.6273021  )
        37           Ti1 tau(  37) = (   6.5214685   5.9362284  12.5385417  )
        38           Ti1 tau(  38) = (   3.2054519   4.4560432  12.4842663  )
        39           O1  tau(  39) = (   0.0022752   2.9713357  14.7092999  )
        40           O1  tau(  40) = (   3.3007181   2.9764241  13.9083417  )
        41           O1  tau(  41) = (   4.5485645   4.4411382  16.0917119  )
        42           O1  tau(  42) = (   2.0537992   4.4371030  16.0853891  )
        43           Ti1 tau(  43) = (   3.2976414   5.9412218  15.7196561  )
        44           Ti1 tau(  44) = (   0.0123595   4.4653852  16.1631357  )
        45           O1  tau(  45) = (   3.2900926   2.9813045   4.7018136  )
        46           O1  tau(  46) = (   1.3039711   4.4726057   6.0039043  )
        47           O1  tau(  47) = (   5.2763189   4.4711207   6.0039473  )
        48           N1  tau(  48) = (   0.6591532   2.9890904  22.3781942  )
        49           C1  tau(  49) = (   6.5648715   3.0365617  17.8347222  )
        50           H1  tau(  50) = (   6.0219261   3.7962297  18.4082231  )
        51           H1  tau(  51) = (   6.0207922   2.1139738  18.0322221  )
        52           H1  tau(  52) = (   0.9815245   2.9432023  18.2599478  )
        53           N1  tau(  53) = (   6.1995506   3.0156182  22.7499213  )

     number of k points=    10  Fermi-Dirac smearing, width (Ry)=  0.0073
                       cart. coord. in units 2pi/alat
        k(    1) = (   0.0000000   0.0000000   0.0000000), wk =   0.1250000
        k(    2) = (   0.0000000   0.0419351   0.0000000), wk =   0.2500000
        k(    3) = (   0.0000000  -0.0838702   0.0000000), wk =   0.1250000
        k(    4) = (   0.0379955   0.0000049   0.0000000), wk =   0.2500000
        k(    5) = (   0.0379955   0.0419400   0.0000000), wk =   0.2500000
        k(    6) = (   0.0379955  -0.0838652   0.0000000), wk =   0.2500000
        k(    7) = (   0.0379955  -0.0419301   0.0000000), wk =   0.2500000
        k(    8) = (  -0.0759910  -0.0000099   0.0000000), wk =   0.1250000
        k(    9) = (  -0.0759910   0.0419252   0.0000000), wk =   0.2500000
        k(   10) = (  -0.0759910  -0.0838800   0.0000000), wk =   0.1250000

     Initial potential from superposition of free atoms

     starting charge  378.99916, renormalised to  395.00000

     negative rho (up, down):  1.029E-02 0.000E+00

     %%%%%%%%%%%%%%%%%%%%%%%%%%%%%%%%%%%%%%%%%%%%%%%%%%%%%%%%%%%%%%%%%%%%%%%%
     %                                                                      %
     % You are using vdW-DF, which was implemented by the Thonhauser group. %
     % Please cite the following two papers that made this development      %
     % possible and the two reviews that describe the various versions:     %
     %                                                                      %
     %   T. Thonhauser et al., PRL 115, 136402 (2015).                      %
     %   T. Thonhauser et al., PRB 76, 125112 (2007).                       %
     %   K. Berland et al., Rep. Prog. Phys. 78, 066501 (2015).             %
     %   D.C. Langreth et al., J. Phys.: Condens. Matter 21, 084203 (2009). %
     %                                                                      %
     %                                                                      %
     % If you are calculating the stress with vdW-DF, please also cite:     %
     %                                                                      %
     %   R. Sabatini et al., J. Phys.: Condens. Matter 24, 424209 (2012).   %
     %                                                                      %
     %%%%%%%%%%%%%%%%%%%%%%%%%%%%%%%%%%%%%%%%%%%%%%%%%%%%%%%%%%%%%%%%%%%%%%%%

     Adding external electric field

     Computed dipole along edir(3) :
        Dipole              -11.4328 Ry au,        -29.0594 Debye
        Dipole field         -0.0216 Ry au,

        Potential amp.        2.0000 Ry
        Total length         46.3494 bohr

     Starting wfcs are  299 atomic wfcs
  @ DRIVER MODE: Message from server: STATUS
  @ DRIVER MODE: Message from server: POSDATA
  @ DRIVER MODE: Reading and sharing cell
  @ DRIVER MODE: Reading and sharing positions
  @ DRIVER MODE: Received positions

     Self-consistent Calculation

     iteration #  1     ecut=    29.40 Ry     beta= 0.05
     Davidson diagonalization with overlap
     c_bands:  1 eigenvalues not converged
     c_bands:  1 eigenvalues not converged
     c_bands:  1 eigenvalues not converged
     c_bands:  1 eigenvalues not converged
     c_bands:  2 eigenvalues not converged
     c_bands:  2 eigenvalues not converged
     c_bands:  1 eigenvalues not converged
     c_bands:  1 eigenvalues not converged
     ethr =  1.00E-05,  avg # of iterations = 19.3

[...]

     total energy              =   -2597.27171432 Ry
     estimated scf accuracy    <    3830.59203131 Ry

     iteration #  2     ecut=    29.40 Ry     beta= 0.05
     Davidson diagonalization with overlap
     ethr =  1.00E-02,  avg # of iterations = 22.2

[...]

     iteration # 52     ecut=    29.40 Ry     beta= 0.05
     Davidson diagonalization with overlap
     c_bands:  1 eigenvalues not converged
     ethr =  3.51E-11,  avg # of iterations = 11.6

[...]

     total energy              =   -2939.19594945 Ry
     estimated scf accuracy    <       0.00000018 Ry

     iteration # 53     ecut=    29.40 Ry     beta= 0.05
     Davidson diagonalization with overlap
     ethr =  3.51E-11,  avg # of iterations =  7.5

     negative rho (up, down):  1.218E-02 0.000E+00

     Adding external electric field

     Computed dipole along edir(3) :
        Dipole                0.4044 Ry au,          1.0280 Debye
        Dipole field          0.0008 Ry au,

        Potential amp.       -0.0708 Ry
        Total length         46.3494 bohr

     End of self-consistent calculation

          k = 0.0000 0.0000 0.0000 ( 18029 PWs)   bands (ev):

   -56.0208 -56.0097 -55.9867 -55.9738 -55.9032 -55.8787 -55.8576 -55.8354
   -55.8268 -55.7933 -55.7928 -55.7595 -55.5772 -55.4519 -54.9980 -54.9639
   -32.5653 -32.5029 -32.3741 -32.3568 -32.3267 -32.3257 -32.3137 -32.2836
   -32.2629 -32.2391 -32.2330 -32.2208 -32.1906 -32.1730 -32.1617 -32.1500
   -32.1342 -32.1248 -32.1087 -32.0824 -32.0795 -32.0779 -32.0396 -32.0319
   -32.0286 -32.0241 -32.0146 -32.0104 -31.9956 -31.9927 -31.9876 -31.9678
   -31.9672 -31.9609 -31.9459 -31.9302 -31.9050 -31.8617 -31.7908 -31.7351
   -31.6685 -31.5565 -31.4051 -31.3167 -31.2943 -31.2218 -31.1353 -31.0242
   -20.6280 -16.7670 -16.4961 -16.2731 -16.1744 -16.1484 -16.0315 -15.8637
   -15.7394 -15.6950 -15.5949 -15.5796 -15.5565 -15.5259 -15.5134 -15.5044
   -15.4692 -15.4617 -15.4443 -15.4323 -15.3814 -15.3634 -15.3538 -15.2420
   -15.1966 -15.1552 -15.1392 -15.0753 -15.0265 -14.6394 -13.5004 -13.3840
    -9.0950  -5.7952  -4.1392  -3.9788  -3.9266  -3.8827  -3.8523  -3.7547
    -3.7515  -3.6360  -3.5721  -3.2653  -3.2083  -3.1920  -3.1741  -3.1461
    -2.9865  -2.9203  -2.8559  -2.8345  -2.8273  -2.7988  -2.7908  -2.7771
    -2.7404  -2.7019  -2.6788  -2.6330  -2.5844  -2.5044  -2.5010  -2.4368
    -2.4137  -2.3358  -2.3201  -2.2903  -2.2621  -2.2481  -2.2388  -2.2181
    -2.2023  -2.1808  -1.9912  -1.9675  -1.8947  -1.8093  -1.8042  -1.6277
    -1.5275  -1.4985  -1.4735  -1.4468  -1.4122  -1.3969  -1.3194  -1.2088
    -1.1760  -1.1376  -1.0763  -1.0260  -0.9943  -0.8945  -0.8713  -0.7826
    -0.7812  -0.7568  -0.7037  -0.6120  -0.5062  -0.4762  -0.4585  -0.4115
    -0.3762  -0.3126  -0.2954  -0.2341  -0.1692  -0.1578  -0.0826  -0.0559
    -0.0512  -0.0268  -0.0158   0.0290   0.0434   0.1651   0.1875   0.2731
     0.3176   0.4135   0.5341   0.6386   0.6755   0.7347   0.9497   1.0241
     1.1238   1.1738   1.2163   1.5954   1.6411   3.1185   3.2017   3.2497
     3.2572   3.3506   3.3642   3.5665   3.5929   3.6239   3.6620

[...]

          k = 0.0380-0.0419 0.0000 ( 17876 PWs)   bands (ev):

[...]

          k =-0.0760-0.0000 0.0000 ( 17886 PWs)   bands (ev):

[...]

          k =-0.0760-0.0839 0.0000 ( 17948 PWs)   bands (ev):

   -56.0044 -56.0030 -55.9922 -55.9911 -55.8953 -55.8703 -55.8654 -55.8436
   -55.8106 -55.8084 -55.7783 -55.7747 -55.5753 -55.4537 -54.9810 -54.9807
   -32.3691 -32.3679 -32.3186 -32.3178 -32.2997 -32.2987 -32.2839 -32.2752
   -32.2277 -32.2132 -32.2106 -32.2059 -32.1696 -32.1530 -32.1500 -32.1391
   -32.1315 -32.1239 -32.1225 -32.1224 -32.1162 -32.1126 -32.0949 -32.0871
   -32.0629 -32.0599 -32.0555 -32.0305 -32.0110 -32.0097 -32.0082 -32.0064
   -31.9923 -31.9904 -31.9874 -31.9823 -31.9409 -31.8466 -31.7928 -31.7378
   -31.7088 -31.6064 -31.3071 -31.3069 -31.2179 -31.2177 -31.1786 -31.1785
   -20.6279 -16.2018 -16.1812 -15.9782 -15.9353 -15.9298 -15.9249 -15.8213
   -15.7180 -15.7158 -15.7141 -15.6441 -15.6190 -15.6082 -15.5590 -15.5559
   -15.5452 -15.5334 -15.5285 -15.4821 -15.4749 -15.4575 -15.4488 -15.3834
   -15.3368 -15.3322 -15.3103 -15.1213 -15.0002 -14.9224 -13.4860 -13.4857
    -9.1078  -5.7984  -3.7584  -3.7540  -3.4931  -3.4688  -3.2365  -3.1807
    -3.1682  -3.0947  -2.9520  -2.9162  -2.9100  -2.8975  -2.8636  -2.8530
    -2.8378  -2.8283  -2.8189  -2.7916  -2.7675  -2.7339  -2.7288  -2.7066
    -2.6894  -2.6718  -2.6477  -2.6385  -2.6198  -2.5944  -2.5812  -2.5598
    -2.5497  -2.5244  -2.4856  -2.3535  -2.2543  -2.2177  -2.1581  -2.1506
    -2.1368  -2.0981  -2.0822  -2.0652  -2.0622  -2.0064  -1.8504  -1.7412
    -1.7254  -1.6885  -1.6397  -1.6192  -1.5650  -1.4307  -1.4036  -1.3774
    -1.3150  -1.3026  -1.2565  -1.2343  -1.2206  -1.1399  -1.1230  -1.0617
    -1.0003  -0.9809  -0.9772  -0.9208  -0.8613  -0.7908  -0.7805  -0.7376
    -0.7002  -0.6498  -0.6333  -0.5958  -0.5270  -0.4904  -0.3708  -0.3216
    -0.0922  -0.0397   0.0263   0.0728   0.1311   0.1789   0.1827   0.2976
     0.3000   0.3146   0.4132   0.4183   0.5067   0.5239   0.5471   0.7368
     1.2711   1.3879   1.3887   1.4605   1.4610   3.3934   3.4117   3.4409
     3.4829   3.6190   3.6283   3.6471   3.6485   3.7748   3.7956

     the Fermi energy is     3.1144 ev

!    total energy              =   -2939.19608085 Ry
     estimated scf accuracy    <       0.00000007 Ry
     smearing contrib. (-TS)   =      -0.02186844 Ry
     internal energy E=F+TS    =   -2939.17421241 Ry

     The total energy is F=E-TS. E is the sum of the following terms:
     one-electron contribution =  -23189.99414761 Ry
     hartree contribution      =   11680.27414712 Ry
     xc contribution           =    -484.90826167 Ry
     ewald contribution        =    9055.45374107 Ry
     electric field correction =       0.00030868 Ry

     convergence has been achieved in  53 iterations

     Forces acting on atoms (cartesian axes, Ry/au):

     atom    1 type  1   force =     0.00001489   -0.00020176    0.09688325
     atom    2 type  1   force =    -0.00001746   -0.00056150   -0.17525614
     atom    3 type  2   force =     0.00010285   -0.00001117   -0.02519823
     atom    4 type  2   force =    -0.00003460   -0.00140917    0.05282269
     atom    5 type  2   force =    -0.01240651   -0.00103619    0.00323905
     atom    6 type  2   force =     0.01390075   -0.00052915    0.00283479
     atom    7 type  1   force =     0.00059290    0.00045195   -0.01141641
     atom    8 type  1   force =     0.00026157    0.01540912    0.02923742
     atom    9 type  2   force =    -0.00019951    0.00078462    0.00004596
     atom   10 type  2   force =    -0.00283435    0.00140763   -0.01829393
     atom   11 type  2   force =     0.00081887    0.00002261   -0.00002941
     atom   12 type  2   force =    -0.00062166   -0.00016464   -0.00011586
     atom   13 type  1   force =     0.00056768   -0.00030034    0.00002515
     atom   14 type  1   force =    -0.00040198    0.00030481   -0.00009846
     atom   15 type  2   force =     0.00013320   -0.00013342    0.00065638
     atom   16 type  2   force =    -0.00015864    0.00008799    0.00047296
     atom   17 type  2   force =     0.00020145   -0.00063992   -0.00019532
     atom   18 type  2   force =    -0.00006885   -0.00058705    0.00015229
     atom   19 type  1   force =     0.00002475   -0.00142608   -0.00034728
     atom   20 type  1   force =    -0.00004965    0.00030864   -0.00011920
     atom   21 type  2   force =     0.00003146    0.00005244    0.10327409
     atom   22 type  2   force =    -0.00021008    0.00048262    0.00001723
     atom   23 type  2   force =    -0.07155796   -0.00009971   -0.02771951
     atom   24 type  2   force =     0.07142920    0.00038824   -0.02778323
     atom   25 type  1   force =     0.00005399   -0.00027397    0.09669427
     atom   26 type  1   force =     0.00002968   -0.00011355   -0.17542908
     atom   27 type  2   force =     0.00013268   -0.00012066   -0.02393419
     atom   28 type  2   force =    -0.00000769   -0.00118557    0.05301082
     atom   29 type  2   force =    -0.01260115    0.00056264    0.00299895
     atom   30 type  2   force =     0.01395425    0.00102271    0.00262017
     atom   31 type  1   force =     0.00051707    0.00341167   -0.01249327
     atom   32 type  1   force =     0.00028211   -0.01698307    0.02993316
     atom   33 type  2   force =    -0.00025030   -0.00052723   -0.00051690
     atom   34 type  2   force =    -0.00265388    0.00030887   -0.02244438
     atom   35 type  2   force =    -0.00004751   -0.00016334    0.00001266
     atom   36 type  2   force =     0.00000604   -0.00001952    0.00004259
     atom   37 type  1   force =     0.00028083   -0.00037461   -0.00054428
     atom   38 type  1   force =    -0.00021867    0.00041297    0.00019639
     atom   39 type  2   force =     0.00005375   -0.00040034    0.00026990
     atom   40 type  2   force =     0.00031733   -0.00051183    0.00000551
     atom   41 type  2   force =    -0.00043892    0.00017105    0.00004241
     atom   42 type  2   force =     0.00047885    0.00025154   -0.00001329
     atom   43 type  1   force =    -0.00018493    0.00068568   -0.00000394
     atom   44 type  1   force =     0.00012588   -0.00055055   -0.00034649
     atom   45 type  2   force =     0.00003087    0.00002188    0.10325603
     atom   46 type  2   force =    -0.07155124   -0.00000496   -0.02771525
     atom   47 type  2   force =     0.07140280    0.00040013   -0.02777633
     atom   48 type  3   force =    -0.00089296    0.00017744   -0.00036724
     atom   49 type  4   force =    -0.00298526   -0.00013304   -0.00391783
     atom   50 type  5   force =     0.00007868    0.00110810    0.00048138
     atom   51 type  5   force =     0.00013269   -0.00046327    0.00046292
     atom   52 type  5   force =     0.00369451    0.00046279    0.00277662
     atom   53 type  3   force =     0.00074222    0.00022744   -0.00038958

     Total force =     0.368938     Total SCF correction =     0.000715
  @ DRIVER MODE: Message from server: STATUS
  @ DRIVER MODE: Message from server: GETFORCE
  @ DRIVER MODE: Returning v,forces,stress,ensemble

     Writing output data file ./calc.save/
  @ DRIVER MODE: Message from server: EXIT
  @ DRIVE MODE: Exiting

     General routines

     Parallel routines

   This run was terminated on:  21:39:54   2Aug2021

   JOB DONE.