     Program PWSCF v.6.7GPU starts on 15Sep2021 at 18:45:49

     R & G space division:  proc/nbgrp/npool/nimage =      10
     Reading input from /storage/home/hcoda1/3/ntian30/research/carbon/CxH_vib/H2O_calc/ads_slab/CH3NH2O_a/out_0011/pw.inp
Warning: card &CELL ignored
Warning: card   CELL_DYNAMICS='IPI', ignored
Warning: card / ignored

     Current dimensions of program PWSCF are:
     Max number of different atomic species (ntypx) = 10
     Max number of k-points (npk) =  40000
     Max angular momentum in pseudopotentials (lmaxx) =  3
     Presently no symmetry can be used with electric field

     Message from routine cell_base_init:
     DEPRECATED: use true lattice parameter, not A to a.u. conversion factor

     IMPORTANT: XC functional enforced from input :
     Exchange-correlation= BEEF-VDW
                           (   1   4  43  14   2   0   0)
     Any further DFT definition will be discarded
     Please, verify this is what you really want

  @ DRIVER MODE: Connecting to
 qe_1139763_2852618.sched-torque.pace.gatech.edu6zjauq12_scratch
  using UNIX socket
  @ DRIVER MODE: Message from server: STATUS
  @ DRIVER MODE: Message from server: INIT
  @ DRIVER MODE: Receiving replica           0          -1
  @ DRIVER MODE: Receiving encoded integer          25
  @ DRIVER MODE:  SCF:  T  FORCE:  T  STRESS:  F  VC:  F  ENSEMBLE:  F
  @ DRIVER MODE:  SCF:  T  FORCE:  T  STRESS:  F  VC:  F  ENSEMBLE:  F

     Using Slab Decomposition

     bravais-lattice index     =            0
     lattice parameter (alat)  =       1.8897  a.u.
     unit-cell volume          =    6658.9804 (a.u.)^3
     number of atoms/cell      =           55
     number of atomic types    =            5
     number of electrons       =       398.00
     number of Kohn-Sham states=          209
     kinetic-energy cutoff     =      29.3995  Ry
     charge density cutoff     =     293.9946  Ry
     scf convergence threshold =      7.3E-08
     mixing beta               =       0.0500
     number of iterations used =            8  plain     mixing
     Exchange-correlation= BEEF-VDW
                           (   1   4  43  14   2   0   0)

     celldm(1)=   1.889726  celldm(2)=   0.000000  celldm(3)=   0.000000
     celldm(4)=   0.000000  celldm(5)=   0.000000  celldm(6)=   0.000000

     crystal axes: (cart. coord. in units of alat)
               a(1) = (   6.579727   0.000000   0.000000 )
               a(2) = (  -0.000775   5.961596   0.000000 )
               a(3) = (   0.000000   0.000000  25.155947 )

     reciprocal axes: (cart. coord. in units 2 pi/alat)
               b(1) = (  0.151982  0.000020  0.000000 )
               b(2) = (  0.000000  0.167740  0.000000 )
               b(3) = (  0.000000  0.000000  0.039752 )

     PseudoPot. # 1 for Ti read from file:
     /storage/coda1/p-amedford6/0/shared/rich_project_chbe-medford/medford-share/data/pseudos_module/espresso/nninc/pbe/van/Ti.UPF
     MD5 check sum: 8e4df49b7f0d34bbd5052bf3f5ea0213
     Pseudo is Ultrasoft, Zval = 12.0
     Generated by new atomic code, or converted to UPF format
     Using radial grid of  851 points,  6 beta functions with:
                l(1) =   0
                l(2) =   0
                l(3) =   1
                l(4) =   1
                l(5) =   2
                l(6) =   2
     Q(r) pseudized with  8 coefficients,  rinner =    1.000   1.000   1.000
                                                       1.000   1.000

     PseudoPot. # 2 for O  read from file:
     /storage/coda1/p-amedford6/0/shared/rich_project_chbe-medford/medford-share/data/pseudos_module/espresso/nninc/pbe/van/O.UPF
     MD5 check sum: 78c19812648e8988a0fe644b0f25305e
     Pseudo is Ultrasoft, Zval =  6.0
     Generated by new atomic code, or converted to UPF format
     Using radial grid of  737 points,  4 beta functions with:
                l(1) =   0
                l(2) =   0
                l(3) =   1
                l(4) =   1
     Q(r) pseudized with  8 coefficients,  rinner =    0.800   0.800   0.800

     PseudoPot. # 3 for N  read from file:
     /storage/coda1/p-amedford6/0/shared/rich_project_chbe-medford/medford-share/data/pseudos_module/espresso/nninc/pbe/van/N.UPF
     MD5 check sum: 90d10febe142ad51ac9d5be1deb811c4
     Pseudo is Ultrasoft, Zval =  5.0
     Generated by new atomic code, or converted to UPF format
     Using radial grid of  729 points,  4 beta functions with:
                l(1) =   0
                l(2) =   0
                l(3) =   1
                l(4) =   1
     Q(r) pseudized with  8 coefficients,  rinner =    0.800   0.800   0.800

     PseudoPot. # 4 for C  read from file:
     /storage/coda1/p-amedford6/0/shared/rich_project_chbe-medford/medford-share/data/pseudos_module/espresso/nninc/pbe/van/C.UPF
     MD5 check sum: 1a69bf6b8db32088f5b2163dbdb77a27
     Pseudo is Ultrasoft, Zval =  4.0
     Generated by new atomic code, or converted to UPF format
     Using radial grid of  721 points,  4 beta functions with:
                l(1) =   0
                l(2) =   0
                l(3) =   1
                l(4) =   1
     Q(r) pseudized with  8 coefficients,  rinner =    0.800   0.800   0.800

     PseudoPot. # 5 for H  read from file:
     /storage/coda1/p-amedford6/0/shared/rich_project_chbe-medford/medford-share/data/pseudos_module/espresso/nninc/pbe/van/H.UPF
     MD5 check sum: b5ee9d7bfd3a09ee7748110bda690ff7
     Pseudo is Ultrasoft, Zval =  1.0
     Generated by new atomic code, or converted to UPF format
     Using radial grid of  615 points,  1 beta functions with:
                l(1) =   0
     Q(r) pseudized with  8 coefficients,  rinner =    0.800

     atomic species   valence    mass     pseudopotential
        Ti1           12.00    47.86700     Ti( 1.00)
        O1             6.00    15.99900     O ( 1.00)
        N1             5.00    14.00700     N ( 1.00)
        C1             4.00    12.01100     C ( 1.00)
        H1             1.00     1.00800     H ( 1.00)

     No symmetry found

   Cartesian axes

     site n.     atom                  positions (alat units)
         1           Ti1 tau(   1) = (   0.0004258   2.9801865   6.0000000  )
         2           Ti1 tau(   2) = (   3.2906075   1.4906267   6.0002472  )
         3           O1  tau(   3) = (   0.0006271   0.0005054   7.9858123  )
         4           O1  tau(   4) = (   3.2906025   0.0005020   7.3038282  )
         5           O1  tau(   5) = (   4.5942328   1.4918067   9.2879030  )
         6           O1  tau(   6) = (   1.9868534   1.4903216   9.2879459  )
         7           Ti1 tau(   7) = (   3.2907910   2.8959150   9.1758416  )
         8           Ti1 tau(   8) = (   0.0015273   1.4827037   9.2680791  )
         9           O1  tau(   9) = (   3.2951577   0.0167633  11.2896499  )
        10           O1  tau(  10) = (   0.0116148   5.9584955  10.6183126  )
        11           O1  tau(  11) = (   1.3222759   1.5071707  12.6129440  )
        12           O1  tau(  12) = (   5.3060066   1.5095485  12.6267335  )
        13           Ti1 tau(  13) = (   6.4824898   3.0013615  12.7357613  )
        14           Ti1 tau(  14) = (   3.1735365   1.4973312  12.4739500  )
        15           O1  tau(  15) = (   0.0245190   0.0017265  14.5963640  )
        16           O1  tau(  16) = (   3.2983568   0.0259644  13.8884976  )
        17           O1  tau(  17) = (   4.5535709   1.5599051  15.9919625  )
        18           O1  tau(  18) = (   2.0723989   1.5598234  15.9883263  )
        19           Ti1 tau(  19) = (   3.3263631   3.0313633  15.6478355  )
        20           Ti1 tau(  20) = (   0.0083359   1.6222165  16.0589653  )
        21           O1  tau(  21) = (   3.2904802   0.0005063   4.7018136  )
        22           O1  tau(  22) = (   0.0206953   0.0548308  17.2083480  )
        23           O1  tau(  23) = (   1.3043587   1.4918075   6.0039043  )
        24           O1  tau(  24) = (   5.2767064   1.4903225   6.0039473  )
        25           Ti1 tau(  25) = (   0.0000382   5.9609847   6.0000000  )
        26           Ti1 tau(  26) = (   3.2902200   4.4714249   6.0002472  )
        27           O1  tau(  27) = (   0.0002396   2.9813036   7.9858123  )
        28           O1  tau(  28) = (   3.2902150   2.9813002   7.3038282  )
        29           O1  tau(  29) = (   4.5938453   4.4726049   9.2879030  )
        30           O1  tau(  30) = (   1.9864658   4.4711199   9.2879459  )
        31           Ti1 tau(  31) = (   3.2891106   5.8743827   9.1763621  )
        32           Ti1 tau(  32) = (   0.0006254   4.4649316   9.2693709  )
        33           O1  tau(  33) = (   3.2909539   2.9954008  11.2901670  )
        34           O1  tau(  34) = (   0.0092240   2.9805883  10.6323155  )
        35           O1  tau(  35) = (   1.3211080   4.4795309  12.6092917  )
        36           O1  tau(  36) = (   5.3058445   4.4798052  12.6251394  )
        37           Ti1 tau(  37) = (   6.5140999   0.0198189  12.7603067  )
        38           Ti1 tau(  38) = (   3.1705570   4.4938763  12.4677136  )
        39           O1  tau(  39) = (   0.0016069   2.9863809  14.6467327  )
        40           O1  tau(  40) = (   3.3112668   3.0122049  13.8485686  )
        41           O1  tau(  41) = (   4.5534170   4.5051619  16.0179686  )
        42           O1  tau(  42) = (   2.0797414   4.5084034  16.0201905  )
        43           Ti1 tau(  43) = (   3.2815144   0.0627375  15.7417980  )
        44           Ti1 tau(  44) = (   0.0076503   4.5954094  16.1032789  )
        45           O1  tau(  45) = (   3.2900926   2.9813045   4.7018136  )
        46           O1  tau(  46) = (   1.3039711   4.4726057   6.0039043  )
        47           O1  tau(  47) = (   5.2763189   4.4711207   6.0039473  )
        48           N1  tau(  48) = (   0.0651939   3.0276870  17.3150544  )
        49           C1  tau(  49) = (   0.3375872   3.0185870  18.7184822  )
        50           H1  tau(  50) = (   0.4544735   4.0311245  19.1352477  )
        51           H1  tau(  51) = (   6.1015407   2.5302758  19.2785169  )
        52           H1  tau(  52) = (   1.2508204   2.4494767  18.9518403  )
        53           O1  tau(  53) = (   3.3357083   0.1159715  18.1615364  )
        54           H1  tau(  54) = (   4.1514219   5.6051498  18.3929375  )
        55           H1  tau(  55) = (   2.5926282   5.5337384  18.4710493  )

     number of k points=    10  Fermi-Dirac smearing, width (Ry)=  0.0073
                       cart. coord. in units 2pi/alat
        k(    1) = (   0.0000000   0.0000000   0.0000000), wk =   0.1250000
        k(    2) = (   0.0000000   0.0419351   0.0000000), wk =   0.2500000
        k(    3) = (   0.0000000  -0.0838702   0.0000000), wk =   0.1250000
        k(    4) = (   0.0379955   0.0000049   0.0000000), wk =   0.2500000
        k(    5) = (   0.0379955   0.0419400   0.0000000), wk =   0.2500000
        k(    6) = (   0.0379955  -0.0838652   0.0000000), wk =   0.2500000
        k(    7) = (   0.0379955  -0.0419301   0.0000000), wk =   0.2500000
        k(    8) = (  -0.0759910  -0.0000099   0.0000000), wk =   0.1250000
        k(    9) = (  -0.0759910   0.0419252   0.0000000), wk =   0.2500000
        k(   10) = (  -0.0759910  -0.0838800   0.0000000), wk =   0.1250000

     Initial potential from superposition of free atoms

     starting charge  381.99915, renormalised to  398.00000

     negative rho (up, down):  1.656E-02 0.000E+00

     %%%%%%%%%%%%%%%%%%%%%%%%%%%%%%%%%%%%%%%%%%%%%%%%%%%%%%%%%%%%%%%%%%%%%%%%
     %                                                                      %
     % You are using vdW-DF, which was implemented by the Thonhauser group. %
     % Please cite the following two papers that made this development      %
     % possible and the two reviews that describe the various versions:     %
     %                                                                      %
     %   T. Thonhauser et al., PRL 115, 136402 (2015).                      %
     %   T. Thonhauser et al., PRB 76, 125112 (2007).                       %
     %   K. Berland et al., Rep. Prog. Phys. 78, 066501 (2015).             %
     %   D.C. Langreth et al., J. Phys.: Condens. Matter 21, 084203 (2009). %
     %                                                                      %
     %                                                                      %
     % If you are calculating the stress with vdW-DF, please also cite:     %
     %                                                                      %
     %   R. Sabatini et al., J. Phys.: Condens. Matter 24, 424209 (2012).   %
     %                                                                      %
     %%%%%%%%%%%%%%%%%%%%%%%%%%%%%%%%%%%%%%%%%%%%%%%%%%%%%%%%%%%%%%%%%%%%%%%%

     Adding external electric field

     Computed dipole along edir(3) :
        Dipole               -9.1047 Ry au,        -23.1419 Debye
        Dipole field         -0.0172 Ry au,

        Potential amp.        1.5927 Ry
        Total length         46.3494 bohr

     Starting wfcs are  301 atomic wfcs
  @ DRIVER MODE: Message from server: STATUS
  @ DRIVER MODE: Message from server: POSDATA
  @ DRIVER MODE: Reading and sharing cell
  @ DRIVER MODE: Reading and sharing positions
  @ DRIVER MODE: Received positions

     Self-consistent Calculation

     iteration #  1     ecut=    29.40 Ry     beta= 0.05
     Davidson diagonalization with overlap
     c_bands:  1 eigenvalues not converged
     c_bands:  1 eigenvalues not converged
     c_bands:  1 eigenvalues not converged
     c_bands:  1 eigenvalues not converged
     c_bands:  1 eigenvalues not converged
     c_bands:  1 eigenvalues not converged
     c_bands:  1 eigenvalues not converged
     c_bands:  2 eigenvalues not converged
     ethr =  1.00E-05,  avg # of iterations = 19.6

[...]

     total energy              =   -2564.55047000 Ry
     estimated scf accuracy    <    4316.85196320 Ry

     iteration #  2     ecut=    29.40 Ry     beta= 0.05
     Davidson diagonalization with overlap
     ethr =  1.00E-02,  avg # of iterations = 24.2

[...]

     iteration # 76     ecut=    29.40 Ry     beta= 0.05
     Davidson diagonalization with overlap
     c_bands:  1 eigenvalues not converged
     ethr =  3.56E-11,  avg # of iterations =  7.4

[...]

     total energy              =   -2953.97093492 Ry
     estimated scf accuracy    <       0.00000015 Ry

     iteration # 77     ecut=    29.40 Ry     beta= 0.05
     Davidson diagonalization with overlap
     ethr =  3.56E-11,  avg # of iterations =  5.0

     negative rho (up, down):  1.668E-02 0.000E+00

     Adding external electric field

     Computed dipole along edir(3) :
        Dipole                0.5239 Ry au,          1.3315 Debye
        Dipole field          0.0010 Ry au,

        Potential amp.       -0.0916 Ry
        Total length         46.3494 bohr

     End of self-consistent calculation

          k = 0.0000 0.0000 0.0000 ( 18029 PWs)   bands (ev):

   -56.5967 -56.5631 -55.7158 -55.6819 -55.6717 -55.6369 -55.4966 -55.4604
   -55.3669 -55.2458 -55.2353 -55.2325 -55.2119 -55.1373 -54.7321 -54.6833
   -33.0235 -32.8712 -32.8430 -32.7730 -32.6821 -32.6496 -32.1837 -32.1542
   -32.0321 -31.9807 -31.9328 -31.9138 -31.8846 -31.8743 -31.8467 -31.8406
   -31.8215 -31.8167 -31.7963 -31.7785 -31.7724 -31.7164 -31.7117 -31.6742
   -31.6606 -31.6368 -31.6315 -31.6228 -31.6004 -31.5919 -31.5855 -31.5613
   -31.4705 -31.4559 -31.4249 -31.4109 -31.3849 -31.3727 -31.3614 -31.3426
   -31.3145 -31.2618 -31.2469 -30.9760 -30.9540 -30.9257 -30.9013 -30.7925
   -18.7836 -16.7524 -16.2897 -16.0492 -15.9530 -15.8718 -15.8311 -15.7882
   -15.6433 -15.5680 -15.5485 -15.5448 -15.4789 -15.3348 -15.2798 -15.1820
   -15.0969 -14.9559 -14.9443 -14.9030 -14.8914 -14.8550 -14.8509 -14.8006
   -14.6317 -14.5954 -14.5486 -14.4918 -14.3989 -14.1791 -13.7440 -13.6343
   -13.0399  -7.7501  -6.5779  -4.3195  -3.7882  -3.5238  -3.4913  -3.3625
    -3.3595  -3.3190  -3.1718  -3.1638  -3.0900  -3.0665  -3.0147  -2.9524
    -2.8912  -2.8715  -2.7824  -2.7673  -2.7626  -2.7486  -2.7195  -2.6034
    -2.5588  -2.5092  -2.4055  -2.2951  -2.2532  -2.2260  -2.1794  -2.1468
    -2.0950  -2.0843  -2.0720  -2.0598  -1.9575  -1.8329  -1.8093  -1.7867
    -1.7391  -1.7267  -1.7160  -1.6942  -1.6132  -1.5012  -1.4098  -1.3386
    -1.3327  -1.2558  -1.2482  -1.1933  -1.0790  -1.0181  -1.0159  -0.9917
    -0.8874  -0.8653  -0.7929  -0.7311  -0.6706  -0.6178  -0.5543  -0.5029
    -0.4782  -0.4695  -0.3725  -0.3028  -0.2780  -0.2214  -0.2138  -0.2078
    -0.1814  -0.0877  -0.0519   0.0261   0.0602   0.1078   0.1429   0.2225
     0.2819   0.3488   0.3953   0.4166   0.4813   0.5378   0.5945   0.6829
     0.7416   0.7476   0.7761   0.8338   0.8472   0.9203   1.0033   1.0243
     1.0895   1.1608   1.3259   1.3649   1.6159   1.6828   2.3102   2.6804
     2.8414   3.1367   3.3257   3.4636   3.6594   3.6700   3.6772   3.8968
     3.9257

[...]

          k = 0.0380-0.0419 0.0000 ( 17876 PWs)   bands (ev):

[...]

          k =-0.0760-0.0000 0.0000 ( 17886 PWs)   bands (ev):

[...]

          k =-0.0760-0.0839 0.0000 ( 17948 PWs)   bands (ev):

   -56.5801 -56.5796 -55.7008 -55.6965 -55.6588 -55.6499 -55.4826 -55.4743
   -55.3645 -55.2376 -55.2292 -55.2289 -55.2287 -55.1405 -54.7249 -54.6904
   -32.8571 -32.8567 -32.8405 -32.8402 -32.7262 -32.7258 -32.0073 -32.0015
   -31.9899 -31.9830 -31.9069 -31.8923 -31.8909 -31.8866 -31.8799 -31.8784
   -31.8709 -31.8630 -31.8377 -31.8209 -31.7276 -31.7212 -31.6896 -31.6818
   -31.6593 -31.6234 -31.5916 -31.5752 -31.5743 -31.5742 -31.5533 -31.5363
   -31.4845 -31.4537 -31.4535 -31.4516 -31.4366 -31.4146 -31.4145 -31.4057
   -31.3794 -31.3441 -31.1077 -31.0457 -30.9515 -30.9265 -30.9111 -30.8648
   -18.7827 -16.1032 -16.1012 -16.0657 -16.0650 -15.7987 -15.7954 -15.7067
   -15.7010 -15.5699 -15.4493 -15.3444 -15.3318 -15.2980 -15.2718 -15.1619
   -15.1409 -15.1300 -15.1199 -15.0129 -14.9934 -14.9457 -14.9307 -14.9157
   -14.9078 -14.6129 -14.5967 -14.4962 -14.4703 -14.3314 -13.7379 -13.7378
   -13.0590  -7.7434  -6.5709  -3.1991  -3.1931  -3.1494  -3.1388  -3.1379
    -3.0615  -2.9815  -2.9320  -2.9307  -2.9240  -2.8414  -2.7858  -2.7781
    -2.7107  -2.6707  -2.6540  -2.5988  -2.5970  -2.5183  -2.4915  -2.4840
    -2.4689  -2.4416  -2.4400  -2.3489  -2.2821  -2.2361  -2.2310  -2.1723
    -2.1421  -2.0829  -2.0629  -2.0493  -2.0151  -1.9739  -1.9613  -1.9241
    -1.8835  -1.8518  -1.7848  -1.6169  -1.6079  -1.5997  -1.5794  -1.4572
    -1.4491  -1.4146  -1.3823  -1.3767  -1.3071  -1.2558  -1.2187  -1.1670
    -1.0804  -1.0589  -0.9545  -0.9026  -0.8586  -0.8027  -0.6981  -0.6776
    -0.6707  -0.6587  -0.6295  -0.5593  -0.5241  -0.5211  -0.3988  -0.3741
    -0.3361  -0.3063  -0.2480  -0.2200  -0.1592  -0.1278  -0.0584  -0.0433
    -0.0038   0.0745   0.1476   0.1836   0.2337   0.2400   0.5138   0.5875
     0.7165   0.7789   0.8414   0.9098   0.9759   1.0032   1.0325   1.1595
     1.1638   1.1737   1.1742   1.2434   1.2484   1.5915   2.1889   3.2563
     3.2566   3.3228   3.3235   3.6444   3.6507   3.7576   3.7680   3.9268
     3.9410

     the Fermi energy is     2.5082 ev

!    total energy              =   -2953.97095659 Ry
     estimated scf accuracy    <       0.00000005 Ry
     smearing contrib. (-TS)   =      -0.00445953 Ry
     internal energy E=F+TS    =   -2953.96649706 Ry

     The total energy is F=E-TS. E is the sum of the following terms:
     one-electron contribution =  -24345.89186465 Ry
     hartree contribution      =   12264.78890881 Ry
     xc contribution           =    -488.77268773 Ry
     ewald contribution        =    9615.90862861 Ry
     electric field correction =       0.00051789 Ry

     convergence has been achieved in  77 iterations

     Forces acting on atoms (cartesian axes, Ry/au):

     atom    1 type  1   force =    -0.00002761   -0.00048397    0.12438940
     atom    2 type  1   force =    -0.00003687   -0.00048408   -0.15982282
     atom    3 type  2   force =     0.00020169   -0.00023687   -0.06775944
     atom    4 type  2   force =     0.00000084   -0.00009289    0.02617943
     atom    5 type  2   force =    -0.01436951    0.00191301   -0.00988366
     atom    6 type  2   force =     0.01615526    0.00232383   -0.01026137
     atom    7 type  1   force =     0.00071786   -0.00389552    0.02841431
     atom    8 type  1   force =    -0.00033708   -0.00436142    0.10929970
     atom    9 type  2   force =     0.00002178    0.00001637    0.00012545
     atom   10 type  2   force =    -0.00225811    0.00266777   -0.07356203
     atom   11 type  2   force =     0.00079373   -0.00003315   -0.00022318
     atom   12 type  2   force =    -0.00042180    0.00004451   -0.00018512
     atom   13 type  1   force =    -0.00000764    0.00013675   -0.00023945
     atom   14 type  1   force =    -0.00035022    0.00048808   -0.00047709
     atom   15 type  2   force =     0.00002344   -0.00068031   -0.00007453
     atom   16 type  2   force =    -0.00018126   -0.00000496    0.00044755
     atom   17 type  2   force =    -0.00053521   -0.00027544   -0.00030308
     atom   18 type  2   force =     0.00016874   -0.00013967    0.00012745
     atom   19 type  1   force =     0.00043709    0.00000349   -0.00023289
     atom   20 type  1   force =    -0.00026402   -0.00113477   -0.00152563
     atom   21 type  2   force =     0.00006807   -0.00003890    0.09952805
     atom   22 type  2   force =     0.00003839   -0.00047166    0.00003838
     atom   23 type  2   force =    -0.07969702   -0.00006432   -0.03245172
     atom   24 type  2   force =     0.07957010    0.00037419   -0.03250866
     atom   25 type  1   force =    -0.00000486   -0.00056410    0.12403139
     atom   26 type  1   force =    -0.00010360   -0.00062816   -0.15994465
     atom   27 type  2   force =     0.00033309   -0.00035856   -0.06682885
     atom   28 type  2   force =    -0.00002535    0.00017539    0.02520270
     atom   29 type  2   force =    -0.01496006    0.00189656   -0.00986021
     atom   30 type  2   force =     0.01664732    0.00242383   -0.01019323
     atom   31 type  1   force =     0.00078296   -0.00076888    0.02368303
     atom   32 type  1   force =    -0.00023142    0.00200314    0.10992597
     atom   33 type  2   force =     0.00004218   -0.00026986    0.00039165
     atom   34 type  2   force =    -0.00212581    0.00207039   -0.07167974
     atom   35 type  2   force =     0.00021860   -0.00012108   -0.00007323
     atom   36 type  2   force =    -0.00015075   -0.00024632   -0.00014188
     atom   37 type  1   force =     0.00041588   -0.00002429    0.00022079
     atom   38 type  1   force =     0.00001283   -0.00056436   -0.00025356
     atom   39 type  2   force =     0.00005484    0.00017622    0.00071840
     atom   40 type  2   force =    -0.00008423   -0.00024047    0.00031108
     atom   41 type  2   force =     0.00078902   -0.00038208    0.00011055
     atom   42 type  2   force =    -0.00107452   -0.00044997    0.00061324
     atom   43 type  1   force =     0.00001816   -0.00036298    0.00020342
     atom   44 type  1   force =    -0.00034485    0.00045264   -0.00143924
     atom   45 type  2   force =     0.00005380   -0.00004835    0.09949262
     atom   46 type  2   force =    -0.07970612    0.00000228   -0.03247129
     atom   47 type  2   force =     0.07958536    0.00042864   -0.03249509
     atom   48 type  3   force =    -0.00156714   -0.00009362   -0.00797743
     atom   49 type  4   force =    -0.00071429    0.00051511    0.01630472
     atom   50 type  5   force =    -0.00071301   -0.00259577   -0.00231896
     atom   51 type  5   force =     0.00284652    0.00102349   -0.00274385
     atom   52 type  5   force =    -0.00052850    0.00070220   -0.00150725
     atom   53 type  2   force =    -0.00060116   -0.00012259   -0.00089618
     atom   54 type  5   force =     0.00079562    0.00038604    0.00074373
     atom   55 type  5   force =     0.00062887    0.00001546   -0.00016771

     Total force =     0.423720     Total SCF correction =     0.000583
  @ DRIVER MODE: Message from server: STATUS
  @ DRIVER MODE: Message from server: GETFORCE
  @ DRIVER MODE: Returning v,forces,stress,ensemble

     Writing output data file ./calc.save/
  @ DRIVER MODE: Message from server: EXIT
  @ DRIVE MODE: Exiting

     General routines

     Parallel routines

   This run was terminated on:  19: 5: 6  15Sep2021

   JOB DONE.