     Program PWSCF v.6.7GPU starts on 27Jul2021 at 14: 0: 6

     R & G space division:  proc/nbgrp/npool/nimage =      16
     Reading input from /storage/home/hcoda1/3/ntian30/research/carbon/15Jul_vib/ads_slab/CH3NHHH_a/out_0013/pw.inp
Warning: card &CELL ignored
Warning: card   CELL_DYNAMICS='IPI', ignored
Warning: card / ignored

     Current dimensions of program PWSCF are:
     Max number of different atomic species (ntypx) = 10
     Max number of k-points (npk) =  40000
     Max angular momentum in pseudopotentials (lmaxx) =  3
     Presently no symmetry can be used with electric field

     Message from routine cell_base_init:
     DEPRECATED: use true lattice parameter, not A to a.u. conversion factor

     IMPORTANT: XC functional enforced from input :
     Exchange-correlation= BEEF-VDW
                           (   1   4  43  14   2   0   0)
     Any further DFT definition will be discarded
     Please, verify this is what you really want

  @ DRIVER MODE: Connecting to
 qe_1139763_2431568.sched-torque.pace.gatech.eduekle5ahz_scratch
  using UNIX socket
  @ DRIVER MODE: Message from server: STATUS
  @ DRIVER MODE: Message from server: INIT
  @ DRIVER MODE: Receiving replica           0          -1
  @ DRIVER MODE: Receiving encoded integer          25
  @ DRIVER MODE:  SCF:  T  FORCE:  T  STRESS:  F  VC:  F  ENSEMBLE:  F
  @ DRIVER MODE:  SCF:  T  FORCE:  T  STRESS:  F  VC:  F  ENSEMBLE:  F

     Using Slab Decomposition

     bravais-lattice index     =            0
     lattice parameter (alat)  =       1.8897  a.u.
     unit-cell volume          =    6658.9804 (a.u.)^3
     number of atoms/cell      =           55
     number of atomic types    =            5
     number of electrons       =       393.00
     number of Kohn-Sham states=          206
     kinetic-energy cutoff     =      29.3995  Ry
     charge density cutoff     =     293.9946  Ry
     scf convergence threshold =      7.3E-08
     mixing beta               =       0.0500
     number of iterations used =            8  plain     mixing
     Exchange-correlation= BEEF-VDW
                           (   1   4  43  14   2   0   0)

     celldm(1)=   1.889726  celldm(2)=   0.000000  celldm(3)=   0.000000
     celldm(4)=   0.000000  celldm(5)=   0.000000  celldm(6)=   0.000000

     crystal axes: (cart. coord. in units of alat)
               a(1) = (   6.579727   0.000000   0.000000 )
               a(2) = (  -0.000775   5.961596   0.000000 )
               a(3) = (   0.000000   0.000000  25.155947 )

     reciprocal axes: (cart. coord. in units 2 pi/alat)
               b(1) = (  0.151982  0.000020  0.000000 )
               b(2) = (  0.000000  0.167740  0.000000 )
               b(3) = (  0.000000  0.000000  0.039752 )

     PseudoPot. # 1 for Ti read from file:
     /storage/coda1/p-amedford6/0/shared/rich_project_chbe-medford/medford-share/data/pseudos_module/espresso/nninc/pbe/van/Ti.UPF
     MD5 check sum: 8e4df49b7f0d34bbd5052bf3f5ea0213
     Pseudo is Ultrasoft, Zval = 12.0
     Generated by new atomic code, or converted to UPF format
     Using radial grid of  851 points,  6 beta functions with:
                l(1) =   0
                l(2) =   0
                l(3) =   1
                l(4) =   1
                l(5) =   2
                l(6) =   2
     Q(r) pseudized with  8 coefficients,  rinner =    1.000   1.000   1.000
                                                       1.000   1.000

     PseudoPot. # 2 for O  read from file:
     /storage/coda1/p-amedford6/0/shared/rich_project_chbe-medford/medford-share/data/pseudos_module/espresso/nninc/pbe/van/O.UPF
     MD5 check sum: 78c19812648e8988a0fe644b0f25305e
     Pseudo is Ultrasoft, Zval =  6.0
     Generated by new atomic code, or converted to UPF format
     Using radial grid of  737 points,  4 beta functions with:
                l(1) =   0
                l(2) =   0
                l(3) =   1
                l(4) =   1
     Q(r) pseudized with  8 coefficients,  rinner =    0.800   0.800   0.800

     PseudoPot. # 3 for N  read from file:
     /storage/coda1/p-amedford6/0/shared/rich_project_chbe-medford/medford-share/data/pseudos_module/espresso/nninc/pbe/van/N.UPF
     MD5 check sum: 90d10febe142ad51ac9d5be1deb811c4
     Pseudo is Ultrasoft, Zval =  5.0
     Generated by new atomic code, or converted to UPF format
     Using radial grid of  729 points,  4 beta functions with:
                l(1) =   0
                l(2) =   0
                l(3) =   1
                l(4) =   1
     Q(r) pseudized with  8 coefficients,  rinner =    0.800   0.800   0.800

     PseudoPot. # 4 for C  read from file:
     /storage/coda1/p-amedford6/0/shared/rich_project_chbe-medford/medford-share/data/pseudos_module/espresso/nninc/pbe/van/C.UPF
     MD5 check sum: 1a69bf6b8db32088f5b2163dbdb77a27
     Pseudo is Ultrasoft, Zval =  4.0
     Generated by new atomic code, or converted to UPF format
     Using radial grid of  721 points,  4 beta functions with:
                l(1) =   0
                l(2) =   0
                l(3) =   1
                l(4) =   1
     Q(r) pseudized with  8 coefficients,  rinner =    0.800   0.800   0.800

     PseudoPot. # 5 for H  read from file:
     /storage/coda1/p-amedford6/0/shared/rich_project_chbe-medford/medford-share/data/pseudos_module/espresso/nninc/pbe/van/H.UPF
     MD5 check sum: b5ee9d7bfd3a09ee7748110bda690ff7
     Pseudo is Ultrasoft, Zval =  1.0
     Generated by new atomic code, or converted to UPF format
     Using radial grid of  615 points,  1 beta functions with:
                l(1) =   0
     Q(r) pseudized with  8 coefficients,  rinner =    0.800

     atomic species   valence    mass     pseudopotential
        Ti1           12.00    47.86700     Ti( 1.00)
        O1             6.00    15.99900     O ( 1.00)
        N1             5.00    14.00700     N ( 1.00)
        C1             4.00    12.01100     C ( 1.00)
        H1             1.00     1.00800     H ( 1.00)

     Starting magnetic structure
     atomic species   magnetization
        Ti1          0.000
        O1           0.000
        N1           0.040
        C1           0.025
        H1           0.000

     No symmetry found

   Cartesian axes

     site n.     atom                  positions (alat units)
         1           Ti1 tau(   1) = (   0.0004258   2.9801865   6.0000000  )
         2           Ti1 tau(   2) = (   3.2906075   1.4906267   6.0002472  )
         3           O1  tau(   3) = (   0.0006271   0.0005054   7.9858123  )
         4           O1  tau(   4) = (   3.2906025   0.0005020   7.3038282  )
         5           O1  tau(   5) = (   4.5942328   1.4918067   9.2879030  )
         6           O1  tau(   6) = (   1.9868534   1.4903216   9.2879459  )
         7           Ti1 tau(   7) = (   3.2907910   2.8959150   9.1758416  )
         8           Ti1 tau(   8) = (   0.0015273   1.4827037   9.2680791  )
         9           O1  tau(   9) = (   3.2636084   5.9406443  11.4082010  )
        10           O1  tau(  10) = (   0.0116148   5.9584955  10.6183126  )
        11           O1  tau(  11) = (   1.2642105   1.4849797  12.6947803  )
        12           O1  tau(  12) = (   5.2691575   1.4821021  12.6650678  )
        13           Ti1 tau(  13) = (   6.5574234   2.9640577  12.4921542  )
        14           Ti1 tau(  14) = (   3.2619390   1.4709553  12.5527290  )
        15           O1  tau(  15) = (   6.5247406   5.9594380  14.6832748  )
        16           O1  tau(  16) = (   3.2695906   5.9428997  14.0562986  )
        17           O1  tau(  17) = (   4.5175969   1.4707097  16.2986306  )
        18           O1  tau(  18) = (   1.9406912   1.4777946  16.2473769  )
        19           Ti1 tau(  19) = (   3.2491105   2.9422209  15.8109686  )
        20           Ti1 tau(  20) = (   6.5361480   1.3378720  15.9626387  )
        21           O1  tau(  21) = (   3.2904802   0.0005063   4.7018136  )
        22           O1  tau(  22) = (   6.5280740   5.8897732  17.4332532  )
        23           O1  tau(  23) = (   1.3043587   1.4918075   6.0039043  )
        24           O1  tau(  24) = (   5.2767064   1.4903225   6.0039473  )
        25           Ti1 tau(  25) = (   0.0000382   5.9609847   6.0000000  )
        26           Ti1 tau(  26) = (   3.2902200   4.4714249   6.0002472  )
        27           O1  tau(  27) = (   0.0002396   2.9813036   7.9858123  )
        28           O1  tau(  28) = (   3.2902150   2.9813002   7.3038282  )
        29           O1  tau(  29) = (   4.5938453   4.4726049   9.2879030  )
        30           O1  tau(  30) = (   1.9864658   4.4711199   9.2879459  )
        31           Ti1 tau(  31) = (   3.2891106   5.8743827   9.1763621  )
        32           Ti1 tau(  32) = (   0.0006254   4.4649316   9.2693709  )
        33           O1  tau(  33) = (   3.2649920   2.9642658  11.3997388  )
        34           O1  tau(  34) = (   0.0092240   2.9805883  10.6323155  )
        35           O1  tau(  35) = (   1.2634527   4.4478426  12.7061968  )
        36           O1  tau(  36) = (   5.2693862   4.4495813  12.6755241  )
        37           Ti1 tau(  37) = (   6.5522441   5.9483113  12.5008436  )
        38           Ti1 tau(  38) = (   3.2626494   4.4468850  12.5575576  )
        39           O1  tau(  39) = (   6.4970557   2.9363996  15.0046851  )
        40           O1  tau(  40) = (   3.2722650   2.9529576  14.0194401  )
        41           O1  tau(  41) = (   4.5170401   4.4205294  16.2730734  )
        42           O1  tau(  42) = (   1.9466746   4.4191161  16.2235312  )
        43           Ti1 tau(  43) = (   3.2419262   5.9323414  15.8513663  )
        44           Ti1 tau(  44) = (   6.5549466   4.5556212  15.8889459  )
        45           O1  tau(  45) = (   3.2900926   2.9813045   4.7018136  )
        46           O1  tau(  46) = (   1.3039711   4.4726057   6.0039043  )
        47           O1  tau(  47) = (   5.2763189   4.4711207   6.0039473  )
        48           N1  tau(  48) = (   4.8657738   4.5798987  19.4796958  )
        49           C1  tau(  49) = (   5.7271871   3.4329544  19.8049648  )
        50           H1  tau(  50) = (   6.3141292   3.1721029  18.9298488  )
        51           H1  tau(  51) = (   6.4229137   3.7195585  20.5942015  )
        52           H1  tau(  52) = (   5.1874390   2.5328885  20.1195193  )
        53           H1  tau(  53) = (   5.9066942   5.7389963  18.1772939  )
        54           H1  tau(  54) = (   4.2103208   4.3266459  18.7469397  )
        55           H1  tau(  55) = (   4.3187305   4.8545830  20.2870342  )

     number of k points=    10  Fermi-Dirac smearing, width (Ry)=  0.0073
                       cart. coord. in units 2pi/alat
        k(    1) = (   0.0000000   0.0000000   0.0000000), wk =   0.0625000
        k(    2) = (   0.0000000   0.0419351   0.0000000), wk =   0.1250000
        k(    3) = (   0.0000000  -0.0838702   0.0000000), wk =   0.0625000
        k(    4) = (   0.0379955   0.0000049   0.0000000), wk =   0.1250000
        k(    5) = (   0.0379955   0.0419400   0.0000000), wk =   0.1250000
        k(    6) = (   0.0379955  -0.0838652   0.0000000), wk =   0.1250000
[...]

     negative rho (up, down):  6.647E-03 6.649E-03

     %%%%%%%%%%%%%%%%%%%%%%%%%%%%%%%%%%%%%%%%%%%%%%%%%%%%%%%%%%%%%%%%%%%%%%%%
     %                                                                      %
     % You are using vdW-DF, which was implemented by the Thonhauser group. %
     % Please cite the following two papers that made this development      %
     % possible and the two reviews that describe the various versions:     %
     %                                                                      %
     %   T. Thonhauser et al., PRL 115, 136402 (2015).                      %
     %   T. Thonhauser et al., PRB 76, 125112 (2007).                       %
     %   K. Berland et al., Rep. Prog. Phys. 78, 066501 (2015).             %
     %   D.C. Langreth et al., J. Phys.: Condens. Matter 21, 084203 (2009). %
     %                                                                      %
     %                                                                      %
     % If you are calculating the stress with vdW-DF, please also cite:     %
     %                                                                      %
     %   R. Sabatini et al., J. Phys.: Condens. Matter 24, 424209 (2012).   %
     %                                                                      %
     %%%%%%%%%%%%%%%%%%%%%%%%%%%%%%%%%%%%%%%%%%%%%%%%%%%%%%%%%%%%%%%%%%%%%%%%

     Adding external electric field

     Computed dipole along edir(3) :
        Dipole               -9.4918 Ry au,        -24.1257 Debye
        Dipole field         -0.0179 Ry au,

        Potential amp.        1.6604 Ry
        Total length         46.3494 bohr

[...]

     Starting wfcs are  298 atomic wfcs
  @ DRIVER MODE: Message from server: STATUS
  @ DRIVER MODE: Message from server: POSDATA
  @ DRIVER MODE: Reading and sharing cell
  @ DRIVER MODE: Reading and sharing positions
  @ DRIVER MODE: Received positions

     Self-consistent Calculation

     iteration #  1     ecut=    29.40 Ry     beta= 0.05
     Davidson diagonalization with overlap
     c_bands:  2 eigenvalues not converged
     c_bands:  1 eigenvalues not converged
     c_bands:  2 eigenvalues not converged
     c_bands:  3 eigenvalues not converged
     c_bands:  3 eigenvalues not converged
     c_bands:  1 eigenvalues not converged
     c_bands:  2 eigenvalues not converged
     c_bands:  1 eigenvalues not converged
     c_bands:  2 eigenvalues not converged
     c_bands:  3 eigenvalues not converged
     c_bands:  3 eigenvalues not converged
     c_bands:  1 eigenvalues not converged
     ethr =  1.00E-05,  avg # of iterations = 18.9

[...]

     total energy              =   -2620.50138848 Ry
     estimated scf accuracy    <    3389.62448270 Ry

     total magnetization       =     0.00 Bohr mag/cell
     absolute magnetization    =     0.01 Bohr mag/cell

[...]

     iteration #  3     ecut=    29.40 Ry     beta= 0.05
     Davidson diagonalization with overlap
     ethr =  1.00E-02,  avg # of iterations = 14.9

[...]

     iteration #210     ecut=    29.40 Ry     beta= 0.05
     Davidson diagonalization with overlap
     c_bands:  2 eigenvalues not converged
     c_bands:  1 eigenvalues not converged
     c_bands:  1 eigenvalues not converged
     c_bands:  2 eigenvalues not converged
     ethr =  2.15E-11,  avg # of iterations = 15.7

[...]

     total energy              =   -2922.77423151 Ry
     estimated scf accuracy    <       0.00000009 Ry

[...]

     iteration #211     ecut=    29.40 Ry     beta= 0.05
     Davidson diagonalization with overlap
     ethr =  2.15E-11,  avg # of iterations =  9.7

     negative rho (up, down):  7.249E-03 7.251E-03

[...]

     Adding external electric field

     Computed dipole along edir(3) :
        Dipole                1.4028 Ry au,          3.5657 Debye
        Dipole field          0.0026 Ry au,

        Potential amp.       -0.2454 Ry
        Total length         46.3494 bohr

     Magnetic moment per site  (integrated on atomic sphere of radius R)
     atom   1 (R=0.739)  charge=  8.0547  magn=  0.0089
     atom   2 (R=0.739)  charge=  8.0362  magn=  0.0002
     atom   3 (R=0.405)  charge=  2.0075  magn= -0.0005
     atom   4 (R=0.405)  charge=  2.0190  magn= -0.0000
     atom   5 (R=0.405)  charge=  2.0105  magn= -0.0001
     atom   6 (R=0.405)  charge=  2.0107  magn= -0.0001
     atom   7 (R=0.739)  charge=  8.0371  magn=  0.0006
     atom   8 (R=0.739)  charge=  8.0393  magn=  0.0070
     atom   9 (R=0.405)  charge=  2.0112  magn= -0.0001
     atom  10 (R=0.405)  charge=  2.0118  magn= -0.0002
     atom  11 (R=0.405)  charge=  2.0092  magn= -0.0001
     atom  12 (R=0.405)  charge=  2.0092  magn= -0.0001
     atom  13 (R=0.739)  charge=  8.0499  magn=  0.0024
     atom  14 (R=0.739)  charge=  8.0432  magn=  0.0018
     atom  15 (R=0.405)  charge=  2.0128  magn= -0.0000
     atom  16 (R=0.405)  charge=  2.0108  magn= -0.0001
     atom  17 (R=0.405)  charge=  2.0009  magn= -0.0000
     atom  18 (R=0.405)  charge=  2.0012  magn= -0.0000
     atom  19 (R=0.739)  charge=  8.0824  magn=  0.0007
     atom  20 (R=0.739)  charge=  8.1004  magn=  0.0005
     atom  21 (R=0.405)  charge=  1.9825  magn= -0.0000
     atom  22 (R=0.405)  charge=  2.0201  magn= -0.0000
     atom  23 (R=0.405)  charge=  2.0078  magn= -0.0004
     atom  24 (R=0.405)  charge=  2.0078  magn= -0.0004
     atom  25 (R=0.739)  charge=  8.0548  magn=  0.0090
     atom  26 (R=0.739)  charge=  8.0362  magn=  0.0002
     atom  27 (R=0.405)  charge=  2.0075  magn= -0.0005
     atom  28 (R=0.405)  charge=  2.0191  magn= -0.0000
     atom  29 (R=0.405)  charge=  2.0107  magn= -0.0001
     atom  30 (R=0.405)  charge=  2.0109  magn= -0.0001
     atom  31 (R=0.739)  charge=  8.0372  magn=  0.0006
     atom  32 (R=0.739)  charge=  8.0392  magn=  0.0070
     atom  33 (R=0.405)  charge=  2.0120  magn= -0.0001
     atom  34 (R=0.405)  charge=  2.0122  magn= -0.0002
     atom  35 (R=0.405)  charge=  2.0082  magn= -0.0001
     atom  36 (R=0.405)  charge=  2.0092  magn= -0.0001
     atom  37 (R=0.739)  charge=  8.0419  magn=  0.0026
     atom  38 (R=0.739)  charge=  8.0432  magn=  0.0018
     atom  39 (R=0.405)  charge=  2.0116  magn= -0.0000
     atom  40 (R=0.405)  charge=  2.0126  magn= -0.0001
     atom  41 (R=0.405)  charge=  2.0020  magn= -0.0000
     atom  42 (R=0.405)  charge=  2.0020  magn= -0.0000
     atom  43 (R=0.739)  charge=  8.0813  magn=  0.0006
     atom  44 (R=0.739)  charge=  8.1024  magn=  0.0004
     atom  45 (R=0.405)  charge=  1.9825  magn= -0.0000
     atom  46 (R=0.405)  charge=  2.0078  magn= -0.0004
     atom  47 (R=0.405)  charge=  2.0078  magn= -0.0004
     atom  48 (R=0.418)  charge=  1.3245  magn= -0.0000
     atom  49 (R=0.448)  charge=  0.8396  magn=  0.0000
     atom  50 (R=0.405)  charge=  0.4166  magn= -0.0000
     atom  51 (R=0.405)  charge=  0.4139  magn= -0.0000
     atom  52 (R=0.405)  charge=  0.4128  magn= -0.0000
     atom  53 (R=0.405)  charge=  0.3971  magn=  0.0000
     atom  54 (R=0.405)  charge=  0.4210  magn= -0.0000
     atom  55 (R=0.405)  charge=  0.4256  magn= -0.0000

     End of self-consistent calculation

 ------ SPIN UP ------------

          k = 0.0000 0.0000 0.0000 ( 18029 PWs)   bands (ev):

   -55.3108 -55.2750 -55.2651 -55.2310 -55.1752 -55.1495 -55.1483 -55.1408
   -55.1151 -55.0903 -55.0743 -55.0564 -55.0320 -54.9739 -54.3011 -54.2670
   -31.8770 -31.7546 -31.6896 -31.6628 -31.6372 -31.6171 -31.5978 -31.5543
   -31.5514 -31.5475 -31.5182 -31.5099 -31.5058 -31.4785 -31.4671 -31.4635
   -31.4496 -31.4392 -31.4191 -31.4042 -31.3978 -31.3817 -31.3760 -31.3577
   -31.3535 -31.3236 -31.3177 -31.3074 -31.3032 -31.2919 -31.2903 -31.2858
   -31.2779 -31.2765 -31.2611 -31.2578 -31.2260 -31.2181 -31.2014 -31.2008
   -31.1827 -31.1075 -30.7111 -30.6150 -30.5930 -30.5272 -30.4403 -30.3296
   -16.8244 -16.1478 -15.8914 -15.7706 -15.6615 -15.5884 -15.5206 -15.4417
   -15.3579 -15.2573 -15.1956 -15.0909 -15.0563 -15.0167 -15.0022 -14.9830
   -14.9559 -14.8761 -14.8650 -14.8543 -14.8285 -14.8099 -14.7823 -14.7731
   -14.7666 -14.7274 -14.6895 -14.5775 -14.4872 -14.4013 -12.8043 -12.6865
   -10.0200  -5.8598  -4.7416  -4.4220  -3.5107  -3.4735  -3.3442  -3.2391
    -3.2056  -3.1972  -3.0768  -2.8938  -2.7985  -2.7716  -2.7108  -2.6304
    -2.5346  -2.5307  -2.4902  -2.3899  -2.3523  -2.3257  -2.2422  -2.2157
    -2.1692  -2.1185  -2.1079  -2.1048  -2.0843  -2.0436  -2.0051  -1.8861
    -1.8016  -1.7795  -1.7060  -1.6896  -1.6836  -1.6555  -1.6124  -1.5937
    -1.5440  -1.5270  -1.4862  -1.4174  -1.3564  -1.2739  -1.2371  -1.2000
    -0.9939  -0.9651  -0.9145  -0.9121  -0.8837  -0.8153  -0.7856  -0.7560
    -0.6903  -0.6875  -0.6592  -0.5529  -0.5102  -0.3895  -0.3186  -0.2390
    -0.1170  -0.1042  -0.0803  -0.0306  -0.0067   0.0527   0.1126   0.1493
     0.1889   0.2014   0.2888   0.3183   0.3957   0.4104   0.4491   0.5113
     0.5280   0.5539   0.5723   0.5835   0.6176   0.6334   0.6678   0.7340
     0.7664   0.8677   0.9163   1.2004   1.2854   1.5947   1.6178   1.7211
     1.9025   2.2997   2.3485   3.7789   3.8442   3.8863   3.9238   3.9270
     4.0115   4.1448   4.2870   4.2935   4.3081   4.3145

[...]

          k =-0.0760-0.0000 0.0000 ( 17886 PWs)   bands (ev):

[...]

 ------ SPIN DOWN ----------

[...]

          k = 0.0380-0.0419 0.0000 ( 17876 PWs)   bands (ev):

[...]

          k =-0.0760-0.0839 0.0000 ( 17948 PWs)   bands (ev):

   -55.2909 -55.2880 -55.2331 -55.2320 -55.1540 -55.1531 -55.1437 -55.1333
   -55.1290 -55.0771 -55.0631 -55.0606 -55.0243 -54.9804 -54.2840 -54.2837
   -31.6829 -31.6778 -31.5879 -31.5825 -31.5638 -31.5631 -31.5562 -31.5219
   -31.5209 -31.5079 -31.5033 -31.5012 -31.4886 -31.4629 -31.4580 -31.4546
   -31.4298 -31.4281 -31.4226 -31.4034 -31.3761 -31.3741 -31.3682 -31.3646
   -31.3635 -31.3512 -31.3501 -31.3482 -31.3466 -31.3417 -31.3380 -31.3235
   -31.3209 -31.3050 -31.3020 -31.2938 -31.2652 -31.2436 -31.2422 -31.2401
   -31.2260 -31.1733 -30.6053 -30.6051 -30.5238 -30.5235 -30.4835 -30.4835
   -16.7629 -15.8208 -15.5896 -15.5405 -15.4998 -15.4052 -15.3315 -15.3004
   -15.2903 -15.2772 -15.1511 -15.1230 -15.1138 -15.0856 -15.0537 -15.0293
   -15.0255 -14.9904 -14.9332 -14.9272 -14.9193 -14.9111 -14.8474 -14.8393
   -14.8354 -14.8286 -14.7634 -14.7610 -14.6787 -14.6767 -12.7877 -12.7876
   -10.0297  -5.8601  -4.8690  -4.4034  -3.5211  -2.8240  -2.7968  -2.7465
    -2.7257  -2.6127  -2.5278  -2.5006  -2.4641  -2.4057  -2.3538  -2.3065
    -2.3045  -2.2689  -2.2492  -2.2305  -2.1868  -2.1651  -2.1427  -2.1244
    -2.1097  -2.0560  -2.0530  -2.0439  -2.0199  -1.9855  -1.9682  -1.9552
    -1.9385  -1.9202  -1.8946  -1.8755  -1.7324  -1.7115  -1.6711  -1.5539
    -1.5359  -1.5324  -1.4995  -1.4557  -1.4308  -1.4232  -1.3493  -1.3423
    -1.3099  -1.1527  -1.0803  -1.0786  -1.0554  -1.0314  -0.9362  -0.8848
    -0.8443  -0.7944  -0.7187  -0.6873  -0.6687  -0.5961  -0.5693  -0.4777
    -0.3884  -0.3614  -0.3533  -0.2761  -0.2746  -0.2409  -0.2278  -0.1589
    -0.0983  -0.0472  -0.0432  -0.0387   0.0897   0.1267   0.2068   0.3209
     0.4011   0.4097   0.4610   0.5211   0.6071   0.6505   0.6673   0.7878
     0.7898   0.9760   0.9793   1.0273   1.0425   1.1232   1.1283   2.0755
     2.0762   2.1687   2.1690   3.7614   3.9446   3.9987   4.0734   4.0984
     4.1959   4.2822   4.3162   4.3449   4.3677   4.3741

     the Fermi energy is     3.8539 ev

!    total energy              =   -2922.77423165 Ry
     estimated scf accuracy    <       0.00000007 Ry
     smearing contrib. (-TS)   =      -0.04550758 Ry
     internal energy E=F+TS    =   -2922.72872407 Ry

     The total energy is F=E-TS. E is the sum of the following terms:
     one-electron contribution =  -23201.70722759 Ry
     hartree contribution      =   11691.13888420 Ry
     xc contribution           =    -482.55282419 Ry
     ewald contribution        =    9070.38872970 Ry
     electric field correction =       0.00371381 Ry

     total magnetization       =     0.06 Bohr mag/cell
     absolute magnetization    =     0.08 Bohr mag/cell

     convergence has been achieved in 211 iterations

     Forces acting on atoms (cartesian axes, Ry/au):

     atom    1 type  1   force =     0.00016955   -0.00008839    0.09305758
     atom    2 type  1   force =     0.00001387   -0.00016091   -0.17886146
     atom    3 type  2   force =     0.00002331   -0.00030014   -0.02023085
     atom    4 type  2   force =    -0.00000183   -0.00224071    0.06098300
     atom    5 type  2   force =    -0.01150237   -0.00127986    0.01053950
     atom    6 type  2   force =     0.01241438   -0.00058588    0.00810371
     atom    7 type  1   force =    -0.00122365    0.00344274   -0.01490907
     atom    8 type  1   force =     0.00123058   -0.00358635   -0.00843651
     atom    9 type  2   force =     0.00001068   -0.00005208   -0.00026350
     atom   10 type  2   force =    -0.00281504   -0.00048155    0.00153010
     atom   11 type  2   force =     0.00012884   -0.00023226   -0.00028647
     atom   12 type  2   force =    -0.00000915    0.00009078   -0.00009861
     atom   13 type  1   force =    -0.00019681   -0.00031772   -0.00063153
     atom   14 type  1   force =    -0.00005243   -0.00005262    0.00024075
     atom   15 type  2   force =    -0.00011198   -0.00023552   -0.00012870
     atom   16 type  2   force =     0.00032900    0.00035387   -0.00010143
     atom   17 type  2   force =     0.00079553    0.00029866   -0.00023609
     atom   18 type  2   force =     0.00009859   -0.00027806   -0.00005899
     atom   19 type  1   force =     0.00023088    0.00043701   -0.00045215
     atom   20 type  1   force =     0.00013803    0.00002551    0.00045813
     atom   21 type  2   force =     0.00012674   -0.00003048    0.10428026
     atom   22 type  2   force =    -0.00049213    0.00017511    0.00014000
     atom   23 type  2   force =    -0.06992158   -0.00011563   -0.02678844
     atom   24 type  2   force =     0.06989361    0.00034544   -0.02678752
     atom   25 type  1   force =     0.00018281   -0.00019804    0.09236212
     atom   26 type  1   force =    -0.00006604   -0.00035846   -0.17903769
     atom   27 type  2   force =     0.00004226   -0.00025430   -0.01895998
     atom   28 type  2   force =     0.00006400   -0.00192839    0.06023732
     atom   29 type  2   force =    -0.01169253   -0.00162181    0.01033479
     atom   30 type  2   force =     0.01247639   -0.00120565    0.00786475
     atom   31 type  1   force =    -0.00101632    0.00609056   -0.01576972
     atom   32 type  1   force =     0.00118481    0.00334354   -0.00865081
     atom   33 type  2   force =     0.00002690    0.00020103   -0.00025155
     atom   34 type  2   force =    -0.00240848   -0.00053705    0.00059052
     atom   35 type  2   force =     0.00001146    0.00000065    0.00005551
     atom   36 type  2   force =     0.00002443   -0.00007301    0.00036882
     atom   37 type  1   force =     0.00035040   -0.00004605   -0.00007734
     atom   38 type  1   force =    -0.00036077   -0.00031944    0.00048077
     atom   39 type  2   force =     0.00035691   -0.00014727    0.00062072
     atom   40 type  2   force =     0.00025293   -0.00017532    0.00004338
     atom   41 type  2   force =     0.00006308    0.00034752   -0.00039697
     atom   42 type  2   force =     0.00051161    0.00022520   -0.00019295
     atom   43 type  1   force =     0.00022708   -0.00021169   -0.00037526
     atom   44 type  1   force =     0.00017092   -0.00122693    0.00061242
     atom   45 type  2   force =     0.00012003   -0.00004887    0.10423292
     atom   46 type  2   force =    -0.06993379   -0.00004702   -0.02677734
     atom   47 type  2   force =     0.06992146    0.00035466   -0.02679647
     atom   48 type  3   force =     0.00077210    0.00060576   -0.00076004
     atom   49 type  4   force =    -0.00382465    0.00230036    0.00358142
     atom   50 type  5   force =     0.00491155   -0.00142779   -0.00468385
     atom   51 type  5   force =    -0.00023575   -0.00049377   -0.00041986
     atom   52 type  5   force =    -0.00048532   -0.00021293    0.00085862
     atom   53 type  5   force =     0.00011423    0.00071267   -0.00096525
     atom   54 type  5   force =    -0.00031743    0.00021973   -0.00043626
     atom   55 type  5   force =    -0.00072089    0.00100114    0.00124554

     Total force =     0.367782     Total SCF correction =     0.000358
  @ DRIVER MODE: Message from server: STATUS
  @ DRIVER MODE: Message from server: GETFORCE
  @ DRIVER MODE: Returning v,forces,stress,ensemble

     Writing output data file ./calc.save/
  @ DRIVER MODE: Message from server: EXIT
  @ DRIVE MODE: Exiting

     General routines

     Parallel routines

   This run was terminated on:  15: 8:33  27Jul2021

   JOB DONE.