     Program PWSCF v.6.7GPU starts on  8Sep2021 at 22:24: 3

     R & G space division:  proc/nbgrp/npool/nimage =      10
     Reading input from /storage/home/hcoda1/3/ntian30/research/carbon/CxH_vib/CH_calc/ads_slab/CHNHH_a/out_0002/pw.inp
Warning: card &CELL ignored
Warning: card   CELL_DYNAMICS='IPI', ignored
Warning: card / ignored

     Current dimensions of program PWSCF are:
     Max number of different atomic species (ntypx) = 10
     Max number of k-points (npk) =  40000
     Max angular momentum in pseudopotentials (lmaxx) =  3
     Presently no symmetry can be used with electric field

     Message from routine cell_base_init:
     DEPRECATED: use true lattice parameter, not A to a.u. conversion factor

     IMPORTANT: XC functional enforced from input :
     Exchange-correlation= BEEF-VDW
                           (   1   4  43  14   2   0   0)
     Any further DFT definition will be discarded
     Please, verify this is what you really want

  @ DRIVER MODE: Connecting to
 qe_1139763_2767378.sched-torque.pace.gatech.edu8k_43sre_scratch
  using UNIX socket
  @ DRIVER MODE: Message from server: STATUS
  @ DRIVER MODE: Message from server: INIT
  @ DRIVER MODE: Receiving replica           0          -1
  @ DRIVER MODE: Receiving encoded integer          25
  @ DRIVER MODE:  SCF:  T  FORCE:  T  STRESS:  F  VC:  F  ENSEMBLE:  F
  @ DRIVER MODE:  SCF:  T  FORCE:  T  STRESS:  F  VC:  F  ENSEMBLE:  F

     Using Slab Decomposition

     bravais-lattice index     =            0
     lattice parameter (alat)  =       1.8897  a.u.
     unit-cell volume          =    6658.9804 (a.u.)^3
     number of atoms/cell      =           52
     number of atomic types    =            5
     number of electrons       =       390.00
     number of Kohn-Sham states=          205
     kinetic-energy cutoff     =      29.3995  Ry
     charge density cutoff     =     293.9946  Ry
     scf convergence threshold =      7.3E-08
     mixing beta               =       0.0500
     number of iterations used =            8  plain     mixing
     Exchange-correlation= BEEF-VDW
                           (   1   4  43  14   2   0   0)

     celldm(1)=   1.889726  celldm(2)=   0.000000  celldm(3)=   0.000000
     celldm(4)=   0.000000  celldm(5)=   0.000000  celldm(6)=   0.000000

     crystal axes: (cart. coord. in units of alat)
               a(1) = (   6.579727   0.000000   0.000000 )
               a(2) = (  -0.000775   5.961596   0.000000 )
               a(3) = (   0.000000   0.000000  25.155947 )

     reciprocal axes: (cart. coord. in units 2 pi/alat)
               b(1) = (  0.151982  0.000020  0.000000 )
               b(2) = (  0.000000  0.167740  0.000000 )
               b(3) = (  0.000000  0.000000  0.039752 )

     PseudoPot. # 1 for Ti read from file:
     /storage/coda1/p-amedford6/0/shared/rich_project_chbe-medford/medford-share/data/pseudos_module/espresso/nninc/pbe/van/Ti.UPF
     MD5 check sum: 8e4df49b7f0d34bbd5052bf3f5ea0213
     Pseudo is Ultrasoft, Zval = 12.0
     Generated by new atomic code, or converted to UPF format
     Using radial grid of  851 points,  6 beta functions with:
                l(1) =   0
                l(2) =   0
                l(3) =   1
                l(4) =   1
                l(5) =   2
                l(6) =   2
     Q(r) pseudized with  8 coefficients,  rinner =    1.000   1.000   1.000
                                                       1.000   1.000

     PseudoPot. # 2 for O  read from file:
     /storage/coda1/p-amedford6/0/shared/rich_project_chbe-medford/medford-share/data/pseudos_module/espresso/nninc/pbe/van/O.UPF
     MD5 check sum: 78c19812648e8988a0fe644b0f25305e
     Pseudo is Ultrasoft, Zval =  6.0
     Generated by new atomic code, or converted to UPF format
     Using radial grid of  737 points,  4 beta functions with:
                l(1) =   0
                l(2) =   0
                l(3) =   1
                l(4) =   1
     Q(r) pseudized with  8 coefficients,  rinner =    0.800   0.800   0.800

     PseudoPot. # 3 for N  read from file:
     /storage/coda1/p-amedford6/0/shared/rich_project_chbe-medford/medford-share/data/pseudos_module/espresso/nninc/pbe/van/N.UPF
     MD5 check sum: 90d10febe142ad51ac9d5be1deb811c4
     Pseudo is Ultrasoft, Zval =  5.0
     Generated by new atomic code, or converted to UPF format
     Using radial grid of  729 points,  4 beta functions with:
                l(1) =   0
                l(2) =   0
                l(3) =   1
                l(4) =   1
     Q(r) pseudized with  8 coefficients,  rinner =    0.800   0.800   0.800

     PseudoPot. # 4 for C  read from file:
     /storage/coda1/p-amedford6/0/shared/rich_project_chbe-medford/medford-share/data/pseudos_module/espresso/nninc/pbe/van/C.UPF
     MD5 check sum: 1a69bf6b8db32088f5b2163dbdb77a27
     Pseudo is Ultrasoft, Zval =  4.0
     Generated by new atomic code, or converted to UPF format
     Using radial grid of  721 points,  4 beta functions with:
                l(1) =   0
                l(2) =   0
                l(3) =   1
                l(4) =   1
     Q(r) pseudized with  8 coefficients,  rinner =    0.800   0.800   0.800

     PseudoPot. # 5 for H  read from file:
     /storage/coda1/p-amedford6/0/shared/rich_project_chbe-medford/medford-share/data/pseudos_module/espresso/nninc/pbe/van/H.UPF
     MD5 check sum: b5ee9d7bfd3a09ee7748110bda690ff7
     Pseudo is Ultrasoft, Zval =  1.0
     Generated by new atomic code, or converted to UPF format
     Using radial grid of  615 points,  1 beta functions with:
                l(1) =   0
     Q(r) pseudized with  8 coefficients,  rinner =    0.800

     atomic species   valence    mass     pseudopotential
        Ti1           12.00    47.86700     Ti( 1.00)
        O1             6.00    15.99900     O ( 1.00)
        N1             5.00    14.00700     N ( 1.00)
        C1             4.00    12.01100     C ( 1.00)
        H1             1.00     1.00800     H ( 1.00)

     No symmetry found

   Cartesian axes

     site n.     atom                  positions (alat units)
         1           Ti1 tau(   1) = (   0.0004258   2.9801865   6.0000000  )
         2           Ti1 tau(   2) = (   3.2906075   1.4906267   6.0002472  )
         3           O1  tau(   3) = (   0.0006271   0.0005054   7.9858123  )
         4           O1  tau(   4) = (   3.2906025   0.0005020   7.3038282  )
         5           O1  tau(   5) = (   4.5942328   1.4918067   9.2879030  )
         6           O1  tau(   6) = (   1.9868534   1.4903216   9.2879459  )
         7           Ti1 tau(   7) = (   3.2907910   2.8959150   9.1758416  )
         8           Ti1 tau(   8) = (   0.0015273   1.4827037   9.2680791  )
         9           O1  tau(   9) = (   3.2768318   5.9518058  11.3501096  )
        10           O1  tau(  10) = (   0.0116148   5.9584955  10.6183126  )
        11           O1  tau(  11) = (   1.2820894   1.4890407  12.6429483  )
        12           O1  tau(  12) = (   5.2701592   1.4861355  12.6244956  )
        13           Ti1 tau(  13) = (   0.0263608   2.9732685  12.5725065  )
        14           Ti1 tau(  14) = (   3.3311081   1.4825583  12.4934812  )
        15           O1  tau(  15) = (   6.5448050   0.0382128  14.6485099  )
        16           O1  tau(  16) = (   3.2835306   5.9556129  13.9684075  )
        17           O1  tau(  17) = (   4.5065730   1.5084740  16.1486978  )
        18           O1  tau(  18) = (   2.0110176   1.4968469  16.1316129  )
        19           Ti1 tau(  19) = (   3.2365874   2.9692752  15.7101938  )
        20           Ti1 tau(  20) = (   6.5183500   1.5288441  15.9766389  )
        21           O1  tau(  21) = (   3.2904802   0.0005063   4.7018136  )
        22           O1  tau(  22) = (   6.5552815   5.8936090  17.2115513  )
        23           O1  tau(  23) = (   1.3043587   1.4918075   6.0039043  )
        24           O1  tau(  24) = (   5.2767064   1.4903225   6.0039473  )
        25           Ti1 tau(  25) = (   0.0000382   5.9609847   6.0000000  )
        26           Ti1 tau(  26) = (   3.2902200   4.4714249   6.0002472  )
        27           O1  tau(  27) = (   0.0002396   2.9813036   7.9858123  )
        28           O1  tau(  28) = (   3.2902150   2.9813002   7.3038282  )
        29           O1  tau(  29) = (   4.5938453   4.4726049   9.2879030  )
        30           O1  tau(  30) = (   1.9864658   4.4711199   9.2879459  )
        31           Ti1 tau(  31) = (   3.2891106   5.8743827   9.1763621  )
        32           Ti1 tau(  32) = (   0.0006254   4.4649316   9.2693709  )
        33           O1  tau(  33) = (   3.2825058   2.9767457  11.3441782  )
        34           O1  tau(  34) = (   0.0092240   2.9805883  10.6323155  )
        35           O1  tau(  35) = (   1.2778777   4.4660374  12.6604661  )
        36           O1  tau(  36) = (   5.2710664   4.4675109  12.6369154  )
        37           Ti1 tau(  37) = (   0.0243246   5.9574881  12.5203091  )
        38           Ti1 tau(  38) = (   3.3318591   4.4611298  12.5006215  )
        39           O1  tau(  39) = (   6.5359656   2.9584677  14.7835642  )
        40           O1  tau(  40) = (   3.2771955   2.9708399  13.9242642  )
        41           O1  tau(  41) = (   4.4981441   4.4410618  16.1740548  )
        42           O1  tau(  42) = (   2.0042129   4.4512231  16.1075086  )
        43           Ti1 tau(  43) = (   3.2538698   5.9555144  15.7617387  )
        44           Ti1 tau(  44) = (   6.5531130   4.6830099  15.9084494  )
        45           O1  tau(  45) = (   3.2900926   2.9813045   4.7018136  )
        46           O1  tau(  46) = (   1.3039711   4.4726057   6.0039043  )
        47           O1  tau(  47) = (   5.2763189   4.4711207   6.0039473  )
        48           N1  tau(  48) = (   5.6790603   3.2568973  18.6585782  )
        49           C1  tau(  49) = (   0.0091554   2.6844975  17.9068455  )
        50           H1  tau(  50) = (   0.8805123   2.3964943  18.5001670  )
        51           H1  tau(  51) = (   4.8619660   3.6873350  18.2178346  )
        52           H1  tau(  52) = (   5.8095507   3.4768026  19.6356901  )

     number of k points=    10  Fermi-Dirac smearing, width (Ry)=  0.0073
                       cart. coord. in units 2pi/alat
        k(    1) = (   0.0000000   0.0000000   0.0000000), wk =   0.1250000
        k(    2) = (   0.0000000   0.0419351   0.0000000), wk =   0.2500000
        k(    3) = (   0.0000000  -0.0838702   0.0000000), wk =   0.1250000
        k(    4) = (   0.0379955   0.0000049   0.0000000), wk =   0.2500000
        k(    5) = (   0.0379955   0.0419400   0.0000000), wk =   0.2500000
        k(    6) = (   0.0379955  -0.0838652   0.0000000), wk =   0.2500000
        k(    7) = (   0.0379955  -0.0419301   0.0000000), wk =   0.2500000
        k(    8) = (  -0.0759910  -0.0000099   0.0000000), wk =   0.1250000
        k(    9) = (  -0.0759910   0.0419252   0.0000000), wk =   0.2500000
        k(   10) = (  -0.0759910  -0.0838800   0.0000000), wk =   0.1250000

     Initial potential from superposition of free atoms

     starting charge  373.99917, renormalised to  390.00000

     negative rho (up, down):  1.782E-02 0.000E+00

     %%%%%%%%%%%%%%%%%%%%%%%%%%%%%%%%%%%%%%%%%%%%%%%%%%%%%%%%%%%%%%%%%%%%%%%%
     %                                                                      %
     % You are using vdW-DF, which was implemented by the Thonhauser group. %
     % Please cite the following two papers that made this development      %
     % possible and the two reviews that describe the various versions:     %
     %                                                                      %
     %   T. Thonhauser et al., PRL 115, 136402 (2015).                      %
     %   T. Thonhauser et al., PRB 76, 125112 (2007).                       %
     %   K. Berland et al., Rep. Prog. Phys. 78, 066501 (2015).             %
     %   D.C. Langreth et al., J. Phys.: Condens. Matter 21, 084203 (2009). %
     %                                                                      %
     %                                                                      %
     % If you are calculating the stress with vdW-DF, please also cite:     %
     %                                                                      %
     %   R. Sabatini et al., J. Phys.: Condens. Matter 24, 424209 (2012).   %
     %                                                                      %
     %%%%%%%%%%%%%%%%%%%%%%%%%%%%%%%%%%%%%%%%%%%%%%%%%%%%%%%%%%%%%%%%%%%%%%%%

     Adding external electric field

     Computed dipole along edir(3) :
        Dipole               -5.8555 Ry au,        -14.8831 Debye
        Dipole field         -0.0111 Ry au,

        Potential amp.        1.0243 Ry
        Total length         46.3494 bohr

     Starting wfcs are  295 atomic wfcs
  @ DRIVER MODE: Message from server: STATUS
  @ DRIVER MODE: Message from server: POSDATA
  @ DRIVER MODE: Reading and sharing cell
  @ DRIVER MODE: Reading and sharing positions
  @ DRIVER MODE: Received positions

     Self-consistent Calculation

     iteration #  1     ecut=    29.40 Ry     beta= 0.05
     Davidson diagonalization with overlap
     c_bands:  4 eigenvalues not converged
     c_bands:  1 eigenvalues not converged
     c_bands:  2 eigenvalues not converged
     c_bands:  3 eigenvalues not converged
     c_bands:  3 eigenvalues not converged
     c_bands:  4 eigenvalues not converged
     c_bands:  3 eigenvalues not converged
     c_bands:  3 eigenvalues not converged
     c_bands:  4 eigenvalues not converged
     c_bands:  5 eigenvalues not converged
     ethr =  1.00E-05,  avg # of iterations = 20.0

[...]

     total energy              =   -2777.34336718 Ry
     estimated scf accuracy    <    1560.36262451 Ry

     iteration #  2     ecut=    29.40 Ry     beta= 0.05
     Davidson diagonalization with overlap
     ethr =  1.00E-02,  avg # of iterations = 18.2

[...]

     iteration # 81     ecut=    29.40 Ry     beta= 0.05
     Davidson diagonalization with overlap
     c_bands:  1 eigenvalues not converged
     c_bands:  1 eigenvalues not converged
     ethr =  2.32E-10,  avg # of iterations = 11.3

[...]

     total energy              =   -2919.04267503 Ry
     estimated scf accuracy    <       0.00000009 Ry

     iteration # 87     ecut=    29.40 Ry     beta= 0.05
     Davidson diagonalization with overlap
     ethr =  2.26E-11,  avg # of iterations =  5.0

     negative rho (up, down):  1.801E-02 0.000E+00

     Adding external electric field

     Computed dipole along edir(3) :
        Dipole                1.3950 Ry au,          3.5459 Debye
        Dipole field          0.0026 Ry au,

        Potential amp.       -0.2440 Ry
        Total length         46.3494 bohr

     End of self-consistent calculation

          k = 0.0000 0.0000 0.0000 ( 18029 PWs)   bands (ev):

   -55.4992 -55.4741 -55.4628 -55.4400 -55.4136 -55.3685 -55.3265 -55.3184
   -55.2991 -55.2921 -55.2627 -55.2606 -55.0494 -54.9425 -54.4774 -54.4434
   -32.0662 -31.9618 -31.8601 -31.8383 -31.8280 -31.7945 -31.7870 -31.7646
   -31.7547 -31.7180 -31.7140 -31.7094 -31.6757 -31.6506 -31.6409 -31.6391
   -31.6270 -31.6023 -31.5928 -31.5834 -31.5747 -31.5572 -31.5315 -31.5279
   -31.5275 -31.5070 -31.5039 -31.4994 -31.4980 -31.4889 -31.4750 -31.4594
   -31.4487 -31.4482 -31.4249 -31.4140 -31.3983 -31.3519 -31.2864 -31.1877
   -31.1766 -31.0886 -30.8857 -30.7945 -30.7723 -30.7024 -30.6157 -30.5046
   -17.0829 -16.2998 -16.0158 -15.8542 -15.7084 -15.6769 -15.5668 -15.3914
   -15.3152 -15.2392 -15.2194 -15.1395 -15.1264 -15.1120 -15.0886 -15.0289
   -15.0210 -14.9759 -14.9714 -14.9393 -14.9169 -14.8858 -14.8681 -14.8606
   -14.8096 -14.7662 -14.7024 -14.6357 -14.5805 -14.1167 -12.9802 -12.8632
    -9.4953  -7.2347  -4.6133  -3.6566  -3.4869  -3.4068  -3.3966  -3.3780
    -3.1866  -3.1110  -2.8371  -2.7418  -2.7072  -2.7006  -2.6737  -2.6185
    -2.5652  -2.4427  -2.3786  -2.3424  -2.3217  -2.3188  -2.3071  -2.2889
    -2.2774  -2.2459  -2.1774  -2.1211  -2.0449  -1.9612  -1.8858  -1.8713
    -1.8094  -1.7816  -1.7668  -1.7605  -1.7538  -1.7312  -1.7232  -1.6319
    -1.5482  -1.5040  -1.4037  -1.3807  -1.2879  -1.1555  -1.1213  -1.0181
    -1.0108  -0.9545  -0.9321  -0.8860  -0.8407  -0.8285  -0.8129  -0.6677
    -0.6015  -0.5405  -0.4823  -0.4556  -0.4373  -0.3577  -0.2853  -0.2751
    -0.2573  -0.2401  -0.0639  -0.0312  -0.0119   0.0128   0.0280   0.1178
     0.1499   0.2234   0.3029   0.3177   0.3236   0.4009   0.4238   0.4683
     0.4702   0.4972   0.5029   0.6738   0.6847   0.7110   0.7386   0.8143
     0.9050   1.1079   1.1345   1.1722   1.4602   1.5262   1.5448   1.7325
     2.1183   2.1652   3.5910   3.6957   3.7283   3.7441   3.7721   3.8408
     3.9084   4.0866   4.0937   4.1247   4.1293

[...]

          k = 0.0380-0.0419 0.0000 ( 17876 PWs)   bands (ev):

[...]

          k =-0.0760-0.0000 0.0000 ( 17886 PWs)   bands (ev):

[...]

          k =-0.0760-0.0839 0.0000 ( 17948 PWs)   bands (ev):

   -55.4834 -55.4784 -55.4573 -55.4567 -55.4104 -55.3596 -55.3353 -55.3214
   -55.2806 -55.2787 -55.2785 -55.2765 -55.0465 -54.9453 -54.4604 -54.4602
   -31.8717 -31.8677 -31.8030 -31.7772 -31.7767 -31.7656 -31.7502 -31.7497
   -31.7101 -31.7047 -31.7032 -31.6957 -31.6668 -31.6296 -31.6206 -31.6168
   -31.6163 -31.6136 -31.6097 -31.6079 -31.5977 -31.5770 -31.5765 -31.5639
   -31.5607 -31.5500 -31.5373 -31.5215 -31.5137 -31.5112 -31.4952 -31.4943
   -31.4938 -31.4927 -31.4728 -31.4574 -31.4542 -31.3565 -31.2816 -31.2064
   -31.1797 -31.1727 -30.7850 -30.7849 -30.6984 -30.6982 -30.6591 -30.6590
   -17.0782 -15.7575 -15.6956 -15.5613 -15.4788 -15.4571 -15.4443 -15.4216
   -15.2857 -15.2683 -15.2506 -15.1998 -15.1952 -15.1924 -15.1560 -15.0986
   -15.0630 -15.0605 -15.0516 -15.0266 -14.9904 -14.9851 -14.9509 -14.9423
   -14.9289 -14.8394 -14.8339 -14.8316 -14.6640 -14.3417 -12.9649 -12.9648
    -9.4999  -7.2361  -4.5947  -3.0401  -2.9666  -2.8068  -2.7039  -2.6737
    -2.6419  -2.5031  -2.4653  -2.4613  -2.4501  -2.4210  -2.3976  -2.3746
    -2.3453  -2.3316  -2.3266  -2.3098  -2.2978  -2.2849  -2.2433  -2.2001
    -2.1982  -2.1873  -2.1580  -2.1364  -2.1248  -2.0960  -2.0768  -2.0611
    -2.0472  -2.0023  -1.8253  -1.7931  -1.6958  -1.6720  -1.6630  -1.6460
    -1.5749  -1.5477  -1.5157  -1.4793  -1.4285  -1.3062  -1.2363  -1.2146
    -1.1875  -1.1785  -1.1264  -1.0022  -0.9670  -0.9439  -0.8975  -0.8612
    -0.8197  -0.8057  -0.6865  -0.6828  -0.6361  -0.5939  -0.4801  -0.4613
    -0.4519  -0.4421  -0.4273  -0.2966  -0.2868  -0.2803  -0.2625  -0.2193
    -0.2015  -0.0973  -0.0035   0.0179   0.1177   0.1677   0.2968   0.3567
     0.4537   0.5012   0.5258   0.6152   0.6533   0.7341   0.7515   0.8123
     0.8238   0.9136   0.9733   0.9927   1.0006   1.0680   1.9049   1.9057
     1.9852   1.9853   3.7515   3.8459   3.8851   3.9073   3.9533   4.1107
     4.1276   4.1748   4.1780   4.1911   4.2735

     the Fermi energy is     3.6488 ev

!    total energy              =   -2919.04267842 Ry
     estimated scf accuracy    <       0.00000004 Ry
     smearing contrib. (-TS)   =      -0.03615415 Ry
     internal energy E=F+TS    =   -2919.00652427 Ry

     The total energy is F=E-TS. E is the sum of the following terms:
     one-electron contribution =  -24479.55113553 Ry
     hartree contribution      =   12328.02984346 Ry
     xc contribution           =    -480.00336807 Ry
     ewald contribution        =    9712.51446321 Ry
     electric field correction =       0.00367265 Ry

     convergence has been achieved in  87 iterations

     Forces acting on atoms (cartesian axes, Ry/au):

     atom    1 type  1   force =     0.00009521   -0.00020799    0.09489674
     atom    2 type  1   force =    -0.00022978   -0.00035827   -0.17677436
     atom    3 type  2   force =    -0.00004330   -0.00006718   -0.02293664
     atom    4 type  2   force =    -0.00004305   -0.00167863    0.05578286
     atom    5 type  2   force =    -0.01135814   -0.00123275    0.00625931
     atom    6 type  2   force =     0.01253911   -0.00035026    0.00442393
     atom    7 type  1   force =    -0.00113707    0.00152622   -0.01377308
     atom    8 type  1   force =     0.00061956    0.00693780    0.01264504
     atom    9 type  2   force =     0.00020302   -0.00004931    0.00013637
     atom   10 type  2   force =    -0.00163551    0.00010419   -0.00990981
     atom   11 type  2   force =    -0.00021069    0.00002880    0.00019919
     atom   12 type  2   force =     0.00026168    0.00011339   -0.00002553
     atom   13 type  1   force =     0.00006005   -0.00001002    0.00013985
     atom   14 type  1   force =    -0.00000044   -0.00015903    0.00014311
     atom   15 type  2   force =     0.00001616    0.00002729    0.00027640
     atom   16 type  2   force =     0.00026564    0.00027901    0.00009422
     atom   17 type  2   force =     0.00013767   -0.00012342    0.00050608
     atom   18 type  2   force =     0.00018373    0.00012991    0.00027819
     atom   19 type  1   force =     0.00035667   -0.00009342   -0.00046306
     atom   20 type  1   force =     0.00020799   -0.00047132   -0.00058058
     atom   21 type  2   force =     0.00004905   -0.00004485    0.10359239
     atom   22 type  2   force =     0.00000836    0.00020600    0.00053829
     atom   23 type  2   force =    -0.07097404   -0.00016516   -0.02732213
     atom   24 type  2   force =     0.07082773    0.00031679   -0.02733529
     atom   25 type  1   force =    -0.00012513   -0.00020785    0.09460650
     atom   26 type  1   force =    -0.00019021   -0.00046763   -0.17692800
     atom   27 type  2   force =     0.00007030   -0.00035305   -0.02195547
     atom   28 type  2   force =     0.00003700   -0.00139014    0.05533505
     atom   29 type  2   force =    -0.01158296   -0.00009284    0.00586887
     atom   30 type  2   force =     0.01265583    0.00012865    0.00408511
     atom   31 type  1   force =    -0.00125489    0.00416339   -0.01465496
     atom   32 type  1   force =     0.00055102   -0.00776355    0.01250241
     atom   33 type  2   force =    -0.00001192    0.00009300    0.00005266
     atom   34 type  2   force =    -0.00126769    0.00083490   -0.00830835
     atom   35 type  2   force =     0.00011716    0.00019980    0.00003084
     atom   36 type  2   force =     0.00013729    0.00004179    0.00022479
     atom   37 type  1   force =     0.00003449   -0.00000733   -0.00018546
     atom   38 type  1   force =    -0.00004282   -0.00015392   -0.00022134
     atom   39 type  2   force =    -0.00018448   -0.00016846    0.00023593
     atom   40 type  2   force =     0.00023698   -0.00002068   -0.00005395
     atom   41 type  2   force =     0.00056847   -0.00021851    0.00051224
     atom   42 type  2   force =    -0.00036546    0.00004481   -0.00018644
     atom   43 type  1   force =    -0.00031086    0.00011779   -0.00010977
     atom   44 type  1   force =     0.00049379    0.00011786   -0.00060497
     atom   45 type  2   force =     0.00003574   -0.00004838    0.10355793
     atom   46 type  2   force =    -0.07097730   -0.00007202   -0.02731212
     atom   47 type  2   force =     0.07083655    0.00032658   -0.02734129
     atom   48 type  3   force =    -0.02268030    0.01180414   -0.00364836
     atom   49 type  4   force =     0.00906402   -0.00480687   -0.00300185
     atom   50 type  5   force =     0.00134405   -0.00083951   -0.00134949
     atom   51 type  5   force =     0.01013682   -0.00535923    0.00430806
     atom   52 type  5   force =     0.00247489   -0.00056057    0.00374993

     Total force =     0.367322     Total SCF correction =     0.000520
  @ DRIVER MODE: Message from server: STATUS
  @ DRIVER MODE: Message from server: GETFORCE
  @ DRIVER MODE: Returning v,forces,stress,ensemble

     Writing output data file ./calc.save/
  @ DRIVER MODE: Message from server: EXIT
  @ DRIVE MODE: Exiting

     General routines

     Parallel routines

   This run was terminated on:  22:45:30   8Sep2021

   JOB DONE.