     Program PWSCF v.6.7GPU starts on  9Sep2021 at  4:55:35

     R & G space division:  proc/nbgrp/npool/nimage =      10
     Reading input from /storage/home/hcoda1/3/ntian30/research/carbon/CxH_vib/CH2_calc/ads_slab/CH2OH_a/out_0025/pw.inp
Warning: card &CELL ignored
Warning: card   CELL_DYNAMICS='IPI', ignored
Warning: card / ignored

     Current dimensions of program PWSCF are:
     Max number of different atomic species (ntypx) = 10
     Max number of k-points (npk) =  40000
     Max angular momentum in pseudopotentials (lmaxx) =  3
     Presently no symmetry can be used with electric field

     Message from routine cell_base_init:
     DEPRECATED: use true lattice parameter, not A to a.u. conversion factor

     IMPORTANT: XC functional enforced from input :
     Exchange-correlation= BEEF-VDW
                           (   1   4  43  14   2   0   0)
     Any further DFT definition will be discarded
     Please, verify this is what you really want

  @ DRIVER MODE: Connecting to
 qe_1139763_2767393.sched-torque.pace.gatech.edul8tw1jca_scratch
  using UNIX socket
  @ DRIVER MODE: Message from server: STATUS
  @ DRIVER MODE: Message from server: INIT
  @ DRIVER MODE: Receiving replica           0          -1
  @ DRIVER MODE: Receiving encoded integer          25
  @ DRIVER MODE:  SCF:  T  FORCE:  T  STRESS:  F  VC:  F  ENSEMBLE:  F
  @ DRIVER MODE:  SCF:  T  FORCE:  T  STRESS:  F  VC:  F  ENSEMBLE:  F

     Using Slab Decomposition

     bravais-lattice index     =            0
     lattice parameter (alat)  =       1.8897  a.u.
     unit-cell volume          =    6658.9804 (a.u.)^3
     number of atoms/cell      =           52
     number of atomic types    =            4
     number of electrons       =       391.00
     number of Kohn-Sham states=          205
     kinetic-energy cutoff     =      29.3995  Ry
     charge density cutoff     =     293.9946  Ry
     scf convergence threshold =      7.3E-08
     mixing beta               =       0.0500
     number of iterations used =            8  plain     mixing
     Exchange-correlation= BEEF-VDW
                           (   1   4  43  14   2   0   0)

     celldm(1)=   1.889726  celldm(2)=   0.000000  celldm(3)=   0.000000
     celldm(4)=   0.000000  celldm(5)=   0.000000  celldm(6)=   0.000000

     crystal axes: (cart. coord. in units of alat)
               a(1) = (   6.579727   0.000000   0.000000 )
               a(2) = (  -0.000775   5.961596   0.000000 )
               a(3) = (   0.000000   0.000000  25.155947 )

     reciprocal axes: (cart. coord. in units 2 pi/alat)
               b(1) = (  0.151982  0.000020  0.000000 )
               b(2) = (  0.000000  0.167740  0.000000 )
               b(3) = (  0.000000  0.000000  0.039752 )

     PseudoPot. # 1 for Ti read from file:
     /storage/coda1/p-amedford6/0/shared/rich_project_chbe-medford/medford-share/data/pseudos_module/espresso/nninc/pbe/van/Ti.UPF
     MD5 check sum: 8e4df49b7f0d34bbd5052bf3f5ea0213
     Pseudo is Ultrasoft, Zval = 12.0
     Generated by new atomic code, or converted to UPF format
     Using radial grid of  851 points,  6 beta functions with:
                l(1) =   0
                l(2) =   0
                l(3) =   1
                l(4) =   1
                l(5) =   2
                l(6) =   2
     Q(r) pseudized with  8 coefficients,  rinner =    1.000   1.000   1.000
                                                       1.000   1.000

     PseudoPot. # 2 for O  read from file:
     /storage/coda1/p-amedford6/0/shared/rich_project_chbe-medford/medford-share/data/pseudos_module/espresso/nninc/pbe/van/O.UPF
     MD5 check sum: 78c19812648e8988a0fe644b0f25305e
     Pseudo is Ultrasoft, Zval =  6.0
     Generated by new atomic code, or converted to UPF format
     Using radial grid of  737 points,  4 beta functions with:
                l(1) =   0
                l(2) =   0
                l(3) =   1
                l(4) =   1
     Q(r) pseudized with  8 coefficients,  rinner =    0.800   0.800   0.800

     PseudoPot. # 3 for C  read from file:
     /storage/coda1/p-amedford6/0/shared/rich_project_chbe-medford/medford-share/data/pseudos_module/espresso/nninc/pbe/van/C.UPF
     MD5 check sum: 1a69bf6b8db32088f5b2163dbdb77a27
     Pseudo is Ultrasoft, Zval =  4.0
     Generated by new atomic code, or converted to UPF format
     Using radial grid of  721 points,  4 beta functions with:
                l(1) =   0
                l(2) =   0
                l(3) =   1
                l(4) =   1
     Q(r) pseudized with  8 coefficients,  rinner =    0.800   0.800   0.800

     PseudoPot. # 4 for H  read from file:
     /storage/coda1/p-amedford6/0/shared/rich_project_chbe-medford/medford-share/data/pseudos_module/espresso/nninc/pbe/van/H.UPF
     MD5 check sum: b5ee9d7bfd3a09ee7748110bda690ff7
     Pseudo is Ultrasoft, Zval =  1.0
     Generated by new atomic code, or converted to UPF format
     Using radial grid of  615 points,  1 beta functions with:
                l(1) =   0
     Q(r) pseudized with  8 coefficients,  rinner =    0.800

     atomic species   valence    mass     pseudopotential
        Ti1           12.00    47.86700     Ti( 1.00)
        O1             6.00    15.99900     O ( 1.00)
        C1             4.00    12.01100     C ( 1.00)
        H1             1.00     1.00800     H ( 1.00)

     No symmetry found

   Cartesian axes

     site n.     atom                  positions (alat units)
         1           Ti1 tau(   1) = (   0.0004258   2.9801865   6.0000000  )
         2           Ti1 tau(   2) = (   3.2906075   1.4906267   6.0002472  )
         3           O1  tau(   3) = (   0.0006271   0.0005054   7.9858123  )
         4           O1  tau(   4) = (   3.2906025   0.0005020   7.3038282  )
         5           O1  tau(   5) = (   4.5942328   1.4918067   9.2879030  )
         6           O1  tau(   6) = (   1.9868534   1.4903216   9.2879459  )
         7           Ti1 tau(   7) = (   3.2719207   3.0347534   9.1624208  )
         8           Ti1 tau(   8) = (   6.5479847   1.5485315   9.3114282  )
         9           O1  tau(   9) = (   3.3130468   5.9588651  11.3322545  )
        10           O1  tau(  10) = (   6.5779921   5.9597862  10.5854321  )
        11           O1  tau(  11) = (   1.2828316   1.4981946  12.5939292  )
        12           O1  tau(  12) = (   5.3076696   1.4616608  12.6584921  )
        13           Ti1 tau(  13) = (   0.0652608   2.9737989  12.6898254  )
        14           Ti1 tau(  14) = (   3.3390979   1.6191063  12.6104043  )
        15           O1  tau(  15) = (   0.1579450   5.9294946  14.6423442  )
        16           O1  tau(  16) = (   3.1680681   5.9402194  13.8972025  )
        17           O1  tau(  17) = (   4.6139792   1.3367142  15.8434034  )
        18           O1  tau(  18) = (   2.0781381   1.4994250  16.2203239  )
        19           Ti1 tau(  19) = (   3.3500823   2.9415657  15.9644494  )
        20           Ti1 tau(  20) = (   0.0003135   1.3236462  15.9137460  )
        21           O1  tau(  21) = (   3.2904802   0.0005063   4.7018136  )
        22           O1  tau(  22) = (   6.5745372   5.9170875  17.1494514  )
        23           O1  tau(  23) = (   1.3043587   1.4918075   6.0039043  )
        24           O1  tau(  24) = (   5.2767064   1.4903225   6.0039473  )
        25           Ti1 tau(  25) = (   0.0000382   5.9609847   6.0000000  )
        26           Ti1 tau(  26) = (   3.2902200   4.4714249   6.0002472  )
        27           O1  tau(  27) = (   0.0002396   2.9813036   7.9858123  )
        28           O1  tau(  28) = (   3.2902150   2.9813002   7.3038282  )
        29           O1  tau(  29) = (   4.5938453   4.4726049   9.2879030  )
        30           O1  tau(  30) = (   1.9864658   4.4711199   9.2879459  )
        31           Ti1 tau(  31) = (   3.2621523   0.0587977   9.1770015  )
        32           Ti1 tau(  32) = (   6.5480547   4.4734411   9.2675299  )
        33           O1  tau(  33) = (   3.3121001   2.9882390  11.3403144  )
        34           O1  tau(  34) = (   6.5676672   2.9758547  10.5865552  )
        35           O1  tau(  35) = (   1.2831373   4.4454538  12.5925867  )
        36           O1  tau(  36) = (   5.3039272   4.4828346  12.6569239  )
        37           Ti1 tau(  37) = (   0.0139245   5.9553196  12.4525254  )
        38           Ti1 tau(  38) = (   3.3396594   4.5312311  12.4471015  )
        39           O1  tau(  39) = (   0.0911754   2.9492527  14.7447760  )
        40           O1  tau(  40) = (   3.3148107   2.9226094  13.9462488  )
        41           O1  tau(  41) = (   4.6112453   4.5441982  15.8230962  )
        42           O1  tau(  42) = (   2.0803191   4.3866676  16.2083192  )
        43           Ti1 tau(  43) = (   3.2736722   5.9210238  15.6733724  )
        44           Ti1 tau(  44) = (   6.5729336   4.5444060  15.8763539  )
        45           O1  tau(  45) = (   3.2900926   2.9813045   4.7018136  )
        46           O1  tau(  46) = (   1.3039711   4.4726057   6.0039043  )
        47           O1  tau(  47) = (   5.2763189   4.4711207   6.0039473  )
        48           C1  tau(  48) = (   4.5191185   2.9521590  17.9045005  )
        49           O1  tau(  49) = (   5.9932199   2.9473452  17.4910416  )
        50           H1  tau(  50) = (   6.5492410   2.9805908  18.2871345  )
        51           H1  tau(  51) = (   4.3954453   2.0589761  18.5217578  )
        52           H1  tau(  52) = (   4.3855607   3.8562994  18.5052511  )

     number of k points=    10  Fermi-Dirac smearing, width (Ry)=  0.0073
                       cart. coord. in units 2pi/alat
        k(    1) = (   0.0000000   0.0000000   0.0000000), wk =   0.1250000
        k(    2) = (   0.0000000   0.0419351   0.0000000), wk =   0.2500000
        k(    3) = (   0.0000000  -0.0838702   0.0000000), wk =   0.1250000
        k(    4) = (   0.0379955   0.0000049   0.0000000), wk =   0.2500000
        k(    5) = (   0.0379955   0.0419400   0.0000000), wk =   0.2500000
        k(    6) = (   0.0379955  -0.0838652   0.0000000), wk =   0.2500000
        k(    7) = (   0.0379955  -0.0419301   0.0000000), wk =   0.2500000
        k(    8) = (  -0.0759910  -0.0000099   0.0000000), wk =   0.1250000
        k(    9) = (  -0.0759910   0.0419252   0.0000000), wk =   0.2500000
        k(   10) = (  -0.0759910  -0.0838800   0.0000000), wk =   0.1250000

     Initial potential from superposition of free atoms

     starting charge  374.99918, renormalised to  391.00000

     negative rho (up, down):  1.948E-02 0.000E+00

     %%%%%%%%%%%%%%%%%%%%%%%%%%%%%%%%%%%%%%%%%%%%%%%%%%%%%%%%%%%%%%%%%%%%%%%%
     %                                                                      %
     % You are using vdW-DF, which was implemented by the Thonhauser group. %
     % Please cite the following two papers that made this development      %
     % possible and the two reviews that describe the various versions:     %
     %                                                                      %
     %   T. Thonhauser et al., PRL 115, 136402 (2015).                      %
     %   T. Thonhauser et al., PRB 76, 125112 (2007).                       %
     %   K. Berland et al., Rep. Prog. Phys. 78, 066501 (2015).             %
     %   D.C. Langreth et al., J. Phys.: Condens. Matter 21, 084203 (2009). %
     %                                                                      %
     %                                                                      %
     % If you are calculating the stress with vdW-DF, please also cite:     %
     %                                                                      %
     %   R. Sabatini et al., J. Phys.: Condens. Matter 24, 424209 (2012).   %
     %                                                                      %
     %%%%%%%%%%%%%%%%%%%%%%%%%%%%%%%%%%%%%%%%%%%%%%%%%%%%%%%%%%%%%%%%%%%%%%%%

     Adding external electric field

     Computed dipole along edir(3) :
        Dipole               -5.2229 Ry au,        -13.2753 Debye
        Dipole field         -0.0099 Ry au,

        Potential amp.        0.9137 Ry
        Total length         46.3494 bohr

     Starting wfcs are  295 atomic wfcs
  @ DRIVER MODE: Message from server: STATUS
  @ DRIVER MODE: Message from server: POSDATA
  @ DRIVER MODE: Reading and sharing cell
  @ DRIVER MODE: Reading and sharing positions
  @ DRIVER MODE: Received positions

     Self-consistent Calculation

     iteration #  1     ecut=    29.40 Ry     beta= 0.05
     Davidson diagonalization with overlap
     c_bands:  1 eigenvalues not converged
     c_bands:  3 eigenvalues not converged
     c_bands:  2 eigenvalues not converged
     c_bands:  3 eigenvalues not converged
     c_bands:  4 eigenvalues not converged
     c_bands:  3 eigenvalues not converged
     c_bands:  1 eigenvalues not converged
     c_bands:  3 eigenvalues not converged
     ethr =  1.00E-05,  avg # of iterations = 19.6

[...]

     total energy              =   -2802.78876796 Ry
     estimated scf accuracy    <    1413.37048213 Ry

     iteration #  2     ecut=    29.40 Ry     beta= 0.05
     Davidson diagonalization with overlap
     ethr =  1.00E-02,  avg # of iterations = 16.5

[...]

     iteration # 59     ecut=    29.40 Ry     beta= 0.05
     Davidson diagonalization with overlap
     c_bands:  3 eigenvalues not converged
     c_bands:  1 eigenvalues not converged
     ethr =  2.78E-11,  avg # of iterations = 16.2

[...]

     total energy              =   -2931.32998914 Ry
     estimated scf accuracy    <       0.00000037 Ry

     iteration # 60     ecut=    29.40 Ry     beta= 0.05
     Davidson diagonalization with overlap
     ethr =  2.78E-11,  avg # of iterations =  7.8

     negative rho (up, down):  1.892E-02 0.000E+00

     Adding external electric field

     Computed dipole along edir(3) :
        Dipole                0.9602 Ry au,          2.4405 Debye
        Dipole field          0.0018 Ry au,

        Potential amp.       -0.1680 Ry
        Total length         46.3494 bohr

     End of self-consistent calculation

          k = 0.0000 0.0000 0.0000 ( 18029 PWs)   bands (ev):

   -55.8481 -55.8091 -55.7660 -55.7515 -55.6969 -55.6873 -55.6781 -55.6678
   -55.6292 -55.6180 -55.5963 -55.5858 -55.5589 -55.5503 -54.8187 -54.7847
   -32.3695 -32.3201 -32.2352 -32.2132 -32.1572 -32.1299 -32.1172 -32.0848
   -32.0771 -32.0630 -32.0423 -32.0163 -32.0032 -31.9949 -31.9666 -31.9597
   -31.9421 -31.9404 -31.9219 -31.9093 -31.9076 -31.9014 -31.8767 -31.8568
   -31.8538 -31.8513 -31.8458 -31.8412 -31.8278 -31.8130 -31.8022 -31.8016
   -31.8000 -31.7936 -31.7839 -31.7834 -31.7603 -31.7430 -31.7405 -31.7279
   -31.6990 -31.6326 -31.2258 -31.1365 -31.1140 -31.0429 -30.9567 -30.8451
   -19.5724 -16.5532 -16.3315 -16.1533 -16.0561 -15.9937 -15.8301 -15.7483
   -15.5606 -15.4842 -15.4773 -15.4520 -15.3896 -15.3756 -15.3643 -15.3442
   -15.3432 -15.3123 -15.2491 -15.2364 -15.2296 -15.2003 -15.1302 -15.1202
   -14.9760 -14.9587 -14.9585 -14.9463 -14.8475 -14.7790 -13.3187 -13.2017
    -9.6160  -6.4713  -4.2126  -4.0219  -3.8662  -3.7623  -3.7549  -3.7195
    -3.5668  -3.4893  -3.2750  -3.1343  -3.0889  -3.0207  -2.9767  -2.9152
    -2.8338  -2.7665  -2.7204  -2.6743  -2.6612  -2.6357  -2.6242  -2.5754
    -2.5395  -2.5132  -2.4032  -2.3987  -2.3490  -2.2913  -2.2543  -2.2013
    -2.1628  -2.1444  -2.1217  -2.0920  -2.0621  -2.0432  -2.0230  -1.9686
    -1.9175  -1.8384  -1.8239  -1.5539  -1.4642  -1.3919  -1.3659  -1.2879
    -1.2625  -1.2409  -1.2107  -1.2099  -1.1830  -1.1042  -1.0987  -1.0060
    -0.9711  -0.8875  -0.8339  -0.7455  -0.7057  -0.6342  -0.6143  -0.5789
    -0.5606  -0.5447  -0.3998  -0.3804  -0.3548  -0.2357  -0.2168  -0.1608
    -0.1334  -0.0749  -0.0493   0.0154   0.0462   0.0930   0.1214   0.1409
     0.1621   0.1773   0.2228   0.3086   0.3851   0.4008   0.4257   0.4919
     0.6773   0.7069   0.8356   0.9010   1.1338   1.2062   1.2506   1.3006
     1.3921   1.7805   1.8358   3.3043   3.3593   3.4194   3.4243   3.4615
     3.5539   3.7353   3.7544   3.8085   3.8685

[...]

          k = 0.0380-0.0419 0.0000 ( 17876 PWs)   bands (ev):

[...]

          k =-0.0760-0.0000 0.0000 ( 17886 PWs)   bands (ev):

[...]

          k =-0.0760-0.0839 0.0000 ( 17948 PWs)   bands (ev):

   -55.8381 -55.8190 -55.7620 -55.7451 -55.7032 -55.6907 -55.6728 -55.6658
   -55.6233 -55.6204 -55.5943 -55.5859 -55.5694 -55.5525 -54.8017 -54.8016
   -32.2930 -32.1448 -32.1357 -32.1266 -32.1027 -32.0893 -32.0832 -32.0594
   -32.0214 -32.0095 -31.9966 -31.9911 -31.9774 -31.9709 -31.9673 -31.9638
   -31.9599 -31.9572 -31.9464 -31.9416 -31.9139 -31.9110 -31.8995 -31.8968
   -31.8912 -31.8854 -31.8824 -31.8722 -31.8650 -31.8631 -31.8545 -31.8334
   -31.8237 -31.8194 -31.8106 -31.8092 -31.7953 -31.7927 -31.7899 -31.7864
   -31.7787 -31.6341 -31.1269 -31.1265 -31.0395 -31.0383 -30.9999 -30.9993
   -19.5664 -16.1434 -15.9634 -15.8080 -15.7800 -15.7790 -15.6449 -15.6268
   -15.6053 -15.5716 -15.5332 -15.5050 -15.4797 -15.4734 -15.4298 -15.3744
   -15.3679 -15.3552 -15.3291 -15.2709 -15.2590 -15.2566 -15.2153 -15.1603
   -15.1377 -15.1281 -15.1202 -15.1063 -15.0766 -15.0548 -13.3058 -13.3012
    -9.6163  -6.4546  -4.2185  -3.8935  -3.2851  -3.2138  -3.0119  -3.0083
    -2.9256  -2.8863  -2.8749  -2.8332  -2.7668  -2.7608  -2.7424  -2.6744
    -2.6494  -2.6466  -2.6073  -2.5987  -2.5776  -2.5694  -2.5479  -2.5226
    -2.4879  -2.4484  -2.4315  -2.4219  -2.4032  -2.3945  -2.3882  -2.3454
    -2.3251  -2.2148  -2.1345  -2.0240  -2.0187  -1.9721  -1.9573  -1.9351
    -1.8995  -1.8850  -1.8791  -1.8437  -1.7628  -1.6197  -1.5194  -1.5005
    -1.4604  -1.4344  -1.4015  -1.3803  -1.2834  -1.2712  -1.2180  -1.1899
    -1.1849  -1.0687  -1.0598  -0.9621  -0.9265  -0.8174  -0.8085  -0.7823
    -0.7600  -0.7248  -0.7002  -0.6312  -0.6112  -0.5702  -0.5525  -0.4870
    -0.4485  -0.4321  -0.3551  -0.3161  -0.2544  -0.2056  -0.1720  -0.0211
     0.1593   0.1772   0.2087   0.3194   0.3576   0.4306   0.4867   0.5018
     0.5715   0.6053   0.6739   0.7049   0.7669   0.8065   1.2668   1.5671
     1.5776   1.6404   1.6540   3.5970   3.6449   3.7699   3.7862   3.8182
     3.8233   3.8340   3.8559   3.9175   3.9526

     the Fermi energy is     3.2946 ev

!    total energy              =   -2931.33003076 Ry
     estimated scf accuracy    <       0.00000003 Ry
     smearing contrib. (-TS)   =      -0.02177089 Ry
     internal energy E=F+TS    =   -2931.30825987 Ry

     The total energy is F=E-TS. E is the sum of the following terms:
     one-electron contribution =  -24940.44152302 Ry
     hartree contribution      =   12556.66194351 Ry
     xc contribution           =    -482.04488196 Ry
     ewald contribution        =    9934.51446187 Ry
     electric field correction =       0.00173974 Ry

     convergence has been achieved in  60 iterations

     Forces acting on atoms (cartesian axes, Ry/au):

     atom    1 type  1   force =     0.00041489   -0.00074961    0.09647180
     atom    2 type  1   force =     0.00022590   -0.00293230   -0.17613752
     atom    3 type  2   force =    -0.00037746   -0.00272826   -0.03078109
     atom    4 type  2   force =    -0.00049075    0.00065460    0.04967729
     atom    5 type  2   force =    -0.01530487   -0.00088525    0.00151499
     atom    6 type  2   force =     0.01484494    0.00155523    0.00315807
     atom    7 type  1   force =    -0.00060361   -0.00031065   -0.00011610
     atom    8 type  1   force =    -0.00056486    0.00060394    0.00063675
     atom    9 type  2   force =    -0.00018533    0.00025908    0.00047452
     atom   10 type  2   force =     0.00000151    0.00008122   -0.00066634
     atom   11 type  2   force =     0.00022361    0.00030524    0.00017754
     atom   12 type  2   force =    -0.00016581    0.00013162   -0.00020896
     atom   13 type  1   force =     0.00016170   -0.00018022    0.00049835
     atom   14 type  1   force =     0.00032453   -0.00056151    0.00041979
     atom   15 type  2   force =     0.00003531    0.00061580   -0.00026024
     atom   16 type  2   force =    -0.00015639   -0.00012458    0.00022438
     atom   17 type  2   force =     0.00008245   -0.00000071    0.00007220
     atom   18 type  2   force =    -0.00009170    0.00015339    0.00017388
     atom   19 type  1   force =     0.00042366   -0.00051026    0.00112950
     atom   20 type  1   force =     0.00008005    0.00010303    0.00017368
     atom   21 type  2   force =     0.00016143    0.00023077    0.10300278
     atom   22 type  2   force =     0.00024992    0.00043481   -0.00013306
     atom   23 type  2   force =    -0.07095101    0.00145084   -0.02885612
     atom   24 type  2   force =     0.07107371    0.00186473   -0.02887321
     atom   25 type  1   force =     0.00034338    0.00078848    0.11231215
     atom   26 type  1   force =    -0.00012684    0.00363223   -0.17642408
     atom   27 type  2   force =    -0.00014752    0.00020309   -0.02744995
     atom   28 type  2   force =    -0.00030922    0.00087486    0.04913482
     atom   29 type  2   force =    -0.01336106   -0.00250098    0.00128935
     atom   30 type  2   force =     0.01439148   -0.00068041    0.00299296
     atom   31 type  1   force =     0.00019519   -0.00032182    0.00021059
     atom   32 type  1   force =    -0.00074664    0.00067434   -0.00046129
     atom   33 type  2   force =    -0.00025956   -0.00028811   -0.00024397
     atom   34 type  2   force =     0.00012239    0.00017289    0.00002071
     atom   35 type  2   force =    -0.00016176   -0.00006868    0.00030649
     atom   36 type  2   force =     0.00022723   -0.00009020    0.00030903
     atom   37 type  1   force =    -0.00026063   -0.00020431    0.00032974
     atom   38 type  1   force =     0.00028505    0.00033605    0.00030721
     atom   39 type  2   force =     0.00017671    0.00020302   -0.00019560
     atom   40 type  2   force =    -0.00008576   -0.00056525   -0.00088600
     atom   41 type  2   force =    -0.00024740   -0.00008837    0.00033843
     atom   42 type  2   force =     0.00002966   -0.00003325    0.00034890
     atom   43 type  1   force =     0.00034347    0.00038577    0.00011983
     atom   44 type  1   force =     0.00057143    0.00047838   -0.00029569
     atom   45 type  2   force =     0.00015533    0.00016569    0.10342190
     atom   46 type  2   force =    -0.07076550   -0.00175455   -0.02884511
     atom   47 type  2   force =     0.07087812   -0.00134330   -0.02886921
     atom   48 type  3   force =    -0.00158978   -0.00002800    0.00067477
     atom   49 type  2   force =    -0.00103685    0.00145494    0.00096940
     atom   50 type  4   force =     0.00045813   -0.00029536   -0.00002060
     atom   51 type  4   force =    -0.00037835   -0.00002290   -0.00033661
     atom   52 type  4   force =     0.00188742   -0.00054523   -0.00083107

     Total force =     0.369253     Total SCF correction =     0.000572
  @ DRIVER MODE: Message from server: STATUS
  @ DRIVER MODE: Message from server: GETFORCE
  @ DRIVER MODE: Returning v,forces,stress,ensemble

     Writing output data file ./calc.save/
  @ DRIVER MODE: Message from server: EXIT
  @ DRIVE MODE: Exiting

     General routines

     Parallel routines

   This run was terminated on:   5:12: 8   9Sep2021

   JOB DONE.