     Program PWSCF v.6.7GPU starts on 16Sep2021 at  2: 7:23

     R & G space division:  proc/nbgrp/npool/nimage =      10
     Reading input from /storage/home/hcoda1/3/ntian30/research/carbon/CxH_vib/H2O_calc/ads_slab/CH2N2H2O_b/out_0032/pw.inp
Warning: card &CELL ignored
Warning: card   CELL_DYNAMICS='IPI', ignored
Warning: card / ignored

     Current dimensions of program PWSCF are:
     Max number of different atomic species (ntypx) = 10
     Max number of k-points (npk) =  40000
     Max angular momentum in pseudopotentials (lmaxx) =  3
     Presently no symmetry can be used with electric field

     Message from routine cell_base_init:
     DEPRECATED: use true lattice parameter, not A to a.u. conversion factor

     IMPORTANT: XC functional enforced from input :
     Exchange-correlation= BEEF-VDW
                           (   1   4  43  14   2   0   0)
     Any further DFT definition will be discarded
     Please, verify this is what you really want

  @ DRIVER MODE: Connecting to
 qe_1139763_2852605.sched-torque.pace.gatech.edumn2u8sgj_scratch
  using UNIX socket
  @ DRIVER MODE: Message from server: STATUS
  @ DRIVER MODE: Message from server: INIT
  @ DRIVER MODE: Receiving replica           0          -1
  @ DRIVER MODE: Receiving encoded integer          25
  @ DRIVER MODE:  SCF:  T  FORCE:  T  STRESS:  F  VC:  F  ENSEMBLE:  F
  @ DRIVER MODE:  SCF:  T  FORCE:  T  STRESS:  F  VC:  F  ENSEMBLE:  F

     Using Slab Decomposition

     bravais-lattice index     =            0
     lattice parameter (alat)  =       1.8897  a.u.
     unit-cell volume          =    6658.9804 (a.u.)^3
     number of atoms/cell      =           55
     number of atomic types    =            5
     number of electrons       =       402.00
     number of Kohn-Sham states=          211
     kinetic-energy cutoff     =      29.3995  Ry
     charge density cutoff     =     293.9946  Ry
     scf convergence threshold =      7.3E-08
     mixing beta               =       0.0500
     number of iterations used =            8  plain     mixing
     Exchange-correlation= BEEF-VDW
                           (   1   4  43  14   2   0   0)

     celldm(1)=   1.889726  celldm(2)=   0.000000  celldm(3)=   0.000000
     celldm(4)=   0.000000  celldm(5)=   0.000000  celldm(6)=   0.000000

     crystal axes: (cart. coord. in units of alat)
               a(1) = (   6.579727   0.000000   0.000000 )
               a(2) = (  -0.000775   5.961596   0.000000 )
               a(3) = (   0.000000   0.000000  25.155947 )

     reciprocal axes: (cart. coord. in units 2 pi/alat)
               b(1) = (  0.151982  0.000020  0.000000 )
               b(2) = (  0.000000  0.167740  0.000000 )
               b(3) = (  0.000000  0.000000  0.039752 )

     PseudoPot. # 1 for Ti read from file:
     /storage/coda1/p-amedford6/0/shared/rich_project_chbe-medford/medford-share/data/pseudos_module/espresso/nninc/pbe/van/Ti.UPF
     MD5 check sum: 8e4df49b7f0d34bbd5052bf3f5ea0213
     Pseudo is Ultrasoft, Zval = 12.0
     Generated by new atomic code, or converted to UPF format
     Using radial grid of  851 points,  6 beta functions with:
                l(1) =   0
                l(2) =   0
                l(3) =   1
                l(4) =   1
                l(5) =   2
                l(6) =   2
     Q(r) pseudized with  8 coefficients,  rinner =    1.000   1.000   1.000
                                                       1.000   1.000

     PseudoPot. # 2 for O  read from file:
     /storage/coda1/p-amedford6/0/shared/rich_project_chbe-medford/medford-share/data/pseudos_module/espresso/nninc/pbe/van/O.UPF
     MD5 check sum: 78c19812648e8988a0fe644b0f25305e
     Pseudo is Ultrasoft, Zval =  6.0
     Generated by new atomic code, or converted to UPF format
     Using radial grid of  737 points,  4 beta functions with:
                l(1) =   0
                l(2) =   0
                l(3) =   1
                l(4) =   1
     Q(r) pseudized with  8 coefficients,  rinner =    0.800   0.800   0.800

     PseudoPot. # 3 for N  read from file:
     /storage/coda1/p-amedford6/0/shared/rich_project_chbe-medford/medford-share/data/pseudos_module/espresso/nninc/pbe/van/N.UPF
     MD5 check sum: 90d10febe142ad51ac9d5be1deb811c4
     Pseudo is Ultrasoft, Zval =  5.0
     Generated by new atomic code, or converted to UPF format
     Using radial grid of  729 points,  4 beta functions with:
                l(1) =   0
                l(2) =   0
                l(3) =   1
                l(4) =   1
     Q(r) pseudized with  8 coefficients,  rinner =    0.800   0.800   0.800

     PseudoPot. # 4 for C  read from file:
     /storage/coda1/p-amedford6/0/shared/rich_project_chbe-medford/medford-share/data/pseudos_module/espresso/nninc/pbe/van/C.UPF
     MD5 check sum: 1a69bf6b8db32088f5b2163dbdb77a27
     Pseudo is Ultrasoft, Zval =  4.0
     Generated by new atomic code, or converted to UPF format
     Using radial grid of  721 points,  4 beta functions with:
                l(1) =   0
                l(2) =   0
                l(3) =   1
                l(4) =   1
     Q(r) pseudized with  8 coefficients,  rinner =    0.800   0.800   0.800

     PseudoPot. # 5 for H  read from file:
     /storage/coda1/p-amedford6/0/shared/rich_project_chbe-medford/medford-share/data/pseudos_module/espresso/nninc/pbe/van/H.UPF
     MD5 check sum: b5ee9d7bfd3a09ee7748110bda690ff7
     Pseudo is Ultrasoft, Zval =  1.0
     Generated by new atomic code, or converted to UPF format
     Using radial grid of  615 points,  1 beta functions with:
                l(1) =   0
     Q(r) pseudized with  8 coefficients,  rinner =    0.800

     atomic species   valence    mass     pseudopotential
        Ti1           12.00    47.86700     Ti( 1.00)
        O1             6.00    15.99900     O ( 1.00)
        N1             5.00    14.00700     N ( 1.00)
        C1             4.00    12.01100     C ( 1.00)
        H1             1.00     1.00800     H ( 1.00)

     No symmetry found

   Cartesian axes

     site n.     atom                  positions (alat units)
         1           Ti1 tau(   1) = (   0.0004258   2.9801865   6.0000000  )
         2           Ti1 tau(   2) = (   3.2906075   1.4906267   6.0002472  )
         3           O1  tau(   3) = (   0.0006271   0.0005054   7.9858123  )
         4           O1  tau(   4) = (   3.2906025   0.0005020   7.3038282  )
         5           O1  tau(   5) = (   4.5942328   1.4918067   9.2879030  )
         6           O1  tau(   6) = (   1.9868534   1.4903216   9.2879459  )
         7           Ti1 tau(   7) = (   3.2907910   2.8959150   9.1758416  )
         8           Ti1 tau(   8) = (   0.0015273   1.4827037   9.2680791  )
         9           O1  tau(   9) = (   3.2934429   5.9466490  11.3040654  )
        10           O1  tau(  10) = (   0.0116148   5.9584955  10.6183126  )
        11           O1  tau(  11) = (   1.2867109   1.4782735  12.6190062  )
        12           O1  tau(  12) = (   5.2776945   1.4764076  12.5976694  )
        13           Ti1 tau(  13) = (   0.0846880   2.9559742  12.7004455  )
        14           Ti1 tau(  14) = (   3.4192946   1.4610250  12.4797112  )
        15           O1  tau(  15) = (   0.0040618   5.9510889  14.6015872  )
        16           O1  tau(  16) = (   3.2972055   5.9566395  13.8969661  )
        17           O1  tau(  17) = (   4.5327346   1.5242580  16.0225792  )
        18           O1  tau(  18) = (   2.0474321   1.5095568  15.9818283  )
        19           Ti1 tau(  19) = (   3.2830006   2.9631064  15.6531525  )
        20           Ti1 tau(  20) = (   6.5418150   1.5417905  15.9635021  )
        21           O1  tau(  21) = (   3.2904802   0.0005063   4.7018136  )
        22           O1  tau(  22) = (   0.0063621   0.0138944  17.1794403  )
        23           O1  tau(  23) = (   1.3043587   1.4918075   6.0039043  )
        24           O1  tau(  24) = (   5.2767064   1.4903225   6.0039473  )
        25           Ti1 tau(  25) = (   0.0000382   5.9609847   6.0000000  )
        26           Ti1 tau(  26) = (   3.2902200   4.4714249   6.0002472  )
        27           O1  tau(  27) = (   0.0002396   2.9813036   7.9858123  )
        28           O1  tau(  28) = (   3.2902150   2.9813002   7.3038282  )
        29           O1  tau(  29) = (   4.5938453   4.4726049   9.2879030  )
        30           O1  tau(  30) = (   1.9864658   4.4711199   9.2879459  )
        31           Ti1 tau(  31) = (   3.2891106   5.8743827   9.1763621  )
        32           Ti1 tau(  32) = (   0.0006254   4.4649316   9.2693709  )
        33           O1  tau(  33) = (   3.2987291   2.9703105  11.3060640  )
        34           O1  tau(  34) = (   0.0092240   2.9805883  10.6323155  )
        35           O1  tau(  35) = (   1.2872851   4.4534926  12.6272766  )
        36           O1  tau(  36) = (   5.2800973   4.4624318  12.6062822  )
        37           Ti1 tau(  37) = (   0.1009857   5.9355968  12.6779778  )
        38           Ti1 tau(  38) = (   3.4194502   4.4581092  12.4739500  )
        39           O1  tau(  39) = (   6.5579784   2.9468049  14.6267102  )
        40           O1  tau(  40) = (   3.2950467   2.9662764  13.8528306  )
        41           O1  tau(  41) = (   4.5369278   4.4531499  15.9976687  )
        42           O1  tau(  42) = (   2.0426393   4.4597293  15.9709435  )
        43           Ti1 tau(  43) = (   3.2485613   5.9322867  15.7552632  )
        44           Ti1 tau(  44) = (   6.5504849   4.5932964  16.0494500  )
        45           O1  tau(  45) = (   3.2900926   2.9813045   4.7018136  )
        46           O1  tau(  46) = (   1.3039711   4.4726057   6.0039043  )
        47           O1  tau(  47) = (   5.2763189   4.4711207   6.0039473  )
        48           N1  tau(  48) = (   0.6156314   2.9572148  18.5116157  )
        49           N1  tau(  49) = (   0.0870375   2.9660652  17.3203775  )
        50           C1  tau(  50) = (   6.5561155   3.1780822  19.6039678  )
        51           H1  tau(  51) = (   5.4868456   3.3930584  19.6151425  )
        52           H1  tau(  52) = (   0.5344647   3.1546629  20.5288580  )
        53           O1  tau(  53) = (   3.2652377   5.9566958  18.1335742  )
        54           H1  tau(  54) = (   4.0211122   0.5273114  18.4085372  )
        55           H1  tau(  55) = (   2.4596908   0.4732500  18.4230009  )

     number of k points=    10  Fermi-Dirac smearing, width (Ry)=  0.0073
                       cart. coord. in units 2pi/alat
        k(    1) = (   0.0000000   0.0000000   0.0000000), wk =   0.1250000
        k(    2) = (   0.0000000   0.0419351   0.0000000), wk =   0.2500000
        k(    3) = (   0.0000000  -0.0838702   0.0000000), wk =   0.1250000
        k(    4) = (   0.0379955   0.0000049   0.0000000), wk =   0.2500000
        k(    5) = (   0.0379955   0.0419400   0.0000000), wk =   0.2500000
        k(    6) = (   0.0379955  -0.0838652   0.0000000), wk =   0.2500000
        k(    7) = (   0.0379955  -0.0419301   0.0000000), wk =   0.2500000
        k(    8) = (  -0.0759910  -0.0000099   0.0000000), wk =   0.1250000
        k(    9) = (  -0.0759910   0.0419252   0.0000000), wk =   0.2500000
        k(   10) = (  -0.0759910  -0.0838800   0.0000000), wk =   0.1250000

     Initial potential from superposition of free atoms

     starting charge  385.99915, renormalised to  402.00000

     negative rho (up, down):  1.463E-02 0.000E+00

     %%%%%%%%%%%%%%%%%%%%%%%%%%%%%%%%%%%%%%%%%%%%%%%%%%%%%%%%%%%%%%%%%%%%%%%%
     %                                                                      %
     % You are using vdW-DF, which was implemented by the Thonhauser group. %
     % Please cite the following two papers that made this development      %
     % possible and the two reviews that describe the various versions:     %
     %                                                                      %
     %   T. Thonhauser et al., PRL 115, 136402 (2015).                      %
     %   T. Thonhauser et al., PRB 76, 125112 (2007).                       %
     %   K. Berland et al., Rep. Prog. Phys. 78, 066501 (2015).             %
     %   D.C. Langreth et al., J. Phys.: Condens. Matter 21, 084203 (2009). %
     %                                                                      %
     %                                                                      %
     % If you are calculating the stress with vdW-DF, please also cite:     %
     %                                                                      %
     %   R. Sabatini et al., J. Phys.: Condens. Matter 24, 424209 (2012).   %
     %                                                                      %
     %%%%%%%%%%%%%%%%%%%%%%%%%%%%%%%%%%%%%%%%%%%%%%%%%%%%%%%%%%%%%%%%%%%%%%%%

     Adding external electric field

     Computed dipole along edir(3) :
        Dipole              -11.9608 Ry au,        -30.4013 Debye
        Dipole field         -0.0226 Ry au,

        Potential amp.        2.0924 Ry
        Total length         46.3494 bohr

     Starting wfcs are  304 atomic wfcs
  @ DRIVER MODE: Message from server: STATUS
  @ DRIVER MODE: Message from server: POSDATA
  @ DRIVER MODE: Reading and sharing cell
  @ DRIVER MODE: Reading and sharing positions
  @ DRIVER MODE: Received positions

     Self-consistent Calculation

     iteration #  1     ecut=    29.40 Ry     beta= 0.05
     Davidson diagonalization with overlap
     c_bands:  3 eigenvalues not converged
     c_bands:  1 eigenvalues not converged
     c_bands:  5 eigenvalues not converged
     c_bands:  3 eigenvalues not converged
     c_bands:  3 eigenvalues not converged
     c_bands:  2 eigenvalues not converged
     c_bands:  4 eigenvalues not converged
     c_bands:  4 eigenvalues not converged
     c_bands:  3 eigenvalues not converged
     ethr =  1.00E-05,  avg # of iterations = 21.6

[...]

     total energy              =   -2415.33508033 Ry
     estimated scf accuracy    <    6284.06567273 Ry

     iteration #  2     ecut=    29.40 Ry     beta= 0.05
     Davidson diagonalization with overlap
     ethr =  1.00E-02,  avg # of iterations = 23.2

[...]

     iteration # 64     ecut=    29.40 Ry     beta= 0.05
     Davidson diagonalization with overlap
     c_bands:  1 eigenvalues not converged
     ethr =  7.34E-11,  avg # of iterations =  7.1

[...]

     total energy              =   -2972.73798970 Ry
     estimated scf accuracy    <       0.00000010 Ry

     iteration # 70     ecut=    29.40 Ry     beta= 0.05
     Davidson diagonalization with overlap
     ethr =  2.47E-11,  avg # of iterations =  6.2

     negative rho (up, down):  1.529E-02 0.000E+00

     Adding external electric field

     Computed dipole along edir(3) :
        Dipole                0.6726 Ry au,          1.7096 Debye
        Dipole field          0.0013 Ry au,

        Potential amp.       -0.1177 Ry
        Total length         46.3494 bohr

     End of self-consistent calculation

          k = 0.0000 0.0000 0.0000 ( 18029 PWs)   bands (ev):

   -56.1197 -56.0859 -55.6571 -55.6233 -55.5648 -55.5402 -55.5304 -55.5048
   -55.4195 -55.3708 -55.3302 -55.2615 -54.9363 -54.9023 -54.8611 -54.8217
   -32.5715 -32.4108 -32.3833 -32.2799 -32.1954 -32.1870 -32.1244 -32.0730
   -32.0511 -31.9003 -31.8772 -31.8731 -31.8411 -31.8398 -31.8216 -31.7875
   -31.7775 -31.7745 -31.7607 -31.7592 -31.7541 -31.7197 -31.7179 -31.7106
   -31.6764 -31.6741 -31.6607 -31.6493 -31.6298 -31.5987 -31.5409 -31.5387
   -31.5091 -31.4825 -31.4542 -31.4217 -31.3922 -31.3363 -31.2654 -31.2419
   -31.1539 -31.1073 -31.0741 -31.0686 -31.0579 -31.0345 -30.9574 -30.9474
   -18.6834 -17.4860 -16.4405 -16.2214 -15.9862 -15.7474 -15.6962 -15.5801
   -15.5666 -15.5588 -15.4459 -15.4284 -15.3717 -15.2656 -15.1956 -15.1593
   -15.1058 -15.0974 -15.0736 -14.9804 -14.9660 -14.9495 -14.9381 -14.8629
   -14.8201 -14.7997 -14.6931 -14.6255 -14.5601 -14.5312 -14.2358 -13.4363
   -13.3230 -11.6635  -6.5475  -6.4408  -4.4134  -3.9414  -3.9314  -3.7212
    -3.5598  -3.4580  -3.3293  -3.3126  -3.1845  -3.0759  -2.9453  -2.8856
    -2.8779  -2.8066  -2.7824  -2.7751  -2.6398  -2.6009  -2.5586  -2.5353
    -2.5047  -2.4281  -2.4152  -2.3595  -2.3190  -2.2856  -2.1800  -2.1411
    -2.1016  -2.0861  -2.0619  -2.0172  -1.9809  -1.9590  -1.9499  -1.9357
    -1.8968  -1.8049  -1.7550  -1.6562  -1.6003  -1.5000  -1.4560  -1.4404
    -1.3742  -1.2836  -1.1643  -1.1514  -1.0804  -1.0400  -0.9939  -0.9664
    -0.8933  -0.8841  -0.8134  -0.7741  -0.7001  -0.6496  -0.6174  -0.5940
    -0.5710  -0.4750  -0.4258  -0.3463  -0.2887  -0.2329  -0.2122  -0.1189
    -0.0900  -0.0575  -0.0332   0.0244   0.0669   0.0841   0.1045   0.1298
     0.1621   0.1865   0.3067   0.3599   0.3731   0.4064   0.4312   0.5412
     0.6020   0.6773   0.7366   0.7776   0.8802   0.8962   0.9407   1.0663
     1.0791   1.0860   1.1446   1.3039   1.6185   1.6442   1.6852   1.7774
     2.9509   3.1088   3.2253   3.4471   3.5454   3.5802   3.8452   3.9518
     3.9894   4.0018   4.0169

[...]

          k = 0.0380-0.0419 0.0000 ( 17876 PWs)   bands (ev):

[...]

          k =-0.0760-0.0000 0.0000 ( 17886 PWs)   bands (ev):

[...]

          k =-0.0760-0.0839 0.0000 ( 17948 PWs)   bands (ev):

   -56.1028 -56.1027 -55.6423 -55.6378 -55.5506 -55.5445 -55.5239 -55.5209
   -55.4175 -55.3610 -55.3400 -55.2634 -54.9193 -54.9191 -54.8512 -54.8315
   -32.3965 -32.3962 -32.3875 -32.3873 -32.2316 -32.2315 -31.9490 -31.9437
   -31.8942 -31.8928 -31.8901 -31.8696 -31.8327 -31.8278 -31.8092 -31.8079
   -31.7917 -31.7880 -31.7654 -31.7597 -31.7564 -31.7510 -31.7506 -31.7447
   -31.7109 -31.6720 -31.6665 -31.6597 -31.6341 -31.6228 -31.5874 -31.5732
   -31.5656 -31.5300 -31.5150 -31.4624 -31.2732 -31.2549 -31.2547 -31.1590
   -31.1503 -31.1501 -31.1114 -31.1113 -31.0667 -31.0541 -31.0453 -31.0272
   -18.6824 -17.4803 -15.8155 -15.8101 -15.7434 -15.7395 -15.6703 -15.6078
   -15.5077 -15.5039 -15.4608 -15.3730 -15.2952 -15.2764 -15.2065 -15.1997
   -15.1979 -15.1893 -15.1207 -15.1103 -15.0756 -15.0521 -15.0269 -15.0234
   -14.9947 -14.9715 -14.7585 -14.7020 -14.6357 -14.5603 -14.4103 -13.4257
   -13.4257 -11.6685  -6.5341  -6.4439  -4.3677  -3.9232  -3.1327  -3.0178
    -2.9361  -2.9246  -2.8992  -2.8045  -2.7831  -2.7372  -2.7106  -2.6898
    -2.6149  -2.6033  -2.5515  -2.5458  -2.5125  -2.4953  -2.4417  -2.4319
    -2.4215  -2.4165  -2.3676  -2.3323  -2.3284  -2.3179  -2.2959  -2.2272
    -2.1643  -2.1265  -2.0885  -2.0732  -2.0708  -2.0132  -1.9881  -1.9542
    -1.9022  -1.8983  -1.8645  -1.8134  -1.6843  -1.6737  -1.5422  -1.4707
    -1.4520  -1.3730  -1.3231  -1.2900  -1.2172  -1.1662  -1.1369  -1.0293
    -1.0078  -0.9762  -0.9626  -0.9272  -0.9226  -0.8822  -0.7745  -0.7541
    -0.7159  -0.7124  -0.6340  -0.6043  -0.5505  -0.5298  -0.5177  -0.4751
    -0.4568  -0.3726  -0.3508  -0.2946  -0.2400  -0.1974  -0.1469  -0.0956
    -0.0116   0.0542   0.1081   0.1993   0.2020   0.2140   0.4197   0.4253
     0.5247   0.6077   0.7341   0.7596   0.7737   0.8780   0.9180   0.9410
     0.9693   1.1330   1.1748   1.4700   1.4716   1.5015   1.5019   1.7263
     2.8913   3.6425   3.6426   3.6785   3.6799   3.9121   3.9166   3.9644
     3.9705   4.0264   4.0503

     the Fermi energy is     3.0504 ev

!    total energy              =   -2972.73801042 Ry
     estimated scf accuracy    <       0.00000003 Ry
     smearing contrib. (-TS)   =      -0.01267582 Ry
     internal energy E=F+TS    =   -2972.72533459 Ry

     The total energy is F=E-TS. E is the sum of the following terms:
     one-electron contribution =  -24071.31904929 Ry
     hartree contribution      =   12129.26617473 Ry
     xc contribution           =    -493.17732854 Ry
     ewald contribution        =    9462.50401478 Ry
     electric field correction =       0.00085373 Ry

     convergence has been achieved in  70 iterations

     Forces acting on atoms (cartesian axes, Ry/au):

     atom    1 type  1   force =     0.00013198   -0.00030007    0.10878124
     atom    2 type  1   force =    -0.00011132   -0.00041002   -0.16775912
     atom    3 type  2   force =    -0.00015647   -0.00000895   -0.04387422
     atom    4 type  2   force =     0.00004922   -0.00075105    0.03933555
     atom    5 type  2   force =    -0.01329208    0.00016670   -0.00457466
     atom    6 type  2   force =     0.01488961    0.00103919   -0.00539809
     atom    7 type  1   force =    -0.00093093   -0.00251253    0.01168159
     atom    8 type  1   force =     0.00124981    0.00154199    0.07744844
     atom    9 type  2   force =    -0.00005717   -0.00014813   -0.00023921
     atom   10 type  2   force =    -0.00114933    0.00038982   -0.05117328
     atom   11 type  2   force =    -0.00006687    0.00036251    0.00010284
     atom   12 type  2   force =    -0.00000723    0.00024850    0.00006213
     atom   13 type  1   force =     0.00044950    0.00001172    0.00004502
     atom   14 type  1   force =    -0.00024242   -0.00007949    0.00015413
     atom   15 type  2   force =    -0.00019342   -0.00011774    0.00041748
     atom   16 type  2   force =     0.00013788    0.00001824   -0.00006295
     atom   17 type  2   force =    -0.00069955    0.00051767   -0.00034219
     atom   18 type  2   force =     0.00037634    0.00014688    0.00009027
     atom   19 type  1   force =     0.00056396   -0.00015510    0.00012683
     atom   20 type  1   force =    -0.00027456    0.00048119   -0.00010365
     atom   21 type  2   force =     0.00007933    0.00005578    0.10124417
     atom   22 type  2   force =     0.00002510   -0.00004033    0.00008594
     atom   23 type  2   force =    -0.07509763   -0.00002412   -0.03017743
     atom   24 type  2   force =     0.07507099    0.00043100   -0.03017533
     atom   25 type  1   force =     0.00021441   -0.00028835    0.10843354
     atom   26 type  1   force =    -0.00009902   -0.00044973   -0.16777852
     atom   27 type  2   force =    -0.00002015   -0.00025301   -0.04287450
     atom   28 type  2   force =     0.00011375   -0.00047207    0.03869616
     atom   29 type  2   force =    -0.01361078    0.00094627   -0.00480518
     atom   30 type  2   force =     0.01514245    0.00120853   -0.00568070
     atom   31 type  1   force =    -0.00125234    0.00050971    0.00738460
     atom   32 type  1   force =     0.00132727   -0.00408498    0.07788353
     atom   33 type  2   force =    -0.00005879    0.00012433   -0.00026767
     atom   34 type  2   force =    -0.00137737    0.00034811   -0.05723210
     atom   35 type  2   force =    -0.00000182   -0.00049767   -0.00003786
     atom   36 type  2   force =    -0.00035411   -0.00022329   -0.00013865
     atom   37 type  1   force =    -0.00006525   -0.00001888   -0.00025618
     atom   38 type  1   force =    -0.00020002    0.00020910   -0.00011151
     atom   39 type  2   force =     0.00003639   -0.00002251   -0.00048744
     atom   40 type  2   force =    -0.00002925    0.00028880    0.00021738
     atom   41 type  2   force =    -0.00000312   -0.00025333   -0.00015788
     atom   42 type  2   force =    -0.00026099    0.00018080    0.00014666
     atom   43 type  1   force =     0.00069443    0.00078061    0.00019394
     atom   44 type  1   force =    -0.00020035    0.00002396    0.00015369
     atom   45 type  2   force =     0.00006835    0.00003895    0.10120419
     atom   46 type  2   force =    -0.07508522    0.00004159   -0.03013691
     atom   47 type  2   force =     0.07506049    0.00047544   -0.03015093
     atom   48 type  3   force =     0.00010379   -0.00000055    0.00028958
     atom   49 type  3   force =     0.00021579    0.00019522    0.00003543
     atom   50 type  4   force =    -0.00019470    0.00009627    0.00001238
     atom   51 type  5   force =     0.00023700    0.00051604   -0.00022329
     atom   52 type  5   force =    -0.00020232   -0.00017568    0.00002947
     atom   53 type  2   force =    -0.02519701   -0.00061161    0.00042129
     atom   54 type  5   force =     0.01157132    0.00774946    0.00410036
     atom   55 type  5   force =     0.01268242   -0.00724521   -0.00455841

     Total force =     0.391873     Total SCF correction =     0.000288
  @ DRIVER MODE: Message from server: STATUS
  @ DRIVER MODE: Message from server: GETFORCE
  @ DRIVER MODE: Returning v,forces,stress,ensemble

     Writing output data file ./calc.save/
  @ DRIVER MODE: Message from server: EXIT
  @ DRIVE MODE: Exiting

     General routines

     Parallel routines

   This run was terminated on:   2:27:11  16Sep2021

   JOB DONE.