     Program PWSCF v.6.7GPU starts on 22Sep2021 at 23:21:21

     R & G space division:  proc/nbgrp/npool/nimage =      10
     Reading input from /storage/home/hcoda1/3/ntian30/research/carbon/CxH_vib/H2O_calc/ads_slab/CH2HO_a/out_0028/pw.inp
Warning: card &CELL ignored
Warning: card   CELL_DYNAMICS='IPI', ignored
Warning: card / ignored

     Current dimensions of program PWSCF are:
     Max number of different atomic species (ntypx) = 10
     Max number of k-points (npk) =  40000
     Max angular momentum in pseudopotentials (lmaxx) =  3
     Presently no symmetry can be used with electric field

     Message from routine cell_base_init:
     DEPRECATED: use true lattice parameter, not A to a.u. conversion factor

     IMPORTANT: XC functional enforced from input :
     Exchange-correlation= BEEF-VDW
                           (   1   4  43  14   2   0   0)
     Any further DFT definition will be discarded
     Please, verify this is what you really want

  @ DRIVER MODE: Connecting to
 qe_1139763_2937324.sched-torque.pace.gatech.eduplj49s3i_scratch
  using UNIX socket
  @ DRIVER MODE: Message from server: STATUS
  @ DRIVER MODE: Message from server: INIT
  @ DRIVER MODE: Receiving replica           0          -1
  @ DRIVER MODE: Receiving encoded integer          25
  @ DRIVER MODE:  SCF:  T  FORCE:  T  STRESS:  F  VC:  F  ENSEMBLE:  F
  @ DRIVER MODE:  SCF:  T  FORCE:  T  STRESS:  F  VC:  F  ENSEMBLE:  F

     Using Slab Decomposition

     bravais-lattice index     =            0
     lattice parameter (alat)  =       1.8897  a.u.
     unit-cell volume          =    6658.9804 (a.u.)^3
     number of atoms/cell      =           52
     number of atomic types    =            4
     number of electrons       =       391.00
     number of Kohn-Sham states=          205
     kinetic-energy cutoff     =      29.3995  Ry
     charge density cutoff     =     293.9946  Ry
     scf convergence threshold =      7.3E-08
     mixing beta               =       0.0500
     number of iterations used =            8  plain     mixing
     Exchange-correlation= BEEF-VDW
                           (   1   4  43  14   2   0   0)

     celldm(1)=   1.889726  celldm(2)=   0.000000  celldm(3)=   0.000000
     celldm(4)=   0.000000  celldm(5)=   0.000000  celldm(6)=   0.000000

     crystal axes: (cart. coord. in units of alat)
               a(1) = (   6.579727   0.000000   0.000000 )
               a(2) = (  -0.000775   5.961596   0.000000 )
               a(3) = (   0.000000   0.000000  25.155947 )

     reciprocal axes: (cart. coord. in units 2 pi/alat)
               b(1) = (  0.151982  0.000020  0.000000 )
               b(2) = (  0.000000  0.167740  0.000000 )
               b(3) = (  0.000000  0.000000  0.039752 )

     PseudoPot. # 1 for Ti read from file:
     /storage/coda1/p-amedford6/0/shared/rich_project_chbe-medford/medford-share/data/pseudos_module/espresso/nninc/pbe/van/Ti.UPF
     MD5 check sum: 8e4df49b7f0d34bbd5052bf3f5ea0213
     Pseudo is Ultrasoft, Zval = 12.0
     Generated by new atomic code, or converted to UPF format
     Using radial grid of  851 points,  6 beta functions with:
                l(1) =   0
                l(2) =   0
                l(3) =   1
                l(4) =   1
                l(5) =   2
                l(6) =   2
     Q(r) pseudized with  8 coefficients,  rinner =    1.000   1.000   1.000
                                                       1.000   1.000

     PseudoPot. # 2 for O  read from file:
     /storage/coda1/p-amedford6/0/shared/rich_project_chbe-medford/medford-share/data/pseudos_module/espresso/nninc/pbe/van/O.UPF
     MD5 check sum: 78c19812648e8988a0fe644b0f25305e
     Pseudo is Ultrasoft, Zval =  6.0
     Generated by new atomic code, or converted to UPF format
     Using radial grid of  737 points,  4 beta functions with:
                l(1) =   0
                l(2) =   0
                l(3) =   1
                l(4) =   1
     Q(r) pseudized with  8 coefficients,  rinner =    0.800   0.800   0.800

     PseudoPot. # 3 for C  read from file:
     /storage/coda1/p-amedford6/0/shared/rich_project_chbe-medford/medford-share/data/pseudos_module/espresso/nninc/pbe/van/C.UPF
     MD5 check sum: 1a69bf6b8db32088f5b2163dbdb77a27
     Pseudo is Ultrasoft, Zval =  4.0
     Generated by new atomic code, or converted to UPF format
     Using radial grid of  721 points,  4 beta functions with:
                l(1) =   0
                l(2) =   0
                l(3) =   1
                l(4) =   1
     Q(r) pseudized with  8 coefficients,  rinner =    0.800   0.800   0.800

     PseudoPot. # 4 for H  read from file:
     /storage/coda1/p-amedford6/0/shared/rich_project_chbe-medford/medford-share/data/pseudos_module/espresso/nninc/pbe/van/H.UPF
     MD5 check sum: b5ee9d7bfd3a09ee7748110bda690ff7
     Pseudo is Ultrasoft, Zval =  1.0
     Generated by new atomic code, or converted to UPF format
     Using radial grid of  615 points,  1 beta functions with:
                l(1) =   0
     Q(r) pseudized with  8 coefficients,  rinner =    0.800

     atomic species   valence    mass     pseudopotential
        Ti1           12.00    47.86700     Ti( 1.00)
        O1             6.00    15.99900     O ( 1.00)
        C1             4.00    12.01100     C ( 1.00)
        H1             1.00     1.00800     H ( 1.00)

     No symmetry found

   Cartesian axes

     site n.     atom                  positions (alat units)
         1           Ti1 tau(   1) = (   0.0004258   2.9801865   6.0000000  )
         2           Ti1 tau(   2) = (   3.2906075   1.4906267   6.0002472  )
         3           O1  tau(   3) = (   0.0006271   0.0005054   7.9858123  )
         4           O1  tau(   4) = (   3.2906025   0.0005020   7.3038282  )
         5           O1  tau(   5) = (   4.5942328   1.4918067   9.2879030  )
         6           O1  tau(   6) = (   1.9868534   1.4903216   9.2879459  )
         7           Ti1 tau(   7) = (   3.2576197   2.8654215   9.2214558  )
         8           Ti1 tau(   8) = (   6.5344909   1.4429808   9.3601258  )
         9           O1  tau(   9) = (   3.2692782   5.9266415  11.3199434  )
        10           O1  tau(  10) = (   6.5685443   5.9434748  10.5851361  )
        11           O1  tau(  11) = (   1.2543606   1.4786140  12.6270584  )
        12           O1  tau(  12) = (   5.2804994   1.4734118  12.6291387  )
        13           Ti1 tau(  13) = (   6.5561640   2.8465321  12.8092297  )
        14           Ti1 tau(  14) = (   3.2590950   1.2910582  12.6820668  )
        15           O1  tau(  15) = (   6.5637791   5.9505241  14.6246090  )
        16           O1  tau(  16) = (   3.2632455   0.0300109  13.9168947  )
        17           O1  tau(  17) = (   4.5093043   1.5331652  16.1230905  )
        18           O1  tau(  18) = (   1.9844652   1.5452522  16.1286669  )
        19           Ti1 tau(  19) = (   3.2766647   3.0056044  15.6806532  )
        20           Ti1 tau(  20) = (   0.0376264   1.5104518  16.1289793  )
        21           O1  tau(  21) = (   3.2904802   0.0005063   4.7018136  )
        22           O1  tau(  22) = (   6.5370995   5.9187843  17.1758003  )
        23           O1  tau(  23) = (   1.3043587   1.4918075   6.0039043  )
        24           O1  tau(  24) = (   5.2767064   1.4903225   6.0039473  )
        25           Ti1 tau(  25) = (   0.0000382   5.9609847   6.0000000  )
        26           Ti1 tau(  26) = (   3.2902200   4.4714249   6.0002472  )
        27           O1  tau(  27) = (   0.0002396   2.9813036   7.9858123  )
        28           O1  tau(  28) = (   3.2902150   2.9813002   7.3038282  )
        29           O1  tau(  29) = (   4.5938453   4.4726049   9.2879030  )
        30           O1  tau(  30) = (   1.9864658   4.4711199   9.2879459  )
        31           Ti1 tau(  31) = (   3.2565375   5.8496818   9.1814359  )
        32           Ti1 tau(  32) = (   6.5349656   4.3900073   9.3400910  )
        33           O1  tau(  33) = (   3.2728704   3.0037829  11.2907943  )
        34           O1  tau(  34) = (   6.5689136   2.9626257  10.5472476  )
        35           O1  tau(  35) = (   1.2549189   4.4436098  12.6280720  )
        36           O1  tau(  36) = (   5.2752285   4.4450423  12.6314263  )
        37           Ti1 tau(  37) = (   6.5445616   5.8332433  12.5976854  )
        38           Ti1 tau(  38) = (   3.2543598   4.3897341  12.4334224  )
        39           O1  tau(  39) = (   6.5579435   2.9355163  14.7117218  )
        40           O1  tau(  40) = (   3.2602875   2.9656724  13.9017019  )
        41           O1  tau(  41) = (   4.5395605   4.4315404  16.0360363  )
        42           O1  tau(  42) = (   2.0063696   4.4444213  16.0824092  )
        43           Ti1 tau(  43) = (   3.2990179   0.0081159  16.3450624  )
        44           Ti1 tau(  44) = (   6.5722952   4.6241161  15.8901152  )
        45           O1  tau(  45) = (   3.2900926   2.9813045   4.7018136  )
        46           O1  tau(  46) = (   1.3039711   4.4726057   6.0039043  )
        47           O1  tau(  47) = (   5.2763189   4.4711207   6.0039473  )
        48           C1  tau(  48) = (   6.5366691   2.9215611  17.7332970  )
        49           H1  tau(  49) = (   0.8393079   3.1163452  18.3454380  )
        50           H1  tau(  50) = (   5.6239513   3.1093896  18.3013171  )
        51           O1  tau(  51) = (   3.3457726   5.9061862  18.1608053  )
        52           H1  tau(  52) = (   4.0847859   0.3169366  18.6733355  )

     number of k points=    10  Fermi-Dirac smearing, width (Ry)=  0.0073
                       cart. coord. in units 2pi/alat
        k(    1) = (   0.0000000   0.0000000   0.0000000), wk =   0.1250000
        k(    2) = (   0.0000000   0.0419351   0.0000000), wk =   0.2500000
        k(    3) = (   0.0000000  -0.0838702   0.0000000), wk =   0.1250000
        k(    4) = (   0.0379955   0.0000049   0.0000000), wk =   0.2500000
        k(    5) = (   0.0379955   0.0419400   0.0000000), wk =   0.2500000
        k(    6) = (   0.0379955  -0.0838652   0.0000000), wk =   0.2500000
        k(    7) = (   0.0379955  -0.0419301   0.0000000), wk =   0.2500000
        k(    8) = (  -0.0759910  -0.0000099   0.0000000), wk =   0.1250000
        k(    9) = (  -0.0759910   0.0419252   0.0000000), wk =   0.2500000
        k(   10) = (  -0.0759910  -0.0838800   0.0000000), wk =   0.1250000

     Initial potential from superposition of free atoms

     starting charge  374.99918, renormalised to  391.00000

     negative rho (up, down):  1.929E-02 0.000E+00

     %%%%%%%%%%%%%%%%%%%%%%%%%%%%%%%%%%%%%%%%%%%%%%%%%%%%%%%%%%%%%%%%%%%%%%%%
     %                                                                      %
     % You are using vdW-DF, which was implemented by the Thonhauser group. %
     % Please cite the following two papers that made this development      %
     % possible and the two reviews that describe the various versions:     %
     %                                                                      %
     %   T. Thonhauser et al., PRL 115, 136402 (2015).                      %
     %   T. Thonhauser et al., PRB 76, 125112 (2007).                       %
     %   K. Berland et al., Rep. Prog. Phys. 78, 066501 (2015).             %
     %   D.C. Langreth et al., J. Phys.: Condens. Matter 21, 084203 (2009). %
     %                                                                      %
     %                                                                      %
     % If you are calculating the stress with vdW-DF, please also cite:     %
     %                                                                      %
     %   R. Sabatini et al., J. Phys.: Condens. Matter 24, 424209 (2012).   %
     %                                                                      %
     %%%%%%%%%%%%%%%%%%%%%%%%%%%%%%%%%%%%%%%%%%%%%%%%%%%%%%%%%%%%%%%%%%%%%%%%

     Adding external electric field

     Computed dipole along edir(3) :
        Dipole               -4.4316 Ry au,        -11.2641 Debye
        Dipole field         -0.0084 Ry au,

        Potential amp.        0.7752 Ry
        Total length         46.3494 bohr

     Starting wfcs are  295 atomic wfcs
  @ DRIVER MODE: Message from server: STATUS
  @ DRIVER MODE: Message from server: POSDATA
  @ DRIVER MODE: Reading and sharing cell
  @ DRIVER MODE: Reading and sharing positions
  @ DRIVER MODE: Received positions

     Self-consistent Calculation

     iteration #  1     ecut=    29.40 Ry     beta= 0.05
     Davidson diagonalization with overlap
     c_bands:  5 eigenvalues not converged
     c_bands:  2 eigenvalues not converged
     c_bands:  2 eigenvalues not converged
     c_bands:  2 eigenvalues not converged
     c_bands:  3 eigenvalues not converged
     c_bands:  1 eigenvalues not converged
     c_bands:  3 eigenvalues not converged
     c_bands:  1 eigenvalues not converged
     c_bands:  3 eigenvalues not converged
     ethr =  1.00E-05,  avg # of iterations = 20.0

[...]

     total energy              =   -2883.38066097 Ry
     estimated scf accuracy    <     547.76402319 Ry

     iteration #  2     ecut=    29.40 Ry     beta= 0.05
     Davidson diagonalization with overlap
     ethr =  1.00E-02,  avg # of iterations = 14.4

[...]

     iteration # 40     ecut=    29.40 Ry     beta= 0.05
     Davidson diagonalization with overlap
     c_bands:  1 eigenvalues not converged
     ethr =  6.61E-07,  avg # of iterations =  7.5

[...]

     total energy              =   -2931.27747450 Ry
     estimated scf accuracy    <       0.00000012 Ry

     iteration # 67     ecut=    29.40 Ry     beta= 0.05
     Davidson diagonalization with overlap
     ethr =  2.51E-11,  avg # of iterations =  5.0

     negative rho (up, down):  1.858E-02 0.000E+00

     Adding external electric field

     Computed dipole along edir(3) :
        Dipole                0.4339 Ry au,          1.1028 Debye
        Dipole field          0.0008 Ry au,

        Potential amp.       -0.0759 Ry
        Total length         46.3494 bohr

     End of self-consistent calculation

          k = 0.0000 0.0000 0.0000 ( 18029 PWs)   bands (ev):

   -56.6091 -56.5591 -56.1462 -56.0377 -55.9954 -55.9385 -55.9122 -55.8968
   -55.8540 -55.8125 -55.7829 -55.7262 -55.6790 -55.6098 -55.2187 -55.1848
   -33.0210 -32.8741 -32.8198 -32.7880 -32.6923 -32.6471 -32.4984 -32.4859
   -32.4657 -32.4012 -32.3708 -32.3505 -32.3075 -32.2849 -32.2663 -32.2426
   -32.2387 -32.2235 -32.2096 -32.1438 -32.1411 -32.1279 -32.1253 -32.1116
   -32.0991 -32.0940 -32.0893 -32.0862 -32.0606 -32.0403 -32.0167 -31.9994
   -31.9940 -31.9842 -31.9830 -31.9734 -31.9265 -31.8705 -31.8440 -31.8386
   -31.8216 -31.7890 -31.6133 -31.5591 -31.5348 -31.4299 -31.3449 -31.2342
   -16.9325 -16.7667 -16.6229 -16.3994 -16.2551 -16.1512 -15.9352 -15.9248
   -15.8030 -15.7856 -15.7611 -15.6297 -15.6165 -15.6001 -15.5603 -15.5385
   -15.5309 -15.5290 -15.5176 -15.4911 -15.4590 -15.4381 -15.3981 -15.3165
   -15.2414 -15.2340 -15.1986 -15.1431 -15.0795 -14.8600 -13.7215 -13.6131
    -8.9124  -4.6370  -4.2914  -4.0785  -3.9702  -3.8926  -3.7862  -3.6327
    -3.4337  -3.2950  -3.2458  -3.2087  -3.1606  -3.1450  -3.1237  -3.0795
    -3.0325  -2.9806  -2.9512  -2.8895  -2.8649  -2.8256  -2.7888  -2.7637
    -2.7485  -2.7302  -2.7237  -2.5889  -2.5241  -2.5140  -2.4670  -2.4651
    -2.4068  -2.3900  -2.3663  -2.3170  -2.2827  -2.1876  -2.1293  -2.0963
    -2.0505  -1.8290  -1.8108  -1.7450  -1.6707  -1.6178  -1.5596  -1.5169
    -1.4626  -1.4347  -1.3739  -1.3339  -1.2860  -1.2617  -1.2226  -1.1552
    -1.1351  -1.1003  -1.0390  -0.9630  -0.9173  -0.8490  -0.7820  -0.7453
    -0.6906  -0.6816  -0.6513  -0.5602  -0.4773  -0.4572  -0.4237  -0.3825
    -0.3658  -0.2947  -0.2806  -0.2385  -0.2224  -0.1457  -0.1306  -0.1011
    -0.0687  -0.0465  -0.0244   0.0423   0.1640   0.2320   0.2739   0.3123
     0.3287   0.4148   0.4346   0.5222   0.6779   0.7976   0.8369   1.0074
     1.0598   1.3485   1.3945   1.9245   2.6925   2.8569   3.1426   3.2458
     3.2813   3.3577   3.4023   3.4337   3.6332

[...]

          k = 0.0380-0.0419 0.0000 ( 17876 PWs)   bands (ev):

[...]

          k =-0.0760-0.0000 0.0000 ( 17886 PWs)   bands (ev):

[...]

          k =-0.0760-0.0839 0.0000 ( 17948 PWs)   bands (ev):

   -56.6026 -56.5654 -56.1454 -56.0353 -55.9894 -55.9443 -55.9143 -55.8974
   -55.8452 -55.8212 -55.7813 -55.7199 -55.6851 -55.6113 -55.2020 -55.2014
   -32.8699 -32.8535 -32.8237 -32.8215 -32.7545 -32.7227 -32.4228 -32.3790
   -32.3659 -32.3511 -32.3341 -32.2909 -32.2681 -32.2610 -32.2504 -32.2305
   -32.2149 -32.2025 -32.1917 -32.1829 -32.1634 -32.1625 -32.1403 -32.1366
   -32.1352 -32.1242 -32.1093 -32.1055 -32.0724 -32.0679 -32.0547 -32.0420
   -32.0030 -31.9955 -31.9875 -31.9873 -31.9540 -31.9303 -31.9106 -31.8721
   -31.8248 -31.8124 -31.5480 -31.5476 -31.4289 -31.4270 -31.3871 -31.3862
   -16.9196 -16.1450 -16.0836 -16.0741 -16.0609 -16.0310 -15.9895 -15.9180
   -15.9159 -15.8185 -15.7915 -15.7476 -15.7094 -15.6974 -15.6517 -15.6386
   -15.6263 -15.5632 -15.5211 -15.5023 -15.4867 -15.4742 -15.4534 -15.4285
   -15.4170 -15.3968 -15.3293 -15.2474 -15.2170 -15.0021 -13.7175 -13.7163
    -8.9202  -4.6282  -3.3822  -3.3278  -3.2489  -3.2303  -3.2188  -3.1501
    -3.0939  -3.0888  -3.0310  -3.0176  -2.9743  -2.9448  -2.9150  -2.9090
    -2.9020  -2.8922  -2.8787  -2.8549  -2.8008  -2.7980  -2.7802  -2.7711
    -2.7548  -2.7388  -2.7062  -2.6654  -2.6347  -2.6105  -2.5301  -2.4256
    -2.4199  -2.3866  -2.3549  -2.3218  -2.2804  -2.2589  -2.1828  -2.1753
    -2.1593  -2.1097  -2.0115  -1.7788  -1.7706  -1.7166  -1.6833  -1.6745
    -1.6117  -1.5425  -1.5357  -1.4510  -1.4478  -1.4344  -1.3339  -1.3161
    -1.2835  -1.2645  -1.2388  -1.2092  -1.1070  -1.0853  -1.0774  -1.0456
    -1.0004  -0.9796  -0.8879  -0.8696  -0.8515  -0.8233  -0.7415  -0.6892
    -0.6498  -0.6318  -0.4938  -0.4479  -0.4353  -0.2835  -0.2305  -0.1968
    -0.1740  -0.0881   0.0168   0.0561   0.1131   0.1603   0.2196   0.3259
     0.3390   0.3613   0.4256   0.4650   0.4727   0.4881   0.5647   1.1918
     1.1926   1.2007   1.2076   2.0835   3.2337   3.2592   3.2713   3.3047
     3.5174   3.5411   3.5519   3.6098   3.6509

     the Fermi energy is     2.0044 ev

!    total energy              =   -2931.27749229 Ry
     estimated scf accuracy    <       0.00000002 Ry
     smearing contrib. (-TS)   =      -0.01004654 Ry
     internal energy E=F+TS    =   -2931.26744575 Ry

     The total energy is F=E-TS. E is the sum of the following terms:
     one-electron contribution =  -24332.02515072 Ry
     hartree contribution      =   12249.80595252 Ry
     xc contribution           =    -481.69676267 Ry
     ewald contribution        =    9632.64815990 Ry
     electric field correction =       0.00035523 Ry

     convergence has been achieved in  67 iterations

     Forces acting on atoms (cartesian axes, Ry/au):

     atom    1 type  1   force =     0.00036028   -0.00077389    0.13234653
     atom    2 type  1   force =     0.00014083    0.00690477   -0.15729129
     atom    3 type  2   force =    -0.00018544    0.00281880   -0.05348561
     atom    4 type  2   force =    -0.00072946   -0.00116641    0.04120094
     atom    5 type  2   force =    -0.01140773   -0.00238523    0.00284761
     atom    6 type  2   force =     0.00918522   -0.00643861    0.00177798
     atom    7 type  1   force =     0.00044007    0.00029599   -0.00036851
     atom    8 type  1   force =     0.00019725   -0.00002073    0.00095094
     atom    9 type  2   force =    -0.00002499    0.00043892    0.00037527
     atom   10 type  2   force =     0.00025355    0.00023024   -0.00010628
     atom   11 type  2   force =     0.00050914    0.00033255    0.00026120
     atom   12 type  2   force =    -0.00015191    0.00027015   -0.00025570
     atom   13 type  1   force =    -0.00026706   -0.00047841   -0.00092706
     atom   14 type  1   force =     0.00020704    0.00048326   -0.00024305
     atom   15 type  2   force =     0.00006855   -0.00015943    0.00148739
     atom   16 type  2   force =     0.00047633   -0.00017721    0.00004359
     atom   17 type  2   force =     0.00023277   -0.00027715   -0.00031112
     atom   18 type  2   force =    -0.00111226   -0.00021833   -0.00023841
     atom   19 type  1   force =     0.00115138   -0.00000784   -0.00025543
     atom   20 type  1   force =    -0.00021973    0.00027907   -0.00017937
     atom   21 type  2   force =     0.00020881    0.00008692    0.09899095
     atom   22 type  2   force =     0.00008569    0.00090335   -0.00110409
     atom   23 type  2   force =    -0.08050483    0.00137198   -0.03417276
     atom   24 type  2   force =     0.08058083    0.00190213   -0.03418164
     atom   25 type  1   force =     0.00030389   -0.00010641    0.14243859
     atom   26 type  1   force =     0.00016742   -0.00836955   -0.15757073
     atom   27 type  2   force =    -0.00039124   -0.00117045   -0.05198439
     atom   28 type  2   force =    -0.00064099   -0.00038087    0.04300320
     atom   29 type  2   force =    -0.01011577    0.00503674    0.00017410
     atom   30 type  2   force =     0.00778722    0.00128025   -0.00110707
     atom   31 type  1   force =     0.00009875    0.00000966   -0.00024625
     atom   32 type  1   force =     0.00009065   -0.00043030    0.00097925
     atom   33 type  2   force =     0.00003510   -0.00035270   -0.00009244
     atom   34 type  2   force =     0.00024567    0.00012517   -0.00024012
     atom   35 type  2   force =    -0.00049970    0.00034568    0.00018720
     atom   36 type  2   force =     0.00130450    0.00030705   -0.00025102
     atom   37 type  1   force =     0.00001166   -0.00020217   -0.00044585
     atom   38 type  1   force =     0.00029421   -0.00007526   -0.00018015
     atom   39 type  2   force =     0.00002844    0.00008535    0.00013418
     atom   40 type  2   force =     0.00039590    0.00010819   -0.00037574
     atom   41 type  2   force =    -0.00099747   -0.00000775   -0.00011291
     atom   42 type  2   force =     0.00037873    0.00033945   -0.00013861
     atom   43 type  1   force =     0.00118820    0.00043963    0.00018945
     atom   44 type  1   force =    -0.00045772    0.00040666   -0.00022228
     atom   45 type  2   force =     0.00019968   -0.00000110    0.09855625
     atom   46 type  2   force =    -0.08049165   -0.00109600   -0.03415551
     atom   47 type  2   force =     0.08058067   -0.00055710   -0.03423639
     atom   48 type  3   force =     0.00002836    0.00024258   -0.00016782
     atom   49 type  4   force =    -0.00025281   -0.00018177    0.00003818
     atom   50 type  4   force =     0.00019297    0.00021719   -0.00013531
     atom   51 type  2   force =     0.00543373    0.00336775    0.00261533
     atom   52 type  4   force =    -0.00441273   -0.00359482   -0.00381521

     Total force =     0.383840     Total SCF correction =     0.000442
  @ DRIVER MODE: Message from server: STATUS
  @ DRIVER MODE: Message from server: GETFORCE
  @ DRIVER MODE: Returning v,forces,stress,ensemble

     Writing output data file ./calc.save/
  @ DRIVER MODE: Message from server: EXIT
  @ DRIVE MODE: Exiting

     General routines

     Parallel routines

   This run was terminated on:  23:37:11  22Sep2021

   JOB DONE.