     Program PWSCF v.6.7GPU starts on 18Oct2021 at 23:17:34

     R & G space division:  proc/nbgrp/npool/nimage =       8
     Reading input from /storage/home/hcoda1/3/ntian30/research/carbon/CxH_vib/Thiel_calc/ads_slab/NH2HNH_perslab/out_0025/pw.inp
Warning: card &CELL ignored
Warning: card   CELL_DYNAMICS='IPI', ignored
Warning: card / ignored

     Current dimensions of program PWSCF are:
     Max number of different atomic species (ntypx) = 10
     Max number of k-points (npk) =  40000
     Max angular momentum in pseudopotentials (lmaxx) =  3
     Presently no symmetry can be used with electric field

     Message from routine cell_base_init:
     DEPRECATED: use true lattice parameter, not A to a.u. conversion factor

     IMPORTANT: XC functional enforced from input :
     Exchange-correlation= BEEF-VDW
                           (   1   4  43  14   2   0   0)
     Any further DFT definition will be discarded
     Please, verify this is what you really want

  @ DRIVER MODE: Connecting to
 qe_1139763_3255135.sched-torque.pace.gatech.eduabxt_76e_scratch
  using UNIX socket
  @ DRIVER MODE: Message from server: STATUS
  @ DRIVER MODE: Message from server: INIT
  @ DRIVER MODE: Receiving replica           0          -1
  @ DRIVER MODE: Receiving encoded integer          25
  @ DRIVER MODE:  SCF:  T  FORCE:  T  STRESS:  F  VC:  F  ENSEMBLE:  F
  @ DRIVER MODE:  SCF:  T  FORCE:  T  STRESS:  F  VC:  F  ENSEMBLE:  F

     Using Slab Decomposition

     bravais-lattice index     =            0
     lattice parameter (alat)  =       1.8897  a.u.
     unit-cell volume          =    9988.4706 (a.u.)^3
     number of atoms/cell      =           59
     number of atomic types    =            4
     number of electrons       =       440.00
     number of Kohn-Sham states=          230
     kinetic-energy cutoff     =      29.3995  Ry
     charge density cutoff     =     293.9946  Ry
     scf convergence threshold =      7.3E-08
     mixing beta               =       0.0500
     number of iterations used =            8  plain     mixing
     Exchange-correlation= BEEF-VDW
                           (   1   4  43  14   2   0   0)

     celldm(1)=   1.889726  celldm(2)=   0.000000  celldm(3)=   0.000000
     celldm(4)=   0.000000  celldm(5)=   0.000000  celldm(6)=   0.000000

     crystal axes: (cart. coord. in units of alat)
               a(1) = (   6.579727   0.000000   0.000000 )
               a(2) = (  -0.001163   8.942395   0.000000 )
               a(3) = (   0.000000   0.000000  25.155947 )

     reciprocal axes: (cart. coord. in units 2 pi/alat)
               b(1) = (  0.151982  0.000020  0.000000 )
               b(2) = (  0.000000  0.111827  0.000000 )
               b(3) = (  0.000000  0.000000  0.039752 )

     PseudoPot. # 1 for O  read from file:
     /storage/coda1/p-amedford6/0/shared/rich_project_chbe-medford/medford-share/data/pseudos_module/espresso/nninc/pbe/van/O.UPF
     MD5 check sum: 78c19812648e8988a0fe644b0f25305e
     Pseudo is Ultrasoft, Zval =  6.0
     Generated by new atomic code, or converted to UPF format
     Using radial grid of  737 points,  4 beta functions with:
                l(1) =   0
                l(2) =   0
                l(3) =   1
                l(4) =   1
     Q(r) pseudized with  8 coefficients,  rinner =    0.800   0.800   0.800

     PseudoPot. # 2 for Ti read from file:
     /storage/coda1/p-amedford6/0/shared/rich_project_chbe-medford/medford-share/data/pseudos_module/espresso/nninc/pbe/van/Ti.UPF
     MD5 check sum: 8e4df49b7f0d34bbd5052bf3f5ea0213
     Pseudo is Ultrasoft, Zval = 12.0
     Generated by new atomic code, or converted to UPF format
     Using radial grid of  851 points,  6 beta functions with:
                l(1) =   0
                l(2) =   0
                l(3) =   1
                l(4) =   1
                l(5) =   2
                l(6) =   2
     Q(r) pseudized with  8 coefficients,  rinner =    1.000   1.000   1.000
                                                       1.000   1.000

     PseudoPot. # 3 for H  read from file:
     /storage/coda1/p-amedford6/0/shared/rich_project_chbe-medford/medford-share/data/pseudos_module/espresso/nninc/pbe/van/H.UPF
     MD5 check sum: b5ee9d7bfd3a09ee7748110bda690ff7
     Pseudo is Ultrasoft, Zval =  1.0
     Generated by new atomic code, or converted to UPF format
     Using radial grid of  615 points,  1 beta functions with:
                l(1) =   0
     Q(r) pseudized with  8 coefficients,  rinner =    0.800

     PseudoPot. # 4 for N  read from file:
     /storage/coda1/p-amedford6/0/shared/rich_project_chbe-medford/medford-share/data/pseudos_module/espresso/nninc/pbe/van/N.UPF
     MD5 check sum: 90d10febe142ad51ac9d5be1deb811c4
     Pseudo is Ultrasoft, Zval =  5.0
     Generated by new atomic code, or converted to UPF format
     Using radial grid of  729 points,  4 beta functions with:
                l(1) =   0
                l(2) =   0
                l(3) =   1
                l(4) =   1
     Q(r) pseudized with  8 coefficients,  rinner =    0.800   0.800   0.800

     atomic species   valence    mass     pseudopotential
        O1             6.00    15.99900     O ( 1.00)
        Ti1           12.00    47.86700     Ti( 1.00)
        H1             1.00     1.00800     H ( 1.00)
        N1             5.00    14.00700     N ( 1.00)

     No symmetry found

   Cartesian axes

     site n.     atom                  positions (alat units)
         1           O1  tau(   1) = (   0.0007354   0.0005023  10.5931620  )
         2           O1  tau(   2) = (   3.2891522   8.9193323  13.7813865  )
         3           O1  tau(   3) = (  -0.0003195   8.9357148  17.1597790  )
         4           O1  tau(   4) = (   0.0006271   0.0005054   7.9858123  )
         5           O1  tau(   5) = (   3.2896276   8.9330874  11.1456747  )
         6           O1  tau(   6) = (   0.0000757   8.8957392  14.5326415  )
         7           O1  tau(   7) = (   1.9868534   1.4903216   9.2879459  )
         8           O1  tau(   8) = (   5.2085136   1.5567490  12.5272226  )
         9           O1  tau(   9) = (   2.0368910   1.4086519  15.9478609  )
        10           Ti1 tau(  10) = (   0.0007404   1.4906270   9.2895810  )
        11           Ti1 tau(  11) = (   3.2920048   1.2896434  12.4335303  )
        12           Ti1 tau(  12) = (   0.0003947   1.7483972  15.9485354  )
        13           O1  tau(  13) = (   4.5942328   1.4918067   9.2879030  )
        14           O1  tau(  14) = (   1.3734151   1.5562871  12.5269411  )
        15           O1  tau(  15) = (   4.5446063   1.4075665  15.9467422  )
        16           Ti1 tau(  16) = (   3.2902859   2.9801868   9.2893338  )
        17           Ti1 tau(  17) = (   0.0022843   2.7629733  12.5422407  )
        18           Ti1 tau(  18) = (   3.2887740   3.1097933  15.6402895  )
        19           O1  tau(  19) = (   0.0003479   2.9813005  10.5931620  )
        20           O1  tau(  20) = (   3.2903674   2.9527630  13.7969158  )
        21           O1  tau(  21) = (   0.0002396   2.9813036   7.9858123  )
        22           O1  tau(  22) = (   3.2906228   2.9775883  11.1663003  )
        23           O1  tau(  23) = (   0.0006598   2.9368866  14.5305733  )
        24           O1  tau(  24) = (   1.9864658   4.4711199   9.2879459  )
        25           O1  tau(  25) = (   5.2231876   4.5386380  12.5467233  )
        26           O1  tau(  26) = (   2.0248981   4.3679406  15.9930346  )
        27           Ti1 tau(  27) = (   0.0003529   4.4714252   9.2895810  )
        28           Ti1 tau(  28) = (   3.2918124   4.3135021  12.5344809  )
        29           Ti1 tau(  29) = (   6.5788423   4.6929592  16.0739603  )
        30           O1  tau(  30) = (   4.5938453   4.4726049   9.2879030  )
        31           O1  tau(  31) = (   1.3570704   4.5373869  12.5465102  )
        32           O1  tau(  32) = (   4.5538814   4.3671241  15.9936543  )
        33           Ti1 tau(  33) = (   3.2898983   5.9609850   9.2893338  )
        34           Ti1 tau(  34) = (   0.0013264   5.7428985  12.5110789  )
        35           Ti1 tau(  35) = (   3.2898306   6.0937744  16.2866611  )
        36           O1  tau(  36) = (  -0.0000397   5.9620987  10.5931620  )
        37           O1  tau(  37) = (   3.2897329   5.8964334  13.7986068  )
        38           O1  tau(  38) = (  -0.0007474   6.0119579  17.1634496  )
        39           O1  tau(  39) = (  -0.0001480   5.9621018   7.9858123  )
        40           O1  tau(  40) = (   3.2898370   5.9388437  11.1687384  )
        41           O1  tau(  41) = (  -0.0001539   5.9931028  14.5676369  )
        42           O1  tau(  42) = (   1.9860782   7.4519181   9.2879459  )
        43           O1  tau(  43) = (   5.2258842   7.5046952  12.5406166  )
        44           O1  tau(  44) = (   2.0242945   7.4351242  16.0034066  )
        45           Ti1 tau(  45) = (  -0.0000347   7.4522234   9.2895810  )
        46           Ti1 tau(  46) = (   3.2896699   7.1866417  12.6007890  )
        47           Ti1 tau(  47) = (   0.0000787   7.5542351  15.7482610  )
        48           O1  tau(  48) = (   4.5934577   7.4534031   9.2879030  )
        49           O1  tau(  49) = (   1.3527639   7.5038087  12.5404143  )
        50           O1  tau(  50) = (   4.5545665   7.4356877  16.0029592  )
        51           Ti1 tau(  51) = (   3.2895107   8.9417832   9.2893338  )
        52           Ti1 tau(  52) = (  -0.0005703   8.7121504  12.4856418  )
        53           Ti1 tau(  53) = (   3.2909615   0.1005107  15.6284087  )
        54           H1  tau(  54) = (   6.5785809   3.1351568  18.2688824  )
        55           H1  tau(  55) = (   6.5783155   8.7923607  18.1116139  )
        56           N1  tau(  56) = (  -0.0001347   2.9716693  17.2674093  )
        57           N1  tau(  57) = (   3.2897564   5.9921341  18.1800631  )
        58           H1  tau(  58) = (   3.2787465   5.1266479  18.7045293  )
        59           H1  tau(  59) = (   3.2892443   6.7858760  18.8071070  )

     number of k points=    10  Fermi-Dirac smearing, width (Ry)=  0.0073
                       cart. coord. in units 2pi/alat
        k(    1) = (   0.0000000   0.0000000   0.0000000), wk =   0.1250000
        k(    2) = (   0.0000000   0.0279567   0.0000000), wk =   0.2500000
        k(    3) = (   0.0000000  -0.0559134   0.0000000), wk =   0.1250000
        k(    4) = (   0.0379955   0.0000049   0.0000000), wk =   0.2500000
        k(    5) = (   0.0379955   0.0279617   0.0000000), wk =   0.2500000
        k(    6) = (   0.0379955  -0.0559085   0.0000000), wk =   0.2500000
        k(    7) = (   0.0379955  -0.0279518   0.0000000), wk =   0.2500000
        k(    8) = (  -0.0759910  -0.0000099   0.0000000), wk =   0.1250000
        k(    9) = (  -0.0759910   0.0279468   0.0000000), wk =   0.2500000
        k(   10) = (  -0.0759910  -0.0559233   0.0000000), wk =   0.1250000

     Initial potential from superposition of free atoms

     starting charge  421.99910, renormalised to  440.00000

     negative rho (up, down):  3.702E-02 0.000E+00

     %%%%%%%%%%%%%%%%%%%%%%%%%%%%%%%%%%%%%%%%%%%%%%%%%%%%%%%%%%%%%%%%%%%%%%%%
     %                                                                      %
     % You are using vdW-DF, which was implemented by the Thonhauser group. %
     % Please cite the following two papers that made this development      %
     % possible and the two reviews that describe the various versions:     %
     %                                                                      %
     %   T. Thonhauser et al., PRL 115, 136402 (2015).                      %
     %   T. Thonhauser et al., PRB 76, 125112 (2007).                       %
     %   K. Berland et al., Rep. Prog. Phys. 78, 066501 (2015).             %
     %   D.C. Langreth et al., J. Phys.: Condens. Matter 21, 084203 (2009). %
     %                                                                      %
     %                                                                      %
     % If you are calculating the stress with vdW-DF, please also cite:     %
     %                                                                      %
     %   R. Sabatini et al., J. Phys.: Condens. Matter 24, 424209 (2012).   %
     %                                                                      %
     %%%%%%%%%%%%%%%%%%%%%%%%%%%%%%%%%%%%%%%%%%%%%%%%%%%%%%%%%%%%%%%%%%%%%%%%

     Adding external electric field

     Computed dipole along edir(3) :
        Dipole               -3.9424 Ry au,        -10.0206 Debye
        Dipole field         -0.0050 Ry au,

        Potential amp.        0.4598 Ry
        Total length         46.3494 bohr

     Starting wfcs are  332 atomic wfcs
  @ DRIVER MODE: Message from server: STATUS
  @ DRIVER MODE: Message from server: POSDATA
  @ DRIVER MODE: Reading and sharing cell
  @ DRIVER MODE: Reading and sharing positions
  @ DRIVER MODE: Received positions

     Self-consistent Calculation

     iteration #  1     ecut=    29.40 Ry     beta= 0.05
     Davidson diagonalization with overlap
     c_bands:  1 eigenvalues not converged
     c_bands:  2 eigenvalues not converged
     c_bands:  4 eigenvalues not converged
     c_bands:  2 eigenvalues not converged
     c_bands:  2 eigenvalues not converged
     c_bands:  2 eigenvalues not converged
     c_bands:  4 eigenvalues not converged
     c_bands:  3 eigenvalues not converged
     c_bands:  2 eigenvalues not converged
     ethr =  1.00E-05,  avg # of iterations = 19.2

[...]

     total energy              =   -3294.67559589 Ry
     estimated scf accuracy    <      19.62363289 Ry

     iteration #  2     ecut=    29.40 Ry     beta= 0.05
     Davidson diagonalization with overlap
     ethr =  4.46E-03,  avg # of iterations =  1.0

[...]

     iteration # 34     ecut=    29.40 Ry     beta= 0.05
     Davidson diagonalization with overlap
     c_bands:  1 eigenvalues not converged
     ethr =  3.00E-07,  avg # of iterations = 10.2

[...]

     total energy              =   -3293.29234304 Ry
     estimated scf accuracy    <       0.00000013 Ry

     iteration # 59     ecut=    29.40 Ry     beta= 0.05
     Davidson diagonalization with overlap
     ethr =  3.01E-11,  avg # of iterations =  5.0

     negative rho (up, down):  3.602E-02 0.000E+00

     Adding external electric field

     Computed dipole along edir(3) :
        Dipole                1.2937 Ry au,          3.2884 Debye
        Dipole field          0.0016 Ry au,

        Potential amp.       -0.1509 Ry
        Total length         46.3494 bohr

     End of self-consistent calculation

          k = 0.0000 0.0000 0.0000 ( 26871 PWs)   bands (ev):

   -58.2968 -58.2729 -58.2691 -58.2099 -58.1615 -57.7934 -57.7730 -57.7569
   -57.6218 -57.5918 -57.5713 -57.5129 -57.4884 -56.8988 -56.8774 -56.8516
   -56.8421 -56.8366 -34.6880 -34.6609 -34.6308 -34.6190 -34.6134 -34.6084
   -34.5456 -34.4823 -34.4720 -34.4096 -34.4053 -34.4025 -34.3888 -34.3585
   -34.3335 -34.1956 -34.1497 -34.1448 -34.1245 -34.0961 -34.0826 -34.0781
   -34.0574 -34.0205 -34.0085 -33.9628 -33.9188 -33.8741 -33.8594 -33.8503
   -33.8347 -33.8269 -33.7800 -33.7570 -33.7486 -33.7430 -33.6963 -33.6905
   -33.6775 -33.3603 -33.2221 -33.2119 -33.2021 -33.1878 -33.1809 -33.1741
   -33.1627 -33.1171 -33.0851 -33.0793 -33.0264 -33.0253 -33.0083 -32.8851
   -18.9127 -18.8267 -18.3715 -18.2960 -18.1744 -18.1193 -18.1130 -18.0476
   -17.9447 -17.7237 -17.6832 -17.6745 -17.6463 -17.5386 -17.5305 -17.5271
   -17.4930 -17.4861 -17.4738 -17.3857 -17.3269 -17.3145 -17.3087 -17.3085
   -17.1995 -17.1752 -17.1233 -17.0570 -17.0451 -16.9492 -16.7647 -16.4312
   -15.3534 -15.3127 -15.3030 -15.1570 -13.6006  -6.9786  -6.6268  -6.1789
    -5.9852  -5.7752  -5.6369  -5.5221  -5.4691  -5.3767  -5.3106  -5.2857
    -5.2683  -5.2283  -5.1944  -5.1677  -5.0648  -5.0549  -4.9738  -4.9194
    -4.8738  -4.8277  -4.7854  -4.7389  -4.7366  -4.6973  -4.6282  -4.6177
    -4.5829  -4.5356  -4.5066  -4.4984  -4.4431  -4.4145  -4.3936  -4.2737
    -4.2593  -4.1917  -4.1803  -4.1729  -4.0679  -4.0610  -4.0176  -3.9868
    -3.9808  -3.9613  -3.9108  -3.8311  -3.8028  -3.6438  -3.6210  -3.6117
    -3.5196  -3.3809  -3.3673  -3.3230  -3.2035  -3.1364  -3.1123  -3.0769
    -3.0569  -3.0395  -3.0164  -3.0048  -2.9713  -2.8769  -2.8759  -2.8147
    -2.8125  -2.7976  -2.7756  -2.7703  -2.7309  -2.6583  -2.5991  -2.5864
    -2.5653  -2.5476  -2.4611  -2.4468  -2.3560  -2.3406  -2.2846  -2.2422
    -2.2363  -2.1706  -2.0958  -2.0881  -2.0240  -1.9997  -1.8258  -1.8008
    -1.7232  -1.7177  -1.6511  -1.6243  -1.6015  -1.5492  -1.4245  -1.3935
    -1.2978  -1.1862  -1.0220  -0.7822  -0.5919  -0.5702  -0.5610  -0.5289
    -0.4352  -0.3823  -0.3663  -0.2712   0.9813   1.1273   1.2803   1.3020
     1.4957   1.6052   1.6179   1.6730   1.7519   1.8500

[...]

          k = 0.0380-0.0280 0.0000 ( 26873 PWs)   bands (ev):

[...]

          k =-0.0760-0.0000 0.0000 ( 26902 PWs)   bands (ev):

[...]

          k =-0.0760-0.0559 0.0000 ( 26868 PWs)   bands (ev):

   -58.2902 -58.2861 -58.2625 -58.2097 -58.1616 -57.7934 -57.7725 -57.7574
   -57.6202 -57.5951 -57.5694 -57.5127 -57.4885 -56.8988 -56.8746 -56.8574
   -56.8420 -56.8336 -34.7134 -34.7095 -34.6631 -34.6386 -34.6057 -34.4976
   -34.4828 -34.4486 -34.4454 -34.4329 -34.4264 -34.4067 -34.3846 -34.3810
   -34.3605 -34.2309 -34.1723 -34.1672 -34.1390 -34.1215 -34.0784 -34.0022
   -33.9984 -33.9983 -33.9643 -33.9273 -33.9204 -33.9063 -33.8983 -33.8747
   -33.8653 -33.8498 -33.7749 -33.7664 -33.7390 -33.7132 -33.7124 -33.6943
   -33.6886 -33.3359 -33.2637 -33.2231 -33.2181 -33.2078 -33.1847 -33.1762
   -33.1240 -33.0802 -33.0721 -33.0532 -33.0303 -32.9961 -32.9896 -32.9726
   -18.8911 -18.6217 -18.4742 -18.2382 -18.1380 -17.9743 -17.8914 -17.8786
   -17.8608 -17.8598 -17.7607 -17.7497 -17.6987 -17.6738 -17.6309 -17.6213
   -17.6090 -17.5720 -17.5658 -17.4524 -17.3617 -17.3527 -17.2574 -17.2424
   -17.2153 -17.1537 -17.1354 -17.0460 -17.0267 -16.9539 -16.7726 -16.4160
   -15.3645 -15.3527 -15.2423 -15.1577 -13.5975  -6.9507  -6.6279  -5.9496
    -5.7548  -5.7204  -5.6698  -5.3494  -5.3119  -5.2275  -5.2019  -5.1629
    -5.1375  -5.1235  -5.0934  -5.0821  -5.0069  -4.9700  -4.9610  -4.9572
    -4.9141  -4.8952  -4.8468  -4.8255  -4.7758  -4.7550  -4.7469  -4.7127
    -4.6686  -4.6501  -4.5756  -4.5702  -4.4970  -4.4575  -4.3186  -4.2348
    -4.2095  -4.1800  -4.0834  -4.0697  -4.0368  -3.9410  -3.9252  -3.9046
    -3.7768  -3.7420  -3.6327  -3.6167  -3.5676  -3.5445  -3.5169  -3.4893
    -3.4248  -3.3827  -3.3667  -3.3616  -3.3276  -3.2591  -3.2290  -3.2123
    -3.1806  -3.1627  -3.1524  -3.1416  -3.0754  -3.0587  -3.0289  -2.9895
    -2.9281  -2.9040  -2.8486  -2.8477  -2.7865  -2.7470  -2.6927  -2.6866
    -2.6145  -2.5924  -2.5861  -2.5784  -2.4775  -2.4518  -2.4439  -2.3026
    -2.1640  -2.1127  -2.0697  -1.9664  -1.9084  -1.9048  -1.8809  -1.8128
    -1.7880  -1.7047  -1.6502  -1.6266  -1.6193  -1.5937  -1.3749  -1.3449
    -1.3332  -1.2901  -1.2260  -1.1316  -0.8124  -0.5927  -0.5794  -0.4995
    -0.4765  -0.4235  -0.4021  -0.3877   1.0305   1.2053   1.2769   1.3701
     1.3709   1.4035   1.4532   1.6192   1.6528   1.7062

     the Fermi energy is     0.3881 ev

!    total energy              =   -3293.29238529 Ry
     estimated scf accuracy    <       0.00000007 Ry
     smearing contrib. (-TS)   =      -0.00047729 Ry
     internal energy E=F+TS    =   -3293.29190800 Ry

     The total energy is F=E-TS. E is the sum of the following terms:
     one-electron contribution =  -34638.95710289 Ry
     hartree contribution      =   17383.76801292 Ry
     xc contribution           =    -542.08692084 Ry
     ewald contribution        =   14503.98199704 Ry
     electric field correction =       0.00210577 Ry

     convergence has been achieved in  59 iterations

     Forces acting on atoms (cartesian axes, Ry/au):

     atom    1 type  1   force =     0.00000896    0.00244942    0.04674278
     atom    2 type  1   force =     0.00001210   -0.00341786   -0.00287357
     atom    3 type  1   force =    -0.00002653    0.00325171   -0.00097221
     atom    4 type  1   force =     0.00005085   -0.00098170    0.10171683
     atom    5 type  1   force =    -0.00000991   -0.00071102    0.00562798
     atom    6 type  1   force =    -0.00002079    0.00365874    0.00082694
     atom    7 type  1   force =     0.07820234    0.00085979   -0.03540526
     atom    8 type  1   force =     0.00834427   -0.02587721    0.00018363
     atom    9 type  1   force =     0.00850263    0.02068160    0.00127063
     atom   10 type  2   force =    -0.00006194    0.00867567   -0.15837369
     atom   11 type  2   force =    -0.00003750    0.02308365   -0.00230678
     atom   12 type  2   force =     0.00004757   -0.02562507   -0.00427834
     atom   13 type  1   force =    -0.07829545    0.00040367   -0.03539368
     atom   14 type  1   force =    -0.00839051   -0.02579041    0.00019107
     atom   15 type  1   force =    -0.00844416    0.02079772    0.00130512
     atom   16 type  2   force =     0.00012956    0.00086292    0.07316085
     atom   17 type  2   force =     0.00005943    0.03072348    0.00239807
     atom   18 type  2   force =     0.00005897   -0.02689582    0.00068175
     atom   19 type  1   force =     0.00004017    0.00299477    0.05011999
     atom   20 type  1   force =    -0.00002697   -0.00126299   -0.00143288
     atom   21 type  1   force =     0.00005176   -0.00064771    0.10019583
     atom   22 type  1   force =    -0.00001601   -0.00179941    0.00545498
     atom   23 type  1   force =    -0.00001450    0.00236225    0.00381928
     atom   24 type  1   force =     0.07915105    0.00064606   -0.03605880
     atom   25 type  1   force =     0.00925281   -0.02947751    0.00062702
     atom   26 type  1   force =     0.00849955    0.02165976    0.00330142
     atom   27 type  2   force =    -0.00006877   -0.00813906   -0.15492389
     atom   28 type  2   force =    -0.00000636    0.02630392   -0.00222579
     atom   29 type  2   force =    -0.00004141   -0.02439227   -0.00335305
     atom   30 type  1   force =    -0.07924095    0.00023669   -0.03605540
     atom   31 type  1   force =    -0.00926000   -0.02940908    0.00063456
     atom   32 type  1   force =    -0.00844832    0.02154609    0.00316712
     atom   33 type  2   force =     0.00013377   -0.00255421    0.07885522
     atom   34 type  2   force =     0.00004863    0.03585694    0.00273654
     atom   35 type  2   force =     0.00007145   -0.02922502    0.00298389
     atom   36 type  1   force =     0.00004158    0.00306951    0.05240694
     atom   37 type  1   force =    -0.00001258   -0.00185883   -0.00286757
     atom   38 type  1   force =     0.00000805    0.00199104    0.00079333
     atom   39 type  1   force =     0.00004674    0.00287287    0.10111786
     atom   40 type  1   force =    -0.00000879   -0.00169610    0.00620003
     atom   41 type  1   force =    -0.00003582    0.00300594    0.00389636
     atom   42 type  1   force =     0.07826246    0.00076604   -0.03487825
     atom   43 type  1   force =     0.00661871   -0.02303931   -0.00019814
     atom   44 type  1   force =     0.01105636    0.02222561   -0.00728231
     atom   45 type  2   force =    -0.00006193   -0.00550905   -0.16464722
     atom   46 type  2   force =    -0.00007955    0.01958045    0.00101244
     atom   47 type  2   force =     0.00015622   -0.01855764    0.00738718
     atom   48 type  1   force =    -0.07835898    0.00031713   -0.03486050
     atom   49 type  1   force =    -0.00666102   -0.02300492   -0.00019636
     atom   50 type  1   force =    -0.01123017    0.02199517   -0.00699955
     atom   51 type  2   force =     0.00012802   -0.00437117    0.06095368
     atom   52 type  2   force =     0.00012654    0.02964905    0.00358729
     atom   53 type  2   force =    -0.00015751   -0.02498068    0.00093948
     atom   54 type  3   force =    -0.00003527    0.00076798   -0.00013822
     atom   55 type  3   force =    -0.00001608   -0.00009685    0.00013565
     atom   56 type  4   force =     0.00000942    0.00701147    0.00059485
     atom   57 type  4   force =    -0.00007410   -0.00055700    0.00057999
     atom   58 type  3   force =    -0.00002313   -0.00003101   -0.00010870
     atom   59 type  3   force =     0.00004503   -0.00039819    0.00022356

     Total force =     0.437305     Total SCF correction =     0.000580
  @ DRIVER MODE: Message from server: STATUS
  @ DRIVER MODE: Message from server: GETFORCE
  @ DRIVER MODE: Returning v,forces,stress,ensemble

     Writing output data file ./calc.save/
  @ DRIVER MODE: Message from server: EXIT
  @ DRIVE MODE: Exiting

     General routines

     Parallel routines

   This run was terminated on:  23:46:23  18Oct2021

   JOB DONE.