     Program PWSCF v.6.7GPU starts on  9Sep2021 at  3: 5: 3

     R & G space division:  proc/nbgrp/npool/nimage =      10
     Reading input from /storage/home/hcoda1/3/ntian30/research/carbon/CxH_vib/CH2_calc/ads_slab/CH2NNHHH_a/out_0016/pw.inp
Warning: card &CELL ignored
Warning: card   CELL_DYNAMICS='IPI', ignored
Warning: card / ignored

     Current dimensions of program PWSCF are:
     Max number of different atomic species (ntypx) = 10
     Max number of k-points (npk) =  40000
     Max angular momentum in pseudopotentials (lmaxx) =  3
     Presently no symmetry can be used with electric field

     Message from routine cell_base_init:
     DEPRECATED: use true lattice parameter, not A to a.u. conversion factor

     IMPORTANT: XC functional enforced from input :
     Exchange-correlation= BEEF-VDW
                           (   1   4  43  14   2   0   0)
     Any further DFT definition will be discarded
     Please, verify this is what you really want

  @ DRIVER MODE: Connecting to
 qe_1139763_2767390.sched-torque.pace.gatech.edu83fxmq6l_scratch
  using UNIX socket
  @ DRIVER MODE: Message from server: STATUS
  @ DRIVER MODE: Message from server: INIT
  @ DRIVER MODE: Receiving replica           0          -1
  @ DRIVER MODE: Receiving encoded integer          25
  @ DRIVER MODE:  SCF:  T  FORCE:  T  STRESS:  F  VC:  F  ENSEMBLE:  F
  @ DRIVER MODE:  SCF:  T  FORCE:  T  STRESS:  F  VC:  F  ENSEMBLE:  F

     Using Slab Decomposition

     bravais-lattice index     =            0
     lattice parameter (alat)  =       1.8897  a.u.
     unit-cell volume          =    6658.9804 (a.u.)^3
     number of atoms/cell      =           55
     number of atomic types    =            5
     number of electrons       =       397.00
     number of Kohn-Sham states=          208
     kinetic-energy cutoff     =      29.3995  Ry
     charge density cutoff     =     293.9946  Ry
     scf convergence threshold =      7.3E-08
     mixing beta               =       0.0500
     number of iterations used =            8  plain     mixing
     Exchange-correlation= BEEF-VDW
                           (   1   4  43  14   2   0   0)

     celldm(1)=   1.889726  celldm(2)=   0.000000  celldm(3)=   0.000000
     celldm(4)=   0.000000  celldm(5)=   0.000000  celldm(6)=   0.000000

     crystal axes: (cart. coord. in units of alat)
               a(1) = (   6.579727   0.000000   0.000000 )
               a(2) = (  -0.000775   5.961596   0.000000 )
               a(3) = (   0.000000   0.000000  25.155947 )

     reciprocal axes: (cart. coord. in units 2 pi/alat)
               b(1) = (  0.151982  0.000020  0.000000 )
               b(2) = (  0.000000  0.167740  0.000000 )
               b(3) = (  0.000000  0.000000  0.039752 )

     PseudoPot. # 1 for Ti read from file:
     /storage/coda1/p-amedford6/0/shared/rich_project_chbe-medford/medford-share/data/pseudos_module/espresso/nninc/pbe/van/Ti.UPF
     MD5 check sum: 8e4df49b7f0d34bbd5052bf3f5ea0213
     Pseudo is Ultrasoft, Zval = 12.0
     Generated by new atomic code, or converted to UPF format
     Using radial grid of  851 points,  6 beta functions with:
                l(1) =   0
                l(2) =   0
                l(3) =   1
                l(4) =   1
                l(5) =   2
                l(6) =   2
     Q(r) pseudized with  8 coefficients,  rinner =    1.000   1.000   1.000
                                                       1.000   1.000

     PseudoPot. # 2 for O  read from file:
     /storage/coda1/p-amedford6/0/shared/rich_project_chbe-medford/medford-share/data/pseudos_module/espresso/nninc/pbe/van/O.UPF
     MD5 check sum: 78c19812648e8988a0fe644b0f25305e
     Pseudo is Ultrasoft, Zval =  6.0
     Generated by new atomic code, or converted to UPF format
     Using radial grid of  737 points,  4 beta functions with:
                l(1) =   0
                l(2) =   0
                l(3) =   1
                l(4) =   1
     Q(r) pseudized with  8 coefficients,  rinner =    0.800   0.800   0.800

     PseudoPot. # 3 for N  read from file:
     /storage/coda1/p-amedford6/0/shared/rich_project_chbe-medford/medford-share/data/pseudos_module/espresso/nninc/pbe/van/N.UPF
     MD5 check sum: 90d10febe142ad51ac9d5be1deb811c4
     Pseudo is Ultrasoft, Zval =  5.0
     Generated by new atomic code, or converted to UPF format
     Using radial grid of  729 points,  4 beta functions with:
                l(1) =   0
                l(2) =   0
                l(3) =   1
                l(4) =   1
     Q(r) pseudized with  8 coefficients,  rinner =    0.800   0.800   0.800

     PseudoPot. # 4 for C  read from file:
     /storage/coda1/p-amedford6/0/shared/rich_project_chbe-medford/medford-share/data/pseudos_module/espresso/nninc/pbe/van/C.UPF
     MD5 check sum: 1a69bf6b8db32088f5b2163dbdb77a27
     Pseudo is Ultrasoft, Zval =  4.0
     Generated by new atomic code, or converted to UPF format
     Using radial grid of  721 points,  4 beta functions with:
                l(1) =   0
                l(2) =   0
                l(3) =   1
                l(4) =   1
     Q(r) pseudized with  8 coefficients,  rinner =    0.800   0.800   0.800

     PseudoPot. # 5 for H  read from file:
     /storage/coda1/p-amedford6/0/shared/rich_project_chbe-medford/medford-share/data/pseudos_module/espresso/nninc/pbe/van/H.UPF
     MD5 check sum: b5ee9d7bfd3a09ee7748110bda690ff7
     Pseudo is Ultrasoft, Zval =  1.0
     Generated by new atomic code, or converted to UPF format
     Using radial grid of  615 points,  1 beta functions with:
                l(1) =   0
     Q(r) pseudized with  8 coefficients,  rinner =    0.800

     atomic species   valence    mass     pseudopotential
        Ti1           12.00    47.86700     Ti( 1.00)
        O1             6.00    15.99900     O ( 1.00)
        N1             5.00    14.00700     N ( 1.00)
        C1             4.00    12.01100     C ( 1.00)
        H1             1.00     1.00800     H ( 1.00)

     No symmetry found

   Cartesian axes

     site n.     atom                  positions (alat units)
         1           Ti1 tau(   1) = (   0.0004258   2.9801865   6.0000000  )
         2           Ti1 tau(   2) = (   3.2906075   1.4906267   6.0002472  )
         3           O1  tau(   3) = (   0.0006271   0.0005054   7.9858123  )
         4           O1  tau(   4) = (   3.2906025   0.0005020   7.3038282  )
         5           O1  tau(   5) = (   4.5942328   1.4918067   9.2879030  )
         6           O1  tau(   6) = (   1.9868534   1.4903216   9.2879459  )
         7           Ti1 tau(   7) = (   3.2907910   2.8959150   9.1758416  )
         8           Ti1 tau(   8) = (   0.0015273   1.4827037   9.2680791  )
         9           O1  tau(   9) = (   3.2797308   5.9473376  11.3602069  )
        10           O1  tau(  10) = (   0.0116148   5.9584955  10.6183126  )
        11           O1  tau(  11) = (   1.2902197   1.4970218  12.6485984  )
        12           O1  tau(  12) = (   5.2825647   1.4998509  12.6204812  )
        13           Ti1 tau(  13) = (   6.5707130   2.9731531  12.5352273  )
        14           Ti1 tau(  14) = (   3.2824754   1.4851695  12.4964603  )
        15           O1  tau(  15) = (   6.5335774   0.0914421  14.6722524  )
        16           O1  tau(  16) = (   3.3157438   0.0180770  13.9903400  )
        17           O1  tau(  17) = (   4.5084513   1.5196572  16.2619966  )
        18           O1  tau(  18) = (   2.0062152   1.4815140  16.1839734  )
        19           Ti1 tau(  19) = (   3.2259906   2.9465836  15.7211513  )
        20           Ti1 tau(  20) = (   6.5090593   1.4075841  16.1508600  )
        21           O1  tau(  21) = (   3.2904802   0.0005063   4.7018136  )
        22           O1  tau(  22) = (   6.5630310   5.8123487  17.2302531  )
        23           O1  tau(  23) = (   1.3043587   1.4918075   6.0039043  )
        24           O1  tau(  24) = (   5.2767064   1.4903225   6.0039473  )
        25           Ti1 tau(  25) = (   0.0000382   5.9609847   6.0000000  )
        26           Ti1 tau(  26) = (   3.2902200   4.4714249   6.0002472  )
        27           O1  tau(  27) = (   0.0002396   2.9813036   7.9858123  )
        28           O1  tau(  28) = (   3.2902150   2.9813002   7.3038282  )
        29           O1  tau(  29) = (   4.5938453   4.4726049   9.2879030  )
        30           O1  tau(  30) = (   1.9864658   4.4711199   9.2879459  )
        31           Ti1 tau(  31) = (   3.2891106   5.8743827   9.1763621  )
        32           Ti1 tau(  32) = (   0.0006254   4.4649316   9.2693709  )
        33           O1  tau(  33) = (   3.2783824   2.9878764  11.3535400  )
        34           O1  tau(  34) = (   0.0092240   2.9805883  10.6323155  )
        35           O1  tau(  35) = (   1.2857266   4.4729298  12.7006550  )
        36           O1  tau(  36) = (   5.2845514   4.4687958  12.6640455  )
        37           Ti1 tau(  37) = (   6.5734551   0.0101047  12.5124135  )
        38           Ti1 tau(  38) = (   3.2852174   4.4611384  12.5175569  )
        39           O1  tau(  39) = (   6.5279837   2.9480221  14.9030702  )
        40           O1  tau(  40) = (   3.2956390   2.9588503  13.9390168  )
        41           O1  tau(  41) = (   4.4992944   4.4159585  16.2207858  )
        42           O1  tau(  42) = (   2.0104883   4.4624356  16.0673450  )
        43           Ti1 tau(  43) = (   3.2790961   0.0058003  15.7788240  )
        44           Ti1 tau(  44) = (   0.0606790   4.6093333  15.7554573  )
        45           O1  tau(  45) = (   3.2900926   2.9813045   4.7018136  )
        46           O1  tau(  46) = (   1.3039711   4.4726057   6.0039043  )
        47           O1  tau(  47) = (   5.2763189   4.4711207   6.0039473  )
        48           N1  tau(  48) = (   0.0403274   2.7191540  18.0026804  )
        49           C1  tau(  49) = (   0.9398849   2.4944932  18.9664025  )
        50           H1  tau(  50) = (   0.9073005   3.0283022  19.9142263  )
        51           H1  tau(  51) = (   1.7098349   1.7704235  18.7615287  )
        52           N1  tau(  52) = (   5.5765855   3.6054979  18.4816711  )
        53           H1  tau(  53) = (   5.9881759   4.5320851  18.7147717  )
        54           H1  tau(  54) = (   4.9344470   3.8465857  17.6610935  )
        55           H1  tau(  55) = (   5.0674124   3.1947177  19.2767304  )

     number of k points=    10  Fermi-Dirac smearing, width (Ry)=  0.0073
                       cart. coord. in units 2pi/alat
        k(    1) = (   0.0000000   0.0000000   0.0000000), wk =   0.1250000
        k(    2) = (   0.0000000   0.0419351   0.0000000), wk =   0.2500000
        k(    3) = (   0.0000000  -0.0838702   0.0000000), wk =   0.1250000
        k(    4) = (   0.0379955   0.0000049   0.0000000), wk =   0.2500000
        k(    5) = (   0.0379955   0.0419400   0.0000000), wk =   0.2500000
        k(    6) = (   0.0379955  -0.0838652   0.0000000), wk =   0.2500000
        k(    7) = (   0.0379955  -0.0419301   0.0000000), wk =   0.2500000
        k(    8) = (  -0.0759910  -0.0000099   0.0000000), wk =   0.1250000
        k(    9) = (  -0.0759910   0.0419252   0.0000000), wk =   0.2500000
        k(   10) = (  -0.0759910  -0.0838800   0.0000000), wk =   0.1250000

     Initial potential from superposition of free atoms

     starting charge  380.99914, renormalised to  397.00000

     negative rho (up, down):  1.589E-02 0.000E+00

     %%%%%%%%%%%%%%%%%%%%%%%%%%%%%%%%%%%%%%%%%%%%%%%%%%%%%%%%%%%%%%%%%%%%%%%%
     %                                                                      %
     % You are using vdW-DF, which was implemented by the Thonhauser group. %
     % Please cite the following two papers that made this development      %
     % possible and the two reviews that describe the various versions:     %
     %                                                                      %
     %   T. Thonhauser et al., PRL 115, 136402 (2015).                      %
     %   T. Thonhauser et al., PRB 76, 125112 (2007).                       %
     %   K. Berland et al., Rep. Prog. Phys. 78, 066501 (2015).             %
     %   D.C. Langreth et al., J. Phys.: Condens. Matter 21, 084203 (2009). %
     %                                                                      %
     %                                                                      %
     % If you are calculating the stress with vdW-DF, please also cite:     %
     %                                                                      %
     %   R. Sabatini et al., J. Phys.: Condens. Matter 24, 424209 (2012).   %
     %                                                                      %
     %%%%%%%%%%%%%%%%%%%%%%%%%%%%%%%%%%%%%%%%%%%%%%%%%%%%%%%%%%%%%%%%%%%%%%%%

     Adding external electric field

     Computed dipole along edir(3) :
        Dipole              -10.3122 Ry au,        -26.2111 Debye
        Dipole field         -0.0195 Ry au,

        Potential amp.        1.8040 Ry
        Total length         46.3494 bohr

     Starting wfcs are  301 atomic wfcs
  @ DRIVER MODE: Message from server: STATUS
  @ DRIVER MODE: Message from server: POSDATA
  @ DRIVER MODE: Reading and sharing cell
  @ DRIVER MODE: Reading and sharing positions
  @ DRIVER MODE: Received positions

     Self-consistent Calculation

     iteration #  1     ecut=    29.40 Ry     beta= 0.05
     Davidson diagonalization with overlap
     c_bands:  3 eigenvalues not converged
     c_bands:  2 eigenvalues not converged
     c_bands:  3 eigenvalues not converged
     c_bands:  2 eigenvalues not converged
     c_bands:  3 eigenvalues not converged
     c_bands:  2 eigenvalues not converged
     c_bands:  3 eigenvalues not converged
     c_bands:  2 eigenvalues not converged
     c_bands:  2 eigenvalues not converged
     c_bands:  3 eigenvalues not converged
     ethr =  1.00E-05,  avg # of iterations = 20.0

[...]

     total energy              =   -2480.07753944 Ry
     estimated scf accuracy    <    5159.14302867 Ry

     iteration #  2     ecut=    29.40 Ry     beta= 0.05
     Davidson diagonalization with overlap
     ethr =  1.00E-02,  avg # of iterations = 22.4

[...]

     iteration # 79     ecut=    29.40 Ry     beta= 0.05
     Davidson diagonalization with overlap
     c_bands:  1 eigenvalues not converged
     c_bands:  2 eigenvalues not converged
     ethr =  2.07E-11,  avg # of iterations = 16.0

[...]

     total energy              =   -2941.49086931 Ry
     estimated scf accuracy    <       0.00000010 Ry

     iteration # 80     ecut=    29.40 Ry     beta= 0.05
     Davidson diagonalization with overlap
     ethr =  2.07E-11,  avg # of iterations =  6.6

     negative rho (up, down):  1.345E-02 0.000E+00

     Adding external electric field

     Computed dipole along edir(3) :
        Dipole                1.3611 Ry au,          3.4596 Debye
        Dipole field          0.0026 Ry au,

        Potential amp.       -0.2381 Ry
        Total length         46.3494 bohr

     End of self-consistent calculation

          k = 0.0000 0.0000 0.0000 ( 18029 PWs)   bands (ev):

   -55.2846 -55.2458 -55.2456 -55.2117 -55.1602 -55.1583 -55.1217 -55.0949
   -55.0778 -55.0764 -55.0602 -55.0431 -54.9573 -54.7910 -54.2638 -54.2297
   -31.8568 -31.7365 -31.6466 -31.6115 -31.5847 -31.5822 -31.5796 -31.5354
   -31.5326 -31.4925 -31.4909 -31.4902 -31.4576 -31.4550 -31.4410 -31.4194
   -31.4042 -31.3994 -31.3950 -31.3939 -31.3580 -31.3526 -31.3390 -31.3255
   -31.3027 -31.2974 -31.2911 -31.2871 -31.2746 -31.2716 -31.2617 -31.2516
   -31.2449 -31.2399 -31.2099 -31.2054 -31.1986 -31.1862 -31.1485 -31.1060
   -31.0619 -30.9326 -30.6725 -30.5799 -30.5577 -30.4891 -30.4024 -30.2913
   -19.2260 -16.1263 -15.8641 -15.7361 -15.5445 -15.4785 -15.3829 -15.2451
   -15.1937 -15.1325 -15.0832 -15.0431 -15.0298 -14.9642 -14.9071 -14.8186
   -14.8170 -14.8000 -14.7899 -14.7780 -14.7748 -14.7125 -14.7097 -14.6826
   -14.6680 -14.6578 -14.5171 -14.4331 -14.3716 -14.2771 -14.0259 -12.7665
   -12.6492  -9.1381  -7.7997  -7.0638  -5.9816  -3.8267  -3.4639  -3.2911
    -3.2445  -3.2041  -3.1793  -3.0108  -2.9291  -2.6617  -2.5937  -2.5541
    -2.5066  -2.4953  -2.4698  -2.2978  -2.2668  -2.2275  -2.1909  -2.1669
    -2.1273  -2.0994  -2.0834  -2.0542  -2.0411  -2.0389  -1.8563  -1.7857
    -1.7620  -1.7011  -1.6859  -1.6693  -1.6118  -1.5828  -1.5699  -1.5674
    -1.5445  -1.5274  -1.5042  -1.4620  -1.3758  -1.2833  -1.2390  -1.2168
    -1.1041  -1.0391  -0.9159  -0.8735  -0.8594  -0.8321  -0.7604  -0.6937
    -0.6663  -0.6304  -0.4903  -0.4855  -0.4012  -0.3912  -0.3185  -0.3016
    -0.2618  -0.2160  -0.1045  -0.0711  -0.0496   0.0024   0.0655   0.0875
     0.1693   0.2236   0.2803   0.2942   0.3737   0.4138   0.4513   0.4730
     0.5603   0.6018   0.6613   0.6676   0.7048   0.7080   0.7335   0.8198
     0.8331   0.8526   0.8935   1.0629   1.2636   1.3153   1.3360   1.6687
     1.6880   1.7588   1.9441   2.3335   2.3811   3.8165   3.8820   3.9526
     3.9670   3.9772   4.0488   4.0941   4.2840   4.3130   4.3160   4.3375

[...]

          k = 0.0380-0.0419 0.0000 ( 17876 PWs)   bands (ev):

[...]

          k =-0.0760-0.0000 0.0000 ( 17886 PWs)   bands (ev):

[...]

          k =-0.0760-0.0839 0.0000 ( 17948 PWs)   bands (ev):

   -55.2725 -55.2575 -55.2287 -55.2286 -55.1565 -55.1464 -55.1335 -55.0813
   -55.0785 -55.0757 -55.0605 -55.0595 -54.9557 -54.7925 -54.2467 -54.2467
   -31.6663 -31.6533 -31.5794 -31.5517 -31.5515 -31.5479 -31.5209 -31.5207
   -31.4932 -31.4848 -31.4802 -31.4765 -31.4220 -31.4131 -31.4130 -31.4096
   -31.4076 -31.4033 -31.3968 -31.3815 -31.3695 -31.3589 -31.3545 -31.3480
   -31.3480 -31.3457 -31.3445 -31.3287 -31.3119 -31.3090 -31.2926 -31.2900
   -31.2852 -31.2835 -31.2832 -31.2524 -31.2408 -31.2392 -31.1657 -31.0929
   -31.0628 -31.0102 -30.5704 -30.5704 -30.4851 -30.4850 -30.4457 -30.4457
   -19.2222 -15.5914 -15.5149 -15.4590 -15.3689 -15.2911 -15.2712 -15.2612
   -15.2279 -15.1611 -15.1378 -15.0727 -15.0378 -14.9921 -14.9892 -14.9740
   -14.8894 -14.8702 -14.8551 -14.8508 -14.7899 -14.7884 -14.7615 -14.7391
   -14.7324 -14.7287 -14.6289 -14.6279 -14.4634 -14.4319 -14.1980 -12.7508
   -12.7508  -9.1251  -7.8096  -7.0479  -5.9921  -3.8499  -2.8527  -2.7660
    -2.6763  -2.5201  -2.4828  -2.4728  -2.4177  -2.3270  -2.3009  -2.2877
    -2.2674  -2.2601  -2.1873  -2.1821  -2.1380  -2.1165  -2.1056  -2.0997
    -2.0658  -2.0527  -2.0387  -2.0022  -1.9938  -1.9776  -1.9432  -1.9237
    -1.8992  -1.8712  -1.8572  -1.8281  -1.7046  -1.6757  -1.6313  -1.5682
    -1.5442  -1.4775  -1.4722  -1.3681  -1.3579  -1.3468  -1.3059  -1.2919
    -1.2715  -1.1090  -1.0645  -1.0291  -1.0175  -1.0116  -0.8557  -0.8392
    -0.7711  -0.7555  -0.7406  -0.6641  -0.6227  -0.6058  -0.5265  -0.4868
    -0.4569  -0.4361  -0.2938  -0.2810  -0.2556  -0.2413  -0.2346  -0.1420
    -0.1217  -0.0857  -0.0515  -0.0135   0.0029   0.0621   0.2157   0.2419
     0.2788   0.4231   0.4383   0.5236   0.5710   0.6982   0.7629   0.7651
     0.8463   0.9164   1.0183   1.0307   1.0503   1.1360   1.1822   1.1871
     1.1883   2.1168   2.1176   2.2010   2.2013   3.6934   3.9559   4.0784
     4.0847   4.1270   4.2498   4.3334   4.3569   4.3947   4.3970   4.4710

     the Fermi energy is     3.8715 ev

!    total energy              =   -2941.49087869 Ry
     estimated scf accuracy    <       0.00000006 Ry
     smearing contrib. (-TS)   =      -0.04232910 Ry
     internal energy E=F+TS    =   -2941.44854960 Ry

     The total energy is F=E-TS. E is the sum of the following terms:
     one-electron contribution =  -23921.93943295 Ry
     hartree contribution      =   12054.13536952 Ry
     xc contribution           =    -486.85633878 Ry
     ewald contribution        =    9413.20835645 Ry
     electric field correction =       0.00349616 Ry

     convergence has been achieved in  80 iterations

     Forces acting on atoms (cartesian axes, Ry/au):

     atom    1 type  1   force =     0.00016829   -0.00016618    0.09403978
     atom    2 type  1   force =    -0.00005014   -0.00043349   -0.17754958
     atom    3 type  2   force =     0.00006545   -0.00004042   -0.02100399
     atom    4 type  2   force =     0.00001721   -0.00180353    0.05732608
     atom    5 type  2   force =    -0.01086428   -0.00090496    0.00782350
     atom    6 type  2   force =     0.01207660   -0.00033580    0.00621920
     atom    7 type  1   force =    -0.00065527    0.00289902   -0.01529181
     atom    8 type  1   force =     0.00059426    0.00232391    0.00236030
     atom    9 type  2   force =    -0.00010296    0.00013274    0.00092677
     atom   10 type  2   force =    -0.00165553   -0.00048953   -0.00379264
     atom   11 type  2   force =    -0.00005051   -0.00023955    0.00020093
     atom   12 type  2   force =    -0.00018925   -0.00039902    0.00026773
     atom   13 type  1   force =     0.00042533    0.00108700    0.00061903
     atom   14 type  1   force =     0.00020419   -0.00062281    0.00035727
     atom   15 type  2   force =    -0.00017734    0.00039792    0.00048378
     atom   16 type  2   force =    -0.00016614   -0.00024411   -0.00119545
     atom   17 type  2   force =     0.00011849   -0.00026881    0.00015977
     atom   18 type  2   force =    -0.00082712   -0.00033219    0.00011745
     atom   19 type  1   force =    -0.00053455    0.00111106   -0.00045735
     atom   20 type  1   force =    -0.00041511    0.00127986   -0.00111073
     atom   21 type  2   force =     0.00010903   -0.00003910    0.10377410
     atom   22 type  2   force =     0.00009444    0.00020317    0.00055983
     atom   23 type  2   force =    -0.07064505   -0.00017894   -0.02705621
     atom   24 type  2   force =     0.07058829    0.00029595   -0.02709484
     atom   25 type  1   force =     0.00014941   -0.00024678    0.09337170
     atom   26 type  1   force =    -0.00000898   -0.00037016   -0.17776503
     atom   27 type  2   force =     0.00010920   -0.00040484   -0.02001616
     atom   28 type  2   force =     0.00003463   -0.00146805    0.05680937
     atom   29 type  2   force =    -0.01076869   -0.00065954    0.00674007
     atom   30 type  2   force =     0.01188618   -0.00016590    0.00509644
     atom   31 type  1   force =    -0.00062928    0.00409961   -0.01559893
     atom   32 type  1   force =     0.00067441   -0.00277628    0.00213722
     atom   33 type  2   force =     0.00015630   -0.00021965   -0.00058291
     atom   34 type  2   force =    -0.00109224    0.00271606   -0.00202786
     atom   35 type  2   force =     0.00008961    0.00020244    0.00009049
     atom   36 type  2   force =    -0.00032955    0.00034215   -0.00007724
     atom   37 type  1   force =     0.00046719   -0.00008148    0.00031666
     atom   38 type  1   force =     0.00009238    0.00089822    0.00014755
     atom   39 type  2   force =    -0.00003571   -0.00096524    0.00038604
     atom   40 type  2   force =    -0.00023521   -0.00043538    0.00062443
     atom   41 type  2   force =    -0.00030177   -0.00006151   -0.00019724
     atom   42 type  2   force =     0.00013923    0.00000065    0.00024978
     atom   43 type  1   force =     0.00002040   -0.00148260    0.00090673
     atom   44 type  1   force =    -0.00007931   -0.00090542   -0.00135632
     atom   45 type  2   force =     0.00009648   -0.00008278    0.10375978
     atom   46 type  2   force =    -0.07065403   -0.00009590   -0.02706389
     atom   47 type  2   force =     0.07060676    0.00028644   -0.02710254
     atom   48 type  3   force =    -0.00083998   -0.00057652   -0.00028599
     atom   49 type  4   force =    -0.00074485    0.00311955    0.00616142
     atom   50 type  5   force =     0.00180903   -0.00358128   -0.00604323
     atom   51 type  5   force =    -0.00010303    0.00072912    0.00034227
     atom   52 type  3   force =    -0.00012866    0.00045318    0.00023859
     atom   53 type  5   force =     0.00034271   -0.00152291   -0.00067282
     atom   54 type  5   force =     0.00048510   -0.00022208    0.00104193
     atom   55 type  5   force =     0.00066398    0.00024467   -0.00031321

     Total force =     0.365851     Total SCF correction =     0.000661
  @ DRIVER MODE: Message from server: STATUS
  @ DRIVER MODE: Message from server: GETFORCE
  @ DRIVER MODE: Returning v,forces,stress,ensemble

     Writing output data file ./calc.save/
  @ DRIVER MODE: Message from server: EXIT
  @ DRIVE MODE: Exiting

     General routines

     Parallel routines

   This run was terminated on:   3:26:14   9Sep2021

   JOB DONE.