     Program PWSCF v.6.7GPU starts on 17Jul2021 at  0: 4:53

     R & G space division:  proc/nbgrp/npool/nimage =      16
     Reading input from /storage/home/hcoda1/3/ntian30/research/carbon/15Jul_vib/ads_slab/CH3NH2_a/out_0013/pw.inp
Warning: card &CELL ignored
Warning: card   CELL_DYNAMICS='IPI', ignored
Warning: card / ignored

     Current dimensions of program PWSCF are:
     Max number of different atomic species (ntypx) = 10
     Max number of k-points (npk) =  40000
     Max angular momentum in pseudopotentials (lmaxx) =  3
     Presently no symmetry can be used with electric field

     Message from routine cell_base_init:
     DEPRECATED: use true lattice parameter, not A to a.u. conversion factor

     IMPORTANT: XC functional enforced from input :
     Exchange-correlation= BEEF-VDW
                           (   1   4  43  14   2   0   0)
     Any further DFT definition will be discarded
     Please, verify this is what you really want

  @ DRIVER MODE: Connecting to
 qe_1139763_2351647.sched-torque.pace.gatech.edu6jf_r0ev_scratch
  using UNIX socket
  @ DRIVER MODE: Message from server: STATUS
  @ DRIVER MODE: Message from server: INIT
  @ DRIVER MODE: Receiving replica           0          -1
  @ DRIVER MODE: Receiving encoded integer          25
  @ DRIVER MODE:  SCF:  T  FORCE:  T  STRESS:  F  VC:  F  ENSEMBLE:  F
  @ DRIVER MODE:  SCF:  T  FORCE:  T  STRESS:  F  VC:  F  ENSEMBLE:  F

     Using Slab Decomposition

     bravais-lattice index     =            0
     lattice parameter (alat)  =       1.8897  a.u.
     unit-cell volume          =    6658.9804 (a.u.)^3
     number of atoms/cell      =           54
     number of atomic types    =            5
     number of electrons       =       392.00
     number of Kohn-Sham states=          206
     kinetic-energy cutoff     =      29.3995  Ry
     charge density cutoff     =     293.9946  Ry
     scf convergence threshold =      7.3E-08
     mixing beta               =       0.0500
     number of iterations used =            8  plain     mixing
     Exchange-correlation= BEEF-VDW
                           (   1   4  43  14   2   0   0)

     celldm(1)=   1.889726  celldm(2)=   0.000000  celldm(3)=   0.000000
     celldm(4)=   0.000000  celldm(5)=   0.000000  celldm(6)=   0.000000

     crystal axes: (cart. coord. in units of alat)
               a(1) = (   6.579727   0.000000   0.000000 )
               a(2) = (  -0.000775   5.961596   0.000000 )
               a(3) = (   0.000000   0.000000  25.155947 )

     reciprocal axes: (cart. coord. in units 2 pi/alat)
               b(1) = (  0.151982  0.000020  0.000000 )
               b(2) = (  0.000000  0.167740  0.000000 )
               b(3) = (  0.000000  0.000000  0.039752 )

     PseudoPot. # 1 for Ti read from file:
     /storage/coda1/p-amedford6/0/shared/rich_project_chbe-medford/medford-share/data/pseudos_module/espresso/nninc/pbe/van/Ti.UPF
     MD5 check sum: 8e4df49b7f0d34bbd5052bf3f5ea0213
     Pseudo is Ultrasoft, Zval = 12.0
     Generated by new atomic code, or converted to UPF format
     Using radial grid of  851 points,  6 beta functions with:
                l(1) =   0
                l(2) =   0
                l(3) =   1
                l(4) =   1
                l(5) =   2
                l(6) =   2
     Q(r) pseudized with  8 coefficients,  rinner =    1.000   1.000   1.000
                                                       1.000   1.000

     PseudoPot. # 2 for O  read from file:
     /storage/coda1/p-amedford6/0/shared/rich_project_chbe-medford/medford-share/data/pseudos_module/espresso/nninc/pbe/van/O.UPF
     MD5 check sum: 78c19812648e8988a0fe644b0f25305e
     Pseudo is Ultrasoft, Zval =  6.0
     Generated by new atomic code, or converted to UPF format
     Using radial grid of  737 points,  4 beta functions with:
                l(1) =   0
                l(2) =   0
                l(3) =   1
                l(4) =   1
     Q(r) pseudized with  8 coefficients,  rinner =    0.800   0.800   0.800

     PseudoPot. # 3 for H  read from file:
     /storage/coda1/p-amedford6/0/shared/rich_project_chbe-medford/medford-share/data/pseudos_module/espresso/nninc/pbe/van/H.UPF
     MD5 check sum: b5ee9d7bfd3a09ee7748110bda690ff7
     Pseudo is Ultrasoft, Zval =  1.0
     Generated by new atomic code, or converted to UPF format
     Using radial grid of  615 points,  1 beta functions with:
                l(1) =   0
     Q(r) pseudized with  8 coefficients,  rinner =    0.800

     PseudoPot. # 4 for N  read from file:
     /storage/coda1/p-amedford6/0/shared/rich_project_chbe-medford/medford-share/data/pseudos_module/espresso/nninc/pbe/van/N.UPF
     MD5 check sum: 90d10febe142ad51ac9d5be1deb811c4
     Pseudo is Ultrasoft, Zval =  5.0
     Generated by new atomic code, or converted to UPF format
     Using radial grid of  729 points,  4 beta functions with:
                l(1) =   0
                l(2) =   0
                l(3) =   1
                l(4) =   1
     Q(r) pseudized with  8 coefficients,  rinner =    0.800   0.800   0.800

     PseudoPot. # 5 for C  read from file:
     /storage/coda1/p-amedford6/0/shared/rich_project_chbe-medford/medford-share/data/pseudos_module/espresso/nninc/pbe/van/C.UPF
     MD5 check sum: 1a69bf6b8db32088f5b2163dbdb77a27
     Pseudo is Ultrasoft, Zval =  4.0
     Generated by new atomic code, or converted to UPF format
     Using radial grid of  721 points,  4 beta functions with:
                l(1) =   0
                l(2) =   0
                l(3) =   1
                l(4) =   1
     Q(r) pseudized with  8 coefficients,  rinner =    0.800   0.800   0.800

     atomic species   valence    mass     pseudopotential
        Ti1           12.00    47.86700     Ti( 1.00)
        O1             6.00    15.99900     O ( 1.00)
        H1             1.00     1.00800     H ( 1.00)
        N1             5.00    14.00700     N ( 1.00)
        C1             4.00    12.01100     C ( 1.00)

     Starting magnetic structure
     atomic species   magnetization
        Ti1          0.000
        O1           0.000
        H1           0.000
        N1           0.000
        C1           0.025

     No symmetry found

   Cartesian axes

     site n.     atom                  positions (alat units)
         1           Ti1 tau(   1) = (   0.0004258   2.9801865   6.0000000  )
         2           Ti1 tau(   2) = (   3.2906075   1.4906267   6.0002472  )
         3           O1  tau(   3) = (   0.0006271   0.0005054   7.9858123  )
         4           O1  tau(   4) = (   3.2906025   0.0005020   7.3038282  )
         5           O1  tau(   5) = (   4.5942328   1.4918067   9.2879030  )
         6           O1  tau(   6) = (   1.9868534   1.4903216   9.2879459  )
         7           Ti1 tau(   7) = (   3.2907910   2.8959150   9.1758416  )
         8           Ti1 tau(   8) = (   0.0015273   1.4827037   9.2680791  )
         9           O1  tau(   9) = (   3.2764298   0.0032354  11.3770789  )
        10           O1  tau(  10) = (   0.0116148   5.9584955  10.6183126  )
        11           O1  tau(  11) = (   1.2747638   1.4931710  12.6971893  )
        12           O1  tau(  12) = (   5.2817712   1.4903522  12.6806618  )
        13           Ti1 tau(  13) = (   6.5676529   2.9732189  12.5062122  )
        14           Ti1 tau(  14) = (   3.2766800   1.4809802  12.5336434  )
        15           O1  tau(  15) = (   6.5470194   5.8867849  14.7036171  )
        16           O1  tau(  16) = (   3.2776651   5.9556151  14.0032320  )
        17           O1  tau(  17) = (   4.5091997   1.5331545  16.1660716  )
        18           O1  tau(  18) = (   1.9944719   1.5276542  16.1393230  )
        19           Ti1 tau(  19) = (   3.2573122   3.0077756  15.7593658  )
        20           Ti1 tau(  20) = (   6.5589466   1.3143649  15.8680718  )
        21           O1  tau(  21) = (   3.2904802   0.0005063   4.7018136  )
        22           O1  tau(  22) = (   6.5386106   0.1512346  17.2501133  )
        23           O1  tau(  23) = (   1.3043587   1.4918075   6.0039043  )
        24           O1  tau(  24) = (   5.2767064   1.4903225   6.0039473  )
        25           Ti1 tau(  25) = (   0.0000382   5.9609847   6.0000000  )
        26           Ti1 tau(  26) = (   3.2902200   4.4714249   6.0002472  )
        27           O1  tau(  27) = (   0.0002396   2.9813036   7.9858123  )
        28           O1  tau(  28) = (   3.2902150   2.9813002   7.3038282  )
        29           O1  tau(  29) = (   4.5938453   4.4726049   9.2879030  )
        30           O1  tau(  30) = (   1.9864658   4.4711199   9.2879459  )
        31           Ti1 tau(  31) = (   3.2891106   5.8743827   9.1763621  )
        32           Ti1 tau(  32) = (   0.0006254   4.4649316   9.2693709  )
        33           O1  tau(  33) = (   3.2800745   2.9703478  11.3709363  )
        34           O1  tau(  34) = (   0.0092240   2.9805883  10.6323155  )
        35           O1  tau(  35) = (   1.2777299   4.4606407  12.6608526  )
        36           O1  tau(  36) = (   5.2778393   4.4632610  12.6460003  )
        37           Ti1 tau(  37) = (   6.5690533   5.9429793  12.5031582  )
        38           Ti1 tau(  38) = (   3.2786254   4.4589551  12.5214668  )
        39           O1  tau(  39) = (   6.5354733   3.0384833  14.9766919  )
        40           O1  tau(  40) = (   3.2791638   3.0036098  13.9700814  )
        41           O1  tau(  41) = (   4.4983502   4.4848413  16.2456934  )
        42           O1  tau(  42) = (   1.9866127   4.4820094  16.2221982  )
        43           Ti1 tau(  43) = (   3.2666378   0.0261420  15.7997788  )
        44           Ti1 tau(  44) = (   6.5668271   4.5279224  16.0664899  )
        45           O1  tau(  45) = (   3.2900926   2.9813045   4.7018136  )
        46           O1  tau(  46) = (   1.3039711   4.4726057   6.0039043  )
        47           O1  tau(  47) = (   5.2763189   4.4711207   6.0039473  )
        48           H1  tau(  48) = (   5.7254277   4.1132278  18.4743583  )
        49           H1  tau(  49) = (   5.8544422   2.5125186  18.2095680  )
        50           N1  tau(  50) = (   6.3603568   3.3906518  18.1617682  )
        51           C1  tau(  51) = (   0.9530889   3.3347298  19.0741625  )
        52           H1  tau(  52) = (   1.4659278   4.2935310  19.0402106  )
        53           H1  tau(  53) = (   0.6569204   3.1189037  20.1036144  )
        54           H1  tau(  54) = (   1.6325849   2.5561260  18.7331930  )

     number of k points=    10  Fermi-Dirac smearing, width (Ry)=  0.0073
                       cart. coord. in units 2pi/alat
        k(    1) = (   0.0000000   0.0000000   0.0000000), wk =   0.0625000
        k(    2) = (   0.0000000   0.0419351   0.0000000), wk =   0.1250000
        k(    3) = (   0.0000000  -0.0838702   0.0000000), wk =   0.0625000
        k(    4) = (   0.0379955   0.0000049   0.0000000), wk =   0.1250000
        k(    5) = (   0.0379955   0.0419400   0.0000000), wk =   0.1250000
        k(    6) = (   0.0379955  -0.0838652   0.0000000), wk =   0.1250000
        k(    7) = (   0.0379955  -0.0419301   0.0000000), wk =   0.1250000
[...]
        k(    9) = (  -0.0759910   0.0419252   0.0000000), wk =   0.1250000
        k(   10) = (  -0.0759910  -0.0838800   0.0000000), wk =   0.0625000

     Initial potential from superposition of free atoms

     starting charge  375.99915, renormalised to  392.00000

     negative rho (up, down):  8.111E-03 8.117E-03

     %%%%%%%%%%%%%%%%%%%%%%%%%%%%%%%%%%%%%%%%%%%%%%%%%%%%%%%%%%%%%%%%%%%%%%%%
     %                                                                      %
     % You are using vdW-DF, which was implemented by the Thonhauser group. %
     % Please cite the following two papers that made this development      %
     % possible and the two reviews that describe the various versions:     %
     %                                                                      %
     %   T. Thonhauser et al., PRL 115, 136402 (2015).                      %
     %   T. Thonhauser et al., PRB 76, 125112 (2007).                       %
     %   K. Berland et al., Rep. Prog. Phys. 78, 066501 (2015).             %
     %   D.C. Langreth et al., J. Phys.: Condens. Matter 21, 084203 (2009). %
     %                                                                      %
     %                                                                      %
     % If you are calculating the stress with vdW-DF, please also cite:     %
     %                                                                      %
     %   R. Sabatini et al., J. Phys.: Condens. Matter 24, 424209 (2012).   %
     %                                                                      %
     %%%%%%%%%%%%%%%%%%%%%%%%%%%%%%%%%%%%%%%%%%%%%%%%%%%%%%%%%%%%%%%%%%%%%%%%

     Adding external electric field

     Computed dipole along edir(3) :
        Dipole               -7.5680 Ry au,        -19.2360 Debye
        Dipole field         -0.0143 Ry au,

        Potential amp.        1.3239 Ry
        Total length         46.3494 bohr

[...]

     Starting wfcs are  297 atomic wfcs
  @ DRIVER MODE: Message from server: STATUS
  @ DRIVER MODE: Message from server: POSDATA
  @ DRIVER MODE: Reading and sharing cell
  @ DRIVER MODE: Reading and sharing positions
  @ DRIVER MODE: Received positions

     Self-consistent Calculation

     iteration #  1     ecut=    29.40 Ry     beta= 0.05
     Davidson diagonalization with overlap
     c_bands:  1 eigenvalues not converged
     c_bands:  2 eigenvalues not converged
     c_bands:  1 eigenvalues not converged
     c_bands:  1 eigenvalues not converged
     c_bands:  1 eigenvalues not converged
     c_bands:  1 eigenvalues not converged
     c_bands:  1 eigenvalues not converged
     c_bands:  2 eigenvalues not converged
     c_bands:  1 eigenvalues not converged
     c_bands:  1 eigenvalues not converged
     c_bands:  1 eigenvalues not converged
     c_bands:  1 eigenvalues not converged
     ethr =  1.00E-05,  avg # of iterations = 19.6

[...]

     total energy              =   -2678.28239980 Ry
     estimated scf accuracy    <    2693.20343258 Ry

     total magnetization       =     0.00 Bohr mag/cell
     absolute magnetization    =     0.01 Bohr mag/cell

[...]

     iteration #  3     ecut=    29.40 Ry     beta= 0.05
     Davidson diagonalization with overlap
     ethr =  1.00E-02,  avg # of iterations = 14.7

[...]

     iteration # 77     ecut=    29.40 Ry     beta= 0.05
     Davidson diagonalization with overlap
     c_bands:  1 eigenvalues not converged
     ethr =  2.80E-11,  avg # of iterations = 13.9

[...]

     total energy              =   -2921.63332266 Ry
     estimated scf accuracy    <       0.00000008 Ry

[...]

     iteration # 78     ecut=    29.40 Ry     beta= 0.05
     Davidson diagonalization with overlap
     ethr =  2.14E-11,  avg # of iterations =  7.6

     negative rho (up, down):  8.561E-03 8.558E-03

[...]

     Adding external electric field

     Computed dipole along edir(3) :
        Dipole                1.3081 Ry au,          3.3248 Debye
        Dipole field          0.0025 Ry au,

        Potential amp.       -0.2288 Ry
        Total length         46.3494 bohr

     Magnetic moment per site  (integrated on atomic sphere of radius R)
     atom   1 (R=0.738)  charge=  8.0466  magn= -0.0096
     atom   2 (R=0.738)  charge=  8.0283  magn= -0.0005
     atom   3 (R=0.738)  charge=  5.0153  magn=  0.0009
     atom   4 (R=0.738)  charge=  5.0522  magn=  0.0001
     atom   5 (R=0.738)  charge=  5.0214  magn=  0.0001
     atom   6 (R=0.738)  charge=  5.0219  magn=  0.0001
     atom   7 (R=0.738)  charge=  8.0284  magn= -0.0006
     atom   8 (R=0.738)  charge=  8.0296  magn= -0.0060
     atom   9 (R=0.738)  charge=  5.0288  magn= -0.0000
     atom  10 (R=0.738)  charge=  5.0292  magn=  0.0003
     atom  11 (R=0.738)  charge=  5.0169  magn= -0.0000
     atom  12 (R=0.738)  charge=  5.0160  magn= -0.0000
     atom  13 (R=0.738)  charge=  8.0365  magn= -0.0008
     atom  14 (R=0.738)  charge=  8.0338  magn= -0.0003
     atom  15 (R=0.738)  charge=  5.0278  magn=  0.0000
     atom  16 (R=0.738)  charge=  5.0249  magn=  0.0002
     atom  17 (R=0.738)  charge=  5.0031  magn=  0.0002
     atom  18 (R=0.738)  charge=  5.0057  magn=  0.0003
     atom  19 (R=0.738)  charge=  8.0663  magn= -0.0039
     atom  20 (R=0.738)  charge=  8.0804  magn= -0.0008
     atom  21 (R=0.738)  charge=  4.9002  magn=  0.0005
     atom  22 (R=0.738)  charge=  4.9790  magn=  0.0001
     atom  23 (R=0.738)  charge=  5.0125  magn=  0.0010
     atom  24 (R=0.738)  charge=  5.0127  magn=  0.0010
     atom  25 (R=0.738)  charge=  8.0467  magn= -0.0095
     atom  26 (R=0.738)  charge=  8.0283  magn= -0.0005
     atom  27 (R=0.738)  charge=  5.0151  magn=  0.0009
     atom  28 (R=0.738)  charge=  5.0525  magn=  0.0001
     atom  29 (R=0.738)  charge=  5.0223  magn=  0.0001
     atom  30 (R=0.738)  charge=  5.0226  magn=  0.0001
     atom  31 (R=0.738)  charge=  8.0286  magn= -0.0006
     atom  32 (R=0.738)  charge=  8.0297  magn= -0.0060
     atom  33 (R=0.738)  charge=  5.0280  magn= -0.0000
     atom  34 (R=0.738)  charge=  5.0267  magn=  0.0003
     atom  35 (R=0.738)  charge=  5.0201  magn= -0.0000
     atom  36 (R=0.738)  charge=  5.0197  magn= -0.0000
     atom  37 (R=0.738)  charge=  8.0323  magn= -0.0009
     atom  38 (R=0.738)  charge=  8.0346  magn= -0.0005
     atom  39 (R=0.738)  charge=  5.0089  magn=  0.0001
     atom  40 (R=0.738)  charge=  5.0372  magn=  0.0002
     atom  41 (R=0.738)  charge=  5.0005  magn=  0.0003
     atom  42 (R=0.738)  charge=  5.0042  magn=  0.0003
     atom  43 (R=0.738)  charge=  8.0647  magn= -0.0039
     atom  44 (R=0.738)  charge=  8.0444  magn= -0.0019
     atom  45 (R=0.738)  charge=  4.9002  magn=  0.0003
     atom  46 (R=0.738)  charge=  5.0125  magn=  0.0010
     atom  47 (R=0.738)  charge=  5.0127  magn=  0.0010
     atom  48 (R=0.417)  charge=  0.4498  magn= -0.0000
     atom  49 (R=0.417)  charge=  0.4487  magn= -0.0000
     atom  50 (R=0.417)  charge=  1.3202  magn=  0.0000
     atom  51 (R=0.449)  charge=  0.8447  magn=  0.0000
     atom  52 (R=0.417)  charge=  0.4387  magn= -0.0000
     atom  53 (R=0.417)  charge=  0.4407  magn= -0.0000
     atom  54 (R=0.417)  charge=  0.4387  magn= -0.0000

     End of self-consistent calculation

 ------ SPIN UP ------------

          k = 0.0000 0.0000 0.0000 ( 18029 PWs)   bands (ev):

   -55.4281 -55.3908 -55.3695 -55.3503 -55.3353 -55.3061 -55.3043 -55.2717
   -55.2476 -55.2274 -55.2131 -55.2046 -55.1709 -55.0991 -54.4079 -54.3738
   -31.9959 -31.8797 -31.8670 -31.7940 -31.7400 -31.7371 -31.7288 -31.7099
   -31.6645 -31.6570 -31.6373 -31.6341 -31.6133 -31.6113 -31.5964 -31.5876
   -31.5831 -31.5711 -31.5651 -31.5431 -31.5268 -31.5205 -31.4946 -31.4883
   -31.4830 -31.4782 -31.4714 -31.4500 -31.4361 -31.4261 -31.4248 -31.4086
   -31.4035 -31.4000 -31.3961 -31.3931 -31.3612 -31.3466 -31.3323 -31.3156
   -31.3048 -31.2882 -30.8173 -30.7226 -30.7006 -30.6334 -30.5466 -30.4359
   -16.2794 -16.1483 -15.9707 -15.8201 -15.7359 -15.6270 -15.5079 -15.4893
   -15.3574 -15.2795 -15.1540 -15.1282 -15.1001 -15.0826 -15.0721 -15.0587
   -14.9729 -14.9674 -14.9514 -14.9225 -14.9218 -14.8759 -14.8667 -14.8255
   -14.8029 -14.7924 -14.6768 -14.5876 -14.5149 -14.2726 -12.9112 -12.7937
   -10.2340  -6.3258  -4.7855  -3.9354  -3.5992  -3.4476  -3.3545  -3.3242
    -3.3188  -3.1828  -3.0318  -2.9003  -2.8457  -2.8337  -2.7119  -2.6385
    -2.6279  -2.6080  -2.4557  -2.4242  -2.3759  -2.3295  -2.2874  -2.2361
    -2.2184  -2.2087  -2.1930  -2.1693  -2.1589  -2.0512  -1.9944  -1.9087
    -1.8526  -1.8285  -1.7790  -1.7625  -1.7372  -1.7171  -1.7070  -1.6608
    -1.6355  -1.6212  -1.5683  -1.4549  -1.3500  -1.3005  -1.1817  -1.0652
    -1.0272  -1.0128  -0.9638  -0.9244  -0.9125  -0.8424  -0.8044  -0.7741
    -0.7159  -0.6579  -0.5888  -0.5413  -0.4745  -0.4588  -0.4153  -0.3525
    -0.2457  -0.2096  -0.1946  -0.1668  -0.0706  -0.0382   0.0114   0.0925
     0.0981   0.1111   0.2141   0.2290   0.3008   0.3497   0.3669   0.4536
     0.4877   0.5031   0.5067   0.5331   0.5571   0.6122   0.6460   0.6736
     0.7488   0.8723   1.0941   1.1644   1.1844   1.5098   1.5197   1.6144
     1.7977   2.1901   2.2388   3.6751   3.7399   3.8242   3.8264   3.8419
     3.9108   4.1454   4.1671   4.1801   4.1821   4.2031

[...]

          k =-0.0760-0.0000 0.0000 ( 17886 PWs)   bands (ev):

[...]

 ------ SPIN DOWN ----------

[...]

          k = 0.0380-0.0419 0.0000 ( 17876 PWs)   bands (ev):

[...]

          k =-0.0760-0.0839 0.0000 ( 17948 PWs)   bands (ev):

   -55.4145 -55.4045 -55.3696 -55.3690 -55.3522 -55.3071 -55.2905 -55.2888
   -55.2381 -55.2330 -55.2291 -55.1981 -55.1973 -55.1017 -54.3918 -54.3915
   -31.8039 -31.8000 -31.7967 -31.7113 -31.6893 -31.6889 -31.6878 -31.6618
   -31.6615 -31.6364 -31.6294 -31.6267 -31.6205 -31.5956 -31.5848 -31.5705
   -31.5659 -31.5616 -31.5612 -31.5560 -31.5524 -31.5498 -31.5113 -31.5076
   -31.5070 -31.5031 -31.4985 -31.4907 -31.4902 -31.4833 -31.4797 -31.4661
   -31.4623 -31.4462 -31.4423 -31.4288 -31.4261 -31.4258 -31.3790 -31.3785
   -31.3672 -31.3116 -30.7145 -30.7143 -30.6304 -30.6302 -30.5910 -30.5908
   -16.1168 -15.7634 -15.6757 -15.6280 -15.4642 -15.4313 -15.4107 -15.3934
   -15.2629 -15.2366 -15.2123 -15.1943 -15.1720 -15.1356 -15.1299 -15.1239
   -15.0487 -15.0328 -15.0280 -15.0099 -14.9468 -14.9373 -14.9342 -14.9270
   -14.8757 -14.8722 -14.8078 -14.7804 -14.7772 -14.5622 -12.8945 -12.8941
   -10.2377  -6.2983  -4.7818  -3.8974  -2.9561  -2.9357  -2.8831  -2.8793
    -2.6807  -2.6302  -2.5962  -2.5695  -2.4807  -2.4453  -2.4222  -2.4179
    -2.3465  -2.3304  -2.3117  -2.2703  -2.2632  -2.2489  -2.2263  -2.1909
    -2.1637  -2.1546  -2.1477  -2.1252  -2.0812  -2.0674  -2.0516  -2.0268
    -2.0225  -2.0125  -1.9839  -1.9366  -1.8099  -1.8006  -1.7262  -1.6356
    -1.6307  -1.5548  -1.5388  -1.4915  -1.4746  -1.4603  -1.4189  -1.2354
    -1.1976  -1.1749  -1.1649  -1.1005  -1.0388  -1.0211  -0.9482  -0.9322
    -0.9156  -0.8072  -0.7602  -0.7486  -0.6570  -0.6466  -0.5687  -0.5099
    -0.4548  -0.4338  -0.3924  -0.3830  -0.3797  -0.3348  -0.3276  -0.2422
    -0.1981  -0.1618  -0.1482  -0.1152   0.0862   0.0919   0.1143   0.2580
     0.2891   0.4144   0.4463   0.4989   0.5751   0.6087   0.6839   0.7187
     0.8509   0.8790   0.8800   0.9518   0.9610   1.0250   1.0346   1.9712
     1.9718   2.0590   2.0596   3.8219   3.9071   3.9325   3.9723   4.0853
     4.1604   4.1813   4.2036   4.2521   4.2553   4.3143

     the Fermi energy is     3.7339 ev

!    total energy              =   -2921.63333036 Ry
     estimated scf accuracy    <       0.00000006 Ry
     smearing contrib. (-TS)   =      -0.03704497 Ry
     internal energy E=F+TS    =   -2921.59628539 Ry

     The total energy is F=E-TS. E is the sum of the following terms:
     one-electron contribution =  -23999.82084968 Ry
     hartree contribution      =   12089.06148194 Ry
     xc contribution           =    -481.73887029 Ry
     ewald contribution        =    9470.89872360 Ry
     electric field correction =       0.00322904 Ry

     total magnetization       =    -0.06 Bohr mag/cell
     absolute magnetization    =     0.09 Bohr mag/cell

     convergence has been achieved in  78 iterations

     Forces acting on atoms (cartesian axes, Ry/au):

     atom    1 type  1   force =     0.00019726   -0.00022211    0.09323491
     atom    2 type  1   force =    -0.00003560   -0.00042102   -0.17833480
     atom    3 type  2   force =     0.00008181   -0.00040103   -0.02015443
     atom    4 type  2   force =     0.00001537   -0.00194821    0.05890747
     atom    5 type  2   force =    -0.01033359   -0.00094459    0.00824778
     atom    6 type  2   force =     0.01152240   -0.00017901    0.00658317
     atom    7 type  1   force =    -0.00063104    0.00207935   -0.01451707
     atom    8 type  1   force =     0.00068530   -0.00094604   -0.00515994
     atom    9 type  2   force =     0.00014061    0.00031945    0.00008239
     atom   10 type  2   force =    -0.00249263    0.00189255    0.00101201
     atom   11 type  2   force =    -0.00015972    0.00004009    0.00029527
     atom   12 type  2   force =     0.00002380    0.00030540    0.00018387
     atom   13 type  1   force =    -0.00003361    0.00006454    0.00004423
     atom   14 type  1   force =     0.00005976   -0.00003855    0.00012084
     atom   15 type  2   force =     0.00004989   -0.00018682   -0.00000616
     atom   16 type  2   force =     0.00033788    0.00000643   -0.00003294
     atom   17 type  2   force =     0.00003489   -0.00042718    0.00001034
     atom   18 type  2   force =     0.00000922    0.00002330    0.00002100
     atom   19 type  1   force =     0.00058403   -0.00000656    0.00049635
     atom   20 type  1   force =     0.00025980    0.00042351    0.00016661
     atom   21 type  2   force =     0.00014312   -0.00008852    0.10395995
     atom   22 type  2   force =     0.00012129    0.00057509    0.00067046
     atom   23 type  2   force =    -0.07031462   -0.00019184   -0.02692106
     atom   24 type  2   force =     0.07033070    0.00026859   -0.02695062
     atom   25 type  1   force =     0.00013648   -0.00019022    0.09280260
     atom   26 type  1   force =    -0.00005494   -0.00052741   -0.17836144
     atom   27 type  2   force =     0.00011816   -0.00025994   -0.01922252
     atom   28 type  2   force =     0.00008764   -0.00171201    0.05822488
     atom   29 type  2   force =    -0.01083487   -0.00098960    0.00882208
     atom   30 type  2   force =     0.01193998   -0.00068316    0.00714058
     atom   31 type  1   force =    -0.00065357    0.00611927   -0.01533508
     atom   32 type  1   force =     0.00081362    0.00035983   -0.00555103
     atom   33 type  2   force =    -0.00037838   -0.00032903    0.00017638
     atom   34 type  2   force =    -0.00223812   -0.00204135   -0.00001791
     atom   35 type  2   force =    -0.00073508    0.00025995    0.00034931
     atom   36 type  2   force =     0.00076889   -0.00010549   -0.00017108
     atom   37 type  1   force =     0.00004069    0.00022057    0.00000947
     atom   38 type  1   force =    -0.00029354    0.00023406    0.00050594
     atom   39 type  2   force =    -0.00033622   -0.00008391   -0.00000327
     atom   40 type  2   force =    -0.00006467   -0.00009138    0.00034662
     atom   41 type  2   force =    -0.00053594    0.00022148   -0.00036073
     atom   42 type  2   force =     0.00028714   -0.00023905   -0.00003726
     atom   43 type  1   force =    -0.00016194   -0.00000357    0.00005152
     atom   44 type  1   force =     0.00014925   -0.00022686    0.00007506
     atom   45 type  2   force =     0.00012607   -0.00011055    0.10392170
     atom   46 type  2   force =    -0.07029540   -0.00011842   -0.02686773
     atom   47 type  2   force =     0.07029729    0.00029736   -0.02690493
     atom   48 type  3   force =    -0.00716205    0.00540595    0.00316940
     atom   49 type  3   force =    -0.00471129   -0.00465195   -0.00023854
     atom   50 type  4   force =     0.01938144   -0.00107299    0.00027312
     atom   51 type  5   force =    -0.00426456    0.00067749   -0.00345181
     atom   52 type  3   force =    -0.00071083   -0.00041677   -0.00055500
     atom   53 type  3   force =     0.00001427    0.00006490   -0.00025806
     atom   54 type  3   force =    -0.00132585   -0.00000401   -0.00049190

     Total force =     0.367020     Total SCF correction =     0.000331
  @ DRIVER MODE: Message from server: STATUS
  @ DRIVER MODE: Message from server: GETFORCE
  @ DRIVER MODE: Returning v,forces,stress,ensemble

     Writing output data file ./calc.save/
  @ DRIVER MODE: Message from server: EXIT
  @ DRIVE MODE: Exiting

     General routines

     Parallel routines

   This run was terminated on:   0:38:50  17Jul2021

   JOB DONE.