     Program PWSCF v.6.7GPU starts on  8Sep2021 at 23:23: 6

     R & G space division:  proc/nbgrp/npool/nimage =      10
     Reading input from /storage/home/hcoda1/3/ntian30/research/carbon/CxH_vib/CH3_calc/ads_slab/CH3N_a/out_0006/pw.inp
Warning: card &CELL ignored
Warning: card   CELL_DYNAMICS='IPI', ignored
Warning: card / ignored

     Current dimensions of program PWSCF are:
     Max number of different atomic species (ntypx) = 10
     Max number of k-points (npk) =  40000
     Max angular momentum in pseudopotentials (lmaxx) =  3
     Presently no symmetry can be used with electric field

     Message from routine cell_base_init:
     DEPRECATED: use true lattice parameter, not A to a.u. conversion factor

     IMPORTANT: XC functional enforced from input :
     Exchange-correlation= BEEF-VDW
                           (   1   4  43  14   2   0   0)
     Any further DFT definition will be discarded
     Please, verify this is what you really want

  @ DRIVER MODE: Connecting to
 qe_1139763_2767403.sched-torque.pace.gatech.edutgmb3nks_scratch
  using UNIX socket
  @ DRIVER MODE: Message from server: STATUS
  @ DRIVER MODE: Message from server: INIT
  @ DRIVER MODE: Receiving replica           0          -1
  @ DRIVER MODE: Receiving encoded integer          25
  @ DRIVER MODE:  SCF:  T  FORCE:  T  STRESS:  F  VC:  F  ENSEMBLE:  F
  @ DRIVER MODE:  SCF:  T  FORCE:  T  STRESS:  F  VC:  F  ENSEMBLE:  F

     Using Slab Decomposition

     bravais-lattice index     =            0
     lattice parameter (alat)  =       1.8897  a.u.
     unit-cell volume          =    6658.9804 (a.u.)^3
     number of atoms/cell      =           52
     number of atomic types    =            5
     number of electrons       =       390.00
     number of Kohn-Sham states=          205
     kinetic-energy cutoff     =      29.3995  Ry
     charge density cutoff     =     293.9946  Ry
     scf convergence threshold =      7.3E-08
     mixing beta               =       0.0500
     number of iterations used =            8  plain     mixing
     Exchange-correlation= BEEF-VDW
                           (   1   4  43  14   2   0   0)

     celldm(1)=   1.889726  celldm(2)=   0.000000  celldm(3)=   0.000000
     celldm(4)=   0.000000  celldm(5)=   0.000000  celldm(6)=   0.000000

     crystal axes: (cart. coord. in units of alat)
               a(1) = (   6.579727   0.000000   0.000000 )
               a(2) = (  -0.000775   5.961596   0.000000 )
               a(3) = (   0.000000   0.000000  25.155947 )

     reciprocal axes: (cart. coord. in units 2 pi/alat)
               b(1) = (  0.151982  0.000020  0.000000 )
               b(2) = (  0.000000  0.167740  0.000000 )
               b(3) = (  0.000000  0.000000  0.039752 )

     PseudoPot. # 1 for Ti read from file:
     /storage/coda1/p-amedford6/0/shared/rich_project_chbe-medford/medford-share/data/pseudos_module/espresso/nninc/pbe/van/Ti.UPF
     MD5 check sum: 8e4df49b7f0d34bbd5052bf3f5ea0213
     Pseudo is Ultrasoft, Zval = 12.0
     Generated by new atomic code, or converted to UPF format
     Using radial grid of  851 points,  6 beta functions with:
                l(1) =   0
                l(2) =   0
                l(3) =   1
                l(4) =   1
                l(5) =   2
                l(6) =   2
     Q(r) pseudized with  8 coefficients,  rinner =    1.000   1.000   1.000
                                                       1.000   1.000

     PseudoPot. # 2 for O  read from file:
     /storage/coda1/p-amedford6/0/shared/rich_project_chbe-medford/medford-share/data/pseudos_module/espresso/nninc/pbe/van/O.UPF
     MD5 check sum: 78c19812648e8988a0fe644b0f25305e
     Pseudo is Ultrasoft, Zval =  6.0
     Generated by new atomic code, or converted to UPF format
     Using radial grid of  737 points,  4 beta functions with:
                l(1) =   0
                l(2) =   0
                l(3) =   1
                l(4) =   1
     Q(r) pseudized with  8 coefficients,  rinner =    0.800   0.800   0.800

     PseudoPot. # 3 for N  read from file:
     /storage/coda1/p-amedford6/0/shared/rich_project_chbe-medford/medford-share/data/pseudos_module/espresso/nninc/pbe/van/N.UPF
     MD5 check sum: 90d10febe142ad51ac9d5be1deb811c4
     Pseudo is Ultrasoft, Zval =  5.0
     Generated by new atomic code, or converted to UPF format
     Using radial grid of  729 points,  4 beta functions with:
                l(1) =   0
                l(2) =   0
                l(3) =   1
                l(4) =   1
     Q(r) pseudized with  8 coefficients,  rinner =    0.800   0.800   0.800

     PseudoPot. # 4 for C  read from file:
     /storage/coda1/p-amedford6/0/shared/rich_project_chbe-medford/medford-share/data/pseudos_module/espresso/nninc/pbe/van/C.UPF
     MD5 check sum: 1a69bf6b8db32088f5b2163dbdb77a27
     Pseudo is Ultrasoft, Zval =  4.0
     Generated by new atomic code, or converted to UPF format
     Using radial grid of  721 points,  4 beta functions with:
                l(1) =   0
                l(2) =   0
                l(3) =   1
                l(4) =   1
     Q(r) pseudized with  8 coefficients,  rinner =    0.800   0.800   0.800

     PseudoPot. # 5 for H  read from file:
     /storage/coda1/p-amedford6/0/shared/rich_project_chbe-medford/medford-share/data/pseudos_module/espresso/nninc/pbe/van/H.UPF
     MD5 check sum: b5ee9d7bfd3a09ee7748110bda690ff7
     Pseudo is Ultrasoft, Zval =  1.0
     Generated by new atomic code, or converted to UPF format
     Using radial grid of  615 points,  1 beta functions with:
                l(1) =   0
     Q(r) pseudized with  8 coefficients,  rinner =    0.800

     atomic species   valence    mass     pseudopotential
        Ti1           12.00    47.86700     Ti( 1.00)
        O1             6.00    15.99900     O ( 1.00)
        N1             5.00    14.00700     N ( 1.00)
        C1             4.00    12.01100     C ( 1.00)
        H1             1.00     1.00800     H ( 1.00)

     No symmetry found

   Cartesian axes

     site n.     atom                  positions (alat units)
         1           Ti1 tau(   1) = (   0.0004258   2.9801865   6.0000000  )
         2           Ti1 tau(   2) = (   3.2906075   1.4906267   6.0002472  )
         3           O1  tau(   3) = (   0.0006271   0.0005054   7.9858123  )
         4           O1  tau(   4) = (   3.2906025   0.0005020   7.3038282  )
         5           O1  tau(   5) = (   4.5942328   1.4918067   9.2879030  )
         6           O1  tau(   6) = (   1.9868534   1.4903216   9.2879459  )
         7           Ti1 tau(   7) = (   3.2907910   2.8959150   9.1758416  )
         8           Ti1 tau(   8) = (   0.0015273   1.4827037   9.2680791  )
         9           O1  tau(   9) = (   3.3018735   5.9614316  11.2970789  )
        10           O1  tau(  10) = (   0.0116148   5.9584955  10.6183126  )
        11           O1  tau(  11) = (   1.3353665   1.4968727  12.6140821  )
        12           O1  tau(  12) = (   5.3123320   1.5002621  12.6324210  )
        13           Ti1 tau(  13) = (   6.4913169   2.9877414  12.7576577  )
        14           Ti1 tau(  14) = (   3.1819880   1.4874128  12.4666476  )
        15           O1  tau(  15) = (   0.0325390   5.9514364  14.5942808  )
        16           O1  tau(  16) = (   3.3157460   0.0104736  13.8786857  )
        17           O1  tau(  17) = (   4.5538541   1.5308062  16.0536203  )
        18           O1  tau(  18) = (   2.1012647   1.5271178  16.0466835  )
        19           Ti1 tau(  19) = (   3.3239613   3.0121693  15.6870930  )
        20           Ti1 tau(  20) = (   0.0188375   1.6096557  16.0875739  )
        21           O1  tau(  21) = (   3.2904802   0.0005063   4.7018136  )
        22           O1  tau(  22) = (   0.0443345   0.0604659  17.2041813  )
        23           O1  tau(  23) = (   1.3043587   1.4918075   6.0039043  )
        24           O1  tau(  24) = (   5.2767064   1.4903225   6.0039473  )
        25           Ti1 tau(  25) = (   0.0000382   5.9609847   6.0000000  )
        26           Ti1 tau(  26) = (   3.2902200   4.4714249   6.0002472  )
        27           O1  tau(  27) = (   0.0002396   2.9813036   7.9858123  )
        28           O1  tau(  28) = (   3.2902150   2.9813002   7.3038282  )
        29           O1  tau(  29) = (   4.5938453   4.4726049   9.2879030  )
        30           O1  tau(  30) = (   1.9864658   4.4711199   9.2879459  )
        31           Ti1 tau(  31) = (   3.2891106   5.8743827   9.1763621  )
        32           Ti1 tau(  32) = (   0.0006254   4.4649316   9.2693709  )
        33           O1  tau(  33) = (   3.3028429   2.9834257  11.2952420  )
        34           O1  tau(  34) = (   0.0092240   2.9805883  10.6323155  )
        35           O1  tau(  35) = (   1.3370139   4.4664586  12.6123119  )
        36           O1  tau(  36) = (   5.3107101   4.4655690  12.6333123  )
        37           Ti1 tau(  37) = (   6.5188704   0.0058144  12.7695920  )
        38           Ti1 tau(  38) = (   3.1805296   4.4670443  12.4671176  )
        39           O1  tau(  39) = (   0.0099197   2.9765079  14.6559069  )
        40           O1  tau(  40) = (   3.3143426   2.9928857  13.8797190  )
        41           O1  tau(  41) = (   4.5573730   4.5089470  16.0521860  )
        42           O1  tau(  42) = (   2.1018054   4.5121927  16.0508938  )
        43           Ti1 tau(  43) = (   3.3145791   0.0316975  15.6896801  )
        44           Ti1 tau(  44) = (   0.0207397   4.5876961  16.1385408  )
        45           O1  tau(  45) = (   3.2900926   2.9813045   4.7018136  )
        46           O1  tau(  46) = (   1.3039711   4.4726057   6.0039043  )
        47           O1  tau(  47) = (   5.2763189   4.4711207   6.0039473  )
        48           N1  tau(  48) = (   0.0936308   3.0233000  17.3357847  )
        49           C1  tau(  49) = (   0.4281149   3.0137428  18.7308649  )
        50           H1  tau(  50) = (   0.7292188   4.0033843  19.0862330  )
        51           H1  tau(  51) = (   6.1445545   2.6862439  19.3232575  )
        52           H1  tau(  52) = (   1.2401080   2.3040860  18.9332505  )

     number of k points=    10  Fermi-Dirac smearing, width (Ry)=  0.0073
                       cart. coord. in units 2pi/alat
        k(    1) = (   0.0000000   0.0000000   0.0000000), wk =   0.1250000
        k(    2) = (   0.0000000   0.0419351   0.0000000), wk =   0.2500000
        k(    3) = (   0.0000000  -0.0838702   0.0000000), wk =   0.1250000
        k(    4) = (   0.0379955   0.0000049   0.0000000), wk =   0.2500000
        k(    5) = (   0.0379955   0.0419400   0.0000000), wk =   0.2500000
        k(    6) = (   0.0379955  -0.0838652   0.0000000), wk =   0.2500000
        k(    7) = (   0.0379955  -0.0419301   0.0000000), wk =   0.2500000
        k(    8) = (  -0.0759910  -0.0000099   0.0000000), wk =   0.1250000
        k(    9) = (  -0.0759910   0.0419252   0.0000000), wk =   0.2500000
        k(   10) = (  -0.0759910  -0.0838800   0.0000000), wk =   0.1250000

     Initial potential from superposition of free atoms

     starting charge  373.99917, renormalised to  390.00000

     negative rho (up, down):  1.730E-02 0.000E+00

     %%%%%%%%%%%%%%%%%%%%%%%%%%%%%%%%%%%%%%%%%%%%%%%%%%%%%%%%%%%%%%%%%%%%%%%%
     %                                                                      %
     % You are using vdW-DF, which was implemented by the Thonhauser group. %
     % Please cite the following two papers that made this development      %
     % possible and the two reviews that describe the various versions:     %
     %                                                                      %
     %   T. Thonhauser et al., PRL 115, 136402 (2015).                      %
     %   T. Thonhauser et al., PRB 76, 125112 (2007).                       %
     %   K. Berland et al., Rep. Prog. Phys. 78, 066501 (2015).             %
     %   D.C. Langreth et al., J. Phys.: Condens. Matter 21, 084203 (2009). %
     %                                                                      %
     %                                                                      %
     % If you are calculating the stress with vdW-DF, please also cite:     %
     %                                                                      %
     %   R. Sabatini et al., J. Phys.: Condens. Matter 24, 424209 (2012).   %
     %                                                                      %
     %%%%%%%%%%%%%%%%%%%%%%%%%%%%%%%%%%%%%%%%%%%%%%%%%%%%%%%%%%%%%%%%%%%%%%%%

     Adding external electric field

     Computed dipole along edir(3) :
        Dipole               -4.6312 Ry au,        -11.7715 Debye
        Dipole field         -0.0087 Ry au,

        Potential amp.        0.8102 Ry
        Total length         46.3494 bohr

     Starting wfcs are  295 atomic wfcs
  @ DRIVER MODE: Message from server: STATUS
  @ DRIVER MODE: Message from server: POSDATA
  @ DRIVER MODE: Reading and sharing cell
  @ DRIVER MODE: Reading and sharing positions
  @ DRIVER MODE: Received positions

     Self-consistent Calculation

     iteration #  1     ecut=    29.40 Ry     beta= 0.05
     Davidson diagonalization with overlap
     c_bands:  3 eigenvalues not converged
     c_bands:  2 eigenvalues not converged
     c_bands:  2 eigenvalues not converged
     c_bands:  4 eigenvalues not converged
     c_bands:  4 eigenvalues not converged
     c_bands:  2 eigenvalues not converged
     c_bands:  2 eigenvalues not converged
     c_bands:  4 eigenvalues not converged
     ethr =  1.00E-05,  avg # of iterations = 19.7

[...]

     total energy              =   -2877.70885863 Ry
     estimated scf accuracy    <     478.39316264 Ry

     iteration #  2     ecut=    29.40 Ry     beta= 0.05
     Davidson diagonalization with overlap
     ethr =  1.00E-02,  avg # of iterations = 13.6

[...]

     iteration # 52     ecut=    29.40 Ry     beta= 0.05
     Davidson diagonalization with overlap
     c_bands:  1 eigenvalues not converged
     ethr =  3.52E-07,  avg # of iterations = 10.7

[...]

     total energy              =   -2919.13172763 Ry
     estimated scf accuracy    <       0.00000015 Ry

     iteration # 77     ecut=    29.40 Ry     beta= 0.05
     Davidson diagonalization with overlap
     ethr =  2.88E-11,  avg # of iterations =  5.4

     negative rho (up, down):  1.785E-02 0.000E+00

     Adding external electric field

     Computed dipole along edir(3) :
        Dipole                0.2598 Ry au,          0.6604 Debye
        Dipole field          0.0005 Ry au,

        Potential amp.       -0.0455 Ry
        Total length         46.3494 bohr

     End of self-consistent calculation

          k = 0.0000 0.0000 0.0000 ( 18029 PWs)   bands (ev):

   -56.8798 -56.8461 -56.0096 -55.9974 -55.9747 -55.9645 -55.8698 -55.8311
   -55.6581 -55.6228 -55.5584 -55.5471 -55.5132 -55.4489 -54.9851 -54.9397
   -33.3080 -33.1550 -33.1268 -33.0556 -32.9645 -32.9340 -32.4801 -32.4742
   -32.4103 -32.2935 -32.2475 -32.2234 -32.2045 -32.1836 -32.1499 -32.1486
   -32.1453 -32.1388 -32.1225 -32.1129 -32.0989 -32.0772 -32.0511 -32.0382
   -32.0246 -32.0042 -32.0006 -31.9778 -31.9397 -31.8896 -31.8854 -31.8613
   -31.7996 -31.7969 -31.7583 -31.7337 -31.7249 -31.6780 -31.6748 -31.6534
   -31.6345 -31.5638 -31.5149 -31.2341 -31.2095 -31.1891 -31.1602 -31.0423
   -17.0465 -16.6182 -16.3898 -16.2439 -16.1823 -16.1220 -16.0814 -15.9715
   -15.8896 -15.8804 -15.8359 -15.8173 -15.7425 -15.6006 -15.5021 -15.4512
   -15.4086 -15.2904 -15.2234 -15.2000 -15.1950 -15.1584 -15.1423 -14.9413
   -14.9149 -14.8208 -14.8112 -14.6778 -14.4539 -14.0459 -13.9357 -13.1559
    -7.7842  -4.6112  -4.1137  -3.8766  -3.7902  -3.6858  -3.6656  -3.6008
    -3.4629  -3.4211  -3.3728  -3.2595  -3.2559  -3.1209  -3.1077  -3.0596
    -3.0567  -3.0237  -2.9813  -2.9482  -2.9171  -2.8988  -2.8895  -2.7414
    -2.6335  -2.5743  -2.5421  -2.5325  -2.4973  -2.4294  -2.3998  -2.3834
    -2.3794  -2.2866  -2.1373  -2.1236  -2.1050  -2.0623  -2.0488  -2.0175
    -2.0129  -1.8893  -1.7898  -1.6842  -1.6708  -1.6330  -1.5675  -1.5578
    -1.4699  -1.3921  -1.3279  -1.3001  -1.1879  -1.1561  -1.1314  -1.0460
    -0.9770  -0.9401  -0.9214  -0.9007  -0.7995  -0.7756  -0.7719  -0.6823
    -0.6703  -0.6225  -0.5268  -0.5047  -0.5005  -0.4202  -0.4138  -0.3121
    -0.2783  -0.2397  -0.2047  -0.1029  -0.0813   0.0218   0.0566   0.0773
     0.1945   0.2120   0.2770   0.3406   0.4126   0.4326   0.4744   0.4974
     0.5174   0.5857   0.7034   0.7179   0.8101   0.8448   1.0270   1.0660
     1.3436   1.3654   2.0590   2.3940   2.5527   2.8517   3.0358   3.1484
     3.3674   3.3845   3.3893   3.5477   3.6061

[...]

          k = 0.0380-0.0419 0.0000 ( 17876 PWs)   bands (ev):

[...]

          k =-0.0760-0.0000 0.0000 ( 17886 PWs)   bands (ev):

[...]

          k =-0.0760-0.0839 0.0000 ( 17948 PWs)   bands (ev):

   -56.8630 -56.8627 -55.9945 -55.9887 -55.9816 -55.9811 -55.8583 -55.8425
   -55.6432 -55.6375 -55.5556 -55.5301 -55.5300 -55.4516 -54.9768 -54.9479
   -33.1408 -33.1405 -33.1249 -33.1247 -33.0086 -33.0083 -32.3100 -32.3076
   -32.2987 -32.2922 -32.2418 -32.2375 -32.2013 -32.1931 -32.1926 -32.1914
   -32.1840 -32.1811 -32.1790 -32.1773 -32.1089 -32.0965 -32.0577 -32.0455
   -31.9929 -31.9846 -31.9256 -31.9199 -31.8833 -31.8743 -31.8742 -31.8420
   -31.8405 -31.8083 -31.7714 -31.7559 -31.7557 -31.7294 -31.7167 -31.7167
   -31.6943 -31.6551 -31.3806 -31.3033 -31.2060 -31.1763 -31.1697 -31.1235
   -16.3955 -16.3934 -16.3601 -16.3598 -16.0924 -16.0889 -16.0494 -16.0459
   -15.8764 -15.8692 -15.6597 -15.6511 -15.6460 -15.6433 -15.5156 -15.5097
   -15.4524 -15.4382 -15.3543 -15.3516 -15.2853 -15.2790 -15.2442 -15.2245
   -14.9125 -14.8923 -14.7781 -14.7544 -14.5971 -14.0392 -14.0392 -13.1724
    -7.7751  -3.4947  -3.4938  -3.4315  -3.4306  -3.3129  -3.3070  -3.2247
    -3.2239  -3.1298  -3.1262  -3.0987  -3.0054  -2.9861  -2.9833  -2.9712
    -2.9699  -2.8352  -2.8292  -2.8179  -2.8006  -2.7404  -2.7379  -2.7364
    -2.6602  -2.6455  -2.6115  -2.5732  -2.4666  -2.4509  -2.4417  -2.4076
    -2.3527  -2.3330  -2.3194  -2.2782  -2.2607  -2.1740  -2.1183  -2.0639
    -1.9429  -1.9367  -1.9315  -1.9195  -1.7624  -1.7202  -1.6984  -1.6808
    -1.6767  -1.6413  -1.5311  -1.5250  -1.3950  -1.3935  -1.3195  -1.2380
    -1.2200  -1.1888  -1.0595  -1.0190  -0.9818  -0.9742  -0.9492  -0.9313
    -0.9078  -0.8709  -0.7295  -0.7152  -0.6781  -0.6446  -0.6392  -0.5833
    -0.5257  -0.4403  -0.3605  -0.3589  -0.3131  -0.2400  -0.1804  -0.0969
    -0.0789  -0.0736   0.2043   0.2846   0.3732   0.4464   0.5128   0.5691
     0.6040   0.6681   0.7057   0.8497   0.8542   0.8754   0.8758   0.9305
     0.9313   1.3555   1.9517   2.9662   2.9665   3.0331   3.0335   3.3569
     3.3631   3.4704   3.4798   3.5818   3.5833

     the Fermi energy is     2.2370 ev

!    total energy              =   -2919.13173482 Ry
     estimated scf accuracy    <       0.00000004 Ry
     smearing contrib. (-TS)   =      -0.00498202 Ry
     internal energy E=F+TS    =   -2919.12675279 Ry

     The total energy is F=E-TS. E is the sum of the following terms:
     one-electron contribution =  -24566.64626668 Ry
     hartree contribution      =   12367.49873465 Ry
     xc contribution           =    -479.90120063 Ry
     ewald contribution        =    9759.92185247 Ry
     electric field correction =       0.00012739 Ry

     convergence has been achieved in  77 iterations

     Forces acting on atoms (cartesian axes, Ry/au):

     atom    1 type  1   force =     0.00005670   -0.00050037    0.12398351
     atom    2 type  1   force =    -0.00009055   -0.00055206   -0.16081876
     atom    3 type  2   force =     0.00022177   -0.00023580   -0.06767304
     atom    4 type  2   force =    -0.00000135   -0.00033324    0.02784799
     atom    5 type  2   force =    -0.01622748    0.00173868   -0.00927014
     atom    6 type  2   force =     0.01828217    0.00227569   -0.00882032
     atom    7 type  1   force =     0.00112564   -0.00380727    0.02157508
     atom    8 type  1   force =    -0.00061982   -0.00326910    0.11079027
     atom    9 type  2   force =    -0.00011276    0.00139031   -0.00004865
     atom   10 type  2   force =    -0.00191441    0.00178779   -0.07304407
     atom   11 type  2   force =     0.00073790    0.00006549    0.00017139
     atom   12 type  2   force =    -0.00061113    0.00021855    0.00027254
     atom   13 type  1   force =     0.00003801    0.00023220   -0.00123403
     atom   14 type  1   force =    -0.00100104   -0.00023907   -0.00084028
     atom   15 type  2   force =     0.00001917   -0.00016646    0.00097827
     atom   16 type  2   force =    -0.00004994    0.00106882    0.00102047
     atom   17 type  2   force =     0.00038211    0.00021926   -0.00046262
     atom   18 type  2   force =    -0.00027591    0.00032064    0.00000133
     atom   19 type  1   force =     0.00014720    0.00007684   -0.00086795
     atom   20 type  1   force =     0.00037794    0.00122411    0.00261282
     atom   21 type  2   force =     0.00004077   -0.00006726    0.09977723
     atom   22 type  2   force =     0.00019578   -0.00065653   -0.00032959
     atom   23 type  2   force =    -0.07907527   -0.00005519   -0.03239424
     atom   24 type  2   force =     0.07894316    0.00037913   -0.03242079
     atom   25 type  1   force =     0.00004327   -0.00049396    0.12342166
     atom   26 type  1   force =    -0.00009874   -0.00051127   -0.16083163
     atom   27 type  2   force =     0.00032584   -0.00047742   -0.06672751
     atom   28 type  2   force =     0.00002815   -0.00015214    0.02753773
     atom   29 type  2   force =    -0.01662704    0.00134157   -0.00947055
     atom   30 type  2   force =     0.01856936    0.00164732   -0.00903959
     atom   31 type  1   force =     0.00110711   -0.00128002    0.02113013
     atom   32 type  1   force =    -0.00051960    0.00070444    0.11144538
     atom   33 type  2   force =    -0.00034710   -0.00114739    0.00045607
     atom   34 type  2   force =    -0.00157591    0.00135518   -0.07194727
     atom   35 type  2   force =    -0.00186882   -0.00020256    0.00039083
     atom   36 type  2   force =     0.00073450   -0.00044014    0.00007322
     atom   37 type  1   force =     0.00073258   -0.00031912   -0.00004460
     atom   38 type  1   force =    -0.00014447    0.00052948   -0.00015124
     atom   39 type  2   force =     0.00024350   -0.00036689    0.00100032
     atom   40 type  2   force =     0.00012127   -0.00017678    0.00060314
     atom   41 type  2   force =     0.00024454    0.00035926   -0.00015790
     atom   42 type  2   force =     0.00000642    0.00041686   -0.00000010
     atom   43 type  1   force =     0.00038519    0.00013026   -0.00047799
     atom   44 type  1   force =    -0.00019898   -0.00117556    0.00178443
     atom   45 type  2   force =     0.00002344   -0.00006855    0.09979127
     atom   46 type  2   force =    -0.07908257   -0.00000814   -0.03239646
     atom   47 type  2   force =     0.07895436    0.00042342   -0.03242096
     atom   48 type  3   force =    -0.00242479   -0.00181054   -0.01656063
     atom   49 type  4   force =     0.00104420    0.00021357    0.00800729
     atom   50 type  5   force =    -0.00047211    0.00024756    0.00119349
     atom   51 type  5   force =     0.00024452   -0.00001501    0.00154478
     atom   52 type  5   force =    -0.00003679    0.00016142    0.00104028

     Total force =     0.424387     Total SCF correction =     0.000400
  @ DRIVER MODE: Message from server: STATUS
  @ DRIVER MODE: Message from server: GETFORCE
  @ DRIVER MODE: Returning v,forces,stress,ensemble

     Writing output data file ./calc.save/
  @ DRIVER MODE: Message from server: EXIT
  @ DRIVE MODE: Exiting

     General routines

     Parallel routines

   This run was terminated on:  23:41:23   8Sep2021

   JOB DONE.