     Program PWSCF v.6.7GPU starts on 16Sep2021 at  0:29:44

     R & G space division:  proc/nbgrp/npool/nimage =      10
     Reading input from /storage/home/hcoda1/3/ntian30/research/carbon/CxH_vib/H2O_calc/ads_slab/CH3NHNHH2O_a/out_0027/pw.inp
Warning: card &CELL ignored
Warning: card   CELL_DYNAMICS='IPI', ignored
Warning: card / ignored

     Current dimensions of program PWSCF are:
     Max number of different atomic species (ntypx) = 10
     Max number of k-points (npk) =  40000
     Max angular momentum in pseudopotentials (lmaxx) =  3
     Presently no symmetry can be used with electric field

     Message from routine cell_base_init:
     DEPRECATED: use true lattice parameter, not A to a.u. conversion factor

     IMPORTANT: XC functional enforced from input :
     Exchange-correlation= BEEF-VDW
                           (   1   4  43  14   2   0   0)
     Any further DFT definition will be discarded
     Please, verify this is what you really want

  @ DRIVER MODE: Connecting to
 qe_1139763_2852620.sched-torque.pace.gatech.edua59gqagm_scratch
  using UNIX socket
  @ DRIVER MODE: Message from server: STATUS
  @ DRIVER MODE: Message from server: INIT
  @ DRIVER MODE: Receiving replica           0          -1
  @ DRIVER MODE: Receiving encoded integer          25
  @ DRIVER MODE:  SCF:  T  FORCE:  T  STRESS:  F  VC:  F  ENSEMBLE:  F
  @ DRIVER MODE:  SCF:  T  FORCE:  T  STRESS:  F  VC:  F  ENSEMBLE:  F

     Using Slab Decomposition

     bravais-lattice index     =            0
     lattice parameter (alat)  =       1.8897  a.u.
     unit-cell volume          =    6658.9804 (a.u.)^3
     number of atoms/cell      =           58
     number of atomic types    =            5
     number of electrons       =       405.00
     number of Kohn-Sham states=          212
     kinetic-energy cutoff     =      29.3995  Ry
     charge density cutoff     =     293.9946  Ry
     scf convergence threshold =      7.3E-08
     mixing beta               =       0.0500
     number of iterations used =            8  plain     mixing
     Exchange-correlation= BEEF-VDW
                           (   1   4  43  14   2   0   0)

     celldm(1)=   1.889726  celldm(2)=   0.000000  celldm(3)=   0.000000
     celldm(4)=   0.000000  celldm(5)=   0.000000  celldm(6)=   0.000000

     crystal axes: (cart. coord. in units of alat)
               a(1) = (   6.579727   0.000000   0.000000 )
               a(2) = (  -0.000775   5.961596   0.000000 )
               a(3) = (   0.000000   0.000000  25.155947 )

     reciprocal axes: (cart. coord. in units 2 pi/alat)
               b(1) = (  0.151982  0.000020  0.000000 )
               b(2) = (  0.000000  0.167740  0.000000 )
               b(3) = (  0.000000  0.000000  0.039752 )

     PseudoPot. # 1 for Ti read from file:
     /storage/coda1/p-amedford6/0/shared/rich_project_chbe-medford/medford-share/data/pseudos_module/espresso/nninc/pbe/van/Ti.UPF
     MD5 check sum: 8e4df49b7f0d34bbd5052bf3f5ea0213
     Pseudo is Ultrasoft, Zval = 12.0
     Generated by new atomic code, or converted to UPF format
     Using radial grid of  851 points,  6 beta functions with:
                l(1) =   0
                l(2) =   0
                l(3) =   1
                l(4) =   1
                l(5) =   2
                l(6) =   2
     Q(r) pseudized with  8 coefficients,  rinner =    1.000   1.000   1.000
                                                       1.000   1.000

     PseudoPot. # 2 for O  read from file:
     /storage/coda1/p-amedford6/0/shared/rich_project_chbe-medford/medford-share/data/pseudos_module/espresso/nninc/pbe/van/O.UPF
     MD5 check sum: 78c19812648e8988a0fe644b0f25305e
     Pseudo is Ultrasoft, Zval =  6.0
     Generated by new atomic code, or converted to UPF format
     Using radial grid of  737 points,  4 beta functions with:
                l(1) =   0
                l(2) =   0
                l(3) =   1
                l(4) =   1
     Q(r) pseudized with  8 coefficients,  rinner =    0.800   0.800   0.800

     PseudoPot. # 3 for N  read from file:
     /storage/coda1/p-amedford6/0/shared/rich_project_chbe-medford/medford-share/data/pseudos_module/espresso/nninc/pbe/van/N.UPF
     MD5 check sum: 90d10febe142ad51ac9d5be1deb811c4
     Pseudo is Ultrasoft, Zval =  5.0
     Generated by new atomic code, or converted to UPF format
     Using radial grid of  729 points,  4 beta functions with:
                l(1) =   0
                l(2) =   0
                l(3) =   1
                l(4) =   1
     Q(r) pseudized with  8 coefficients,  rinner =    0.800   0.800   0.800

     PseudoPot. # 4 for C  read from file:
     /storage/coda1/p-amedford6/0/shared/rich_project_chbe-medford/medford-share/data/pseudos_module/espresso/nninc/pbe/van/C.UPF
     MD5 check sum: 1a69bf6b8db32088f5b2163dbdb77a27
     Pseudo is Ultrasoft, Zval =  4.0
     Generated by new atomic code, or converted to UPF format
     Using radial grid of  721 points,  4 beta functions with:
                l(1) =   0
                l(2) =   0
                l(3) =   1
                l(4) =   1
     Q(r) pseudized with  8 coefficients,  rinner =    0.800   0.800   0.800

     PseudoPot. # 5 for H  read from file:
     /storage/coda1/p-amedford6/0/shared/rich_project_chbe-medford/medford-share/data/pseudos_module/espresso/nninc/pbe/van/H.UPF
     MD5 check sum: b5ee9d7bfd3a09ee7748110bda690ff7
     Pseudo is Ultrasoft, Zval =  1.0
     Generated by new atomic code, or converted to UPF format
     Using radial grid of  615 points,  1 beta functions with:
                l(1) =   0
     Q(r) pseudized with  8 coefficients,  rinner =    0.800

     atomic species   valence    mass     pseudopotential
        Ti1           12.00    47.86700     Ti( 1.00)
        O1             6.00    15.99900     O ( 1.00)
        N1             5.00    14.00700     N ( 1.00)
        C1             4.00    12.01100     C ( 1.00)
        H1             1.00     1.00800     H ( 1.00)

     No symmetry found

   Cartesian axes

     site n.     atom                  positions (alat units)
         1           Ti1 tau(   1) = (   0.0004258   2.9801865   6.0000000  )
         2           Ti1 tau(   2) = (   3.2906075   1.4906267   6.0002472  )
         3           O1  tau(   3) = (   0.0006271   0.0005054   7.9858123  )
         4           O1  tau(   4) = (   3.2906025   0.0005020   7.3038282  )
         5           O1  tau(   5) = (   4.5942328   1.4918067   9.2879030  )
         6           O1  tau(   6) = (   1.9868534   1.4903216   9.2879459  )
         7           Ti1 tau(   7) = (   3.2907910   2.8959150   9.1758416  )
         8           Ti1 tau(   8) = (   0.0015273   1.4827037   9.2680791  )
         9           O1  tau(   9) = (   3.2925356   5.9605122  11.3387169  )
        10           O1  tau(  10) = (   0.0116148   5.9584955  10.6183126  )
        11           O1  tau(  11) = (   1.2897729   1.4809555  12.6268520  )
        12           O1  tau(  12) = (   5.2791511   1.4810064  12.6173870  )
        13           Ti1 tau(  13) = (   0.0595640   3.0140846  12.5912772  )
        14           Ti1 tau(  14) = (   3.3761946   1.4800080  12.4968112  )
        15           O1  tau(  15) = (   6.5629824   0.0009262  14.6613707  )
        16           O1  tau(  16) = (   3.3123588   5.9604043  13.9421911  )
        17           O1  tau(  17) = (   4.5376415   1.5680301  16.0260299  )
        18           O1  tau(  18) = (   2.0142527   1.4857506  15.9764776  )
        19           Ti1 tau(  19) = (   3.2467940   3.0138708  15.6952036  )
        20           Ti1 tau(  20) = (   6.5376764   1.5432071  15.7832198  )
        21           O1  tau(  21) = (   3.2904802   0.0005063   4.7018136  )
        22           O1  tau(  22) = (   6.4898080   0.0110182  17.2547379  )
        23           O1  tau(  23) = (   1.3043587   1.4918075   6.0039043  )
        24           O1  tau(  24) = (   5.2767064   1.4903225   6.0039473  )
        25           Ti1 tau(  25) = (   0.0000382   5.9609847   6.0000000  )
        26           Ti1 tau(  26) = (   3.2902200   4.4714249   6.0002472  )
        27           O1  tau(  27) = (   0.0002396   2.9813036   7.9858123  )
        28           O1  tau(  28) = (   3.2902150   2.9813002   7.3038282  )
        29           O1  tau(  29) = (   4.5938453   4.4726049   9.2879030  )
        30           O1  tau(  30) = (   1.9864658   4.4711199   9.2879459  )
        31           Ti1 tau(  31) = (   3.2891106   5.8743827   9.1763621  )
        32           Ti1 tau(  32) = (   0.0006254   4.4649316   9.2693709  )
        33           O1  tau(  33) = (   3.2967638   2.9790471  11.3409087  )
        34           O1  tau(  34) = (   0.0092240   2.9805883  10.6323155  )
        35           O1  tau(  35) = (   1.2869154   4.4778632  12.6304858  )
        36           O1  tau(  36) = (   5.2845859   4.4648683  12.6187650  )
        37           Ti1 tau(  37) = (   0.0627082   0.0241251  12.5486904  )
        38           Ti1 tau(  38) = (   3.3788516   4.4738568  12.4976958  )
        39           O1  tau(  39) = (   6.5772583   2.9562949  14.6416036  )
        40           O1  tau(  40) = (   3.2725681   2.9944745  13.9013672  )
        41           O1  tau(  41) = (   4.5452577   4.4055011  16.0651929  )
        42           O1  tau(  42) = (   2.0228361   4.5129635  16.0417754  )
        43           Ti1 tau(  43) = (   3.2583029   0.0391736  15.7773877  )
        44           Ti1 tau(  44) = (   6.5476622   4.6515957  16.1089089  )
        45           O1  tau(  45) = (   3.2900926   2.9813045   4.7018136  )
        46           O1  tau(  46) = (   1.3039711   4.4726057   6.0039043  )
        47           O1  tau(  47) = (   5.2763189   4.4711207   6.0039473  )
        48           N1  tau(  48) = (   1.2275869   2.8250850  18.3327965  )
        49           N1  tau(  49) = (   0.1007212   2.9268546  17.4424539  )
        50           C1  tau(  50) = (   0.9834745   3.5098297  19.5973225  )
        51           H1  tau(  51) = (   0.0800711   3.1483545  20.1177682  )
        52           H1  tau(  52) = (   1.8428167   3.3384677  20.2521386  )
        53           H1  tau(  53) = (   0.8645268   4.5787652  19.4145101  )
        54           H1  tau(  54) = (   1.4038961   1.8348574  18.5000659  )
        55           H1  tau(  55) = (   5.8167727   2.7947134  17.9807349  )
        56           O1  tau(  56) = (   3.6251350   0.0523402  18.1652986  )
        57           H1  tau(  57) = (   4.6063402   0.0342754  18.1216558  )
        58           H1  tau(  58) = (   3.3562690   5.1322054  18.4688733  )

     number of k points=    10  Fermi-Dirac smearing, width (Ry)=  0.0073
                       cart. coord. in units 2pi/alat
        k(    1) = (   0.0000000   0.0000000   0.0000000), wk =   0.1250000
        k(    2) = (   0.0000000   0.0419351   0.0000000), wk =   0.2500000
        k(    3) = (   0.0000000  -0.0838702   0.0000000), wk =   0.1250000
        k(    4) = (   0.0379955   0.0000049   0.0000000), wk =   0.2500000
        k(    5) = (   0.0379955   0.0419400   0.0000000), wk =   0.2500000
        k(    6) = (   0.0379955  -0.0838652   0.0000000), wk =   0.2500000
        k(    7) = (   0.0379955  -0.0419301   0.0000000), wk =   0.2500000
        k(    8) = (  -0.0759910  -0.0000099   0.0000000), wk =   0.1250000
        k(    9) = (  -0.0759910   0.0419252   0.0000000), wk =   0.2500000
        k(   10) = (  -0.0759910  -0.0838800   0.0000000), wk =   0.1250000

     Initial potential from superposition of free atoms

     starting charge  388.99913, renormalised to  405.00000

     negative rho (up, down):  1.444E-02 0.000E+00

     %%%%%%%%%%%%%%%%%%%%%%%%%%%%%%%%%%%%%%%%%%%%%%%%%%%%%%%%%%%%%%%%%%%%%%%%
     %                                                                      %
     % You are using vdW-DF, which was implemented by the Thonhauser group. %
     % Please cite the following two papers that made this development      %
     % possible and the two reviews that describe the various versions:     %
     %                                                                      %
     %   T. Thonhauser et al., PRL 115, 136402 (2015).                      %
     %   T. Thonhauser et al., PRB 76, 125112 (2007).                       %
     %   K. Berland et al., Rep. Prog. Phys. 78, 066501 (2015).             %
     %   D.C. Langreth et al., J. Phys.: Condens. Matter 21, 084203 (2009). %
     %                                                                      %
     %                                                                      %
     % If you are calculating the stress with vdW-DF, please also cite:     %
     %                                                                      %
     %   R. Sabatini et al., J. Phys.: Condens. Matter 24, 424209 (2012).   %
     %                                                                      %
     %%%%%%%%%%%%%%%%%%%%%%%%%%%%%%%%%%%%%%%%%%%%%%%%%%%%%%%%%%%%%%%%%%%%%%%%

     Adding external electric field

     Computed dipole along edir(3) :
        Dipole              -14.1501 Ry au,        -35.9660 Debye
        Dipole field         -0.0267 Ry au,

        Potential amp.        2.4753 Ry
        Total length         46.3494 bohr

     Starting wfcs are  307 atomic wfcs
  @ DRIVER MODE: Message from server: STATUS
  @ DRIVER MODE: Message from server: POSDATA
  @ DRIVER MODE: Reading and sharing cell
  @ DRIVER MODE: Reading and sharing positions
  @ DRIVER MODE: Received positions

     Self-consistent Calculation

     iteration #  1     ecut=    29.40 Ry     beta= 0.05
     Davidson diagonalization with overlap
     c_bands:  4 eigenvalues not converged
     c_bands:  1 eigenvalues not converged
     c_bands:  1 eigenvalues not converged
     c_bands:  3 eigenvalues not converged
     c_bands:  2 eigenvalues not converged
     ethr =  1.00E-05,  avg # of iterations = 29.4

[...]

     total energy              =   -2232.57189646 Ry
     estimated scf accuracy    <    8442.86892948 Ry

     iteration #  2     ecut=    29.40 Ry     beta= 0.05
     Davidson diagonalization with overlap
     ethr =  1.00E-02,  avg # of iterations = 31.0

[...]

     iteration # 80     ecut=    29.40 Ry     beta= 0.05
     Davidson diagonalization with overlap
     c_bands:  1 eigenvalues not converged
     ethr =  3.74E-11,  avg # of iterations = 12.3

[...]

     total energy              =   -2976.50556423 Ry
     estimated scf accuracy    <       0.00000024 Ry

     iteration # 82     ecut=    29.40 Ry     beta= 0.05
     Davidson diagonalization with overlap
     ethr =  3.74E-11,  avg # of iterations = 10.4

     negative rho (up, down):  1.504E-02 0.000E+00

     Adding external electric field

     Computed dipole along edir(3) :
        Dipole                0.9843 Ry au,          2.5019 Debye
        Dipole field          0.0019 Ry au,

        Potential amp.       -0.1722 Ry
        Total length         46.3494 bohr

     End of self-consistent calculation

          k = 0.0000 0.0000 0.0000 ( 18029 PWs)   bands (ev):

   -55.5105 -55.4801 -55.4765 -55.4469 -55.4441 -55.3589 -55.3280 -55.3263
   -55.3238 -55.2940 -55.2927 -55.2590 -55.0509 -54.8862 -54.4931 -54.4591
   -32.0244 -31.9942 -31.8829 -31.8601 -31.8261 -31.8031 -31.7847 -31.7829
   -31.7550 -31.7118 -31.7003 -31.6807 -31.6775 -31.6627 -31.6572 -31.6354
   -31.6160 -31.6107 -31.6096 -31.5774 -31.5676 -31.5588 -31.5329 -31.5208
   -31.5182 -31.5164 -31.5134 -31.5075 -31.4922 -31.4845 -31.4813 -31.4716
   -31.4690 -31.4575 -31.4461 -31.4370 -31.4049 -31.3067 -31.2613 -31.1496
   -31.1412 -31.0769 -30.9003 -30.8115 -30.7892 -30.7171 -30.6306 -30.5195
   -18.7234 -16.5588 -16.2206 -15.9833 -15.7613 -15.6678 -15.6255 -15.4286
   -15.3343 -15.2496 -15.1294 -15.0784 -15.0524 -15.0448 -15.0312 -15.0060
   -14.9717 -14.9656 -14.9624 -14.9382 -14.9188 -14.8674 -14.8615 -14.8546
   -14.7613 -14.6974 -14.6625 -14.6492 -14.6396 -14.5739 -14.2024 -12.9952
   -12.8787 -11.6408  -8.8651  -6.4614  -5.1594  -4.2758  -3.6962  -3.5949
    -3.4670  -3.4191  -3.3704  -3.3423  -3.1506  -3.0943  -2.9426  -2.7712
    -2.6978  -2.6594  -2.6261  -2.5915  -2.5554  -2.4333  -2.4087  -2.3385
    -2.3196  -2.3083  -2.2758  -2.2661  -2.2511  -2.2388  -2.1571  -2.1485
    -2.0624  -1.9516  -1.9006  -1.8856  -1.8669  -1.8257  -1.7884  -1.7749
    -1.7616  -1.7432  -1.7302  -1.6924  -1.5768  -1.5261  -1.4469  -1.3673
    -1.2960  -1.2076  -1.1316  -1.1027  -1.0360  -1.0107  -0.9506  -0.9263
    -0.9112  -0.9057  -0.7884  -0.6804  -0.6621  -0.5925  -0.5316  -0.4552
    -0.4117  -0.3857  -0.3165  -0.2831  -0.2723  -0.2588  -0.2327  -0.2178
    -0.1618  -0.0143   0.0628   0.0812   0.1399   0.1807   0.2322   0.2574
     0.2852   0.3331   0.3646   0.4046   0.4543   0.4580   0.4700   0.4941
     0.5083   0.6674   0.7226   0.7556   0.7813   0.8301   0.9422   0.9854
     1.1392   1.2076   1.2725   1.4554   1.5294   1.6100   1.7209   2.0666
     2.1007   2.1466   3.6152   3.7076   3.7486   3.7699   3.8569   3.8594
     4.0703   4.1151   4.1231   4.1895

[...]

          k = 0.0380-0.0419 0.0000 ( 17876 PWs)   bands (ev):

[...]

          k =-0.0760-0.0000 0.0000 ( 17886 PWs)   bands (ev):

[...]

          k =-0.0760-0.0839 0.0000 ( 17948 PWs)   bands (ev):

   -55.4938 -55.4931 -55.4642 -55.4598 -55.4443 -55.3447 -55.3380 -55.3287
   -55.3110 -55.3105 -55.2770 -55.2748 -55.0493 -54.8876 -54.4761 -54.4760
   -31.8379 -31.8211 -31.8097 -31.8092 -31.7888 -31.7881 -31.7483 -31.7408
   -31.7328 -31.7048 -31.6938 -31.6747 -31.6591 -31.6573 -31.6318 -31.6298
   -31.6273 -31.6253 -31.6173 -31.6161 -31.6138 -31.6125 -31.6121 -31.5606
   -31.5521 -31.5457 -31.5378 -31.5272 -31.5128 -31.5117 -31.5072 -31.5028
   -31.4924 -31.4899 -31.4848 -31.4828 -31.4120 -31.3095 -31.2567 -31.2110
   -31.1521 -31.1045 -30.8019 -30.8018 -30.7132 -30.7130 -30.6739 -30.6738
   -18.7219 -16.5354 -15.6576 -15.5864 -15.4705 -15.4415 -15.3818 -15.3318
   -15.3142 -15.2450 -15.2088 -15.1963 -15.1446 -15.1420 -15.0942 -15.0703
   -15.0434 -15.0397 -15.0245 -14.9820 -14.9711 -14.9559 -14.9517 -14.9483
   -14.8710 -14.8351 -14.8311 -14.8264 -14.7571 -14.6234 -14.3516 -12.9805
   -12.9804 -11.6477  -8.8740  -6.4572  -5.1629  -4.2705  -3.6369  -3.0825
    -2.9429  -2.7852  -2.7198  -2.6388  -2.6380  -2.5955  -2.4714  -2.4457
    -2.4104  -2.3798  -2.3505  -2.3392  -2.3318  -2.3289  -2.3142  -2.3001
    -2.2871  -2.2482  -2.2019  -2.1864  -2.1780  -2.1737  -2.1587  -2.1448
    -2.1298  -2.1271  -2.0916  -2.0620  -2.0348  -1.9996  -1.9456  -1.7449
    -1.7173  -1.6962  -1.6675  -1.6568  -1.6449  -1.6119  -1.5731  -1.5631
    -1.4905  -1.4029  -1.3148  -1.2368  -1.2036  -1.1907  -1.1216  -1.0359
    -0.9947  -0.9556  -0.9182  -0.8585  -0.7996  -0.7614  -0.7240  -0.6427
    -0.6246  -0.6143  -0.5529  -0.5363  -0.4763  -0.4680  -0.3901  -0.3481
    -0.3117  -0.2649  -0.2373  -0.2317  -0.2127  -0.1783  -0.1704  -0.1165
    -0.0001   0.0087   0.0281   0.1329   0.2216   0.4607   0.5176   0.5500
     0.6302   0.6928   0.7542   0.7754   0.7972   0.8010   0.8369   0.8974
     1.0116   1.0215   1.0601   1.1482   1.1746   1.8926   1.8934   1.9664
     1.9665   2.0695   3.9273   3.9536   3.9795   4.0153   4.1159   4.1331
     4.1555   4.1575   4.2712   4.2918

     the Fermi energy is     3.6205 ev

!    total energy              =   -2976.50556973 Ry
     estimated scf accuracy    <       0.00000003 Ry
     smearing contrib. (-TS)   =      -0.02132639 Ry
     internal energy E=F+TS    =   -2976.48424334 Ry

     The total energy is F=E-TS. E is the sum of the following terms:
     one-electron contribution =  -23892.24790791 Ry
     hartree contribution      =   12042.65084639 Ry
     xc contribution           =    -495.75371068 Ry
     ewald contribution        =    9368.86470048 Ry
     electric field correction =       0.00182837 Ry

     convergence has been achieved in  82 iterations

     Forces acting on atoms (cartesian axes, Ry/au):

     atom    1 type  1   force =     0.00015579   -0.00027975    0.09583419
     atom    2 type  1   force =    -0.00022825   -0.00062745   -0.17569858
     atom    3 type  2   force =     0.00006325   -0.00014685   -0.02383785
     atom    4 type  2   force =     0.00006495   -0.00154525    0.05351471
     atom    5 type  2   force =    -0.01127789   -0.00076286    0.00355980
     atom    6 type  2   force =     0.01297917    0.00005786    0.00268366
     atom    7 type  1   force =    -0.00096897    0.00065363   -0.00792344
     atom    8 type  1   force =     0.00042767    0.00624487    0.02299960
     atom    9 type  2   force =    -0.00005486   -0.00031090   -0.00095459
     atom   10 type  2   force =    -0.00136463    0.00127872   -0.01512482
     atom   11 type  2   force =    -0.00031147    0.00024476   -0.00024180
     atom   12 type  2   force =    -0.00021114    0.00022464   -0.00034231
     atom   13 type  1   force =     0.00074298   -0.00046301    0.00026278
     atom   14 type  1   force =    -0.00019506    0.00042470    0.00149522
     atom   15 type  2   force =     0.00001288   -0.00005024    0.00031132
     atom   16 type  2   force =     0.00026127    0.00005362    0.00011537
     atom   17 type  2   force =     0.00063938   -0.00024052    0.00035579
     atom   18 type  2   force =     0.00013866   -0.00044936    0.00045258
     atom   19 type  1   force =    -0.00124169    0.00021961    0.00060835
     atom   20 type  1   force =     0.00075096   -0.00000201   -0.00006095
     atom   21 type  2   force =     0.00008756   -0.00008856    0.10327701
     atom   22 type  2   force =    -0.00070295   -0.00048876   -0.00059915
     atom   23 type  2   force =    -0.07142355   -0.00018580   -0.02769507
     atom   24 type  2   force =     0.07139252    0.00027528   -0.02769835
     atom   25 type  1   force =     0.00002849   -0.00031286    0.09554704
     atom   26 type  1   force =    -0.00017542   -0.00031483   -0.17596997
     atom   27 type  2   force =     0.00009742   -0.00011830   -0.02293985
     atom   28 type  2   force =     0.00011419   -0.00127443    0.05316660
     atom   29 type  2   force =    -0.01152610    0.00015124    0.00361898
     atom   30 type  2   force =     0.01317634    0.00046349    0.00270977
     atom   31 type  1   force =    -0.00101163    0.00373374   -0.01103877
     atom   32 type  1   force =     0.00051197   -0.00741041    0.02340300
     atom   33 type  2   force =    -0.00023938    0.00031279   -0.00032387
     atom   34 type  2   force =    -0.00033284    0.00024910   -0.02185124
     atom   35 type  2   force =     0.00010212    0.00030191   -0.00037833
     atom   36 type  2   force =    -0.00036765    0.00030517   -0.00030060
     atom   37 type  1   force =     0.00040404    0.00057435   -0.00027264
     atom   38 type  1   force =    -0.00023492   -0.00042189    0.00133174
     atom   39 type  2   force =    -0.00006939   -0.00029325    0.00037652
     atom   40 type  2   force =     0.00032060    0.00009210   -0.00084702
     atom   41 type  2   force =     0.00117388    0.00051350    0.00013789
     atom   42 type  2   force =    -0.00069036    0.00030520    0.00002985
     atom   43 type  1   force =    -0.00095513   -0.00107251   -0.00010842
     atom   44 type  1   force =     0.00077343    0.00045955   -0.00018140
     atom   45 type  2   force =     0.00008717   -0.00010227    0.10327749
     atom   46 type  2   force =    -0.07143447   -0.00013723   -0.02767718
     atom   47 type  2   force =     0.07143511    0.00029648   -0.02770716
     atom   48 type  3   force =    -0.00089439   -0.00069048   -0.00077199
     atom   49 type  3   force =    -0.00066675    0.00037468   -0.00066054
     atom   50 type  4   force =     0.00118028   -0.00183448    0.00097284
     atom   51 type  5   force =    -0.00026277    0.00077279   -0.00014942
     atom   52 type  5   force =    -0.00180893    0.00174727   -0.00080409
     atom   53 type  5   force =     0.00127772   -0.00045503    0.00098861
     atom   54 type  5   force =     0.00011103    0.00010946    0.00007240
     atom   55 type  5   force =     0.00019337   -0.00010613    0.00050836
     atom   56 type  2   force =    -0.00078858   -0.00003685   -0.00005940
     atom   57 type  5   force =     0.00076158   -0.00004960   -0.00002016
     atom   58 type  5   force =    -0.00002664   -0.00016863    0.00062753

     Total force =     0.366754     Total SCF correction =     0.000508
  @ DRIVER MODE: Message from server: STATUS
  @ DRIVER MODE: Message from server: GETFORCE
  @ DRIVER MODE: Returning v,forces,stress,ensemble

     Writing output data file ./calc.save/
  @ DRIVER MODE: Message from server: EXIT
  @ DRIVE MODE: Exiting

     General routines

     Parallel routines

   This run was terminated on:   0:53:47  16Sep2021

   JOB DONE.