     Program PWSCF v.6.7GPU starts on 15Sep2021 at 19:19:18

     R & G space division:  proc/nbgrp/npool/nimage =      10
     Reading input from /storage/home/hcoda1/3/ntian30/research/carbon/CxH_vib/H2O_calc/ads_slab/CH2NNHHHH2O_a/out_0011/pw.inp
Warning: card &CELL ignored
Warning: card   CELL_DYNAMICS='IPI', ignored
Warning: card / ignored

     Current dimensions of program PWSCF are:
     Max number of different atomic species (ntypx) = 10
     Max number of k-points (npk) =  40000
     Max angular momentum in pseudopotentials (lmaxx) =  3
     Presently no symmetry can be used with electric field

     Message from routine cell_base_init:
     DEPRECATED: use true lattice parameter, not A to a.u. conversion factor

     IMPORTANT: XC functional enforced from input :
     Exchange-correlation= BEEF-VDW
                           (   1   4  43  14   2   0   0)
     Any further DFT definition will be discarded
     Please, verify this is what you really want

  @ DRIVER MODE: Connecting to
 qe_1139763_2852612.sched-torque.pace.gatech.eduw9l4d95p_scratch
  using UNIX socket
  @ DRIVER MODE: Message from server: STATUS
  @ DRIVER MODE: Message from server: INIT
  @ DRIVER MODE: Receiving replica           0          -1
  @ DRIVER MODE: Receiving encoded integer          25
  @ DRIVER MODE:  SCF:  T  FORCE:  T  STRESS:  F  VC:  F  ENSEMBLE:  F
  @ DRIVER MODE:  SCF:  T  FORCE:  T  STRESS:  F  VC:  F  ENSEMBLE:  F

     Using Slab Decomposition

     bravais-lattice index     =            0
     lattice parameter (alat)  =       1.8897  a.u.
     unit-cell volume          =    6658.9804 (a.u.)^3
     number of atoms/cell      =           58
     number of atomic types    =            5
     number of electrons       =       405.00
     number of Kohn-Sham states=          212
     kinetic-energy cutoff     =      29.3995  Ry
     charge density cutoff     =     293.9946  Ry
     scf convergence threshold =      7.3E-08
     mixing beta               =       0.0500
     number of iterations used =            8  plain     mixing
     Exchange-correlation= BEEF-VDW
                           (   1   4  43  14   2   0   0)

     celldm(1)=   1.889726  celldm(2)=   0.000000  celldm(3)=   0.000000
     celldm(4)=   0.000000  celldm(5)=   0.000000  celldm(6)=   0.000000

     crystal axes: (cart. coord. in units of alat)
               a(1) = (   6.579727   0.000000   0.000000 )
               a(2) = (  -0.000775   5.961596   0.000000 )
               a(3) = (   0.000000   0.000000  25.155947 )

     reciprocal axes: (cart. coord. in units 2 pi/alat)
               b(1) = (  0.151982  0.000020  0.000000 )
               b(2) = (  0.000000  0.167740  0.000000 )
               b(3) = (  0.000000  0.000000  0.039752 )

     PseudoPot. # 1 for Ti read from file:
     /storage/coda1/p-amedford6/0/shared/rich_project_chbe-medford/medford-share/data/pseudos_module/espresso/nninc/pbe/van/Ti.UPF
     MD5 check sum: 8e4df49b7f0d34bbd5052bf3f5ea0213
     Pseudo is Ultrasoft, Zval = 12.0
     Generated by new atomic code, or converted to UPF format
     Using radial grid of  851 points,  6 beta functions with:
                l(1) =   0
                l(2) =   0
                l(3) =   1
                l(4) =   1
                l(5) =   2
                l(6) =   2
     Q(r) pseudized with  8 coefficients,  rinner =    1.000   1.000   1.000
                                                       1.000   1.000

     PseudoPot. # 2 for O  read from file:
     /storage/coda1/p-amedford6/0/shared/rich_project_chbe-medford/medford-share/data/pseudos_module/espresso/nninc/pbe/van/O.UPF
     MD5 check sum: 78c19812648e8988a0fe644b0f25305e
     Pseudo is Ultrasoft, Zval =  6.0
     Generated by new atomic code, or converted to UPF format
     Using radial grid of  737 points,  4 beta functions with:
                l(1) =   0
                l(2) =   0
                l(3) =   1
                l(4) =   1
     Q(r) pseudized with  8 coefficients,  rinner =    0.800   0.800   0.800

     PseudoPot. # 3 for N  read from file:
     /storage/coda1/p-amedford6/0/shared/rich_project_chbe-medford/medford-share/data/pseudos_module/espresso/nninc/pbe/van/N.UPF
     MD5 check sum: 90d10febe142ad51ac9d5be1deb811c4
     Pseudo is Ultrasoft, Zval =  5.0
     Generated by new atomic code, or converted to UPF format
     Using radial grid of  729 points,  4 beta functions with:
                l(1) =   0
                l(2) =   0
                l(3) =   1
                l(4) =   1
     Q(r) pseudized with  8 coefficients,  rinner =    0.800   0.800   0.800

     PseudoPot. # 4 for C  read from file:
     /storage/coda1/p-amedford6/0/shared/rich_project_chbe-medford/medford-share/data/pseudos_module/espresso/nninc/pbe/van/C.UPF
     MD5 check sum: 1a69bf6b8db32088f5b2163dbdb77a27
     Pseudo is Ultrasoft, Zval =  4.0
     Generated by new atomic code, or converted to UPF format
     Using radial grid of  721 points,  4 beta functions with:
                l(1) =   0
                l(2) =   0
                l(3) =   1
                l(4) =   1
     Q(r) pseudized with  8 coefficients,  rinner =    0.800   0.800   0.800

     PseudoPot. # 5 for H  read from file:
     /storage/coda1/p-amedford6/0/shared/rich_project_chbe-medford/medford-share/data/pseudos_module/espresso/nninc/pbe/van/H.UPF
     MD5 check sum: b5ee9d7bfd3a09ee7748110bda690ff7
     Pseudo is Ultrasoft, Zval =  1.0
     Generated by new atomic code, or converted to UPF format
     Using radial grid of  615 points,  1 beta functions with:
                l(1) =   0
     Q(r) pseudized with  8 coefficients,  rinner =    0.800

     atomic species   valence    mass     pseudopotential
        Ti1           12.00    47.86700     Ti( 1.00)
        O1             6.00    15.99900     O ( 1.00)
        N1             5.00    14.00700     N ( 1.00)
        C1             4.00    12.01100     C ( 1.00)
        H1             1.00     1.00800     H ( 1.00)

     No symmetry found

   Cartesian axes

     site n.     atom                  positions (alat units)
         1           Ti1 tau(   1) = (   0.0004258   2.9801865   6.0000000  )
         2           Ti1 tau(   2) = (   3.2906075   1.4906267   6.0002472  )
         3           O1  tau(   3) = (   0.0006271   0.0005054   7.9858123  )
         4           O1  tau(   4) = (   3.2906025   0.0005020   7.3038282  )
         5           O1  tau(   5) = (   4.5942328   1.4918067   9.2879030  )
         6           O1  tau(   6) = (   1.9868534   1.4903216   9.2879459  )
         7           Ti1 tau(   7) = (   3.2907910   2.8959150   9.1758416  )
         8           Ti1 tau(   8) = (   0.0015273   1.4827037   9.2680791  )
         9           O1  tau(   9) = (   3.2987819   5.9401718  11.3551833  )
        10           O1  tau(  10) = (   0.0116148   5.9584955  10.6183126  )
        11           O1  tau(  11) = (   1.3094369   1.4889762  12.6418845  )
        12           O1  tau(  12) = (   5.3041503   1.4933078  12.6143371  )
        13           Ti1 tau(  13) = (   0.0302489   2.9730182  12.5448133  )
        14           Ti1 tau(  14) = (   3.3273137   1.4751619  12.4920661  )
        15           O1  tau(  15) = (   6.5331299   0.0759724  14.6728253  )
        16           O1  tau(  16) = (   3.3443954   0.0128112  13.9985917  )
        17           O1  tau(  17) = (   4.5384157   1.5150964  16.2525342  )
        18           O1  tau(  18) = (   2.0107438   1.5096167  16.1239609  )
        19           Ti1 tau(  19) = (   3.2468703   2.9375149  15.6823127  )
        20           Ti1 tau(  20) = (   6.5402329   1.3810098  16.1103674  )
        21           O1  tau(  21) = (   3.2904802   0.0005063   4.7018136  )
        22           O1  tau(  22) = (   0.0855018   5.8309792  17.2460454  )
        23           O1  tau(  23) = (   1.3043587   1.4918075   6.0039043  )
        24           O1  tau(  24) = (   5.2767064   1.4903225   6.0039473  )
        25           Ti1 tau(  25) = (   0.0000382   5.9609847   6.0000000  )
        26           Ti1 tau(  26) = (   3.2902200   4.4714249   6.0002472  )
        27           O1  tau(  27) = (   0.0002396   2.9813036   7.9858123  )
        28           O1  tau(  28) = (   3.2902150   2.9813002   7.3038282  )
        29           O1  tau(  29) = (   4.5938453   4.4726049   9.2879030  )
        30           O1  tau(  30) = (   1.9864658   4.4711199   9.2879459  )
        31           Ti1 tau(  31) = (   3.2891106   5.8743827   9.1763621  )
        32           Ti1 tau(  32) = (   0.0006254   4.4649316   9.2693709  )
        33           O1  tau(  33) = (   3.2978634   2.9839445  11.3486163  )
        34           O1  tau(  34) = (   0.0092240   2.9805883  10.6323155  )
        35           O1  tau(  35) = (   1.3057425   4.4725738  12.6940039  )
        36           O1  tau(  36) = (   5.3035974   4.4670288  12.6562451  )
        37           Ti1 tau(  37) = (   0.0240142   0.0094741  12.5095027  )
        38           Ti1 tau(  38) = (   3.3290383   4.4615466  12.5202027  )
        39           O1  tau(  39) = (   6.5484913   2.9337383  14.8377676  )
        40           O1  tau(  40) = (   3.3243726   2.9440003  13.9069550  )
        41           O1  tau(  41) = (   4.5478640   4.3999133  16.1372545  )
        42           O1  tau(  42) = (   2.0209518   4.4226222  15.9786897  )
        43           Ti1 tau(  43) = (   3.3220059   5.9437776  15.8132296  )
        44           Ti1 tau(  44) = (   0.0730556   4.5544523  15.7304118  )
        45           O1  tau(  45) = (   3.2900926   2.9813045   4.7018136  )
        46           O1  tau(  46) = (   1.3039711   4.4726057   6.0039043  )
        47           O1  tau(  47) = (   5.2763189   4.4711207   6.0039473  )
        48           N1  tau(  48) = (   0.0453545   2.8788619  17.9090770  )
        49           C1  tau(  49) = (   1.0089482   2.8008358  18.8331878  )
        50           H1  tau(  50) = (   1.0080222   3.4413729  19.7168629  )
        51           H1  tau(  51) = (   1.8954070   2.2543435  18.5800802  )
        52           N1  tau(  52) = (   5.5320326   3.6725468  18.4365114  )
        53           H1  tau(  53) = (   5.8975581   4.6271042  18.6377988  )
        54           H1  tau(  54) = (   4.8553295   3.8628436  17.6443034  )
        55           H1  tau(  55) = (   5.1025442   3.2364756  19.2632064  )
        56           O1  tau(  56) = (   2.8928424   5.6518753  18.2681889  )
        57           H1  tau(  57) = (   3.0708471   0.5134993  18.7460362  )
        58           H1  tau(  58) = (   1.9180978   5.6479514  18.1114729  )

     number of k points=    10  Fermi-Dirac smearing, width (Ry)=  0.0073
                       cart. coord. in units 2pi/alat
        k(    1) = (   0.0000000   0.0000000   0.0000000), wk =   0.1250000
        k(    2) = (   0.0000000   0.0419351   0.0000000), wk =   0.2500000
        k(    3) = (   0.0000000  -0.0838702   0.0000000), wk =   0.1250000
        k(    4) = (   0.0379955   0.0000049   0.0000000), wk =   0.2500000
        k(    5) = (   0.0379955   0.0419400   0.0000000), wk =   0.2500000
        k(    6) = (   0.0379955  -0.0838652   0.0000000), wk =   0.2500000
        k(    7) = (   0.0379955  -0.0419301   0.0000000), wk =   0.2500000
        k(    8) = (  -0.0759910  -0.0000099   0.0000000), wk =   0.1250000
        k(    9) = (  -0.0759910   0.0419252   0.0000000), wk =   0.2500000
        k(   10) = (  -0.0759910  -0.0838800   0.0000000), wk =   0.1250000

     Initial potential from superposition of free atoms

     starting charge  388.99913, renormalised to  405.00000

     negative rho (up, down):  1.580E-02 0.000E+00

     %%%%%%%%%%%%%%%%%%%%%%%%%%%%%%%%%%%%%%%%%%%%%%%%%%%%%%%%%%%%%%%%%%%%%%%%
     %                                                                      %
     % You are using vdW-DF, which was implemented by the Thonhauser group. %
     % Please cite the following two papers that made this development      %
     % possible and the two reviews that describe the various versions:     %
     %                                                                      %
     %   T. Thonhauser et al., PRL 115, 136402 (2015).                      %
     %   T. Thonhauser et al., PRB 76, 125112 (2007).                       %
     %   K. Berland et al., Rep. Prog. Phys. 78, 066501 (2015).             %
     %   D.C. Langreth et al., J. Phys.: Condens. Matter 21, 084203 (2009). %
     %                                                                      %
     %                                                                      %
     % If you are calculating the stress with vdW-DF, please also cite:     %
     %                                                                      %
     %   R. Sabatini et al., J. Phys.: Condens. Matter 24, 424209 (2012).   %
     %                                                                      %
     %%%%%%%%%%%%%%%%%%%%%%%%%%%%%%%%%%%%%%%%%%%%%%%%%%%%%%%%%%%%%%%%%%%%%%%%

     Adding external electric field

     Computed dipole along edir(3) :
        Dipole              -14.4785 Ry au,        -36.8007 Debye
        Dipole field         -0.0273 Ry au,

        Potential amp.        2.5328 Ry
        Total length         46.3494 bohr

     Starting wfcs are  307 atomic wfcs
  @ DRIVER MODE: Message from server: STATUS
  @ DRIVER MODE: Message from server: POSDATA
  @ DRIVER MODE: Reading and sharing cell
  @ DRIVER MODE: Reading and sharing positions
  @ DRIVER MODE: Received positions

     Self-consistent Calculation

     iteration #  1     ecut=    29.40 Ry     beta= 0.05
     Davidson diagonalization with overlap
     c_bands:  2 eigenvalues not converged
     c_bands:  5 eigenvalues not converged
     c_bands:  1 eigenvalues not converged
     c_bands:  3 eigenvalues not converged
     c_bands:  3 eigenvalues not converged
     c_bands:  4 eigenvalues not converged
     ethr =  1.00E-05,  avg # of iterations = 27.0

[...]

     total energy              =   -2173.27771038 Ry
     estimated scf accuracy    <    9120.92401841 Ry

     iteration #  2     ecut=    29.40 Ry     beta= 0.05
     Davidson diagonalization with overlap
     ethr =  1.00E-02,  avg # of iterations = 29.6

[...]

     iteration # 79     ecut=    29.40 Ry     beta= 0.05
     Davidson diagonalization with overlap
     ethr =  2.37E-11,  avg # of iterations =  9.1

[...]

     total energy              =   -2976.32703447 Ry
     estimated scf accuracy    <       0.00000009 Ry

     iteration # 80     ecut=    29.40 Ry     beta= 0.05
     Davidson diagonalization with overlap
     c_bands:  1 eigenvalues not converged
     ethr =  2.15E-11,  avg # of iterations =  9.5

     negative rho (up, down):  1.310E-02 0.000E+00

     Adding external electric field

     Computed dipole along edir(3) :
        Dipole                1.3427 Ry au,          3.4129 Debye
        Dipole field          0.0025 Ry au,

        Potential amp.       -0.2349 Ry
        Total length         46.3494 bohr

     End of self-consistent calculation

          k = 0.0000 0.0000 0.0000 ( 18029 PWs)   bands (ev):

   -55.1661 -55.1369 -55.1250 -55.1028 -55.0867 -55.0435 -55.0025 -54.9760
   -54.9650 -54.9496 -54.9404 -54.9322 -54.8666 -54.7205 -54.1489 -54.1148
   -31.7328 -31.6266 -31.5309 -31.4971 -31.4758 -31.4682 -31.4651 -31.4268
   -31.4040 -31.3819 -31.3760 -31.3738 -31.3624 -31.3404 -31.3141 -31.3110
   -31.3011 -31.2896 -31.2840 -31.2792 -31.2482 -31.2312 -31.2247 -31.2051
   -31.1938 -31.1761 -31.1743 -31.1735 -31.1646 -31.1619 -31.1454 -31.1361
   -31.1261 -31.1249 -31.1027 -31.0952 -31.0912 -31.0735 -31.0484 -31.0123
   -30.9973 -30.8663 -30.5573 -30.4654 -30.4432 -30.3739 -30.2872 -30.1761
   -19.1225 -18.8070 -16.0038 -15.7470 -15.6195 -15.4412 -15.3610 -15.2075
   -15.1386 -15.0562 -15.0326 -14.9632 -14.9272 -14.8940 -14.7811 -14.7741
   -14.7018 -14.7006 -14.6939 -14.6605 -14.6567 -14.6552 -14.5961 -14.5928
   -14.5534 -14.5423 -14.5301 -14.3881 -14.3129 -14.2559 -14.1367 -13.9891
   -12.6513 -12.5342  -9.0144  -7.7071  -6.9680  -6.5564  -5.7863  -3.8384
    -3.3418  -3.2133  -3.1700  -3.1129  -3.0664  -2.9936  -2.8897  -2.7687
    -2.5499  -2.4736  -2.4325  -2.3838  -2.3752  -2.3284  -2.2424  -2.1567
    -2.1238  -2.0887  -2.0395  -2.0232  -1.9813  -1.9553  -1.9363  -1.8946
    -1.8875  -1.7393  -1.6831  -1.6245  -1.5777  -1.5650  -1.5535  -1.4968
    -1.4840  -1.4608  -1.4579  -1.4481  -1.4193  -1.3821  -1.3776  -1.3267
    -1.2942  -1.1606  -1.0889  -0.9755  -0.9208  -0.8810  -0.7950  -0.7265
    -0.7102  -0.6378  -0.5754  -0.5541  -0.4968  -0.4637  -0.3704  -0.3378
    -0.2888  -0.2604  -0.1524  -0.1386  -0.1242  -0.0537   0.0376   0.0456
     0.0708   0.1107   0.1991   0.2332   0.2888   0.3151   0.4153   0.4466
     0.4879   0.5050   0.5306   0.6132   0.6817   0.7211   0.7821   0.7914
     0.8258   0.8309   0.8532   0.9473   0.9774   0.9839   1.0318   1.1982
     1.2523   1.4554   1.4569   1.7878   1.8233   1.8739   2.0602   2.4478
     2.4951   3.9329   3.9990   4.0472   4.0647   4.0831   4.1420   4.1757
     4.4032   4.4263   4.4404   4.4519

[...]

          k = 0.0380-0.0419 0.0000 ( 17876 PWs)   bands (ev):

[...]

          k =-0.0760-0.0000 0.0000 ( 17886 PWs)   bands (ev):

[...]

          k =-0.0760-0.0839 0.0000 ( 17948 PWs)   bands (ev):

   -55.1553 -55.1356 -55.1198 -55.1197 -55.0845 -55.0343 -55.0116 -54.9604
   -54.9547 -54.9516 -54.9500 -54.9483 -54.8648 -54.7222 -54.1318 -54.1318
   -31.5439 -31.5290 -31.4419 -31.4418 -31.4417 -31.4321 -31.4122 -31.4121
   -31.3778 -31.3722 -31.3627 -31.3609 -31.3308 -31.3028 -31.2951 -31.2930
   -31.2904 -31.2868 -31.2843 -31.2796 -31.2707 -31.2566 -31.2427 -31.2391
   -31.2390 -31.2371 -31.2346 -31.2085 -31.1936 -31.1856 -31.1747 -31.1701
   -31.1697 -31.1691 -31.1506 -31.1491 -31.1299 -31.1275 -31.0665 -31.0046
   -31.0009 -30.9405 -30.4558 -30.4558 -30.3699 -30.3698 -30.3306 -30.3306
   -19.1154 -18.8097 -15.5060 -15.3709 -15.3307 -15.2444 -15.1593 -15.1422
   -15.1348 -15.1022 -15.0493 -14.9900 -14.9440 -14.9095 -14.8678 -14.8666
   -14.8540 -14.7531 -14.7420 -14.7345 -14.7177 -14.6693 -14.6596 -14.6428
   -14.6176 -14.6159 -14.5907 -14.5102 -14.5092 -14.4128 -14.3216 -14.0902
   -12.6358 -12.6357  -9.0018  -7.7228  -6.9248  -6.5465  -5.8006  -3.9188
    -3.0201  -2.7633  -2.5687  -2.5411  -2.4218  -2.3698  -2.3235  -2.3026
    -2.2174  -2.1760  -2.1594  -2.1546  -2.1339  -2.0788  -2.0549  -2.0163
    -1.9958  -1.9818  -1.9748  -1.9492  -1.9441  -1.9139  -1.8978  -1.8773
    -1.8714  -1.8356  -1.7962  -1.7857  -1.7475  -1.7285  -1.7186  -1.6644
    -1.5630  -1.5306  -1.4860  -1.4204  -1.3561  -1.3525  -1.2900  -1.2758
    -1.2489  -1.2266  -1.1907  -1.1784  -1.0919  -1.0108  -0.9045  -0.8918
    -0.8864  -0.7841  -0.7485  -0.7064  -0.6773  -0.6387  -0.5834  -0.5069
    -0.5006  -0.4224  -0.3845  -0.3732  -0.3539  -0.2160  -0.1824  -0.1498
    -0.1246  -0.1202  -0.0694  -0.0234   0.0070   0.0444   0.0717   0.1045
     0.1208   0.1962   0.3312   0.3653   0.4051   0.5376   0.5670   0.6805
     0.7071   0.8279   0.9019   0.9458   0.9670   1.0442   1.1188   1.1430
     1.1489   1.2602   1.3110   1.3130   1.3302   2.2327   2.2342   2.3151
     2.3153   3.7875   4.0776   4.2037   4.2199   4.2612   4.3842   4.4503
     4.4851   4.5076   4.5103   4.5937

     the Fermi energy is     3.9818 ev

!    total energy              =   -2976.32704320 Ry
     estimated scf accuracy    <       0.00000003 Ry
     smearing contrib. (-TS)   =      -0.04075164 Ry
     internal energy E=F+TS    =   -2976.28629156 Ry

     The total energy is F=E-TS. E is the sum of the following terms:
     one-electron contribution =  -23822.76820873 Ry
     hartree contribution      =   12010.26481269 Ry
     xc contribution           =    -495.76259763 Ry
     ewald contribution        =    9331.97629975 Ry
     electric field correction =       0.00340237 Ry

     convergence has been achieved in  80 iterations

     Forces acting on atoms (cartesian axes, Ry/au):

     atom    1 type  1   force =     0.00015886   -0.00019856    0.09424820
     atom    2 type  1   force =    -0.00012019   -0.00035889   -0.17722272
     atom    3 type  2   force =     0.00008472    0.00003281   -0.02134403
     atom    4 type  2   force =     0.00001835   -0.00174364    0.05668834
     atom    5 type  2   force =    -0.01044821   -0.00127599    0.00673256
     atom    6 type  2   force =     0.01220481   -0.00072070    0.00624811
     atom    7 type  1   force =    -0.00028739    0.00287693   -0.01264201
     atom    8 type  1   force =    -0.00014299    0.00440078    0.00454857
     atom    9 type  2   force =    -0.00036406    0.00009015    0.00075992
     atom   10 type  2   force =    -0.00008382   -0.00089745   -0.00641655
     atom   11 type  2   force =    -0.00042591   -0.00032927    0.00006611
     atom   12 type  2   force =    -0.00031167   -0.00042318    0.00015443
     atom   13 type  1   force =    -0.00034224   -0.00017010   -0.00039065
     atom   14 type  1   force =     0.00002901   -0.00043794   -0.00038513
     atom   15 type  2   force =    -0.00018077   -0.00008316    0.00009792
     atom   16 type  2   force =    -0.00065427    0.00022690   -0.00025387
     atom   17 type  2   force =    -0.00000759    0.00013536    0.00038931
     atom   18 type  2   force =     0.00020706   -0.00004447    0.00042343
     atom   19 type  1   force =     0.00030682   -0.00105891   -0.00027332
     atom   20 type  1   force =     0.00004726   -0.00049126   -0.00033386
     atom   21 type  2   force =     0.00004505    0.00001802    0.10365954
     atom   22 type  2   force =    -0.00027909    0.00002420    0.00116194
     atom   23 type  2   force =    -0.07083772   -0.00011174   -0.02715401
     atom   24 type  2   force =     0.07073538    0.00032571   -0.02718664
     atom   25 type  1   force =    -0.00006508   -0.00022392    0.09367156
     atom   26 type  1   force =    -0.00013680   -0.00041607   -0.17736341
     atom   27 type  2   force =     0.00014907   -0.00038637   -0.02030321
     atom   28 type  2   force =     0.00005222   -0.00138037    0.05583976
     atom   29 type  2   force =    -0.01030911   -0.00029560    0.00538811
     atom   30 type  2   force =     0.01198084    0.00010365    0.00502540
     atom   31 type  1   force =    -0.00017863    0.00358853   -0.01530062
     atom   32 type  1   force =    -0.00019307   -0.00485959    0.00439680
     atom   33 type  2   force =    -0.00006920   -0.00017040    0.00031400
     atom   34 type  2   force =     0.00120484    0.00259585   -0.00429604
     atom   35 type  2   force =    -0.00071386   -0.00016336    0.00018345
     atom   36 type  2   force =    -0.00000705   -0.00002998    0.00046304
     atom   37 type  1   force =     0.00039448    0.00042525   -0.00035209
     atom   38 type  1   force =    -0.00000418    0.00053432   -0.00161194
     atom   39 type  2   force =     0.00028520   -0.00040175   -0.00004679
     atom   40 type  2   force =     0.00004437    0.00005387    0.00064525
     atom   41 type  2   force =    -0.00008187   -0.00038157    0.00013298
     atom   42 type  2   force =     0.00031222   -0.00040394    0.00022543
     atom   43 type  1   force =    -0.00068118    0.00077251    0.00032340
     atom   44 type  1   force =    -0.00020568    0.00021729   -0.00076677
     atom   45 type  2   force =     0.00003918   -0.00002553    0.10365796
     atom   46 type  2   force =    -0.07087285   -0.00005964   -0.02715377
     atom   47 type  2   force =     0.07076875    0.00034452   -0.02718498
     atom   48 type  3   force =    -0.00584528    0.00023110   -0.00811902
     atom   49 type  4   force =     0.00456391    0.00767542    0.01921073
     atom   50 type  5   force =     0.00109901   -0.00574235   -0.00814293
     atom   51 type  5   force =     0.00104821   -0.00126019   -0.00286391
     atom   52 type  3   force =     0.00128706   -0.00039062    0.00038964
     atom   53 type  5   force =    -0.00114561    0.00005314    0.00035393
     atom   54 type  5   force =     0.00016225   -0.00034381    0.00004339
     atom   55 type  5   force =    -0.00063557   -0.00019328    0.00047856
     atom   56 type  2   force =    -0.00024935    0.00116234   -0.00043310
     atom   57 type  5   force =    -0.00019118   -0.00077195    0.00041194
     atom   58 type  5   force =    -0.00115744    0.00035689    0.00120765

     Total force =     0.366228     Total SCF correction =     0.000562
  @ DRIVER MODE: Message from server: STATUS
  @ DRIVER MODE: Message from server: GETFORCE
  @ DRIVER MODE: Returning v,forces,stress,ensemble

     Writing output data file ./calc.save/
  @ DRIVER MODE: Message from server: EXIT
  @ DRIVE MODE: Exiting

     General routines

     Parallel routines

   This run was terminated on:  19:41:43  15Sep2021

   JOB DONE.