     Program PWSCF v.6.7GPU starts on  9Sep2021 at  0:41:38

     R & G space division:  proc/nbgrp/npool/nimage =      10
     Reading input from /storage/home/hcoda1/3/ntian30/research/carbon/CxH_vib/CH_calc/ads_slab/CHOH_a/out_0008/pw.inp
Warning: card &CELL ignored
Warning: card   CELL_DYNAMICS='IPI', ignored
Warning: card / ignored

     Current dimensions of program PWSCF are:
     Max number of different atomic species (ntypx) = 10
     Max number of k-points (npk) =  40000
     Max angular momentum in pseudopotentials (lmaxx) =  3
     Presently no symmetry can be used with electric field

     Message from routine cell_base_init:
     DEPRECATED: use true lattice parameter, not A to a.u. conversion factor

     IMPORTANT: XC functional enforced from input :
     Exchange-correlation= BEEF-VDW
                           (   1   4  43  14   2   0   0)
     Any further DFT definition will be discarded
     Please, verify this is what you really want

  @ DRIVER MODE: Connecting to
 qe_1139763_2767384.sched-torque.pace.gatech.eduo87fhjq__scratch
  using UNIX socket
  @ DRIVER MODE: Message from server: STATUS
  @ DRIVER MODE: Message from server: INIT
  @ DRIVER MODE: Receiving replica           0          -1
  @ DRIVER MODE: Receiving encoded integer          25
  @ DRIVER MODE:  SCF:  T  FORCE:  T  STRESS:  F  VC:  F  ENSEMBLE:  F
  @ DRIVER MODE:  SCF:  T  FORCE:  T  STRESS:  F  VC:  F  ENSEMBLE:  F

     Using Slab Decomposition

     bravais-lattice index     =            0
     lattice parameter (alat)  =       1.8897  a.u.
     unit-cell volume          =    6658.9804 (a.u.)^3
     number of atoms/cell      =           51
     number of atomic types    =            4
     number of electrons       =       390.00
     number of Kohn-Sham states=          205
     kinetic-energy cutoff     =      29.3995  Ry
     charge density cutoff     =     293.9946  Ry
     scf convergence threshold =      7.3E-08
     mixing beta               =       0.0500
     number of iterations used =            8  plain     mixing
     Exchange-correlation= BEEF-VDW
                           (   1   4  43  14   2   0   0)

     celldm(1)=   1.889726  celldm(2)=   0.000000  celldm(3)=   0.000000
     celldm(4)=   0.000000  celldm(5)=   0.000000  celldm(6)=   0.000000

     crystal axes: (cart. coord. in units of alat)
               a(1) = (   6.579727   0.000000   0.000000 )
               a(2) = (  -0.000775   5.961596   0.000000 )
               a(3) = (   0.000000   0.000000  25.155947 )

     reciprocal axes: (cart. coord. in units 2 pi/alat)
               b(1) = (  0.151982  0.000020  0.000000 )
               b(2) = (  0.000000  0.167740  0.000000 )
               b(3) = (  0.000000  0.000000  0.039752 )

     PseudoPot. # 1 for Ti read from file:
     /storage/coda1/p-amedford6/0/shared/rich_project_chbe-medford/medford-share/data/pseudos_module/espresso/nninc/pbe/van/Ti.UPF
     MD5 check sum: 8e4df49b7f0d34bbd5052bf3f5ea0213
     Pseudo is Ultrasoft, Zval = 12.0
     Generated by new atomic code, or converted to UPF format
     Using radial grid of  851 points,  6 beta functions with:
                l(1) =   0
                l(2) =   0
                l(3) =   1
                l(4) =   1
                l(5) =   2
                l(6) =   2
     Q(r) pseudized with  8 coefficients,  rinner =    1.000   1.000   1.000
                                                       1.000   1.000

     PseudoPot. # 2 for O  read from file:
     /storage/coda1/p-amedford6/0/shared/rich_project_chbe-medford/medford-share/data/pseudos_module/espresso/nninc/pbe/van/O.UPF
     MD5 check sum: 78c19812648e8988a0fe644b0f25305e
     Pseudo is Ultrasoft, Zval =  6.0
     Generated by new atomic code, or converted to UPF format
     Using radial grid of  737 points,  4 beta functions with:
                l(1) =   0
                l(2) =   0
                l(3) =   1
                l(4) =   1
     Q(r) pseudized with  8 coefficients,  rinner =    0.800   0.800   0.800

     PseudoPot. # 3 for C  read from file:
     /storage/coda1/p-amedford6/0/shared/rich_project_chbe-medford/medford-share/data/pseudos_module/espresso/nninc/pbe/van/C.UPF
     MD5 check sum: 1a69bf6b8db32088f5b2163dbdb77a27
     Pseudo is Ultrasoft, Zval =  4.0
     Generated by new atomic code, or converted to UPF format
     Using radial grid of  721 points,  4 beta functions with:
                l(1) =   0
                l(2) =   0
                l(3) =   1
                l(4) =   1
     Q(r) pseudized with  8 coefficients,  rinner =    0.800   0.800   0.800

     PseudoPot. # 4 for H  read from file:
     /storage/coda1/p-amedford6/0/shared/rich_project_chbe-medford/medford-share/data/pseudos_module/espresso/nninc/pbe/van/H.UPF
     MD5 check sum: b5ee9d7bfd3a09ee7748110bda690ff7
     Pseudo is Ultrasoft, Zval =  1.0
     Generated by new atomic code, or converted to UPF format
     Using radial grid of  615 points,  1 beta functions with:
                l(1) =   0
     Q(r) pseudized with  8 coefficients,  rinner =    0.800

     atomic species   valence    mass     pseudopotential
        Ti1           12.00    47.86700     Ti( 1.00)
        O1             6.00    15.99900     O ( 1.00)
        C1             4.00    12.01100     C ( 1.00)
        H1             1.00     1.00800     H ( 1.00)

     No symmetry found

   Cartesian axes

     site n.     atom                  positions (alat units)
         1           Ti1 tau(   1) = (   0.0004258   2.9801865   6.0000000  )
         2           Ti1 tau(   2) = (   3.2906075   1.4906267   6.0002472  )
         3           O1  tau(   3) = (   0.0006271   0.0005054   7.9858123  )
         4           O1  tau(   4) = (   3.2906025   0.0005020   7.3038282  )
         5           O1  tau(   5) = (   4.5942328   1.4918067   9.2879030  )
         6           O1  tau(   6) = (   1.9868534   1.4903216   9.2879459  )
         7           Ti1 tau(   7) = (   3.3189338   3.0017716   9.1565052  )
         8           Ti1 tau(   8) = (   0.0346667   1.4969860   9.2640968  )
         9           O1  tau(   9) = (   3.3073125   0.0088267  11.3792119  )
        10           O1  tau(  10) = (   0.0062670   0.0029933  10.6068016  )
        11           O1  tau(  11) = (   1.3062705   1.5014067  12.6543524  )
        12           O1  tau(  12) = (   5.3087205   1.4988994  12.6673500  )
        13           Ti1 tau(  13) = (   0.0213988   2.9921491  12.5260324  )
        14           Ti1 tau(  14) = (   3.3097092   1.5009918  12.5223738  )
        15           O1  tau(  15) = (   0.0424616   0.0075488  14.6717754  )
        16           O1  tau(  16) = (   3.3005110   0.0073529  14.0105724  )
        17           O1  tau(  17) = (   4.5952227   1.5195780  16.1612446  )
        18           O1  tau(  18) = (   2.0693493   1.5297702  16.1935428  )
        19           Ti1 tau(  19) = (   3.3356741   2.9939547  15.7500326  )
        20           Ti1 tau(  20) = (   0.0335386   1.3679084  15.9371528  )
        21           O1  tau(  21) = (   3.2904802   0.0005063   4.7018136  )
        22           O1  tau(  22) = (   0.0353059   0.0153350  17.1923242  )
        23           O1  tau(  23) = (   1.3043587   1.4918075   6.0039043  )
        24           O1  tau(  24) = (   5.2767064   1.4903225   6.0039473  )
        25           Ti1 tau(  25) = (   0.0000382   5.9609847   6.0000000  )
        26           Ti1 tau(  26) = (   3.2902200   4.4714249   6.0002472  )
        27           O1  tau(  27) = (   0.0002396   2.9813036   7.9858123  )
        28           O1  tau(  28) = (   3.2902150   2.9813002   7.3038282  )
        29           O1  tau(  29) = (   4.5938453   4.4726049   9.2879030  )
        30           O1  tau(  30) = (   1.9864658   4.4711199   9.2879459  )
        31           Ti1 tau(  31) = (   3.3154861   0.0215470   9.1550440  )
        32           Ti1 tau(  32) = (   0.0344056   4.4691587   9.2644328  )
        33           O1  tau(  33) = (   3.3078462   2.9871797  11.3713074  )
        34           O1  tau(  34) = (   0.0058747   2.9832696  10.6292865  )
        35           O1  tau(  35) = (   1.3058732   4.4754499  12.6504552  )
        36           O1  tau(  36) = (   5.3084772   4.4777640  12.6640448  )
        37           Ti1 tau(  37) = (   0.0171148   0.0128214  12.4806662  )
        38           Ti1 tau(  38) = (   3.3088916   4.4784539  12.5193958  )
        39           O1  tau(  39) = (   0.0434956   2.9958159  14.9132474  )
        40           O1  tau(  40) = (   3.3089563   2.9921379  13.9620076  )
        41           O1  tau(  41) = (   4.5951427   4.4669482  16.1652122  )
        42           O1  tau(  42) = (   2.0688924   4.4538916  16.2081353  )
        43           Ti1 tau(  43) = (   3.3160161   0.0142155  15.8078792  )
        44           Ti1 tau(  44) = (   0.0219142   4.6036306  15.9252304  )
        45           O1  tau(  45) = (   3.2900926   2.9813045   4.7018136  )
        46           O1  tau(  46) = (   1.3039711   4.4726057   6.0039043  )
        47           O1  tau(  47) = (   5.2763189   4.4711207   6.0039473  )
        48           C1  tau(  48) = (   6.0523360   2.9466228  19.1488008  )
        49           O1  tau(  49) = (   0.2018362   3.0047394  18.0201065  )
        50           H1  tau(  50) = (   5.0152694   2.8496317  18.7632286  )
        51           H1  tau(  51) = (   1.1393832   3.0938607  18.2382470  )

     number of k points=    10  Fermi-Dirac smearing, width (Ry)=  0.0073
                       cart. coord. in units 2pi/alat
        k(    1) = (   0.0000000   0.0000000   0.0000000), wk =   0.1250000
        k(    2) = (   0.0000000   0.0419351   0.0000000), wk =   0.2500000
        k(    3) = (   0.0000000  -0.0838702   0.0000000), wk =   0.1250000
        k(    4) = (   0.0379955   0.0000049   0.0000000), wk =   0.2500000
        k(    5) = (   0.0379955   0.0419400   0.0000000), wk =   0.2500000
        k(    6) = (   0.0379955  -0.0838652   0.0000000), wk =   0.2500000
        k(    7) = (   0.0379955  -0.0419301   0.0000000), wk =   0.2500000
        k(    8) = (  -0.0759910  -0.0000099   0.0000000), wk =   0.1250000
        k(    9) = (  -0.0759910   0.0419252   0.0000000), wk =   0.2500000
        k(   10) = (  -0.0759910  -0.0838800   0.0000000), wk =   0.1250000

     Initial potential from superposition of free atoms

     starting charge  373.99919, renormalised to  390.00000

     negative rho (up, down):  1.784E-02 0.000E+00

     %%%%%%%%%%%%%%%%%%%%%%%%%%%%%%%%%%%%%%%%%%%%%%%%%%%%%%%%%%%%%%%%%%%%%%%%
     %                                                                      %
     % You are using vdW-DF, which was implemented by the Thonhauser group. %
     % Please cite the following two papers that made this development      %
     % possible and the two reviews that describe the various versions:     %
     %                                                                      %
     %   T. Thonhauser et al., PRL 115, 136402 (2015).                      %
     %   T. Thonhauser et al., PRB 76, 125112 (2007).                       %
     %   K. Berland et al., Rep. Prog. Phys. 78, 066501 (2015).             %
     %   D.C. Langreth et al., J. Phys.: Condens. Matter 21, 084203 (2009). %
     %                                                                      %
     %                                                                      %
     % If you are calculating the stress with vdW-DF, please also cite:     %
     %                                                                      %
     %   R. Sabatini et al., J. Phys.: Condens. Matter 24, 424209 (2012).   %
     %                                                                      %
     %%%%%%%%%%%%%%%%%%%%%%%%%%%%%%%%%%%%%%%%%%%%%%%%%%%%%%%%%%%%%%%%%%%%%%%%

     Adding external electric field

     Computed dipole along edir(3) :
        Dipole               -6.1554 Ry au,        -15.6454 Debye
        Dipole field         -0.0116 Ry au,

        Potential amp.        1.0768 Ry
        Total length         46.3494 bohr

     Starting wfcs are  294 atomic wfcs
  @ DRIVER MODE: Message from server: STATUS
  @ DRIVER MODE: Message from server: POSDATA
  @ DRIVER MODE: Reading and sharing cell
  @ DRIVER MODE: Reading and sharing positions
  @ DRIVER MODE: Received positions

     Self-consistent Calculation

     iteration #  1     ecut=    29.40 Ry     beta= 0.05
     Davidson diagonalization with overlap
     c_bands:  1 eigenvalues not converged
     c_bands:  1 eigenvalues not converged
     c_bands:  1 eigenvalues not converged
     ethr =  1.00E-05,  avg # of iterations = 16.7

[...]

     total energy              =   -2756.81399978 Ry
     estimated scf accuracy    <    1910.42049806 Ry

[...]

     iteration #  3     ecut=    29.40 Ry     beta= 0.05
     Davidson diagonalization with overlap
     ethr =  1.00E-02,  avg # of iterations = 14.4

[...]

     iteration # 70     ecut=    29.40 Ry     beta= 0.05
     Davidson diagonalization with overlap
     c_bands:  2 eigenvalues not converged
     c_bands:  2 eigenvalues not converged
     ethr =  2.82E-11,  avg # of iterations = 17.9

[...]

     total energy              =   -2929.94080365 Ry
     estimated scf accuracy    <       0.00000016 Ry

     iteration # 71     ecut=    29.40 Ry     beta= 0.05
     Davidson diagonalization with overlap
     ethr =  2.82E-11,  avg # of iterations = 15.1

     negative rho (up, down):  1.675E-02 0.000E+00

     Adding external electric field

     Computed dipole along edir(3) :
        Dipole                0.3823 Ry au,          0.9718 Debye
        Dipole field          0.0007 Ry au,

        Potential amp.       -0.0669 Ry
        Total length         46.3494 bohr

     End of self-consistent calculation

          k = 0.0000 0.0000 0.0000 ( 18029 PWs)   bands (ev):

   -56.0205 -55.9844 -55.9831 -55.9488 -55.9116 -55.9012 -55.8660 -55.8600
   -55.8573 -55.8229 -55.8085 -55.8083 -55.8023 -55.7685 -55.0805 -55.0464
   -32.5896 -32.5166 -32.4807 -32.3861 -32.3363 -32.3330 -32.3222 -32.3133
   -32.2724 -32.2661 -32.2290 -32.2270 -32.2186 -32.1951 -32.1884 -32.1737
   -32.1562 -32.1556 -32.1473 -32.1379 -32.1339 -32.1261 -32.1140 -32.1098
   -32.1014 -32.0856 -32.0783 -32.0396 -32.0341 -32.0266 -32.0226 -32.0107
   -32.0063 -32.0013 -31.9972 -31.9879 -31.9741 -31.9567 -31.9391 -31.9366
   -31.9150 -31.8851 -31.4928 -31.3897 -31.3682 -31.3091 -31.2228 -31.1116
   -21.5865 -16.8523 -16.6011 -16.4639 -16.3591 -16.2417 -16.1245 -16.0625
   -15.9642 -15.8589 -15.7448 -15.6961 -15.6733 -15.6714 -15.6504 -15.6424
   -15.6345 -15.5762 -15.5489 -15.5266 -15.5125 -15.5106 -15.4650 -15.4447
   -15.4116 -15.3753 -15.2519 -15.1816 -15.1238 -14.7882 -13.5812 -13.4616
   -10.7447  -5.9645  -5.0702  -4.2981  -4.1805  -4.0307  -3.9551  -3.9453
    -3.8971  -3.7815  -3.6059  -3.4498  -3.4431  -3.3163  -3.2731  -3.2270
    -3.1842  -3.0549  -3.0010  -2.9884  -2.9137  -2.9101  -2.8953  -2.8852
    -2.7978  -2.7862  -2.7675  -2.7572  -2.6480  -2.6082  -2.4885  -2.4559
    -2.4089  -2.3691  -2.3608  -2.3465  -2.3416  -2.2974  -2.2857  -2.2619
    -2.2062  -2.1500  -2.0552  -1.9246  -1.9158  -1.7986  -1.7634  -1.5992
    -1.5838  -1.5465  -1.5198  -1.4710  -1.4271  -1.4195  -1.3769  -1.2720
    -1.1923  -1.1408  -1.0640  -1.0290  -0.9604  -0.9197  -0.8439  -0.8135
    -0.8096  -0.7802  -0.6819  -0.6132  -0.5520  -0.5123  -0.4949  -0.4711
    -0.3860  -0.3605  -0.2646  -0.2512  -0.2113  -0.2031  -0.0911  -0.0825
    -0.0757  -0.0584  -0.0507   0.0371   0.1122   0.1251   0.1529   0.3081
     0.5261   0.5361   0.5771   0.8321   0.9203   0.9455   1.1047   1.2857
     1.5317   1.5861   3.0759   3.1436   3.1815   3.2034   3.2270   3.2842
     3.5656   3.5807   3.5864   3.6044   3.6313

[...]

          k = 0.0380-0.0419 0.0000 ( 17876 PWs)   bands (ev):

[...]

          k =-0.0760-0.0000 0.0000 ( 17886 PWs)   bands (ev):

[...]

          k =-0.0760-0.0839 0.0000 ( 17948 PWs)   bands (ev):

   -56.0035 -56.0012 -55.9673 -55.9645 -55.9085 -55.8920 -55.8692 -55.8593
   -55.8419 -55.8380 -55.8151 -55.8112 -55.7860 -55.7849 -55.0634 -55.0634
   -32.4415 -32.3942 -32.3913 -32.3091 -32.2968 -32.2943 -32.2758 -32.2603
   -32.2551 -32.2307 -32.2215 -32.2186 -32.2111 -32.1692 -32.1589 -32.1577
   -32.1564 -32.1513 -32.1473 -32.1450 -32.1398 -32.1319 -32.1130 -32.1020
   -32.1017 -32.0997 -32.0956 -32.0920 -32.0879 -32.0859 -32.0840 -32.0604
   -32.0402 -32.0394 -32.0385 -32.0211 -32.0131 -32.0120 -32.0021 -31.9793
   -31.9714 -31.9705 -31.3808 -31.3808 -31.3055 -31.3054 -31.2660 -31.2659
   -21.5856 -16.4717 -16.2572 -16.1947 -16.0405 -16.0356 -16.0051 -15.9772
   -15.8478 -15.8246 -15.8114 -15.7914 -15.7672 -15.7493 -15.7422 -15.7258
   -15.6221 -15.6150 -15.6042 -15.5982 -15.5390 -15.5355 -15.5255 -15.5124
   -15.4797 -15.4770 -15.4499 -15.4465 -15.2978 -15.1591 -13.5628 -13.5623
   -10.7479  -5.9668  -5.0477  -4.2466  -3.5339  -3.5317  -3.4536  -3.2596
    -3.2215  -3.1874  -3.1757  -3.0999  -3.0247  -3.0165  -3.0102  -2.9281
    -2.9215  -2.9183  -2.9163  -2.8535  -2.8475  -2.8102  -2.8056  -2.7557
    -2.7256  -2.7204  -2.7105  -2.6881  -2.6852  -2.6694  -2.6514  -2.6313
    -2.6186  -2.5337  -2.4902  -2.3906  -2.3586  -2.3270  -2.2519  -2.2429
    -2.1590  -2.1294  -2.1089  -2.0709  -2.0254  -2.0086  -1.8493  -1.8173
    -1.8125  -1.7492  -1.6773  -1.6542  -1.6243  -1.5686  -1.5052  -1.4957
    -1.4072  -1.3515  -1.3479  -1.2232  -1.2133  -1.1608  -1.0550  -1.0228
    -1.0141  -1.0107  -1.0019  -0.9391  -0.9282  -0.8633  -0.8136  -0.7658
    -0.7482  -0.7353  -0.5391  -0.4985  -0.4439  -0.3437  -0.3022  -0.1112
    -0.0965  -0.0829   0.0006   0.0383   0.0529   0.1263   0.2458   0.2506
     0.3039   0.3586   0.4008   0.4079   0.4252   1.2935   1.2965   1.2974
     1.4015   1.4035   3.2364   3.2923   3.3211   3.3986   3.4693   3.4978
     3.5847   3.6030   3.6307   3.6359   3.7318

     the Fermi energy is     3.1352 ev

!    total energy              =   -2929.94082214 Ry
     estimated scf accuracy    <       0.00000003 Ry
     smearing contrib. (-TS)   =      -0.03727153 Ry
     internal energy E=F+TS    =   -2929.90355062 Ry

     The total energy is F=E-TS. E is the sum of the following terms:
     one-electron contribution =  -24334.54944836 Ry
     hartree contribution      =   12249.86258401 Ry
     xc contribution           =    -481.18206086 Ry
     ewald contribution        =    9635.96509876 Ry
     electric field correction =       0.00027584 Ry

     convergence has been achieved in  71 iterations

     Forces acting on atoms (cartesian axes, Ry/au):

     atom    1 type  1   force =    -0.00041138   -0.00002114    0.09184349
     atom    2 type  1   force =    -0.00029462    0.00032529   -0.18373410
     atom    3 type  2   force =     0.00041171    0.00008197   -0.02346928
     atom    4 type  2   force =     0.00072353    0.00037616    0.05120912
     atom    5 type  2   force =    -0.01349737    0.00018783    0.00469382
     atom    6 type  2   force =     0.01513995   -0.00002702    0.00541959
     atom    7 type  1   force =    -0.00054298    0.00015169   -0.00020316
     atom    8 type  1   force =     0.00026305    0.00019464    0.00006359
     atom    9 type  2   force =     0.00004202   -0.00004321   -0.00016190
     atom   10 type  2   force =    -0.00021364    0.00004852    0.00038345
     atom   11 type  2   force =     0.00004052   -0.00014752   -0.00015356
     atom   12 type  2   force =     0.00011068   -0.00001911   -0.00009900
     atom   13 type  1   force =    -0.00023883    0.00083672   -0.00041553
     atom   14 type  1   force =     0.00015527    0.00000021    0.00016572
     atom   15 type  2   force =     0.00001502    0.00034739    0.00030919
     atom   16 type  2   force =     0.00000496    0.00008925    0.00052619
     atom   17 type  2   force =    -0.00027472   -0.00025453    0.00014679
     atom   18 type  2   force =    -0.00004142   -0.00049463    0.00012660
     atom   19 type  1   force =    -0.00021537    0.00011315    0.00028323
     atom   20 type  1   force =    -0.00014632    0.00053085    0.00060072
     atom   21 type  2   force =    -0.00007803    0.00001479    0.10503849
     atom   22 type  2   force =    -0.00014591   -0.00034301   -0.00023554
     atom   23 type  2   force =    -0.06789131   -0.00014322   -0.02654712
     atom   24 type  2   force =     0.06760677    0.00030043   -0.02662807
     atom   25 type  1   force =    -0.00035077   -0.00000064    0.09418316
     atom   26 type  1   force =    -0.00029824   -0.00042013   -0.18374612
     atom   27 type  2   force =     0.00036007    0.00013655   -0.02225535
     atom   28 type  2   force =     0.00077573    0.00030548    0.05092179
     atom   29 type  2   force =    -0.01348897    0.00044902    0.00481661
     atom   30 type  2   force =     0.01515045    0.00023663    0.00552409
     atom   31 type  1   force =    -0.00060350   -0.00030465   -0.00028750
     atom   32 type  1   force =     0.00027135   -0.00007957    0.00004269
     atom   33 type  2   force =     0.00000522    0.00003102   -0.00005140
     atom   34 type  2   force =    -0.00007374   -0.00005490    0.00007764
     atom   35 type  2   force =     0.00008312    0.00008467    0.00008976
     atom   36 type  2   force =     0.00006215   -0.00005124    0.00012160
     atom   37 type  1   force =    -0.00025518   -0.00076459   -0.00019132
     atom   38 type  1   force =     0.00020915    0.00008309    0.00070856
     atom   39 type  2   force =    -0.00011645   -0.00064229    0.00036477
     atom   40 type  2   force =    -0.00037433   -0.00017533   -0.00018449
     atom   41 type  2   force =    -0.00015338    0.00009495   -0.00010420
     atom   42 type  2   force =    -0.00008176    0.00015862   -0.00003193
     atom   43 type  1   force =    -0.00001246   -0.00019146   -0.00033544
     atom   44 type  1   force =    -0.00021170   -0.00038616    0.00047559
     atom   45 type  2   force =    -0.00004849    0.00002433    0.10502223
     atom   46 type  2   force =    -0.06790249   -0.00050992   -0.02656675
     atom   47 type  2   force =     0.06762104   -0.00006318   -0.02664340
     atom   48 type  3   force =     0.00576958    0.00047695   -0.00266468
     atom   49 type  2   force =    -0.02552373   -0.00217099   -0.00163990
     atom   50 type  4   force =     0.00108393    0.00007116   -0.00264399
     atom   51 type  4   force =     0.01758183    0.00155704    0.00583526

     Total force =     0.369236     Total SCF correction =     0.000410
  @ DRIVER MODE: Message from server: STATUS
  @ DRIVER MODE: Message from server: GETFORCE
  @ DRIVER MODE: Returning v,forces,stress,ensemble

     Writing output data file ./calc.save/
  @ DRIVER MODE: Message from server: EXIT
  @ DRIVE MODE: Exiting

     General routines

     Parallel routines

   This run was terminated on:   1: 1: 5   9Sep2021

   JOB DONE.