     Program PWSCF v.6.7GPU starts on 26Sep2021 at  1:53:38

     R & G space division:  proc/nbgrp/npool/nimage =       8
     Reading input from /storage/home/hcoda1/3/ntian30/research/carbon/CxH_vib/H2O_calc/ads_slab/CH3N2OHHO_l/out_0023/pw.inp
Warning: card &CELL ignored
Warning: card   CELL_DYNAMICS='IPI', ignored
Warning: card / ignored

     Current dimensions of program PWSCF are:
     Max number of different atomic species (ntypx) = 10
     Max number of k-points (npk) =  40000
     Max angular momentum in pseudopotentials (lmaxx) =  3
     Presently no symmetry can be used with electric field

     Message from routine cell_base_init:
     DEPRECATED: use true lattice parameter, not A to a.u. conversion factor

     IMPORTANT: XC functional enforced from input :
     Exchange-correlation= BEEF-VDW
                           (   1   4  43  14   2   0   0)
     Any further DFT definition will be discarded
     Please, verify this is what you really want

  @ DRIVER MODE: Connecting to
 qe_1139763_2971669.sched-torque.pace.gatech.eduvww8r0vx_scratch
  using UNIX socket
  @ DRIVER MODE: Message from server: STATUS
  @ DRIVER MODE: Message from server: INIT
  @ DRIVER MODE: Receiving replica           0          -1
  @ DRIVER MODE: Receiving encoded integer          25
  @ DRIVER MODE:  SCF:  T  FORCE:  T  STRESS:  F  VC:  F  ENSEMBLE:  F
  @ DRIVER MODE:  SCF:  T  FORCE:  T  STRESS:  F  VC:  F  ENSEMBLE:  F

     Using Slab Decomposition

     bravais-lattice index     =            0
     lattice parameter (alat)  =       1.8897  a.u.
     unit-cell volume          =    6658.9804 (a.u.)^3
     number of atoms/cell      =           57
     number of atomic types    =            5
     number of electrons       =       409.00
     number of Kohn-Sham states=          214
     kinetic-energy cutoff     =      29.3995  Ry
     charge density cutoff     =     293.9946  Ry
     scf convergence threshold =      7.3E-08
     mixing beta               =       0.0500
     number of iterations used =            8  plain     mixing
     Exchange-correlation= BEEF-VDW
                           (   1   4  43  14   2   0   0)

     celldm(1)=   1.889726  celldm(2)=   0.000000  celldm(3)=   0.000000
     celldm(4)=   0.000000  celldm(5)=   0.000000  celldm(6)=   0.000000

     crystal axes: (cart. coord. in units of alat)
               a(1) = (   6.579727   0.000000   0.000000 )
               a(2) = (  -0.000775   5.961596   0.000000 )
               a(3) = (   0.000000   0.000000  25.155947 )

     reciprocal axes: (cart. coord. in units 2 pi/alat)
               b(1) = (  0.151982  0.000020  0.000000 )
               b(2) = (  0.000000  0.167740  0.000000 )
               b(3) = (  0.000000  0.000000  0.039752 )

     PseudoPot. # 1 for Ti read from file:
     /storage/coda1/p-amedford6/0/shared/rich_project_chbe-medford/medford-share/data/pseudos_module/espresso/nninc/pbe/van/Ti.UPF
     MD5 check sum: 8e4df49b7f0d34bbd5052bf3f5ea0213
     Pseudo is Ultrasoft, Zval = 12.0
     Generated by new atomic code, or converted to UPF format
     Using radial grid of  851 points,  6 beta functions with:
                l(1) =   0
                l(2) =   0
                l(3) =   1
                l(4) =   1
                l(5) =   2
                l(6) =   2
     Q(r) pseudized with  8 coefficients,  rinner =    1.000   1.000   1.000
                                                       1.000   1.000

     PseudoPot. # 2 for O  read from file:
     /storage/coda1/p-amedford6/0/shared/rich_project_chbe-medford/medford-share/data/pseudos_module/espresso/nninc/pbe/van/O.UPF
     MD5 check sum: 78c19812648e8988a0fe644b0f25305e
     Pseudo is Ultrasoft, Zval =  6.0
     Generated by new atomic code, or converted to UPF format
     Using radial grid of  737 points,  4 beta functions with:
                l(1) =   0
                l(2) =   0
                l(3) =   1
                l(4) =   1
     Q(r) pseudized with  8 coefficients,  rinner =    0.800   0.800   0.800

     PseudoPot. # 3 for N  read from file:
     /storage/coda1/p-amedford6/0/shared/rich_project_chbe-medford/medford-share/data/pseudos_module/espresso/nninc/pbe/van/N.UPF
     MD5 check sum: 90d10febe142ad51ac9d5be1deb811c4
     Pseudo is Ultrasoft, Zval =  5.0
     Generated by new atomic code, or converted to UPF format
     Using radial grid of  729 points,  4 beta functions with:
                l(1) =   0
                l(2) =   0
                l(3) =   1
                l(4) =   1
     Q(r) pseudized with  8 coefficients,  rinner =    0.800   0.800   0.800

     PseudoPot. # 4 for C  read from file:
     /storage/coda1/p-amedford6/0/shared/rich_project_chbe-medford/medford-share/data/pseudos_module/espresso/nninc/pbe/van/C.UPF
     MD5 check sum: 1a69bf6b8db32088f5b2163dbdb77a27
     Pseudo is Ultrasoft, Zval =  4.0
     Generated by new atomic code, or converted to UPF format
     Using radial grid of  721 points,  4 beta functions with:
                l(1) =   0
                l(2) =   0
                l(3) =   1
                l(4) =   1
     Q(r) pseudized with  8 coefficients,  rinner =    0.800   0.800   0.800

     PseudoPot. # 5 for H  read from file:
     /storage/coda1/p-amedford6/0/shared/rich_project_chbe-medford/medford-share/data/pseudos_module/espresso/nninc/pbe/van/H.UPF
     MD5 check sum: b5ee9d7bfd3a09ee7748110bda690ff7
     Pseudo is Ultrasoft, Zval =  1.0
     Generated by new atomic code, or converted to UPF format
     Using radial grid of  615 points,  1 beta functions with:
                l(1) =   0
     Q(r) pseudized with  8 coefficients,  rinner =    0.800

     atomic species   valence    mass     pseudopotential
        Ti1           12.00    47.86700     Ti( 1.00)
        O1             6.00    15.99900     O ( 1.00)
        N1             5.00    14.00700     N ( 1.00)
        C1             4.00    12.01100     C ( 1.00)
        H1             1.00     1.00800     H ( 1.00)

     No symmetry found

   Cartesian axes

     site n.     atom                  positions (alat units)
         1           Ti1 tau(   1) = (   0.0004258   2.9801865   6.0000000  )
         2           Ti1 tau(   2) = (   3.2906075   1.4906267   6.0002472  )
         3           O1  tau(   3) = (   0.0006271   0.0005054   7.9858123  )
         4           O1  tau(   4) = (   3.2906025   0.0005020   7.3038282  )
         5           O1  tau(   5) = (   4.5942328   1.4918067   9.2879030  )
         6           O1  tau(   6) = (   1.9868534   1.4903216   9.2879459  )
         7           Ti1 tau(   7) = (   3.2907910   2.8959150   9.1758416  )
         8           Ti1 tau(   8) = (   0.0015273   1.4827037   9.2680791  )
         9           O1  tau(   9) = (   3.2779673   5.9607700  11.3423085  )
        10           O1  tau(  10) = (   0.0116148   5.9584955  10.6183126  )
        11           O1  tau(  11) = (   1.2787083   1.4818767  12.6451794  )
        12           O1  tau(  12) = (   5.2707140   1.4872516  12.6060838  )
        13           Ti1 tau(  13) = (   0.0520196   2.9452147  12.6012095  )
        14           Ti1 tau(  14) = (   3.3669591   1.4706787  12.5087448  )
        15           O1  tau(  15) = (   6.5166736   5.9505275  14.6414754  )
        16           O1  tau(  16) = (   3.3002175   0.0041348  13.9548274  )
        17           O1  tau(  17) = (   4.5235890   1.5203341  16.0633414  )
        18           O1  tau(  18) = (   1.9992342   1.5602939  15.9747780  )
        19           Ti1 tau(  19) = (   3.2541499   3.0080313  15.6961896  )
        20           Ti1 tau(  20) = (   6.5591015   1.5323982  15.7823192  )
        21           O1  tau(  21) = (   3.2904802   0.0005063   4.7018136  )
        22           O1  tau(  22) = (   0.0960927   0.0099221  17.2178370  )
        23           O1  tau(  23) = (   1.3043587   1.4918075   6.0039043  )
        24           O1  tau(  24) = (   5.2767064   1.4903225   6.0039473  )
        25           Ti1 tau(  25) = (   0.0000382   5.9609847   6.0000000  )
        26           Ti1 tau(  26) = (   3.2902200   4.4714249   6.0002472  )
        27           O1  tau(  27) = (   0.0002396   2.9813036   7.9858123  )
        28           O1  tau(  28) = (   3.2902150   2.9813002   7.3038282  )
        29           O1  tau(  29) = (   4.5938453   4.4726049   9.2879030  )
        30           O1  tau(  30) = (   1.9864658   4.4711199   9.2879459  )
        31           Ti1 tau(  31) = (   3.2891106   5.8743827   9.1763621  )
        32           Ti1 tau(  32) = (   0.0006254   4.4649316   9.2693709  )
        33           O1  tau(  33) = (   3.2807211   2.9768430  11.3440791  )
        34           O1  tau(  34) = (   0.0092240   2.9805883  10.6323155  )
        35           O1  tau(  35) = (   1.2789702   4.4681595  12.6395138  )
        36           O1  tau(  36) = (   5.2737968   4.4775610  12.6008310  )
        37           Ti1 tau(  37) = (   0.0460201   5.9176504  12.5434570  )
        38           Ti1 tau(  38) = (   3.3658678   4.4646095  12.4976877  )
        39           O1  tau(  39) = (   6.5297297   2.9761478  14.6509524  )
        40           O1  tau(  40) = (   3.3085871   2.9961499  13.9017917  )
        41           O1  tau(  41) = (   4.5138497   4.4896837  16.1272785  )
        42           O1  tau(  42) = (   1.9961282   4.4344792  16.0060688  )
        43           Ti1 tau(  43) = (   3.3116018   0.0224549  15.7990204  )
        44           Ti1 tau(  44) = (   6.5775847   4.6577750  16.0638065  )
        45           O1  tau(  45) = (   3.2900926   2.9813045   4.7018136  )
        46           O1  tau(  46) = (   1.3039711   4.4726057   6.0039043  )
        47           O1  tau(  47) = (   5.2763189   4.4711207   6.0039473  )
        48           N1  tau(  48) = (   6.5065777   2.6139801  18.6303060  )
        49           N1  tau(  49) = (   6.5364102   2.8728423  17.4370429  )
        50           C1  tau(  50) = (   6.4341180   3.7235584  19.6105657  )
        51           H1  tau(  51) = (   6.3066687   4.7022679  19.1388110  )
        52           H1  tau(  52) = (   5.6164842   3.4805663  20.2913871  )
        53           H1  tau(  53) = (   0.7823074   3.6964598  20.1845303  )
        54           O1  tau(  54) = (   3.0314481   5.0835218  18.9911038  )
        55           H1  tau(  55) = (   1.7414717   0.2044793  18.0242669  )
        56           O1  tau(  56) = (   2.7372941   0.2572207  18.0778760  )
        57           H1  tau(  57) = (   3.9343361   5.3466317  19.2487757  )

     number of k points=    10  Fermi-Dirac smearing, width (Ry)=  0.0073
                       cart. coord. in units 2pi/alat
        k(    1) = (   0.0000000   0.0000000   0.0000000), wk =   0.1250000
        k(    2) = (   0.0000000   0.0419351   0.0000000), wk =   0.2500000
        k(    3) = (   0.0000000  -0.0838702   0.0000000), wk =   0.1250000
        k(    4) = (   0.0379955   0.0000049   0.0000000), wk =   0.2500000
        k(    5) = (   0.0379955   0.0419400   0.0000000), wk =   0.2500000
        k(    6) = (   0.0379955  -0.0838652   0.0000000), wk =   0.2500000
        k(    7) = (   0.0379955  -0.0419301   0.0000000), wk =   0.2500000
        k(    8) = (  -0.0759910  -0.0000099   0.0000000), wk =   0.1250000
        k(    9) = (  -0.0759910   0.0419252   0.0000000), wk =   0.2500000
        k(   10) = (  -0.0759910  -0.0838800   0.0000000), wk =   0.1250000

     Initial potential from superposition of free atoms

     starting charge  392.99914, renormalised to  409.00000

     negative rho (up, down):  1.422E-02 0.000E+00

     %%%%%%%%%%%%%%%%%%%%%%%%%%%%%%%%%%%%%%%%%%%%%%%%%%%%%%%%%%%%%%%%%%%%%%%%
     %                                                                      %
     % You are using vdW-DF, which was implemented by the Thonhauser group. %
     % Please cite the following two papers that made this development      %
     % possible and the two reviews that describe the various versions:     %
     %                                                                      %
     %   T. Thonhauser et al., PRL 115, 136402 (2015).                      %
     %   T. Thonhauser et al., PRB 76, 125112 (2007).                       %
     %   K. Berland et al., Rep. Prog. Phys. 78, 066501 (2015).             %
     %   D.C. Langreth et al., J. Phys.: Condens. Matter 21, 084203 (2009). %
     %                                                                      %
     %                                                                      %
     % If you are calculating the stress with vdW-DF, please also cite:     %
     %                                                                      %
     %   R. Sabatini et al., J. Phys.: Condens. Matter 24, 424209 (2012).   %
     %                                                                      %
     %%%%%%%%%%%%%%%%%%%%%%%%%%%%%%%%%%%%%%%%%%%%%%%%%%%%%%%%%%%%%%%%%%%%%%%%

     Adding external electric field

     Computed dipole along edir(3) :
        Dipole              -16.7497 Ry au,        -42.5735 Debye
        Dipole field         -0.0316 Ry au,

        Potential amp.        2.9301 Ry
        Total length         46.3494 bohr

     Starting wfcs are  309 atomic wfcs
  @ DRIVER MODE: Message from server: STATUS
  @ DRIVER MODE: Message from server: POSDATA
  @ DRIVER MODE: Reading and sharing cell
  @ DRIVER MODE: Reading and sharing positions
  @ DRIVER MODE: Received positions

     Self-consistent Calculation

     iteration #  1     ecut=    29.40 Ry     beta= 0.05
     Davidson diagonalization with overlap
     c_bands:  5 eigenvalues not converged
     c_bands:  5 eigenvalues not converged
     c_bands:  3 eigenvalues not converged
     c_bands:  1 eigenvalues not converged
     c_bands:  4 eigenvalues not converged
     c_bands:  2 eigenvalues not converged
     c_bands:  5 eigenvalues not converged
     ethr =  1.00E-05,  avg # of iterations = 26.6

[...]

     total energy              =   -2110.47456189 Ry
     estimated scf accuracy    <   10326.48441310 Ry

     iteration #  2     ecut=    29.40 Ry     beta= 0.05
     Davidson diagonalization with overlap
     ethr =  1.00E-02,  avg # of iterations = 32.1

[...]

     iteration # 60     ecut=    29.40 Ry     beta= 0.05
     Davidson diagonalization with overlap
     c_bands:  1 eigenvalues not converged
     ethr =  2.63E-08,  avg # of iterations = 11.5

[...]

     total energy              =   -3006.13722560 Ry
     estimated scf accuracy    <       0.00000009 Ry

     iteration # 75     ecut=    29.40 Ry     beta= 0.05
     Davidson diagonalization with overlap
     ethr =  2.01E-11,  avg # of iterations =  7.0

     negative rho (up, down):  1.470E-02 0.000E+00

     Adding external electric field

     Computed dipole along edir(3) :
        Dipole                0.8088 Ry au,          2.0557 Debye
        Dipole field          0.0015 Ry au,

        Potential amp.       -0.1415 Ry
        Total length         46.3494 bohr

     End of self-consistent calculation

          k = 0.0000 0.0000 0.0000 ( 18029 PWs)   bands (ev):

   -55.6050 -55.5709 -55.5628 -55.5343 -55.5266 -55.4410 -55.4195 -55.4040
   -55.3856 -55.3833 -55.3662 -55.3496 -54.9886 -54.9185 -54.5858 -54.5518
   -32.1036 -32.0882 -31.9490 -31.9408 -31.9179 -31.8976 -31.8732 -31.8601
   -31.8489 -31.7945 -31.7796 -31.7641 -31.7573 -31.7406 -31.7293 -31.7189
   -31.7100 -31.7014 -31.6897 -31.6628 -31.6622 -31.6422 -31.6103 -31.6092
   -31.5997 -31.5952 -31.5927 -31.5820 -31.5641 -31.5598 -31.5541 -31.5491
   -31.5384 -31.5366 -31.5273 -31.5156 -31.4954 -31.2666 -31.2101 -31.1789
   -31.1253 -31.1028 -30.9930 -30.9043 -30.8819 -30.8097 -30.7232 -30.6122
   -20.7370 -18.2971 -16.3053 -16.0791 -15.8954 -15.7656 -15.7108 -15.5538
   -15.4957 -15.4099 -15.3394 -15.2027 -15.1503 -15.1416 -15.1359 -15.1168
   -15.1112 -15.0506 -15.0398 -15.0383 -15.0271 -14.9995 -14.9605 -14.9471
   -14.9421 -14.8595 -14.7662 -14.7432 -14.7230 -14.7198 -14.6618 -14.2771
   -13.0878 -12.9714 -11.2771  -6.8022  -5.7519  -5.3634  -4.1719  -3.8114
    -3.7724  -3.6726  -3.5501  -3.5112  -3.4318  -3.3844  -3.2307  -3.0796
    -3.0262  -2.8518  -2.7830  -2.7557  -2.7121  -2.6287  -2.5213  -2.4679
    -2.4127  -2.4088  -2.3948  -2.3788  -2.3615  -2.3449  -2.2377  -2.2189
    -2.1654  -2.1460  -2.1198  -1.9848  -1.9571  -1.9289  -1.9185  -1.8910
    -1.8783  -1.8645  -1.8375  -1.8189  -1.7798  -1.7550  -1.6230  -1.5809
    -1.5398  -1.4495  -1.3888  -1.3290  -1.2333  -1.2010  -1.1318  -1.0622
    -1.0565  -1.0364  -1.0032  -0.9950  -0.8686  -0.7643  -0.7541  -0.6807
    -0.6193  -0.5690  -0.5281  -0.4630  -0.3795  -0.3619  -0.3541  -0.3338
    -0.2820  -0.2577  -0.0980  -0.0592  -0.0111   0.0142   0.0712   0.1044
     0.1474   0.1875   0.2277   0.2773   0.3115   0.3447   0.3630   0.3772
     0.3927   0.4239   0.4447   0.6103   0.6459   0.6692   0.7301   0.7591
     0.8460   0.9026   0.9667   1.0504   1.1585   1.3639   1.4367   1.5280
     1.6287   2.0080   2.0538   2.8316   3.5242   3.6162   3.6572   3.6875
     3.7690   3.7807   3.9821   4.0039   4.0336   4.1089

[...]

          k = 0.0380-0.0419 0.0000 ( 17876 PWs)   bands (ev):

[...]

          k =-0.0760-0.0000 0.0000 ( 17886 PWs)   bands (ev):

[...]

          k =-0.0760-0.0839 0.0000 ( 17948 PWs)   bands (ev):

   -55.5884 -55.5874 -55.5477 -55.5416 -55.5325 -55.4292 -55.4159 -55.4028
   -55.4018 -55.3679 -55.3679 -55.3653 -54.9847 -54.9223 -54.5688 -54.5686
   -31.9178 -31.9038 -31.9031 -31.9004 -31.8835 -31.8825 -31.8265 -31.8178
   -31.8054 -31.7857 -31.7772 -31.7535 -31.7488 -31.7228 -31.7170 -31.7163
   -31.7080 -31.7074 -31.7072 -31.7056 -31.7033 -31.7013 -31.6747 -31.6462
   -31.6325 -31.6286 -31.6198 -31.6036 -31.6026 -31.5975 -31.5922 -31.5832
   -31.5802 -31.5728 -31.5721 -31.5702 -31.4176 -31.2683 -31.2488 -31.1870
   -31.1642 -31.1265 -30.8947 -30.8945 -30.8059 -30.8057 -30.7665 -30.7665
   -20.7364 -18.2931 -15.7429 -15.6960 -15.6310 -15.5641 -15.5289 -15.4589
   -15.4155 -15.3735 -15.3216 -15.2834 -15.2744 -15.2150 -15.1946 -15.1619
   -15.1525 -15.1230 -15.1134 -15.1114 -15.0576 -15.0517 -15.0456 -15.0386
   -15.0324 -14.9737 -14.9338 -14.9257 -14.9207 -14.8225 -14.7003 -14.4459
   -13.0732 -13.0731 -11.2754  -6.8250  -5.7492  -5.3398  -4.0992  -3.8067
    -3.7643  -3.1138  -3.0214  -2.8277  -2.7974  -2.7145  -2.7105  -2.6676
    -2.5455  -2.5124  -2.4665  -2.4484  -2.4273  -2.4186  -2.4130  -2.3930
    -2.3868  -2.3682  -2.3393  -2.3188  -2.2861  -2.2736  -2.2607  -2.2525
    -2.2384  -2.2155  -2.2132  -2.1649  -2.1445  -2.1259  -2.0627  -2.0292
    -1.8433  -1.7941  -1.7490  -1.7421  -1.7218  -1.6903  -1.6748  -1.6580
    -1.6112  -1.5906  -1.5120  -1.4667  -1.3293  -1.3090  -1.2936  -1.2730
    -1.2064  -1.1486  -1.0988  -1.0126  -1.0076  -0.9586  -0.8655  -0.8067
    -0.7983  -0.7670  -0.7115  -0.7020  -0.6613  -0.5681  -0.5623  -0.5440
    -0.5384  -0.4619  -0.4186  -0.3562  -0.3481  -0.3282  -0.2974  -0.2692
    -0.2360  -0.1973  -0.1012  -0.0679   0.0258   0.1312   0.2074   0.3434
     0.4622   0.4748   0.5594   0.5838   0.6849   0.6966   0.7088   0.7500
     0.7857   0.8102   0.9302   0.9441   0.9670   0.9948   1.0816   1.8002
     1.8011   1.8735   1.8737   2.8216   3.7656   3.8797   3.9116   3.9222
     4.0072   4.0441   4.0630   4.0649   4.1297   4.2022

     the Fermi energy is     3.5270 ev

!    total energy              =   -3006.13724194 Ry
     estimated scf accuracy    <       0.00000003 Ry
     smearing contrib. (-TS)   =      -0.02167213 Ry
     internal energy E=F+TS    =   -3006.11556981 Ry

     The total energy is F=E-TS. E is the sum of the following terms:
     one-electron contribution =  -23514.38407325 Ry
     hartree contribution      =   11855.16864879 Ry
     xc contribution           =    -501.16542777 Ry
     ewald contribution        =    9154.26404806 Ry
     electric field correction =       0.00123436 Ry

     convergence has been achieved in  75 iterations

     Forces acting on atoms (cartesian axes, Ry/au):

     atom    1 type  1   force =     0.00020991   -0.00031599    0.09616224
     atom    2 type  1   force =    -0.00012594   -0.00050678   -0.17558459
     atom    3 type  2   force =    -0.00002990   -0.00015599   -0.02419236
     atom    4 type  2   force =     0.00000603   -0.00155668    0.05346165
     atom    5 type  2   force =    -0.01165752   -0.00075701    0.00386169
     atom    6 type  2   force =     0.01284671   -0.00002190    0.00197520
     atom    7 type  1   force =    -0.00132060    0.00026188   -0.00660882
     atom    8 type  1   force =     0.00073932    0.00793227    0.02424948
     atom    9 type  2   force =     0.00000852    0.00002981    0.00002764
     atom   10 type  2   force =    -0.00082694    0.00166862   -0.01688030
     atom   11 type  2   force =    -0.00002003    0.00003408   -0.00000142
     atom   12 type  2   force =    -0.00000776    0.00001931   -0.00000671
     atom   13 type  1   force =     0.00000772   -0.00000478    0.00000364
     atom   14 type  1   force =     0.00000811    0.00003781   -0.00000564
     atom   15 type  2   force =    -0.00001488    0.00001306   -0.00000687
     atom   16 type  2   force =    -0.00000814   -0.00003374   -0.00004188
     atom   17 type  2   force =    -0.00000762   -0.00000733    0.00002389
     atom   18 type  2   force =    -0.00002975   -0.00000505   -0.00002985
     atom   19 type  1   force =     0.00004598   -0.00007444   -0.00000343
     atom   20 type  1   force =     0.00002910    0.00002010   -0.00008853
     atom   21 type  2   force =     0.00005836   -0.00004720    0.10320770
     atom   22 type  2   force =    -0.00000710    0.00002946   -0.00009763
     atom   23 type  2   force =    -0.07147034   -0.00011694   -0.02771083
     atom   24 type  2   force =     0.07137248    0.00029164   -0.02771884
     atom   25 type  1   force =    -0.00003171   -0.00028849    0.09578513
     atom   26 type  1   force =    -0.00022987   -0.00035085   -0.17584005
     atom   27 type  2   force =     0.00004877   -0.00017478   -0.02323930
     atom   28 type  2   force =     0.00007113   -0.00125698    0.05306435
     atom   29 type  2   force =    -0.01200623    0.00042330    0.00403746
     atom   30 type  2   force =     0.01309338    0.00076816    0.00212465
     atom   31 type  1   force =    -0.00118291    0.00400311   -0.00990404
     atom   32 type  1   force =     0.00067559   -0.01004719    0.02472798
     atom   33 type  2   force =     0.00001635   -0.00001031    0.00001092
     atom   34 type  2   force =    -0.00025187    0.00012492   -0.02258140
     atom   35 type  2   force =    -0.00000615   -0.00000707   -0.00001858
     atom   36 type  2   force =    -0.00001438    0.00001462   -0.00002506
     atom   37 type  1   force =    -0.00000990   -0.00004418    0.00000870
     atom   38 type  1   force =     0.00001878    0.00007495    0.00003356
     atom   39 type  2   force =    -0.00005798   -0.00001381   -0.00002363
     atom   40 type  2   force =    -0.00000456   -0.00004008   -0.00000716
     atom   41 type  2   force =     0.00000750   -0.00000188   -0.00003015
     atom   42 type  2   force =    -0.00001662   -0.00000725   -0.00001024
     atom   43 type  1   force =     0.00005330   -0.00001124   -0.00004705
     atom   44 type  1   force =     0.00005544   -0.00003457   -0.00007814
     atom   45 type  2   force =     0.00004603   -0.00008894    0.10321575
     atom   46 type  2   force =    -0.07148138   -0.00008365   -0.02772857
     atom   47 type  2   force =     0.07139341    0.00035560   -0.02772083
     atom   48 type  3   force =     0.00019624   -0.00095310    0.00034511
     atom   49 type  3   force =    -0.00001533   -0.00000962    0.00012732
     atom   50 type  4   force =    -0.00050800    0.00394280   -0.00389120
     atom   51 type  5   force =     0.00050066   -0.00406138    0.00401160
     atom   52 type  5   force =    -0.00014698    0.00053815   -0.00020192
     atom   53 type  5   force =    -0.00007739    0.00050685   -0.00022973
     atom   54 type  2   force =     0.00100390   -0.00003446   -0.00130876
     atom   55 type  5   force =    -0.00009484    0.00000605   -0.00002437
     atom   56 type  2   force =    -0.00114404   -0.00004222    0.00135012
     atom   57 type  5   force =     0.00029396    0.00006935    0.00007211

     Total force =     0.367173     Total SCF correction =     0.000355
  @ DRIVER MODE: Message from server: STATUS
  @ DRIVER MODE: Message from server: GETFORCE
  @ DRIVER MODE: Returning v,forces,stress,ensemble

     Writing output data file ./calc.save/
  @ DRIVER MODE: Message from server: EXIT
  @ DRIVE MODE: Exiting

     General routines

     Parallel routines

   This run was terminated on:   2:27:10  26Sep2021

   JOB DONE.