     Program PWSCF v.6.7GPU starts on 12Oct2021 at 20:46:35

     R & G space division:  proc/nbgrp/npool/nimage =       8
     Reading input from /storage/home/hcoda1/3/ntian30/research/carbon/ACS_vib/ads_slab/N2H6/out_0029/pw.inp
Warning: card &CELL ignored
Warning: card   CELL_DYNAMICS='IPI', ignored
Warning: card / ignored

     Current dimensions of program PWSCF are:
     Max number of different atomic species (ntypx) = 10
     Max number of k-points (npk) =  40000
     Max angular momentum in pseudopotentials (lmaxx) =  3
     Presently no symmetry can be used with electric field

     Message from routine cell_base_init:
     DEPRECATED: use true lattice parameter, not A to a.u. conversion factor

     IMPORTANT: XC functional enforced from input :
     Exchange-correlation= BEEF-VDW
                           (   1   4  43  14   2   0   0)
     Any further DFT definition will be discarded
     Please, verify this is what you really want

  @ DRIVER MODE: Connecting to
 qe_1139763_3181315.sched-torque.pace.gatech.eduzmrs_5kv_scratch
  using UNIX socket
  @ DRIVER MODE: Message from server: STATUS
  @ DRIVER MODE: Message from server: INIT
  @ DRIVER MODE: Receiving replica           0          -1
  @ DRIVER MODE: Receiving encoded integer          25
  @ DRIVER MODE:  SCF:  T  FORCE:  T  STRESS:  F  VC:  F  ENSEMBLE:  F
  @ DRIVER MODE:  SCF:  T  FORCE:  T  STRESS:  F  VC:  F  ENSEMBLE:  F

     Using Slab Decomposition

     bravais-lattice index     =            0
     lattice parameter (alat)  =       1.8897  a.u.
     unit-cell volume          =    6658.9804 (a.u.)^3
     number of atoms/cell      =           55
     number of atomic types    =            4
     number of electrons       =       394.00
     number of Kohn-Sham states=          207
     kinetic-energy cutoff     =      29.3995  Ry
     charge density cutoff     =     293.9946  Ry
     scf convergence threshold =      7.3E-08
     mixing beta               =       0.0500
     number of iterations used =            8  plain     mixing
     Exchange-correlation= BEEF-VDW
                           (   1   4  43  14   2   0   0)

     celldm(1)=   1.889726  celldm(2)=   0.000000  celldm(3)=   0.000000
     celldm(4)=   0.000000  celldm(5)=   0.000000  celldm(6)=   0.000000

     crystal axes: (cart. coord. in units of alat)
               a(1) = (   6.579727   0.000000   0.000000 )
               a(2) = (  -0.000775   5.961596   0.000000 )
               a(3) = (   0.000000   0.000000  25.155947 )

     reciprocal axes: (cart. coord. in units 2 pi/alat)
               b(1) = (  0.151982  0.000020  0.000000 )
               b(2) = (  0.000000  0.167740  0.000000 )
               b(3) = (  0.000000  0.000000  0.039752 )

     PseudoPot. # 1 for Ti read from file:
     /storage/coda1/p-amedford6/0/shared/rich_project_chbe-medford/medford-share/data/pseudos_module/espresso/nninc/pbe/van/Ti.UPF
     MD5 check sum: 8e4df49b7f0d34bbd5052bf3f5ea0213
     Pseudo is Ultrasoft, Zval = 12.0
     Generated by new atomic code, or converted to UPF format
     Using radial grid of  851 points,  6 beta functions with:
                l(1) =   0
                l(2) =   0
                l(3) =   1
                l(4) =   1
                l(5) =   2
                l(6) =   2
     Q(r) pseudized with  8 coefficients,  rinner =    1.000   1.000   1.000
                                                       1.000   1.000

     PseudoPot. # 2 for O  read from file:
     /storage/coda1/p-amedford6/0/shared/rich_project_chbe-medford/medford-share/data/pseudos_module/espresso/nninc/pbe/van/O.UPF
     MD5 check sum: 78c19812648e8988a0fe644b0f25305e
     Pseudo is Ultrasoft, Zval =  6.0
     Generated by new atomic code, or converted to UPF format
     Using radial grid of  737 points,  4 beta functions with:
                l(1) =   0
                l(2) =   0
                l(3) =   1
                l(4) =   1
     Q(r) pseudized with  8 coefficients,  rinner =    0.800   0.800   0.800

     PseudoPot. # 3 for N  read from file:
     /storage/coda1/p-amedford6/0/shared/rich_project_chbe-medford/medford-share/data/pseudos_module/espresso/nninc/pbe/van/N.UPF
     MD5 check sum: 90d10febe142ad51ac9d5be1deb811c4
     Pseudo is Ultrasoft, Zval =  5.0
     Generated by new atomic code, or converted to UPF format
     Using radial grid of  729 points,  4 beta functions with:
                l(1) =   0
                l(2) =   0
                l(3) =   1
                l(4) =   1
     Q(r) pseudized with  8 coefficients,  rinner =    0.800   0.800   0.800

     PseudoPot. # 4 for H  read from file:
     /storage/coda1/p-amedford6/0/shared/rich_project_chbe-medford/medford-share/data/pseudos_module/espresso/nninc/pbe/van/H.UPF
     MD5 check sum: b5ee9d7bfd3a09ee7748110bda690ff7
     Pseudo is Ultrasoft, Zval =  1.0
     Generated by new atomic code, or converted to UPF format
     Using radial grid of  615 points,  1 beta functions with:
                l(1) =   0
     Q(r) pseudized with  8 coefficients,  rinner =    0.800

     atomic species   valence    mass     pseudopotential
        Ti1           12.00    47.86700     Ti( 1.00)
        O1             6.00    15.99900     O ( 1.00)
        N1             5.00    14.00700     N ( 1.00)
        H1             1.00     1.00800     H ( 1.00)

     No symmetry found

   Cartesian axes

     site n.     atom                  positions (alat units)
         1           Ti1 tau(   1) = (   0.0004258   2.9801865   6.0000000  )
         2           Ti1 tau(   2) = (   3.2906075   1.4906267   6.0002472  )
         3           O1  tau(   3) = (   0.0006271   0.0005054   7.9858123  )
         4           O1  tau(   4) = (   3.2906025   0.0005020   7.3038282  )
         5           O1  tau(   5) = (   4.5942328   1.4918067   9.2879030  )
         6           O1  tau(   6) = (   1.9868534   1.4903216   9.2879459  )
         7           Ti1 tau(   7) = (   3.2905188   2.9817269   9.1608671  )
         8           Ti1 tau(   8) = (   0.0008727   1.4903491   9.2579811  )
         9           O1  tau(   9) = (   3.2897677   5.9391746  11.3820438  )
        10           O1  tau(  10) = (  -0.0000005   5.9544960  10.6146985  )
        11           O1  tau(  11) = (   1.2884133   1.4789655  12.6516217  )
        12           O1  tau(  12) = (   5.2921206   1.4788385  12.6515509  )
        13           Ti1 tau(  13) = (   0.0005720   2.9629092  12.4975245  )
        14           Ti1 tau(  14) = (   3.2903801   1.4745319  12.5205501  )
        15           O1  tau(  15) = (   0.0004407   0.0388239  14.7059933  )
        16           O1  tau(  16) = (   3.2897445   5.9465346  14.0037610  )
        17           O1  tau(  17) = (   4.5472543   1.4569283  16.2215039  )
        18           O1  tau(  18) = (   2.0329396   1.4568822  16.2213506  )
        19           Ti1 tau(  19) = (   3.2899346   2.9358424  15.7577366  )
        20           Ti1 tau(  20) = (   0.0004932   1.4309995  16.0137732  )
        21           O1  tau(  21) = (   3.2904802   0.0005063   4.7018136  )
        22           O1  tau(  22) = (  -0.0003511   5.7889056  17.2622344  )
        23           O1  tau(  23) = (   1.3043587   1.4918075   6.0039043  )
        24           O1  tau(  24) = (   5.2767064   1.4903225   6.0039473  )
        25           Ti1 tau(  25) = (   0.0000382   5.9609847   6.0000000  )
        26           Ti1 tau(  26) = (   3.2902200   4.4714249   6.0002472  )
        27           O1  tau(  27) = (   0.0002396   2.9813036   7.9858123  )
        28           O1  tau(  28) = (   3.2902150   2.9813002   7.3038282  )
        29           O1  tau(  29) = (   4.5938453   4.4726049   9.2879030  )
        30           O1  tau(  30) = (   1.9864658   4.4711199   9.2879459  )
        31           Ti1 tau(  31) = (   3.2908958   0.0009406   9.1591437  )
        32           Ti1 tau(  32) = (   0.0004876   4.4725358   9.2579169  )
        33           O1  tau(  33) = (   3.2901541   2.9707129  11.3740276  )
        34           O1  tau(  34) = (   0.0003862   2.9798045  10.6274311  )
        35           O1  tau(  35) = (   1.2860740   4.4511954  12.6821393  )
        36           O1  tau(  36) = (   5.2936768   4.4510845  12.6820400  )
        37           Ti1 tau(  37) = (   0.0001324   5.9497034  12.4914426  )
        38           Ti1 tau(  38) = (   3.2900283   4.4525324  12.5305491  )
        39           O1  tau(  39) = (   0.0000299   2.9046373  14.9484161  )
        40           O1  tau(  40) = (   3.2901113   2.9423191  13.9685580  )
        41           O1  tau(  41) = (   4.5465916   4.4073028  16.1601725  )
        42           O1  tau(  42) = (   2.0329218   4.4072560  16.1600144  )
        43           Ti1 tau(  43) = (   3.2897320   5.9176933  15.7983882  )
        44           Ti1 tau(  44) = (   0.0000796   4.6311109  15.9036278  )
        45           O1  tau(  45) = (   3.2900926   2.9813045   4.7018136  )
        46           O1  tau(  46) = (   1.3039711   4.4726057   6.0039043  )
        47           O1  tau(  47) = (   5.2763189   4.4711207   6.0039473  )
        48           N1  tau(  48) = (   6.5791966   2.5420708  18.0661808  )
        49           H1  tau(  49) = (   6.5785613   1.6509345  18.5577087  )
        50           H1  tau(  50) = (   0.8131443   3.0604954  18.3807411  )
        51           H1  tau(  51) = (   5.7641953   3.0602838  18.3787844  )
        52           N1  tau(  52) = (  -0.0000615   4.8677125  20.4988556  )
        53           H1  tau(  53) = (   6.5774456   5.1124690  21.4935560  )
        54           H1  tau(  54) = (   0.8078797   5.3121143  20.0844266  )
        55           H1  tau(  55) = (   5.7710899   5.3082688  20.0816402  )

     number of k points=    10  Fermi-Dirac smearing, width (Ry)=  0.0073
                       cart. coord. in units 2pi/alat
        k(    1) = (   0.0000000   0.0000000   0.0000000), wk =   0.1250000
        k(    2) = (   0.0000000   0.0419351   0.0000000), wk =   0.2500000
        k(    3) = (   0.0000000  -0.0838702   0.0000000), wk =   0.1250000
        k(    4) = (   0.0379955   0.0000049   0.0000000), wk =   0.2500000
        k(    5) = (   0.0379955   0.0419400   0.0000000), wk =   0.2500000
        k(    6) = (   0.0379955  -0.0838652   0.0000000), wk =   0.2500000
        k(    7) = (   0.0379955  -0.0419301   0.0000000), wk =   0.2500000
        k(    8) = (  -0.0759910  -0.0000099   0.0000000), wk =   0.1250000
        k(    9) = (  -0.0759910   0.0419252   0.0000000), wk =   0.2500000
        k(   10) = (  -0.0759910  -0.0838800   0.0000000), wk =   0.1250000

     Initial potential from superposition of free atoms

     starting charge  377.99918, renormalised to  394.00000

     negative rho (up, down):  1.302E-02 0.000E+00

     %%%%%%%%%%%%%%%%%%%%%%%%%%%%%%%%%%%%%%%%%%%%%%%%%%%%%%%%%%%%%%%%%%%%%%%%
     %                                                                      %
     % You are using vdW-DF, which was implemented by the Thonhauser group. %
     % Please cite the following two papers that made this development      %
     % possible and the two reviews that describe the various versions:     %
     %                                                                      %
     %   T. Thonhauser et al., PRL 115, 136402 (2015).                      %
     %   T. Thonhauser et al., PRB 76, 125112 (2007).                       %
     %   K. Berland et al., Rep. Prog. Phys. 78, 066501 (2015).             %
     %   D.C. Langreth et al., J. Phys.: Condens. Matter 21, 084203 (2009). %
     %                                                                      %
     %                                                                      %
     % If you are calculating the stress with vdW-DF, please also cite:     %
     %                                                                      %
     %   R. Sabatini et al., J. Phys.: Condens. Matter 24, 424209 (2012).   %
     %                                                                      %
     %%%%%%%%%%%%%%%%%%%%%%%%%%%%%%%%%%%%%%%%%%%%%%%%%%%%%%%%%%%%%%%%%%%%%%%%

     Adding external electric field

     Computed dipole along edir(3) :
        Dipole               -9.7136 Ry au,        -24.6895 Debye
        Dipole field         -0.0183 Ry au,

        Potential amp.        1.6992 Ry
        Total length         46.3494 bohr

     Starting wfcs are  298 atomic wfcs
  @ DRIVER MODE: Message from server: STATUS
  @ DRIVER MODE: Message from server: POSDATA
  @ DRIVER MODE: Reading and sharing cell
  @ DRIVER MODE: Reading and sharing positions
  @ DRIVER MODE: Received positions

     Self-consistent Calculation

     iteration #  1     ecut=    29.40 Ry     beta= 0.05
     Davidson diagonalization with overlap
     c_bands:  1 eigenvalues not converged
     c_bands:  1 eigenvalues not converged
     c_bands:  1 eigenvalues not converged
     c_bands:  1 eigenvalues not converged
     ethr =  1.00E-05,  avg # of iterations = 18.0

[...]

     total energy              =   -2598.02645750 Ry
     estimated scf accuracy    <    3721.87915315 Ry

     iteration #  2     ecut=    29.40 Ry     beta= 0.05
     Davidson diagonalization with overlap
     ethr =  1.00E-02,  avg # of iterations = 22.7

[...]

     iteration # 71     ecut=    29.40 Ry     beta= 0.05
     Davidson diagonalization with overlap
     ethr =  7.66E-11,  avg # of iterations =  2.0

[...]

     total energy              =   -2931.48010355 Ry
     estimated scf accuracy    <       0.00000023 Ry

     iteration # 72     ecut=    29.40 Ry     beta= 0.05
     Davidson diagonalization with overlap
     c_bands:  1 eigenvalues not converged
     c_bands:  1 eigenvalues not converged
     ethr =  5.93E-11,  avg # of iterations = 14.1

     negative rho (up, down):  1.427E-02 0.000E+00

     Adding external electric field

     Computed dipole along edir(3) :
        Dipole                1.3685 Ry au,          3.4784 Debye
        Dipole field          0.0026 Ry au,

        Potential amp.       -0.2394 Ry
        Total length         46.3494 bohr

     End of self-consistent calculation

          k = 0.0000 0.0000 0.0000 ( 18029 PWs)   bands (ev):

   -55.2782 -55.2418 -55.2303 -55.1999 -55.1961 -55.1633 -55.1495 -55.1151
   -55.1080 -55.0791 -55.0738 -55.0568 -55.0227 -54.9473 -54.3209 -54.2868
   -31.8462 -31.7331 -31.7295 -31.6357 -31.5959 -31.5849 -31.5820 -31.5685
   -31.5223 -31.5203 -31.4848 -31.4847 -31.4752 -31.4705 -31.4509 -31.4364
   -31.4311 -31.4182 -31.4140 -31.3875 -31.3818 -31.3723 -31.3620 -31.3501
   -31.3472 -31.3338 -31.3288 -31.3159 -31.2862 -31.2806 -31.2642 -31.2598
   -31.2538 -31.2506 -31.2471 -31.2401 -31.2066 -31.2020 -31.1890 -31.1709
   -31.1503 -31.1495 -30.7328 -30.6311 -30.6095 -30.5489 -30.4624 -30.3515
   -16.1096 -15.8725 -15.7425 -15.5841 -15.4940 -15.4540 -15.3542 -15.3290
   -15.2203 -15.1447 -15.0117 -14.9778 -14.9363 -14.9291 -14.9212 -14.9017
   -14.8956 -14.8250 -14.8120 -14.7952 -14.7865 -14.7644 -14.7629 -14.7436
   -14.7144 -14.6611 -14.6412 -14.5117 -14.4305 -14.3725 -14.1227 -12.8221
   -12.7029  -5.6455  -5.5071  -4.8886  -4.8685  -3.4405  -3.2866  -3.2519
    -3.2013  -3.1899  -3.0365  -2.8759  -2.7265  -2.7072  -2.5576  -2.5287
    -2.4765  -2.4546  -2.3033  -2.2779  -2.2335  -2.2074  -2.1580  -2.1477
    -2.1403  -2.1286  -2.0497  -2.0384  -2.0229  -1.8868  -1.8673  -1.7559
    -1.7155  -1.6595  -1.6461  -1.6411  -1.6074  -1.5894  -1.5487  -1.5379
    -1.5212  -1.4961  -1.4860  -1.3215  -1.2953  -1.1965  -1.1358  -1.0450
    -1.0288  -0.8845  -0.8490  -0.7603  -0.7418  -0.7241  -0.7096  -0.6770
    -0.6285  -0.5207  -0.4312  -0.4097  -0.3490  -0.3243  -0.2861  -0.1981
    -0.0945  -0.0660  -0.0332  -0.0307   0.0857   0.1103   0.1554   0.2219
     0.2307   0.2418   0.2659   0.3567   0.3705   0.4687   0.4923   0.4995
     0.5481   0.6371   0.6414   0.6556   0.6656   0.6918   0.7626   0.7692
     0.8689   0.8919   1.0082   1.2193   1.2907   1.3170   1.5956   1.6560
     1.7046   1.8673   2.2877   2.3401   3.8201   3.8867   3.9198   3.9528
     3.9891   4.0299   4.3174   4.3253   4.3377   4.3423   4.3789

[...]

          k = 0.0380-0.0419 0.0000 ( 17876 PWs)   bands (ev):

[...]

          k =-0.0760-0.0000 0.0000 ( 17886 PWs)   bands (ev):

[...]

          k =-0.0760-0.0839 0.0000 ( 17948 PWs)   bands (ev):

   -55.2627 -55.2571 -55.2132 -55.2130 -55.1984 -55.1598 -55.1332 -55.1313
   -55.0921 -55.0894 -55.0826 -55.0421 -55.0375 -54.9486 -54.3039 -54.3037
   -31.6514 -31.6473 -31.6473 -31.5669 -31.5443 -31.5442 -31.5375 -31.5057
   -31.5056 -31.4792 -31.4792 -31.4754 -31.4719 -31.4534 -31.4329 -31.4133
   -31.4084 -31.4067 -31.4067 -31.4008 -31.3994 -31.3966 -31.3576 -31.3566
   -31.3531 -31.3498 -31.3474 -31.3464 -31.3442 -31.3317 -31.3315 -31.3265
   -31.3239 -31.2895 -31.2876 -31.2720 -31.2693 -31.2640 -31.2271 -31.2262
   -31.2218 -31.1542 -30.6221 -30.6220 -30.5454 -30.5453 -30.5057 -30.5056
   -15.6294 -15.5166 -15.5085 -15.4708 -15.3178 -15.2968 -15.2593 -15.2446
   -15.1261 -15.0903 -15.0710 -15.0549 -15.0226 -15.0185 -15.0114 -14.9749
   -14.8909 -14.8711 -14.8656 -14.8534 -14.8165 -14.7894 -14.7840 -14.7774
   -14.7765 -14.7413 -14.7378 -14.6959 -14.6927 -14.6874 -14.3716 -12.8040
   -12.8039  -5.6225  -5.5096  -4.8776  -4.8568  -2.7896  -2.7333  -2.7332
    -2.5426  -2.4716  -2.4544  -2.4375  -2.3546  -2.3150  -2.2856  -2.2621
    -2.2312  -2.1893  -2.1854  -2.1643  -2.1557  -2.1399  -2.0943  -2.0759
    -2.0504  -1.9968  -1.9721  -1.9639  -1.9518  -1.9431  -1.9384  -1.9150
    -1.9128  -1.8867  -1.8756  -1.8197  -1.6683  -1.6527  -1.5745  -1.5059
    -1.5011  -1.4994  -1.4161  -1.3960  -1.3414  -1.3323  -1.3262  -1.0830
    -1.0609  -1.0608  -1.0555  -1.0234  -0.9091  -0.8997  -0.8271  -0.7978
    -0.7792  -0.6733  -0.6617  -0.6018  -0.5978  -0.4906  -0.4889  -0.4303
    -0.3020  -0.2956  -0.2823  -0.2576  -0.2558  -0.2141  -0.2099  -0.1026
    -0.0665  -0.0157  -0.0044   0.0280   0.1807   0.2332   0.2457   0.2756
     0.4090   0.4289   0.5636   0.5713   0.6261   0.7358   0.7657   0.8047
     0.8327   0.9818   0.9926   1.0142   1.1057   1.1197   1.1574   1.1639
     2.0554   2.0569   2.1582   2.1585   3.9806   4.0623   4.0878   4.1273
     4.2323   4.3305   4.3457   4.3466   4.3805   4.3835   4.4808

     the Fermi energy is     3.8837 ev

!    total energy              =   -2931.48011713 Ry
     estimated scf accuracy    <       0.00000005 Ry
     smearing contrib. (-TS)   =      -0.03685008 Ry
     internal energy E=F+TS    =   -2931.44326705 Ry

     The total energy is F=E-TS. E is the sum of the following terms:
     one-electron contribution =  -23482.75902948 Ry
     hartree contribution      =   11832.10433607 Ry
     xc contribution           =    -484.16761474 Ry
     ewald contribution        =    9203.37550676 Ry
     electric field correction =       0.00353434 Ry

     convergence has been achieved in  72 iterations

     Forces acting on atoms (cartesian axes, Ry/au):

     atom    1 type  1   force =     0.00008702   -0.00008535    0.09074172
     atom    2 type  1   force =    -0.00005323    0.00053008   -0.18274037
     atom    3 type  2   force =     0.00005377   -0.00002963   -0.02345616
     atom    4 type  2   force =     0.00001783   -0.00005957    0.05279251
     atom    5 type  2   force =    -0.01301537   -0.00097137    0.00606026
     atom    6 type  2   force =     0.01296135   -0.00047931    0.00605015
     atom    7 type  1   force =     0.00000027    0.00067808   -0.00327393
     atom    8 type  1   force =     0.00001945   -0.00015240    0.00140466
     atom    9 type  2   force =    -0.00003283   -0.00015987   -0.00048228
     atom   10 type  2   force =     0.00001839   -0.00005514   -0.00021075
     atom   11 type  2   force =     0.00015673    0.00017607    0.00017385
     atom   12 type  2   force =    -0.00007457    0.00017298    0.00015189
     atom   13 type  1   force =    -0.00020026   -0.00018938    0.00004196
     atom   14 type  1   force =     0.00014911    0.00045924   -0.00100139
     atom   15 type  2   force =     0.00002308   -0.00059109    0.00007783
     atom   16 type  2   force =    -0.00002827    0.00000830    0.00044878
     atom   17 type  2   force =     0.00040948    0.00001943    0.00050613
     atom   18 type  2   force =    -0.00044169    0.00001446    0.00050534
     atom   19 type  1   force =     0.00006513    0.00004546    0.00029762
     atom   20 type  1   force =    -0.00003037   -0.00084342    0.00029241
     atom   21 type  2   force =     0.00005690    0.00012606    0.10488981
     atom   22 type  2   force =     0.00000755    0.00016958    0.00096741
     atom   23 type  2   force =    -0.06829061   -0.00021876   -0.02627505
     atom   24 type  2   force =     0.06820113    0.00021680   -0.02632072
     atom   25 type  1   force =     0.00008949    0.00004970    0.09035070
     atom   26 type  1   force =    -0.00005068   -0.00045084   -0.18292588
     atom   27 type  2   force =     0.00005042   -0.00093600   -0.02256814
     atom   28 type  2   force =     0.00001883   -0.00007116    0.05257072
     atom   29 type  2   force =    -0.01331089   -0.00073536    0.00528617
     atom   30 type  2   force =     0.01324769   -0.00024259    0.00527148
     atom   31 type  1   force =     0.00001013   -0.00071916   -0.00308736
     atom   32 type  1   force =     0.00001508   -0.00006513    0.00151146
     atom   33 type  2   force =    -0.00002955   -0.00015801    0.00019463
     atom   34 type  2   force =     0.00002094    0.00007513   -0.00046778
     atom   35 type  2   force =     0.00012457   -0.00014251    0.00024033
     atom   36 type  2   force =    -0.00004739   -0.00015485    0.00021574
     atom   37 type  1   force =    -0.00019162    0.00005085    0.00092526
     atom   38 type  1   force =     0.00014316   -0.00029293   -0.00097186
     atom   39 type  2   force =     0.00001299    0.00025403   -0.00015159
     atom   40 type  2   force =    -0.00003068   -0.00001398    0.00108515
     atom   41 type  2   force =     0.00055639   -0.00018103    0.00026189
     atom   42 type  2   force =    -0.00060054   -0.00017885    0.00027308
     atom   43 type  1   force =     0.00006923    0.00009559    0.00063012
     atom   44 type  1   force =    -0.00003675    0.00105497   -0.00113226
     atom   45 type  2   force =     0.00005716    0.00013909    0.10485211
     atom   46 type  2   force =    -0.06829210   -0.00009610   -0.02630905
     atom   47 type  2   force =     0.06819911    0.00034193   -0.02635213
     atom   48 type  3   force =    -0.00050161   -0.00009068   -0.00032710
     atom   49 type  4   force =     0.00002057   -0.00008067    0.00075134
     atom   50 type  4   force =     0.00088739    0.00101134    0.00004844
     atom   51 type  4   force =    -0.00043472    0.00073427   -0.00014986
     atom   52 type  3   force =    -0.00000362   -0.00169762    0.02351876
     atom   53 type  4   force =     0.00001132   -0.00318718   -0.01566765
     atom   54 type  4   force =     0.00452560    0.00344588   -0.00474743
     atom   55 type  4   force =    -0.00458989    0.00346060   -0.00477095

     Total force =     0.367485     Total SCF correction =     0.000429
  @ DRIVER MODE: Message from server: STATUS
  @ DRIVER MODE: Message from server: GETFORCE
  @ DRIVER MODE: Returning v,forces,stress,ensemble

     Writing output data file ./calc.save/
  @ DRIVER MODE: Message from server: EXIT
  @ DRIVE MODE: Exiting

     General routines

     Parallel routines

   This run was terminated on:  21:15:17  12Oct2021

   JOB DONE.