     Program PWSCF v.6.7GPU starts on 16Sep2021 at 10:59: 9

     R & G space division:  proc/nbgrp/npool/nimage =      10
     Reading input from /storage/home/hcoda1/3/ntian30/research/carbon/CxH_vib/H2O_calc/ads_slab/CH3NH2NHH2O_c/out_0054/pw.inp
Warning: card &CELL ignored
Warning: card   CELL_DYNAMICS='IPI', ignored
Warning: card / ignored

     Current dimensions of program PWSCF are:
     Max number of different atomic species (ntypx) = 10
     Max number of k-points (npk) =  40000
     Max angular momentum in pseudopotentials (lmaxx) =  3
     Presently no symmetry can be used with electric field

     Message from routine cell_base_init:
     DEPRECATED: use true lattice parameter, not A to a.u. conversion factor

     IMPORTANT: XC functional enforced from input :
     Exchange-correlation= BEEF-VDW
                           (   1   4  43  14   2   0   0)
     Any further DFT definition will be discarded
     Please, verify this is what you really want

  @ DRIVER MODE: Connecting to
 qe_1139763_2852614.sched-torque.pace.gatech.eduxc5q0q_v_scratch
  using UNIX socket
  @ DRIVER MODE: Message from server: STATUS
  @ DRIVER MODE: Message from server: INIT
  @ DRIVER MODE: Receiving replica           0          -1
  @ DRIVER MODE: Receiving encoded integer          25
  @ DRIVER MODE:  SCF:  T  FORCE:  T  STRESS:  F  VC:  F  ENSEMBLE:  F
  @ DRIVER MODE:  SCF:  T  FORCE:  T  STRESS:  F  VC:  F  ENSEMBLE:  F

     Using Slab Decomposition

     bravais-lattice index     =            0
     lattice parameter (alat)  =       1.8897  a.u.
     unit-cell volume          =    6658.9804 (a.u.)^3
     number of atoms/cell      =           59
     number of atomic types    =            5
     number of electrons       =       406.00
     number of Kohn-Sham states=          213
     kinetic-energy cutoff     =      29.3995  Ry
     charge density cutoff     =     293.9946  Ry
     scf convergence threshold =      7.3E-08
     mixing beta               =       0.0500
     number of iterations used =            8  plain     mixing
     Exchange-correlation= BEEF-VDW
                           (   1   4  43  14   2   0   0)

     celldm(1)=   1.889726  celldm(2)=   0.000000  celldm(3)=   0.000000
     celldm(4)=   0.000000  celldm(5)=   0.000000  celldm(6)=   0.000000

     crystal axes: (cart. coord. in units of alat)
               a(1) = (   6.579727   0.000000   0.000000 )
               a(2) = (  -0.000775   5.961596   0.000000 )
               a(3) = (   0.000000   0.000000  25.155947 )

     reciprocal axes: (cart. coord. in units 2 pi/alat)
               b(1) = (  0.151982  0.000020  0.000000 )
               b(2) = (  0.000000  0.167740  0.000000 )
               b(3) = (  0.000000  0.000000  0.039752 )

     PseudoPot. # 1 for Ti read from file:
     /storage/coda1/p-amedford6/0/shared/rich_project_chbe-medford/medford-share/data/pseudos_module/espresso/nninc/pbe/van/Ti.UPF
     MD5 check sum: 8e4df49b7f0d34bbd5052bf3f5ea0213
     Pseudo is Ultrasoft, Zval = 12.0
     Generated by new atomic code, or converted to UPF format
     Using radial grid of  851 points,  6 beta functions with:
                l(1) =   0
                l(2) =   0
                l(3) =   1
                l(4) =   1
                l(5) =   2
                l(6) =   2
     Q(r) pseudized with  8 coefficients,  rinner =    1.000   1.000   1.000
                                                       1.000   1.000

     PseudoPot. # 2 for O  read from file:
     /storage/coda1/p-amedford6/0/shared/rich_project_chbe-medford/medford-share/data/pseudos_module/espresso/nninc/pbe/van/O.UPF
     MD5 check sum: 78c19812648e8988a0fe644b0f25305e
     Pseudo is Ultrasoft, Zval =  6.0
     Generated by new atomic code, or converted to UPF format
     Using radial grid of  737 points,  4 beta functions with:
                l(1) =   0
                l(2) =   0
                l(3) =   1
                l(4) =   1
     Q(r) pseudized with  8 coefficients,  rinner =    0.800   0.800   0.800

     PseudoPot. # 3 for N  read from file:
     /storage/coda1/p-amedford6/0/shared/rich_project_chbe-medford/medford-share/data/pseudos_module/espresso/nninc/pbe/van/N.UPF
     MD5 check sum: 90d10febe142ad51ac9d5be1deb811c4
     Pseudo is Ultrasoft, Zval =  5.0
     Generated by new atomic code, or converted to UPF format
     Using radial grid of  729 points,  4 beta functions with:
                l(1) =   0
                l(2) =   0
                l(3) =   1
                l(4) =   1
     Q(r) pseudized with  8 coefficients,  rinner =    0.800   0.800   0.800

     PseudoPot. # 4 for C  read from file:
     /storage/coda1/p-amedford6/0/shared/rich_project_chbe-medford/medford-share/data/pseudos_module/espresso/nninc/pbe/van/C.UPF
     MD5 check sum: 1a69bf6b8db32088f5b2163dbdb77a27
     Pseudo is Ultrasoft, Zval =  4.0
     Generated by new atomic code, or converted to UPF format
     Using radial grid of  721 points,  4 beta functions with:
                l(1) =   0
                l(2) =   0
                l(3) =   1
                l(4) =   1
     Q(r) pseudized with  8 coefficients,  rinner =    0.800   0.800   0.800

     PseudoPot. # 5 for H  read from file:
     /storage/coda1/p-amedford6/0/shared/rich_project_chbe-medford/medford-share/data/pseudos_module/espresso/nninc/pbe/van/H.UPF
     MD5 check sum: b5ee9d7bfd3a09ee7748110bda690ff7
     Pseudo is Ultrasoft, Zval =  1.0
     Generated by new atomic code, or converted to UPF format
     Using radial grid of  615 points,  1 beta functions with:
                l(1) =   0
     Q(r) pseudized with  8 coefficients,  rinner =    0.800

     atomic species   valence    mass     pseudopotential
        Ti1           12.00    47.86700     Ti( 1.00)
        O1             6.00    15.99900     O ( 1.00)
        N1             5.00    14.00700     N ( 1.00)
        C1             4.00    12.01100     C ( 1.00)
        H1             1.00     1.00800     H ( 1.00)

     No symmetry found

   Cartesian axes

     site n.     atom                  positions (alat units)
         1           Ti1 tau(   1) = (   0.0004258   2.9801865   6.0000000  )
         2           Ti1 tau(   2) = (   3.2906075   1.4906267   6.0002472  )
         3           O1  tau(   3) = (   0.0006271   0.0005054   7.9858123  )
         4           O1  tau(   4) = (   3.2906025   0.0005020   7.3038282  )
         5           O1  tau(   5) = (   4.5942328   1.4918067   9.2879030  )
         6           O1  tau(   6) = (   1.9868534   1.4903216   9.2879459  )
         7           Ti1 tau(   7) = (   3.2907910   2.8959150   9.1758416  )
         8           Ti1 tau(   8) = (   0.0015273   1.4827037   9.2680791  )
         9           O1  tau(   9) = (   3.2795193   0.0050042  11.3600746  )
        10           O1  tau(  10) = (   0.0116148   5.9584955  10.6183126  )
        11           O1  tau(  11) = (   1.2764768   1.4833402  12.6625751  )
        12           O1  tau(  12) = (   5.2691860   1.4824858  12.6730715  )
        13           Ti1 tau(  13) = (   6.5785005   2.9712200  12.5432933  )
        14           Ti1 tau(  14) = (   3.2815129   1.4861921  12.5133659  )
        15           O1  tau(  15) = (   0.0084525   5.9333602  14.7514412  )
        16           O1  tau(  16) = (   3.2474592   5.9449689  14.0025778  )
        17           O1  tau(  17) = (   4.5272503   1.5270814  16.0535473  )
        18           O1  tau(  18) = (   2.0088677   1.5398698  16.1918835  )
        19           Ti1 tau(  19) = (   3.2695027   3.0127370  15.7044713  )
        20           Ti1 tau(  20) = (   6.4897317   1.5391078  15.7731133  )
        21           O1  tau(  21) = (   3.2904802   0.0005063   4.7018136  )
        22           O1  tau(  22) = (   6.4943121   0.0104379  17.3746616  )
        23           O1  tau(  23) = (   1.3043587   1.4918075   6.0039043  )
        24           O1  tau(  24) = (   5.2767064   1.4903225   6.0039473  )
        25           Ti1 tau(  25) = (   0.0000382   5.9609847   6.0000000  )
        26           Ti1 tau(  26) = (   3.2902200   4.4714249   6.0002472  )
        27           O1  tau(  27) = (   0.0002396   2.9813036   7.9858123  )
        28           O1  tau(  28) = (   3.2902150   2.9813002   7.3038282  )
        29           O1  tau(  29) = (   4.5938453   4.4726049   9.2879030  )
        30           O1  tau(  30) = (   1.9864658   4.4711199   9.2879459  )
        31           Ti1 tau(  31) = (   3.2891106   5.8743827   9.1763621  )
        32           Ti1 tau(  32) = (   0.0006254   4.4649316   9.2693709  )
        33           O1  tau(  33) = (   3.2806081   2.9711243  11.3509633  )
        34           O1  tau(  34) = (   0.0092240   2.9805883  10.6323155  )
        35           O1  tau(  35) = (   1.2760424   4.4718827  12.6381679  )
        36           O1  tau(  36) = (   5.2690016   4.4731519  12.6446470  )
        37           Ti1 tau(  37) = (   6.5708669   5.9382087  12.5160675  )
        38           Ti1 tau(  38) = (   3.2845625   4.4656782  12.4980923  )
        39           O1  tau(  39) = (   6.5779858   3.0049062  14.7590937  )
        40           O1  tau(  40) = (   3.2501146   3.0001303  13.9242794  )
        41           O1  tau(  41) = (   4.5300198   4.4412671  16.1793791  )
        42           O1  tau(  42) = (   2.0030354   4.4482434  16.2507355  )
        43           Ti1 tau(  43) = (   3.2558399   0.0045369  15.7947069  )
        44           Ti1 tau(  44) = (   0.0024851   4.6597080  16.1671864  )
        45           O1  tau(  45) = (   3.2900926   2.9813045   4.7018136  )
        46           O1  tau(  46) = (   1.3039711   4.4726057   6.0039043  )
        47           O1  tau(  47) = (   5.2763189   4.4711207   6.0039473  )
        48           N1  tau(  48) = (   0.8610865   2.3037131  18.4629187  )
        49           N1  tau(  49) = (   6.4642385   2.8627238  17.5618644  )
        50           C1  tau(  50) = (   1.1134797   3.0572184  19.7121060  )
        51           H1  tau(  51) = (   0.2160447   3.0254214  20.3281890  )
        52           H1  tau(  52) = (   1.9467850   2.5864873  20.2353232  )
        53           H1  tau(  53) = (   1.3463996   4.0866186  19.4485780  )
        54           H1  tau(  54) = (   0.5832711   1.3114681  18.6183785  )
        55           H1  tau(  55) = (   5.5643591   2.7461405  18.0238738  )
        56           H1  tau(  56) = (   1.7079168   2.1891883  17.8802682  )
        57           O1  tau(  57) = (   4.0734316   0.3075885  18.7765601  )
        58           H1  tau(  58) = (   4.9241673   0.1787741  18.2816895  )
        59           H1  tau(  59) = (   3.8734322   5.3936830  19.1372508  )

     number of k points=    10  Fermi-Dirac smearing, width (Ry)=  0.0073
                       cart. coord. in units 2pi/alat
        k(    1) = (   0.0000000   0.0000000   0.0000000), wk =   0.1250000
        k(    2) = (   0.0000000   0.0419351   0.0000000), wk =   0.2500000
        k(    3) = (   0.0000000  -0.0838702   0.0000000), wk =   0.1250000
        k(    4) = (   0.0379955   0.0000049   0.0000000), wk =   0.2500000
        k(    5) = (   0.0379955   0.0419400   0.0000000), wk =   0.2500000
        k(    6) = (   0.0379955  -0.0838652   0.0000000), wk =   0.2500000
        k(    7) = (   0.0379955  -0.0419301   0.0000000), wk =   0.2500000
        k(    8) = (  -0.0759910  -0.0000099   0.0000000), wk =   0.1250000
        k(    9) = (  -0.0759910   0.0419252   0.0000000), wk =   0.2500000
        k(   10) = (  -0.0759910  -0.0838800   0.0000000), wk =   0.1250000

     Initial potential from superposition of free atoms

     starting charge  389.99912, renormalised to  406.00000

     negative rho (up, down):  1.392E-02 0.000E+00

     %%%%%%%%%%%%%%%%%%%%%%%%%%%%%%%%%%%%%%%%%%%%%%%%%%%%%%%%%%%%%%%%%%%%%%%%
     %                                                                      %
     % You are using vdW-DF, which was implemented by the Thonhauser group. %
     % Please cite the following two papers that made this development      %
     % possible and the two reviews that describe the various versions:     %
     %                                                                      %
     %   T. Thonhauser et al., PRL 115, 136402 (2015).                      %
     %   T. Thonhauser et al., PRB 76, 125112 (2007).                       %
     %   K. Berland et al., Rep. Prog. Phys. 78, 066501 (2015).             %
     %   D.C. Langreth et al., J. Phys.: Condens. Matter 21, 084203 (2009). %
     %                                                                      %
     %                                                                      %
     % If you are calculating the stress with vdW-DF, please also cite:     %
     %                                                                      %
     %   R. Sabatini et al., J. Phys.: Condens. Matter 24, 424209 (2012).   %
     %                                                                      %
     %%%%%%%%%%%%%%%%%%%%%%%%%%%%%%%%%%%%%%%%%%%%%%%%%%%%%%%%%%%%%%%%%%%%%%%%

     Adding external electric field

     Computed dipole along edir(3) :
        Dipole              -15.6816 Ry au,        -39.8587 Debye
        Dipole field         -0.0296 Ry au,

        Potential amp.        2.7433 Ry
        Total length         46.3494 bohr

     Starting wfcs are  308 atomic wfcs
  @ DRIVER MODE: Message from server: STATUS
  @ DRIVER MODE: Message from server: POSDATA
  @ DRIVER MODE: Reading and sharing cell
  @ DRIVER MODE: Reading and sharing positions
  @ DRIVER MODE: Received positions

     Self-consistent Calculation

     iteration #  1     ecut=    29.40 Ry     beta= 0.05
     Davidson diagonalization with overlap
     c_bands:  2 eigenvalues not converged
     c_bands:  5 eigenvalues not converged
     c_bands:  2 eigenvalues not converged
     c_bands:  4 eigenvalues not converged
     c_bands:  4 eigenvalues not converged
     c_bands:  5 eigenvalues not converged
     c_bands:  5 eigenvalues not converged
     c_bands:  1 eigenvalues not converged
     ethr =  1.00E-05,  avg # of iterations = 22.5

[...]

     total energy              =   -2140.11495255 Ry
     estimated scf accuracy    <    9575.60193782 Ry

     iteration #  2     ecut=    29.40 Ry     beta= 0.05
     Davidson diagonalization with overlap
     ethr =  1.00E-02,  avg # of iterations = 31.7

[...]

     iteration # 68     ecut=    29.40 Ry     beta= 0.05
     Davidson diagonalization with overlap
     c_bands:  1 eigenvalues not converged
     ethr =  7.63E-11,  avg # of iterations = 13.6

[...]

     total energy              =   -2977.68488841 Ry
     estimated scf accuracy    <       0.00000009 Ry

     iteration # 71     ecut=    29.40 Ry     beta= 0.05
     Davidson diagonalization with overlap
     ethr =  2.20E-11,  avg # of iterations =  2.5

     negative rho (up, down):  1.236E-02 0.000E+00

     Adding external electric field

     Computed dipole along edir(3) :
        Dipole                1.6056 Ry au,          4.0809 Debye
        Dipole field          0.0030 Ry au,

        Potential amp.       -0.2809 Ry
        Total length         46.3494 bohr

     End of self-consistent calculation

          k = 0.0000 0.0000 0.0000 ( 18029 PWs)   bands (ev):

   -54.9542 -54.9173 -54.9149 -54.8832 -54.8442 -54.8339 -54.7937 -54.7623
   -54.7583 -54.7468 -54.7271 -54.7218 -54.7136 -54.6599 -53.9329 -53.8988
   -31.5262 -31.4074 -31.3205 -31.2818 -31.2655 -31.2517 -31.2490 -31.2440
   -31.2095 -31.2073 -31.1630 -31.1624 -31.1569 -31.1269 -31.1083 -31.0884
   -31.0779 -31.0722 -31.0703 -31.0634 -31.0289 -31.0250 -31.0187 -31.0125
   -30.9927 -30.9742 -30.9641 -30.9630 -30.9560 -30.9555 -30.9451 -30.9366
   -30.9205 -30.9201 -30.9116 -30.9102 -30.8846 -30.8777 -30.8758 -30.8751
   -30.8563 -30.8557 -30.3416 -30.2491 -30.2270 -30.1581 -30.0714 -29.9604
   -18.9839 -18.2106 -15.7891 -15.5209 -15.3956 -15.1962 -15.1428 -15.0381
   -14.8782 -14.8174 -14.7526 -14.7278 -14.7167 -14.6950 -14.6224 -14.5669
   -14.5380 -14.4855 -14.4847 -14.4488 -14.4415 -14.4354 -14.3822 -14.3782
   -14.3418 -14.3279 -14.3204 -14.1774 -14.0987 -14.0518 -14.0399 -13.2115
   -12.4355 -12.3183 -11.0036  -7.6045  -6.4106  -5.9760  -5.7737  -4.0161
    -3.8562  -3.1333  -2.9634  -2.9510  -2.8727  -2.8489  -2.6784  -2.6185
    -2.5117  -2.3964  -2.3183  -2.2205  -2.1765  -2.1587  -2.1448  -2.0318
    -1.9458  -1.9079  -1.8693  -1.8300  -1.8133  -1.7679  -1.7468  -1.7367
    -1.7041  -1.6783  -1.5256  -1.4517  -1.4152  -1.3806  -1.3404  -1.2831
    -1.2621  -1.2452  -1.2395  -1.2317  -1.2156  -1.1898  -1.1557  -1.1234
    -1.0559  -0.9720  -0.9620  -0.8506  -0.7653  -0.6345  -0.5807  -0.5229
    -0.4924  -0.4260  -0.3841  -0.3362  -0.3009  -0.2943  -0.2483  -0.1602
    -0.1480  -0.0894  -0.0710   0.0135   0.0585   0.0652   0.0764   0.2534
     0.2631   0.2811   0.3847   0.4665   0.5037   0.5205   0.5778   0.6403
     0.6426   0.6812   0.7032   0.7335   0.8163   0.9202   0.9451   0.9833
     0.9977   1.0231   1.0403   1.0674   1.1064   1.1876   1.1937   1.2710
     1.3614   1.3738   1.6376   1.6695   2.0003   2.0272   2.0897   2.2754
     2.6642   2.7117   4.1479   4.2099   4.2551   4.2807   4.2989   4.3787
     4.3975   4.6158   4.6420   4.6431   4.6522

[...]

          k = 0.0380-0.0419 0.0000 ( 17876 PWs)   bands (ev):

[...]

          k =-0.0760-0.0000 0.0000 ( 17886 PWs)   bands (ev):

[...]

          k =-0.0760-0.0839 0.0000 ( 17948 PWs)   bands (ev):

   -54.9423 -54.9265 -54.9002 -54.9002 -54.8417 -54.8244 -54.8033 -54.7559
   -54.7470 -54.7414 -54.7320 -54.7290 -54.7241 -54.6623 -53.9159 -53.9157
   -31.3350 -31.3236 -31.2576 -31.2225 -31.2225 -31.2164 -31.1928 -31.1926
   -31.1683 -31.1654 -31.1563 -31.1526 -31.1446 -31.0947 -31.0811 -31.0803
   -31.0761 -31.0747 -31.0716 -31.0688 -31.0421 -31.0316 -31.0295 -31.0229
   -31.0220 -31.0195 -31.0195 -31.0189 -30.9978 -30.9806 -30.9744 -30.9679
   -30.9613 -30.9555 -30.9539 -30.9500 -30.9497 -30.9227 -30.9154 -30.9123
   -30.9077 -30.8974 -30.2397 -30.2395 -30.1543 -30.1540 -30.1148 -30.1148
   -18.9790 -18.2112 -15.2797 -15.1529 -15.0543 -14.9974 -14.9519 -14.9357
   -14.9183 -14.8644 -14.8335 -14.7733 -14.7512 -14.7030 -14.6591 -14.6551
   -14.6273 -14.5481 -14.5327 -14.5203 -14.5129 -14.4619 -14.4479 -14.4251
   -14.4024 -14.3983 -14.3800 -14.3076 -14.2978 -14.2936 -14.2554 -13.2210
   -12.4200 -12.4198 -11.0041  -7.6152  -6.4011  -5.9754  -5.7587  -3.9948
    -3.8510  -2.5635  -2.5407  -2.4055  -2.3957  -2.2796  -2.1874  -2.1373
    -2.1316  -1.9927  -1.9598  -1.9433  -1.9285  -1.9161  -1.8675  -1.8433
    -1.8079  -1.7906  -1.7811  -1.7712  -1.7556  -1.7352  -1.6832  -1.6792
    -1.6685  -1.6540  -1.6099  -1.5942  -1.5633  -1.5526  -1.5242  -1.5015
    -1.4344  -1.3404  -1.2925  -1.2478  -1.1952  -1.1425  -1.1365  -1.0575
    -1.0398  -1.0081  -0.9772  -0.9526  -0.8568  -0.7830  -0.6890  -0.6866
    -0.6828  -0.5628  -0.5227  -0.5058  -0.4931  -0.4622  -0.3777  -0.3680
    -0.3087  -0.2340  -0.2080  -0.2030  -0.1768  -0.0581  -0.0327   0.0278
     0.0590   0.0908   0.0930   0.1719   0.1855   0.2439   0.2590   0.2723
     0.3172   0.3348   0.4334   0.5232   0.5582   0.6620   0.7543   0.7840
     0.8797   0.9367   1.0406   1.0617   1.0857   1.1822   1.1901   1.2253
     1.3544   1.3613   1.4771   1.5168   1.5268   1.5294   2.4478   2.4492
     2.5317   2.5318   4.2744   4.3975   4.4127   4.4589   4.5134   4.6546
     4.6780   4.7251   4.7268   4.8010   4.8094

     the Fermi energy is     4.2001 ev

!    total energy              =   -2977.68491175 Ry
     estimated scf accuracy    <       0.00000006 Ry
     smearing contrib. (-TS)   =      -0.03701512 Ry
     internal energy E=F+TS    =   -2977.64789663 Ry

     The total energy is F=E-TS. E is the sum of the following terms:
     one-electron contribution =  -23305.27797058 Ry
     hartree contribution      =   11753.63108844 Ry
     xc contribution           =    -496.61116592 Ry
     ewald contribution        =    9070.60528679 Ry
     electric field correction =       0.00486463 Ry

     convergence has been achieved in  71 iterations

     Forces acting on atoms (cartesian axes, Ry/au):

     atom    1 type  1   force =     0.00008681   -0.00025293    0.09412937
     atom    2 type  1   force =    -0.00008698   -0.00045574   -0.17747817
     atom    3 type  2   force =     0.00006143   -0.00032917   -0.02123084
     atom    4 type  2   force =     0.00003765   -0.00179411    0.05730517
     atom    5 type  2   force =    -0.01079601   -0.00101564    0.00668051
     atom    6 type  2   force =     0.01199430   -0.00033464    0.00503198
     atom    7 type  1   force =    -0.00060098    0.00105408   -0.01461920
     atom    8 type  1   force =     0.00086225    0.00331318    0.00460283
     atom    9 type  2   force =     0.00000882   -0.00005397    0.00013046
     atom   10 type  2   force =    -0.00368630    0.00210790   -0.00165829
     atom   11 type  2   force =    -0.00017436    0.00061698   -0.00010221
     atom   12 type  2   force =     0.00018725    0.00028297   -0.00021580
     atom   13 type  1   force =    -0.00019153   -0.00027547    0.00010091
     atom   14 type  1   force =     0.00024075   -0.00021791   -0.00034631
     atom   15 type  2   force =     0.00016930    0.00032899   -0.00008936
     atom   16 type  2   force =    -0.00010138    0.00022826   -0.00024874
     atom   17 type  2   force =    -0.00002933   -0.00029006    0.00035251
     atom   18 type  2   force =     0.00041186   -0.00025338   -0.00045081
     atom   19 type  1   force =    -0.00034523   -0.00011380   -0.00026068
     atom   20 type  1   force =     0.00076528   -0.00005173   -0.00004787
     atom   21 type  2   force =     0.00011926   -0.00008211    0.10378521
     atom   22 type  2   force =     0.00056725   -0.00024174   -0.00053683
     atom   23 type  2   force =    -0.07066610   -0.00014818   -0.02714106
     atom   24 type  2   force =     0.07063226    0.00031749   -0.02714697
     atom   25 type  1   force =     0.00010849   -0.00017044    0.09373895
     atom   26 type  1   force =    -0.00006360   -0.00053529   -0.17769444
     atom   27 type  2   force =     0.00006851   -0.00005511   -0.02033160
     atom   28 type  2   force =     0.00006682   -0.00146137    0.05630573
     atom   29 type  2   force =    -0.01130223   -0.00039539    0.00736019
     atom   30 type  2   force =     0.01241697   -0.00000088    0.00575171
     atom   31 type  1   force =    -0.00074419    0.00573462   -0.01565561
     atom   32 type  1   force =     0.00081567   -0.00459277    0.00434065
     atom   33 type  2   force =     0.00002279    0.00015082    0.00027793
     atom   34 type  2   force =    -0.00321243   -0.00103185   -0.00520492
     atom   35 type  2   force =    -0.00011060   -0.00039813    0.00007741
     atom   36 type  2   force =     0.00021231   -0.00006944   -0.00009978
     atom   37 type  1   force =    -0.00012027    0.00043981   -0.00011709
     atom   38 type  1   force =     0.00008994    0.00015134   -0.00010759
     atom   39 type  2   force =    -0.00047695   -0.00029166   -0.00014146
     atom   40 type  2   force =     0.00013855   -0.00006949    0.00021177
     atom   41 type  2   force =     0.00003495    0.00019834   -0.00010347
     atom   42 type  2   force =     0.00046988    0.00012584   -0.00027041
     atom   43 type  1   force =    -0.00043874    0.00031799   -0.00007619
     atom   44 type  1   force =     0.00039193    0.00039914    0.00013600
     atom   45 type  2   force =     0.00010665   -0.00006562    0.10376764
     atom   46 type  2   force =    -0.07066301   -0.00006960   -0.02712761
     atom   47 type  2   force =     0.07064146    0.00032729   -0.02714766
     atom   48 type  3   force =    -0.00438433   -0.00032932    0.00592543
     atom   49 type  3   force =     0.00068566   -0.00045319    0.00007620
     atom   50 type  4   force =    -0.00023116    0.00053031    0.00045048
     atom   51 type  5   force =     0.00069791    0.00084274   -0.00025097
     atom   52 type  5   force =    -0.00008424    0.00031507    0.00021235
     atom   53 type  5   force =     0.00014196   -0.00055313   -0.00053965
     atom   54 type  5   force =     0.00008223   -0.00029002    0.00028995
     atom   55 type  5   force =     0.00050546   -0.00070219    0.00002327
     atom   56 type  5   force =     0.00479693   -0.00017262   -0.00472130
     atom   57 type  2   force =    -0.00085849    0.00084771    0.00149087
     atom   58 type  5   force =     0.00034136   -0.00062909   -0.00106321
     atom   59 type  5   force =     0.00038754   -0.00038369   -0.00032938

     Total force =     0.365978     Total SCF correction =     0.000838
  @ DRIVER MODE: Message from server: STATUS
  @ DRIVER MODE: Message from server: GETFORCE
  @ DRIVER MODE: Returning v,forces,stress,ensemble

     Writing output data file ./calc.save/
  @ DRIVER MODE: Message from server: EXIT
  @ DRIVE MODE: Exiting

     General routines

     Parallel routines

   This run was terminated on:  11:19:18  16Sep2021

   JOB DONE.