     Program PWSCF v.6.7GPU starts on 23Sep2021 at  4:54:39

     R & G space division:  proc/nbgrp/npool/nimage =       8
     Reading input from /storage/home/hcoda1/3/ntian30/research/carbon/CxH_vib/H2O_calc/ads_slab/CH2OHHO_a/out_0019/pw.inp
Warning: card &CELL ignored
Warning: card   CELL_DYNAMICS='IPI', ignored
Warning: card / ignored

     Current dimensions of program PWSCF are:
     Max number of different atomic species (ntypx) = 10
     Max number of k-points (npk) =  40000
     Max angular momentum in pseudopotentials (lmaxx) =  3
     Presently no symmetry can be used with electric field

     Message from routine cell_base_init:
     DEPRECATED: use true lattice parameter, not A to a.u. conversion factor

     IMPORTANT: XC functional enforced from input :
     Exchange-correlation= BEEF-VDW
                           (   1   4  43  14   2   0   0)
     Any further DFT definition will be discarded
     Please, verify this is what you really want

  @ DRIVER MODE: Connecting to
 qe_1139763_2941013.sched-torque.pace.gatech.edub0mnduev_scratch
  using UNIX socket
  @ DRIVER MODE: Message from server: STATUS
  @ DRIVER MODE: Message from server: INIT
  @ DRIVER MODE: Receiving replica           0          -1
  @ DRIVER MODE: Receiving encoded integer          25
  @ DRIVER MODE:  SCF:  T  FORCE:  T  STRESS:  F  VC:  F  ENSEMBLE:  F
  @ DRIVER MODE:  SCF:  T  FORCE:  T  STRESS:  F  VC:  F  ENSEMBLE:  F

     Using Slab Decomposition

     bravais-lattice index     =            0
     lattice parameter (alat)  =       1.8897  a.u.
     unit-cell volume          =    6658.9804 (a.u.)^3
     number of atoms/cell      =           54
     number of atomic types    =            4
     number of electrons       =       398.00
     number of Kohn-Sham states=          209
     kinetic-energy cutoff     =      29.3995  Ry
     charge density cutoff     =     293.9946  Ry
     scf convergence threshold =      7.3E-08
     mixing beta               =       0.0500
     number of iterations used =            8  plain     mixing
     Exchange-correlation= BEEF-VDW
                           (   1   4  43  14   2   0   0)

     celldm(1)=   1.889726  celldm(2)=   0.000000  celldm(3)=   0.000000
     celldm(4)=   0.000000  celldm(5)=   0.000000  celldm(6)=   0.000000

     crystal axes: (cart. coord. in units of alat)
               a(1) = (   6.579727   0.000000   0.000000 )
               a(2) = (  -0.000775   5.961596   0.000000 )
               a(3) = (   0.000000   0.000000  25.155947 )

     reciprocal axes: (cart. coord. in units 2 pi/alat)
               b(1) = (  0.151982  0.000020  0.000000 )
               b(2) = (  0.000000  0.167740  0.000000 )
               b(3) = (  0.000000  0.000000  0.039752 )

     PseudoPot. # 1 for Ti read from file:
     /storage/coda1/p-amedford6/0/shared/rich_project_chbe-medford/medford-share/data/pseudos_module/espresso/nninc/pbe/van/Ti.UPF
     MD5 check sum: 8e4df49b7f0d34bbd5052bf3f5ea0213
     Pseudo is Ultrasoft, Zval = 12.0
     Generated by new atomic code, or converted to UPF format
     Using radial grid of  851 points,  6 beta functions with:
                l(1) =   0
                l(2) =   0
                l(3) =   1
                l(4) =   1
                l(5) =   2
                l(6) =   2
     Q(r) pseudized with  8 coefficients,  rinner =    1.000   1.000   1.000
                                                       1.000   1.000

     PseudoPot. # 2 for O  read from file:
     /storage/coda1/p-amedford6/0/shared/rich_project_chbe-medford/medford-share/data/pseudos_module/espresso/nninc/pbe/van/O.UPF
     MD5 check sum: 78c19812648e8988a0fe644b0f25305e
     Pseudo is Ultrasoft, Zval =  6.0
     Generated by new atomic code, or converted to UPF format
     Using radial grid of  737 points,  4 beta functions with:
                l(1) =   0
                l(2) =   0
                l(3) =   1
                l(4) =   1
     Q(r) pseudized with  8 coefficients,  rinner =    0.800   0.800   0.800

     PseudoPot. # 3 for C  read from file:
     /storage/coda1/p-amedford6/0/shared/rich_project_chbe-medford/medford-share/data/pseudos_module/espresso/nninc/pbe/van/C.UPF
     MD5 check sum: 1a69bf6b8db32088f5b2163dbdb77a27
     Pseudo is Ultrasoft, Zval =  4.0
     Generated by new atomic code, or converted to UPF format
     Using radial grid of  721 points,  4 beta functions with:
                l(1) =   0
                l(2) =   0
                l(3) =   1
                l(4) =   1
     Q(r) pseudized with  8 coefficients,  rinner =    0.800   0.800   0.800

     PseudoPot. # 4 for H  read from file:
     /storage/coda1/p-amedford6/0/shared/rich_project_chbe-medford/medford-share/data/pseudos_module/espresso/nninc/pbe/van/H.UPF
     MD5 check sum: b5ee9d7bfd3a09ee7748110bda690ff7
     Pseudo is Ultrasoft, Zval =  1.0
     Generated by new atomic code, or converted to UPF format
     Using radial grid of  615 points,  1 beta functions with:
                l(1) =   0
     Q(r) pseudized with  8 coefficients,  rinner =    0.800

     atomic species   valence    mass     pseudopotential
        Ti1           12.00    47.86700     Ti( 1.00)
        O1             6.00    15.99900     O ( 1.00)
        C1             4.00    12.01100     C ( 1.00)
        H1             1.00     1.00800     H ( 1.00)

     No symmetry found

   Cartesian axes

     site n.     atom                  positions (alat units)
         1           Ti1 tau(   1) = (   0.0004258   2.9801865   6.0000000  )
         2           Ti1 tau(   2) = (   3.2906075   1.4906267   6.0002472  )
         3           O1  tau(   3) = (   0.0006271   0.0005054   7.9858123  )
         4           O1  tau(   4) = (   3.2906025   0.0005020   7.3038282  )
         5           O1  tau(   5) = (   4.5942328   1.4918067   9.2879030  )
         6           O1  tau(   6) = (   1.9868534   1.4903216   9.2879459  )
         7           Ti1 tau(   7) = (   3.2053781   3.0281819   9.2289109  )
         8           Ti1 tau(   8) = (   6.4789090   1.5422439   9.3246958  )
         9           O1  tau(   9) = (   3.3131828   0.0076525  11.3143355  )
        10           O1  tau(  10) = (   0.0036331   0.0073455  10.5537702  )
        11           O1  tau(  11) = (   1.2849538   1.5262321  12.5678262  )
        12           O1  tau(  12) = (   5.3289628   1.4687457  12.6164477  )
        13           Ti1 tau(  13) = (   0.0494698   3.0469090  12.7547230  )
        14           Ti1 tau(  14) = (   3.2845375   1.6334081  12.5308488  )
        15           O1  tau(  15) = (   0.1943872   0.0117586  14.6058021  )
        16           O1  tau(  16) = (   3.1943342   5.9422946  13.9142442  )
        17           O1  tau(  17) = (   4.6623408   1.4089460  15.7678261  )
        18           O1  tau(  18) = (   2.0428328   1.6351894  16.0888801  )
        19           Ti1 tau(  19) = (   3.4388860   2.9458104  15.8736401  )
        20           Ti1 tau(  20) = (   0.1295272   1.3814375  15.8666627  )
        21           O1  tau(  21) = (   3.2904802   0.0005063   4.7018136  )
        22           O1  tau(  22) = (   0.0846747   0.0144810  17.1090220  )
        23           O1  tau(  23) = (   1.3043587   1.4918075   6.0039043  )
        24           O1  tau(  24) = (   5.2767064   1.4903225   6.0039473  )
        25           Ti1 tau(  25) = (   0.0000382   5.9609847   6.0000000  )
        26           Ti1 tau(  26) = (   3.2902200   4.4714249   6.0002472  )
        27           O1  tau(  27) = (   0.0002396   2.9813036   7.9858123  )
        28           O1  tau(  28) = (   3.2902150   2.9813002   7.3038282  )
        29           O1  tau(  29) = (   4.5938453   4.4726049   9.2879030  )
        30           O1  tau(  30) = (   1.9864658   4.4711199   9.2879459  )
        31           Ti1 tau(  31) = (   3.2224821   0.0470802   9.2230333  )
        32           Ti1 tau(  32) = (   6.4759698   4.4664252   9.3127940  )
        33           O1  tau(  33) = (   3.3094535   2.9663607  11.2852029  )
        34           O1  tau(  34) = (   6.5591786   2.9896559  10.5312464  )
        35           O1  tau(  35) = (   1.2916819   4.4480478  12.5709280  )
        36           O1  tau(  36) = (   5.3369627   4.5124161  12.6303246  )
        37           Ti1 tau(  37) = (   6.5569224   0.0640291  12.4639877  )
        38           Ti1 tau(  38) = (   3.2972653   4.6387695  12.6472152  )
        39           O1  tau(  39) = (   0.0654804   2.9943531  14.6628162  )
        40           O1  tau(  40) = (   3.3673531   2.9793459  13.8791815  )
        41           O1  tau(  41) = (   4.6654837   4.5585741  15.7845026  )
        42           O1  tau(  42) = (   2.0434307   4.3527116  16.0649513  )
        43           Ti1 tau(  43) = (   3.4443475   5.9291804  16.0141943  )
        44           Ti1 tau(  44) = (   0.1552736   4.5966999  15.8683145  )
        45           O1  tau(  45) = (   3.2900926   2.9813045   4.7018136  )
        46           O1  tau(  46) = (   1.3039711   4.4726057   6.0039043  )
        47           O1  tau(  47) = (   5.2763189   4.4711207   6.0039473  )
        48           C1  tau(  48) = (   4.6056898   2.9812133  17.8228851  )
        49           O1  tau(  49) = (   6.0966523   2.9907575  17.4046881  )
        50           H1  tau(  50) = (   0.0599730   2.9907033  18.2108262  )
        51           H1  tau(  51) = (   4.4820754   2.0732530  18.4117920  )
        52           H1  tau(  52) = (   4.4771298   3.8877196  18.4106030  )
        53           O1  tau(  53) = (   3.3127961   5.9530928  17.8757943  )
        54           H1  tau(  54) = (   2.4287022   0.1083392  18.2542858  )

     number of k points=    10  Fermi-Dirac smearing, width (Ry)=  0.0073
                       cart. coord. in units 2pi/alat
        k(    1) = (   0.0000000   0.0000000   0.0000000), wk =   0.1250000
        k(    2) = (   0.0000000   0.0419351   0.0000000), wk =   0.2500000
        k(    3) = (   0.0000000  -0.0838702   0.0000000), wk =   0.1250000
        k(    4) = (   0.0379955   0.0000049   0.0000000), wk =   0.2500000
        k(    5) = (   0.0379955   0.0419400   0.0000000), wk =   0.2500000
        k(    6) = (   0.0379955  -0.0838652   0.0000000), wk =   0.2500000
        k(    7) = (   0.0379955  -0.0419301   0.0000000), wk =   0.2500000
        k(    8) = (  -0.0759910  -0.0000099   0.0000000), wk =   0.1250000
        k(    9) = (  -0.0759910   0.0419252   0.0000000), wk =   0.2500000
        k(   10) = (  -0.0759910  -0.0838800   0.0000000), wk =   0.1250000

     Initial potential from superposition of free atoms

     starting charge  381.99917, renormalised to  398.00000

     negative rho (up, down):  1.911E-02 0.000E+00

     %%%%%%%%%%%%%%%%%%%%%%%%%%%%%%%%%%%%%%%%%%%%%%%%%%%%%%%%%%%%%%%%%%%%%%%%
     %                                                                      %
     % You are using vdW-DF, which was implemented by the Thonhauser group. %
     % Please cite the following two papers that made this development      %
     % possible and the two reviews that describe the various versions:     %
     %                                                                      %
     %   T. Thonhauser et al., PRL 115, 136402 (2015).                      %
     %   T. Thonhauser et al., PRB 76, 125112 (2007).                       %
     %   K. Berland et al., Rep. Prog. Phys. 78, 066501 (2015).             %
     %   D.C. Langreth et al., J. Phys.: Condens. Matter 21, 084203 (2009). %
     %                                                                      %
     %                                                                      %
     % If you are calculating the stress with vdW-DF, please also cite:     %
     %                                                                      %
     %   R. Sabatini et al., J. Phys.: Condens. Matter 24, 424209 (2012).   %
     %                                                                      %
     %%%%%%%%%%%%%%%%%%%%%%%%%%%%%%%%%%%%%%%%%%%%%%%%%%%%%%%%%%%%%%%%%%%%%%%%

     Adding external electric field

     Computed dipole along edir(3) :
        Dipole               -7.9392 Ry au,        -20.1794 Debye
        Dipole field         -0.0150 Ry au,

        Potential amp.        1.3888 Ry
        Total length         46.3494 bohr

     Starting wfcs are  300 atomic wfcs
  @ DRIVER MODE: Message from server: STATUS
  @ DRIVER MODE: Message from server: POSDATA
  @ DRIVER MODE: Reading and sharing cell
  @ DRIVER MODE: Reading and sharing positions
  @ DRIVER MODE: Received positions

     Self-consistent Calculation

     iteration #  1     ecut=    29.40 Ry     beta= 0.05
     Davidson diagonalization with overlap
     c_bands:  1 eigenvalues not converged
     c_bands:  2 eigenvalues not converged
     c_bands:  2 eigenvalues not converged
     c_bands:  1 eigenvalues not converged
     c_bands:  1 eigenvalues not converged
     c_bands:  1 eigenvalues not converged
     ethr =  1.00E-05,  avg # of iterations = 18.8

[...]

     total energy              =   -2649.58703518 Ry
     estimated scf accuracy    <    3499.65242244 Ry

[...]

     iteration #  3     ecut=    29.40 Ry     beta= 0.05
     Davidson diagonalization with overlap
     ethr =  1.00E-02,  avg # of iterations = 14.3

[...]

     iteration # 31     ecut=    29.40 Ry     beta= 0.05
     Davidson diagonalization with overlap
     c_bands:  1 eigenvalues not converged
     c_bands:  1 eigenvalues not converged
     ethr =  6.73E-07,  avg # of iterations =  8.3

[...]

     total energy              =   -2964.91874308 Ry
     estimated scf accuracy    <       0.00000011 Ry

     iteration # 54     ecut=    29.40 Ry     beta= 0.05
     Davidson diagonalization with overlap
     ethr =  2.66E-11,  avg # of iterations =  3.2

     negative rho (up, down):  1.875E-02 0.000E+00

     Adding external electric field

     Computed dipole along edir(3) :
        Dipole                0.6455 Ry au,          1.6408 Debye
        Dipole field          0.0012 Ry au,

        Potential amp.       -0.1129 Ry
        Total length         46.3494 bohr

     End of self-consistent calculation

          k = 0.0000 0.0000 0.0000 ( 18029 PWs)   bands (ev):

   -56.4304 -56.3656 -55.7970 -55.7957 -55.7490 -55.7450 -55.7420 -55.7010
   -55.6937 -55.6462 -55.4584 -55.4434 -55.3795 -55.3604 -54.9560 -54.9221
   -32.8328 -32.7060 -32.6292 -32.6014 -32.4995 -32.4575 -32.4113 -32.3216
   -32.2148 -32.1826 -32.1048 -32.0612 -32.0405 -32.0049 -32.0033 -31.9949
   -31.9756 -31.9608 -31.9558 -31.9446 -31.9395 -31.9356 -31.9236 -31.9058
   -31.8930 -31.8912 -31.8727 -31.8638 -31.8512 -31.8335 -31.8233 -31.7984
   -31.7594 -31.7035 -31.6605 -31.6470 -31.6226 -31.5927 -31.5900 -31.5593
   -31.5488 -31.4183 -31.3487 -31.3030 -31.2785 -31.1645 -31.0784 -30.9695
   -19.3265 -16.5884 -16.4375 -16.3076 -16.1713 -15.9565 -15.9275 -15.8246
   -15.7230 -15.6820 -15.6007 -15.5721 -15.4340 -15.3843 -15.3561 -15.3348
   -15.3149 -15.2959 -15.2813 -15.2435 -15.2280 -15.1943 -15.1408 -15.0751
   -15.0537 -15.0017 -14.9701 -14.9538 -14.8693 -14.8046 -14.7240 -13.4633
   -13.3574  -9.1592  -6.1958  -4.0863  -3.9775  -3.9324  -3.8818  -3.7853
    -3.7196  -3.6862  -3.6239  -3.3063  -3.1744  -3.0806  -3.0273  -3.0032
    -2.9272  -2.9261  -2.9124  -2.7946  -2.7350  -2.7092  -2.6475  -2.6305
    -2.5876  -2.5537  -2.5479  -2.5337  -2.4914  -2.4516  -2.4116  -2.3923
    -2.3465  -2.2635  -2.2456  -2.1679  -2.1334  -2.1118  -2.0244  -1.9595
    -1.9498  -1.9126  -1.8893  -1.7816  -1.6054  -1.5191  -1.4615  -1.4069
    -1.3855  -1.3183  -1.3090  -1.2511  -1.1935  -1.1688  -1.1650  -1.0487
    -0.9960  -0.9635  -0.9172  -0.8830  -0.8185  -0.7714  -0.7552  -0.7253
    -0.7115  -0.6041  -0.5166  -0.4970  -0.4683  -0.4351  -0.3144  -0.2685
    -0.2350  -0.2080  -0.1911  -0.1500  -0.1060  -0.0380   0.0072   0.0629
     0.1017   0.1726   0.1829   0.2213   0.2562   0.2923   0.3561   0.3712
     0.4749   0.5039   0.5603   0.5969   0.7419   0.7704   0.9292   0.9916
     1.0546   1.1491   1.2750   1.3374   1.5849   1.6243   1.7868   2.8846
     3.0475   3.3151   3.3597   3.4950   3.5650   3.6229   3.7647   3.7913
     3.8455

[...]

          k = 0.0380-0.0419 0.0000 ( 17876 PWs)   bands (ev):

[...]

          k =-0.0760-0.0000 0.0000 ( 17886 PWs)   bands (ev):

[...]

          k =-0.0760-0.0839 0.0000 ( 17948 PWs)   bands (ev):

   -56.4257 -56.3701 -55.7893 -55.7892 -55.7565 -55.7483 -55.7376 -55.7082
   -55.6865 -55.6534 -55.4554 -55.4385 -55.3843 -55.3633 -54.9391 -54.9388
   -32.7030 -32.6718 -32.6312 -32.6260 -32.5729 -32.5252 -32.3336 -32.1607
   -32.1066 -32.0736 -32.0530 -32.0351 -32.0344 -32.0217 -32.0141 -32.0124
   -31.9971 -31.9817 -31.9761 -31.9561 -31.9554 -31.9525 -31.9493 -31.9364
   -31.9237 -31.9031 -31.8927 -31.8832 -31.8667 -31.8377 -31.7865 -31.7671
   -31.7571 -31.7220 -31.7144 -31.6809 -31.6615 -31.6486 -31.6342 -31.6023
   -31.5960 -31.4193 -31.2917 -31.2914 -31.1625 -31.1620 -31.1217 -31.1214
   -19.3191 -16.2419 -16.1287 -15.9399 -15.9044 -15.8279 -15.8262 -15.7769
   -15.7374 -15.6404 -15.5852 -15.5667 -15.4948 -15.4704 -15.4533 -15.4274
   -15.3771 -15.3520 -15.3284 -15.3173 -15.2735 -15.2496 -15.2454 -15.1984
   -15.1454 -15.1192 -15.1011 -15.0497 -14.9936 -14.9348 -14.8820 -13.4647
   -13.4589  -9.1673  -6.1776  -4.0868  -3.6799  -3.6292  -3.3380  -3.1551
    -2.9760  -2.9639  -2.9503  -2.9425  -2.8740  -2.8670  -2.8184  -2.7779
    -2.7223  -2.7020  -2.6747  -2.6695  -2.6635  -2.6221  -2.6114  -2.5853
    -2.5585  -2.5533  -2.5104  -2.5032  -2.4834  -2.4364  -2.4221  -2.3897
    -2.3598  -2.3333  -2.2808  -2.2238  -2.2045  -2.1913  -2.0644  -1.9957
    -1.9907  -1.9151  -1.9010  -1.8721  -1.8327  -1.7570  -1.6951  -1.6564
    -1.5240  -1.5041  -1.4483  -1.4109  -1.3362  -1.3246  -1.2410  -1.2117
    -1.1684  -1.1387  -1.1066  -1.0850  -1.0644  -1.0608  -0.9375  -0.9058
    -0.8514  -0.8387  -0.8058  -0.7731  -0.7492  -0.6932  -0.6248  -0.6161
    -0.5672  -0.5202  -0.4528  -0.4146  -0.3337  -0.2768  -0.2368  -0.1697
    -0.0633   0.0577   0.0962   0.2008   0.2982   0.3058   0.3719   0.4207
     0.4479   0.4929   0.5780   0.5891   0.6561   0.6675   0.7009   0.7585
     0.8075   0.8772   1.4250   1.4410   1.4626   1.4654   1.7252   3.4282
     3.4549   3.4750   3.5177   3.6632   3.7571   3.7837   3.8502   3.8960
     3.9238

     the Fermi energy is     2.4087 ev

!    total energy              =   -2964.91881921 Ry
     estimated scf accuracy    <       0.00000005 Ry
     smearing contrib. (-TS)   =      -0.00044352 Ry
     internal energy E=F+TS    =   -2964.91837569 Ry

     The total energy is F=E-TS. E is the sum of the following terms:
     one-electron contribution =  -24900.68217706 Ry
     hartree contribution      =   12540.71999286 Ry
     xc contribution           =    -490.06746297 Ry
     ewald contribution        =    9885.11048512 Ry
     electric field correction =       0.00078637 Ry

     convergence has been achieved in  54 iterations

     Forces acting on atoms (cartesian axes, Ry/au):

     atom    1 type  1   force =     0.00009422   -0.00022894    0.12243998
     atom    2 type  1   force =     0.00009757    0.00183687   -0.15177561
     atom    3 type  2   force =    -0.00068371   -0.00092421   -0.05773291
     atom    4 type  2   force =    -0.00119355    0.00052167    0.04764397
     atom    5 type  2   force =    -0.01072540   -0.00519362   -0.00143286
     atom    6 type  2   force =     0.01360198    0.00025528   -0.00014279
     atom    7 type  1   force =    -0.00027105    0.00014856    0.00007654
     atom    8 type  1   force =     0.00040191   -0.00013854   -0.00040577
     atom    9 type  2   force =     0.00001046   -0.00023661    0.00042319
     atom   10 type  2   force =    -0.00012336   -0.00005561    0.00013771
     atom   11 type  2   force =    -0.00046745   -0.00026495    0.00026821
     atom   12 type  2   force =     0.00018094    0.00008236   -0.00000982
     atom   13 type  1   force =     0.00041463   -0.00010874   -0.00005657
     atom   14 type  1   force =    -0.00011269   -0.00026725   -0.00001102
     atom   15 type  2   force =    -0.00028288   -0.00018228   -0.00020178
     atom   16 type  2   force =     0.00018682    0.00008185   -0.00008451
     atom   17 type  2   force =    -0.00018032   -0.00009479    0.00006409
     atom   18 type  2   force =    -0.00005551   -0.00024455    0.00012540
     atom   19 type  1   force =    -0.00029448    0.00014581   -0.00013522
     atom   20 type  1   force =    -0.00012700    0.00002242   -0.00050792
     atom   21 type  2   force =     0.00027224    0.00013009    0.09728386
     atom   22 type  2   force =    -0.00031197   -0.00034046   -0.00025007
     atom   23 type  2   force =    -0.08311915    0.00238623   -0.03358376
     atom   24 type  2   force =     0.08316705    0.00267400   -0.03365311
     atom   25 type  1   force =     0.00041599    0.00037466    0.13899916
     atom   26 type  1   force =     0.00005594   -0.00119690   -0.15160292
     atom   27 type  2   force =    -0.00070104    0.00143588   -0.05287438
     atom   28 type  2   force =    -0.00117874    0.00017678    0.04595545
     atom   29 type  2   force =    -0.01133606    0.00058715   -0.00072955
     atom   30 type  2   force =     0.01406810    0.00412893    0.00077295
     atom   31 type  1   force =    -0.00049477   -0.00017077    0.00015204
     atom   32 type  1   force =     0.00034789   -0.00004742   -0.00017192
     atom   33 type  2   force =    -0.00025051    0.00011657    0.00009267
     atom   34 type  2   force =     0.00014031    0.00008376    0.00013734
     atom   35 type  2   force =    -0.00020535    0.00054119    0.00034938
     atom   36 type  2   force =     0.00023095   -0.00001110   -0.00017263
     atom   37 type  1   force =    -0.00061433    0.00028027    0.00023039
     atom   38 type  1   force =    -0.00033393   -0.00040296   -0.00017953
     atom   39 type  2   force =     0.00006238   -0.00011300    0.00035132
     atom   40 type  2   force =    -0.00027120   -0.00008297    0.00027889
     atom   41 type  2   force =    -0.00006504   -0.00030421   -0.00008746
     atom   42 type  2   force =    -0.00037068   -0.00019157    0.00031384
     atom   43 type  1   force =    -0.00007853   -0.00010097   -0.00041549
     atom   44 type  1   force =    -0.00020471    0.00005137   -0.00004302
     atom   45 type  2   force =     0.00023182    0.00013553    0.09735823
     atom   46 type  2   force =    -0.08304088   -0.00265253   -0.03360429
     atom   47 type  2   force =     0.08307427   -0.00230370   -0.03370649
     atom   48 type  3   force =    -0.00133616   -0.00008118    0.00022668
     atom   49 type  2   force =    -0.00098210   -0.00093782    0.00083566
     atom   50 type  4   force =     0.00035051    0.00004138   -0.00021007
     atom   51 type  4   force =     0.00214268    0.00063845   -0.00069645
     atom   52 type  4   force =    -0.00008275    0.00006023   -0.00030698
     atom   53 type  2   force =    -0.00071407    0.00058680    0.00088950
     atom   54 type  4   force =     0.00066074   -0.00064647   -0.00062155

     Total force =     0.377708     Total SCF correction =     0.000551
  @ DRIVER MODE: Message from server: STATUS
  @ DRIVER MODE: Message from server: GETFORCE
  @ DRIVER MODE: Returning v,forces,stress,ensemble

     Writing output data file ./calc.save/
  @ DRIVER MODE: Message from server: EXIT
  @ DRIVE MODE: Exiting

     General routines

     Parallel routines

   This run was terminated on:   5:12:47  23Sep2021

   JOB DONE.