     Program PWSCF v.6.7GPU starts on  9Sep2021 at  4:47:54

     R & G space division:  proc/nbgrp/npool/nimage =      10
     Reading input from /storage/home/hcoda1/3/ntian30/research/carbon/CxH_vib/CH3_calc/ads_slab/CH3N2_c/out_0022/pw.inp
Warning: card &CELL ignored
Warning: card   CELL_DYNAMICS='IPI', ignored
Warning: card / ignored

     Current dimensions of program PWSCF are:
     Max number of different atomic species (ntypx) = 10
     Max number of k-points (npk) =  40000
     Max angular momentum in pseudopotentials (lmaxx) =  3
     Presently no symmetry can be used with electric field

     Message from routine cell_base_init:
     DEPRECATED: use true lattice parameter, not A to a.u. conversion factor

     IMPORTANT: XC functional enforced from input :
     Exchange-correlation= BEEF-VDW
                           (   1   4  43  14   2   0   0)
     Any further DFT definition will be discarded
     Please, verify this is what you really want

  @ DRIVER MODE: Connecting to
 qe_1139763_2767397.sched-torque.pace.gatech.eduzrscjgkd_scratch
  using UNIX socket
  @ DRIVER MODE: Message from server: STATUS
  @ DRIVER MODE: Message from server: INIT
  @ DRIVER MODE: Receiving replica           0          -1
  @ DRIVER MODE: Receiving encoded integer          25
  @ DRIVER MODE:  SCF:  T  FORCE:  T  STRESS:  F  VC:  F  ENSEMBLE:  F
  @ DRIVER MODE:  SCF:  T  FORCE:  T  STRESS:  F  VC:  F  ENSEMBLE:  F

     Using Slab Decomposition

     bravais-lattice index     =            0
     lattice parameter (alat)  =       1.8897  a.u.
     unit-cell volume          =    6658.9804 (a.u.)^3
     number of atoms/cell      =           53
     number of atomic types    =            5
     number of electrons       =       395.00
     number of Kohn-Sham states=          207
     kinetic-energy cutoff     =      29.3995  Ry
     charge density cutoff     =     293.9946  Ry
     scf convergence threshold =      7.3E-08
     mixing beta               =       0.0500
     number of iterations used =            8  plain     mixing
     Exchange-correlation= BEEF-VDW
                           (   1   4  43  14   2   0   0)

     celldm(1)=   1.889726  celldm(2)=   0.000000  celldm(3)=   0.000000
     celldm(4)=   0.000000  celldm(5)=   0.000000  celldm(6)=   0.000000

     crystal axes: (cart. coord. in units of alat)
               a(1) = (   6.579727   0.000000   0.000000 )
               a(2) = (  -0.000775   5.961596   0.000000 )
               a(3) = (   0.000000   0.000000  25.155947 )

     reciprocal axes: (cart. coord. in units 2 pi/alat)
               b(1) = (  0.151982  0.000020  0.000000 )
               b(2) = (  0.000000  0.167740  0.000000 )
               b(3) = (  0.000000  0.000000  0.039752 )

     PseudoPot. # 1 for Ti read from file:
     /storage/coda1/p-amedford6/0/shared/rich_project_chbe-medford/medford-share/data/pseudos_module/espresso/nninc/pbe/van/Ti.UPF
     MD5 check sum: 8e4df49b7f0d34bbd5052bf3f5ea0213
     Pseudo is Ultrasoft, Zval = 12.0
     Generated by new atomic code, or converted to UPF format
     Using radial grid of  851 points,  6 beta functions with:
                l(1) =   0
                l(2) =   0
                l(3) =   1
                l(4) =   1
                l(5) =   2
                l(6) =   2
     Q(r) pseudized with  8 coefficients,  rinner =    1.000   1.000   1.000
                                                       1.000   1.000

     PseudoPot. # 2 for O  read from file:
     /storage/coda1/p-amedford6/0/shared/rich_project_chbe-medford/medford-share/data/pseudos_module/espresso/nninc/pbe/van/O.UPF
     MD5 check sum: 78c19812648e8988a0fe644b0f25305e
     Pseudo is Ultrasoft, Zval =  6.0
     Generated by new atomic code, or converted to UPF format
     Using radial grid of  737 points,  4 beta functions with:
                l(1) =   0
                l(2) =   0
                l(3) =   1
                l(4) =   1
     Q(r) pseudized with  8 coefficients,  rinner =    0.800   0.800   0.800

     PseudoPot. # 3 for N  read from file:
     /storage/coda1/p-amedford6/0/shared/rich_project_chbe-medford/medford-share/data/pseudos_module/espresso/nninc/pbe/van/N.UPF
     MD5 check sum: 90d10febe142ad51ac9d5be1deb811c4
     Pseudo is Ultrasoft, Zval =  5.0
     Generated by new atomic code, or converted to UPF format
     Using radial grid of  729 points,  4 beta functions with:
                l(1) =   0
                l(2) =   0
                l(3) =   1
                l(4) =   1
     Q(r) pseudized with  8 coefficients,  rinner =    0.800   0.800   0.800

     PseudoPot. # 4 for C  read from file:
     /storage/coda1/p-amedford6/0/shared/rich_project_chbe-medford/medford-share/data/pseudos_module/espresso/nninc/pbe/van/C.UPF
     MD5 check sum: 1a69bf6b8db32088f5b2163dbdb77a27
     Pseudo is Ultrasoft, Zval =  4.0
     Generated by new atomic code, or converted to UPF format
     Using radial grid of  721 points,  4 beta functions with:
                l(1) =   0
                l(2) =   0
                l(3) =   1
                l(4) =   1
     Q(r) pseudized with  8 coefficients,  rinner =    0.800   0.800   0.800

     PseudoPot. # 5 for H  read from file:
     /storage/coda1/p-amedford6/0/shared/rich_project_chbe-medford/medford-share/data/pseudos_module/espresso/nninc/pbe/van/H.UPF
     MD5 check sum: b5ee9d7bfd3a09ee7748110bda690ff7
     Pseudo is Ultrasoft, Zval =  1.0
     Generated by new atomic code, or converted to UPF format
     Using radial grid of  615 points,  1 beta functions with:
                l(1) =   0
     Q(r) pseudized with  8 coefficients,  rinner =    0.800

     atomic species   valence    mass     pseudopotential
        Ti1           12.00    47.86700     Ti( 1.00)
        O1             6.00    15.99900     O ( 1.00)
        N1             5.00    14.00700     N ( 1.00)
        C1             4.00    12.01100     C ( 1.00)
        H1             1.00     1.00800     H ( 1.00)

     No symmetry found

   Cartesian axes

     site n.     atom                  positions (alat units)
         1           Ti1 tau(   1) = (   0.0004258   2.9801865   6.0000000  )
         2           Ti1 tau(   2) = (   3.2906075   1.4906267   6.0002472  )
         3           O1  tau(   3) = (   0.0006271   0.0005054   7.9858123  )
         4           O1  tau(   4) = (   3.2906025   0.0005020   7.3038282  )
         5           O1  tau(   5) = (   4.5942328   1.4918067   9.2879030  )
         6           O1  tau(   6) = (   1.9868534   1.4903216   9.2879459  )
         7           Ti1 tau(   7) = (   3.2907910   2.8959150   9.1758416  )
         8           Ti1 tau(   8) = (   0.0015273   1.4827037   9.2680791  )
         9           O1  tau(   9) = (   3.2868105   5.9447858  11.3346005  )
        10           O1  tau(  10) = (   0.0116148   5.9584955  10.6183126  )
        11           O1  tau(  11) = (   1.2897616   1.4699164  12.6258314  )
        12           O1  tau(  12) = (   5.2713851   1.4716199  12.6109895  )
        13           Ti1 tau(  13) = (   0.0629619   2.9460495  12.6207869  )
        14           Ti1 tau(  14) = (   3.3778125   1.4702366  12.4807322  )
        15           O1  tau(  15) = (   6.5741670   5.9392046  14.6271830  )
        16           O1  tau(  16) = (   3.2925211   5.9405975  13.9303826  )
        17           O1  tau(  17) = (   4.5331425   1.4971777  16.0590535  )
        18           O1  tau(  18) = (   2.0416154   1.4974824  16.0477615  )
        19           Ti1 tau(  19) = (   3.2901388   2.9722967  15.7036181  )
        20           Ti1 tau(  20) = (   6.5714728   1.5019933  15.8140906  )
        21           O1  tau(  21) = (   3.2904802   0.0005063   4.7018136  )
        22           O1  tau(  22) = (   6.5775371   0.0159386  17.1814867  )
        23           O1  tau(  23) = (   1.3043587   1.4918075   6.0039043  )
        24           O1  tau(  24) = (   5.2767064   1.4903225   6.0039473  )
        25           Ti1 tau(  25) = (   0.0000382   5.9609847   6.0000000  )
        26           Ti1 tau(  26) = (   3.2902200   4.4714249   6.0002472  )
        27           O1  tau(  27) = (   0.0002396   2.9813036   7.9858123  )
        28           O1  tau(  28) = (   3.2902150   2.9813002   7.3038282  )
        29           O1  tau(  29) = (   4.5938453   4.4726049   9.2879030  )
        30           O1  tau(  30) = (   1.9864658   4.4711199   9.2879459  )
        31           Ti1 tau(  31) = (   3.2891106   5.8743827   9.1763621  )
        32           Ti1 tau(  32) = (   0.0006254   4.4649316   9.2693709  )
        33           O1  tau(  33) = (   3.2909631   2.9655588  11.3316111  )
        34           O1  tau(  34) = (   0.0092240   2.9805883  10.6323155  )
        35           O1  tau(  35) = (   1.2884032   4.4536117  12.6269208  )
        36           O1  tau(  36) = (   5.2752684   4.4605011  12.6109535  )
        37           Ti1 tau(  37) = (   0.0626277   5.9200555  12.5524633  )
        38           Ti1 tau(  38) = (   3.3797810   4.4486816  12.4846537  )
        39           O1  tau(  39) = (   6.5720240   2.9440667  14.6479771  )
        40           O1  tau(  40) = (   3.2941106   2.9728877  13.9057494  )
        41           O1  tau(  41) = (   4.5311790   4.4530262  16.1020043  )
        42           O1  tau(  42) = (   2.0427069   4.4534008  16.0946336  )
        43           Ti1 tau(  43) = (   3.2818950   5.9508925  15.7274921  )
        44           Ti1 tau(  44) = (   6.5750914   4.6476268  16.0792144  )
        45           O1  tau(  45) = (   3.2900926   2.9813045   4.7018136  )
        46           O1  tau(  46) = (   1.3039711   4.4726057   6.0039043  )
        47           O1  tau(  47) = (   5.2763189   4.4711207   6.0039473  )
        48           N1  tau(  48) = (   0.0795740   2.6614725  18.6386781  )
        49           N1  tau(  49) = (   0.0132033   2.8794178  17.4383708  )
        50           C1  tau(  50) = (   0.1510961   3.8031638  19.5808395  )
        51           H1  tau(  51) = (   6.4701351   4.7692986  19.1328852  )
        52           H1  tau(  52) = (   6.0910372   3.5604803  20.4266230  )
        53           H1  tau(  53) = (   1.1812797   3.8285794  19.9476819  )

     number of k points=    10  Fermi-Dirac smearing, width (Ry)=  0.0073
                       cart. coord. in units 2pi/alat
        k(    1) = (   0.0000000   0.0000000   0.0000000), wk =   0.1250000
        k(    2) = (   0.0000000   0.0419351   0.0000000), wk =   0.2500000
        k(    3) = (   0.0000000  -0.0838702   0.0000000), wk =   0.1250000
        k(    4) = (   0.0379955   0.0000049   0.0000000), wk =   0.2500000
        k(    5) = (   0.0379955   0.0419400   0.0000000), wk =   0.2500000
        k(    6) = (   0.0379955  -0.0838652   0.0000000), wk =   0.2500000
        k(    7) = (   0.0379955  -0.0419301   0.0000000), wk =   0.2500000
        k(    8) = (  -0.0759910  -0.0000099   0.0000000), wk =   0.1250000
        k(    9) = (  -0.0759910   0.0419252   0.0000000), wk =   0.2500000
        k(   10) = (  -0.0759910  -0.0838800   0.0000000), wk =   0.1250000

     Initial potential from superposition of free atoms

     starting charge  378.99916, renormalised to  395.00000

     negative rho (up, down):  1.506E-02 0.000E+00

     %%%%%%%%%%%%%%%%%%%%%%%%%%%%%%%%%%%%%%%%%%%%%%%%%%%%%%%%%%%%%%%%%%%%%%%%
     %                                                                      %
     % You are using vdW-DF, which was implemented by the Thonhauser group. %
     % Please cite the following two papers that made this development      %
     % possible and the two reviews that describe the various versions:     %
     %                                                                      %
     %   T. Thonhauser et al., PRL 115, 136402 (2015).                      %
     %   T. Thonhauser et al., PRB 76, 125112 (2007).                       %
     %   K. Berland et al., Rep. Prog. Phys. 78, 066501 (2015).             %
     %   D.C. Langreth et al., J. Phys.: Condens. Matter 21, 084203 (2009). %
     %                                                                      %
     %                                                                      %
     % If you are calculating the stress with vdW-DF, please also cite:     %
     %                                                                      %
     %   R. Sabatini et al., J. Phys.: Condens. Matter 24, 424209 (2012).   %
     %                                                                      %
     %%%%%%%%%%%%%%%%%%%%%%%%%%%%%%%%%%%%%%%%%%%%%%%%%%%%%%%%%%%%%%%%%%%%%%%%

     Adding external electric field

     Computed dipole along edir(3) :
        Dipole               -8.8495 Ry au,        -22.4931 Debye
        Dipole field         -0.0167 Ry au,

        Potential amp.        1.5481 Ry
        Total length         46.3494 bohr

     Starting wfcs are  299 atomic wfcs
  @ DRIVER MODE: Message from server: STATUS
  @ DRIVER MODE: Message from server: POSDATA
  @ DRIVER MODE: Reading and sharing cell
  @ DRIVER MODE: Reading and sharing positions
  @ DRIVER MODE: Received positions

     Self-consistent Calculation

     iteration #  1     ecut=    29.40 Ry     beta= 0.05
     Davidson diagonalization with overlap
     c_bands:  1 eigenvalues not converged
     c_bands:  2 eigenvalues not converged
     c_bands:  1 eigenvalues not converged
     c_bands:  3 eigenvalues not converged
     c_bands:  3 eigenvalues not converged
     c_bands:  1 eigenvalues not converged
     ethr =  1.00E-05,  avg # of iterations = 18.9

[...]

     total energy              =   -2605.40139785 Ry
     estimated scf accuracy    <    3702.12536613 Ry

     iteration #  2     ecut=    29.40 Ry     beta= 0.05
     Davidson diagonalization with overlap
     ethr =  1.00E-02,  avg # of iterations = 22.4

[...]

     iteration # 63     ecut=    29.40 Ry     beta= 0.05
     Davidson diagonalization with overlap
     c_bands:  2 eigenvalues not converged
     c_bands:  1 eigenvalues not converged
     c_bands:  1 eigenvalues not converged
     ethr =  1.13E-10,  avg # of iterations = 17.6

[...]

     total energy              =   -2939.15469688 Ry
     estimated scf accuracy    <       0.00000011 Ry

     iteration # 66     ecut=    29.40 Ry     beta= 0.05
     Davidson diagonalization with overlap
     ethr =  2.68E-11,  avg # of iterations = 11.4

     negative rho (up, down):  1.565E-02 0.000E+00

     Adding external electric field

     Computed dipole along edir(3) :
        Dipole                0.7055 Ry au,          1.7933 Debye
        Dipole field          0.0013 Ry au,

        Potential amp.       -0.1234 Ry
        Total length         46.3494 bohr

     End of self-consistent calculation

          k = 0.0000 0.0000 0.0000 ( 18029 PWs)   bands (ev):

   -55.8962 -55.8811 -55.8621 -55.8451 -55.7962 -55.7311 -55.7049 -55.7045
   -55.6945 -55.6705 -55.6694 -55.6358 -55.2869 -55.0961 -54.8735 -54.8394
   -32.4352 -32.3785 -32.2311 -32.2284 -32.2033 -32.1998 -32.1891 -32.1600
   -32.1386 -32.1250 -32.1034 -32.0673 -32.0618 -32.0483 -32.0344 -32.0208
   -32.0183 -32.0004 -31.9858 -31.9533 -31.9451 -31.9407 -31.8995 -31.8945
   -31.8923 -31.8889 -31.8809 -31.8760 -31.8716 -31.8450 -31.8442 -31.8354
   -31.8339 -31.8223 -31.8110 -31.7816 -31.7786 -31.5670 -31.4603 -31.3583
   -31.3563 -31.3119 -31.2806 -31.1923 -31.1699 -31.0973 -31.0108 -30.8997
   -18.4503 -16.6337 -16.3690 -16.1401 -16.0464 -16.0141 -15.8959 -15.7337
   -15.6163 -15.5612 -15.4637 -15.4443 -15.4316 -15.3995 -15.3810 -15.3757
   -15.3417 -15.3377 -15.3193 -15.3040 -15.2558 -15.2320 -15.2103 -15.1109
   -15.0646 -15.0310 -15.0155 -14.9526 -14.9474 -14.4431 -13.3761 -13.2596
   -11.3497  -6.9202  -4.3429  -4.0035  -3.8858  -3.8502  -3.8480  -3.8016
    -3.7447  -3.6238  -3.4998  -3.4376  -3.1268  -3.0790  -3.0631  -3.0459
    -3.0081  -2.8007  -2.7488  -2.7094  -2.6846  -2.6775  -2.6664  -2.6588
    -2.6471  -2.6086  -2.5062  -2.4369  -2.4296  -2.3432  -2.2941  -2.2710
    -2.2082  -2.1878  -2.1661  -2.1431  -2.1317  -2.1107  -2.0909  -2.0798
    -1.9746  -1.8838  -1.7485  -1.6951  -1.6734  -1.6585  -1.6366  -1.5037
    -1.3697  -1.3388  -1.3295  -1.3209  -1.2876  -1.2753  -1.1927  -1.0631
    -1.0530  -1.0121  -0.9608  -0.9029  -0.8777  -0.7758  -0.7390  -0.6622
    -0.6572  -0.6402  -0.5870  -0.5350  -0.3773  -0.3350  -0.3092  -0.2872
    -0.2626  -0.1919  -0.1704  -0.0533  -0.0365  -0.0190   0.0411   0.0644
     0.0773   0.0871   0.1051   0.1231   0.1406   0.3078   0.3802   0.4335
     0.4560   0.5138   0.6389   0.7078   0.7627   0.8632   1.0742   1.1485
     1.2413   1.3406   1.7197   1.7653   2.6458   3.2433   3.3240   3.3731
     3.3878   3.4848   3.5186   3.6949   3.6962   3.7249   3.7958

[...]

          k = 0.0380-0.0419 0.0000 ( 17876 PWs)   bands (ev):

[...]

          k =-0.0760-0.0000 0.0000 ( 17886 PWs)   bands (ev):

[...]

          k =-0.0760-0.0839 0.0000 ( 17948 PWs)   bands (ev):

   -55.8795 -55.8787 -55.8633 -55.8627 -55.7928 -55.7190 -55.7082 -55.7066
   -55.6886 -55.6859 -55.6534 -55.6521 -55.2855 -55.0975 -54.8565 -54.8563
   -32.2398 -32.2379 -32.1940 -32.1936 -32.1748 -32.1741 -32.1702 -32.1349
   -32.0894 -32.0864 -32.0803 -32.0799 -32.0430 -32.0138 -32.0061 -32.0055
   -31.9990 -31.9989 -31.9982 -31.9981 -31.9937 -31.9922 -31.9897 -31.9387
   -31.9250 -31.9128 -31.9119 -31.9006 -31.8875 -31.8869 -31.8844 -31.8834
   -31.8678 -31.8671 -31.8581 -31.8554 -31.6955 -31.5687 -31.4686 -31.4154
   -31.3581 -31.3374 -31.1826 -31.1825 -31.0934 -31.0932 -31.0541 -31.0541
   -18.4461 -16.0694 -16.0434 -15.8437 -15.8106 -15.8063 -15.7918 -15.6832
   -15.5983 -15.5913 -15.5886 -15.5219 -15.4919 -15.4762 -15.4355 -15.4228
   -15.4156 -15.4039 -15.3936 -15.3566 -15.3492 -15.3321 -15.3246 -15.2404
   -15.2126 -15.2085 -15.1827 -15.0647 -14.9333 -14.6194 -13.3614 -13.3614
   -11.3474  -6.9318  -4.2516  -3.8966  -3.8204  -3.3588  -3.3300  -3.0899
    -3.0511  -3.0373  -2.9843  -2.8226  -2.7923  -2.7664  -2.7549  -2.7233
    -2.7180  -2.7059  -2.7009  -2.6809  -2.6395  -2.6179  -2.6002  -2.5828
    -2.5634  -2.5495  -2.5335  -2.5168  -2.5074  -2.4681  -2.4445  -2.4328
    -2.4141  -2.4025  -2.2451  -2.1231  -2.0886  -2.0341  -2.0238  -2.0025
    -1.9623  -1.9586  -1.9470  -1.8825  -1.8095  -1.6516  -1.6132  -1.5951
    -1.5760  -1.5487  -1.5010  -1.4608  -1.3731  -1.2994  -1.2759  -1.2709
    -1.2022  -1.1156  -1.1079  -1.0604  -1.0173  -1.0084  -0.9537  -0.8889
    -0.8585  -0.8542  -0.8000  -0.7302  -0.7143  -0.6644  -0.6575  -0.6132
    -0.5581  -0.5493  -0.5289  -0.4880  -0.4060  -0.3823  -0.2437  -0.1640
    -0.0423   0.0729   0.1672   0.1815   0.2614   0.3134   0.3972   0.4146
     0.4251   0.4342   0.4775   0.5606   0.6363   0.6510   0.6969   0.8178
     1.5122   1.5129   1.5850   1.5851   2.7037   3.4907   3.5352   3.5774
     3.6096   3.7159   3.7483   3.7717   3.7728   3.8012   3.9140

     the Fermi energy is     3.2385 ev

!    total energy              =   -2939.15472632 Ry
     estimated scf accuracy    <       0.00000007 Ry
     smearing contrib. (-TS)   =      -0.02244041 Ry
     internal energy E=F+TS    =   -2939.13228590 Ry

     The total energy is F=E-TS. E is the sum of the following terms:
     one-electron contribution =  -24176.08303814 Ry
     hartree contribution      =   12175.27610240 Ry
     xc contribution           =    -485.17825021 Ry
     ewald contribution        =    9546.85196066 Ry
     electric field correction =       0.00093939 Ry

     convergence has been achieved in  66 iterations

     Forces acting on atoms (cartesian axes, Ry/au):

     atom    1 type  1   force =     0.00011975   -0.00024590    0.09667826
     atom    2 type  1   force =    -0.00012367   -0.00050491   -0.17521939
     atom    3 type  2   force =     0.00000038   -0.00009941   -0.02500322
     atom    4 type  2   force =     0.00005339   -0.00149986    0.05298171
     atom    5 type  2   force =    -0.01214950   -0.00108673    0.00360916
     atom    6 type  2   force =     0.01370102   -0.00027849    0.00228430
     atom    7 type  1   force =    -0.00117369    0.00036997   -0.01148779
     atom    8 type  1   force =     0.00056378    0.00940745    0.02852935
     atom    9 type  2   force =     0.00019702    0.00052974   -0.00015984
     atom   10 type  2   force =    -0.00114807    0.00028892   -0.01824579
     atom   11 type  2   force =    -0.00012707   -0.00000017   -0.00013123
     atom   12 type  2   force =     0.00013788    0.00021640    0.00018525
     atom   13 type  1   force =     0.00009378   -0.00029825    0.00016333
     atom   14 type  1   force =     0.00021981    0.00016945    0.00022698
     atom   15 type  2   force =     0.00022006   -0.00007350   -0.00010771
     atom   16 type  2   force =    -0.00033025    0.00034171    0.00036528
     atom   17 type  2   force =    -0.00014379    0.00041460   -0.00015830
     atom   18 type  2   force =     0.00012597    0.00015614    0.00021571
     atom   19 type  1   force =    -0.00007350    0.00016015    0.00008625
     atom   20 type  1   force =    -0.00058543   -0.00018809    0.00022549
     atom   21 type  2   force =     0.00008664    0.00001513    0.10324907
     atom   22 type  2   force =    -0.00019664    0.00033409    0.00067860
     atom   23 type  2   force =    -0.07146855   -0.00007762   -0.02770819
     atom   24 type  2   force =     0.07143527    0.00034183   -0.02771760
     atom   25 type  1   force =     0.00006732   -0.00022569    0.09640485
     atom   26 type  1   force =    -0.00022782   -0.00026350   -0.17561456
     atom   27 type  2   force =     0.00007044   -0.00025463   -0.02400449
     atom   28 type  2   force =     0.00009558   -0.00126126    0.05285778
     atom   29 type  2   force =    -0.01239488    0.00003963    0.00352249
     atom   30 type  2   force =     0.01386207    0.00033323    0.00216711
     atom   31 type  1   force =    -0.00113655    0.00332927   -0.01189550
     atom   32 type  1   force =     0.00065503   -0.01117536    0.02912849
     atom   33 type  2   force =     0.00010966   -0.00019991   -0.00041789
     atom   34 type  2   force =    -0.00089792   -0.00094080   -0.02483780
     atom   35 type  2   force =    -0.00039626    0.00027217    0.00002252
     atom   36 type  2   force =     0.00072365    0.00029529    0.00034105
     atom   37 type  1   force =    -0.00001318   -0.00022511    0.00004877
     atom   38 type  1   force =    -0.00001162    0.00010168    0.00001382
     atom   39 type  2   force =     0.00032650    0.00033712   -0.00045562
     atom   40 type  2   force =    -0.00030498    0.00010109    0.00015333
     atom   41 type  2   force =    -0.00043250    0.00053081    0.00010909
     atom   42 type  2   force =     0.00002131    0.00045743    0.00041531
     atom   43 type  1   force =    -0.00005210    0.00037679    0.00041831
     atom   44 type  1   force =    -0.00042021    0.00017776    0.00078872
     atom   45 type  2   force =     0.00008286   -0.00002802    0.10323694
     atom   46 type  2   force =    -0.07149012   -0.00002891   -0.02772316
     atom   47 type  2   force =     0.07145808    0.00039431   -0.02774679
     atom   48 type  3   force =     0.00018815    0.00016104   -0.00035987
     atom   49 type  3   force =     0.00060098    0.00002202   -0.00049433
     atom   50 type  4   force =    -0.00030769    0.00938479   -0.00394288
     atom   51 type  5   force =     0.00239056   -0.00905421    0.00332870
     atom   52 type  5   force =    -0.00127616   -0.00078181    0.00097081
     atom   53 type  5   force =    -0.00072479   -0.00026785    0.00002510

     Total force =     0.368590     Total SCF correction =     0.000462
  @ DRIVER MODE: Message from server: STATUS
  @ DRIVER MODE: Message from server: GETFORCE
  @ DRIVER MODE: Returning v,forces,stress,ensemble

     Writing output data file ./calc.save/
  @ DRIVER MODE: Message from server: EXIT
  @ DRIVE MODE: Exiting

     General routines

     Parallel routines

   This run was terminated on:   5: 5:41   9Sep2021

   JOB DONE.