     Program PWSCF v.6.7GPU starts on 24Aug2021 at  5: 8:53

     R & G space division:  proc/nbgrp/npool/nimage =       6
     Reading input from /storage/home/hcoda1/3/ntian30/research/carbon/CH_vib/ads_slab/CHNHHH_a/out_0030/pw.inp
Warning: card &CELL ignored
Warning: card   CELL_DYNAMICS='IPI', ignored
Warning: card / ignored

     Current dimensions of program PWSCF are:
     Max number of different atomic species (ntypx) = 10
     Max number of k-points (npk) =  40000
     Max angular momentum in pseudopotentials (lmaxx) =  3
     Presently no symmetry can be used with electric field

     Message from routine cell_base_init:
     DEPRECATED: use true lattice parameter, not A to a.u. conversion factor

     IMPORTANT: XC functional enforced from input :
     Exchange-correlation= BEEF-VDW
                           (   1   4  43  14   2   0   0)
     Any further DFT definition will be discarded
     Please, verify this is what you really want

  @ DRIVER MODE: Connecting to
 qe_1139763_2632793.sched-torque.pace.gatech.edu6mkn6k2w_scratch
  using UNIX socket
  @ DRIVER MODE: Message from server: STATUS
  @ DRIVER MODE: Message from server: INIT
  @ DRIVER MODE: Receiving replica           0          -1
  @ DRIVER MODE: Receiving encoded integer          25
  @ DRIVER MODE:  SCF:  T  FORCE:  T  STRESS:  F  VC:  F  ENSEMBLE:  F
  @ DRIVER MODE:  SCF:  T  FORCE:  T  STRESS:  F  VC:  F  ENSEMBLE:  F

     Using Slab Decomposition

     bravais-lattice index     =            0
     lattice parameter (alat)  =       1.8897  a.u.
     unit-cell volume          =    6658.9804 (a.u.)^3
     number of atoms/cell      =           53
     number of atomic types    =            5
     number of electrons       =       391.00
     number of Kohn-Sham states=          205
     kinetic-energy cutoff     =      29.3995  Ry
     charge density cutoff     =     293.9946  Ry
     scf convergence threshold =      7.3E-08
     mixing beta               =       0.0500
     number of iterations used =            8  plain     mixing
     Exchange-correlation= BEEF-VDW
                           (   1   4  43  14   2   0   0)

     celldm(1)=   1.889726  celldm(2)=   0.000000  celldm(3)=   0.000000
     celldm(4)=   0.000000  celldm(5)=   0.000000  celldm(6)=   0.000000

     crystal axes: (cart. coord. in units of alat)
               a(1) = (   6.579727   0.000000   0.000000 )
               a(2) = (  -0.000775   5.961596   0.000000 )
               a(3) = (   0.000000   0.000000  25.155947 )

     reciprocal axes: (cart. coord. in units 2 pi/alat)
               b(1) = (  0.151982  0.000020  0.000000 )
               b(2) = (  0.000000  0.167740  0.000000 )
               b(3) = (  0.000000  0.000000  0.039752 )

     PseudoPot. # 1 for Ti read from file:
     /storage/coda1/p-amedford6/0/shared/rich_project_chbe-medford/medford-share/data/pseudos_module/espresso/nninc/pbe/van/Ti.UPF
     MD5 check sum: 8e4df49b7f0d34bbd5052bf3f5ea0213
     Pseudo is Ultrasoft, Zval = 12.0
     Generated by new atomic code, or converted to UPF format
     Using radial grid of  851 points,  6 beta functions with:
                l(1) =   0
                l(2) =   0
                l(3) =   1
                l(4) =   1
                l(5) =   2
                l(6) =   2
     Q(r) pseudized with  8 coefficients,  rinner =    1.000   1.000   1.000
                                                       1.000   1.000

     PseudoPot. # 2 for O  read from file:
     /storage/coda1/p-amedford6/0/shared/rich_project_chbe-medford/medford-share/data/pseudos_module/espresso/nninc/pbe/van/O.UPF
     MD5 check sum: 78c19812648e8988a0fe644b0f25305e
     Pseudo is Ultrasoft, Zval =  6.0
     Generated by new atomic code, or converted to UPF format
     Using radial grid of  737 points,  4 beta functions with:
                l(1) =   0
                l(2) =   0
                l(3) =   1
                l(4) =   1
     Q(r) pseudized with  8 coefficients,  rinner =    0.800   0.800   0.800

     PseudoPot. # 3 for N  read from file:
     /storage/coda1/p-amedford6/0/shared/rich_project_chbe-medford/medford-share/data/pseudos_module/espresso/nninc/pbe/van/N.UPF
     MD5 check sum: 90d10febe142ad51ac9d5be1deb811c4
     Pseudo is Ultrasoft, Zval =  5.0
     Generated by new atomic code, or converted to UPF format
     Using radial grid of  729 points,  4 beta functions with:
                l(1) =   0
                l(2) =   0
                l(3) =   1
                l(4) =   1
     Q(r) pseudized with  8 coefficients,  rinner =    0.800   0.800   0.800

     PseudoPot. # 4 for C  read from file:
     /storage/coda1/p-amedford6/0/shared/rich_project_chbe-medford/medford-share/data/pseudos_module/espresso/nninc/pbe/van/C.UPF
     MD5 check sum: 1a69bf6b8db32088f5b2163dbdb77a27
     Pseudo is Ultrasoft, Zval =  4.0
     Generated by new atomic code, or converted to UPF format
     Using radial grid of  721 points,  4 beta functions with:
                l(1) =   0
                l(2) =   0
                l(3) =   1
                l(4) =   1
     Q(r) pseudized with  8 coefficients,  rinner =    0.800   0.800   0.800

     PseudoPot. # 5 for H  read from file:
     /storage/coda1/p-amedford6/0/shared/rich_project_chbe-medford/medford-share/data/pseudos_module/espresso/nninc/pbe/van/H.UPF
     MD5 check sum: b5ee9d7bfd3a09ee7748110bda690ff7
     Pseudo is Ultrasoft, Zval =  1.0
     Generated by new atomic code, or converted to UPF format
     Using radial grid of  615 points,  1 beta functions with:
                l(1) =   0
     Q(r) pseudized with  8 coefficients,  rinner =    0.800

     atomic species   valence    mass     pseudopotential
        Ti1           12.00    47.86700     Ti( 1.00)
        O1             6.00    15.99900     O ( 1.00)
        N1             5.00    14.00700     N ( 1.00)
        C1             4.00    12.01100     C ( 1.00)
        H1             1.00     1.00800     H ( 1.00)

     No symmetry found

   Cartesian axes

     site n.     atom                  positions (alat units)
         1           Ti1 tau(   1) = (   0.0004258   2.9801865   6.0000000  )
         2           Ti1 tau(   2) = (   3.2906075   1.4906267   6.0002472  )
         3           O1  tau(   3) = (   0.0006271   0.0005054   7.9858123  )
         4           O1  tau(   4) = (   3.2906025   0.0005020   7.3038282  )
         5           O1  tau(   5) = (   4.5942328   1.4918067   9.2879030  )
         6           O1  tau(   6) = (   1.9868534   1.4903216   9.2879459  )
         7           Ti1 tau(   7) = (   3.2907910   2.8959150   9.1758416  )
         8           Ti1 tau(   8) = (   0.0015273   1.4827037   9.2680791  )
         9           O1  tau(   9) = (   3.3113122   5.9567026  11.3833813  )
        10           O1  tau(  10) = (   0.0116148   5.9584955  10.6183126  )
        11           O1  tau(  11) = (   1.3074368   1.4838846  12.6958875  )
        12           O1  tau(  12) = (   5.3165545   1.4905306  12.6890028  )
        13           Ti1 tau(  13) = (   0.0319163   2.9634337  12.5060949  )
        14           Ti1 tau(  14) = (   3.3348194   1.4676286  12.5406051  )
        15           O1  tau(  15) = (   6.5718004   5.8756060  14.7032446  )
        16           O1  tau(  16) = (   3.3285255   5.9545307  14.0046557  )
        17           O1  tau(  17) = (   4.5620449   1.5282301  16.1894795  )
        18           O1  tau(  18) = (   2.0507131   1.5111456  16.1254446  )
        19           Ti1 tau(  19) = (   3.3090684   3.0029381  15.7706148  )
        20           Ti1 tau(  20) = (   0.0350077   1.2886257  15.8758580  )
        21           O1  tau(  21) = (   3.2904802   0.0005063   4.7018136  )
        22           O1  tau(  22) = (   0.0240991   0.1326893  17.2553962  )
        23           O1  tau(  23) = (   1.3043587   1.4918075   6.0039043  )
        24           O1  tau(  24) = (   5.2767064   1.4903225   6.0039473  )
        25           Ti1 tau(  25) = (   0.0000382   5.9609847   6.0000000  )
        26           Ti1 tau(  26) = (   3.2902200   4.4714249   6.0002472  )
        27           O1  tau(  27) = (   0.0002396   2.9813036   7.9858123  )
        28           O1  tau(  28) = (   3.2902150   2.9813002   7.3038282  )
        29           O1  tau(  29) = (   4.5938453   4.4726049   9.2879030  )
        30           O1  tau(  30) = (   1.9864658   4.4711199   9.2879459  )
        31           Ti1 tau(  31) = (   3.2891106   5.8743827   9.1763621  )
        32           Ti1 tau(  32) = (   0.0006254   4.4649316   9.2693709  )
        33           O1  tau(  33) = (   3.3073171   2.9646269  11.3784001  )
        34           O1  tau(  34) = (   0.0092240   2.9805883  10.6323155  )
        35           O1  tau(  35) = (   1.3112202   4.4579144  12.6624112  )
        36           O1  tau(  36) = (   5.3138049   4.4530836  12.6532163  )
        37           Ti1 tau(  37) = (   0.0383750   5.9352221  12.5084026  )
        38           Ti1 tau(  38) = (   3.3346062   4.4465110  12.5317211  )
        39           O1  tau(  39) = (   0.0124192   3.0170750  14.9941726  )
        40           O1  tau(  40) = (   3.3221393   2.9969786  13.9787254  )
        41           O1  tau(  41) = (   4.5445774   4.4782521  16.2319081  )
        42           O1  tau(  42) = (   2.0501905   4.4790704  16.2078326  )
        43           Ti1 tau(  43) = (   3.3285819   0.0194352  15.8051934  )
        44           Ti1 tau(  44) = (   0.0611752   4.5099810  16.0683830  )
        45           O1  tau(  45) = (   3.2900926   2.9813045   4.7018136  )
        46           O1  tau(  46) = (   1.3039711   4.4726057   6.0039043  )
        47           O1  tau(  47) = (   5.2763189   4.4711207   6.0039473  )
        48           N1  tau(  48) = (   6.2166669   3.4226028  18.2351681  )
        49           C1  tau(  49) = (   0.7325778   3.1430902  19.0455235  )
        50           H1  tau(  50) = (   1.1688338   2.1628109  18.9760543  )
        51           H1  tau(  51) = (   5.7007151   4.2593073  18.4945226  )
        52           H1  tau(  52) = (   5.5741914   2.6425579  18.1207425  )
        53           H1  tau(  53) = (   1.2593429   3.9788434  19.4721980  )

     number of k points=    10  Fermi-Dirac smearing, width (Ry)=  0.0073
                       cart. coord. in units 2pi/alat
        k(    1) = (   0.0000000   0.0000000   0.0000000), wk =   0.1250000
        k(    2) = (   0.0000000   0.0419351   0.0000000), wk =   0.2500000
        k(    3) = (   0.0000000  -0.0838702   0.0000000), wk =   0.1250000
        k(    4) = (   0.0379955   0.0000049   0.0000000), wk =   0.2500000
        k(    5) = (   0.0379955   0.0419400   0.0000000), wk =   0.2500000
        k(    6) = (   0.0379955  -0.0838652   0.0000000), wk =   0.2500000
        k(    7) = (   0.0379955  -0.0419301   0.0000000), wk =   0.2500000
        k(    8) = (  -0.0759910  -0.0000099   0.0000000), wk =   0.1250000
        k(    9) = (  -0.0759910   0.0419252   0.0000000), wk =   0.2500000
        k(   10) = (  -0.0759910  -0.0838800   0.0000000), wk =   0.1250000

     Initial potential from superposition of free atoms

     starting charge  374.99916, renormalised to  391.00000

     negative rho (up, down):  1.698E-02 0.000E+00

     %%%%%%%%%%%%%%%%%%%%%%%%%%%%%%%%%%%%%%%%%%%%%%%%%%%%%%%%%%%%%%%%%%%%%%%%
     %                                                                      %
     % You are using vdW-DF, which was implemented by the Thonhauser group. %
     % Please cite the following two papers that made this development      %
     % possible and the two reviews that describe the various versions:     %
     %                                                                      %
     %   T. Thonhauser et al., PRL 115, 136402 (2015).                      %
     %   T. Thonhauser et al., PRB 76, 125112 (2007).                       %
     %   K. Berland et al., Rep. Prog. Phys. 78, 066501 (2015).             %
     %   D.C. Langreth et al., J. Phys.: Condens. Matter 21, 084203 (2009). %
     %                                                                      %
     %                                                                      %
     % If you are calculating the stress with vdW-DF, please also cite:     %
     %                                                                      %
     %   R. Sabatini et al., J. Phys.: Condens. Matter 24, 424209 (2012).   %
     %                                                                      %
     %%%%%%%%%%%%%%%%%%%%%%%%%%%%%%%%%%%%%%%%%%%%%%%%%%%%%%%%%%%%%%%%%%%%%%%%

     Adding external electric field

     Computed dipole along edir(3) :
        Dipole               -6.8879 Ry au,        -17.5073 Debye
        Dipole field         -0.0130 Ry au,

        Potential amp.        1.2049 Ry
        Total length         46.3494 bohr

     Starting wfcs are  296 atomic wfcs
  @ DRIVER MODE: Message from server: STATUS
  @ DRIVER MODE: Message from server: POSDATA
  @ DRIVER MODE: Reading and sharing cell
  @ DRIVER MODE: Reading and sharing positions
  @ DRIVER MODE: Received positions

     Self-consistent Calculation

     iteration #  1     ecut=    29.40 Ry     beta= 0.05
     Davidson diagonalization with overlap
     c_bands:  1 eigenvalues not converged
     c_bands:  1 eigenvalues not converged
     ethr =  1.00E-05,  avg # of iterations = 15.9

[...]

     total energy              =   -2713.95212824 Ry
     estimated scf accuracy    <    2276.11730824 Ry

     iteration #  2     ecut=    29.40 Ry     beta= 0.05
     Davidson diagonalization with overlap
     ethr =  1.00E-02,  avg # of iterations = 18.1

[...]

     iteration # 70     ecut=    29.40 Ry     beta= 0.05
     Davidson diagonalization with overlap
     c_bands:  1 eigenvalues not converged
     ethr =  1.05E-10,  avg # of iterations = 13.2

[...]

     total energy              =   -2920.25697453 Ry
     estimated scf accuracy    <       0.00000009 Ry

     iteration # 74     ecut=    29.40 Ry     beta= 0.05
     Davidson diagonalization with overlap
     ethr =  2.22E-11,  avg # of iterations =  8.7

     negative rho (up, down):  1.633E-02 0.000E+00

     Adding external electric field

     Computed dipole along edir(3) :
        Dipole                0.9003 Ry au,          2.2883 Debye
        Dipole field          0.0017 Ry au,

        Potential amp.       -0.1575 Ry
        Total length         46.3494 bohr

     End of self-consistent calculation

          k = 0.0000 0.0000 0.0000 ( 18029 PWs)   bands (ev):

   -55.7208 -55.6844 -55.6745 -55.6404 -55.6072 -55.6043 -55.5700 -55.5458
   -55.5377 -55.5114 -55.5064 -55.4727 -55.4518 -55.2888 -54.7058 -54.6718
   -32.2858 -32.1674 -32.0918 -32.0420 -32.0384 -32.0348 -32.0299 -32.0122
   -31.9633 -31.9530 -31.9333 -31.9280 -31.9193 -31.8897 -31.8748 -31.8741
   -31.8594 -31.8453 -31.8417 -31.8269 -31.8219 -31.7888 -31.7815 -31.7762
   -31.7480 -31.7360 -31.7356 -31.7315 -31.7255 -31.7182 -31.7063 -31.7044
   -31.6947 -31.6920 -31.6592 -31.6578 -31.6537 -31.6344 -31.6240 -31.6179
   -31.5083 -31.4616 -31.1153 -31.0208 -30.9988 -30.9316 -30.8449 -30.7340
   -16.6895 -16.5270 -16.2707 -16.1042 -16.0057 -15.9208 -15.7785 -15.7596
   -15.6437 -15.5672 -15.4244 -15.3871 -15.3745 -15.3580 -15.3348 -15.3213
   -15.2689 -15.2632 -15.2420 -15.2181 -15.2137 -15.1657 -15.1625 -15.1221
   -15.0989 -15.0356 -14.9666 -14.8832 -14.8111 -14.4794 -13.2085 -13.0910
    -9.5257  -6.8672  -4.9553  -3.8841  -3.7413  -3.6745  -3.6218  -3.6157
    -3.4713  -3.2998  -3.1513  -3.1306  -3.0978  -2.9895  -2.9255  -2.9112
    -2.8873  -2.7554  -2.7303  -2.6798  -2.6451  -2.5705  -2.5668  -2.5267
    -2.5130  -2.4682  -2.4616  -2.4360  -2.3017  -2.2891  -2.2492  -2.1876
    -2.1282  -2.1261  -2.0696  -2.0520  -2.0123  -2.0035  -1.9918  -1.9495
    -1.9447  -1.9098  -1.8075  -1.7453  -1.6125  -1.5787  -1.4316  -1.3629
    -1.3140  -1.2953  -1.2122  -1.1901  -1.1388  -1.1016  -1.0901  -1.0589
    -0.9454  -0.8588  -0.8080  -0.7537  -0.7208  -0.7051  -0.6158  -0.5231
    -0.5018  -0.4886  -0.4466  -0.3444  -0.3240  -0.2603  -0.2022  -0.1865
    -0.1773  -0.0809  -0.0501   0.0222   0.0733   0.0944   0.1656   0.1914
     0.2104   0.2157   0.2513   0.2621   0.3390   0.3550   0.3795   0.4665
     0.5925   0.8395   0.8875   0.9020   1.2176   1.2217   1.3169   1.5001
     1.8933   1.9416   3.3700   3.3879   3.4519   3.5209   3.5247   3.5895
     3.6117   3.8571   3.8781   3.8855   3.9022

[...]

          k = 0.0380-0.0419 0.0000 ( 17876 PWs)   bands (ev):

[...]

          k =-0.0760-0.0000 0.0000 ( 17886 PWs)   bands (ev):

[...]

          k =-0.0760-0.0839 0.0000 ( 17948 PWs)   bands (ev):

   -55.7056 -55.6994 -55.6575 -55.6572 -55.6026 -55.5878 -55.5865 -55.5421
   -55.5301 -55.5266 -55.4899 -55.4894 -55.4497 -55.2908 -54.6889 -54.6886
   -32.0925 -32.0878 -31.9961 -31.9826 -31.9824 -31.9783 -31.9509 -31.9486
   -31.9486 -31.9325 -31.9259 -31.9168 -31.9115 -31.8707 -31.8677 -31.8624
   -31.8584 -31.8539 -31.8485 -31.8451 -31.8290 -31.8086 -31.8010 -31.8002
   -31.7830 -31.7782 -31.7771 -31.7768 -31.7629 -31.7594 -31.7429 -31.7393
   -31.7388 -31.7242 -31.7224 -31.7198 -31.6723 -31.6701 -31.6691 -31.6302
   -31.5528 -31.5105 -31.0115 -31.0113 -30.9279 -30.9277 -30.8883 -30.8882
   -16.6586 -16.0096 -15.9448 -15.9068 -15.7590 -15.7179 -15.6828 -15.6710
   -15.5478 -15.5155 -15.4939 -15.4750 -15.4384 -15.4249 -15.4182 -15.3649
   -15.3396 -15.3196 -15.3154 -15.3014 -15.2393 -15.2329 -15.2280 -15.2208
   -15.1731 -15.1695 -15.0781 -15.0752 -15.0503 -14.7662 -13.1925 -13.1924
    -9.5277  -6.8489  -4.9346  -3.2148  -3.1959  -3.1611  -3.1315  -2.9790
    -2.9160  -2.9015  -2.8725  -2.8002  -2.7482  -2.7322  -2.6875  -2.6842
    -2.6306  -2.5970  -2.5720  -2.5587  -2.5520  -2.5388  -2.5173  -2.4802
    -2.4523  -2.4502  -2.4415  -2.3952  -2.3693  -2.3587  -2.3206  -2.3144
    -2.3066  -2.2792  -2.2152  -2.1140  -2.0855  -2.0563  -1.9602  -1.9303
    -1.9252  -1.8452  -1.8121  -1.7573  -1.7503  -1.7420  -1.5763  -1.5049
    -1.4692  -1.4657  -1.4430  -1.3159  -1.3012  -1.2229  -1.1992  -1.1861
    -1.0979  -1.0777  -1.0345  -1.0076  -0.9312  -0.9018  -0.8399  -0.7532
    -0.7144  -0.7074  -0.6788  -0.6749  -0.6257  -0.6147  -0.5295  -0.4911
    -0.4562  -0.4458  -0.3972  -0.2115  -0.1955  -0.1648  -0.0263   0.0247
     0.1500   0.1733   0.2343   0.3083   0.3484   0.3916   0.4284   0.5732
     0.5828   0.6161   0.6605   0.6716   0.7296   0.7384   1.6732   1.6737
     1.7614   1.7617   3.3841   3.6315   3.6339   3.6689   3.6917   3.8468
     3.8915   3.9354   3.9569   3.9601   3.9825

     the Fermi energy is     3.4384 ev

!    total energy              =   -2920.25698947 Ry
     estimated scf accuracy    <       0.00000004 Ry
     smearing contrib. (-TS)   =      -0.04243497 Ry
     internal energy E=F+TS    =   -2920.21455449 Ry

     The total energy is F=E-TS. E is the sum of the following terms:
     one-electron contribution =  -24058.81932965 Ry
     hartree contribution      =   12115.60312674 Ry
     xc contribution           =    -480.85880959 Ry
     ewald contribution        =    9503.85892851 Ry
     electric field correction =       0.00152950 Ry

     convergence has been achieved in  74 iterations

     Forces acting on atoms (cartesian axes, Ry/au):

     atom    1 type  1   force =    -0.00001919   -0.00019231    0.09319290
     atom    2 type  1   force =    -0.00011326   -0.00033461   -0.17841487
     atom    3 type  2   force =     0.00009008   -0.00038570   -0.02006058
     atom    4 type  2   force =     0.00004581   -0.00199714    0.05912452
     atom    5 type  2   force =    -0.01019110   -0.00081911    0.00742837
     atom    6 type  2   force =     0.01219840   -0.00042937    0.00774345
     atom    7 type  1   force =     0.00015495    0.00228874   -0.01369388
     atom    8 type  1   force =    -0.00035153   -0.00183266   -0.00452902
     atom    9 type  2   force =    -0.00034231    0.00036597   -0.00024104
     atom   10 type  2   force =    -0.00026917    0.00141892    0.00223060
     atom   11 type  2   force =    -0.00012971    0.00010286   -0.00011174
     atom   12 type  2   force =    -0.00027264   -0.00022720   -0.00062486
     atom   13 type  1   force =    -0.00048873    0.00090863   -0.00021223
     atom   14 type  1   force =    -0.00069685    0.00043045   -0.00045215
     atom   15 type  2   force =     0.00005351   -0.00025183    0.00014942
     atom   16 type  2   force =    -0.00041727   -0.00010413   -0.00002118
     atom   17 type  2   force =    -0.00028669   -0.00042587   -0.00061304
     atom   18 type  2   force =    -0.00028330   -0.00017127    0.00043634
     atom   19 type  1   force =    -0.00047629   -0.00015916    0.00012786
     atom   20 type  1   force =    -0.00026017   -0.00003189   -0.00007235
     atom   21 type  2   force =     0.00002484   -0.00006041    0.10401040
     atom   22 type  2   force =    -0.00051782   -0.00013990    0.00009032
     atom   23 type  2   force =    -0.07035558   -0.00014089   -0.02686877
     atom   24 type  2   force =     0.07023286    0.00029807   -0.02695508
     atom   25 type  1   force =     0.00002598   -0.00014678    0.09258107
     atom   26 type  1   force =    -0.00014173   -0.00046219   -0.17848110
     atom   27 type  2   force =     0.00015833   -0.00028527   -0.01914306
     atom   28 type  2   force =     0.00005736   -0.00176802    0.05850496
     atom   29 type  2   force =    -0.01067648   -0.00130233    0.00789733
     atom   30 type  2   force =     0.01255162   -0.00083347    0.00816297
     atom   31 type  1   force =     0.00028397    0.00600381   -0.01442387
     atom   32 type  1   force =    -0.00036640    0.00121521   -0.00500343
     atom   33 type  2   force =    -0.00004899   -0.00045894   -0.00009437
     atom   34 type  2   force =     0.00078157   -0.00258712    0.00062851
     atom   35 type  2   force =    -0.00060150   -0.00028402   -0.00013084
     atom   36 type  2   force =     0.00059314    0.00005594    0.00003870
     atom   37 type  1   force =    -0.00047161   -0.00043188    0.00008475
     atom   38 type  1   force =    -0.00026270    0.00035459   -0.00082371
     atom   39 type  2   force =    -0.00060783    0.00037925   -0.00021380
     atom   40 type  2   force =    -0.00015425   -0.00035788   -0.00059239
     atom   41 type  2   force =    -0.00113569    0.00017486   -0.00006408
     atom   42 type  2   force =     0.00005787   -0.00013016    0.00025243
     atom   43 type  1   force =     0.00059896    0.00005142   -0.00040644
     atom   44 type  1   force =     0.00028240    0.00046122    0.00000178
     atom   45 type  2   force =     0.00003867   -0.00007539    0.10395936
     atom   46 type  2   force =    -0.07032696   -0.00009726   -0.02684987
     atom   47 type  2   force =     0.07022569    0.00034668   -0.02690780
     atom   48 type  3   force =    -0.00020576    0.00230583    0.00062006
     atom   49 type  4   force =     0.00038110    0.00214404    0.00140629
     atom   50 type  5   force =     0.00049671   -0.00090510   -0.00027310
     atom   51 type  5   force =     0.00179472   -0.00073473   -0.00022233
     atom   52 type  5   force =    -0.00145229   -0.00069844   -0.00150906
     atom   53 type  5   force =     0.00079528   -0.00004407   -0.00066235

     Total force =     0.366369     Total SCF correction =     0.000404
  @ DRIVER MODE: Message from server: STATUS
  @ DRIVER MODE: Message from server: GETFORCE
  @ DRIVER MODE: Returning v,forces,stress,ensemble

     Writing output data file ./calc.save/
  @ DRIVER MODE: Message from server: EXIT
  @ DRIVE MODE: Exiting

     General routines

     Parallel routines

   This run was terminated on:   5:38:53  24Aug2021

   JOB DONE.