     Program PWSCF v.6.7GPU starts on 15Sep2021 at 21: 0:47

     R & G space division:  proc/nbgrp/npool/nimage =      10
     Reading input from /storage/home/hcoda1/3/ntian30/research/carbon/CxH_vib/H2O_calc/ads_slab/CHNHH2O_a/out_0016/pw.inp
Warning: card &CELL ignored
Warning: card   CELL_DYNAMICS='IPI', ignored
Warning: card / ignored

     Current dimensions of program PWSCF are:
     Max number of different atomic species (ntypx) = 10
     Max number of k-points (npk) =  40000
     Max angular momentum in pseudopotentials (lmaxx) =  3
     Presently no symmetry can be used with electric field

     Message from routine cell_base_init:
     DEPRECATED: use true lattice parameter, not A to a.u. conversion factor

     IMPORTANT: XC functional enforced from input :
     Exchange-correlation= BEEF-VDW
                           (   1   4  43  14   2   0   0)
     Any further DFT definition will be discarded
     Please, verify this is what you really want

  @ DRIVER MODE: Connecting to
 qe_1139763_2852628.sched-torque.pace.gatech.edufhey_62z_scratch
  using UNIX socket
  @ DRIVER MODE: Message from server: STATUS
  @ DRIVER MODE: Message from server: INIT
  @ DRIVER MODE: Receiving replica           0          -1
  @ DRIVER MODE: Receiving encoded integer          25
  @ DRIVER MODE:  SCF:  T  FORCE:  T  STRESS:  F  VC:  F  ENSEMBLE:  F
  @ DRIVER MODE:  SCF:  T  FORCE:  T  STRESS:  F  VC:  F  ENSEMBLE:  F

     Using Slab Decomposition

     bravais-lattice index     =            0
     lattice parameter (alat)  =       1.8897  a.u.
     unit-cell volume          =    6658.9804 (a.u.)^3
     number of atoms/cell      =           54
     number of atomic types    =            5
     number of electrons       =       397.00
     number of Kohn-Sham states=          208
     kinetic-energy cutoff     =      29.3995  Ry
     charge density cutoff     =     293.9946  Ry
     scf convergence threshold =      7.3E-08
     mixing beta               =       0.0500
     number of iterations used =            8  plain     mixing
     Exchange-correlation= BEEF-VDW
                           (   1   4  43  14   2   0   0)

     celldm(1)=   1.889726  celldm(2)=   0.000000  celldm(3)=   0.000000
     celldm(4)=   0.000000  celldm(5)=   0.000000  celldm(6)=   0.000000

     crystal axes: (cart. coord. in units of alat)
               a(1) = (   6.579727   0.000000   0.000000 )
               a(2) = (  -0.000775   5.961596   0.000000 )
               a(3) = (   0.000000   0.000000  25.155947 )

     reciprocal axes: (cart. coord. in units 2 pi/alat)
               b(1) = (  0.151982  0.000020  0.000000 )
               b(2) = (  0.000000  0.167740  0.000000 )
               b(3) = (  0.000000  0.000000  0.039752 )

     PseudoPot. # 1 for Ti read from file:
     /storage/coda1/p-amedford6/0/shared/rich_project_chbe-medford/medford-share/data/pseudos_module/espresso/nninc/pbe/van/Ti.UPF
     MD5 check sum: 8e4df49b7f0d34bbd5052bf3f5ea0213
     Pseudo is Ultrasoft, Zval = 12.0
     Generated by new atomic code, or converted to UPF format
     Using radial grid of  851 points,  6 beta functions with:
                l(1) =   0
                l(2) =   0
                l(3) =   1
                l(4) =   1
                l(5) =   2
                l(6) =   2
     Q(r) pseudized with  8 coefficients,  rinner =    1.000   1.000   1.000
                                                       1.000   1.000

     PseudoPot. # 2 for O  read from file:
     /storage/coda1/p-amedford6/0/shared/rich_project_chbe-medford/medford-share/data/pseudos_module/espresso/nninc/pbe/van/O.UPF
     MD5 check sum: 78c19812648e8988a0fe644b0f25305e
     Pseudo is Ultrasoft, Zval =  6.0
     Generated by new atomic code, or converted to UPF format
     Using radial grid of  737 points,  4 beta functions with:
                l(1) =   0
                l(2) =   0
                l(3) =   1
                l(4) =   1
     Q(r) pseudized with  8 coefficients,  rinner =    0.800   0.800   0.800

     PseudoPot. # 3 for N  read from file:
     /storage/coda1/p-amedford6/0/shared/rich_project_chbe-medford/medford-share/data/pseudos_module/espresso/nninc/pbe/van/N.UPF
     MD5 check sum: 90d10febe142ad51ac9d5be1deb811c4
     Pseudo is Ultrasoft, Zval =  5.0
     Generated by new atomic code, or converted to UPF format
     Using radial grid of  729 points,  4 beta functions with:
                l(1) =   0
                l(2) =   0
                l(3) =   1
                l(4) =   1
     Q(r) pseudized with  8 coefficients,  rinner =    0.800   0.800   0.800

     PseudoPot. # 4 for C  read from file:
     /storage/coda1/p-amedford6/0/shared/rich_project_chbe-medford/medford-share/data/pseudos_module/espresso/nninc/pbe/van/C.UPF
     MD5 check sum: 1a69bf6b8db32088f5b2163dbdb77a27
     Pseudo is Ultrasoft, Zval =  4.0
     Generated by new atomic code, or converted to UPF format
     Using radial grid of  721 points,  4 beta functions with:
                l(1) =   0
                l(2) =   0
                l(3) =   1
                l(4) =   1
     Q(r) pseudized with  8 coefficients,  rinner =    0.800   0.800   0.800

     PseudoPot. # 5 for H  read from file:
     /storage/coda1/p-amedford6/0/shared/rich_project_chbe-medford/medford-share/data/pseudos_module/espresso/nninc/pbe/van/H.UPF
     MD5 check sum: b5ee9d7bfd3a09ee7748110bda690ff7
     Pseudo is Ultrasoft, Zval =  1.0
     Generated by new atomic code, or converted to UPF format
     Using radial grid of  615 points,  1 beta functions with:
                l(1) =   0
     Q(r) pseudized with  8 coefficients,  rinner =    0.800

     atomic species   valence    mass     pseudopotential
        Ti1           12.00    47.86700     Ti( 1.00)
        O1             6.00    15.99900     O ( 1.00)
        N1             5.00    14.00700     N ( 1.00)
        C1             4.00    12.01100     C ( 1.00)
        H1             1.00     1.00800     H ( 1.00)

     No symmetry found

   Cartesian axes

     site n.     atom                  positions (alat units)
         1           Ti1 tau(   1) = (   0.0004258   2.9801865   6.0000000  )
         2           Ti1 tau(   2) = (   3.2906075   1.4906267   6.0002472  )
         3           O1  tau(   3) = (   0.0006271   0.0005054   7.9858123  )
         4           O1  tau(   4) = (   3.2906025   0.0005020   7.3038282  )
         5           O1  tau(   5) = (   4.5942328   1.4918067   9.2879030  )
         6           O1  tau(   6) = (   1.9868534   1.4903216   9.2879459  )
         7           Ti1 tau(   7) = (   3.2907910   2.8959150   9.1758416  )
         8           Ti1 tau(   8) = (   0.0015273   1.4827037   9.2680791  )
         9           O1  tau(   9) = (   3.2914171   5.9475995  11.3455371  )
        10           O1  tau(  10) = (   0.0116148   5.9584955  10.6183126  )
        11           O1  tau(  11) = (   1.3057669   1.4807986  12.6390077  )
        12           O1  tau(  12) = (   5.3035249   1.4749620  12.6227664  )
        13           Ti1 tau(  13) = (   6.5294082   2.9362577  12.6231083  )
        14           Ti1 tau(  14) = (   3.2175537   1.4615748  12.5070279  )
        15           O1  tau(  15) = (   6.5585639   5.9474800  14.6380151  )
        16           O1  tau(  16) = (   3.3125803   5.9531145  13.9695519  )
        17           O1  tau(  17) = (   4.5393379   1.5011389  16.1071157  )
        18           O1  tau(  18) = (   2.0094023   1.5044898  16.0307267  )
        19           Ti1 tau(  19) = (   3.2760958   2.9523363  15.6877793  )
        20           Ti1 tau(  20) = (   0.0277933   1.3451898  16.0452527  )
        21           O1  tau(  21) = (   3.2904802   0.0005063   4.7018136  )
        22           O1  tau(  22) = (   0.0198929   5.9263875  17.1601691  )
        23           O1  tau(  23) = (   1.3043587   1.4918075   6.0039043  )
        24           O1  tau(  24) = (   5.2767064   1.4903225   6.0039473  )
        25           Ti1 tau(  25) = (   0.0000382   5.9609847   6.0000000  )
        26           Ti1 tau(  26) = (   3.2902200   4.4714249   6.0002472  )
        27           O1  tau(  27) = (   0.0002396   2.9813036   7.9858123  )
        28           O1  tau(  28) = (   3.2902150   2.9813002   7.3038282  )
        29           O1  tau(  29) = (   4.5938453   4.4726049   9.2879030  )
        30           O1  tau(  30) = (   1.9864658   4.4711199   9.2879459  )
        31           Ti1 tau(  31) = (   3.2891106   5.8743827   9.1763621  )
        32           Ti1 tau(  32) = (   0.0006254   4.4649316   9.2693709  )
        33           O1  tau(  33) = (   3.2862706   2.9662616  11.3468726  )
        34           O1  tau(  34) = (   0.0092240   2.9805883  10.6323155  )
        35           O1  tau(  35) = (   1.3102706   4.4726941  12.6361575  )
        36           O1  tau(  36) = (   5.3014905   4.4644878  12.6181669  )
        37           Ti1 tau(  37) = (   6.5311680   5.9227251  12.5202533  )
        38           Ti1 tau(  38) = (   3.2191334   4.4553394  12.5017427  )
        39           O1  tau(  39) = (   6.5614274   2.9920157  14.6796082  )
        40           O1  tau(  40) = (   3.3146075   2.9603188  13.8993185  )
        41           O1  tau(  41) = (   4.5484517   4.4144432  16.0509510  )
        42           O1  tau(  42) = (   2.0146171   4.4214036  15.9967612  )
        43           Ti1 tau(  43) = (   3.3303817   5.9274347  15.8100502  )
        44           Ti1 tau(  44) = (   0.0273359   4.4939047  15.8144843  )
        45           O1  tau(  45) = (   3.2900926   2.9813045   4.7018136  )
        46           O1  tau(  46) = (   1.3039711   4.4726057   6.0039043  )
        47           O1  tau(  47) = (   5.2763189   4.4711207   6.0039473  )
        48           N1  tau(  48) = (   6.5134970   2.9613368  17.6459670  )
        49           C1  tau(  49) = (   0.7931072   3.0267964  18.6255283  )
        50           H1  tau(  50) = (   1.8307262   2.9411331  18.2395185  )
        51           H1  tau(  51) = (   5.5494773   3.0666896  17.9713127  )
        52           O1  tau(  52) = (   3.1855344   5.8058271  18.1612476  )
        53           H1  tau(  53) = (   3.8461454   0.3022996  18.7034462  )
        54           H1  tau(  54) = (   2.3120581   0.0053998  18.5533318  )

     number of k points=    10  Fermi-Dirac smearing, width (Ry)=  0.0073
                       cart. coord. in units 2pi/alat
        k(    1) = (   0.0000000   0.0000000   0.0000000), wk =   0.1250000
        k(    2) = (   0.0000000   0.0419351   0.0000000), wk =   0.2500000
        k(    3) = (   0.0000000  -0.0838702   0.0000000), wk =   0.1250000
        k(    4) = (   0.0379955   0.0000049   0.0000000), wk =   0.2500000
        k(    5) = (   0.0379955   0.0419400   0.0000000), wk =   0.2500000
        k(    6) = (   0.0379955  -0.0838652   0.0000000), wk =   0.2500000
        k(    7) = (   0.0379955  -0.0419301   0.0000000), wk =   0.2500000
        k(    8) = (  -0.0759910  -0.0000099   0.0000000), wk =   0.1250000
        k(    9) = (  -0.0759910   0.0419252   0.0000000), wk =   0.2500000
        k(   10) = (  -0.0759910  -0.0838800   0.0000000), wk =   0.1250000

     Initial potential from superposition of free atoms

     starting charge  380.99916, renormalised to  397.00000

     negative rho (up, down):  1.755E-02 0.000E+00

     %%%%%%%%%%%%%%%%%%%%%%%%%%%%%%%%%%%%%%%%%%%%%%%%%%%%%%%%%%%%%%%%%%%%%%%%
     %                                                                      %
     % You are using vdW-DF, which was implemented by the Thonhauser group. %
     % Please cite the following two papers that made this development      %
     % possible and the two reviews that describe the various versions:     %
     %                                                                      %
     %   T. Thonhauser et al., PRL 115, 136402 (2015).                      %
     %   T. Thonhauser et al., PRB 76, 125112 (2007).                       %
     %   K. Berland et al., Rep. Prog. Phys. 78, 066501 (2015).             %
     %   D.C. Langreth et al., J. Phys.: Condens. Matter 21, 084203 (2009). %
     %                                                                      %
     %                                                                      %
     % If you are calculating the stress with vdW-DF, please also cite:     %
     %                                                                      %
     %   R. Sabatini et al., J. Phys.: Condens. Matter 24, 424209 (2012).   %
     %                                                                      %
     %%%%%%%%%%%%%%%%%%%%%%%%%%%%%%%%%%%%%%%%%%%%%%%%%%%%%%%%%%%%%%%%%%%%%%%%

     Adding external electric field

     Computed dipole along edir(3) :
        Dipole               -9.1667 Ry au,        -23.2993 Debye
        Dipole field         -0.0173 Ry au,

        Potential amp.        1.6036 Ry
        Total length         46.3494 bohr

     Starting wfcs are  300 atomic wfcs
  @ DRIVER MODE: Message from server: STATUS
  @ DRIVER MODE: Message from server: POSDATA
  @ DRIVER MODE: Reading and sharing cell
  @ DRIVER MODE: Reading and sharing positions
  @ DRIVER MODE: Received positions

     Self-consistent Calculation

     iteration #  1     ecut=    29.40 Ry     beta= 0.05
     Davidson diagonalization with overlap
     c_bands:  1 eigenvalues not converged
     c_bands:  1 eigenvalues not converged
     c_bands:  1 eigenvalues not converged
     c_bands:  1 eigenvalues not converged
     c_bands:  1 eigenvalues not converged
     c_bands:  1 eigenvalues not converged
     c_bands:  1 eigenvalues not converged
     c_bands:  1 eigenvalues not converged
     c_bands:  1 eigenvalues not converged
     ethr =  1.00E-05,  avg # of iterations = 19.8

[...]

     total energy              =   -2547.26773640 Ry
     estimated scf accuracy    <    4504.90620422 Ry

     iteration #  2     ecut=    29.40 Ry     beta= 0.05
     Davidson diagonalization with overlap
     ethr =  1.00E-02,  avg # of iterations = 24.7

[...]

     iteration # 76     ecut=    29.40 Ry     beta= 0.05
     Davidson diagonalization with overlap
     c_bands:  1 eigenvalues not converged
     ethr =  5.73E-11,  avg # of iterations = 15.6

[...]

     total energy              =   -2952.61571286 Ry
     estimated scf accuracy    <       0.00000055 Ry

     iteration # 77     ecut=    29.40 Ry     beta= 0.05
     Davidson diagonalization with overlap
     ethr =  5.73E-11,  avg # of iterations = 12.3

     negative rho (up, down):  1.615E-02 0.000E+00

     Adding external electric field

     Computed dipole along edir(3) :
        Dipole                0.4058 Ry au,          1.0314 Debye
        Dipole field          0.0008 Ry au,

        Potential amp.       -0.0710 Ry
        Total length         46.3494 bohr

     End of self-consistent calculation

          k = 0.0000 0.0000 0.0000 ( 18029 PWs)   bands (ev):

   -56.0236 -55.9985 -55.9919 -55.9895 -55.9622 -55.8689 -55.8367 -55.8275
   -55.8241 -55.8108 -55.8024 -55.7773 -55.7469 -55.5790 -55.0089 -54.9749
   -32.5442 -32.5077 -32.4003 -32.3683 -32.3357 -32.3156 -32.3061 -32.3009
   -32.2669 -32.2359 -32.2240 -32.2177 -32.2079 -32.1955 -32.1775 -32.1757
   -32.1508 -32.1295 -32.1273 -32.1245 -32.0917 -32.0806 -32.0715 -32.0394
   -32.0286 -32.0270 -32.0232 -32.0189 -32.0160 -32.0108 -31.9960 -31.9848
   -31.9830 -31.9814 -31.9697 -31.9636 -31.9593 -31.9414 -31.9220 -31.8397
   -31.8226 -31.7354 -31.4164 -31.3271 -31.3048 -31.2330 -31.1465 -31.0355
   -19.2333 -16.7558 -16.5158 -16.3410 -16.2006 -16.1698 -15.9531 -15.8515
   -15.7806 -15.7263 -15.6570 -15.6057 -15.5715 -15.5624 -15.5456 -15.5222
   -15.5022 -15.4793 -15.4563 -15.4445 -15.4380 -15.3962 -15.3886 -15.3725
   -15.3539 -15.2477 -15.1838 -15.1596 -15.1143 -15.0910 -14.7379 -13.5112
   -13.3946  -7.8710  -7.0854  -4.1544  -4.0596  -3.9844  -3.9443  -3.9289
    -3.7732  -3.6943  -3.5462  -3.5180  -3.3078  -3.2773  -3.2199  -3.1948
    -3.1332  -3.0712  -2.9766  -2.9320  -2.8560  -2.8397  -2.8271  -2.8044
    -2.7841  -2.7677  -2.7274  -2.6634  -2.5935  -2.5599  -2.4464  -2.4202
    -2.4133  -2.3461  -2.3390  -2.3270  -2.3140  -2.2825  -2.2606  -2.2576
    -2.1862  -2.1540  -2.0835  -2.0316  -1.9711  -1.8526  -1.7010  -1.6392
    -1.5886  -1.5281  -1.5033  -1.4674  -1.4452  -1.4211  -1.3617  -1.3038
    -1.2394  -1.2274  -1.1568  -1.0645  -0.9930  -0.9554  -0.8847  -0.8230
    -0.8015  -0.7734  -0.7654  -0.7564  -0.7078  -0.5349  -0.4790  -0.4652
    -0.4256  -0.3427  -0.3120  -0.3024  -0.2533  -0.2453  -0.2051  -0.1164
    -0.0974  -0.0624  -0.0445  -0.0309   0.0020   0.0213   0.1765   0.1972
     0.2396   0.2612   0.3635   0.4697   0.5366   0.6241   0.7186   0.9373
     1.0134   1.0906   1.2044   1.5854   1.6315   2.7811   3.1048   3.1934
     3.2315   3.2376   3.2719   3.3424   3.5586   3.5900   3.6074   3.6633

[...]

          k = 0.0380-0.0419 0.0000 ( 17876 PWs)   bands (ev):

[...]

          k =-0.0760-0.0000 0.0000 ( 17886 PWs)   bands (ev):

[...]

          k =-0.0760-0.0839 0.0000 ( 17948 PWs)   bands (ev):

   -56.0073 -56.0056 -55.9905 -55.9823 -55.9778 -55.8596 -55.8369 -55.8257
   -55.8200 -55.8183 -55.7948 -55.7937 -55.7453 -55.5805 -54.9920 -54.9917
   -32.3581 -32.3422 -32.3235 -32.3224 -32.3017 -32.3004 -32.2792 -32.2713
   -32.2516 -32.2188 -32.2038 -32.1996 -32.1950 -32.1735 -32.1460 -32.1408
   -32.1363 -32.1342 -32.1325 -32.1306 -32.1301 -32.1269 -32.1265 -32.1248
   -32.0777 -32.0588 -32.0499 -32.0383 -32.0265 -32.0241 -32.0229 -32.0210
   -32.0205 -32.0098 -32.0079 -31.9977 -31.9913 -31.9767 -31.9708 -31.8435
   -31.8278 -31.8224 -31.3175 -31.3173 -31.2292 -31.2290 -31.1898 -31.1897
   -19.2324 -16.2147 -16.0951 -16.0406 -15.9476 -15.9221 -15.9076 -15.8338
   -15.7813 -15.7281 -15.7185 -15.6944 -15.6802 -15.6726 -15.6139 -15.5855
   -15.5612 -15.5501 -15.5067 -15.4939 -15.4859 -15.4722 -15.4701 -15.4640
   -15.4203 -15.3895 -15.3521 -15.3481 -15.2087 -15.0999 -15.0101 -13.4966
   -13.4962  -7.8802  -7.0871  -3.9148  -3.6497  -3.4927  -3.3160  -3.2650
    -3.1662  -3.1569  -3.1232  -3.1029  -2.9938  -2.9342  -2.9214  -2.8997
    -2.8589  -2.8492  -2.8424  -2.8375  -2.8031  -2.8014  -2.7648  -2.7463
    -2.7143  -2.7009  -2.6953  -2.6883  -2.6646  -2.6451  -2.6059  -2.5905
    -2.5743  -2.5442  -2.5070  -2.3733  -2.3042  -2.2264  -2.2195  -2.1790
    -2.1663  -2.1466  -2.1036  -2.0858  -2.0585  -1.9774  -1.9020  -1.7476
    -1.7294  -1.7059  -1.6747  -1.6139  -1.5216  -1.4972  -1.4688  -1.4226
    -1.4057  -1.3482  -1.3273  -1.2960  -1.2405  -1.1781  -1.1404  -1.1133
    -1.0683  -1.0033  -0.9827  -0.9617  -0.9480  -0.8869  -0.7787  -0.7721
    -0.7663  -0.7166  -0.7013  -0.6717  -0.6513  -0.5589  -0.4795  -0.4194
    -0.3226  -0.1585  -0.0787   0.0193   0.0564   0.1010   0.1457   0.1875
     0.2844   0.2864   0.3589   0.3893   0.4066   0.4890   0.5000   0.5230
     0.6836   1.3759   1.3772   1.4510   1.4515   2.8160   3.3622   3.4087
     3.4429   3.4896   3.5922   3.6123   3.6408   3.6426   3.7212   3.7700

     the Fermi energy is     3.1080 ev

!    total energy              =   -2952.61573082 Ry
     estimated scf accuracy    <       0.00000006 Ry
     smearing contrib. (-TS)   =      -0.02584238 Ry
     internal energy E=F+TS    =   -2952.58988844 Ry

     The total energy is F=E-TS. E is the sum of the following terms:
     one-electron contribution =  -24509.51673077 Ry
     hartree contribution      =   12341.95134598 Ry
     xc contribution           =    -487.96287263 Ry
     ewald contribution        =    9702.93805824 Ry
     electric field correction =       0.00031075 Ry

     convergence has been achieved in  77 iterations

     Forces acting on atoms (cartesian axes, Ry/au):

     atom    1 type  1   force =    -0.00003441   -0.00030340    0.09592861
     atom    2 type  1   force =     0.00005492   -0.00048981   -0.17608827
     atom    3 type  2   force =     0.00010310   -0.00009803   -0.02433700
     atom    4 type  2   force =     0.00000768   -0.00163140    0.05390375
     atom    5 type  2   force =    -0.01179291   -0.00141312    0.00392336
     atom    6 type  2   force =     0.01322165   -0.00102002    0.00316462
     atom    7 type  1   force =     0.00034286    0.00068567   -0.00762720
     atom    8 type  1   force =     0.00026144    0.01496383    0.02333473
     atom    9 type  2   force =    -0.00005026    0.00018844    0.00009759
     atom   10 type  2   force =    -0.00219181    0.00049722   -0.01744055
     atom   11 type  2   force =     0.00047102   -0.00026717   -0.00021846
     atom   12 type  2   force =    -0.00084030   -0.00017395   -0.00000064
     atom   13 type  1   force =     0.00045499    0.00044249    0.00006577
     atom   14 type  1   force =    -0.00018623    0.00004971    0.00089731
     atom   15 type  2   force =    -0.00013135    0.00011939   -0.00072701
     atom   16 type  2   force =     0.00001306    0.00051551   -0.00021795
     atom   17 type  2   force =    -0.00046288    0.00027040    0.00005071
     atom   18 type  2   force =     0.00022956    0.00017895   -0.00017446
     atom   19 type  1   force =     0.00072363    0.00059460   -0.00044830
     atom   20 type  1   force =    -0.00056333    0.00034370   -0.00019248
     atom   21 type  2   force =     0.00006596   -0.00000314    0.10335756
     atom   22 type  2   force =    -0.00025280   -0.00024100    0.00072364
     atom   23 type  2   force =    -0.07137152   -0.00010877   -0.02763012
     atom   24 type  2   force =     0.07129208    0.00034400   -0.02770245
     atom   25 type  1   force =     0.00023940   -0.00029226    0.09576168
     atom   26 type  1   force =     0.00011341   -0.00029134   -0.17602338
     atom   27 type  2   force =     0.00013931   -0.00028710   -0.02323288
     atom   28 type  2   force =     0.00000193   -0.00132423    0.05366092
     atom   29 type  2   force =    -0.01213629    0.00039772    0.00377066
     atom   30 type  2   force =     0.01352495    0.00101428    0.00301622
     atom   31 type  1   force =     0.00024676    0.00375375   -0.01142239
     atom   32 type  1   force =     0.00043985   -0.01662013    0.02314894
     atom   33 type  2   force =     0.00017733    0.00009906   -0.00034770
     atom   34 type  2   force =    -0.00191286   -0.00009773   -0.02071716
     atom   35 type  2   force =     0.00045585    0.00006183    0.00007488
     atom   36 type  2   force =    -0.00087992   -0.00000278    0.00033118
     atom   37 type  1   force =     0.00080356    0.00005681   -0.00027684
     atom   38 type  1   force =     0.00000326    0.00012898    0.00040605
     atom   39 type  2   force =    -0.00025518    0.00044668   -0.00055267
     atom   40 type  2   force =    -0.00039255   -0.00007588   -0.00018068
     atom   41 type  2   force =    -0.00058236    0.00031622    0.00024638
     atom   42 type  2   force =     0.00005443    0.00022937    0.00010822
     atom   43 type  1   force =     0.00036851   -0.00012622    0.00032983
     atom   44 type  1   force =    -0.00006853   -0.00043585    0.00040842
     atom   45 type  2   force =     0.00006889   -0.00000026    0.10332000
     atom   46 type  2   force =    -0.07136049   -0.00004661   -0.02761263
     atom   47 type  2   force =     0.07128092    0.00038482   -0.02768679
     atom   48 type  3   force =     0.00143363    0.00169384    0.00038032
     atom   49 type  4   force =    -0.00105521    0.00048846   -0.00026093
     atom   50 type  5   force =     0.00068558   -0.00136316   -0.00009964
     atom   51 type  5   force =     0.00013483   -0.00124775    0.00018595
     atom   52 type  2   force =    -0.00018373   -0.00022017    0.00136190
     atom   53 type  5   force =    -0.00082017   -0.00024260   -0.00022325
     atom   54 type  5   force =     0.00011075    0.00015816   -0.00051736

     Total force =     0.367832     Total SCF correction =     0.000942
  @ DRIVER MODE: Message from server: STATUS
  @ DRIVER MODE: Message from server: GETFORCE
  @ DRIVER MODE: Returning v,forces,stress,ensemble

     Writing output data file ./calc.save/
  @ DRIVER MODE: Message from server: EXIT
  @ DRIVE MODE: Exiting

     General routines

     Parallel routines

   This run was terminated on:  21:21:37  15Sep2021

   JOB DONE.