     Program PWSCF v.6.7GPU starts on 15Sep2021 at 21:54:21

     R & G space division:  proc/nbgrp/npool/nimage =      10
     Reading input from /storage/home/hcoda1/3/ntian30/research/carbon/CxH_vib/H2O_calc/ads_slab/CH3NH2O_a/out_0021/pw.inp
Warning: card &CELL ignored
Warning: card   CELL_DYNAMICS='IPI', ignored
Warning: card / ignored

     Current dimensions of program PWSCF are:
     Max number of different atomic species (ntypx) = 10
     Max number of k-points (npk) =  40000
     Max angular momentum in pseudopotentials (lmaxx) =  3
     Presently no symmetry can be used with electric field

     Message from routine cell_base_init:
     DEPRECATED: use true lattice parameter, not A to a.u. conversion factor

     IMPORTANT: XC functional enforced from input :
     Exchange-correlation= BEEF-VDW
                           (   1   4  43  14   2   0   0)
     Any further DFT definition will be discarded
     Please, verify this is what you really want

  @ DRIVER MODE: Connecting to
 qe_1139763_2852618.sched-torque.pace.gatech.eduswmsg89t_scratch
  using UNIX socket
  @ DRIVER MODE: Message from server: STATUS
  @ DRIVER MODE: Message from server: INIT
  @ DRIVER MODE: Receiving replica           0          -1
  @ DRIVER MODE: Receiving encoded integer          25
  @ DRIVER MODE:  SCF:  T  FORCE:  T  STRESS:  F  VC:  F  ENSEMBLE:  F
  @ DRIVER MODE:  SCF:  T  FORCE:  T  STRESS:  F  VC:  F  ENSEMBLE:  F

     Using Slab Decomposition

     bravais-lattice index     =            0
     lattice parameter (alat)  =       1.8897  a.u.
     unit-cell volume          =    6658.9804 (a.u.)^3
     number of atoms/cell      =           55
     number of atomic types    =            5
     number of electrons       =       398.00
     number of Kohn-Sham states=          209
     kinetic-energy cutoff     =      29.3995  Ry
     charge density cutoff     =     293.9946  Ry
     scf convergence threshold =      7.3E-08
     mixing beta               =       0.0500
     number of iterations used =            8  plain     mixing
     Exchange-correlation= BEEF-VDW
                           (   1   4  43  14   2   0   0)

     celldm(1)=   1.889726  celldm(2)=   0.000000  celldm(3)=   0.000000
     celldm(4)=   0.000000  celldm(5)=   0.000000  celldm(6)=   0.000000

     crystal axes: (cart. coord. in units of alat)
               a(1) = (   6.579727   0.000000   0.000000 )
               a(2) = (  -0.000775   5.961596   0.000000 )
               a(3) = (   0.000000   0.000000  25.155947 )

     reciprocal axes: (cart. coord. in units 2 pi/alat)
               b(1) = (  0.151982  0.000020  0.000000 )
               b(2) = (  0.000000  0.167740  0.000000 )
               b(3) = (  0.000000  0.000000  0.039752 )

     PseudoPot. # 1 for Ti read from file:
     /storage/coda1/p-amedford6/0/shared/rich_project_chbe-medford/medford-share/data/pseudos_module/espresso/nninc/pbe/van/Ti.UPF
     MD5 check sum: 8e4df49b7f0d34bbd5052bf3f5ea0213
     Pseudo is Ultrasoft, Zval = 12.0
     Generated by new atomic code, or converted to UPF format
     Using radial grid of  851 points,  6 beta functions with:
                l(1) =   0
                l(2) =   0
                l(3) =   1
                l(4) =   1
                l(5) =   2
                l(6) =   2
     Q(r) pseudized with  8 coefficients,  rinner =    1.000   1.000   1.000
                                                       1.000   1.000

     PseudoPot. # 2 for O  read from file:
     /storage/coda1/p-amedford6/0/shared/rich_project_chbe-medford/medford-share/data/pseudos_module/espresso/nninc/pbe/van/O.UPF
     MD5 check sum: 78c19812648e8988a0fe644b0f25305e
     Pseudo is Ultrasoft, Zval =  6.0
     Generated by new atomic code, or converted to UPF format
     Using radial grid of  737 points,  4 beta functions with:
                l(1) =   0
                l(2) =   0
                l(3) =   1
                l(4) =   1
     Q(r) pseudized with  8 coefficients,  rinner =    0.800   0.800   0.800

     PseudoPot. # 3 for N  read from file:
     /storage/coda1/p-amedford6/0/shared/rich_project_chbe-medford/medford-share/data/pseudos_module/espresso/nninc/pbe/van/N.UPF
     MD5 check sum: 90d10febe142ad51ac9d5be1deb811c4
     Pseudo is Ultrasoft, Zval =  5.0
     Generated by new atomic code, or converted to UPF format
     Using radial grid of  729 points,  4 beta functions with:
                l(1) =   0
                l(2) =   0
                l(3) =   1
                l(4) =   1
     Q(r) pseudized with  8 coefficients,  rinner =    0.800   0.800   0.800

     PseudoPot. # 4 for C  read from file:
     /storage/coda1/p-amedford6/0/shared/rich_project_chbe-medford/medford-share/data/pseudos_module/espresso/nninc/pbe/van/C.UPF
     MD5 check sum: 1a69bf6b8db32088f5b2163dbdb77a27
     Pseudo is Ultrasoft, Zval =  4.0
     Generated by new atomic code, or converted to UPF format
     Using radial grid of  721 points,  4 beta functions with:
                l(1) =   0
                l(2) =   0
                l(3) =   1
                l(4) =   1
     Q(r) pseudized with  8 coefficients,  rinner =    0.800   0.800   0.800

     PseudoPot. # 5 for H  read from file:
     /storage/coda1/p-amedford6/0/shared/rich_project_chbe-medford/medford-share/data/pseudos_module/espresso/nninc/pbe/van/H.UPF
     MD5 check sum: b5ee9d7bfd3a09ee7748110bda690ff7
     Pseudo is Ultrasoft, Zval =  1.0
     Generated by new atomic code, or converted to UPF format
     Using radial grid of  615 points,  1 beta functions with:
                l(1) =   0
     Q(r) pseudized with  8 coefficients,  rinner =    0.800

     atomic species   valence    mass     pseudopotential
        Ti1           12.00    47.86700     Ti( 1.00)
        O1             6.00    15.99900     O ( 1.00)
        N1             5.00    14.00700     N ( 1.00)
        C1             4.00    12.01100     C ( 1.00)
        H1             1.00     1.00800     H ( 1.00)

     No symmetry found

   Cartesian axes

     site n.     atom                  positions (alat units)
         1           Ti1 tau(   1) = (   0.0004258   2.9801865   6.0000000  )
         2           Ti1 tau(   2) = (   3.2906075   1.4906267   6.0002472  )
         3           O1  tau(   3) = (   0.0006271   0.0005054   7.9858123  )
         4           O1  tau(   4) = (   3.2906025   0.0005020   7.3038282  )
         5           O1  tau(   5) = (   4.5942328   1.4918067   9.2879030  )
         6           O1  tau(   6) = (   1.9868534   1.4903216   9.2879459  )
         7           Ti1 tau(   7) = (   3.2907910   2.8959150   9.1758416  )
         8           Ti1 tau(   8) = (   0.0015273   1.4827037   9.2680791  )
         9           O1  tau(   9) = (   3.2951577   0.0167633  11.2896499  )
        10           O1  tau(  10) = (   0.0116148   5.9584955  10.6183126  )
        11           O1  tau(  11) = (   1.3222759   1.5071707  12.6129440  )
        12           O1  tau(  12) = (   5.3060066   1.5095485  12.6267335  )
        13           Ti1 tau(  13) = (   6.4824898   3.0013615  12.7357613  )
        14           Ti1 tau(  14) = (   3.1735365   1.4973312  12.4739500  )
        15           O1  tau(  15) = (   0.0245190   0.0017265  14.5963640  )
        16           O1  tau(  16) = (   3.2983568   0.0259644  13.8884976  )
        17           O1  tau(  17) = (   4.5535709   1.5599051  15.9919625  )
        18           O1  tau(  18) = (   2.0723989   1.5598234  15.9883263  )
        19           Ti1 tau(  19) = (   3.3263631   3.0313633  15.6478355  )
        20           Ti1 tau(  20) = (   0.0083359   1.6222165  16.0589653  )
        21           O1  tau(  21) = (   3.2904802   0.0005063   4.7018136  )
        22           O1  tau(  22) = (   0.0206953   0.0548308  17.2083480  )
        23           O1  tau(  23) = (   1.3043587   1.4918075   6.0039043  )
        24           O1  tau(  24) = (   5.2767064   1.4903225   6.0039473  )
        25           Ti1 tau(  25) = (   0.0000382   5.9609847   6.0000000  )
        26           Ti1 tau(  26) = (   3.2902200   4.4714249   6.0002472  )
        27           O1  tau(  27) = (   0.0002396   2.9813036   7.9858123  )
        28           O1  tau(  28) = (   3.2902150   2.9813002   7.3038282  )
        29           O1  tau(  29) = (   4.5938453   4.4726049   9.2879030  )
        30           O1  tau(  30) = (   1.9864658   4.4711199   9.2879459  )
        31           Ti1 tau(  31) = (   3.2891106   5.8743827   9.1763621  )
        32           Ti1 tau(  32) = (   0.0006254   4.4649316   9.2693709  )
        33           O1  tau(  33) = (   3.2909539   2.9954008  11.2901670  )
        34           O1  tau(  34) = (   0.0092240   2.9805883  10.6323155  )
        35           O1  tau(  35) = (   1.3211080   4.4795309  12.6092917  )
        36           O1  tau(  36) = (   5.3058445   4.4798052  12.6251394  )
        37           Ti1 tau(  37) = (   6.5140999   0.0198189  12.7603067  )
        38           Ti1 tau(  38) = (   3.1705570   4.4938763  12.4677136  )
        39           O1  tau(  39) = (   0.0016069   2.9863809  14.6467327  )
        40           O1  tau(  40) = (   3.3112668   3.0122049  13.8485686  )
        41           O1  tau(  41) = (   4.5534170   4.5051619  16.0179686  )
        42           O1  tau(  42) = (   2.0797414   4.5084034  16.0201905  )
        43           Ti1 tau(  43) = (   3.2815144   0.0627375  15.7417980  )
        44           Ti1 tau(  44) = (   0.0076503   4.5954094  16.1032789  )
        45           O1  tau(  45) = (   3.2900926   2.9813045   4.7018136  )
        46           O1  tau(  46) = (   1.3039711   4.4726057   6.0039043  )
        47           O1  tau(  47) = (   5.2763189   4.4711207   6.0039473  )
        48           N1  tau(  48) = (   0.0651939   3.0276870  17.3150544  )
        49           C1  tau(  49) = (   0.3375872   3.0185870  18.7284822  )
        50           H1  tau(  50) = (   0.4544735   4.0311245  19.1352477  )
        51           H1  tau(  51) = (   6.1015407   2.5202758  19.2785169  )
        52           H1  tau(  52) = (   1.2508204   2.4494767  18.9518403  )
        53           O1  tau(  53) = (   3.3357083   0.1159715  18.1615364  )
        54           H1  tau(  54) = (   4.1514219   5.6051498  18.3929375  )
        55           H1  tau(  55) = (   2.5926282   5.5337384  18.4710493  )

     number of k points=    10  Fermi-Dirac smearing, width (Ry)=  0.0073
                       cart. coord. in units 2pi/alat
        k(    1) = (   0.0000000   0.0000000   0.0000000), wk =   0.1250000
        k(    2) = (   0.0000000   0.0419351   0.0000000), wk =   0.2500000
        k(    3) = (   0.0000000  -0.0838702   0.0000000), wk =   0.1250000
        k(    4) = (   0.0379955   0.0000049   0.0000000), wk =   0.2500000
        k(    5) = (   0.0379955   0.0419400   0.0000000), wk =   0.2500000
        k(    6) = (   0.0379955  -0.0838652   0.0000000), wk =   0.2500000
        k(    7) = (   0.0379955  -0.0419301   0.0000000), wk =   0.2500000
        k(    8) = (  -0.0759910  -0.0000099   0.0000000), wk =   0.1250000
        k(    9) = (  -0.0759910   0.0419252   0.0000000), wk =   0.2500000
        k(   10) = (  -0.0759910  -0.0838800   0.0000000), wk =   0.1250000

     Initial potential from superposition of free atoms

     starting charge  381.99915, renormalised to  398.00000

     negative rho (up, down):  1.656E-02 0.000E+00

     %%%%%%%%%%%%%%%%%%%%%%%%%%%%%%%%%%%%%%%%%%%%%%%%%%%%%%%%%%%%%%%%%%%%%%%%
     %                                                                      %
     % You are using vdW-DF, which was implemented by the Thonhauser group. %
     % Please cite the following two papers that made this development      %
     % possible and the two reviews that describe the various versions:     %
     %                                                                      %
     %   T. Thonhauser et al., PRL 115, 136402 (2015).                      %
     %   T. Thonhauser et al., PRB 76, 125112 (2007).                       %
     %   K. Berland et al., Rep. Prog. Phys. 78, 066501 (2015).             %
     %   D.C. Langreth et al., J. Phys.: Condens. Matter 21, 084203 (2009). %
     %                                                                      %
     %                                                                      %
     % If you are calculating the stress with vdW-DF, please also cite:     %
     %                                                                      %
     %   R. Sabatini et al., J. Phys.: Condens. Matter 24, 424209 (2012).   %
     %                                                                      %
     %%%%%%%%%%%%%%%%%%%%%%%%%%%%%%%%%%%%%%%%%%%%%%%%%%%%%%%%%%%%%%%%%%%%%%%%

     Adding external electric field

     Computed dipole along edir(3) :
        Dipole               -9.1079 Ry au,        -23.1500 Debye
        Dipole field         -0.0172 Ry au,

        Potential amp.        1.5933 Ry
        Total length         46.3494 bohr

     Starting wfcs are  301 atomic wfcs
  @ DRIVER MODE: Message from server: STATUS
  @ DRIVER MODE: Message from server: POSDATA
  @ DRIVER MODE: Reading and sharing cell
  @ DRIVER MODE: Reading and sharing positions
  @ DRIVER MODE: Received positions

     Self-consistent Calculation

     iteration #  1     ecut=    29.40 Ry     beta= 0.05
     Davidson diagonalization with overlap
     c_bands:  1 eigenvalues not converged
     c_bands:  1 eigenvalues not converged
     c_bands:  1 eigenvalues not converged
     c_bands:  1 eigenvalues not converged
     c_bands:  1 eigenvalues not converged
     c_bands:  1 eigenvalues not converged
     c_bands:  1 eigenvalues not converged
     c_bands:  2 eigenvalues not converged
     ethr =  1.00E-05,  avg # of iterations = 19.6

[...]

     total energy              =   -2564.51631163 Ry
     estimated scf accuracy    <    4317.34621713 Ry

     iteration #  2     ecut=    29.40 Ry     beta= 0.05
     Davidson diagonalization with overlap
     ethr =  1.00E-02,  avg # of iterations = 23.9

[...]

     iteration # 40     ecut=    29.40 Ry     beta= 0.05
     Davidson diagonalization with overlap
     c_bands:  1 eigenvalues not converged
     c_bands:  1 eigenvalues not converged
     ethr =  1.48E-06,  avg # of iterations = 14.7

[...]

     total energy              =   -2953.97101743 Ry
     estimated scf accuracy    <       0.00000014 Ry

     iteration # 63     ecut=    29.40 Ry     beta= 0.05
     Davidson diagonalization with overlap
     ethr =  3.57E-11,  avg # of iterations =  5.0

     negative rho (up, down):  1.668E-02 0.000E+00

     Adding external electric field

     Computed dipole along edir(3) :
        Dipole                0.5300 Ry au,          1.3470 Debye
        Dipole field          0.0010 Ry au,

        Potential amp.       -0.0927 Ry
        Total length         46.3494 bohr

     End of self-consistent calculation

          k = 0.0000 0.0000 0.0000 ( 18029 PWs)   bands (ev):

   -56.5940 -56.5604 -55.7125 -55.6786 -55.6682 -55.6334 -55.4922 -55.4560
   -55.3620 -55.2424 -55.2302 -55.2280 -55.2085 -55.1326 -54.7263 -54.6768
   -33.0207 -32.8684 -32.8403 -32.7703 -32.6794 -32.6469 -32.1804 -32.1507
   -32.0277 -31.9773 -31.9295 -31.9102 -31.8813 -31.8708 -31.8434 -31.8372
   -31.8180 -31.8134 -31.7913 -31.7750 -31.7680 -31.7118 -31.7072 -31.6698
   -31.6562 -31.6335 -31.6268 -31.6183 -31.5953 -31.5870 -31.5821 -31.5579
   -31.4659 -31.4525 -31.4197 -31.4063 -31.3798 -31.3694 -31.3567 -31.3378
   -31.3099 -31.2584 -31.2411 -30.9700 -30.9484 -30.9190 -30.8951 -30.7859
   -18.7866 -16.7495 -16.2863 -16.0453 -15.9502 -15.8684 -15.8282 -15.7851
   -15.6384 -15.5647 -15.5449 -15.5420 -15.4749 -15.3308 -15.2764 -15.1786
   -15.0928 -14.9517 -14.9402 -14.8996 -14.8866 -14.8504 -14.8464 -14.7958
   -14.6271 -14.5913 -14.5452 -14.4869 -14.3948 -14.1746 -13.7408 -13.6311
   -12.9709  -7.7656  -6.5810  -4.3167  -3.7848  -3.5200  -3.4875  -3.3590
    -3.3552  -3.3124  -3.1788  -3.1640  -3.0898  -3.0633  -3.0244  -2.9493
    -2.8887  -2.8684  -2.7787  -2.7646  -2.7455  -2.7343  -2.7163  -2.5996
    -2.5555  -2.5052  -2.4017  -2.2916  -2.2495  -2.2223  -2.1760  -2.1430
    -2.0916  -2.0805  -2.0685  -2.0563  -1.9530  -1.8302  -1.8056  -1.7825
    -1.7358  -1.7219  -1.7126  -1.6900  -1.6050  -1.4971  -1.4034  -1.3353
    -1.3290  -1.2527  -1.2448  -1.1871  -1.0760  -1.0132  -1.0111  -0.9885
    -0.8843  -0.8600  -0.7887  -0.7264  -0.6670  -0.6139  -0.5510  -0.4988
    -0.4753  -0.4662  -0.3687  -0.2991  -0.2742  -0.2185  -0.2108  -0.2055
    -0.1782  -0.0840  -0.0481   0.0279   0.0638   0.1117   0.1466   0.2256
     0.2857   0.3516   0.3984   0.4204   0.4856   0.5416   0.5969   0.6876
     0.7452   0.7512   0.7792   0.8374   0.8508   0.9246   1.0070   1.0275
     1.0933   1.1647   1.3290   1.3680   1.6112   1.6867   2.3127   2.6833
     2.8444   3.1397   3.3288   3.4670   3.6625   3.6729   3.6801   3.9005
     3.9292

[...]

          k = 0.0380-0.0419 0.0000 ( 17876 PWs)   bands (ev):

[...]

          k =-0.0760-0.0000 0.0000 ( 17886 PWs)   bands (ev):

[...]

          k =-0.0760-0.0839 0.0000 ( 17948 PWs)   bands (ev):

   -56.5773 -56.5769 -55.6975 -55.6932 -55.6553 -55.6464 -55.4782 -55.4699
   -55.3597 -55.2325 -55.2255 -55.2253 -55.2247 -55.1359 -54.7192 -54.6839
   -32.8543 -32.8539 -32.8377 -32.8375 -32.7235 -32.7231 -32.0040 -31.9982
   -31.9865 -31.9795 -31.9033 -31.8886 -31.8876 -31.8834 -31.8766 -31.8751
   -31.8675 -31.8595 -31.8334 -31.8165 -31.7232 -31.7167 -31.6851 -31.6773
   -31.6544 -31.6188 -31.5866 -31.5710 -31.5709 -31.5704 -31.5487 -31.5312
   -31.4800 -31.4503 -31.4501 -31.4470 -31.4315 -31.4112 -31.4111 -31.4011
   -31.3747 -31.3393 -31.1021 -31.0395 -30.9459 -30.9204 -30.9047 -30.8578
   -18.7857 -16.1003 -16.0983 -16.0628 -16.0621 -15.7957 -15.7924 -15.7030
   -15.6974 -15.5659 -15.4454 -15.3410 -15.3284 -15.2945 -15.2681 -15.1580
   -15.1370 -15.1258 -15.1156 -15.0081 -14.9888 -14.9409 -14.9265 -14.9109
   -14.9035 -14.6087 -14.5923 -14.4921 -14.4662 -14.3271 -13.7347 -13.7347
   -12.9895  -7.7589  -6.5742  -3.1965  -3.1901  -3.1491  -3.1357  -3.1350
    -3.0880  -2.9775  -2.9289  -2.9278  -2.9207  -2.8389  -2.7822  -2.7745
    -2.6998  -2.6674  -2.6503  -2.5933  -2.5774  -2.5148  -2.4882  -2.4801
    -2.4620  -2.4383  -2.4370  -2.3439  -2.2778  -2.2321  -2.2267  -2.1676
    -2.1379  -2.0783  -2.0554  -2.0443  -2.0117  -1.9702  -1.9576  -1.9202
    -1.8773  -1.8437  -1.7802  -1.6134  -1.6043  -1.5956  -1.5753  -1.4536
    -1.4455  -1.4108  -1.3791  -1.3736  -1.3031  -1.2532  -1.2154  -1.1644
    -1.0768  -1.0554  -0.9510  -0.8987  -0.8552  -0.7996  -0.6945  -0.6741
    -0.6671  -0.6554  -0.6253  -0.5553  -0.5208  -0.5174  -0.3945  -0.3701
    -0.3321  -0.3022  -0.2443  -0.2153  -0.1564  -0.1242  -0.0544  -0.0399
    -0.0008   0.0756   0.1514   0.1852   0.2370   0.2433   0.5174   0.5911
     0.7201   0.7831   0.8455   0.9138   0.9788   1.0072   1.0367   1.1629
     1.1672   1.1769   1.1774   1.2470   1.2522   1.5899   2.1909   3.2594
     3.2596   3.3259   3.3265   3.6474   3.6537   3.7606   3.7708   3.9308
     3.9454

     the Fermi energy is     2.5106 ev

!    total energy              =   -2953.97108844 Ry
     estimated scf accuracy    <       0.00000005 Ry
     smearing contrib. (-TS)   =      -0.00444146 Ry
     internal energy E=F+TS    =   -2953.96664698 Ry

     The total energy is F=E-TS. E is the sum of the following terms:
     one-electron contribution =  -24343.91370465 Ry
     hartree contribution      =   12263.84935199 Ry
     xc contribution           =    -488.76804736 Ry
     ewald contribution        =    9614.86522301 Ry
     electric field correction =       0.00053002 Ry

     convergence has been achieved in  63 iterations

     Forces acting on atoms (cartesian axes, Ry/au):

     atom    1 type  1   force =    -0.00002951   -0.00047871    0.12439412
     atom    2 type  1   force =    -0.00003033   -0.00048082   -0.15982198
     atom    3 type  2   force =     0.00019881   -0.00023873   -0.06781093
     atom    4 type  2   force =     0.00000203   -0.00009084    0.02613961
     atom    5 type  2   force =    -0.01437696    0.00191258   -0.00990112
     atom    6 type  2   force =     0.01616388    0.00232224   -0.01027971
     atom    7 type  1   force =     0.00071587   -0.00388646    0.02844847
     atom    8 type  1   force =    -0.00033405   -0.00435790    0.10929307
     atom    9 type  2   force =     0.00002299    0.00001717    0.00009985
     atom   10 type  2   force =    -0.00225592    0.00266875   -0.07357903
     atom   11 type  2   force =     0.00079458   -0.00003133   -0.00021665
     atom   12 type  2   force =    -0.00043413    0.00004709   -0.00017823
     atom   13 type  1   force =    -0.00000061    0.00013065   -0.00013970
     atom   14 type  1   force =    -0.00034976    0.00048681   -0.00042249
     atom   15 type  2   force =     0.00002736   -0.00065186   -0.00019049
     atom   16 type  2   force =    -0.00018753   -0.00000458    0.00044305
     atom   17 type  2   force =    -0.00062408   -0.00031791   -0.00030658
     atom   18 type  2   force =     0.00027676   -0.00018564    0.00010882
     atom   19 type  1   force =     0.00042125   -0.00000509   -0.00025025
     atom   20 type  1   force =    -0.00019733   -0.00069011   -0.00093216
     atom   21 type  2   force =     0.00006878   -0.00003930    0.09951706
     atom   22 type  2   force =     0.00005462   -0.00047534    0.00030158
     atom   23 type  2   force =    -0.07969433   -0.00006236   -0.03247125
     atom   24 type  2   force =     0.07956663    0.00037663   -0.03252668
     atom   25 type  1   force =    -0.00000241   -0.00057657    0.12403729
     atom   26 type  1   force =    -0.00009965   -0.00062448   -0.15993918
     atom   27 type  2   force =     0.00033007   -0.00036025   -0.06688062
     atom   28 type  2   force =    -0.00002450    0.00017530    0.02515902
     atom   29 type  2   force =    -0.01496884    0.00189561   -0.00987923
     atom   30 type  2   force =     0.01665456    0.00242218   -0.01021043
     atom   31 type  1   force =     0.00078208   -0.00076437    0.02370275
     atom   32 type  1   force =    -0.00022533    0.00200497    0.10991741
     atom   33 type  2   force =     0.00004500   -0.00027184    0.00036321
     atom   34 type  2   force =    -0.00212028    0.00207047   -0.07169618
     atom   35 type  2   force =     0.00022070   -0.00012526   -0.00006509
     atom   36 type  2   force =    -0.00016236   -0.00024750   -0.00013769
     atom   37 type  1   force =     0.00040809   -0.00003399    0.00035907
     atom   38 type  1   force =     0.00000625   -0.00057471   -0.00021039
     atom   39 type  2   force =     0.00006872    0.00018901    0.00067424
     atom   40 type  2   force =    -0.00009185   -0.00024361    0.00029604
     atom   41 type  2   force =     0.00071742   -0.00034402    0.00011387
     atom   42 type  2   force =    -0.00097930   -0.00040306    0.00060606
     atom   43 type  1   force =     0.00003223   -0.00033053    0.00003324
     atom   44 type  1   force =    -0.00030042    0.00001008   -0.00098218
     atom   45 type  2   force =     0.00005895   -0.00004604    0.09947553
     atom   46 type  2   force =    -0.07970249    0.00000179   -0.03249157
     atom   47 type  2   force =     0.07958355    0.00042762   -0.03251842
     atom   48 type  3   force =    -0.00037327   -0.00000132   -0.00013613
     atom   49 type  4   force =    -0.00339677   -0.00333962    0.00188488
     atom   50 type  5   force =    -0.00135995   -0.00049328    0.00065636
     atom   51 type  5   force =     0.00318487    0.00296843   -0.00150812
     atom   52 type  5   force =     0.00106395    0.00038331   -0.00008010
     atom   53 type  2   force =    -0.00062449   -0.00012477   -0.00070279
     atom   54 type  5   force =     0.00080045    0.00035981    0.00068687
     atom   55 type  5   force =     0.00067602    0.00003172   -0.00024614

     Total force =     0.423362     Total SCF correction =     0.000574
  @ DRIVER MODE: Message from server: STATUS
  @ DRIVER MODE: Message from server: GETFORCE
  @ DRIVER MODE: Returning v,forces,stress,ensemble

     Writing output data file ./calc.save/
  @ DRIVER MODE: Message from server: EXIT
  @ DRIVE MODE: Exiting

     General routines

     Parallel routines

   This run was terminated on:  22:11:24  15Sep2021

   JOB DONE.