     Program PWSCF v.6.7GPU starts on  2Aug2021 at 21: 4: 4

     R & G space division:  proc/nbgrp/npool/nimage =      16
     Reading input from /storage/home/hcoda1/3/ntian30/research/carbon/02Aug_vib_paired/ads_slab/CH3NNHH_a/out_0030/pw.inp
Warning: card &CELL ignored
Warning: card   CELL_DYNAMICS='IPI', ignored
Warning: card / ignored

     Current dimensions of program PWSCF are:
     Max number of different atomic species (ntypx) = 10
     Max number of k-points (npk) =  40000
     Max angular momentum in pseudopotentials (lmaxx) =  3
     Presently no symmetry can be used with electric field

     Message from routine cell_base_init:
     DEPRECATED: use true lattice parameter, not A to a.u. conversion factor

     IMPORTANT: XC functional enforced from input :
     Exchange-correlation= BEEF-VDW
                           (   1   4  43  14   2   0   0)
     Any further DFT definition will be discarded
     Please, verify this is what you really want

  @ DRIVER MODE: Connecting to
 qe_1139763_2482543.sched-torque.pace.gatech.edu8ztawfat_scratch
  using UNIX socket
  @ DRIVER MODE: Message from server: STATUS
  @ DRIVER MODE: Message from server: INIT
  @ DRIVER MODE: Receiving replica           0          -1
  @ DRIVER MODE: Receiving encoded integer          25
  @ DRIVER MODE:  SCF:  T  FORCE:  T  STRESS:  F  VC:  F  ENSEMBLE:  F
  @ DRIVER MODE:  SCF:  T  FORCE:  T  STRESS:  F  VC:  F  ENSEMBLE:  F

     Using Slab Decomposition

     bravais-lattice index     =            0
     lattice parameter (alat)  =       1.8897  a.u.
     unit-cell volume          =    6658.9804 (a.u.)^3
     number of atoms/cell      =           55
     number of atomic types    =            5
     number of electrons       =       397.00
     number of Kohn-Sham states=          208
     kinetic-energy cutoff     =      29.3995  Ry
     charge density cutoff     =     293.9946  Ry
     scf convergence threshold =      7.3E-08
     mixing beta               =       0.0500
     number of iterations used =            8  plain     mixing
     Exchange-correlation= BEEF-VDW
                           (   1   4  43  14   2   0   0)

     celldm(1)=   1.889726  celldm(2)=   0.000000  celldm(3)=   0.000000
     celldm(4)=   0.000000  celldm(5)=   0.000000  celldm(6)=   0.000000

     crystal axes: (cart. coord. in units of alat)
               a(1) = (   6.579727   0.000000   0.000000 )
               a(2) = (  -0.000775   5.961596   0.000000 )
               a(3) = (   0.000000   0.000000  25.155947 )

     reciprocal axes: (cart. coord. in units 2 pi/alat)
               b(1) = (  0.151982  0.000020  0.000000 )
               b(2) = (  0.000000  0.167740  0.000000 )
               b(3) = (  0.000000  0.000000  0.039752 )

     PseudoPot. # 1 for Ti read from file:
     /storage/coda1/p-amedford6/0/shared/rich_project_chbe-medford/medford-share/data/pseudos_module/espresso/nninc/pbe/van/Ti.UPF
     MD5 check sum: 8e4df49b7f0d34bbd5052bf3f5ea0213
     Pseudo is Ultrasoft, Zval = 12.0
     Generated by new atomic code, or converted to UPF format
     Using radial grid of  851 points,  6 beta functions with:
                l(1) =   0
                l(2) =   0
                l(3) =   1
                l(4) =   1
                l(5) =   2
                l(6) =   2
     Q(r) pseudized with  8 coefficients,  rinner =    1.000   1.000   1.000
                                                       1.000   1.000

     PseudoPot. # 2 for O  read from file:
     /storage/coda1/p-amedford6/0/shared/rich_project_chbe-medford/medford-share/data/pseudos_module/espresso/nninc/pbe/van/O.UPF
     MD5 check sum: 78c19812648e8988a0fe644b0f25305e
     Pseudo is Ultrasoft, Zval =  6.0
     Generated by new atomic code, or converted to UPF format
     Using radial grid of  737 points,  4 beta functions with:
                l(1) =   0
                l(2) =   0
                l(3) =   1
                l(4) =   1
     Q(r) pseudized with  8 coefficients,  rinner =    0.800   0.800   0.800

     PseudoPot. # 3 for N  read from file:
     /storage/coda1/p-amedford6/0/shared/rich_project_chbe-medford/medford-share/data/pseudos_module/espresso/nninc/pbe/van/N.UPF
     MD5 check sum: 90d10febe142ad51ac9d5be1deb811c4
     Pseudo is Ultrasoft, Zval =  5.0
     Generated by new atomic code, or converted to UPF format
     Using radial grid of  729 points,  4 beta functions with:
                l(1) =   0
                l(2) =   0
                l(3) =   1
                l(4) =   1
     Q(r) pseudized with  8 coefficients,  rinner =    0.800   0.800   0.800

     PseudoPot. # 4 for C  read from file:
     /storage/coda1/p-amedford6/0/shared/rich_project_chbe-medford/medford-share/data/pseudos_module/espresso/nninc/pbe/van/C.UPF
     MD5 check sum: 1a69bf6b8db32088f5b2163dbdb77a27
     Pseudo is Ultrasoft, Zval =  4.0
     Generated by new atomic code, or converted to UPF format
     Using radial grid of  721 points,  4 beta functions with:
                l(1) =   0
                l(2) =   0
                l(3) =   1
                l(4) =   1
     Q(r) pseudized with  8 coefficients,  rinner =    0.800   0.800   0.800

     PseudoPot. # 5 for H  read from file:
     /storage/coda1/p-amedford6/0/shared/rich_project_chbe-medford/medford-share/data/pseudos_module/espresso/nninc/pbe/van/H.UPF
     MD5 check sum: b5ee9d7bfd3a09ee7748110bda690ff7
     Pseudo is Ultrasoft, Zval =  1.0
     Generated by new atomic code, or converted to UPF format
     Using radial grid of  615 points,  1 beta functions with:
                l(1) =   0
     Q(r) pseudized with  8 coefficients,  rinner =    0.800

     atomic species   valence    mass     pseudopotential
        Ti1           12.00    47.86700     Ti( 1.00)
        O1             6.00    15.99900     O ( 1.00)
        N1             5.00    14.00700     N ( 1.00)
        C1             4.00    12.01100     C ( 1.00)
        H1             1.00     1.00800     H ( 1.00)

     No symmetry found

   Cartesian axes

     site n.     atom                  positions (alat units)
         1           Ti1 tau(   1) = (   0.0004258   2.9801865   6.0000000  )
         2           Ti1 tau(   2) = (   3.2906075   1.4906267   6.0002472  )
         3           O1  tau(   3) = (   0.0006271   0.0005054   7.9858123  )
         4           O1  tau(   4) = (   3.2906025   0.0005020   7.3038282  )
         5           O1  tau(   5) = (   4.5942328   1.4918067   9.2879030  )
         6           O1  tau(   6) = (   1.9868534   1.4903216   9.2879459  )
         7           Ti1 tau(   7) = (   3.2907910   2.8959150   9.1758416  )
         8           Ti1 tau(   8) = (   0.0015273   1.4827037   9.2680791  )
         9           O1  tau(   9) = (   3.3049802   0.0007868  11.3057318  )
        10           O1  tau(  10) = (   0.0116148   5.9584955  10.6183126  )
        11           O1  tau(  11) = (   1.3244024   1.4905818  12.6109357  )
        12           O1  tau(  12) = (   5.3168099   1.4893704  12.6271843  )
        13           Ti1 tau(  13) = (   6.5373159   3.0114403  12.6515439  )
        14           Ti1 tau(  14) = (   3.2156784   1.4952808  12.4541107  )
        15           O1  tau(  15) = (   0.0550716   5.9579553  14.6769760  )
        16           O1  tau(  16) = (   3.3119233   0.0240268  13.8744051  )
        17           O1  tau(  17) = (   4.5754650   1.5399768  16.1198157  )
        18           O1  tau(  18) = (   2.0928293   1.5118261  15.9950610  )
        19           Ti1 tau(  19) = (   3.3312717   3.0210965  15.6459898  )
        20           Ti1 tau(  20) = (   0.0837956   1.4057146  15.8023643  )
        21           O1  tau(  21) = (   3.2904802   0.0005063   4.7018136  )
        22           O1  tau(  22) = (   0.0662678   0.0194342  17.2484716  )
        23           O1  tau(  23) = (   1.3043587   1.4918075   6.0039043  )
        24           O1  tau(  24) = (   5.2767064   1.4903225   6.0039473  )
        25           Ti1 tau(  25) = (   0.0000382   5.9609847   6.0000000  )
        26           Ti1 tau(  26) = (   3.2902200   4.4714249   6.0002472  )
        27           O1  tau(  27) = (   0.0002396   2.9813036   7.9858123  )
        28           O1  tau(  28) = (   3.2902150   2.9813002   7.3038282  )
        29           O1  tau(  29) = (   4.5938453   4.4726049   9.2879030  )
        30           O1  tau(  30) = (   1.9864658   4.4711199   9.2879459  )
        31           Ti1 tau(  31) = (   3.2891106   5.8743827   9.1763621  )
        32           Ti1 tau(  32) = (   0.0006254   4.4649316   9.2693709  )
        33           O1  tau(  33) = (   3.3066024   2.9928613  11.3071500  )
        34           O1  tau(  34) = (   0.0092240   2.9805883  10.6323155  )
        35           O1  tau(  35) = (   1.3207996   4.4694119  12.6241097  )
        36           O1  tau(  36) = (   5.3140488   4.4801720  12.6365454  )
        37           Ti1 tau(  37) = (   6.5381296   0.0208815  12.5444857  )
        38           Ti1 tau(  38) = (   3.2183512   4.4801350  12.4586296  )
        39           O1  tau(  39) = (   0.0202472   2.9427232  14.7250097  )
        40           O1  tau(  40) = (   3.3152672   2.9848540  13.8607131  )
        41           O1  tau(  41) = (   4.5737023   4.5140360  15.9163038  )
        42           O1  tau(  42) = (   2.1295162   4.4918226  16.0779194  )
        43           Ti1 tau(  43) = (   3.3279662   0.0229233  15.6733299  )
        44           Ti1 tau(  44) = (   6.5520288   4.5036137  16.2892914  )
        45           O1  tau(  45) = (   3.2900926   2.9813045   4.7018136  )
        46           O1  tau(  46) = (   1.3039711   4.4726057   6.0039043  )
        47           O1  tau(  47) = (   5.2763189   4.4711207   6.0039473  )
        48           N1  tau(  48) = (   0.3708600   2.9881754  17.6030774  )
        49           C1  tau(  49) = (   1.3543844   2.7351176  18.6431602  )
        50           H1  tau(  50) = (   1.5086739   3.6319226  19.2591966  )
        51           H1  tau(  51) = (   1.0320479   1.9069190  19.2840631  )
        52           H1  tau(  52) = (   2.3019873   2.4496563  18.2094378  )
        53           N1  tau(  53) = (   5.7269228   3.4566738  18.1314761  )
        54           H1  tau(  54) = (   5.8315057   4.0292447  18.9662490  )
        55           H1  tau(  55) = (   5.0361168   2.7172796  18.2515220  )

     number of k points=    10  Fermi-Dirac smearing, width (Ry)=  0.0073
                       cart. coord. in units 2pi/alat
        k(    1) = (   0.0000000   0.0000000   0.0000000), wk =   0.1250000
        k(    2) = (   0.0000000   0.0419351   0.0000000), wk =   0.2500000
        k(    3) = (   0.0000000  -0.0838702   0.0000000), wk =   0.1250000
        k(    4) = (   0.0379955   0.0000049   0.0000000), wk =   0.2500000
        k(    5) = (   0.0379955   0.0419400   0.0000000), wk =   0.2500000
        k(    6) = (   0.0379955  -0.0838652   0.0000000), wk =   0.2500000
        k(    7) = (   0.0379955  -0.0419301   0.0000000), wk =   0.2500000
        k(    8) = (  -0.0759910  -0.0000099   0.0000000), wk =   0.1250000
        k(    9) = (  -0.0759910   0.0419252   0.0000000), wk =   0.2500000
        k(   10) = (  -0.0759910  -0.0838800   0.0000000), wk =   0.1250000

     Initial potential from superposition of free atoms

     starting charge  380.99914, renormalised to  397.00000

     negative rho (up, down):  1.665E-02 0.000E+00

     %%%%%%%%%%%%%%%%%%%%%%%%%%%%%%%%%%%%%%%%%%%%%%%%%%%%%%%%%%%%%%%%%%%%%%%%
     %                                                                      %
     % You are using vdW-DF, which was implemented by the Thonhauser group. %
     % Please cite the following two papers that made this development      %
     % possible and the two reviews that describe the various versions:     %
     %                                                                      %
     %   T. Thonhauser et al., PRL 115, 136402 (2015).                      %
     %   T. Thonhauser et al., PRB 76, 125112 (2007).                       %
     %   K. Berland et al., Rep. Prog. Phys. 78, 066501 (2015).             %
     %   D.C. Langreth et al., J. Phys.: Condens. Matter 21, 084203 (2009). %
     %                                                                      %
     %                                                                      %
     % If you are calculating the stress with vdW-DF, please also cite:     %
     %                                                                      %
     %   R. Sabatini et al., J. Phys.: Condens. Matter 24, 424209 (2012).   %
     %                                                                      %
     %%%%%%%%%%%%%%%%%%%%%%%%%%%%%%%%%%%%%%%%%%%%%%%%%%%%%%%%%%%%%%%%%%%%%%%%

     Adding external electric field

     Computed dipole along edir(3) :
        Dipole               -9.2548 Ry au,        -23.5233 Debye
        Dipole field         -0.0175 Ry au,

        Potential amp.        1.6190 Ry
        Total length         46.3494 bohr

     Starting wfcs are  301 atomic wfcs
  @ DRIVER MODE: Message from server: STATUS
  @ DRIVER MODE: Message from server: POSDATA
  @ DRIVER MODE: Reading and sharing cell
  @ DRIVER MODE: Reading and sharing positions
  @ DRIVER MODE: Received positions

     Self-consistent Calculation

     iteration #  1     ecut=    29.40 Ry     beta= 0.05
     Davidson diagonalization with overlap
     c_bands:  1 eigenvalues not converged
     c_bands:  2 eigenvalues not converged
     c_bands:  1 eigenvalues not converged
     c_bands:  2 eigenvalues not converged
     c_bands:  2 eigenvalues not converged
     c_bands:  1 eigenvalues not converged
     c_bands:  2 eigenvalues not converged
     c_bands:  2 eigenvalues not converged
     c_bands:  4 eigenvalues not converged
     ethr =  1.00E-05,  avg # of iterations = 19.7

[...]

     total energy              =   -2525.58034230 Ry
     estimated scf accuracy    <    4612.76399883 Ry

     iteration #  2     ecut=    29.40 Ry     beta= 0.05
     Davidson diagonalization with overlap
     ethr =  1.00E-02,  avg # of iterations = 23.2

[...]

     iteration # 58     ecut=    29.40 Ry     beta= 0.05
     Davidson diagonalization with overlap
     c_bands:  1 eigenvalues not converged
     ethr =  2.89E-10,  avg # of iterations = 13.6

[...]

     total energy              =   -2941.63745372 Ry
     estimated scf accuracy    <       0.00000013 Ry

     iteration # 62     ecut=    29.40 Ry     beta= 0.05
     Davidson diagonalization with overlap
     ethr =  3.18E-11,  avg # of iterations = 11.6

     negative rho (up, down):  1.675E-02 0.000E+00

     Adding external electric field

     Computed dipole along edir(3) :
        Dipole                1.1486 Ry au,          2.9195 Debye
        Dipole field          0.0022 Ry au,

        Potential amp.       -0.2009 Ry
        Total length         46.3494 bohr

     End of self-consistent calculation

          k = 0.0000 0.0000 0.0000 ( 18029 PWs)   bands (ev):

   -55.5721 -55.5691 -55.5353 -55.5351 -55.4585 -55.4221 -55.4205 -55.3870
   -55.3697 -55.3356 -55.3249 -55.2911 -55.0318 -54.8874 -54.5355 -54.5015
   -32.1349 -32.0503 -31.9557 -31.8914 -31.8865 -31.8717 -31.8617 -31.8175
   -31.8097 -31.8034 -31.7830 -31.7579 -31.7541 -31.7247 -31.7214 -31.7140
   -31.6723 -31.6591 -31.6563 -31.6474 -31.6465 -31.6265 -31.6102 -31.5946
   -31.5677 -31.5668 -31.5652 -31.5573 -31.5551 -31.5287 -31.5050 -31.5038
   -31.4983 -31.4914 -31.4794 -31.4731 -31.4386 -31.3081 -31.2566 -31.1583
   -31.1402 -31.0482 -30.9419 -30.8553 -30.8328 -30.7590 -30.6725 -30.5612
   -17.5942 -16.3608 -16.0475 -15.8361 -15.7252 -15.7207 -15.6368 -15.4157
   -15.2957 -15.2802 -15.1640 -15.1591 -15.1002 -15.0597 -15.0533 -15.0473
   -15.0128 -15.0009 -14.9823 -14.9522 -14.9136 -14.8961 -14.8761 -14.7699
   -14.7081 -14.6980 -14.6821 -14.6155 -14.5716 -14.2075 -13.0375 -12.9213
   -12.5464  -9.2178  -6.3517  -5.1022  -4.2045  -3.7390  -3.5480  -3.4722
    -3.4376  -3.3736  -3.3606  -3.1816  -3.1739  -2.7960  -2.7751  -2.7559
    -2.7343  -2.7317  -2.4639  -2.4105  -2.3943  -2.3918  -2.3743  -2.3567
    -2.3353  -2.3248  -2.2963  -2.2901  -2.1544  -2.1099  -2.0310  -2.0006
    -1.9905  -1.8771  -1.8539  -1.8324  -1.8215  -1.8073  -1.7787  -1.7709
    -1.7507  -1.6418  -1.5332  -1.4600  -1.4141  -1.3598  -1.3435  -1.1611
    -1.1111  -1.0517  -1.0265  -1.0015  -0.9865  -0.9529  -0.8787  -0.8552
    -0.7129  -0.6747  -0.6217  -0.5955  -0.5648  -0.5088  -0.4739  -0.4461
    -0.3501  -0.3370  -0.3251  -0.3123  -0.2530  -0.0644  -0.0169   0.0010
     0.0166   0.1166   0.1565   0.1789   0.2160   0.2719   0.2978   0.3645
     0.3946   0.4143   0.4240   0.4480   0.4704   0.6021   0.6293   0.6596
     0.7186   0.7725   0.8490   0.9611   1.0473   1.1003   1.2014   1.4199
     1.4870   1.5709   1.6808   1.7015   2.0565   2.1015   3.5659   3.6564
     3.6945   3.7084   3.8153   3.8671   4.0148   4.0247   4.0674   4.0962

[...]

          k = 0.0380-0.0419 0.0000 ( 17876 PWs)   bands (ev):

[...]

          k =-0.0760-0.0000 0.0000 ( 17886 PWs)   bands (ev):

[...]

          k =-0.0760-0.0839 0.0000 ( 17948 PWs)   bands (ev):

   -55.5569 -55.5526 -55.5515 -55.5503 -55.4477 -55.4313 -55.4070 -55.4019
   -55.3541 -55.3508 -55.3096 -55.3065 -55.0303 -54.8887 -54.5185 -54.5184
   -31.9399 -31.9310 -31.8660 -31.8653 -31.8475 -31.8466 -31.8419 -31.8268
   -31.7999 -31.7862 -31.7667 -31.7479 -31.7198 -31.7112 -31.7061 -31.6811
   -31.6789 -31.6723 -31.6710 -31.6666 -31.6636 -31.6510 -31.6478 -31.6434
   -31.6243 -31.6122 -31.6021 -31.6002 -31.5515 -31.5494 -31.5424 -31.5407
   -31.5334 -31.5299 -31.5249 -31.5233 -31.4134 -31.3203 -31.2585 -31.2193
   -31.1459 -31.0601 -30.8456 -30.8455 -30.7548 -30.7546 -30.7158 -30.7158
   -17.5824 -15.8184 -15.7828 -15.5251 -15.5176 -15.5158 -15.4741 -15.3515
   -15.3028 -15.2762 -15.2647 -15.2459 -15.2392 -15.1347 -15.1221 -15.1048
   -15.0950 -15.0691 -15.0255 -15.0197 -15.0123 -15.0021 -14.9903 -14.9260
   -14.8709 -14.8671 -14.7586 -14.6641 -14.5215 -14.4379 -13.0233 -13.0230
   -12.5658  -9.1784  -6.3111  -5.1330  -4.1376  -3.4308  -3.1195  -3.0756
    -2.7871  -2.7678  -2.7540  -2.6376  -2.5177  -2.5086  -2.4839  -2.4607
    -2.4279  -2.4135  -2.4054  -2.3968  -2.3784  -2.3597  -2.3487  -2.3104
    -2.2407  -2.2333  -2.2250  -2.2160  -2.1995  -2.1755  -2.1656  -2.1375
    -2.1131  -2.0802  -2.0208  -1.9898  -1.8392  -1.7929  -1.7390  -1.6946
    -1.6862  -1.6569  -1.6232  -1.6157  -1.5080  -1.4936  -1.4581  -1.3284
    -1.2673  -1.2592  -1.2265  -1.1411  -1.1013  -0.9720  -0.9588  -0.9229
    -0.8691  -0.8580  -0.8210  -0.7835  -0.7314  -0.6798  -0.6356  -0.6114
    -0.5949  -0.5227  -0.5220  -0.4760  -0.4185  -0.3502  -0.3252  -0.3175
    -0.2862  -0.2422  -0.1963  -0.1313  -0.0566  -0.0368  -0.0209   0.0770
     0.1532   0.3692   0.4148   0.5164   0.5363   0.5611   0.6245   0.6733
     0.7429   0.7570   0.7862   0.8600   0.8816   0.9731   0.9836   1.0000
     1.1786   1.6327   1.8525   1.8534   1.9212   1.9217   3.8600   3.8735
     3.8997   3.9238   4.0852   4.0890   4.1012   4.1039   4.2242   4.2545

     the Fermi energy is     3.5648 ev

!    total energy              =   -2941.63750008 Ry
     estimated scf accuracy    <       0.00000006 Ry
     smearing contrib. (-TS)   =      -0.02170952 Ry
     internal energy E=F+TS    =   -2941.61579056 Ry

     The total energy is F=E-TS. E is the sum of the following terms:
     one-electron contribution =  -24404.81855665 Ry
     hartree contribution      =   12294.36527434 Ry
     xc contribution           =    -486.94729401 Ry
     ewald contribution        =    9655.78229603 Ry
     electric field correction =       0.00248973 Ry

     convergence has been achieved in  62 iterations

     Forces acting on atoms (cartesian axes, Ry/au):

     atom    1 type  1   force =     0.00002767   -0.00018609    0.09686211
     atom    2 type  1   force =     0.00010642   -0.00067074   -0.17455601
     atom    3 type  2   force =     0.00020198   -0.00005291   -0.02508645
     atom    4 type  2   force =     0.00001412   -0.00122336    0.05106823
     atom    5 type  2   force =    -0.01107466   -0.00078697    0.00211664
     atom    6 type  2   force =     0.01302305   -0.00028917    0.00279318
     atom    7 type  1   force =     0.00114601    0.00020260   -0.01337438
     atom    8 type  1   force =    -0.00018156    0.01541305    0.02794181
     atom    9 type  2   force =    -0.00011486    0.00045399    0.00000562
     atom   10 type  2   force =    -0.00221564    0.00097631   -0.01127914
     atom   11 type  2   force =     0.00028283   -0.00011607    0.00017246
     atom   12 type  2   force =    -0.00026065   -0.00012196    0.00039897
     atom   13 type  1   force =    -0.00007916   -0.00028102    0.00011715
     atom   14 type  1   force =     0.00011513    0.00012430   -0.00003946
     atom   15 type  2   force =     0.00010300   -0.00055878   -0.00034912
     atom   16 type  2   force =    -0.00044165    0.00016860    0.00028579
     atom   17 type  2   force =    -0.00016887   -0.00003161   -0.00006828
     atom   18 type  2   force =    -0.00036992    0.00001302    0.00026562
     atom   19 type  1   force =    -0.00009763    0.00030057   -0.00023387
     atom   20 type  1   force =    -0.00028003    0.00000921    0.00019397
     atom   21 type  2   force =     0.00005100   -0.00009777    0.10300004
     atom   22 type  2   force =    -0.00075573   -0.00040282    0.00039783
     atom   23 type  2   force =    -0.07180290   -0.00022388   -0.02778651
     atom   24 type  2   force =     0.07177383    0.00023188   -0.02783943
     atom   25 type  1   force =     0.00003899   -0.00023108    0.09639550
     atom   26 type  1   force =    -0.00000795   -0.00030276   -0.17482391
     atom   27 type  2   force =     0.00020215   -0.00025499   -0.02392712
     atom   28 type  2   force =     0.00007669   -0.00096177    0.05129462
     atom   29 type  2   force =    -0.01107248    0.00095649    0.00147830
     atom   30 type  2   force =     0.01287496    0.00119677    0.00210808
     atom   31 type  1   force =     0.00115340    0.00257942   -0.01569321
     atom   32 type  1   force =    -0.00001776   -0.01667590    0.02886199
     atom   33 type  2   force =    -0.00018004   -0.00045166    0.00042815
     atom   34 type  2   force =    -0.00258244    0.00114485   -0.01891909
     atom   35 type  2   force =    -0.00011802   -0.00011043    0.00004140
     atom   36 type  2   force =    -0.00003185   -0.00018604    0.00022720
     atom   37 type  1   force =    -0.00023116   -0.00016744    0.00049656
     atom   38 type  1   force =     0.00009644   -0.00053830    0.00035565
     atom   39 type  2   force =     0.00004826    0.00048200    0.00019687
     atom   40 type  2   force =    -0.00032204   -0.00013177   -0.00070078
     atom   41 type  2   force =     0.00020113    0.00001458    0.00006641
     atom   42 type  2   force =    -0.00017732    0.00018827    0.00023405
     atom   43 type  1   force =     0.00001840   -0.00042544   -0.00076627
     atom   44 type  1   force =    -0.00052583    0.00132404   -0.00030970
     atom   45 type  2   force =     0.00006204   -0.00011314    0.10299995
     atom   46 type  2   force =    -0.07182063   -0.00016441   -0.02780318
     atom   47 type  2   force =     0.07177902    0.00022068   -0.02784725
     atom   48 type  3   force =     0.00046803   -0.00143353   -0.00053780
     atom   49 type  4   force =    -0.00381839    0.00203738    0.00407759
     atom   50 type  5   force =    -0.00044103    0.00000680    0.00060749
     atom   51 type  5   force =    -0.00142960   -0.00044623    0.00021622
     atom   52 type  5   force =     0.00542452   -0.00145669   -0.00390623
     atom   53 type  3   force =     0.00062452    0.00043707    0.00072543
     atom   54 type  5   force =     0.00064215   -0.00021979    0.00114318
     atom   55 type  5   force =     0.00006403    0.00083262   -0.00172689

     Total force =     0.367220     Total SCF correction =     0.000766
  @ DRIVER MODE: Message from server: STATUS
  @ DRIVER MODE: Message from server: GETFORCE
  @ DRIVER MODE: Returning v,forces,stress,ensemble

     Writing output data file ./calc.save/
  @ DRIVER MODE: Message from server: EXIT
  @ DRIVE MODE: Exiting

     General routines

     Parallel routines

   This run was terminated on:  21:18:51   2Aug2021

   JOB DONE.