     Program PWSCF v.6.7GPU starts on 22Sep2021 at 17:46:13

     R & G space division:  proc/nbgrp/npool/nimage =      10
     Reading input from /storage/home/hcoda1/3/ntian30/research/carbon/CxH_vib/H2O_calc/ads_slab/CH2NHNHH2O_b/out_0006/pw.inp
Warning: card &CELL ignored
Warning: card   CELL_DYNAMICS='IPI', ignored
Warning: card / ignored

     Current dimensions of program PWSCF are:
     Max number of different atomic species (ntypx) = 10
     Max number of k-points (npk) =  40000
     Max angular momentum in pseudopotentials (lmaxx) =  3
     Presently no symmetry can be used with electric field

     Message from routine cell_base_init:
     DEPRECATED: use true lattice parameter, not A to a.u. conversion factor

     IMPORTANT: XC functional enforced from input :
     Exchange-correlation= BEEF-VDW
                           (   1   4  43  14   2   0   0)
     Any further DFT definition will be discarded
     Please, verify this is what you really want

  @ DRIVER MODE: Connecting to
 qe_1139763_2937310.sched-torque.pace.gatech.edu820okbtw_scratch
  using UNIX socket
  @ DRIVER MODE: Message from server: STATUS
  @ DRIVER MODE: Message from server: INIT
  @ DRIVER MODE: Receiving replica           0          -1
  @ DRIVER MODE: Receiving encoded integer          25
  @ DRIVER MODE:  SCF:  T  FORCE:  T  STRESS:  F  VC:  F  ENSEMBLE:  F
  @ DRIVER MODE:  SCF:  T  FORCE:  T  STRESS:  F  VC:  F  ENSEMBLE:  F

     Using Slab Decomposition

     bravais-lattice index     =            0
     lattice parameter (alat)  =       1.8897  a.u.
     unit-cell volume          =    6658.9804 (a.u.)^3
     number of atoms/cell      =           57
     number of atomic types    =            5
     number of electrons       =       404.00
     number of Kohn-Sham states=          212
     kinetic-energy cutoff     =      29.3995  Ry
     charge density cutoff     =     293.9946  Ry
     scf convergence threshold =      7.3E-08
     mixing beta               =       0.0500
     number of iterations used =            8  plain     mixing
     Exchange-correlation= BEEF-VDW
                           (   1   4  43  14   2   0   0)

     celldm(1)=   1.889726  celldm(2)=   0.000000  celldm(3)=   0.000000
     celldm(4)=   0.000000  celldm(5)=   0.000000  celldm(6)=   0.000000

     crystal axes: (cart. coord. in units of alat)
               a(1) = (   6.579727   0.000000   0.000000 )
               a(2) = (  -0.000775   5.961596   0.000000 )
               a(3) = (   0.000000   0.000000  25.155947 )

     reciprocal axes: (cart. coord. in units 2 pi/alat)
               b(1) = (  0.151982  0.000020  0.000000 )
               b(2) = (  0.000000  0.167740  0.000000 )
               b(3) = (  0.000000  0.000000  0.039752 )

     PseudoPot. # 1 for Ti read from file:
     /storage/coda1/p-amedford6/0/shared/rich_project_chbe-medford/medford-share/data/pseudos_module/espresso/nninc/pbe/van/Ti.UPF
     MD5 check sum: 8e4df49b7f0d34bbd5052bf3f5ea0213
     Pseudo is Ultrasoft, Zval = 12.0
     Generated by new atomic code, or converted to UPF format
     Using radial grid of  851 points,  6 beta functions with:
                l(1) =   0
                l(2) =   0
                l(3) =   1
                l(4) =   1
                l(5) =   2
                l(6) =   2
     Q(r) pseudized with  8 coefficients,  rinner =    1.000   1.000   1.000
                                                       1.000   1.000

     PseudoPot. # 2 for O  read from file:
     /storage/coda1/p-amedford6/0/shared/rich_project_chbe-medford/medford-share/data/pseudos_module/espresso/nninc/pbe/van/O.UPF
     MD5 check sum: 78c19812648e8988a0fe644b0f25305e
     Pseudo is Ultrasoft, Zval =  6.0
     Generated by new atomic code, or converted to UPF format
     Using radial grid of  737 points,  4 beta functions with:
                l(1) =   0
                l(2) =   0
                l(3) =   1
                l(4) =   1
     Q(r) pseudized with  8 coefficients,  rinner =    0.800   0.800   0.800

     PseudoPot. # 3 for N  read from file:
     /storage/coda1/p-amedford6/0/shared/rich_project_chbe-medford/medford-share/data/pseudos_module/espresso/nninc/pbe/van/N.UPF
     MD5 check sum: 90d10febe142ad51ac9d5be1deb811c4
     Pseudo is Ultrasoft, Zval =  5.0
     Generated by new atomic code, or converted to UPF format
     Using radial grid of  729 points,  4 beta functions with:
                l(1) =   0
                l(2) =   0
                l(3) =   1
                l(4) =   1
     Q(r) pseudized with  8 coefficients,  rinner =    0.800   0.800   0.800

     PseudoPot. # 4 for C  read from file:
     /storage/coda1/p-amedford6/0/shared/rich_project_chbe-medford/medford-share/data/pseudos_module/espresso/nninc/pbe/van/C.UPF
     MD5 check sum: 1a69bf6b8db32088f5b2163dbdb77a27
     Pseudo is Ultrasoft, Zval =  4.0
     Generated by new atomic code, or converted to UPF format
     Using radial grid of  721 points,  4 beta functions with:
                l(1) =   0
                l(2) =   0
                l(3) =   1
                l(4) =   1
     Q(r) pseudized with  8 coefficients,  rinner =    0.800   0.800   0.800

     PseudoPot. # 5 for H  read from file:
     /storage/coda1/p-amedford6/0/shared/rich_project_chbe-medford/medford-share/data/pseudos_module/espresso/nninc/pbe/van/H.UPF
     MD5 check sum: b5ee9d7bfd3a09ee7748110bda690ff7
     Pseudo is Ultrasoft, Zval =  1.0
     Generated by new atomic code, or converted to UPF format
     Using radial grid of  615 points,  1 beta functions with:
                l(1) =   0
     Q(r) pseudized with  8 coefficients,  rinner =    0.800

     atomic species   valence    mass     pseudopotential
        Ti1           12.00    47.86700     Ti( 1.00)
        O1             6.00    15.99900     O ( 1.00)
        N1             5.00    14.00700     N ( 1.00)
        C1             4.00    12.01100     C ( 1.00)
        H1             1.00     1.00800     H ( 1.00)

     No symmetry found

   Cartesian axes

     site n.     atom                  positions (alat units)
         1           Ti1 tau(   1) = (   0.0004258   2.9801865   6.0000000  )
         2           Ti1 tau(   2) = (   3.2906075   1.4906267   6.0002472  )
         3           O1  tau(   3) = (   0.0006271   0.0005054   7.9858123  )
         4           O1  tau(   4) = (   3.2906025   0.0005020   7.3038282  )
         5           O1  tau(   5) = (   4.5942328   1.4918067   9.2879030  )
         6           O1  tau(   6) = (   1.9868534   1.4903216   9.2879459  )
         7           Ti1 tau(   7) = (   3.2907910   2.8959150   9.1758416  )
         8           Ti1 tau(   8) = (   0.0015273   1.4827037   9.2680791  )
         9           O1  tau(   9) = (   3.2740695   5.9399032  11.3612631  )
        10           O1  tau(  10) = (   0.0116148   5.9584955  10.6183126  )
        11           O1  tau(  11) = (   1.2665466   1.4659349  12.6457467  )
        12           O1  tau(  12) = (   5.2636777   1.4644475  12.6520517  )
        13           Ti1 tau(  13) = (   0.0254019   2.9535957  12.5508080  )
        14           Ti1 tau(  14) = (   3.3235577   1.4585364  12.5144190  )
        15           O1  tau(  15) = (   0.0066209   5.9388471  14.7046414  )
        16           O1  tau(  16) = (   3.2471877   5.9405099  14.0100224  )
        17           O1  tau(  17) = (   4.5302733   1.5208160  16.0462967  )
        18           O1  tau(  18) = (   1.9955500   1.4995475  16.2009832  )
        19           Ti1 tau(  19) = (   3.2567830   2.9699832  15.6929747  )
        20           Ti1 tau(  20) = (   6.4949666   1.4732860  15.8443191  )
        21           O1  tau(  21) = (   3.2904802   0.0005063   4.7018136  )
        22           O1  tau(  22) = (   6.4419287   5.8812218  17.2824568  )
        23           O1  tau(  23) = (   1.3043587   1.4918075   6.0039043  )
        24           O1  tau(  24) = (   5.2767064   1.4903225   6.0039473  )
        25           Ti1 tau(  25) = (   0.0000382   5.9609847   6.0000000  )
        26           Ti1 tau(  26) = (   3.2902200   4.4714249   6.0002472  )
        27           O1  tau(  27) = (   0.0002396   2.9813036   7.9858123  )
        28           O1  tau(  28) = (   3.2902150   2.9813002   7.3038282  )
        29           O1  tau(  29) = (   4.5938453   4.4726049   9.2879030  )
        30           O1  tau(  30) = (   1.9864658   4.4711199   9.2879459  )
        31           Ti1 tau(  31) = (   3.2891106   5.8743827   9.1763621  )
        32           Ti1 tau(  32) = (   0.0006254   4.4649316   9.2693709  )
        33           O1  tau(  33) = (   3.2800166   2.9600013  11.3546200  )
        34           O1  tau(  34) = (   0.0092240   2.9805883  10.6323155  )
        35           O1  tau(  35) = (   1.2663080   4.4508225  12.6496728  )
        36           O1  tau(  36) = (   5.2650692   4.4524444  12.6537221  )
        37           Ti1 tau(  37) = (   0.0180281   5.9297397  12.5120547  )
        38           Ti1 tau(  38) = (   3.3242103   4.4456960  12.5094407  )
        39           O1  tau(  39) = (   0.0028395   2.9305241  14.7702868  )
        40           O1  tau(  40) = (   3.2369197   2.9632653  13.9133312  )
        41           O1  tau(  41) = (   4.5259019   4.3784886  16.1008109  )
        42           O1  tau(  42) = (   2.0017919   4.4285960  16.1845674  )
        43           Ti1 tau(  43) = (   3.2453488   5.9423767  15.8283900  )
        44           Ti1 tau(  44) = (   6.5728488   4.6138345  16.0446011  )
        45           O1  tau(  45) = (   3.2900926   2.9813045   4.7018136  )
        46           O1  tau(  46) = (   1.3039711   4.4726057   6.0039043  )
        47           O1  tau(  47) = (   5.2763189   4.4711207   6.0039473  )
        48           N1  tau(  48) = (   0.9567011   2.5879941  18.4948429  )
        49           N1  tau(  49) = (   6.5185693   2.8362889  17.6364570  )
        50           C1  tau(  50) = (   1.0658718   2.8740630  19.7563100  )
        51           H1  tau(  51) = (   1.9437682   2.5238050  20.2723566  )
        52           H1  tau(  52) = (   0.2809834   3.4210577  20.2544045  )
        53           H1  tau(  53) = (   1.7014144   2.0656717  17.9989220  )
        54           H1  tau(  54) = (   5.6742842   3.0275795  18.1730567  )
        55           O1  tau(  55) = (   3.7618585   0.1297276  18.3074903  )
        56           H1  tau(  56) = (   4.7330396   0.0541995  18.1289380  )
        57           H1  tau(  57) = (   3.4892521   5.2388606  18.6788193  )

     number of k points=    10  Fermi-Dirac smearing, width (Ry)=  0.0073
                       cart. coord. in units 2pi/alat
        k(    1) = (   0.0000000   0.0000000   0.0000000), wk =   0.1250000
        k(    2) = (   0.0000000   0.0419351   0.0000000), wk =   0.2500000
        k(    3) = (   0.0000000  -0.0838702   0.0000000), wk =   0.1250000
        k(    4) = (   0.0379955   0.0000049   0.0000000), wk =   0.2500000
        k(    5) = (   0.0379955   0.0419400   0.0000000), wk =   0.2500000
        k(    6) = (   0.0379955  -0.0838652   0.0000000), wk =   0.2500000
        k(    7) = (   0.0379955  -0.0419301   0.0000000), wk =   0.2500000
        k(    8) = (  -0.0759910  -0.0000099   0.0000000), wk =   0.1250000
        k(    9) = (  -0.0759910   0.0419252   0.0000000), wk =   0.2500000
        k(   10) = (  -0.0759910  -0.0838800   0.0000000), wk =   0.1250000

     Initial potential from superposition of free atoms

     starting charge  387.99913, renormalised to  404.00000

     negative rho (up, down):  1.394E-02 0.000E+00

     %%%%%%%%%%%%%%%%%%%%%%%%%%%%%%%%%%%%%%%%%%%%%%%%%%%%%%%%%%%%%%%%%%%%%%%%
     %                                                                      %
     % You are using vdW-DF, which was implemented by the Thonhauser group. %
     % Please cite the following two papers that made this development      %
     % possible and the two reviews that describe the various versions:     %
     %                                                                      %
     %   T. Thonhauser et al., PRL 115, 136402 (2015).                      %
     %   T. Thonhauser et al., PRB 76, 125112 (2007).                       %
     %   K. Berland et al., Rep. Prog. Phys. 78, 066501 (2015).             %
     %   D.C. Langreth et al., J. Phys.: Condens. Matter 21, 084203 (2009). %
     %                                                                      %
     %                                                                      %
     % If you are calculating the stress with vdW-DF, please also cite:     %
     %                                                                      %
     %   R. Sabatini et al., J. Phys.: Condens. Matter 24, 424209 (2012).   %
     %                                                                      %
     %%%%%%%%%%%%%%%%%%%%%%%%%%%%%%%%%%%%%%%%%%%%%%%%%%%%%%%%%%%%%%%%%%%%%%%%

     Adding external electric field

     Computed dipole along edir(3) :
        Dipole              -14.1811 Ry au,        -36.0448 Debye
        Dipole field         -0.0268 Ry au,

        Potential amp.        2.4808 Ry
        Total length         46.3494 bohr

     Starting wfcs are  306 atomic wfcs
  @ DRIVER MODE: Message from server: STATUS
  @ DRIVER MODE: Message from server: POSDATA
  @ DRIVER MODE: Reading and sharing cell
  @ DRIVER MODE: Reading and sharing positions
  @ DRIVER MODE: Received positions

     Self-consistent Calculation

     iteration #  1     ecut=    29.40 Ry     beta= 0.05
     Davidson diagonalization with overlap
     c_bands:  4 eigenvalues not converged
     c_bands:  4 eigenvalues not converged
     c_bands:  2 eigenvalues not converged
     c_bands:  2 eigenvalues not converged
     c_bands:  1 eigenvalues not converged
     c_bands:  1 eigenvalues not converged
     c_bands:  4 eigenvalues not converged
     c_bands:  1 eigenvalues not converged
     c_bands:  1 eigenvalues not converged
     ethr =  1.00E-05,  avg # of iterations = 28.7

[...]

     total energy              =   -2249.23910104 Ry
     estimated scf accuracy    <    8256.04461743 Ry

     iteration #  2     ecut=    29.40 Ry     beta= 0.05
     Davidson diagonalization with overlap
     ethr =  1.00E-02,  avg # of iterations = 26.7

[...]

     iteration # 69     ecut=    29.40 Ry     beta= 0.05
     Davidson diagonalization with overlap
     c_bands:  1 eigenvalues not converged
     c_bands:  2 eigenvalues not converged
     ethr =  4.72E-11,  avg # of iterations = 15.7

[...]

     total energy              =   -2975.20136066 Ry
     estimated scf accuracy    <       0.00000009 Ry

     iteration # 71     ecut=    29.40 Ry     beta= 0.05
     Davidson diagonalization with overlap
     ethr =  2.26E-11,  avg # of iterations = 10.5

     negative rho (up, down):  1.351E-02 0.000E+00

     Adding external electric field

     Computed dipole along edir(3) :
        Dipole                1.4356 Ry au,          3.6489 Debye
        Dipole field          0.0027 Ry au,

        Potential amp.       -0.2511 Ry
        Total length         46.3494 bohr

     End of self-consistent calculation

          k = 0.0000 0.0000 0.0000 ( 18029 PWs)   bands (ev):

   -55.1350 -55.1067 -55.0984 -55.0726 -55.0699 -55.0212 -54.9793 -54.9465
   -54.9314 -54.9157 -54.9112 -54.9103 -54.8983 -54.8286 -54.1195 -54.0854
   -31.6980 -31.5965 -31.5144 -31.4710 -31.4534 -31.4461 -31.4357 -31.4335
   -31.3964 -31.3767 -31.3544 -31.3510 -31.3352 -31.3125 -31.2960 -31.2819
   -31.2761 -31.2594 -31.2572 -31.2476 -31.2180 -31.2051 -31.2013 -31.1762
   -31.1716 -31.1637 -31.1542 -31.1501 -31.1468 -31.1396 -31.1282 -31.1262
   -31.1041 -31.0957 -31.0927 -31.0856 -31.0758 -31.0627 -31.0602 -31.0443
   -31.0395 -31.0091 -30.5280 -30.4359 -30.4137 -30.3446 -30.2579 -30.1468
   -19.2542 -18.5945 -15.9530 -15.6886 -15.5584 -15.3914 -15.3270 -15.1561
   -15.0767 -15.0103 -14.9245 -14.8686 -14.8529 -14.8471 -14.7537 -14.7364
   -14.6844 -14.6699 -14.6636 -14.6326 -14.6241 -14.5676 -14.5622 -14.5587
   -14.5227 -14.5099 -14.4804 -14.3627 -14.2816 -14.2248 -14.0187 -13.7242
   -12.6218 -12.5047 -10.0139  -6.8623  -6.4868  -6.3688  -4.0874  -3.8927
    -3.3046  -3.1677  -3.1424  -3.0612  -3.0358  -2.9212  -2.8586  -2.6995
    -2.5974  -2.4923  -2.4014  -2.3321  -2.3237  -2.2958  -2.1821  -2.1176
    -2.0708  -2.0296  -2.0105  -1.9958  -1.9467  -1.9113  -1.9088  -1.8444
    -1.8407  -1.7029  -1.6175  -1.6058  -1.5702  -1.5539  -1.4655  -1.4448
    -1.4341  -1.4266  -1.4204  -1.4127  -1.3789  -1.3366  -1.3107  -1.2305
    -1.1723  -1.1324  -0.9987  -0.8983  -0.8240  -0.7648  -0.6766  -0.6737
    -0.6054  -0.5418  -0.5277  -0.5238  -0.4634  -0.3437  -0.3009  -0.2506
    -0.2270  -0.2045  -0.1106  -0.0944  -0.0245   0.0431   0.0773   0.0873
     0.1087   0.2801   0.2888   0.3187   0.3380   0.4272   0.4803   0.5206
     0.5272   0.5500   0.6137   0.6560   0.7474   0.7945   0.8052   0.8261
     0.8480   0.8863   0.9614   0.9724   1.0150   1.0381   1.1767   1.2107
     1.2588   1.4838   1.4869   1.8162   1.8560   1.9033   2.0895   2.4776
     2.5250   3.9643   4.0536   4.0928   4.0946   4.1138   4.1995   4.3368
     4.4451   4.4559   4.4675   4.4900

[...]

          k = 0.0380-0.0419 0.0000 ( 17876 PWs)   bands (ev):

[...]

          k =-0.0760-0.0000 0.0000 ( 17886 PWs)   bands (ev):

[...]

          k =-0.0760-0.0839 0.0000 ( 17948 PWs)   bands (ev):

   -55.1202 -55.1129 -55.0897 -55.0895 -55.0680 -55.0122 -54.9882 -54.9316
   -54.9252 -54.9169 -54.9156 -54.9148 -54.9073 -54.8321 -54.1025 -54.1023
   -31.5065 -31.4982 -31.4134 -31.4117 -31.4115 -31.3964 -31.3819 -31.3817
   -31.3588 -31.3569 -31.3503 -31.3437 -31.3326 -31.3024 -31.2724 -31.2656
   -31.2649 -31.2644 -31.2601 -31.2545 -31.2476 -31.2298 -31.2154 -31.2128
   -31.2097 -31.2091 -31.2088 -31.1874 -31.1648 -31.1570 -31.1561 -31.1455
   -31.1394 -31.1369 -31.1357 -31.1349 -31.1346 -31.1032 -31.0964 -31.0947
   -31.0828 -31.0519 -30.4265 -30.4263 -30.3407 -30.3404 -30.3013 -30.3012
   -19.2517 -18.5940 -15.4472 -15.2910 -15.2767 -15.1256 -15.1106 -15.1024
   -15.0786 -15.0036 -14.9861 -14.9216 -14.9074 -14.8642 -14.8364 -14.8244
   -14.8135 -14.7194 -14.7120 -14.7058 -14.6902 -14.6391 -14.6270 -14.6099
   -14.5866 -14.5825 -14.5459 -14.4812 -14.4779 -14.4484 -14.2195 -13.7357
   -12.6063 -12.6062 -10.0169  -6.8567  -6.4902  -6.3605  -4.0630  -3.8806
    -2.9377  -2.7120  -2.5301  -2.4992  -2.4650  -2.3583  -2.3176  -2.2761
    -2.1805  -2.1316  -2.1150  -2.0946  -2.0811  -2.0207  -2.0172  -2.0143
    -1.9767  -1.9685  -1.9545  -1.9293  -1.9078  -1.8758  -1.8605  -1.8482
    -1.8354  -1.7966  -1.7773  -1.7487  -1.7364  -1.7059  -1.6897  -1.6231
    -1.5176  -1.4884  -1.4348  -1.3427  -1.3219  -1.3161  -1.2314  -1.2015
    -1.1862  -1.1710  -1.1580  -1.0970  -0.9613  -0.8705  -0.8604  -0.8106
    -0.7459  -0.7103  -0.6673  -0.6420  -0.6147  -0.5608  -0.5094  -0.4862
    -0.4127  -0.3578  -0.3513  -0.3198  -0.1745  -0.1505  -0.1028  -0.0994
    -0.0863  -0.0779   0.0140   0.0306   0.0748   0.0950   0.1334   0.1534
     0.2178   0.2397   0.3619   0.4269   0.4923   0.5996   0.7383   0.7520
     0.8249   0.8800   0.9248   0.9917   1.0484   1.0778   1.1634   1.1749
     1.1868   1.2929   1.3424   1.3490   1.3656   2.2619   2.2635   2.3450
     2.3451   4.1265   4.1502   4.2376   4.2521   4.3042   4.3855   4.4766
     4.5030   4.5380   4.5421   4.6229

     the Fermi energy is     4.0125 ev

!    total energy              =   -2975.20137752 Ry
     estimated scf accuracy    <       0.00000003 Ry
     smearing contrib. (-TS)   =      -0.03821635 Ry
     internal energy E=F+TS    =   -2975.16316116 Ry

     The total energy is F=E-TS. E is the sum of the following terms:
     one-electron contribution =  -23644.11153916 Ry
     hartree contribution      =   11920.31407234 Ry
     xc contribution           =    -494.97706554 Ry
     ewald contribution        =    9243.60748188 Ry
     electric field correction =       0.00388932 Ry

     convergence has been achieved in  71 iterations

     Forces acting on atoms (cartesian axes, Ry/au):

     atom    1 type  1   force =     0.00013724   -0.00013119    0.09423064
     atom    2 type  1   force =    -0.00023304   -0.00026474   -0.17730253
     atom    3 type  2   force =     0.00001694   -0.00026418   -0.02171557
     atom    4 type  2   force =    -0.00004272   -0.00184593    0.05695290
     atom    5 type  2   force =    -0.01106634   -0.00172080    0.00686803
     atom    6 type  2   force =     0.01215456   -0.00091722    0.00493634
     atom    7 type  1   force =    -0.00121803    0.00155566   -0.01218524
     atom    8 type  1   force =     0.00072613    0.00494867    0.00603396
     atom    9 type  2   force =     0.00026859    0.00050553    0.00031963
     atom   10 type  2   force =    -0.00307276   -0.00067053   -0.00504271
     atom   11 type  2   force =     0.00081105    0.00021800   -0.00021590
     atom   12 type  2   force =    -0.00005873    0.00051503    0.00002821
     atom   13 type  1   force =    -0.00022134    0.00010436   -0.00020129
     atom   14 type  1   force =    -0.00001353    0.00012473   -0.00015751
     atom   15 type  2   force =    -0.00004699    0.00006644    0.00037456
     atom   16 type  2   force =     0.00038627    0.00036894   -0.00003066
     atom   17 type  2   force =     0.00027950   -0.00008392    0.00041277
     atom   18 type  2   force =    -0.00021914    0.00013102    0.00107875
     atom   19 type  1   force =     0.00035543    0.00047036   -0.00030427
     atom   20 type  1   force =     0.00011927    0.00042795    0.00038707
     atom   21 type  2   force =     0.00005095    0.00002419    0.10367131
     atom   22 type  2   force =     0.00053644    0.00002524    0.00007321
     atom   23 type  2   force =    -0.07084097   -0.00008429   -0.02719160
     atom   24 type  2   force =     0.07067403    0.00039780   -0.02722803
     atom   25 type  1   force =    -0.00006383   -0.00027919    0.09392993
     atom   26 type  1   force =    -0.00031469   -0.00036027   -0.17746712
     atom   27 type  2   force =     0.00000749   -0.00022773   -0.02075367
     atom   28 type  2   force =     0.00003600   -0.00148761    0.05597858
     atom   29 type  2   force =    -0.01134011   -0.00053184    0.00690427
     atom   30 type  2   force =     0.01229970   -0.00025390    0.00491917
     atom   31 type  1   force =    -0.00120921    0.00505945   -0.01497735
     atom   32 type  1   force =     0.00092794   -0.00600890    0.00586047
     atom   33 type  2   force =     0.00035374   -0.00013234    0.00010693
     atom   34 type  2   force =    -0.00261031   -0.00151051   -0.00574442
     atom   35 type  2   force =     0.00036897    0.00029827   -0.00028627
     atom   36 type  2   force =     0.00044761    0.00040361   -0.00004851
     atom   37 type  1   force =    -0.00017083   -0.00015811   -0.00025595
     atom   38 type  1   force =     0.00004576    0.00032769    0.00038699
     atom   39 type  2   force =     0.00007340    0.00085847   -0.00057203
     atom   40 type  2   force =     0.00003219   -0.00009405    0.00011570
     atom   41 type  2   force =     0.00099427    0.00041900    0.00062033
     atom   42 type  2   force =    -0.00083705    0.00019582    0.00005852
     atom   43 type  1   force =     0.00059961   -0.00092043   -0.00023306
     atom   44 type  1   force =     0.00029779   -0.00009534   -0.00047910
     atom   45 type  2   force =     0.00001918   -0.00002334    0.10366586
     atom   46 type  2   force =    -0.07083000   -0.00001054   -0.02720495
     atom   47 type  2   force =     0.07065873    0.00039465   -0.02719924
     atom   48 type  3   force =    -0.00193342   -0.00629786   -0.03013257
     atom   49 type  3   force =     0.00405703   -0.00026563    0.00602943
     atom   50 type  4   force =     0.00106067    0.00336829    0.01685977
     atom   51 type  5   force =    -0.00004271    0.00020438    0.00095030
     atom   52 type  5   force =     0.00041238   -0.00045842    0.00051681
     atom   53 type  5   force =    -0.00379282    0.00309608    0.00457594
     atom   54 type  5   force =     0.00030944    0.00053705   -0.00013846
     atom   55 type  2   force =     0.00000415    0.00025264    0.00028767
     atom   56 type  5   force =     0.00080436   -0.00020481   -0.00064743
     atom   57 type  5   force =    -0.00014823    0.00000431    0.00058139

     Total force =     0.367517     Total SCF correction =     0.000294
  @ DRIVER MODE: Message from server: STATUS
  @ DRIVER MODE: Message from server: GETFORCE
  @ DRIVER MODE: Returning v,forces,stress,ensemble

     Writing output data file ./calc.save/
  @ DRIVER MODE: Message from server: EXIT
  @ DRIVE MODE: Exiting

     General routines

     Parallel routines

   This run was terminated on:  18: 7:21  22Sep2021

   JOB DONE.