     Program PWSCF v.6.7GPU starts on 19Oct2021 at  2:34:49

     R & G space division:  proc/nbgrp/npool/nimage =       8
     Reading input from /storage/home/hcoda1/3/ntian30/research/carbon/CxH_vib/Thiel_calc/ads_slab/NH2NH2HH_perslab/out_0031/pw.inp
Warning: card &CELL ignored
Warning: card   CELL_DYNAMICS='IPI', ignored
Warning: card / ignored

     Current dimensions of program PWSCF are:
     Max number of different atomic species (ntypx) = 10
     Max number of k-points (npk) =  40000
     Max angular momentum in pseudopotentials (lmaxx) =  3
     Presently no symmetry can be used with electric field

     Message from routine cell_base_init:
     DEPRECATED: use true lattice parameter, not A to a.u. conversion factor

     IMPORTANT: XC functional enforced from input :
     Exchange-correlation= BEEF-VDW
                           (   1   4  43  14   2   0   0)
     Any further DFT definition will be discarded
     Please, verify this is what you really want

  @ DRIVER MODE: Connecting to
 qe_1139763_3255137.sched-torque.pace.gatech.eduviekkxk9_scratch
  using UNIX socket
  @ DRIVER MODE: Message from server: STATUS
  @ DRIVER MODE: Message from server: INIT
  @ DRIVER MODE: Receiving replica           0          -1
  @ DRIVER MODE: Receiving encoded integer          25
  @ DRIVER MODE:  SCF:  T  FORCE:  T  STRESS:  F  VC:  F  ENSEMBLE:  F
  @ DRIVER MODE:  SCF:  T  FORCE:  T  STRESS:  F  VC:  F  ENSEMBLE:  F

     Using Slab Decomposition

     bravais-lattice index     =            0
     lattice parameter (alat)  =       1.8897  a.u.
     unit-cell volume          =    9988.4706 (a.u.)^3
     number of atoms/cell      =           61
     number of atomic types    =            4
     number of electrons       =       442.00
     number of Kohn-Sham states=          231
     kinetic-energy cutoff     =      29.3995  Ry
     charge density cutoff     =     293.9946  Ry
     scf convergence threshold =      7.3E-08
     mixing beta               =       0.0500
     number of iterations used =            8  plain     mixing
     Exchange-correlation= BEEF-VDW
                           (   1   4  43  14   2   0   0)

     celldm(1)=   1.889726  celldm(2)=   0.000000  celldm(3)=   0.000000
     celldm(4)=   0.000000  celldm(5)=   0.000000  celldm(6)=   0.000000

     crystal axes: (cart. coord. in units of alat)
               a(1) = (   6.579727   0.000000   0.000000 )
               a(2) = (  -0.001163   8.942395   0.000000 )
               a(3) = (   0.000000   0.000000  25.155947 )

     reciprocal axes: (cart. coord. in units 2 pi/alat)
               b(1) = (  0.151982  0.000020  0.000000 )
               b(2) = (  0.000000  0.111827  0.000000 )
               b(3) = (  0.000000  0.000000  0.039752 )

     PseudoPot. # 1 for O  read from file:
     /storage/coda1/p-amedford6/0/shared/rich_project_chbe-medford/medford-share/data/pseudos_module/espresso/nninc/pbe/van/O.UPF
     MD5 check sum: 78c19812648e8988a0fe644b0f25305e
     Pseudo is Ultrasoft, Zval =  6.0
     Generated by new atomic code, or converted to UPF format
     Using radial grid of  737 points,  4 beta functions with:
                l(1) =   0
                l(2) =   0
                l(3) =   1
                l(4) =   1
     Q(r) pseudized with  8 coefficients,  rinner =    0.800   0.800   0.800

     PseudoPot. # 2 for Ti read from file:
     /storage/coda1/p-amedford6/0/shared/rich_project_chbe-medford/medford-share/data/pseudos_module/espresso/nninc/pbe/van/Ti.UPF
     MD5 check sum: 8e4df49b7f0d34bbd5052bf3f5ea0213
     Pseudo is Ultrasoft, Zval = 12.0
     Generated by new atomic code, or converted to UPF format
     Using radial grid of  851 points,  6 beta functions with:
                l(1) =   0
                l(2) =   0
                l(3) =   1
                l(4) =   1
                l(5) =   2
                l(6) =   2
     Q(r) pseudized with  8 coefficients,  rinner =    1.000   1.000   1.000
                                                       1.000   1.000

     PseudoPot. # 3 for N  read from file:
     /storage/coda1/p-amedford6/0/shared/rich_project_chbe-medford/medford-share/data/pseudos_module/espresso/nninc/pbe/van/N.UPF
     MD5 check sum: 90d10febe142ad51ac9d5be1deb811c4
     Pseudo is Ultrasoft, Zval =  5.0
     Generated by new atomic code, or converted to UPF format
     Using radial grid of  729 points,  4 beta functions with:
                l(1) =   0
                l(2) =   0
                l(3) =   1
                l(4) =   1
     Q(r) pseudized with  8 coefficients,  rinner =    0.800   0.800   0.800

     PseudoPot. # 4 for H  read from file:
     /storage/coda1/p-amedford6/0/shared/rich_project_chbe-medford/medford-share/data/pseudos_module/espresso/nninc/pbe/van/H.UPF
     MD5 check sum: b5ee9d7bfd3a09ee7748110bda690ff7
     Pseudo is Ultrasoft, Zval =  1.0
     Generated by new atomic code, or converted to UPF format
     Using radial grid of  615 points,  1 beta functions with:
                l(1) =   0
     Q(r) pseudized with  8 coefficients,  rinner =    0.800

     atomic species   valence    mass     pseudopotential
        O1             6.00    15.99900     O ( 1.00)
        Ti1           12.00    47.86700     Ti( 1.00)
        N1             5.00    14.00700     N ( 1.00)
        H1             1.00     1.00800     H ( 1.00)

     No symmetry found

   Cartesian axes

     site n.     atom                  positions (alat units)
         1           O1  tau(   1) = (   0.0007354   0.0005023  10.5931620  )
         2           O1  tau(   2) = (   3.2456387   0.0208629  13.8623892  )
         3           O1  tau(   3) = (   6.5569189   0.0555649  17.3369326  )
         4           O1  tau(   4) = (   0.0006271   0.0005054   7.9858123  )
         5           O1  tau(   5) = (   3.2933513   8.9300833  11.1812556  )
         6           O1  tau(   6) = (   0.0337597   0.0712708  14.6279364  )
         7           O1  tau(   7) = (   1.9868534   1.4903216   9.2879459  )
         8           O1  tau(   8) = (   5.2215124   1.6184176  12.5791628  )
         9           O1  tau(   9) = (   1.9922958   1.5902288  16.0980526  )
        10           Ti1 tau(  10) = (   0.0007404   1.4906270   9.2895810  )
        11           Ti1 tau(  11) = (   3.2860490   1.3455809  12.4359399  )
        12           Ti1 tau(  12) = (   6.5618936   1.3602716  15.8812525  )
        13           O1  tau(  13) = (   4.5942328   1.4918067   9.2879030  )
        14           O1  tau(  14) = (   1.3307156   1.5887400  12.5381291  )
        15           O1  tau(  15) = (   4.5725103   1.6118788  16.0006659  )
        16           Ti1 tau(  16) = (   3.2902859   2.9801868   9.2893338  )
        17           Ti1 tau(  17) = (   0.0046584   2.8227806  12.4510757  )
        18           Ti1 tau(  18) = (   3.2555632   2.8898243  15.6661830  )
        19           O1  tau(  19) = (   0.0003479   2.9813005  10.5931620  )
        20           O1  tau(  20) = (   3.2279248   2.9553539  13.8813459  )
        21           O1  tau(  21) = (   0.0002396   2.9813036   7.9858123  )
        22           O1  tau(  22) = (   3.2889556   2.9859946  11.1941525  )
        23           O1  tau(  23) = (   0.0559812   2.9852445  14.6488683  )
        24           O1  tau(  24) = (   1.9864658   4.4711199   9.2879459  )
        25           O1  tau(  25) = (   5.2314886   4.5920767  12.6107679  )
        26           O1  tau(  26) = (   1.9969377   4.5324570  16.1535429  )
        27           Ti1 tau(  27) = (   0.0003529   4.4714252   9.2895810  )
        28           Ti1 tau(  28) = (   3.2845268   4.3564118  12.5295435  )
        29           Ti1 tau(  29) = (   6.5676402   4.3565080  15.8255799  )
        30           O1  tau(  30) = (   4.5938453   4.4726049   9.2879030  )
        31           O1  tau(  31) = (   1.3315080   4.5776727  12.5731030  )
        32           O1  tau(  32) = (   4.5871741   4.4544688  15.9274438  )
        33           Ti1 tau(  33) = (   3.2898983   5.9609850   9.2893338  )
        34           Ti1 tau(  34) = (   6.5783773   5.8108302  12.4536689  )
        35           Ti1 tau(  35) = (   3.3162440   5.8110762  16.0333210  )
        36           O1  tau(  36) = (  -0.0000397   5.9620987  10.5931620  )
        37           O1  tau(  37) = (   3.2636778   5.9869953  13.9790019  )
        38           O1  tau(  38) = (   6.4104969   6.0475349  17.2872242  )
        39           O1  tau(  39) = (  -0.0001480   5.9621018   7.9858123  )
        40           O1  tau(  40) = (   3.2905218   5.9516507  11.2202175  )
        41           O1  tau(  41) = (   0.0617018   5.9803669  14.6637187  )
        42           O1  tau(  42) = (   1.9860782   7.4519181   9.2879459  )
        43           O1  tau(  43) = (   5.2407037   7.5572870  12.6049163  )
        44           O1  tau(  44) = (   1.9881273   7.5959696  16.0809372  )
        45           Ti1 tau(  45) = (  -0.0000347   7.4522234   9.2895810  )
        46           Ti1 tau(  46) = (   3.2912638   7.2305267  12.6172466  )
        47           Ti1 tau(  47) = (   0.0232661   7.3094817  15.9177444  )
        48           O1  tau(  48) = (   4.5934577   7.4534031   9.2879030  )
        49           O1  tau(  49) = (   1.3287160   7.5404973  12.5734398  )
        50           O1  tau(  50) = (   4.6507959   7.6754627  15.9163669  )
        51           Ti1 tau(  51) = (   3.2895107   8.9417832   9.2893338  )
        52           Ti1 tau(  52) = (   0.0077981   8.7799231  12.4640552  )
        53           Ti1 tau(  53) = (   3.2910717   8.8534038  15.6608489  )
        54           N1  tau(  54) = (   3.7626148   6.0985185  18.0019073  )
        55           H1  tau(  55) = (   3.4663780   5.3841571  18.6619304  )
        56           H1  tau(  56) = (   3.5565419   6.9988739  18.4208443  )
        57           N1  tau(  57) = (   6.5319303   3.0529623  17.4095181  )
        58           H1  tau(  58) = (   5.7013393   3.0140474  17.9904383  )
        59           H1  tau(  59) = (   0.7503229   3.1006543  18.0203722  )
        60           H1  tau(  60) = (   5.4974376   6.0468821  17.7423635  )
        61           H1  tau(  61) = (   0.7324116   0.0679216  17.9402240  )

     number of k points=    10  Fermi-Dirac smearing, width (Ry)=  0.0073
                       cart. coord. in units 2pi/alat
        k(    1) = (   0.0000000   0.0000000   0.0000000), wk =   0.1250000
        k(    2) = (   0.0000000   0.0279567   0.0000000), wk =   0.2500000
        k(    3) = (   0.0000000  -0.0559134   0.0000000), wk =   0.1250000
        k(    4) = (   0.0379955   0.0000049   0.0000000), wk =   0.2500000
        k(    5) = (   0.0379955   0.0279617   0.0000000), wk =   0.2500000
        k(    6) = (   0.0379955  -0.0559085   0.0000000), wk =   0.2500000
        k(    7) = (   0.0379955  -0.0279518   0.0000000), wk =   0.2500000
        k(    8) = (  -0.0759910  -0.0000099   0.0000000), wk =   0.1250000
        k(    9) = (  -0.0759910   0.0279468   0.0000000), wk =   0.2500000
        k(   10) = (  -0.0759910  -0.0559233   0.0000000), wk =   0.1250000

     Initial potential from superposition of free atoms

     starting charge  423.99908, renormalised to  442.00000

     negative rho (up, down):  3.745E-02 0.000E+00

     %%%%%%%%%%%%%%%%%%%%%%%%%%%%%%%%%%%%%%%%%%%%%%%%%%%%%%%%%%%%%%%%%%%%%%%%
     %                                                                      %
     % You are using vdW-DF, which was implemented by the Thonhauser group. %
     % Please cite the following two papers that made this development      %
     % possible and the two reviews that describe the various versions:     %
     %                                                                      %
     %   T. Thonhauser et al., PRL 115, 136402 (2015).                      %
     %   T. Thonhauser et al., PRB 76, 125112 (2007).                       %
     %   K. Berland et al., Rep. Prog. Phys. 78, 066501 (2015).             %
     %   D.C. Langreth et al., J. Phys.: Condens. Matter 21, 084203 (2009). %
     %                                                                      %
     %                                                                      %
     % If you are calculating the stress with vdW-DF, please also cite:     %
     %                                                                      %
     %   R. Sabatini et al., J. Phys.: Condens. Matter 24, 424209 (2012).   %
     %                                                                      %
     %%%%%%%%%%%%%%%%%%%%%%%%%%%%%%%%%%%%%%%%%%%%%%%%%%%%%%%%%%%%%%%%%%%%%%%%

     Adding external electric field

     Computed dipole along edir(3) :
        Dipole               -5.9687 Ry au,        -15.1708 Debye
        Dipole field         -0.0075 Ry au,

        Potential amp.        0.6961 Ry
        Total length         46.3494 bohr

     Starting wfcs are  334 atomic wfcs
  @ DRIVER MODE: Message from server: STATUS
  @ DRIVER MODE: Message from server: POSDATA
  @ DRIVER MODE: Reading and sharing cell
  @ DRIVER MODE: Reading and sharing positions
  @ DRIVER MODE: Received positions

     Self-consistent Calculation

     iteration #  1     ecut=    29.40 Ry     beta= 0.05
     Davidson diagonalization with overlap
     c_bands:  1 eigenvalues not converged
     c_bands:  3 eigenvalues not converged
     c_bands:  5 eigenvalues not converged
     c_bands:  2 eigenvalues not converged
     c_bands:  4 eigenvalues not converged
     c_bands:  4 eigenvalues not converged
     c_bands:  4 eigenvalues not converged
     c_bands:  2 eigenvalues not converged
     c_bands:  5 eigenvalues not converged
     ethr =  1.00E-05,  avg # of iterations = 21.0

[...]

     total energy              =   -3277.93396878 Ry
     estimated scf accuracy    <     239.60066299 Ry

     iteration #  2     ecut=    29.40 Ry     beta= 0.05
     Davidson diagonalization with overlap
     ethr =  1.00E-02,  avg # of iterations = 16.1

[...]

     iteration # 56     ecut=    29.40 Ry     beta= 0.05
     Davidson diagonalization with overlap
     ethr =  6.10E-11,  avg # of iterations =  8.4

[...]

     total energy              =   -3295.80743727 Ry
     estimated scf accuracy    <       0.00000011 Ry

     iteration # 57     ecut=    29.40 Ry     beta= 0.05
     Davidson diagonalization with overlap
     c_bands:  1 eigenvalues not converged
     ethr =  2.47E-11,  avg # of iterations =  9.8

     negative rho (up, down):  3.607E-02 0.000E+00

     Adding external electric field

     Computed dipole along edir(3) :
        Dipole                1.5115 Ry au,          3.8419 Debye
        Dipole field          0.0019 Ry au,

        Potential amp.       -0.1763 Ry
        Total length         46.3494 bohr

     End of self-consistent calculation

          k = 0.0000 0.0000 0.0000 ( 26871 PWs)   bands (ev):

   -57.7244 -57.6988 -57.6885 -57.6624 -57.6530 -57.6199 -57.6057 -57.5980
   -57.5703 -57.5578 -57.5079 -57.4774 -57.4609 -57.4548 -57.4467 -56.7463
   -56.7222 -56.7177 -34.1061 -34.1027 -34.0942 -34.0850 -34.0733 -34.0565
   -34.0560 -34.0416 -34.0285 -34.0171 -33.9872 -33.9691 -33.9495 -33.9434
   -33.9357 -33.9173 -33.9122 -33.9106 -33.8921 -33.8869 -33.8650 -33.8630
   -33.8423 -33.8327 -33.8285 -33.8226 -33.8117 -33.8098 -33.8045 -33.7952
   -33.7833 -33.7814 -33.7672 -33.7316 -33.7226 -33.7183 -33.7039 -33.7029
   -33.6953 -33.6942 -33.6829 -33.6745 -33.6677 -33.6617 -33.6392 -33.0616
   -33.0605 -33.0560 -33.0445 -33.0403 -32.9724 -32.9104 -32.9051 -32.7722
   -19.3025 -18.7610 -18.5252 -18.2265 -18.0159 -17.9735 -17.9405 -17.8191
   -17.7835 -17.7596 -17.6619 -17.6506 -17.5872 -17.5337 -17.5056 -17.4569
   -17.4383 -17.3784 -17.3643 -17.3560 -17.3506 -17.3405 -17.3303 -17.2647
   -17.2377 -17.2095 -17.1706 -17.1549 -17.1483 -17.1408 -17.1184 -16.8457
   -15.5367 -15.2130 -15.1549 -15.1537 -15.0828  -6.9864  -6.8198  -6.6497
    -6.3415  -5.8602  -5.7867  -5.6370  -5.5132  -5.2213  -5.1958  -5.1422
    -5.1152  -5.0864  -5.0216  -5.0015  -4.9885  -4.9332  -4.9161  -4.8434
    -4.8210  -4.7791  -4.7558  -4.7294  -4.6847  -4.6447  -4.6179  -4.6053
    -4.5749  -4.5670  -4.5106  -4.4869  -4.4573  -4.4519  -4.4366  -4.3264
    -4.2944  -4.2379  -4.1695  -4.0921  -4.0390  -4.0309  -3.9745  -3.9553
    -3.9026  -3.8629  -3.8257  -3.8173  -3.7808  -3.7422  -3.6433  -3.6105
    -3.5881  -3.5218  -3.5003  -3.4311  -3.4139  -3.3806  -3.3399  -3.3327
    -3.2958  -3.1980  -3.1639  -3.0836  -3.0279  -2.9737  -2.9346  -2.8897
    -2.8434  -2.8102  -2.7850  -2.7035  -2.6270  -2.5432  -2.4930  -2.4803
    -2.4685  -2.4179  -2.4109  -2.4083  -2.3516  -2.3253  -2.3147  -2.2773
    -2.2255  -2.2028  -2.1405  -2.0956  -2.0604  -1.9929  -1.9773  -1.8964
    -1.8878  -1.8265  -1.7833  -1.7439  -1.6322  -1.5972  -1.5651  -1.5626
    -1.4437  -1.4074  -1.1459  -1.0043  -0.7866  -0.7538  -0.5000  -0.4513
    -0.4484  -0.1854  -0.1821  -0.0538   1.3226   1.5112   1.6449   1.7005
     1.7054   1.7388   1.8049   1.8914   1.9165   1.9640   1.9959

[...]

          k = 0.0380-0.0280 0.0000 ( 26873 PWs)   bands (ev):

[...]

          k =-0.0760-0.0000 0.0000 ( 26902 PWs)   bands (ev):

[...]

          k =-0.0760-0.0559 0.0000 ( 26868 PWs)   bands (ev):

   -57.7209 -57.7064 -57.6842 -57.6613 -57.6529 -57.6206 -57.6070 -57.5977
   -57.5696 -57.5575 -57.5082 -57.4724 -57.4649 -57.4604 -57.4420 -56.7401
   -56.7347 -56.7113 -34.1935 -34.1561 -34.1541 -34.0939 -34.0597 -34.0522
   -34.0414 -34.0389 -34.0014 -33.9674 -33.9336 -33.9202 -33.9144 -33.9131
   -33.9020 -33.9001 -33.8800 -33.8727 -33.8683 -33.8681 -33.8643 -33.8586
   -33.8534 -33.8456 -33.8309 -33.8260 -33.8235 -33.8184 -33.8143 -33.7932
   -33.7924 -33.7702 -33.7634 -33.7560 -33.7502 -33.7316 -33.7258 -33.7201
   -33.7005 -33.7002 -33.6983 -33.6949 -33.6856 -33.6676 -33.6505 -33.1504
   -33.0613 -33.0561 -33.0337 -32.9539 -32.9480 -32.8863 -32.8717 -32.8664
   -19.2890 -18.7354 -18.2714 -18.1346 -17.9628 -17.9214 -17.8473 -17.8344
   -17.8226 -17.7931 -17.7013 -17.6779 -17.6514 -17.5686 -17.5498 -17.4999
   -17.4560 -17.4429 -17.4248 -17.4136 -17.4055 -17.3889 -17.3549 -17.3228
   -17.2899 -17.2383 -17.1763 -17.1576 -17.1090 -17.0943 -17.0637 -16.8795
   -15.5314 -15.2110 -15.2090 -15.0922 -15.0841  -6.9914  -6.8515  -6.6408
    -6.3232  -5.5166  -5.4536  -5.3702  -5.3558  -5.2393  -5.2077  -5.0141
    -5.0039  -4.9893  -4.9571  -4.9250  -4.8907  -4.8624  -4.8381  -4.8246
    -4.8105  -4.7894  -4.7636  -4.7520  -4.7356  -4.6911  -4.6447  -4.6382
    -4.6272  -4.6046  -4.5505  -4.5054  -4.4801  -4.4249  -4.4218  -4.3413
    -4.3178  -4.3000  -4.2253  -4.2173  -4.0969  -3.9479  -3.8868  -3.8668
    -3.8427  -3.7953  -3.7852  -3.7317  -3.7099  -3.6926  -3.5565  -3.4746
    -3.4511  -3.4159  -3.3843  -3.3613  -3.3257  -3.2982  -3.2766  -3.2508
    -3.2347  -3.1824  -3.1660  -3.1221  -3.0799  -2.9983  -2.9543  -2.8968
    -2.8734  -2.8549  -2.8367  -2.8331  -2.8124  -2.7797  -2.7505  -2.6956
    -2.6856  -2.6558  -2.5839  -2.5293  -2.5013  -2.4765  -2.4344  -2.4274
    -2.2725  -2.2534  -2.2201  -2.2080  -2.1345  -2.0912  -1.9993  -1.9729
    -1.9504  -1.8786  -1.8071  -1.7637  -1.7072  -1.5108  -1.5020  -1.3830
    -1.3462  -1.2975  -1.2720  -1.2304  -1.0691  -0.7345  -0.6626  -0.3793
    -0.3681  -0.3421  -0.1867  -0.1804   1.4297   1.4534   1.5385   1.5948
     1.6136   1.6513   1.6641   1.7031   1.7237   1.7802   1.9160

     the Fermi energy is     1.3735 ev

!    total energy              =   -3295.80749142 Ry
     estimated scf accuracy    <       0.00000007 Ry
     smearing contrib. (-TS)   =      -0.03571897 Ry
     internal energy E=F+TS    =   -3295.77177245 Ry

     The total energy is F=E-TS. E is the sum of the following terms:
     one-electron contribution =  -34705.84167324 Ry
     hartree contribution      =   17418.82931988 Ry
     xc contribution           =    -543.87154920 Ry
     ewald contribution        =   14535.10925578 Ry
     electric field correction =       0.00287433 Ry

     convergence has been achieved in  57 iterations

     Forces acting on atoms (cartesian axes, Ry/au):

     atom    1 type  1   force =    -0.00168726    0.00377179    0.05472139
     atom    2 type  1   force =     0.00024199   -0.00250599   -0.00842211
     atom    3 type  1   force =     0.00046099   -0.00350592    0.00033542
     atom    4 type  1   force =     0.00004462   -0.00003031    0.10676038
     atom    5 type  1   force =    -0.00020356    0.00065998    0.00659424
     atom    6 type  1   force =     0.00003321   -0.00443143    0.00379014
     atom    7 type  1   force =     0.06648612    0.00078917   -0.02964888
     atom    8 type  1   force =     0.00659391   -0.02712816    0.00196299
     atom    9 type  1   force =     0.00660306   -0.02257145    0.00510902
     atom   10 type  2   force =    -0.00011521   -0.00450674   -0.18344273
     atom   11 type  2   force =     0.00067278    0.02088373   -0.00412838
     atom   12 type  2   force =    -0.00176061    0.02768158   -0.00663235
     atom   13 type  1   force =    -0.06654456    0.00044398   -0.02979264
     atom   14 type  1   force =    -0.00433626   -0.02770539    0.00254349
     atom   15 type  1   force =    -0.00658730   -0.02338582    0.00496642
     atom   16 type  2   force =     0.00008553    0.00069220    0.06700401
     atom   17 type  2   force =    -0.00238016    0.03352371    0.00349432
     atom   18 type  2   force =     0.00126445    0.02452903   -0.00358187
     atom   19 type  1   force =    -0.00169811    0.00674886    0.05327650
     atom   20 type  1   force =     0.00023885   -0.00116642   -0.00661977
     atom   21 type  1   force =     0.00003485    0.00109935    0.10723116
     atom   22 type  1   force =    -0.00025199   -0.00199944    0.00722742
     atom   23 type  1   force =     0.00070686   -0.00580954    0.00422028
     atom   24 type  1   force =     0.06751336    0.00137714   -0.02905460
     atom   25 type  1   force =     0.00529292   -0.03015516    0.00246486
     atom   26 type  1   force =     0.00669346   -0.02607971   -0.00414069
     atom   27 type  2   force =     0.00011173   -0.00120761   -0.18673381
     atom   28 type  2   force =     0.00008019    0.02386362   -0.00244986
     atom   29 type  2   force =    -0.00110796    0.02216074    0.00079483
     atom   30 type  1   force =    -0.06761884    0.00087241   -0.02890666
     atom   31 type  1   force =    -0.00538497   -0.02962037    0.00280601
     atom   32 type  1   force =    -0.00430998   -0.02243045    0.00254314
     atom   33 type  2   force =    -0.00004723    0.00131706    0.07476175
     atom   34 type  2   force =     0.00092457    0.03691997    0.00407015
     atom   35 type  2   force =    -0.00214091    0.03475411    0.00497971
     atom   36 type  1   force =    -0.00186604    0.00288753    0.05590071
     atom   37 type  1   force =     0.00132302    0.00402920   -0.01134066
     atom   38 type  1   force =     0.00016038   -0.00408754    0.00419881
     atom   39 type  1   force =     0.00002176   -0.00063611    0.10725032
     atom   40 type  1   force =     0.00015781   -0.00140579    0.00716595
     atom   41 type  1   force =    -0.00025001   -0.00398768    0.00186741
     atom   42 type  1   force =     0.06785100   -0.00221092   -0.02969108
     atom   43 type  1   force =     0.00369159   -0.02636168    0.00153830
     atom   44 type  1   force =     0.01000387   -0.01800653    0.00265646
     atom   45 type  2   force =     0.00003200    0.00217415   -0.18330047
     atom   46 type  2   force =    -0.00023726    0.01479210    0.00206630
     atom   47 type  2   force =     0.00297599    0.02646218   -0.00880950
     atom   48 type  1   force =    -0.06791557   -0.00284025   -0.02984775
     atom   49 type  1   force =    -0.00375479   -0.02550515    0.00184140
     atom   50 type  1   force =    -0.00792120   -0.02368819    0.00523826
     atom   51 type  2   force =     0.00045122   -0.00350317    0.06842574
     atom   52 type  2   force =    -0.00011232    0.03118520    0.00595130
     atom   53 type  2   force =    -0.00210548    0.02597326   -0.00059256
     atom   54 type  3   force =     0.00072584   -0.00195609   -0.00088020
     atom   55 type  4   force =    -0.00073924    0.00040069   -0.00052111
     atom   56 type  4   force =     0.00028343    0.00087188    0.00127267
     atom   57 type  3   force =    -0.00946596   -0.00332825   -0.00669295
     atom   58 type  4   force =    -0.00037627    0.00098969   -0.00094585
     atom   59 type  4   force =     0.01179154    0.00093232    0.00795442
     atom   60 type  4   force =    -0.00140919    0.00009200    0.00008848
     atom   61 type  4   force =    -0.00122465   -0.00112131    0.00110233

     Total force =     0.459887     Total SCF correction =     0.000790
  @ DRIVER MODE: Message from server: STATUS
  @ DRIVER MODE: Message from server: GETFORCE
  @ DRIVER MODE: Returning v,forces,stress,ensemble

     Writing output data file ./calc.save/
  @ DRIVER MODE: Message from server: EXIT
  @ DRIVE MODE: Exiting

     General routines

     Parallel routines

   This run was terminated on:   3: 5:33  19Oct2021

   JOB DONE.