     Program PWSCF v.6.7GPU starts on 24Aug2021 at 11:15:33

     R & G space division:  proc/nbgrp/npool/nimage =      72
     Reading input from /storage/home/hcoda1/3/ntian30/research/carbon/CH2_vib/ads_slab/CH2NHH_a/out_0004/pw.inp
Warning: card &CELL ignored
Warning: card   CELL_DYNAMICS='IPI', ignored
Warning: card / ignored

     Current dimensions of program PWSCF are:
     Max number of different atomic species (ntypx) = 10
     Max number of k-points (npk) =  40000
     Max angular momentum in pseudopotentials (lmaxx) =  3
     Presently no symmetry can be used with electric field

     Message from routine cell_base_init:
     DEPRECATED: use true lattice parameter, not A to a.u. conversion factor

     IMPORTANT: XC functional enforced from input :
     Exchange-correlation= BEEF-VDW
                           (   1   4  43  14   2   0   0)
     Any further DFT definition will be discarded
     Please, verify this is what you really want

  @ DRIVER MODE: Connecting to
 qe_1139763_2641439.sched-torque.pace.gatech.eduy8n0hoe__scratch
  using UNIX socket
  @ DRIVER MODE: Message from server: STATUS
  @ DRIVER MODE: Message from server: INIT
  @ DRIVER MODE: Receiving replica           0          -1
  @ DRIVER MODE: Receiving encoded integer          25
  @ DRIVER MODE:  SCF:  T  FORCE:  T  STRESS:  F  VC:  F  ENSEMBLE:  F
  @ DRIVER MODE:  SCF:  T  FORCE:  T  STRESS:  F  VC:  F  ENSEMBLE:  F

     Using Slab Decomposition

     bravais-lattice index     =            0
     lattice parameter (alat)  =       1.8897  a.u.
     unit-cell volume          =    6658.9804 (a.u.)^3
     number of atoms/cell      =           53
     number of atomic types    =            5
     number of electrons       =       391.00
     number of Kohn-Sham states=          205
     kinetic-energy cutoff     =      29.3995  Ry
     charge density cutoff     =     293.9946  Ry
     scf convergence threshold =      7.3E-08
     mixing beta               =       0.0500
     number of iterations used =            8  plain     mixing
     Exchange-correlation= BEEF-VDW
                           (   1   4  43  14   2   0   0)

     celldm(1)=   1.889726  celldm(2)=   0.000000  celldm(3)=   0.000000
     celldm(4)=   0.000000  celldm(5)=   0.000000  celldm(6)=   0.000000

     crystal axes: (cart. coord. in units of alat)
               a(1) = (   6.579727   0.000000   0.000000 )
               a(2) = (  -0.000775   5.961596   0.000000 )
               a(3) = (   0.000000   0.000000  25.155947 )

     reciprocal axes: (cart. coord. in units 2 pi/alat)
               b(1) = (  0.151982  0.000020  0.000000 )
               b(2) = (  0.000000  0.167740  0.000000 )
               b(3) = (  0.000000  0.000000  0.039752 )

     PseudoPot. # 1 for Ti read from file:
     /storage/coda1/p-amedford6/0/shared/rich_project_chbe-medford/medford-share/data/pseudos_module/espresso/nninc/pbe/van/Ti.UPF
     MD5 check sum: 8e4df49b7f0d34bbd5052bf3f5ea0213
     Pseudo is Ultrasoft, Zval = 12.0
     Generated by new atomic code, or converted to UPF format
     Using radial grid of  851 points,  6 beta functions with:
                l(1) =   0
                l(2) =   0
                l(3) =   1
                l(4) =   1
                l(5) =   2
                l(6) =   2
     Q(r) pseudized with  8 coefficients,  rinner =    1.000   1.000   1.000
                                                       1.000   1.000

     PseudoPot. # 2 for O  read from file:
     /storage/coda1/p-amedford6/0/shared/rich_project_chbe-medford/medford-share/data/pseudos_module/espresso/nninc/pbe/van/O.UPF
     MD5 check sum: 78c19812648e8988a0fe644b0f25305e
     Pseudo is Ultrasoft, Zval =  6.0
     Generated by new atomic code, or converted to UPF format
     Using radial grid of  737 points,  4 beta functions with:
                l(1) =   0
                l(2) =   0
                l(3) =   1
                l(4) =   1
     Q(r) pseudized with  8 coefficients,  rinner =    0.800   0.800   0.800

     PseudoPot. # 3 for N  read from file:
     /storage/coda1/p-amedford6/0/shared/rich_project_chbe-medford/medford-share/data/pseudos_module/espresso/nninc/pbe/van/N.UPF
     MD5 check sum: 90d10febe142ad51ac9d5be1deb811c4
     Pseudo is Ultrasoft, Zval =  5.0
     Generated by new atomic code, or converted to UPF format
     Using radial grid of  729 points,  4 beta functions with:
                l(1) =   0
                l(2) =   0
                l(3) =   1
                l(4) =   1
     Q(r) pseudized with  8 coefficients,  rinner =    0.800   0.800   0.800

     PseudoPot. # 4 for C  read from file:
     /storage/coda1/p-amedford6/0/shared/rich_project_chbe-medford/medford-share/data/pseudos_module/espresso/nninc/pbe/van/C.UPF
     MD5 check sum: 1a69bf6b8db32088f5b2163dbdb77a27
     Pseudo is Ultrasoft, Zval =  4.0
     Generated by new atomic code, or converted to UPF format
     Using radial grid of  721 points,  4 beta functions with:
                l(1) =   0
                l(2) =   0
                l(3) =   1
                l(4) =   1
     Q(r) pseudized with  8 coefficients,  rinner =    0.800   0.800   0.800

     PseudoPot. # 5 for H  read from file:
     /storage/coda1/p-amedford6/0/shared/rich_project_chbe-medford/medford-share/data/pseudos_module/espresso/nninc/pbe/van/H.UPF
     MD5 check sum: b5ee9d7bfd3a09ee7748110bda690ff7
     Pseudo is Ultrasoft, Zval =  1.0
     Generated by new atomic code, or converted to UPF format
     Using radial grid of  615 points,  1 beta functions with:
                l(1) =   0
     Q(r) pseudized with  8 coefficients,  rinner =    0.800

     atomic species   valence    mass     pseudopotential
        Ti1           12.00    47.86700     Ti( 1.00)
        O1             6.00    15.99900     O ( 1.00)
        N1             5.00    14.00700     N ( 1.00)
        C1             4.00    12.01100     C ( 1.00)
        H1             1.00     1.00800     H ( 1.00)

     No symmetry found

   Cartesian axes

     site n.     atom                  positions (alat units)
         1           Ti1 tau(   1) = (   0.0004258   2.9801865   6.0000000  )
         2           Ti1 tau(   2) = (   3.2906075   1.4906267   6.0002472  )
         3           O1  tau(   3) = (   0.0006271   0.0005054   7.9858123  )
         4           O1  tau(   4) = (   3.2906025   0.0005020   7.3038282  )
         5           O1  tau(   5) = (   4.5942328   1.4918067   9.2879030  )
         6           O1  tau(   6) = (   1.9868534   1.4903216   9.2879459  )
         7           Ti1 tau(   7) = (   3.2907910   2.8959150   9.1758416  )
         8           Ti1 tau(   8) = (   0.0015273   1.4827037   9.2680791  )
         9           O1  tau(   9) = (   3.2941312   5.9515177  11.3840049  )
        10           O1  tau(  10) = (   0.0116148   5.9584955  10.6183126  )
        11           O1  tau(  11) = (   1.2915503   1.4777401  12.6967708  )
        12           O1  tau(  12) = (   5.3002239   1.4803738  12.6794006  )
        13           Ti1 tau(  13) = (   0.0161863   2.9610389  12.5056540  )
        14           Ti1 tau(  14) = (   3.3199580   1.4690355  12.5397617  )
        15           O1  tau(  15) = (   6.5577523   5.8663973  14.6994336  )
        16           O1  tau(  16) = (   3.3105950   5.9380289  14.0083265  )
        17           O1  tau(  17) = (   4.5355139   1.5078041  16.1868020  )
        18           O1  tau(  18) = (   2.0231344   1.4922588  16.1350940  )
        19           Ti1 tau(  19) = (   3.2781988   2.9761027  15.7713632  )
        20           Ti1 tau(  20) = (   0.0162001   1.2772015  15.8797579  )
        21           O1  tau(  21) = (   3.2904802   0.0005063   4.7018136  )
        22           O1  tau(  22) = (   6.5682446   0.1140876  17.2519115  )
        23           O1  tau(  23) = (   1.3043587   1.4918075   6.0039043  )
        24           O1  tau(  24) = (   5.2767064   1.4903225   6.0039473  )
        25           Ti1 tau(  25) = (   0.0000382   5.9609847   6.0000000  )
        26           Ti1 tau(  26) = (   3.2902200   4.4714249   6.0002472  )
        27           O1  tau(  27) = (   0.0002396   2.9813036   7.9858123  )
        28           O1  tau(  28) = (   3.2902150   2.9813002   7.3038282  )
        29           O1  tau(  29) = (   4.5938453   4.4726049   9.2879030  )
        30           O1  tau(  30) = (   1.9864658   4.4711199   9.2879459  )
        31           Ti1 tau(  31) = (   3.2891106   5.8743827   9.1763621  )
        32           Ti1 tau(  32) = (   0.0006254   4.4649316   9.2693709  )
        33           O1  tau(  33) = (   3.2958891   2.9587481  11.3780895  )
        34           O1  tau(  34) = (   0.0092240   2.9805883  10.6323155  )
        35           O1  tau(  35) = (   1.2947421   4.4484190  12.6652604  )
        36           O1  tau(  36) = (   5.2996063   4.4466420  12.6515021  )
        37           Ti1 tau(  37) = (   0.0283143   5.9336383  12.5061025  )
        38           Ti1 tau(  38) = (   3.3214233   4.4478814  12.5310514  )
        39           O1  tau(  39) = (   6.5589476   3.0029366  14.9874712  )
        40           O1  tau(  40) = (   3.3011147   2.9794859  13.9794371  )
        41           O1  tau(  41) = (   4.5155863   4.4560770  16.2359875  )
        42           O1  tau(  42) = (   2.0187475   4.4548860  16.2131175  )
        43           Ti1 tau(  43) = (   3.3138217   5.9556645  15.8088081  )
        44           Ti1 tau(  44) = (   0.0451788   4.5003401  16.0524233  )
        45           O1  tau(  45) = (   3.2900926   2.9813045   4.7018136  )
        46           O1  tau(  46) = (   1.3039711   4.4726057   6.0039043  )
        47           O1  tau(  47) = (   5.2763189   4.4711207   6.0039473  )
        48           N1  tau(  48) = (   6.2013940   3.4321407  18.2524812  )
        49           C1  tau(  49) = (   0.6861764   3.1362451  19.0985974  )
        50           H1  tau(  50) = (   1.2250757   3.9700495  19.5149693  )
        51           H1  tau(  51) = (   1.1126790   2.1486344  19.0481404  )
        52           H1  tau(  52) = (   5.7034377   4.2789310  18.4761913  )
        53           H1  tau(  53) = (   5.5430662   2.6552022  18.1284619  )

     number of k points=    10  Fermi-Dirac smearing, width (Ry)=  0.0073
                       cart. coord. in units 2pi/alat
        k(    1) = (   0.0000000   0.0000000   0.0000000), wk =   0.1250000
        k(    2) = (   0.0000000   0.0419351   0.0000000), wk =   0.2500000
        k(    3) = (   0.0000000  -0.0838702   0.0000000), wk =   0.1250000
        k(    4) = (   0.0379955   0.0000049   0.0000000), wk =   0.2500000
        k(    5) = (   0.0379955   0.0419400   0.0000000), wk =   0.2500000
        k(    6) = (   0.0379955  -0.0838652   0.0000000), wk =   0.2500000
        k(    7) = (   0.0379955  -0.0419301   0.0000000), wk =   0.2500000
        k(    8) = (  -0.0759910  -0.0000099   0.0000000), wk =   0.1250000
        k(    9) = (  -0.0759910   0.0419252   0.0000000), wk =   0.2500000
        k(   10) = (  -0.0759910  -0.0838800   0.0000000), wk =   0.1250000

     Initial potential from superposition of free atoms

     starting charge  374.99916, renormalised to  391.00000

     negative rho (up, down):  1.685E-02 0.000E+00

     %%%%%%%%%%%%%%%%%%%%%%%%%%%%%%%%%%%%%%%%%%%%%%%%%%%%%%%%%%%%%%%%%%%%%%%%
     %                                                                      %
     % You are using vdW-DF, which was implemented by the Thonhauser group. %
     % Please cite the following two papers that made this development      %
     % possible and the two reviews that describe the various versions:     %
     %                                                                      %
     %   T. Thonhauser et al., PRL 115, 136402 (2015).                      %
     %   T. Thonhauser et al., PRB 76, 125112 (2007).                       %
     %   K. Berland et al., Rep. Prog. Phys. 78, 066501 (2015).             %
     %   D.C. Langreth et al., J. Phys.: Condens. Matter 21, 084203 (2009). %
     %                                                                      %
     %                                                                      %
     % If you are calculating the stress with vdW-DF, please also cite:     %
     %                                                                      %
     %   R. Sabatini et al., J. Phys.: Condens. Matter 24, 424209 (2012).   %
     %                                                                      %
     %%%%%%%%%%%%%%%%%%%%%%%%%%%%%%%%%%%%%%%%%%%%%%%%%%%%%%%%%%%%%%%%%%%%%%%%

     Adding external electric field

     Computed dipole along edir(3) :
        Dipole               -6.9321 Ry au,        -17.6197 Debye
        Dipole field         -0.0131 Ry au,

        Potential amp.        1.2127 Ry
        Total length         46.3494 bohr

     Starting wfcs are  296 atomic wfcs
  @ DRIVER MODE: Message from server: STATUS
  @ DRIVER MODE: Message from server: POSDATA
  @ DRIVER MODE: Reading and sharing cell
  @ DRIVER MODE: Reading and sharing positions
  @ DRIVER MODE: Received positions

     Self-consistent Calculation

     iteration #  1     ecut=    29.40 Ry     beta= 0.05
     Davidson diagonalization with overlap
     c_bands:  1 eigenvalues not converged
     ethr =  1.00E-05,  avg # of iterations = 15.4

[...]

     total energy              =   -2713.44875334 Ry
     estimated scf accuracy    <    2282.64470150 Ry

     iteration #  2     ecut=    29.40 Ry     beta= 0.05
     Davidson diagonalization with overlap
     ethr =  1.00E-02,  avg # of iterations = 18.5

[...]

     iteration # 93     ecut=    29.40 Ry     beta= 0.05
     Davidson diagonalization with overlap
     c_bands:  1 eigenvalues not converged
     c_bands:  1 eigenvalues not converged
     ethr =  2.24E-11,  avg # of iterations = 18.2

[...]

     total energy              =   -2920.25673727 Ry
     estimated scf accuracy    <       0.00000033 Ry

     iteration # 94     ecut=    29.40 Ry     beta= 0.05
     Davidson diagonalization with overlap
     ethr =  2.24E-11,  avg # of iterations = 11.5

     negative rho (up, down):  1.610E-02 0.000E+00

     Adding external electric field

     Computed dipole along edir(3) :
        Dipole                0.8877 Ry au,          2.2564 Debye
        Dipole field          0.0017 Ry au,

        Potential amp.       -0.1553 Ry
        Total length         46.3494 bohr

     End of self-consistent calculation

          k = 0.0000 0.0000 0.0000 ( 18029 PWs)   bands (ev):

   -55.7255 -55.6896 -55.6774 -55.6433 -55.6150 -55.6058 -55.5714 -55.5498
   -55.5424 -55.5153 -55.5089 -55.4753 -55.4641 -55.3047 -54.7097 -54.6756
   -32.2908 -32.1704 -32.0938 -32.0575 -32.0463 -32.0388 -32.0355 -32.0150
   -31.9663 -31.9604 -31.9374 -31.9317 -31.9223 -31.8945 -31.8791 -31.8771
   -31.8643 -31.8529 -31.8453 -31.8300 -31.8244 -31.7918 -31.7844 -31.7804
   -31.7522 -31.7442 -31.7380 -31.7346 -31.7286 -31.7243 -31.7083 -31.7066
   -31.6982 -31.6954 -31.6721 -31.6632 -31.6609 -31.6420 -31.6369 -31.6205
   -31.5258 -31.4720 -31.1192 -31.0246 -31.0026 -30.9355 -30.8487 -30.7379
   -16.6620 -16.5304 -16.2760 -16.1149 -16.0209 -15.9252 -15.7929 -15.7658
   -15.6498 -15.5733 -15.4314 -15.3994 -15.3846 -15.3636 -15.3452 -15.3330
   -15.2732 -15.2672 -15.2470 -15.2218 -15.2183 -15.1715 -15.1668 -15.1264
   -15.1024 -15.0479 -14.9715 -14.8873 -14.8146 -14.4884 -13.2122 -13.0947
    -9.5121  -6.8522  -4.9277  -3.8897  -3.7464  -3.6764  -3.6275  -3.6194
    -3.4777  -3.3035  -3.1589  -3.1411  -3.0893  -2.9975  -2.9305  -2.9165
    -2.8920  -2.7496  -2.7370  -2.6815  -2.6536  -2.5770  -2.5729  -2.5306
    -2.5116  -2.4759  -2.4717  -2.4426  -2.3017  -2.2935  -2.2538  -2.1937
    -2.1338  -2.1318  -2.0766  -2.0575  -2.0163  -2.0071  -1.9969  -1.9542
    -1.9502  -1.9163  -1.8196  -1.7510  -1.6238  -1.5871  -1.4441  -1.3670
    -1.3189  -1.2987  -1.2176  -1.2100  -1.1497  -1.1050  -1.1045  -1.0645
    -0.9527  -0.8697  -0.8182  -0.7609  -0.7258  -0.7104  -0.6255  -0.5276
    -0.5052  -0.4927  -0.4550  -0.3561  -0.3317  -0.2698  -0.2067  -0.1945
    -0.1815  -0.0947  -0.0586   0.0136   0.0648   0.0846   0.1606   0.1832
     0.2064   0.2122   0.2435   0.2585   0.3316   0.3498   0.3744   0.4620
     0.5830   0.8264   0.8836   0.8944   1.2126   1.2175   1.3131   1.4963
     1.8897   1.9380   3.3678   3.3845   3.4492   3.5174   3.5211   3.5841
     3.6081   3.8547   3.8740   3.8820   3.8998

[...]

          k = 0.0380-0.0419 0.0000 ( 17876 PWs)   bands (ev):

[...]

          k =-0.0760-0.0000 0.0000 ( 17886 PWs)   bands (ev):

[...]

          k =-0.0760-0.0839 0.0000 ( 17948 PWs)   bands (ev):

   -55.7089 -55.7060 -55.6604 -55.6602 -55.6106 -55.5893 -55.5879 -55.5465
   -55.5342 -55.5304 -55.4924 -55.4919 -55.4620 -55.3068 -54.6927 -54.6925
   -32.0964 -32.0939 -32.0032 -31.9856 -31.9855 -31.9824 -31.9693 -31.9517
   -31.9516 -31.9354 -31.9288 -31.9217 -31.9173 -31.8779 -31.8695 -31.8665
   -31.8623 -31.8574 -31.8531 -31.8482 -31.8348 -31.8154 -31.8037 -31.8028
   -31.7846 -31.7806 -31.7801 -31.7798 -31.7673 -31.7634 -31.7469 -31.7438
   -31.7430 -31.7312 -31.7254 -31.7228 -31.6859 -31.6726 -31.6723 -31.6493
   -31.5642 -31.5279 -31.0153 -31.0151 -30.9318 -30.9316 -30.8922 -30.8921
   -16.6264 -16.0397 -15.9488 -15.9108 -15.7631 -15.7253 -15.6901 -15.6777
   -15.5550 -15.5283 -15.5030 -15.4825 -15.4465 -15.4311 -15.4240 -15.3748
   -15.3445 -15.3252 -15.3195 -15.3075 -15.2447 -15.2368 -15.2329 -15.2259
   -15.1766 -15.1730 -15.0821 -15.0791 -15.0646 -14.7732 -13.1962 -13.1961
    -9.5135  -6.8348  -4.9087  -3.2179  -3.1911  -3.1639  -3.1327  -2.9816
    -2.9128  -2.8990  -2.8777  -2.7986  -2.7582  -2.7377  -2.6961  -2.6853
    -2.6338  -2.6064  -2.5793  -2.5639  -2.5589  -2.5430  -2.5220  -2.4874
    -2.4583  -2.4563  -2.4458  -2.4046  -2.3783  -2.3644  -2.3304  -2.3205
    -2.3131  -2.2840  -2.2227  -2.1172  -2.0936  -2.0607  -1.9659  -1.9347
    -1.9299  -1.8495  -1.8192  -1.7612  -1.7579  -1.7460  -1.5990  -1.5174
    -1.4751  -1.4725  -1.4499  -1.3228  -1.3139  -1.2288  -1.2066  -1.1963
    -1.1028  -1.0831  -1.0460  -1.0203  -0.9382  -0.9125  -0.8467  -0.7587
    -0.7216  -0.7142  -0.6833  -0.6805  -0.6311  -0.6196  -0.5384  -0.4964
    -0.4602  -0.4501  -0.4085  -0.2231  -0.2069  -0.1633  -0.0354   0.0123
     0.1432   0.1607   0.2257   0.3016   0.3342   0.3873   0.4236   0.5695
     0.5791   0.6144   0.6561   0.6656   0.7250   0.7341   1.6693   1.6700
     1.7579   1.7582   3.3887   3.6164   3.6231   3.6621   3.6845   3.8378
     3.8879   3.9269   3.9523   3.9566   3.9751

     the Fermi energy is     3.4353 ev

!    total energy              =   -2920.25673889 Ry
     estimated scf accuracy    <       0.00000006 Ry
     smearing contrib. (-TS)   =      -0.04295964 Ry
     internal energy E=F+TS    =   -2920.21377926 Ry

     The total energy is F=E-TS. E is the sum of the following terms:
     one-electron contribution =  -24043.98395493 Ry
     hartree contribution      =   12108.10326305 Ry
     xc contribution           =    -480.85648830 Ry
     ewald contribution        =    9496.52191376 Ry
     electric field correction =       0.00148716 Ry

     convergence has been achieved in  94 iterations

     Forces acting on atoms (cartesian axes, Ry/au):

     atom    1 type  1   force =     0.00007883   -0.00016098    0.09318236
     atom    2 type  1   force =    -0.00020842   -0.00024633   -0.17846726
     atom    3 type  2   force =     0.00003726   -0.00036944   -0.02008613
     atom    4 type  2   force =    -0.00001978   -0.00199544    0.05917274
     atom    5 type  2   force =    -0.01040395   -0.00113938    0.00789718
     atom    6 type  2   force =     0.01196169   -0.00052280    0.00732323
     atom    7 type  1   force =    -0.00041608    0.00230268   -0.01385787
     atom    8 type  1   force =     0.00003784   -0.00145104   -0.00477034
     atom    9 type  2   force =     0.00000140   -0.00028457   -0.00034474
     atom   10 type  2   force =    -0.00082478    0.00065804    0.00150876
     atom   11 type  2   force =     0.00010806   -0.00003930    0.00023080
     atom   12 type  2   force =    -0.00008358    0.00008663    0.00031824
     atom   13 type  1   force =    -0.00056963    0.00061461   -0.00004264
     atom   14 type  1   force =     0.00025391    0.00021703    0.00011819
     atom   15 type  2   force =    -0.00013622    0.00070530    0.00031120
     atom   16 type  2   force =    -0.00016188   -0.00006276   -0.00013862
     atom   17 type  2   force =    -0.00017712   -0.00004771   -0.00005311
     atom   18 type  2   force =    -0.00009767   -0.00012392   -0.00048852
     atom   19 type  1   force =    -0.00004183    0.00010854    0.00000817
     atom   20 type  1   force =    -0.00011816   -0.00059149   -0.00009674
     atom   21 type  2   force =     0.00001255   -0.00001394    0.10398598
     atom   22 type  2   force =     0.00004682    0.00101443    0.00048571
     atom   23 type  2   force =    -0.07040232   -0.00010319   -0.02690250
     atom   24 type  2   force =     0.07021939    0.00032882   -0.02696458
     atom   25 type  1   force =    -0.00000523   -0.00012649    0.09257502
     atom   26 type  1   force =    -0.00017547   -0.00039235   -0.17850640
     atom   27 type  2   force =     0.00009550   -0.00026431   -0.01917247
     atom   28 type  2   force =     0.00002828   -0.00176083    0.05848883
     atom   29 type  2   force =    -0.01089044   -0.00132932    0.00843101
     atom   30 type  2   force =     0.01234207   -0.00099029    0.00778126
     atom   31 type  1   force =    -0.00022051    0.00598509   -0.01473833
     atom   32 type  1   force =     0.00006016    0.00099609   -0.00534602
     atom   33 type  2   force =    -0.00030649    0.00023889    0.00015240
     atom   34 type  2   force =    -0.00022456   -0.00290905    0.00009633
     atom   35 type  2   force =     0.00060989    0.00021393   -0.00005751
     atom   36 type  2   force =    -0.00065592    0.00017715   -0.00028149
     atom   37 type  1   force =    -0.00054678   -0.00048303   -0.00002172
     atom   38 type  1   force =     0.00015839   -0.00050324    0.00014916
     atom   39 type  2   force =    -0.00000830   -0.00026250    0.00038793
     atom   40 type  2   force =    -0.00000847    0.00045404   -0.00059309
     atom   41 type  2   force =    -0.00022196    0.00055444   -0.00033446
     atom   42 type  2   force =     0.00021020    0.00057545   -0.00021133
     atom   43 type  1   force =    -0.00009304    0.00026061   -0.00059684
     atom   44 type  1   force =    -0.00055445   -0.00018336    0.00048709
     atom   45 type  2   force =     0.00000246   -0.00002430    0.10395735
     atom   46 type  2   force =    -0.07038156   -0.00005241   -0.02686834
     atom   47 type  2   force =     0.07021450    0.00037606   -0.02691744
     atom   48 type  3   force =     0.00051272   -0.02609401   -0.00385071
     atom   49 type  4   force =    -0.00003920    0.00418631   -0.00135798
     atom   50 type  5   force =     0.00102879   -0.00049220    0.00014671
     atom   51 type  5   force =    -0.00121058    0.00064560   -0.00080375
     atom   52 type  5   force =    -0.00551912    0.01145144    0.00422203
     atom   53 type  5   force =     0.00670283    0.01086879    0.00045323

     Total force =     0.367858     Total SCF correction =     0.000816
  @ DRIVER MODE: Message from server: STATUS
  @ DRIVER MODE: Message from server: GETFORCE
  @ DRIVER MODE: Returning v,forces,stress,ensemble

     Writing output data file ./calc.save/
  @ DRIVER MODE: Message from server: EXIT
  @ DRIVE MODE: Exiting

     General routines

     Parallel routines

   This run was terminated on:  11:40:20  24Aug2021

   JOB DONE.