     Program PWSCF v.6.7GPU starts on 18Aug2021 at 12: 0:38

     R & G space division:  proc/nbgrp/npool/nimage =       6
     Reading input from /storage/home/hcoda1/3/ntian30/research/carbon/CH3_vib_side_on/ads_slab/CH3_a/out_0003/pw.inp
Warning: card &CELL ignored
Warning: card   CELL_DYNAMICS='IPI', ignored
Warning: card / ignored

     Current dimensions of program PWSCF are:
     Max number of different atomic species (ntypx) = 10
     Max number of k-points (npk) =  40000
     Max angular momentum in pseudopotentials (lmaxx) =  3
     Presently no symmetry can be used with electric field

     Message from routine cell_base_init:
     DEPRECATED: use true lattice parameter, not A to a.u. conversion factor

     IMPORTANT: XC functional enforced from input :
     Exchange-correlation= BEEF-VDW
                           (   1   4  43  14   2   0   0)
     Any further DFT definition will be discarded
     Please, verify this is what you really want

  @ DRIVER MODE: Connecting to
 qe_1139763_2594175.sched-torque.pace.gatech.edu3phs_kzw_scratch
  using UNIX socket
  @ DRIVER MODE: Message from server: STATUS
  @ DRIVER MODE: Message from server: INIT
  @ DRIVER MODE: Receiving replica           0          -1
  @ DRIVER MODE: Receiving encoded integer          25
  @ DRIVER MODE:  SCF:  T  FORCE:  T  STRESS:  F  VC:  F  ENSEMBLE:  F
  @ DRIVER MODE:  SCF:  T  FORCE:  T  STRESS:  F  VC:  F  ENSEMBLE:  F

     Using Slab Decomposition

     bravais-lattice index     =            0
     lattice parameter (alat)  =       1.8897  a.u.
     unit-cell volume          =    6658.9804 (a.u.)^3
     number of atoms/cell      =           51
     number of atomic types    =            4
     number of electrons       =       385.00
     number of Kohn-Sham states=          202
     kinetic-energy cutoff     =      29.3995  Ry
     charge density cutoff     =     293.9946  Ry
     scf convergence threshold =      7.3E-08
     mixing beta               =       0.0500
     number of iterations used =            8  plain     mixing
     Exchange-correlation= BEEF-VDW
                           (   1   4  43  14   2   0   0)

     celldm(1)=   1.889726  celldm(2)=   0.000000  celldm(3)=   0.000000
     celldm(4)=   0.000000  celldm(5)=   0.000000  celldm(6)=   0.000000

     crystal axes: (cart. coord. in units of alat)
               a(1) = (   6.579727   0.000000   0.000000 )
               a(2) = (  -0.000775   5.961596   0.000000 )
               a(3) = (   0.000000   0.000000  25.155947 )

     reciprocal axes: (cart. coord. in units 2 pi/alat)
               b(1) = (  0.151982  0.000020  0.000000 )
               b(2) = (  0.000000  0.167740  0.000000 )
               b(3) = (  0.000000  0.000000  0.039752 )

     PseudoPot. # 1 for Ti read from file:
     /storage/coda1/p-amedford6/0/shared/rich_project_chbe-medford/medford-share/data/pseudos_module/espresso/nninc/pbe/van/Ti.UPF
     MD5 check sum: 8e4df49b7f0d34bbd5052bf3f5ea0213
     Pseudo is Ultrasoft, Zval = 12.0
     Generated by new atomic code, or converted to UPF format
     Using radial grid of  851 points,  6 beta functions with:
                l(1) =   0
                l(2) =   0
                l(3) =   1
                l(4) =   1
                l(5) =   2
                l(6) =   2
     Q(r) pseudized with  8 coefficients,  rinner =    1.000   1.000   1.000
                                                       1.000   1.000

     PseudoPot. # 2 for O  read from file:
     /storage/coda1/p-amedford6/0/shared/rich_project_chbe-medford/medford-share/data/pseudos_module/espresso/nninc/pbe/van/O.UPF
     MD5 check sum: 78c19812648e8988a0fe644b0f25305e
     Pseudo is Ultrasoft, Zval =  6.0
     Generated by new atomic code, or converted to UPF format
     Using radial grid of  737 points,  4 beta functions with:
                l(1) =   0
                l(2) =   0
                l(3) =   1
                l(4) =   1
     Q(r) pseudized with  8 coefficients,  rinner =    0.800   0.800   0.800

     PseudoPot. # 3 for C  read from file:
     /storage/coda1/p-amedford6/0/shared/rich_project_chbe-medford/medford-share/data/pseudos_module/espresso/nninc/pbe/van/C.UPF
     MD5 check sum: 1a69bf6b8db32088f5b2163dbdb77a27
     Pseudo is Ultrasoft, Zval =  4.0
     Generated by new atomic code, or converted to UPF format
     Using radial grid of  721 points,  4 beta functions with:
                l(1) =   0
                l(2) =   0
                l(3) =   1
                l(4) =   1
     Q(r) pseudized with  8 coefficients,  rinner =    0.800   0.800   0.800

     PseudoPot. # 4 for H  read from file:
     /storage/coda1/p-amedford6/0/shared/rich_project_chbe-medford/medford-share/data/pseudos_module/espresso/nninc/pbe/van/H.UPF
     MD5 check sum: b5ee9d7bfd3a09ee7748110bda690ff7
     Pseudo is Ultrasoft, Zval =  1.0
     Generated by new atomic code, or converted to UPF format
     Using radial grid of  615 points,  1 beta functions with:
                l(1) =   0
     Q(r) pseudized with  8 coefficients,  rinner =    0.800

     atomic species   valence    mass     pseudopotential
        Ti1           12.00    47.86700     Ti( 1.00)
        O1             6.00    15.99900     O ( 1.00)
        C1             4.00    12.01100     C ( 1.00)
        H1             1.00     1.00800     H ( 1.00)

     No symmetry found

   Cartesian axes

     site n.     atom                  positions (alat units)
         1           Ti1 tau(   1) = (   0.0004258   2.9801865   6.0000000  )
         2           Ti1 tau(   2) = (   3.2906075   1.4906267   6.0002472  )
         3           O1  tau(   3) = (   0.0006271   0.0005054   7.9858123  )
         4           O1  tau(   4) = (   3.2906025   0.0005020   7.3038282  )
         5           O1  tau(   5) = (   4.5942328   1.4918067   9.2879030  )
         6           O1  tau(   6) = (   1.9868534   1.4903216   9.2879459  )
         7           Ti1 tau(   7) = (   3.3226903   2.9514341   9.1576891  )
         8           Ti1 tau(   8) = (   0.0343464   1.5915341   9.3698150  )
         9           O1  tau(   9) = (   3.2914246   5.9565917  11.3520874  )
        10           O1  tau(  10) = (   0.0056322   0.0001635  10.6062760  )
        11           O1  tau(  11) = (   1.2817320   1.4815673  12.6483243  )
        12           O1  tau(  12) = (   5.2831613   1.4908443  12.6423163  )
        13           Ti1 tau(  13) = (   0.0382653   2.9371430  12.8126397  )
        14           Ti1 tau(  14) = (   3.3532929   1.4821923  12.4951370  )
        15           O1  tau(  15) = (   6.5662424   5.9331786  14.6600200  )
        16           O1  tau(  16) = (   3.2816364   5.9551084  13.9465949  )
        17           O1  tau(  17) = (   4.5315606   1.5040344  16.0986503  )
        18           O1  tau(  18) = (   2.0287349   1.4998145  16.0995964  )
        19           Ti1 tau(  19) = (   3.2668404   2.9769305  15.7222481  )
        20           Ti1 tau(  20) = (   6.5415330   1.4777109  16.1743724  )
        21           O1  tau(  21) = (   3.2904802   0.0005063   4.7018136  )
        22           O1  tau(  22) = (   6.5659521   0.0029676  17.1944956  )
        23           O1  tau(  23) = (   1.3043587   1.4918075   6.0039043  )
        24           O1  tau(  24) = (   5.2767064   1.4903225   6.0039473  )
        25           Ti1 tau(  25) = (   0.0000382   5.9609847   6.0000000  )
        26           Ti1 tau(  26) = (   3.2902200   4.4714249   6.0002472  )
        27           O1  tau(  27) = (   0.0002396   2.9813036   7.9858123  )
        28           O1  tau(  28) = (   3.2902150   2.9813002   7.3038282  )
        29           O1  tau(  29) = (   4.5938453   4.4726049   9.2879030  )
        30           O1  tau(  30) = (   1.9864658   4.4711199   9.2879459  )
        31           Ti1 tau(  31) = (   3.3086233   5.9367107   9.1526142  )
        32           Ti1 tau(  32) = (   0.0357814   4.5182409   9.2638332  )
        33           O1  tau(  33) = (   3.2921447   2.9709340  11.3500156  )
        34           O1  tau(  34) = (   0.0064783   2.9842416  10.5732297  )
        35           O1  tau(  35) = (   1.2836142   4.4569143  12.6423601  )
        36           O1  tau(  36) = (   5.2821634   4.4598214  12.6376843  )
        37           Ti1 tau(  37) = (   0.0453433   5.9192801  12.5257453  )
        38           Ti1 tau(  38) = (   3.3504828   4.4607682  12.4868234  )
        39           O1  tau(  39) = (   0.0004961   2.9772524  14.7247240  )
        40           O1  tau(  40) = (   3.2810368   2.9729593  13.9290527  )
        41           O1  tau(  41) = (   4.5304642   4.4591278  16.0913236  )
        42           O1  tau(  42) = (   2.0231910   4.4609068  16.0933517  )
        43           Ti1 tau(  43) = (   3.2586866   5.9546939  15.7393459  )
        44           Ti1 tau(  44) = (   6.5465221   4.6060206  15.8931146  )
        45           O1  tau(  45) = (   3.2900926   2.9813045   4.7018136  )
        46           O1  tau(  46) = (   1.3039711   4.4726057   6.0039043  )
        47           O1  tau(  47) = (   5.2763189   4.4711207   6.0039473  )
        48           C1  tau(  48) = (   6.5676456   2.8890966  17.8516705  )
        49           H1  tau(  49) = (   6.5659762   3.9554521  18.1205428  )
        50           H1  tau(  50) = (   0.8773746   2.4756544  18.3284787  )
        51           H1  tau(  51) = (   5.6845275   2.4719798  18.3396978  )

     number of k points=    10  Fermi-Dirac smearing, width (Ry)=  0.0073
                       cart. coord. in units 2pi/alat
        k(    1) = (   0.0000000   0.0000000   0.0000000), wk =   0.1250000
        k(    2) = (   0.0000000   0.0419351   0.0000000), wk =   0.2500000
        k(    3) = (   0.0000000  -0.0838702   0.0000000), wk =   0.1250000
        k(    4) = (   0.0379955   0.0000049   0.0000000), wk =   0.2500000
        k(    5) = (   0.0379955   0.0419400   0.0000000), wk =   0.2500000
        k(    6) = (   0.0379955  -0.0838652   0.0000000), wk =   0.2500000
        k(    7) = (   0.0379955  -0.0419301   0.0000000), wk =   0.2500000
        k(    8) = (  -0.0759910  -0.0000099   0.0000000), wk =   0.1250000
        k(    9) = (  -0.0759910   0.0419252   0.0000000), wk =   0.2500000
        k(   10) = (  -0.0759910  -0.0838800   0.0000000), wk =   0.1250000

     Initial potential from superposition of free atoms

     starting charge  368.99918, renormalised to  385.00000

     negative rho (up, down):  2.032E-02 0.000E+00

     %%%%%%%%%%%%%%%%%%%%%%%%%%%%%%%%%%%%%%%%%%%%%%%%%%%%%%%%%%%%%%%%%%%%%%%%
     %                                                                      %
     % You are using vdW-DF, which was implemented by the Thonhauser group. %
     % Please cite the following two papers that made this development      %
     % possible and the two reviews that describe the various versions:     %
     %                                                                      %
     %   T. Thonhauser et al., PRL 115, 136402 (2015).                      %
     %   T. Thonhauser et al., PRB 76, 125112 (2007).                       %
     %   K. Berland et al., Rep. Prog. Phys. 78, 066501 (2015).             %
     %   D.C. Langreth et al., J. Phys.: Condens. Matter 21, 084203 (2009). %
     %                                                                      %
     %                                                                      %
     % If you are calculating the stress with vdW-DF, please also cite:     %
     %                                                                      %
     %   R. Sabatini et al., J. Phys.: Condens. Matter 24, 424209 (2012).   %
     %                                                                      %
     %%%%%%%%%%%%%%%%%%%%%%%%%%%%%%%%%%%%%%%%%%%%%%%%%%%%%%%%%%%%%%%%%%%%%%%%

     Adding external electric field

     Computed dipole along edir(3) :
        Dipole               -1.9974 Ry au,         -5.0769 Debye
        Dipole field         -0.0038 Ry au,

        Potential amp.        0.3494 Ry
        Total length         46.3494 bohr

     Starting wfcs are  291 atomic wfcs
  @ DRIVER MODE: Message from server: STATUS
  @ DRIVER MODE: Message from server: POSDATA
  @ DRIVER MODE: Reading and sharing cell
  @ DRIVER MODE: Reading and sharing positions
  @ DRIVER MODE: Received positions

     Self-consistent Calculation

     iteration #  1     ecut=    29.40 Ry     beta= 0.05
     Davidson diagonalization with overlap
     c_bands:  2 eigenvalues not converged
     c_bands:  1 eigenvalues not converged
     c_bands:  3 eigenvalues not converged
     c_bands:  1 eigenvalues not converged
     ethr =  1.00E-05,  avg # of iterations = 18.6

[...]

     total energy              =   -2900.52515536 Ry
     estimated scf accuracy    <      12.60057362 Ry

     iteration #  2     ecut=    29.40 Ry     beta= 0.05
     Davidson diagonalization with overlap
     ethr =  3.27E-03,  avg # of iterations =  1.0

[...]

     iteration # 54     ecut=    29.40 Ry     beta= 0.05
     Davidson diagonalization with overlap
     c_bands:  1 eigenvalues not converged
     c_bands:  1 eigenvalues not converged
     c_bands:  1 eigenvalues not converged
     c_bands:  1 eigenvalues not converged
     c_bands:  2 eigenvalues not converged
     ethr =  4.03E-11,  avg # of iterations = 18.5

[...]

     total energy              =   -2899.02562992 Ry
     estimated scf accuracy    <       0.00000010 Ry

     iteration # 58     ecut=    29.40 Ry     beta= 0.05
     Davidson diagonalization with overlap
     ethr =  2.71E-11,  avg # of iterations =  8.6

     negative rho (up, down):  1.952E-02 0.000E+00

     Adding external electric field

     Computed dipole along edir(3) :
        Dipole                0.4688 Ry au,          1.1915 Debye
        Dipole field          0.0009 Ry au,

        Potential amp.       -0.0820 Ry
        Total length         46.3494 bohr

     End of self-consistent calculation

          k = 0.0000 0.0000 0.0000 ( 18029 PWs)   bands (ev):

   -56.2357 -56.2150 -56.1991 -56.1787 -56.1261 -56.1244 -56.0882 -56.0728
   -56.0028 -55.9965 -55.9640 -55.9622 -55.8910 -55.8632 -55.2524 -55.2183
   -32.7795 -32.7032 -32.6030 -32.5741 -32.5412 -32.5266 -32.5031 -32.4727
   -32.4634 -32.4586 -32.4442 -32.4414 -32.4375 -32.3974 -32.3964 -32.3626
   -32.3592 -32.3566 -32.3417 -32.3253 -32.3054 -32.3012 -32.2908 -32.2749
   -32.2733 -32.2532 -32.2491 -32.2404 -32.2314 -32.2242 -32.2165 -32.1887
   -32.1644 -32.1573 -32.1378 -32.1249 -32.1089 -32.0972 -32.0852 -32.0790
   -32.0748 -31.9675 -31.6626 -31.5646 -31.5423 -31.4791 -31.3930 -31.2819
   -16.9838 -16.6849 -16.5409 -16.3920 -16.3642 -16.2455 -16.0635 -15.9280
   -15.9135 -15.8387 -15.8111 -15.8056 -15.7756 -15.7572 -15.7493 -15.7420
   -15.6885 -15.6847 -15.6491 -15.6388 -15.6091 -15.5350 -15.5116 -15.4521
   -15.4106 -15.3539 -15.2583 -15.2304 -15.1965 -13.7532 -13.6349  -9.4842
    -4.3405  -4.1716  -4.1463  -4.1270  -4.0428  -3.8041  -3.7864  -3.5340
    -3.4177  -3.3964  -3.3719  -3.3662  -3.3121  -3.1794  -3.0900  -3.0661
    -3.0622  -3.0503  -3.0213  -3.0163  -2.9806  -2.9793  -2.9413  -2.9254
    -2.9002  -2.7285  -2.6533  -2.6465  -2.6022  -2.5367  -2.5212  -2.5034
    -2.4673  -2.4549  -2.4407  -2.4264  -2.3741  -2.2784  -2.2480  -2.1452
    -2.0651  -2.0354  -1.9440  -1.8520  -1.7789  -1.6879  -1.6609  -1.6351
    -1.5584  -1.5527  -1.4857  -1.4397  -1.4238  -1.3307  -1.2661  -1.2340
    -1.1343  -1.0942  -1.0021  -0.9937  -0.9742  -0.9577  -0.9455  -0.7655
    -0.7205  -0.6981  -0.6896  -0.5688  -0.5558  -0.5316  -0.5006  -0.4421
    -0.4025  -0.3486  -0.3154  -0.2715  -0.2535  -0.2475  -0.2309  -0.2074
    -0.1277  -0.0481  -0.0292   0.0640   0.1158   0.2373   0.3034   0.4087
     0.4955   0.6742   0.7720   0.8049   0.8494   0.9401   1.3618   1.4242
     2.9533   2.9950   3.0199   3.0546   3.0666   3.2234   3.3291   3.4062
     3.4082   3.4479

[...]

          k = 0.0380-0.0419 0.0000 ( 17876 PWs)   bands (ev):

[...]

          k =-0.0760-0.0000 0.0000 ( 17886 PWs)   bands (ev):

[...]

          k =-0.0760-0.0839 0.0000 ( 17948 PWs)   bands (ev):

   -56.2241 -56.2106 -56.1976 -56.1959 -56.1198 -56.1142 -56.0983 -56.0790
   -55.9985 -55.9813 -55.9806 -55.9596 -55.8937 -55.8656 -55.2358 -55.2348
   -32.5831 -32.5803 -32.5266 -32.5160 -32.5121 -32.5091 -32.4945 -32.4878
   -32.4519 -32.4360 -32.4247 -32.4206 -32.3910 -32.3716 -32.3654 -32.3559
   -32.3534 -32.3507 -32.3421 -32.3393 -32.3251 -32.3191 -32.3142 -32.3097
   -32.2986 -32.2984 -32.2963 -32.2761 -32.2430 -32.2400 -32.2347 -32.2267
   -32.2002 -32.1838 -32.1828 -32.1744 -32.1639 -32.1288 -32.1230 -32.1180
   -32.0885 -32.0145 -31.5556 -31.5543 -31.4759 -31.4751 -31.4365 -31.4356
   -16.4191 -16.3941 -16.1646 -16.1556 -16.1478 -16.0832 -15.9982 -15.9758
   -15.9593 -15.9549 -15.9008 -15.8819 -15.8730 -15.8370 -15.7789 -15.7708
   -15.7632 -15.7397 -15.6884 -15.6821 -15.6270 -15.6025 -15.5862 -15.5826
   -15.5643 -15.5600 -15.4622 -15.4177 -15.3853 -13.7371 -13.7350  -9.4998
    -3.7117  -3.6801  -3.4157  -3.3701  -3.3648  -3.2857  -3.2009  -3.1722
    -3.1473  -3.1368  -3.0893  -3.0742  -3.0724  -3.0712  -3.0280  -3.0269
    -2.9994  -2.9918  -2.9829  -2.9744  -2.9290  -2.8650  -2.8565  -2.8556
    -2.8444  -2.7991  -2.7891  -2.7823  -2.7623  -2.7621  -2.7068  -2.5119
    -2.4909  -2.4486  -2.3767  -2.3597  -2.3300  -2.3203  -2.2945  -2.2701
    -2.2017  -2.1381  -2.0108  -1.9785  -1.9550  -1.9403  -1.8863  -1.8368
    -1.7219  -1.6804  -1.6547  -1.6360  -1.5704  -1.4962  -1.4734  -1.4570
    -1.3736  -1.3475  -1.3038  -1.2398  -1.2030  -1.1897  -1.1389  -1.1256
    -1.0398  -0.9795  -0.9434  -0.9066  -0.8895  -0.8563  -0.8080  -0.7569
    -0.7439  -0.6831  -0.6208  -0.5173  -0.3144  -0.2288  -0.2198  -0.1777
    -0.1209  -0.0942   0.0139   0.0478   0.0619   0.1561   0.2223   0.2883
     0.3056   0.3308   0.3985   0.8810   1.1321   1.1330   1.2246   1.2350
     3.1575   3.1674   3.1972   3.2643   3.4108   3.4168   3.4360   3.4417
     3.5352   3.5869

     the Fermi energy is     2.9204 ev

!    total energy              =   -2899.02567234 Ry
     estimated scf accuracy    <       0.00000005 Ry
     smearing contrib. (-TS)   =      -0.02330084 Ry
     internal energy E=F+TS    =   -2899.00237150 Ry

     The total energy is F=E-TS. E is the sum of the following terms:
     one-electron contribution =  -24814.69552027 Ry
     hartree contribution      =   12486.30494936 Ry
     xc contribution           =    -474.70160068 Ry
     ewald contribution        =    9904.08938537 Ry
     electric field correction =       0.00041471 Ry

     convergence has been achieved in  58 iterations

     Forces acting on atoms (cartesian axes, Ry/au):

     atom    1 type  1   force =    -0.00012642   -0.00193852    0.10691820
     atom    2 type  1   force =    -0.00037373    0.00069813   -0.18023202
     atom    3 type  2   force =     0.00034982   -0.00663252   -0.03350985
     atom    4 type  2   force =     0.00056867   -0.00062955    0.04569764
     atom    5 type  2   force =    -0.01961387   -0.00121395    0.00435490
     atom    6 type  2   force =     0.02144665   -0.00006887    0.00423957
     atom    7 type  1   force =    -0.00028389    0.00033619   -0.00015080
     atom    8 type  1   force =    -0.00048759    0.00046506    0.00013439
     atom    9 type  2   force =    -0.00004717   -0.00039036   -0.00056676
     atom   10 type  2   force =     0.00010082    0.00045674   -0.00036872
     atom   11 type  2   force =     0.00014791   -0.00001847   -0.00003243
     atom   12 type  2   force =     0.00026432   -0.00014545   -0.00003627
     atom   13 type  1   force =    -0.00054843    0.00009814    0.00060011
     atom   14 type  1   force =    -0.00058461    0.00015687    0.00001536
     atom   15 type  2   force =    -0.00003537   -0.00045715   -0.00023720
     atom   16 type  2   force =    -0.00003318   -0.00004439    0.00051308
     atom   17 type  2   force =    -0.00100775   -0.00084846   -0.00021135
     atom   18 type  2   force =     0.00085771   -0.00075390   -0.00042025
     atom   19 type  1   force =    -0.00023073    0.00029950   -0.00041191
     atom   20 type  1   force =     0.00045129   -0.00029160   -0.00038491
     atom   21 type  2   force =     0.00000252    0.00003709    0.10432665
     atom   22 type  2   force =    -0.00009406   -0.00076625   -0.00067345
     atom   23 type  2   force =    -0.06878076    0.00084511   -0.02964714
     atom   24 type  2   force =     0.06853662    0.00129696   -0.02971746
     atom   25 type  1   force =    -0.00009647    0.00130960    0.11806756
     atom   26 type  1   force =    -0.00020514   -0.00066191   -0.18055015
     atom   27 type  2   force =     0.00055375    0.00239893   -0.02741643
     atom   28 type  2   force =     0.00072987   -0.00048825    0.04721181
     atom   29 type  2   force =    -0.01934536    0.00075563    0.00375525
     atom   30 type  2   force =     0.01929459    0.00249330    0.00343969
     atom   31 type  1   force =    -0.00007927   -0.00075194    0.00034253
     atom   32 type  1   force =    -0.00042425    0.00003062    0.00035300
     atom   33 type  2   force =    -0.00013462    0.00036026   -0.00074957
     atom   34 type  2   force =    -0.00007670    0.00004858   -0.00012175
     atom   35 type  2   force =     0.00043858    0.00021162   -0.00043674
     atom   36 type  2   force =    -0.00080279    0.00000986   -0.00042392
     atom   37 type  1   force =    -0.00055395    0.00047921    0.00064441
     atom   38 type  1   force =     0.00014544   -0.00042838    0.00034224
     atom   39 type  2   force =    -0.00030915   -0.00013528    0.00006105
     atom   40 type  2   force =    -0.00004447    0.00078463    0.00060757
     atom   41 type  2   force =    -0.00009662    0.00113684   -0.00010883
     atom   42 type  2   force =     0.00029680    0.00119203   -0.00036423
     atom   43 type  1   force =    -0.00017593    0.00076756   -0.00024544
     atom   44 type  1   force =     0.00045450    0.00077774   -0.00011946
     atom   45 type  2   force =    -0.00000546    0.00006121    0.10433529
     atom   46 type  2   force =    -0.06831824   -0.00103284   -0.02971022
     atom   47 type  2   force =     0.06816810   -0.00065429   -0.02975020
     atom   48 type  3   force =    -0.00072492    0.01636476    0.00028621
     atom   49 type  4   force =     0.00005782   -0.01109081   -0.00341687
     atom   50 type  4   force =     0.00263612   -0.00232467    0.00200871
     atom   51 type  4   force =    -0.00186101   -0.00210435    0.00175912

     Total force =     0.377969     Total SCF correction =     0.000522
  @ DRIVER MODE: Message from server: STATUS
  @ DRIVER MODE: Message from server: GETFORCE
  @ DRIVER MODE: Returning v,forces,stress,ensemble

     Writing output data file ./calc.save/
  @ DRIVER MODE: Message from server: EXIT
  @ DRIVE MODE: Exiting

     General routines

     Parallel routines

   This run was terminated on:  12:26:24  18Aug2021

   JOB DONE.