     Program PWSCF v.6.7GPU starts on 15Sep2021 at 20:35: 1

     R & G space division:  proc/nbgrp/npool/nimage =      10
     Reading input from /storage/home/hcoda1/3/ntian30/research/carbon/CxH_vib/H2O_calc/ads_slab/CH3NNHHHH2O_a/out_0014/pw.inp
Warning: card &CELL ignored
Warning: card   CELL_DYNAMICS='IPI', ignored
Warning: card / ignored

     Current dimensions of program PWSCF are:
     Max number of different atomic species (ntypx) = 10
     Max number of k-points (npk) =  40000
     Max angular momentum in pseudopotentials (lmaxx) =  3
     Presently no symmetry can be used with electric field

     Message from routine cell_base_init:
     DEPRECATED: use true lattice parameter, not A to a.u. conversion factor

     IMPORTANT: XC functional enforced from input :
     Exchange-correlation= BEEF-VDW
                           (   1   4  43  14   2   0   0)
     Any further DFT definition will be discarded
     Please, verify this is what you really want

  @ DRIVER MODE: Connecting to
 qe_1139763_2852622.sched-torque.pace.gatech.edul3hjwsg3_scratch
  using UNIX socket
  @ DRIVER MODE: Message from server: STATUS
  @ DRIVER MODE: Message from server: INIT
  @ DRIVER MODE: Receiving replica           0          -1
  @ DRIVER MODE: Receiving encoded integer          25
  @ DRIVER MODE:  SCF:  T  FORCE:  T  STRESS:  F  VC:  F  ENSEMBLE:  F
  @ DRIVER MODE:  SCF:  T  FORCE:  T  STRESS:  F  VC:  F  ENSEMBLE:  F

     Using Slab Decomposition

     bravais-lattice index     =            0
     lattice parameter (alat)  =       1.8897  a.u.
     unit-cell volume          =    6658.9804 (a.u.)^3
     number of atoms/cell      =           59
     number of atomic types    =            5
     number of electrons       =       406.00
     number of Kohn-Sham states=          213
     kinetic-energy cutoff     =      29.3995  Ry
     charge density cutoff     =     293.9946  Ry
     scf convergence threshold =      7.3E-08
     mixing beta               =       0.0500
     number of iterations used =            8  plain     mixing
     Exchange-correlation= BEEF-VDW
                           (   1   4  43  14   2   0   0)

     celldm(1)=   1.889726  celldm(2)=   0.000000  celldm(3)=   0.000000
     celldm(4)=   0.000000  celldm(5)=   0.000000  celldm(6)=   0.000000

     crystal axes: (cart. coord. in units of alat)
               a(1) = (   6.579727   0.000000   0.000000 )
               a(2) = (  -0.000775   5.961596   0.000000 )
               a(3) = (   0.000000   0.000000  25.155947 )

     reciprocal axes: (cart. coord. in units 2 pi/alat)
               b(1) = (  0.151982  0.000020  0.000000 )
               b(2) = (  0.000000  0.167740  0.000000 )
               b(3) = (  0.000000  0.000000  0.039752 )

     PseudoPot. # 1 for Ti read from file:
     /storage/coda1/p-amedford6/0/shared/rich_project_chbe-medford/medford-share/data/pseudos_module/espresso/nninc/pbe/van/Ti.UPF
     MD5 check sum: 8e4df49b7f0d34bbd5052bf3f5ea0213
     Pseudo is Ultrasoft, Zval = 12.0
     Generated by new atomic code, or converted to UPF format
     Using radial grid of  851 points,  6 beta functions with:
                l(1) =   0
                l(2) =   0
                l(3) =   1
                l(4) =   1
                l(5) =   2
                l(6) =   2
     Q(r) pseudized with  8 coefficients,  rinner =    1.000   1.000   1.000
                                                       1.000   1.000

     PseudoPot. # 2 for O  read from file:
     /storage/coda1/p-amedford6/0/shared/rich_project_chbe-medford/medford-share/data/pseudos_module/espresso/nninc/pbe/van/O.UPF
     MD5 check sum: 78c19812648e8988a0fe644b0f25305e
     Pseudo is Ultrasoft, Zval =  6.0
     Generated by new atomic code, or converted to UPF format
     Using radial grid of  737 points,  4 beta functions with:
                l(1) =   0
                l(2) =   0
                l(3) =   1
                l(4) =   1
     Q(r) pseudized with  8 coefficients,  rinner =    0.800   0.800   0.800

     PseudoPot. # 3 for N  read from file:
     /storage/coda1/p-amedford6/0/shared/rich_project_chbe-medford/medford-share/data/pseudos_module/espresso/nninc/pbe/van/N.UPF
     MD5 check sum: 90d10febe142ad51ac9d5be1deb811c4
     Pseudo is Ultrasoft, Zval =  5.0
     Generated by new atomic code, or converted to UPF format
     Using radial grid of  729 points,  4 beta functions with:
                l(1) =   0
                l(2) =   0
                l(3) =   1
                l(4) =   1
     Q(r) pseudized with  8 coefficients,  rinner =    0.800   0.800   0.800

     PseudoPot. # 4 for C  read from file:
     /storage/coda1/p-amedford6/0/shared/rich_project_chbe-medford/medford-share/data/pseudos_module/espresso/nninc/pbe/van/C.UPF
     MD5 check sum: 1a69bf6b8db32088f5b2163dbdb77a27
     Pseudo is Ultrasoft, Zval =  4.0
     Generated by new atomic code, or converted to UPF format
     Using radial grid of  721 points,  4 beta functions with:
                l(1) =   0
                l(2) =   0
                l(3) =   1
                l(4) =   1
     Q(r) pseudized with  8 coefficients,  rinner =    0.800   0.800   0.800

     PseudoPot. # 5 for H  read from file:
     /storage/coda1/p-amedford6/0/shared/rich_project_chbe-medford/medford-share/data/pseudos_module/espresso/nninc/pbe/van/H.UPF
     MD5 check sum: b5ee9d7bfd3a09ee7748110bda690ff7
     Pseudo is Ultrasoft, Zval =  1.0
     Generated by new atomic code, or converted to UPF format
     Using radial grid of  615 points,  1 beta functions with:
                l(1) =   0
     Q(r) pseudized with  8 coefficients,  rinner =    0.800

     atomic species   valence    mass     pseudopotential
        Ti1           12.00    47.86700     Ti( 1.00)
        O1             6.00    15.99900     O ( 1.00)
        N1             5.00    14.00700     N ( 1.00)
        C1             4.00    12.01100     C ( 1.00)
        H1             1.00     1.00800     H ( 1.00)

     No symmetry found

   Cartesian axes

     site n.     atom                  positions (alat units)
         1           Ti1 tau(   1) = (   0.0004258   2.9801865   6.0000000  )
         2           Ti1 tau(   2) = (   3.2906075   1.4906267   6.0002472  )
         3           O1  tau(   3) = (   0.0006271   0.0005054   7.9858123  )
         4           O1  tau(   4) = (   3.2906025   0.0005020   7.3038282  )
         5           O1  tau(   5) = (   4.5942328   1.4918067   9.2879030  )
         6           O1  tau(   6) = (   1.9868534   1.4903216   9.2879459  )
         7           Ti1 tau(   7) = (   3.2907910   2.8959150   9.1758416  )
         8           Ti1 tau(   8) = (   0.0015273   1.4827037   9.2680791  )
         9           O1  tau(   9) = (   3.2800960   5.9426830  11.3808346  )
        10           O1  tau(  10) = (   0.0116148   5.9584955  10.6183126  )
        11           O1  tau(  11) = (   1.2797812   1.4911726  12.6624455  )
        12           O1  tau(  12) = (   5.2824698   1.4871998  12.6412817  )
        13           Ti1 tau(  13) = (   0.0041451   2.9720195  12.5119452  )
        14           Ti1 tau(  14) = (   3.3095611   1.4699318  12.5307708  )
        15           O1  tau(  15) = (   6.5436702   0.0697967  14.6864816  )
        16           O1  tau(  16) = (   3.2812162   5.9597207  14.0300411  )
        17           O1  tau(  17) = (   4.5129646   1.5046642  16.2361130  )
        18           O1  tau(  18) = (   1.9708392   1.5012857  16.1671103  )
        19           Ti1 tau(  19) = (   3.2655272   2.9480959  15.7331506  )
        20           Ti1 tau(  20) = (   6.5674642   1.4497656  15.9937491  )
        21           O1  tau(  21) = (   3.2904802   0.0005063   4.7018136  )
        22           O1  tau(  22) = (   6.5217933   5.8323795  17.2454964  )
        23           O1  tau(  23) = (   1.3043587   1.4918075   6.0039043  )
        24           O1  tau(  24) = (   5.2767064   1.4903225   6.0039473  )
        25           Ti1 tau(  25) = (   0.0000382   5.9609847   6.0000000  )
        26           Ti1 tau(  26) = (   3.2902200   4.4714249   6.0002472  )
        27           O1  tau(  27) = (   0.0002396   2.9813036   7.9858123  )
        28           O1  tau(  28) = (   3.2902150   2.9813002   7.3038282  )
        29           O1  tau(  29) = (   4.5938453   4.4726049   9.2879030  )
        30           O1  tau(  30) = (   1.9864658   4.4711199   9.2879459  )
        31           Ti1 tau(  31) = (   3.2891106   5.8743827   9.1763621  )
        32           Ti1 tau(  32) = (   0.0006254   4.4649316   9.2693709  )
        33           O1  tau(  33) = (   3.2830490   2.9749636  11.3746576  )
        34           O1  tau(  34) = (   0.0092240   2.9805883  10.6323155  )
        35           O1  tau(  35) = (   1.2760807   4.4612897  12.6946019  )
        36           O1  tau(  36) = (   5.2846406   4.4647657  12.6742532  )
        37           Ti1 tau(  37) = (   0.0173662   5.9591775  12.4970172  )
        38           Ti1 tau(  38) = (   3.3070294   4.4569304  12.5379467  )
        39           O1  tau(  39) = (   6.5190077   2.9374781  14.9220565  )
        40           O1  tau(  40) = (   3.2909943   2.9519766  13.9498127  )
        41           O1  tau(  41) = (   4.5146313   4.4149292  16.1460290  )
        42           O1  tau(  42) = (   1.9668235   4.4047650  16.1116202  )
        43           Ti1 tau(  43) = (   3.2426406   5.9218513  15.8539982  )
        44           Ti1 tau(  44) = (   6.5337747   4.6515477  15.8702276  )
        45           O1  tau(  45) = (   3.2900926   2.9813045   4.7018136  )
        46           O1  tau(  46) = (   1.3039711   4.4726057   6.0039043  )
        47           O1  tau(  47) = (   5.2763189   4.4711207   6.0039473  )
        48           N1  tau(  48) = (   1.0802268   3.0592680  18.8437747  )
        49           N1  tau(  49) = (   6.4825355   2.6367244  18.1156036  )
        50           C1  tau(  50) = (   0.7369815   3.7261681  20.0984356  )
        51           H1  tau(  51) = (   0.0344531   4.5672025  19.9493712  )
        52           H1  tau(  52) = (   0.2718923   3.0081313  20.7822053  )
        53           H1  tau(  53) = (   1.6424345   4.1087450  20.5485440  )
        54           H1  tau(  54) = (   5.7152520   3.3097272  18.2274121  )
        55           H1  tau(  55) = (   6.1788988   1.7551022  18.5268573  )
        56           H1  tau(  56) = (   1.5478348   3.7306874  18.2371031  )
        57           O1  tau(  57) = (   3.1661568   0.0027346  18.3937517  )
        58           H1  tau(  58) = (   4.0701885   0.3469208  18.4697374  )
        59           H1  tau(  59) = (   2.5798038   0.7742236  18.5044111  )

     number of k points=    10  Fermi-Dirac smearing, width (Ry)=  0.0073
                       cart. coord. in units 2pi/alat
        k(    1) = (   0.0000000   0.0000000   0.0000000), wk =   0.1250000
        k(    2) = (   0.0000000   0.0419351   0.0000000), wk =   0.2500000
        k(    3) = (   0.0000000  -0.0838702   0.0000000), wk =   0.1250000
        k(    4) = (   0.0379955   0.0000049   0.0000000), wk =   0.2500000
        k(    5) = (   0.0379955   0.0419400   0.0000000), wk =   0.2500000
        k(    6) = (   0.0379955  -0.0838652   0.0000000), wk =   0.2500000
        k(    7) = (   0.0379955  -0.0419301   0.0000000), wk =   0.2500000
        k(    8) = (  -0.0759910  -0.0000099   0.0000000), wk =   0.1250000
        k(    9) = (  -0.0759910   0.0419252   0.0000000), wk =   0.2500000
        k(   10) = (  -0.0759910  -0.0838800   0.0000000), wk =   0.1250000

     Initial potential from superposition of free atoms

     starting charge  389.99912, renormalised to  406.00000

     negative rho (up, down):  1.306E-02 0.000E+00

     %%%%%%%%%%%%%%%%%%%%%%%%%%%%%%%%%%%%%%%%%%%%%%%%%%%%%%%%%%%%%%%%%%%%%%%%
     %                                                                      %
     % You are using vdW-DF, which was implemented by the Thonhauser group. %
     % Please cite the following two papers that made this development      %
     % possible and the two reviews that describe the various versions:     %
     %                                                                      %
     %   T. Thonhauser et al., PRL 115, 136402 (2015).                      %
     %   T. Thonhauser et al., PRB 76, 125112 (2007).                       %
     %   K. Berland et al., Rep. Prog. Phys. 78, 066501 (2015).             %
     %   D.C. Langreth et al., J. Phys.: Condens. Matter 21, 084203 (2009). %
     %                                                                      %
     %                                                                      %
     % If you are calculating the stress with vdW-DF, please also cite:     %
     %                                                                      %
     %   R. Sabatini et al., J. Phys.: Condens. Matter 24, 424209 (2012).   %
     %                                                                      %
     %%%%%%%%%%%%%%%%%%%%%%%%%%%%%%%%%%%%%%%%%%%%%%%%%%%%%%%%%%%%%%%%%%%%%%%%

     Adding external electric field

     Computed dipole along edir(3) :
        Dipole              -16.1158 Ry au,        -40.9623 Debye
        Dipole field         -0.0304 Ry au,

        Potential amp.        2.8192 Ry
        Total length         46.3494 bohr

     Starting wfcs are  308 atomic wfcs
  @ DRIVER MODE: Message from server: STATUS
  @ DRIVER MODE: Message from server: POSDATA
  @ DRIVER MODE: Reading and sharing cell
  @ DRIVER MODE: Reading and sharing positions
  @ DRIVER MODE: Received positions

     Self-consistent Calculation

     iteration #  1     ecut=    29.40 Ry     beta= 0.05
     Davidson diagonalization with overlap
     c_bands:  2 eigenvalues not converged
     c_bands:  3 eigenvalues not converged
     c_bands:  2 eigenvalues not converged
     c_bands:  3 eigenvalues not converged
     c_bands:  4 eigenvalues not converged
     c_bands:  2 eigenvalues not converged
     c_bands:  1 eigenvalues not converged
     c_bands:  5 eigenvalues not converged
     c_bands:  1 eigenvalues not converged
     ethr =  1.00E-05,  avg # of iterations = 23.1

[...]

     total energy              =   -2140.64268537 Ry
     estimated scf accuracy    <    9598.82080828 Ry

     iteration #  2     ecut=    29.40 Ry     beta= 0.05
     Davidson diagonalization with overlap
     ethr =  1.00E-02,  avg # of iterations = 32.8

[...]

     iteration # 83     ecut=    29.40 Ry     beta= 0.05
     Davidson diagonalization with overlap
     c_bands:  1 eigenvalues not converged
     c_bands:  1 eigenvalues not converged
     ethr =  2.33E-10,  avg # of iterations = 15.1

[...]

     total energy              =   -2977.69995056 Ry
     estimated scf accuracy    <       0.00000010 Ry

     iteration # 88     ecut=    29.40 Ry     beta= 0.05
     Davidson diagonalization with overlap
     ethr =  2.51E-11,  avg # of iterations = 10.8

     negative rho (up, down):  1.407E-02 0.000E+00

     Adding external electric field

     Computed dipole along edir(3) :
        Dipole                1.3371 Ry au,          3.3986 Debye
        Dipole field          0.0025 Ry au,

        Potential amp.       -0.2339 Ry
        Total length         46.3494 bohr

     End of self-consistent calculation

          k = 0.0000 0.0000 0.0000 ( 18029 PWs)   bands (ev):

   -55.1202 -55.0836 -55.0762 -55.0420 -55.0364 -55.0311 -54.9994 -54.9636
   -54.9451 -54.9103 -54.9064 -54.8895 -54.8728 -54.8388 -54.1059 -54.0718
   -31.6821 -31.5961 -31.5685 -31.4885 -31.4342 -31.4314 -31.4178 -31.4120
   -31.3651 -31.3422 -31.3318 -31.3209 -31.3142 -31.3113 -31.2930 -31.2848
   -31.2646 -31.2619 -31.2595 -31.2413 -31.2287 -31.2193 -31.2020 -31.1974
   -31.1899 -31.1782 -31.1752 -31.1460 -31.1334 -31.1303 -31.1254 -31.1049
   -31.1022 -31.0946 -31.0912 -31.0674 -31.0585 -31.0418 -31.0344 -31.0324
   -31.0175 -31.0162 -30.5153 -30.4210 -30.3989 -30.3317 -30.2449 -30.1340
   -18.8058 -17.8221 -15.9513 -15.6959 -15.5593 -15.4582 -15.3235 -15.2174
   -15.1361 -15.0220 -14.9721 -14.8566 -14.8245 -14.8198 -14.7805 -14.7490
   -14.7003 -14.6616 -14.6594 -14.6370 -14.6176 -14.6099 -14.5671 -14.5602
   -14.5206 -14.5187 -14.4988 -14.3626 -14.2811 -14.2110 -14.0286 -13.2176
   -12.6082 -12.4907  -9.7695  -6.5375  -6.4031  -5.4608  -4.9332  -3.5037
    -3.2845  -3.1401  -3.0901  -3.0520  -3.0164  -2.9608  -2.8821  -2.8127
    -2.6520  -2.5826  -2.5574  -2.4050  -2.3310  -2.3214  -2.2648  -2.1650
    -2.1402  -2.0934  -2.0512  -1.9867  -1.9492  -1.9258  -1.9040  -1.8688
    -1.8651  -1.8113  -1.7575  -1.6880  -1.5982  -1.5669  -1.5210  -1.4775
    -1.4555  -1.4529  -1.4123  -1.4059  -1.3948  -1.3509  -1.3447  -1.3147
    -1.2690  -1.1592  -1.0102  -0.9468  -0.8587  -0.7632  -0.7427  -0.7119
    -0.6917  -0.6295  -0.6071  -0.5796  -0.5022  -0.4539  -0.3746  -0.3281
    -0.3057  -0.2260  -0.1213  -0.1042  -0.0968  -0.0089   0.0833   0.0960
     0.1108   0.1204   0.2185   0.2837   0.3180   0.3594   0.4234   0.4325
     0.4902   0.5196   0.5718   0.6373   0.6703   0.7504   0.7893   0.8107
     0.8153   0.8378   0.8604   0.8734   0.9516   0.9594   0.9848   1.0735
     1.1780   1.3325   1.4784   1.4892   1.8225   1.8236   1.9171   2.1006
     2.4934   2.5417   3.9742   4.0498   4.1083   4.1194   4.1251   4.2100
     4.4590   4.4768   4.4881   4.4898   4.5247

[...]

          k = 0.0380-0.0419 0.0000 ( 17876 PWs)   bands (ev):

[...]

          k =-0.0760-0.0000 0.0000 ( 17886 PWs)   bands (ev):

[...]

          k =-0.0760-0.0839 0.0000 ( 17948 PWs)   bands (ev):

   -55.1057 -55.0978 -55.0591 -55.0590 -55.0337 -55.0299 -54.9866 -54.9763
   -54.9306 -54.9243 -54.8914 -54.8902 -54.8891 -54.8405 -54.0888 -54.0888
   -31.5114 -31.4917 -31.4819 -31.3836 -31.3835 -31.3780 -31.3714 -31.3505
   -31.3503 -31.3297 -31.3246 -31.3191 -31.3094 -31.2906 -31.2769 -31.2624
   -31.2581 -31.2569 -31.2534 -31.2469 -31.2449 -31.2413 -31.2293 -31.2282
   -31.1989 -31.1981 -31.1808 -31.1788 -31.1787 -31.1699 -31.1697 -31.1637
   -31.1554 -31.1430 -31.1375 -31.1219 -31.1203 -31.1041 -31.0703 -31.0698
   -31.0684 -31.0450 -30.4116 -30.4116 -30.3279 -30.3277 -30.2883 -30.2883
   -18.8044 -17.8188 -15.5315 -15.3928 -15.2537 -15.1500 -15.1351 -15.0815
   -15.0323 -14.9905 -14.9489 -14.9046 -14.8946 -14.8766 -14.8483 -14.8212
   -14.7969 -14.7376 -14.7213 -14.7057 -14.6834 -14.6366 -14.6288 -14.6260
   -14.6189 -14.5726 -14.5700 -14.5452 -14.4764 -14.4744 -14.2875 -13.2196
   -12.5922 -12.5921  -9.7664  -6.5891  -6.3255  -5.4581  -4.9441  -3.4757
    -2.9574  -2.8292  -2.6549  -2.6189  -2.4732  -2.3729  -2.3278  -2.2997
    -2.2458  -2.2002  -2.1401  -2.1249  -2.1066  -2.0478  -2.0224  -2.0037
    -1.9723  -1.9533  -1.9396  -1.9213  -1.9038  -1.8756  -1.8494  -1.8407
    -1.8360  -1.8076  -1.7913  -1.7519  -1.7450  -1.7373  -1.6941  -1.6821
    -1.6557  -1.5990  -1.4919  -1.4816  -1.3292  -1.3269  -1.2944  -1.2472
    -1.2271  -1.2173  -1.1565  -1.1486  -1.1365  -0.9022  -0.8734  -0.8634
    -0.8360  -0.7779  -0.7603  -0.6978  -0.6887  -0.6042  -0.5897  -0.4880
    -0.4732  -0.4199  -0.3322  -0.3242  -0.3122  -0.2003  -0.1515  -0.1139
    -0.0871  -0.0769  -0.0593  -0.0217  -0.0215   0.0685   0.1117   0.1421
     0.1573   0.1872   0.3516   0.4004   0.4096   0.5485   0.5623   0.7123
     0.7737   0.7881   0.8832   0.8972   0.9846   0.9936   1.0332   1.1728
     1.1843   1.2078   1.2546   1.2829   1.3348   1.3400   2.2734   2.2747
     2.3616   2.3618   4.1064   4.2318   4.2382   4.2988   4.4082   4.4414
     4.4875   4.5212   4.5589   4.5614   4.6290

     the Fermi energy is     4.0362 ev

!    total energy              =   -2977.69996310 Ry
     estimated scf accuracy    <       0.00000005 Ry
     smearing contrib. (-TS)   =      -0.03675211 Ry
     internal energy E=F+TS    =   -2977.66321099 Ry

     The total energy is F=E-TS. E is the sum of the following terms:
     one-electron contribution =  -23082.88001179 Ry
     hartree contribution      =   11640.57748242 Ry
     xc contribution           =    -496.62221586 Ry
     ewald contribution        =    8961.25816030 Ry
     electric field correction =       0.00337394 Ry

     convergence has been achieved in  88 iterations

     Forces acting on atoms (cartesian axes, Ry/au):

     atom    1 type  1   force =     0.00017648   -0.00019098    0.09310464
     atom    2 type  1   force =    -0.00010808   -0.00032554   -0.17822959
     atom    3 type  2   force =     0.00002055   -0.00017787   -0.02034618
     atom    4 type  2   force =    -0.00002743   -0.00200492    0.05901353
     atom    5 type  2   force =    -0.01059454   -0.00141729    0.00860539
     atom    6 type  2   force =     0.01185934   -0.00069970    0.00713804
     atom    7 type  1   force =    -0.00089129    0.00312484   -0.01230387
     atom    8 type  1   force =     0.00054607    0.00114009   -0.00449857
     atom    9 type  2   force =    -0.00007539   -0.00037309    0.00014540
     atom   10 type  2   force =    -0.00129272   -0.00050861   -0.00195401
     atom   11 type  2   force =    -0.00022772   -0.00021872   -0.00006329
     atom   12 type  2   force =     0.00061465   -0.00007628   -0.00024641
     atom   13 type  1   force =    -0.00102870   -0.00062903    0.00019955
     atom   14 type  1   force =     0.00011742   -0.00004861    0.00017473
     atom   15 type  2   force =    -0.00027445   -0.00047395   -0.00005065
     atom   16 type  2   force =    -0.00000563   -0.00007757    0.00067358
     atom   17 type  2   force =    -0.00026132    0.00026303    0.00058120
     atom   18 type  2   force =     0.00020427    0.00002822    0.00027730
     atom   19 type  1   force =     0.00019821    0.00003918    0.00060198
     atom   20 type  1   force =    -0.00013477   -0.00033698    0.00020765
     atom   21 type  2   force =     0.00006987   -0.00001576    0.10396730
     atom   22 type  2   force =     0.00006071   -0.00019588   -0.00120196
     atom   23 type  2   force =    -0.07038810   -0.00010914   -0.02688564
     atom   24 type  2   force =     0.07026636    0.00033675   -0.02692559
     atom   25 type  1   force =     0.00000517   -0.00022516    0.09273750
     atom   26 type  1   force =    -0.00019240   -0.00037073   -0.17833871
     atom   27 type  2   force =     0.00010380   -0.00028444   -0.01932334
     atom   28 type  2   force =     0.00003791   -0.00162481    0.05808805
     atom   29 type  2   force =    -0.01067738   -0.00080743    0.00800300
     atom   30 type  2   force =     0.01179692   -0.00047780    0.00653084
     atom   31 type  1   force =    -0.00072303    0.00504278   -0.01492451
     atom   32 type  1   force =     0.00039818   -0.00140414   -0.00477907
     atom   33 type  2   force =    -0.00011097    0.00021718    0.00029505
     atom   34 type  2   force =    -0.00128781    0.00140805   -0.00091196
     atom   35 type  2   force =     0.00018945    0.00014221    0.00001600
     atom   36 type  2   force =     0.00012193   -0.00001165   -0.00011848
     atom   37 type  1   force =    -0.00103194    0.00056754    0.00005466
     atom   38 type  1   force =     0.00014507   -0.00014628   -0.00003781
     atom   39 type  2   force =    -0.00003153   -0.00015916    0.00011149
     atom   40 type  2   force =    -0.00020479    0.00020814    0.00024736
     atom   41 type  2   force =    -0.00000754   -0.00016463    0.00040828
     atom   42 type  2   force =    -0.00013204   -0.00002403    0.00005154
     atom   43 type  1   force =     0.00008692    0.00028957    0.00043003
     atom   44 type  1   force =    -0.00009000    0.00025609   -0.00031493
     atom   45 type  2   force =     0.00004122   -0.00005001    0.10395287
     atom   46 type  2   force =    -0.07037740   -0.00005386   -0.02691115
     atom   47 type  2   force =     0.07028779    0.00037518   -0.02694424
     atom   48 type  3   force =     0.00355976   -0.00008409   -0.00265828
     atom   49 type  3   force =    -0.00056111    0.00043641    0.00187247
     atom   50 type  4   force =    -0.02082048   -0.00135231   -0.00144524
     atom   51 type  5   force =     0.00527570   -0.00415829    0.00117759
     atom   52 type  5   force =     0.00373891    0.00209910   -0.00171183
     atom   53 type  5   force =     0.00965022    0.00295536    0.00298758
     atom   54 type  5   force =     0.00069409   -0.00009641   -0.00013896
     atom   55 type  5   force =     0.00041044    0.00080085    0.00006086
     atom   56 type  5   force =     0.00023884   -0.00022869   -0.00032279
     atom   57 type  2   force =    -0.00035383    0.00064272   -0.00060291
     atom   58 type  5   force =     0.00076589   -0.00044713    0.00014090
     atom   59 type  5   force =     0.00023020   -0.00032235    0.00033364

     Total force =     0.366947     Total SCF correction =     0.000655
  @ DRIVER MODE: Message from server: STATUS
  @ DRIVER MODE: Message from server: GETFORCE
  @ DRIVER MODE: Returning v,forces,stress,ensemble

     Writing output data file ./calc.save/
  @ DRIVER MODE: Message from server: EXIT
  @ DRIVE MODE: Exiting

     General routines

     Parallel routines

   This run was terminated on:  20:58:26  15Sep2021

   JOB DONE.