     Program PWSCF v.6.7GPU starts on 10Sep2021 at 20:49: 5

     R & G space division:  proc/nbgrp/npool/nimage =      10
     Reading input from /storage/home/hcoda1/3/ntian30/research/carbon/CxH_vib/CH2_calc/ads_slab/CH2OH_f/out_0010/pw.inp
Warning: card &CELL ignored
Warning: card   CELL_DYNAMICS='IPI', ignored
Warning: card / ignored

     Current dimensions of program PWSCF are:
     Max number of different atomic species (ntypx) = 10
     Max number of k-points (npk) =  40000
     Max angular momentum in pseudopotentials (lmaxx) =  3
     Presently no symmetry can be used with electric field

     Message from routine cell_base_init:
     DEPRECATED: use true lattice parameter, not A to a.u. conversion factor

     IMPORTANT: XC functional enforced from input :
     Exchange-correlation= BEEF-VDW
                           (   1   4  43  14   2   0   0)
     Any further DFT definition will be discarded
     Please, verify this is what you really want

  @ DRIVER MODE: Connecting to
 qe_1139763_2792042.sched-torque.pace.gatech.edu88etie5e_scratch
  using UNIX socket
  @ DRIVER MODE: Message from server: STATUS
  @ DRIVER MODE: Message from server: INIT
  @ DRIVER MODE: Receiving replica           0          -1
  @ DRIVER MODE: Receiving encoded integer          25
  @ DRIVER MODE:  SCF:  T  FORCE:  T  STRESS:  F  VC:  F  ENSEMBLE:  F
  @ DRIVER MODE:  SCF:  T  FORCE:  T  STRESS:  F  VC:  F  ENSEMBLE:  F

     Using Slab Decomposition

     bravais-lattice index     =            0
     lattice parameter (alat)  =       1.8897  a.u.
     unit-cell volume          =    6658.9804 (a.u.)^3
     number of atoms/cell      =           52
     number of atomic types    =            4
     number of electrons       =       391.00
     number of Kohn-Sham states=          205
     kinetic-energy cutoff     =      29.3995  Ry
     charge density cutoff     =     293.9946  Ry
     scf convergence threshold =      7.3E-08
     mixing beta               =       0.0500
     number of iterations used =            8  plain     mixing
     Exchange-correlation= BEEF-VDW
                           (   1   4  43  14   2   0   0)

     celldm(1)=   1.889726  celldm(2)=   0.000000  celldm(3)=   0.000000
     celldm(4)=   0.000000  celldm(5)=   0.000000  celldm(6)=   0.000000

     crystal axes: (cart. coord. in units of alat)
               a(1) = (   6.579727   0.000000   0.000000 )
               a(2) = (  -0.000775   5.961596   0.000000 )
               a(3) = (   0.000000   0.000000  25.155947 )

     reciprocal axes: (cart. coord. in units 2 pi/alat)
               b(1) = (  0.151982  0.000020  0.000000 )
               b(2) = (  0.000000  0.167740  0.000000 )
               b(3) = (  0.000000  0.000000  0.039752 )

     PseudoPot. # 1 for O  read from file:
     /storage/coda1/p-amedford6/0/shared/rich_project_chbe-medford/medford-share/data/pseudos_module/espresso/nninc/pbe/van/O.UPF
     MD5 check sum: 78c19812648e8988a0fe644b0f25305e
     Pseudo is Ultrasoft, Zval =  6.0
     Generated by new atomic code, or converted to UPF format
     Using radial grid of  737 points,  4 beta functions with:
                l(1) =   0
                l(2) =   0
                l(3) =   1
                l(4) =   1
     Q(r) pseudized with  8 coefficients,  rinner =    0.800   0.800   0.800

     PseudoPot. # 2 for Ti read from file:
     /storage/coda1/p-amedford6/0/shared/rich_project_chbe-medford/medford-share/data/pseudos_module/espresso/nninc/pbe/van/Ti.UPF
     MD5 check sum: 8e4df49b7f0d34bbd5052bf3f5ea0213
     Pseudo is Ultrasoft, Zval = 12.0
     Generated by new atomic code, or converted to UPF format
     Using radial grid of  851 points,  6 beta functions with:
                l(1) =   0
                l(2) =   0
                l(3) =   1
                l(4) =   1
                l(5) =   2
                l(6) =   2
     Q(r) pseudized with  8 coefficients,  rinner =    1.000   1.000   1.000
                                                       1.000   1.000

     PseudoPot. # 3 for H  read from file:
     /storage/coda1/p-amedford6/0/shared/rich_project_chbe-medford/medford-share/data/pseudos_module/espresso/nninc/pbe/van/H.UPF
     MD5 check sum: b5ee9d7bfd3a09ee7748110bda690ff7
     Pseudo is Ultrasoft, Zval =  1.0
     Generated by new atomic code, or converted to UPF format
     Using radial grid of  615 points,  1 beta functions with:
                l(1) =   0
     Q(r) pseudized with  8 coefficients,  rinner =    0.800

     PseudoPot. # 4 for C  read from file:
     /storage/coda1/p-amedford6/0/shared/rich_project_chbe-medford/medford-share/data/pseudos_module/espresso/nninc/pbe/van/C.UPF
     MD5 check sum: 1a69bf6b8db32088f5b2163dbdb77a27
     Pseudo is Ultrasoft, Zval =  4.0
     Generated by new atomic code, or converted to UPF format
     Using radial grid of  721 points,  4 beta functions with:
                l(1) =   0
                l(2) =   0
                l(3) =   1
                l(4) =   1
     Q(r) pseudized with  8 coefficients,  rinner =    0.800   0.800   0.800

     atomic species   valence    mass     pseudopotential
        O1             6.00    15.99900     O ( 1.00)
        Ti1           12.00    47.86700     Ti( 1.00)
        H1             1.00     1.00800     H ( 1.00)
        C1             4.00    12.01100     C ( 1.00)

     No symmetry found

   Cartesian axes

     site n.     atom                  positions (alat units)
         1           O1  tau(   1) = (   3.2904802   0.0005063   4.7018136  )
         2           O1  tau(   2) = (   3.2900926   2.9813045   4.7018136  )
         3           Ti1 tau(   3) = (   0.0004258   2.9801865   6.0000000  )
         4           Ti1 tau(   4) = (   0.0000382   5.9609847   6.0000000  )
         5           Ti1 tau(   5) = (   3.2906075   1.4906267   6.0002472  )
         6           Ti1 tau(   6) = (   3.2902200   4.4714249   6.0002472  )
         7           O1  tau(   7) = (   1.3043587   1.4918075   6.0039043  )
         8           O1  tau(   8) = (   1.3039711   4.4726057   6.0039043  )
         9           O1  tau(   9) = (   5.2767064   1.4903225   6.0039473  )
        10           O1  tau(  10) = (   5.2763189   4.4711207   6.0039473  )
        11           O1  tau(  11) = (   3.2906025   0.0005020   7.3038282  )
        12           O1  tau(  12) = (   3.2902150   2.9813002   7.3038282  )
        13           O1  tau(  13) = (   0.0006271   0.0005054   7.9858123  )
        14           O1  tau(  14) = (   0.0002396   2.9813036   7.9858123  )
        15           Ti1 tau(  15) = (   3.3208325   5.9232416   9.1783542  )
        16           Ti1 tau(  16) = (   3.3324863   2.9377666   9.1648094  )
        17           Ti1 tau(  17) = (   0.0524917   1.4788520   9.2606301  )
        18           Ti1 tau(  18) = (   0.0483789   4.4105323   9.3105966  )
        19           O1  tau(  19) = (   4.5942328   1.4918067   9.2879030  )
        20           O1  tau(  20) = (   4.5938453   4.4726049   9.2879030  )
        21           O1  tau(  21) = (   1.9868534   1.4903216   9.2879459  )
        22           O1  tau(  22) = (   1.9864658   4.4711199   9.2879459  )
        23           O1  tau(  23) = (   6.5712937   0.0017758  10.5841540  )
        24           O1  tau(  24) = (   0.0002036   2.9871675  10.5944109  )
        25           O1  tau(  25) = (   3.2216619   2.9970402  11.3379169  )
        26           O1  tau(  26) = (   3.2239595   0.0054171  11.3328765  )
        27           Ti1 tau(  27) = (   6.5319223   0.0329622  12.4533321  )
        28           Ti1 tau(  28) = (   3.1914638   1.6317768  12.6145244  )
        29           Ti1 tau(  29) = (   3.1843358   4.5420783  12.4476223  )
        30           Ti1 tau(  30) = (   6.4449355   3.0101977  12.6586491  )
        31           O1  tau(  31) = (   5.2440064   1.5124744  12.5792363  )
        32           O1  tau(  32) = (   5.2402295   4.4617308  12.5795526  )
        33           O1  tau(  33) = (   1.2196697   1.4730338  12.6667888  )
        34           O1  tau(  34) = (   1.2190574   4.4979232  12.6669875  )
        35           O1  tau(  35) = (   3.2067865   2.9341989  13.9395670  )
        36           O1  tau(  36) = (   3.3440650   5.9513154  13.9008253  )
        37           O1  tau(  37) = (   6.3267833   5.9539684  14.6370341  )
        38           O1  tau(  38) = (   6.3913104   2.9714873  14.7475579  )
        39           Ti1 tau(  39) = (   3.1260420   2.9476348  15.9752747  )
        40           Ti1 tau(  40) = (   3.1986908   5.9292636  15.6746755  )
        41           Ti1 tau(  41) = (   6.4744102   1.3498976  15.9078779  )
        42           Ti1 tau(  42) = (   6.4721656   4.5656371  15.8700466  )
        43           O1  tau(  43) = (   1.8677001   4.5604514  15.8157410  )
        44           O1  tau(  44) = (   1.8686447   1.3618557  15.8396546  )
        45           O1  tau(  45) = (   4.4008848   1.5192286  16.2292034  )
        46           O1  tau(  46) = (   4.3978686   4.4066597  16.2143399  )
        47           O1  tau(  47) = (   6.4830960   5.9408203  17.1431429  )
        48           O1  tau(  48) = (   0.4828407   2.9769521  17.4917737  )
        49           H1  tau(  49) = (   6.5026766   3.0245448  18.2851392  )
        50           C1  tau(  50) = (   1.9555054   2.9805414  17.9097346  )
        51           H1  tau(  51) = (   2.0761010   2.0893267  18.5304525  )
        52           H1  tau(  52) = (   2.0801140   3.8867162  18.5073456  )

     number of k points=    10  Fermi-Dirac smearing, width (Ry)=  0.0073
                       cart. coord. in units 2pi/alat
        k(    1) = (   0.0000000   0.0000000   0.0000000), wk =   0.1250000
        k(    2) = (   0.0000000   0.0419351   0.0000000), wk =   0.2500000
        k(    3) = (   0.0000000  -0.0838702   0.0000000), wk =   0.1250000
        k(    4) = (   0.0379955   0.0000049   0.0000000), wk =   0.2500000
        k(    5) = (   0.0379955   0.0419400   0.0000000), wk =   0.2500000
        k(    6) = (   0.0379955  -0.0838652   0.0000000), wk =   0.2500000
        k(    7) = (   0.0379955  -0.0419301   0.0000000), wk =   0.2500000
        k(    8) = (  -0.0759910  -0.0000099   0.0000000), wk =   0.1250000
        k(    9) = (  -0.0759910   0.0419252   0.0000000), wk =   0.2500000
        k(   10) = (  -0.0759910  -0.0838800   0.0000000), wk =   0.1250000

     Initial potential from superposition of free atoms

     starting charge  374.99918, renormalised to  391.00000

     negative rho (up, down):  1.928E-02 0.000E+00

     %%%%%%%%%%%%%%%%%%%%%%%%%%%%%%%%%%%%%%%%%%%%%%%%%%%%%%%%%%%%%%%%%%%%%%%%
     %                                                                      %
     % You are using vdW-DF, which was implemented by the Thonhauser group. %
     % Please cite the following two papers that made this development      %
     % possible and the two reviews that describe the various versions:     %
     %                                                                      %
     %   T. Thonhauser et al., PRL 115, 136402 (2015).                      %
     %   T. Thonhauser et al., PRB 76, 125112 (2007).                       %
     %   K. Berland et al., Rep. Prog. Phys. 78, 066501 (2015).             %
     %   D.C. Langreth et al., J. Phys.: Condens. Matter 21, 084203 (2009). %
     %                                                                      %
     %                                                                      %
     % If you are calculating the stress with vdW-DF, please also cite:     %
     %                                                                      %
     %   R. Sabatini et al., J. Phys.: Condens. Matter 24, 424209 (2012).   %
     %                                                                      %
     %%%%%%%%%%%%%%%%%%%%%%%%%%%%%%%%%%%%%%%%%%%%%%%%%%%%%%%%%%%%%%%%%%%%%%%%

     Adding external electric field

     Computed dipole along edir(3) :
        Dipole               -5.2494 Ry au,        -13.3426 Debye
        Dipole field         -0.0099 Ry au,

        Potential amp.        0.9183 Ry
        Total length         46.3494 bohr

     Starting wfcs are  295 atomic wfcs
  @ DRIVER MODE: Message from server: STATUS
  @ DRIVER MODE: Message from server: POSDATA
  @ DRIVER MODE: Reading and sharing cell
  @ DRIVER MODE: Reading and sharing positions
  @ DRIVER MODE: Received positions

     Self-consistent Calculation

     iteration #  1     ecut=    29.40 Ry     beta= 0.05
     Davidson diagonalization with overlap
     c_bands:  1 eigenvalues not converged
     c_bands:  4 eigenvalues not converged
     c_bands:  1 eigenvalues not converged
     c_bands:  2 eigenvalues not converged
     c_bands:  4 eigenvalues not converged
     c_bands:  1 eigenvalues not converged
     c_bands:  1 eigenvalues not converged
     c_bands:  3 eigenvalues not converged
     ethr =  1.00E-05,  avg # of iterations = 19.6

[...]

     total energy              =   -2799.55482415 Ry
     estimated scf accuracy    <    1448.05299840 Ry

     iteration #  2     ecut=    29.40 Ry     beta= 0.05
     Davidson diagonalization with overlap
     ethr =  1.00E-02,  avg # of iterations = 17.0

[...]

     iteration # 58     ecut=    29.40 Ry     beta= 0.05
     Davidson diagonalization with overlap
     c_bands:  1 eigenvalues not converged
     ethr =  1.34E-09,  avg # of iterations =  9.3

[...]

     total energy              =   -2931.32929197 Ry
     estimated scf accuracy    <       0.00000024 Ry

     iteration # 79     ecut=    29.40 Ry     beta= 0.05
     Davidson diagonalization with overlap
     ethr =  2.28E-11,  avg # of iterations =  7.4

     negative rho (up, down):  1.889E-02 0.000E+00

     Adding external electric field

     Computed dipole along edir(3) :
        Dipole                0.9526 Ry au,          2.4212 Debye
        Dipole field          0.0018 Ry au,

        Potential amp.       -0.1666 Ry
        Total length         46.3494 bohr

     End of self-consistent calculation

          k = 0.0000 0.0000 0.0000 ( 18029 PWs)   bands (ev):

   -55.8496 -55.8120 -55.7578 -55.7452 -55.6919 -55.6843 -55.6692 -55.6647
   -55.6344 -55.6155 -55.6137 -55.5880 -55.5813 -55.5643 -54.8244 -54.7904
   -32.3594 -32.3239 -32.2333 -32.2040 -32.1586 -32.1336 -32.1213 -32.0969
   -32.0882 -32.0607 -32.0346 -32.0127 -32.0043 -31.9913 -31.9643 -31.9569
   -31.9459 -31.9345 -31.9161 -31.9136 -31.9089 -31.9032 -31.8756 -31.8573
   -31.8520 -31.8489 -31.8474 -31.8375 -31.8310 -31.8215 -31.8131 -31.8106
   -31.8004 -31.7880 -31.7844 -31.7836 -31.7706 -31.7649 -31.7475 -31.7362
   -31.7171 -31.6437 -31.2317 -31.1423 -31.1198 -31.0486 -30.9623 -30.8509
   -19.5408 -16.5533 -16.3375 -16.1507 -16.0517 -16.0012 -15.8326 -15.7504
   -15.5402 -15.4877 -15.4760 -15.4499 -15.3938 -15.3773 -15.3711 -15.3522
   -15.3405 -15.3156 -15.2561 -15.2472 -15.2390 -15.2041 -15.1466 -15.1166
   -14.9895 -14.9806 -14.9651 -14.9461 -14.8625 -14.7326 -13.3248 -13.2079
    -9.6099  -6.4423  -4.1992  -4.0002  -3.8645  -3.7676  -3.7521  -3.7314
    -3.5696  -3.4953  -3.2707  -3.1386  -3.0874  -3.0202  -2.9799  -2.9181
    -2.8256  -2.7631  -2.7212  -2.6810  -2.6473  -2.6462  -2.6305  -2.5764
    -2.5466  -2.5020  -2.4005  -2.3979  -2.3459  -2.2892  -2.2491  -2.2073
    -2.1659  -2.1505  -2.1298  -2.0933  -2.0602  -2.0502  -2.0174  -1.9874
    -1.9303  -1.8500  -1.8203  -1.5580  -1.4661  -1.3807  -1.3673  -1.2997
    -1.2760  -1.2469  -1.2319  -1.1931  -1.1811  -1.0934  -1.0838  -1.0123
    -0.9710  -0.8899  -0.8295  -0.7528  -0.6898  -0.6307  -0.6089  -0.5799
    -0.5637  -0.5543  -0.3933  -0.3815  -0.3544  -0.2437  -0.2277  -0.1630
    -0.1394  -0.0771  -0.0540   0.0110   0.0690   0.0907   0.1125   0.1487
     0.1592   0.1712   0.2136   0.2954   0.3853   0.3991   0.4164   0.4796
     0.6453   0.7190   0.8226   0.8868   1.1247   1.2001   1.2376   1.2833
     1.3865   1.7739   1.8269   3.2983   3.3677   3.4157   3.4259   3.4647
     3.5467   3.7369   3.7449   3.8033   3.8933

[...]

          k = 0.0380-0.0419 0.0000 ( 17876 PWs)   bands (ev):

[...]

          k =-0.0760-0.0000 0.0000 ( 17886 PWs)   bands (ev):

[...]

          k =-0.0760-0.0839 0.0000 ( 17948 PWs)   bands (ev):

   -55.8387 -55.8227 -55.7535 -55.7386 -55.6984 -55.6882 -55.6657 -55.6593
   -55.6262 -55.6208 -55.5992 -55.5973 -55.5956 -55.5669 -54.8075 -54.8072
   -32.2822 -32.1475 -32.1361 -32.1319 -32.1084 -32.0841 -32.0794 -32.0519
   -32.0204 -32.0029 -31.9931 -31.9893 -31.9765 -31.9669 -31.9650 -31.9600
   -31.9590 -31.9511 -31.9486 -31.9329 -31.9308 -31.9230 -31.8999 -31.8966
   -31.8921 -31.8857 -31.8842 -31.8740 -31.8658 -31.8595 -31.8460 -31.8433
   -31.8338 -31.8249 -31.8228 -31.8132 -31.8101 -31.8080 -31.8062 -31.7941
   -31.7903 -31.6452 -31.1327 -31.1323 -31.0452 -31.0442 -31.0057 -31.0050
   -19.5348 -16.1425 -15.9583 -15.8044 -15.7906 -15.7848 -15.6329 -15.6296
   -15.6046 -15.5681 -15.5352 -15.5172 -15.4793 -15.4751 -15.4319 -15.3804
   -15.3740 -15.3620 -15.3354 -15.2844 -15.2720 -15.2571 -15.1801 -15.1694
   -15.1610 -15.1347 -15.1319 -15.1002 -15.0995 -15.0255 -13.3116 -13.3077
    -9.6104  -6.4257  -4.2054  -3.8652  -3.2828  -3.2095  -3.0169  -3.0021
    -2.9275  -2.8926  -2.8667  -2.8265  -2.7764  -2.7694  -2.7547  -2.6803
    -2.6564  -2.6520  -2.6072  -2.5943  -2.5840  -2.5674  -2.5538  -2.5163
    -2.4934  -2.4692  -2.4461  -2.4308  -2.4090  -2.4003  -2.3956  -2.3500
    -2.3295  -2.2092  -2.1182  -2.0555  -2.0093  -1.9682  -1.9420  -1.9234
    -1.9057  -1.8912  -1.8781  -1.8379  -1.7694  -1.6037  -1.5247  -1.5199
    -1.4569  -1.4365  -1.3846  -1.3664  -1.2904  -1.2619  -1.2120  -1.1988
    -1.1830  -1.0801  -1.0564  -0.9625  -0.9309  -0.8248  -0.8015  -0.7883
    -0.7691  -0.7274  -0.7052  -0.6419  -0.6185  -0.5812  -0.5538  -0.5029
    -0.4578  -0.4409  -0.3432  -0.3021  -0.2484  -0.2011  -0.1344  -0.0250
     0.1536   0.1758   0.2111   0.3155   0.3545   0.4259   0.4823   0.5010
     0.5649   0.6014   0.6454   0.6944   0.7576   0.7941   1.2460   1.5617
     1.5702   1.6347   1.6463   3.6007   3.6497   3.7693   3.7823   3.8121
     3.8226   3.8359   3.8510   3.9005   3.9544

     the Fermi energy is     3.2916 ev

!    total energy              =   -2931.32929846 Ry
     estimated scf accuracy    <       0.00000004 Ry
     smearing contrib. (-TS)   =      -0.02172856 Ry
     internal energy E=F+TS    =   -2931.30756989 Ry

     The total energy is F=E-TS. E is the sum of the following terms:
     one-electron contribution =  -24944.46703530 Ry
     hartree contribution      =   12558.63878328 Ry
     xc contribution           =    -482.04068530 Ry
     ewald contribution        =    9936.55965504 Ry
     electric field correction =       0.00171238 Ry

     convergence has been achieved in  79 iterations

     Forces acting on atoms (cartesian axes, Ry/au):

     atom    1 type  1   force =    -0.00001216    0.00009994    0.10311371
     atom    2 type  1   force =     0.00000633    0.00011172    0.10344413
     atom    3 type  2   force =    -0.00029152    0.00098719    0.09592298
     atom    4 type  2   force =    -0.00015018   -0.00100317    0.10946283
     atom    5 type  2   force =    -0.00014757   -0.00319241   -0.17643515
     atom    6 type  2   force =    -0.00014385    0.00267396   -0.17603577
     atom    7 type  1   force =    -0.07086433    0.00113705   -0.02853906
     atom    8 type  1   force =    -0.07121125   -0.00152516   -0.02856645
     atom    9 type  1   force =     0.07071074    0.00155184   -0.02856715
     atom   10 type  1   force =     0.07093302   -0.00114822   -0.02861280
     atom   11 type  1   force =     0.00048750   -0.00020871    0.05106306
     atom   12 type  1   force =     0.00072369   -0.00042175    0.05033675
     atom   13 type  1   force =     0.00061386    0.00264984   -0.02979846
     atom   14 type  1   force =     0.00055800   -0.00111973   -0.02626963
     atom   15 type  2   force =     0.00019750   -0.00146232   -0.00050859
     atom   16 type  2   force =    -0.00010211    0.00157046   -0.00009980
     atom   17 type  2   force =    -0.00007969   -0.00004008    0.00029973
     atom   18 type  2   force =     0.00008788    0.00060276    0.00040962
     atom   19 type  1   force =    -0.01649416    0.00013358    0.00404576
     atom   20 type  1   force =    -0.01694493   -0.00138228    0.00404651
     atom   21 type  1   force =     0.01272759    0.00185826    0.00029057
     atom   22 type  1   force =     0.01237696    0.00142420    0.00045655
     atom   23 type  1   force =     0.00020268   -0.00009454   -0.00059055
     atom   24 type  1   force =     0.00017548   -0.00040711   -0.00046750
     atom   25 type  1   force =     0.00035499   -0.00003707   -0.00000244
     atom   26 type  1   force =     0.00006909   -0.00044391   -0.00066765
     atom   27 type  2   force =    -0.00001632   -0.00059858   -0.00025940
     atom   28 type  2   force =     0.00016478    0.00006508   -0.00029790
     atom   29 type  2   force =    -0.00012165   -0.00111271    0.00031583
     atom   30 type  2   force =     0.00035800    0.00034845    0.00019229
     atom   31 type  1   force =     0.00013824    0.00005917   -0.00007176
     atom   32 type  1   force =    -0.00010390   -0.00034699    0.00039097
     atom   33 type  1   force =     0.00024188   -0.00016855   -0.00013616
     atom   34 type  1   force =     0.00050782   -0.00037515    0.00024921
     atom   35 type  1   force =    -0.00011431    0.00014537    0.00175745
     atom   36 type  1   force =     0.00034705    0.00014371    0.00033811
     atom   37 type  1   force =     0.00014856    0.00005176   -0.00007654
     atom   38 type  1   force =     0.00043423   -0.00039737    0.00012432
     atom   39 type  2   force =     0.00043043    0.00131048   -0.00082660
     atom   40 type  2   force =     0.00044430   -0.00028843    0.00005648
     atom   41 type  2   force =    -0.00002416   -0.00077316    0.00053174
     atom   42 type  2   force =     0.00028372    0.00047966   -0.00018497
     atom   43 type  1   force =     0.00102391    0.00017320   -0.00001652
     atom   44 type  1   force =     0.00056595   -0.00008011    0.00006303
     atom   45 type  1   force =     0.00009868   -0.00002954    0.00001707
     atom   46 type  1   force =     0.00043586   -0.00027108    0.00024969
     atom   47 type  1   force =     0.00052370    0.00027191   -0.00037609
     atom   48 type  1   force =    -0.00035808    0.00036828    0.00070633
     atom   49 type  3   force =     0.00062551   -0.00086783   -0.00064398
     atom   50 type  4   force =    -0.00046416   -0.00053989    0.00023205
     atom   51 type  3   force =     0.00036492    0.00001070    0.00007207
     atom   52 type  3   force =     0.00028148    0.00010726   -0.00013791

     Total force =     0.368400     Total SCF correction =     0.000547
  @ DRIVER MODE: Message from server: STATUS
  @ DRIVER MODE: Message from server: GETFORCE
  @ DRIVER MODE: Returning v,forces,stress,ensemble

     Writing output data file ./calc.save/
  @ DRIVER MODE: Message from server: EXIT
  @ DRIVE MODE: Exiting

     General routines

     Parallel routines

   This run was terminated on:  21: 9:26  10Sep2021

   JOB DONE.