     Program PWSCF v.6.7GPU starts on  9Sep2021 at  3:12:30

     R & G space division:  proc/nbgrp/npool/nimage =      10
     Reading input from /storage/home/hcoda1/3/ntian30/research/carbon/CxH_vib/CH3_calc/ads_slab/CH3NNHHH_a/out_0016/pw.inp
Warning: card &CELL ignored
Warning: card   CELL_DYNAMICS='IPI', ignored
Warning: card / ignored

     Current dimensions of program PWSCF are:
     Max number of different atomic species (ntypx) = 10
     Max number of k-points (npk) =  40000
     Max angular momentum in pseudopotentials (lmaxx) =  3
     Presently no symmetry can be used with electric field

     Message from routine cell_base_init:
     DEPRECATED: use true lattice parameter, not A to a.u. conversion factor

     IMPORTANT: XC functional enforced from input :
     Exchange-correlation= BEEF-VDW
                           (   1   4  43  14   2   0   0)
     Any further DFT definition will be discarded
     Please, verify this is what you really want

  @ DRIVER MODE: Connecting to
 qe_1139763_2767399.sched-torque.pace.gatech.edunuozmje0_scratch
  using UNIX socket
  @ DRIVER MODE: Message from server: STATUS
  @ DRIVER MODE: Message from server: INIT
  @ DRIVER MODE: Receiving replica           0          -1
  @ DRIVER MODE: Receiving encoded integer          25
  @ DRIVER MODE:  SCF:  T  FORCE:  T  STRESS:  F  VC:  F  ENSEMBLE:  F
  @ DRIVER MODE:  SCF:  T  FORCE:  T  STRESS:  F  VC:  F  ENSEMBLE:  F

     Using Slab Decomposition

     bravais-lattice index     =            0
     lattice parameter (alat)  =       1.8897  a.u.
     unit-cell volume          =    6658.9804 (a.u.)^3
     number of atoms/cell      =           56
     number of atomic types    =            5
     number of electrons       =       398.00
     number of Kohn-Sham states=          209
     kinetic-energy cutoff     =      29.3995  Ry
     charge density cutoff     =     293.9946  Ry
     scf convergence threshold =      7.3E-08
     mixing beta               =       0.0500
     number of iterations used =            8  plain     mixing
     Exchange-correlation= BEEF-VDW
                           (   1   4  43  14   2   0   0)

     celldm(1)=   1.889726  celldm(2)=   0.000000  celldm(3)=   0.000000
     celldm(4)=   0.000000  celldm(5)=   0.000000  celldm(6)=   0.000000

     crystal axes: (cart. coord. in units of alat)
               a(1) = (   6.579727   0.000000   0.000000 )
               a(2) = (  -0.000775   5.961596   0.000000 )
               a(3) = (   0.000000   0.000000  25.155947 )

     reciprocal axes: (cart. coord. in units 2 pi/alat)
               b(1) = (  0.151982  0.000020  0.000000 )
               b(2) = (  0.000000  0.167740  0.000000 )
               b(3) = (  0.000000  0.000000  0.039752 )

     PseudoPot. # 1 for Ti read from file:
     /storage/coda1/p-amedford6/0/shared/rich_project_chbe-medford/medford-share/data/pseudos_module/espresso/nninc/pbe/van/Ti.UPF
     MD5 check sum: 8e4df49b7f0d34bbd5052bf3f5ea0213
     Pseudo is Ultrasoft, Zval = 12.0
     Generated by new atomic code, or converted to UPF format
     Using radial grid of  851 points,  6 beta functions with:
                l(1) =   0
                l(2) =   0
                l(3) =   1
                l(4) =   1
                l(5) =   2
                l(6) =   2
     Q(r) pseudized with  8 coefficients,  rinner =    1.000   1.000   1.000
                                                       1.000   1.000

     PseudoPot. # 2 for O  read from file:
     /storage/coda1/p-amedford6/0/shared/rich_project_chbe-medford/medford-share/data/pseudos_module/espresso/nninc/pbe/van/O.UPF
     MD5 check sum: 78c19812648e8988a0fe644b0f25305e
     Pseudo is Ultrasoft, Zval =  6.0
     Generated by new atomic code, or converted to UPF format
     Using radial grid of  737 points,  4 beta functions with:
                l(1) =   0
                l(2) =   0
                l(3) =   1
                l(4) =   1
     Q(r) pseudized with  8 coefficients,  rinner =    0.800   0.800   0.800

     PseudoPot. # 3 for N  read from file:
     /storage/coda1/p-amedford6/0/shared/rich_project_chbe-medford/medford-share/data/pseudos_module/espresso/nninc/pbe/van/N.UPF
     MD5 check sum: 90d10febe142ad51ac9d5be1deb811c4
     Pseudo is Ultrasoft, Zval =  5.0
     Generated by new atomic code, or converted to UPF format
     Using radial grid of  729 points,  4 beta functions with:
                l(1) =   0
                l(2) =   0
                l(3) =   1
                l(4) =   1
     Q(r) pseudized with  8 coefficients,  rinner =    0.800   0.800   0.800

     PseudoPot. # 4 for C  read from file:
     /storage/coda1/p-amedford6/0/shared/rich_project_chbe-medford/medford-share/data/pseudos_module/espresso/nninc/pbe/van/C.UPF
     MD5 check sum: 1a69bf6b8db32088f5b2163dbdb77a27
     Pseudo is Ultrasoft, Zval =  4.0
     Generated by new atomic code, or converted to UPF format
     Using radial grid of  721 points,  4 beta functions with:
                l(1) =   0
                l(2) =   0
                l(3) =   1
                l(4) =   1
     Q(r) pseudized with  8 coefficients,  rinner =    0.800   0.800   0.800

     PseudoPot. # 5 for H  read from file:
     /storage/coda1/p-amedford6/0/shared/rich_project_chbe-medford/medford-share/data/pseudos_module/espresso/nninc/pbe/van/H.UPF
     MD5 check sum: b5ee9d7bfd3a09ee7748110bda690ff7
     Pseudo is Ultrasoft, Zval =  1.0
     Generated by new atomic code, or converted to UPF format
     Using radial grid of  615 points,  1 beta functions with:
                l(1) =   0
     Q(r) pseudized with  8 coefficients,  rinner =    0.800

     atomic species   valence    mass     pseudopotential
        Ti1           12.00    47.86700     Ti( 1.00)
        O1             6.00    15.99900     O ( 1.00)
        N1             5.00    14.00700     N ( 1.00)
        C1             4.00    12.01100     C ( 1.00)
        H1             1.00     1.00800     H ( 1.00)

     No symmetry found

   Cartesian axes

     site n.     atom                  positions (alat units)
         1           Ti1 tau(   1) = (   0.0004258   2.9801865   6.0000000  )
         2           Ti1 tau(   2) = (   3.2906075   1.4906267   6.0002472  )
         3           O1  tau(   3) = (   0.0006271   0.0005054   7.9858123  )
         4           O1  tau(   4) = (   3.2906025   0.0005020   7.3038282  )
         5           O1  tau(   5) = (   4.5942328   1.4918067   9.2879030  )
         6           O1  tau(   6) = (   1.9868534   1.4903216   9.2879459  )
         7           Ti1 tau(   7) = (   3.2907910   2.8959150   9.1758416  )
         8           Ti1 tau(   8) = (   0.0015273   1.4827037   9.2680791  )
         9           O1  tau(   9) = (   3.3120675   0.0079458  11.3762204  )
        10           O1  tau(  10) = (   0.0116148   5.9584955  10.6183126  )
        11           O1  tau(  11) = (   1.3148726   1.5133626  12.6447579  )
        12           O1  tau(  12) = (   5.3140862   1.5122126  12.6508301  )
        13           Ti1 tau(  13) = (   0.0289753   2.9995974  12.5105963  )
        14           Ti1 tau(  14) = (   3.3300932   1.5144954  12.5190352  )
        15           O1  tau(  15) = (   0.0303621   0.0967028  14.6836000  )
        16           O1  tau(  16) = (   3.3188409   0.0235386  14.0025835  )
        17           O1  tau(  17) = (   4.5661268   1.5053193  16.2317874  )
        18           O1  tau(  18) = (   2.0488868   1.5039614  16.2002260  )
        19           Ti1 tau(  19) = (   3.3211226   2.9745325  15.7560014  )
        20           Ti1 tau(  20) = (   0.0641794   1.4487855  16.0607878  )
        21           O1  tau(  21) = (   3.2904802   0.0005063   4.7018136  )
        22           O1  tau(  22) = (   0.0207051   5.8381987  17.2232637  )
        23           O1  tau(  23) = (   1.3043587   1.4918075   6.0039043  )
        24           O1  tau(  24) = (   5.2767064   1.4903225   6.0039473  )
        25           Ti1 tau(  25) = (   0.0000382   5.9609847   6.0000000  )
        26           Ti1 tau(  26) = (   3.2902200   4.4714249   6.0002472  )
        27           O1  tau(  27) = (   0.0002396   2.9813036   7.9858123  )
        28           O1  tau(  28) = (   3.2902150   2.9813002   7.3038282  )
        29           O1  tau(  29) = (   4.5938453   4.4726049   9.2879030  )
        30           O1  tau(  30) = (   1.9864658   4.4711199   9.2879459  )
        31           Ti1 tau(  31) = (   3.2891106   5.8743827   9.1763621  )
        32           Ti1 tau(  32) = (   0.0006254   4.4649316   9.2693709  )
        33           O1  tau(  33) = (   3.3137607   3.0039157  11.3695003  )
        34           O1  tau(  34) = (   0.0092240   2.9805883  10.6323155  )
        35           O1  tau(  35) = (   1.3103219   4.4840529  12.6837359  )
        36           O1  tau(  36) = (   5.3166572   4.4842854  12.6901167  )
        37           Ti1 tau(  37) = (   0.0376818   0.0300362  12.4998423  )
        38           Ti1 tau(  38) = (   3.3279277   4.4933691  12.5326681  )
        39           O1  tau(  39) = (   0.0236785   2.9473731  14.9547601  )
        40           O1  tau(  40) = (   3.3158584   2.9778716  13.9675922  )
        41           O1  tau(  41) = (   4.5769684   4.4551829  16.1482216  )
        42           O1  tau(  42) = (   2.0574928   4.4544973  16.1629196  )
        43           Ti1 tau(  43) = (   3.3270828   0.0048838  15.7999907  )
        44           Ti1 tau(  44) = (   0.0216784   4.6657176  15.8371636  )
        45           O1  tau(  45) = (   3.2900926   2.9813045   4.7018136  )
        46           O1  tau(  46) = (   1.3039711   4.4726057   6.0039043  )
        47           O1  tau(  47) = (   5.2763189   4.4711207   6.0039473  )
        48           N1  tau(  48) = (   1.0300599   3.1028741  18.8625222  )
        49           N1  tau(  49) = (   6.4529598   2.6395754  18.1308714  )
        50           C1  tau(  50) = (   0.6566364   3.8175245  20.0867497  )
        51           H1  tau(  51) = (   6.5334193   4.6337433  19.9095685  )
        52           H1  tau(  52) = (   0.2127083   3.1054723  20.7945791  )
        53           H1  tau(  53) = (   1.5644534   4.2160081  20.5287796  )
        54           H1  tau(  54) = (   5.6912064   3.3271340  18.1715891  )
        55           H1  tau(  55) = (   6.1153184   1.7991689  18.5966666  )
        56           H1  tau(  56) = (   1.4989484   3.7555826  18.2384742  )

     number of k points=    10  Fermi-Dirac smearing, width (Ry)=  0.0073
                       cart. coord. in units 2pi/alat
        k(    1) = (   0.0000000   0.0000000   0.0000000), wk =   0.1250000
        k(    2) = (   0.0000000   0.0419351   0.0000000), wk =   0.2500000
        k(    3) = (   0.0000000  -0.0838702   0.0000000), wk =   0.1250000
        k(    4) = (   0.0379955   0.0000049   0.0000000), wk =   0.2500000
        k(    5) = (   0.0379955   0.0419400   0.0000000), wk =   0.2500000
        k(    6) = (   0.0379955  -0.0838652   0.0000000), wk =   0.2500000
        k(    7) = (   0.0379955  -0.0419301   0.0000000), wk =   0.2500000
        k(    8) = (  -0.0759910  -0.0000099   0.0000000), wk =   0.1250000
        k(    9) = (  -0.0759910   0.0419252   0.0000000), wk =   0.2500000
        k(   10) = (  -0.0759910  -0.0838800   0.0000000), wk =   0.1250000

     Initial potential from superposition of free atoms

     starting charge  381.99914, renormalised to  398.00000

     negative rho (up, down):  1.340E-02 0.000E+00

     %%%%%%%%%%%%%%%%%%%%%%%%%%%%%%%%%%%%%%%%%%%%%%%%%%%%%%%%%%%%%%%%%%%%%%%%
     %                                                                      %
     % You are using vdW-DF, which was implemented by the Thonhauser group. %
     % Please cite the following two papers that made this development      %
     % possible and the two reviews that describe the various versions:     %
     %                                                                      %
     %   T. Thonhauser et al., PRL 115, 136402 (2015).                      %
     %   T. Thonhauser et al., PRB 76, 125112 (2007).                       %
     %   K. Berland et al., Rep. Prog. Phys. 78, 066501 (2015).             %
     %   D.C. Langreth et al., J. Phys.: Condens. Matter 21, 084203 (2009). %
     %                                                                      %
     %                                                                      %
     % If you are calculating the stress with vdW-DF, please also cite:     %
     %                                                                      %
     %   R. Sabatini et al., J. Phys.: Condens. Matter 24, 424209 (2012).   %
     %                                                                      %
     %%%%%%%%%%%%%%%%%%%%%%%%%%%%%%%%%%%%%%%%%%%%%%%%%%%%%%%%%%%%%%%%%%%%%%%%

     Adding external electric field

     Computed dipole along edir(3) :
        Dipole              -11.7464 Ry au,        -29.8564 Debye
        Dipole field         -0.0222 Ry au,

        Potential amp.        2.0549 Ry
        Total length         46.3494 bohr

     Starting wfcs are  302 atomic wfcs
  @ DRIVER MODE: Message from server: STATUS
  @ DRIVER MODE: Message from server: POSDATA
  @ DRIVER MODE: Reading and sharing cell
  @ DRIVER MODE: Reading and sharing positions
  @ DRIVER MODE: Received positions

     Self-consistent Calculation

     iteration #  1     ecut=    29.40 Ry     beta= 0.05
     Davidson diagonalization with overlap
     c_bands:  1 eigenvalues not converged
     c_bands:  1 eigenvalues not converged
     c_bands:  1 eigenvalues not converged
     c_bands:  3 eigenvalues not converged
     c_bands:  3 eigenvalues not converged
     c_bands:  3 eigenvalues not converged
     c_bands:  4 eigenvalues not converged
     c_bands:  2 eigenvalues not converged
     ethr =  1.00E-05,  avg # of iterations = 21.6

[...]

     total energy              =   -2428.08980315 Ry
     estimated scf accuracy    <    5789.75307941 Ry

     iteration #  2     ecut=    29.40 Ry     beta= 0.05
     Davidson diagonalization with overlap
     ethr =  1.00E-02,  avg # of iterations = 22.8

[...]

     iteration # 70     ecut=    29.40 Ry     beta= 0.05
     Davidson diagonalization with overlap
     c_bands:  1 eigenvalues not converged
     c_bands:  1 eigenvalues not converged
     ethr =  6.94E-11,  avg # of iterations = 15.6

[...]

     total energy              =   -2942.85959025 Ry
     estimated scf accuracy    <       0.00000012 Ry

     iteration # 72     ecut=    29.40 Ry     beta= 0.05
     Davidson diagonalization with overlap
     ethr =  2.91E-11,  avg # of iterations = 11.3

     negative rho (up, down):  1.464E-02 0.000E+00

     Adding external electric field

     Computed dipole along edir(3) :
        Dipole                1.2214 Ry au,          3.1046 Debye
        Dipole field          0.0023 Ry au,

        Potential amp.       -0.2137 Ry
        Total length         46.3494 bohr

     End of self-consistent calculation

          k = 0.0000 0.0000 0.0000 ( 18029 PWs)   bands (ev):

   -55.3493 -55.3124 -55.3014 -55.2703 -55.2673 -55.2331 -55.2260 -55.1907
   -55.1697 -55.1456 -55.1352 -55.1331 -55.0995 -55.0273 -54.3311 -54.2971
   -31.9178 -31.8020 -31.7938 -31.7146 -31.6649 -31.6591 -31.6521 -31.6388
   -31.5907 -31.5900 -31.5588 -31.5533 -31.5465 -31.5304 -31.5192 -31.5116
   -31.5046 -31.4893 -31.4867 -31.4668 -31.4540 -31.4461 -31.4192 -31.4152
   -31.4042 -31.4017 -31.4006 -31.3724 -31.3586 -31.3566 -31.3515 -31.3320
   -31.3290 -31.3205 -31.3195 -31.3175 -31.2834 -31.2691 -31.2614 -31.2444
   -31.2336 -31.2091 -30.7406 -30.6462 -30.6241 -30.5569 -30.4701 -30.3592
   -17.7855 -16.1854 -15.9177 -15.7777 -15.6679 -15.5490 -15.4305 -15.4110
   -15.2789 -15.1961 -15.0760 -15.0530 -15.0264 -15.0076 -14.9951 -14.9802
   -14.8946 -14.8887 -14.8712 -14.8439 -14.8375 -14.7949 -14.7875 -14.7477
   -14.7261 -14.7249 -14.5964 -14.5088 -14.4370 -14.2009 -13.1635 -12.8339
   -12.7165  -9.7356  -6.3666  -5.3843  -4.8672  -3.5508  -3.5079  -3.3693
    -3.2824  -3.2651  -3.2422  -3.1060  -2.9524  -2.7824  -2.7667  -2.7448
    -2.6389  -2.5614  -2.5553  -2.5305  -2.3791  -2.3573  -2.3064  -2.2408
    -2.2133  -2.1644  -2.1541  -2.1331  -2.1138  -2.0935  -2.0855  -1.9717
    -1.9208  -1.8281  -1.7723  -1.7450  -1.7093  -1.6814  -1.6662  -1.6390
    -1.6309  -1.5884  -1.5612  -1.5396  -1.4883  -1.3764  -1.2673  -1.2372
    -1.1399  -0.9876  -0.9513  -0.9416  -0.9299  -0.8537  -0.8366  -0.7887
    -0.7358  -0.7276  -0.6967  -0.5859  -0.5273  -0.4624  -0.3959  -0.3843
    -0.3374  -0.2757  -0.1631  -0.1391  -0.1165  -0.0915   0.0024   0.0418
     0.0868   0.1616   0.1808   0.1944   0.3012   0.3088   0.3890   0.4011
     0.4466   0.5332   0.5675   0.5898   0.5936   0.6072   0.6371   0.7042
     0.7285   0.7548   0.8299   0.9537   1.0167   1.1858   1.2489   1.2624
     1.5922   1.5963   1.6914   1.8752   2.2677   2.3159   3.7481   3.8176
     3.8926   3.8992   3.9111   3.9849   4.2221   4.2382   4.2508   4.2570
     4.2917

[...]

          k = 0.0380-0.0419 0.0000 ( 17876 PWs)   bands (ev):

[...]

          k =-0.0760-0.0000 0.0000 ( 17886 PWs)   bands (ev):

[...]

          k =-0.0760-0.0839 0.0000 ( 17948 PWs)   bands (ev):

   -55.3351 -55.3264 -55.2843 -55.2843 -55.2688 -55.2297 -55.2125 -55.2042
   -55.1541 -55.1504 -55.1489 -55.1166 -55.1162 -55.0285 -54.3141 -54.3140
   -31.7250 -31.7221 -31.7185 -31.6347 -31.6089 -31.6089 -31.6062 -31.5759
   -31.5758 -31.5577 -31.5503 -31.5478 -31.5418 -31.5119 -31.5049 -31.4870
   -31.4866 -31.4828 -31.4793 -31.4741 -31.4709 -31.4702 -31.4331 -31.4280
   -31.4259 -31.4212 -31.4169 -31.4058 -31.4041 -31.4040 -31.3971 -31.3876
   -31.3835 -31.3671 -31.3638 -31.3476 -31.3470 -31.3374 -31.2974 -31.2972
   -31.2869 -31.2383 -30.6368 -30.6367 -30.5531 -30.5530 -30.5135 -30.5134
   -17.7807 -15.7088 -15.5968 -15.5506 -15.3775 -15.3552 -15.3326 -15.3178
   -15.1898 -15.1714 -15.1434 -15.1170 -15.0918 -15.0644 -15.0532 -15.0482
   -14.9658 -14.9539 -14.9465 -14.9304 -14.8625 -14.8595 -14.8553 -14.8494
   -14.7986 -14.7960 -14.7153 -14.7022 -14.7007 -14.5033 -13.1645 -12.8180
   -12.8179  -9.7321  -6.3539  -5.3845  -4.8733  -3.4969  -2.8653  -2.8301
    -2.8063  -2.7723  -2.5929  -2.5549  -2.5180  -2.5054  -2.4064  -2.3642
    -2.3465  -2.3390  -2.2689  -2.2657  -2.2342  -2.2047  -2.1836  -2.1666
    -2.1527  -2.1309  -2.1056  -2.0767  -2.0707  -2.0552  -2.0014  -1.9985
    -1.9819  -1.9610  -1.9433  -1.9214  -1.9058  -1.8491  -1.7271  -1.7168
    -1.6625  -1.5563  -1.5518  -1.4715  -1.4664  -1.4222  -1.3944  -1.3825
    -1.3549  -1.1752  -1.1215  -1.0953  -1.0878  -1.0751  -0.9675  -0.9333
    -0.8754  -0.8595  -0.8334  -0.7356  -0.6851  -0.6807  -0.5987  -0.5676
    -0.5283  -0.4864  -0.3857  -0.3559  -0.3356  -0.3071  -0.3037  -0.2502
    -0.2448  -0.1681  -0.1202  -0.0842  -0.0698  -0.0387   0.1611   0.1703
     0.1886   0.3355   0.3584   0.4985   0.5424   0.5845   0.6452   0.6967
     0.7627   0.8034   0.9299   0.9581   0.9587   1.0287   1.0465   1.0509
     1.1073   1.1092   2.0478   2.0485   2.1358   2.1360   3.8911   3.9957
     4.0105   4.0559   4.1657   4.2395   4.2627   4.2896   4.3324   4.3354
     4.3997

     the Fermi energy is     3.8109 ev

!    total energy              =   -2942.85960616 Ry
     estimated scf accuracy    <       0.00000006 Ry
     smearing contrib. (-TS)   =      -0.03701503 Ry
     internal energy E=F+TS    =   -2942.82259114 Ry

     The total energy is F=E-TS. E is the sum of the following terms:
     one-electron contribution =  -23389.39407693 Ry
     hartree contribution      =   11787.23918394 Ry
     xc contribution           =    -487.75568692 Ry
     ewald contribution        =    9147.08517332 Ry
     electric field correction =       0.00281546 Ry

     convergence has been achieved in  72 iterations

     Forces acting on atoms (cartesian axes, Ry/au):

     atom    1 type  1   force =     0.00000442   -0.00026825    0.09309984
     atom    2 type  1   force =    -0.00014792   -0.00042880   -0.17825164
     atom    3 type  2   force =     0.00007418   -0.00009271   -0.02026894
     atom    4 type  2   force =     0.00001644   -0.00186673    0.05880921
     atom    5 type  2   force =    -0.01020109   -0.00054433    0.00773643
     atom    6 type  2   force =     0.01225372    0.00007340    0.00819548
     atom    7 type  1   force =     0.00039160    0.00327657   -0.01426407
     atom    8 type  1   force =    -0.00045630    0.00046068   -0.00457221
     atom    9 type  2   force =    -0.00002641   -0.00061690   -0.00036787
     atom   10 type  2   force =    -0.00059689    0.00090854   -0.00142135
     atom   11 type  2   force =    -0.00037391   -0.00011717    0.00023635
     atom   12 type  2   force =     0.00006514   -0.00006212    0.00004468
     atom   13 type  1   force =     0.00005255   -0.00031917    0.00018590
     atom   14 type  1   force =    -0.00036418    0.00013578    0.00041519
     atom   15 type  2   force =    -0.00015825    0.00080255    0.00024291
     atom   16 type  2   force =    -0.00008636   -0.00018634    0.00030532
     atom   17 type  2   force =    -0.00044023    0.00005617    0.00042726
     atom   18 type  2   force =     0.00013362   -0.00020694   -0.00008348
     atom   19 type  1   force =     0.00029968    0.00029608    0.00090813
     atom   20 type  1   force =    -0.00061359   -0.00066451    0.00028719
     atom   21 type  2   force =     0.00000413   -0.00010407    0.10393534
     atom   22 type  2   force =    -0.00022001    0.00003042   -0.00056041
     atom   23 type  2   force =    -0.07036329   -0.00022178   -0.02685974
     atom   24 type  2   force =     0.07026241    0.00020487   -0.02694231
     atom   25 type  1   force =     0.00002227   -0.00026857    0.09276069
     atom   26 type  1   force =    -0.00011931   -0.00045169   -0.17828653
     atom   27 type  2   force =     0.00013934   -0.00032900   -0.01929351
     atom   28 type  2   force =     0.00008225   -0.00155362    0.05820330
     atom   29 type  2   force =    -0.01020433   -0.00033263    0.00695460
     atom   30 type  2   force =     0.01215491   -0.00008981    0.00748947
     atom   31 type  1   force =     0.00040043    0.00495813   -0.01540138
     atom   32 type  1   force =    -0.00037439   -0.00033748   -0.00468134
     atom   33 type  2   force =    -0.00021826   -0.00047916    0.00016394
     atom   34 type  2   force =    -0.00014146    0.00364245   -0.00060569
     atom   35 type  2   force =     0.00003542   -0.00057065    0.00032480
     atom   36 type  2   force =    -0.00019228   -0.00053803   -0.00002584
     atom   37 type  1   force =    -0.00025734   -0.00049472    0.00049828
     atom   38 type  1   force =    -0.00019811   -0.00090821    0.00045225
     atom   39 type  2   force =    -0.00048052   -0.00052744    0.00052929
     atom   40 type  2   force =     0.00001688   -0.00048813   -0.00042403
     atom   41 type  2   force =    -0.00078307   -0.00012248   -0.00010383
     atom   42 type  2   force =     0.00033090   -0.00022615   -0.00038723
     atom   43 type  1   force =     0.00001743   -0.00032887   -0.00007102
     atom   44 type  1   force =    -0.00003650   -0.00068641    0.00068997
     atom   45 type  2   force =     0.00001042   -0.00014563    0.10392507
     atom   46 type  2   force =    -0.07041320   -0.00018755   -0.02687668
     atom   47 type  2   force =     0.07027814    0.00025396   -0.02694394
     atom   48 type  3   force =     0.00072839    0.00531407    0.00207451
     atom   49 type  3   force =    -0.00001125    0.00156445    0.00025531
     atom   50 type  4   force =    -0.00314792   -0.01938362    0.00176429
     atom   51 type  5   force =    -0.00462446    0.00674124   -0.00135462
     atom   52 type  5   force =     0.00265748    0.00588397   -0.00342242
     atom   53 type  5   force =     0.00411410    0.00322588    0.00227090
     atom   54 type  5   force =     0.00002614   -0.00072928   -0.00060940
     atom   55 type  5   force =     0.00052490   -0.00172415   -0.00023064
     atom   56 type  5   force =     0.00015354   -0.00122613   -0.00087582

     Total force =     0.366909     Total SCF correction =     0.000583
  @ DRIVER MODE: Message from server: STATUS
  @ DRIVER MODE: Message from server: GETFORCE
  @ DRIVER MODE: Returning v,forces,stress,ensemble

     Writing output data file ./calc.save/
  @ DRIVER MODE: Message from server: EXIT
  @ DRIVE MODE: Exiting

     General routines

     Parallel routines

   This run was terminated on:   3:32:11   9Sep2021

   JOB DONE.