     Program PWSCF v.6.7GPU starts on 28Sep2021 at 22:12:26

     R & G space division:  proc/nbgrp/npool/nimage =       8
     Reading input from /storage/home/hcoda1/3/ntian30/research/carbon/CxH_vib/H2O_calc/ads_slab/CHNHNH2HO_b/out_0028/pw.inp
Warning: card &CELL ignored
Warning: card   CELL_DYNAMICS='IPI', ignored
Warning: card / ignored

     Current dimensions of program PWSCF are:
     Max number of different atomic species (ntypx) = 10
     Max number of k-points (npk) =  40000
     Max angular momentum in pseudopotentials (lmaxx) =  3
     Presently no symmetry can be used with electric field

     Message from routine cell_base_init:
     DEPRECATED: use true lattice parameter, not A to a.u. conversion factor

     IMPORTANT: XC functional enforced from input :
     Exchange-correlation= BEEF-VDW
                           (   1   4  43  14   2   0   0)
     Any further DFT definition will be discarded
     Please, verify this is what you really want

  @ DRIVER MODE: Connecting to
 qe_1139763_3009830.sched-torque.pace.gatech.eduqmrtkwm8_scratch
  using UNIX socket
  @ DRIVER MODE: Message from server: STATUS
  @ DRIVER MODE: Message from server: INIT
  @ DRIVER MODE: Receiving replica           0          -1
  @ DRIVER MODE: Receiving encoded integer          25
  @ DRIVER MODE:  SCF:  T  FORCE:  T  STRESS:  F  VC:  F  ENSEMBLE:  F
  @ DRIVER MODE:  SCF:  T  FORCE:  T  STRESS:  F  VC:  F  ENSEMBLE:  F

     Using Slab Decomposition

     bravais-lattice index     =            0
     lattice parameter (alat)  =       1.8897  a.u.
     unit-cell volume          =    6658.9804 (a.u.)^3
     number of atoms/cell      =           56
     number of atomic types    =            5
     number of electrons       =       403.00
     number of Kohn-Sham states=          211
     kinetic-energy cutoff     =      29.3995  Ry
     charge density cutoff     =     293.9946  Ry
     scf convergence threshold =      7.3E-08
     mixing beta               =       0.0500
     number of iterations used =            8  plain     mixing
     Exchange-correlation= BEEF-VDW
                           (   1   4  43  14   2   0   0)

     celldm(1)=   1.889726  celldm(2)=   0.000000  celldm(3)=   0.000000
     celldm(4)=   0.000000  celldm(5)=   0.000000  celldm(6)=   0.000000

     crystal axes: (cart. coord. in units of alat)
               a(1) = (   6.579727   0.000000   0.000000 )
               a(2) = (  -0.000775   5.961596   0.000000 )
               a(3) = (   0.000000   0.000000  25.155947 )

     reciprocal axes: (cart. coord. in units 2 pi/alat)
               b(1) = (  0.151982  0.000020  0.000000 )
               b(2) = (  0.000000  0.167740  0.000000 )
               b(3) = (  0.000000  0.000000  0.039752 )

     PseudoPot. # 1 for Ti read from file:
     /storage/coda1/p-amedford6/0/shared/rich_project_chbe-medford/medford-share/data/pseudos_module/espresso/nninc/pbe/van/Ti.UPF
     MD5 check sum: 8e4df49b7f0d34bbd5052bf3f5ea0213
     Pseudo is Ultrasoft, Zval = 12.0
     Generated by new atomic code, or converted to UPF format
     Using radial grid of  851 points,  6 beta functions with:
                l(1) =   0
                l(2) =   0
                l(3) =   1
                l(4) =   1
                l(5) =   2
                l(6) =   2
     Q(r) pseudized with  8 coefficients,  rinner =    1.000   1.000   1.000
                                                       1.000   1.000

     PseudoPot. # 2 for O  read from file:
     /storage/coda1/p-amedford6/0/shared/rich_project_chbe-medford/medford-share/data/pseudos_module/espresso/nninc/pbe/van/O.UPF
     MD5 check sum: 78c19812648e8988a0fe644b0f25305e
     Pseudo is Ultrasoft, Zval =  6.0
     Generated by new atomic code, or converted to UPF format
     Using radial grid of  737 points,  4 beta functions with:
                l(1) =   0
                l(2) =   0
                l(3) =   1
                l(4) =   1
     Q(r) pseudized with  8 coefficients,  rinner =    0.800   0.800   0.800

     PseudoPot. # 3 for N  read from file:
     /storage/coda1/p-amedford6/0/shared/rich_project_chbe-medford/medford-share/data/pseudos_module/espresso/nninc/pbe/van/N.UPF
     MD5 check sum: 90d10febe142ad51ac9d5be1deb811c4
     Pseudo is Ultrasoft, Zval =  5.0
     Generated by new atomic code, or converted to UPF format
     Using radial grid of  729 points,  4 beta functions with:
                l(1) =   0
                l(2) =   0
                l(3) =   1
                l(4) =   1
     Q(r) pseudized with  8 coefficients,  rinner =    0.800   0.800   0.800

     PseudoPot. # 4 for C  read from file:
     /storage/coda1/p-amedford6/0/shared/rich_project_chbe-medford/medford-share/data/pseudos_module/espresso/nninc/pbe/van/C.UPF
     MD5 check sum: 1a69bf6b8db32088f5b2163dbdb77a27
     Pseudo is Ultrasoft, Zval =  4.0
     Generated by new atomic code, or converted to UPF format
     Using radial grid of  721 points,  4 beta functions with:
                l(1) =   0
                l(2) =   0
                l(3) =   1
                l(4) =   1
     Q(r) pseudized with  8 coefficients,  rinner =    0.800   0.800   0.800

     PseudoPot. # 5 for H  read from file:
     /storage/coda1/p-amedford6/0/shared/rich_project_chbe-medford/medford-share/data/pseudos_module/espresso/nninc/pbe/van/H.UPF
     MD5 check sum: b5ee9d7bfd3a09ee7748110bda690ff7
     Pseudo is Ultrasoft, Zval =  1.0
     Generated by new atomic code, or converted to UPF format
     Using radial grid of  615 points,  1 beta functions with:
                l(1) =   0
     Q(r) pseudized with  8 coefficients,  rinner =    0.800

     atomic species   valence    mass     pseudopotential
        Ti1           12.00    47.86700     Ti( 1.00)
        O1             6.00    15.99900     O ( 1.00)
        N1             5.00    14.00700     N ( 1.00)
        C1             4.00    12.01100     C ( 1.00)
        H1             1.00     1.00800     H ( 1.00)

     No symmetry found

   Cartesian axes

     site n.     atom                  positions (alat units)
         1           Ti1 tau(   1) = (   0.0004258   2.9801865   6.0000000  )
         2           Ti1 tau(   2) = (   3.2906075   1.4906267   6.0002472  )
         3           O1  tau(   3) = (   0.0006271   0.0005054   7.9858123  )
         4           O1  tau(   4) = (   3.2906025   0.0005020   7.3038282  )
         5           O1  tau(   5) = (   4.5942328   1.4918067   9.2879030  )
         6           O1  tau(   6) = (   1.9868534   1.4903216   9.2879459  )
         7           Ti1 tau(   7) = (   3.2907910   2.8959150   9.1758416  )
         8           Ti1 tau(   8) = (   0.0015273   1.4827037   9.2680791  )
         9           O1  tau(   9) = (   3.2982983   0.0405180  11.3424948  )
        10           O1  tau(  10) = (   0.0116148   5.9584955  10.6183126  )
        11           O1  tau(  11) = (   1.2753745   1.5072422  12.7016807  )
        12           O1  tau(  12) = (   5.3195175   1.5181342  12.6954276  )
        13           Ti1 tau(  13) = (   0.0019584   2.9687762  12.4995492  )
        14           Ti1 tau(  14) = (   3.3051642   1.5697923  12.4614731  )
        15           O1  tau(  15) = (   6.5474216   5.8614089  14.6874354  )
        16           O1  tau(  16) = (   3.3077571   5.9224049  13.9445013  )
        17           O1  tau(  17) = (   4.5645563   1.5748115  16.1270233  )
        18           O1  tau(  18) = (   2.0342606   1.5395256  16.0843959  )
        19           Ti1 tau(  19) = (   3.2752269   2.9899004  15.7194909  )
        20           Ti1 tau(  20) = (   6.5310352   1.3332667  15.7916221  )
        21           O1  tau(  21) = (   3.2904802   0.0005063   4.7018136  )
        22           O1  tau(  22) = (   0.0193913   0.2006272  17.2172921  )
        23           O1  tau(  23) = (   1.3043587   1.4918075   6.0039043  )
        24           O1  tau(  24) = (   5.2767064   1.4903225   6.0039473  )
        25           Ti1 tau(  25) = (   0.0000382   5.9609847   6.0000000  )
        26           Ti1 tau(  26) = (   3.2902200   4.4714249   6.0002472  )
        27           O1  tau(  27) = (   0.0002396   2.9813036   7.9858123  )
        28           O1  tau(  28) = (   3.2902150   2.9813002   7.3038282  )
        29           O1  tau(  29) = (   4.5938453   4.4726049   9.2879030  )
        30           O1  tau(  30) = (   1.9864658   4.4711199   9.2879459  )
        31           Ti1 tau(  31) = (   3.2891106   5.8743827   9.1763621  )
        32           Ti1 tau(  32) = (   0.0006254   4.4649316   9.2693709  )
        33           O1  tau(  33) = (   3.2939295   2.9453814  11.3217152  )
        34           O1  tau(  34) = (   0.0092240   2.9805883  10.6323155  )
        35           O1  tau(  35) = (   1.2781447   4.4822909  12.6561401  )
        36           O1  tau(  36) = (   5.3212068   4.4743896  12.6463055  )
        37           Ti1 tau(  37) = (   0.0302233   5.9315785  12.5023592  )
        38           Ti1 tau(  38) = (   3.3112215   4.6713144  12.7097751  )
        39           O1  tau(  39) = (   0.0192075   3.0624537  14.9697097  )
        40           O1  tau(  40) = (   3.2993887   3.0147307  13.9488589  )
        41           O1  tau(  41) = (   4.5718800   4.4489939  16.2708329  )
        42           O1  tau(  42) = (   2.0246426   4.4466800  16.2581844  )
        43           Ti1 tau(  43) = (   3.2612680   0.0306108  16.4716933  )
        44           Ti1 tau(  44) = (   6.5506247   4.5497786  16.0606151  )
        45           O1  tau(  45) = (   3.2900926   2.9813045   4.7018136  )
        46           O1  tau(  46) = (   1.3039711   4.4726057   6.0039043  )
        47           O1  tau(  47) = (   5.2763189   4.4711207   6.0039473  )
        48           N1  tau(  48) = (   0.9981237   2.4704741  18.7333368  )
        49           N1  tau(  49) = (   6.5532285   3.4232418  18.2716252  )
        50           C1  tau(  50) = (   2.1690532   2.7243113  19.1879583  )
        51           H1  tau(  51) = (   2.3212509   3.8010200  19.3435938  )
        52           H1  tau(  52) = (   0.7222050   1.5335952  18.4365492  )
        53           H1  tau(  53) = (   0.1086806   4.2950834  18.7847415  )
        54           H1  tau(  54) = (   5.6367167   3.0457734  18.5222562  )
        55           O1  tau(  55) = (   3.2473456   0.1866190  18.2687603  )
        56           H1  tau(  56) = (   3.0571027   1.0491837  18.7494863  )

     number of k points=    10  Fermi-Dirac smearing, width (Ry)=  0.0073
                       cart. coord. in units 2pi/alat
        k(    1) = (   0.0000000   0.0000000   0.0000000), wk =   0.1250000
        k(    2) = (   0.0000000   0.0419351   0.0000000), wk =   0.2500000
        k(    3) = (   0.0000000  -0.0838702   0.0000000), wk =   0.1250000
        k(    4) = (   0.0379955   0.0000049   0.0000000), wk =   0.2500000
        k(    5) = (   0.0379955   0.0419400   0.0000000), wk =   0.2500000
        k(    6) = (   0.0379955  -0.0838652   0.0000000), wk =   0.2500000
        k(    7) = (   0.0379955  -0.0419301   0.0000000), wk =   0.2500000
        k(    8) = (  -0.0759910  -0.0000099   0.0000000), wk =   0.1250000
        k(    9) = (  -0.0759910   0.0419252   0.0000000), wk =   0.2500000
        k(   10) = (  -0.0759910  -0.0838800   0.0000000), wk =   0.1250000

     Initial potential from superposition of free atoms

     starting charge  386.99914, renormalised to  403.00000

     negative rho (up, down):  1.628E-02 0.000E+00

     %%%%%%%%%%%%%%%%%%%%%%%%%%%%%%%%%%%%%%%%%%%%%%%%%%%%%%%%%%%%%%%%%%%%%%%%
     %                                                                      %
     % You are using vdW-DF, which was implemented by the Thonhauser group. %
     % Please cite the following two papers that made this development      %
     % possible and the two reviews that describe the various versions:     %
     %                                                                      %
     %   T. Thonhauser et al., PRL 115, 136402 (2015).                      %
     %   T. Thonhauser et al., PRB 76, 125112 (2007).                       %
     %   K. Berland et al., Rep. Prog. Phys. 78, 066501 (2015).             %
     %   D.C. Langreth et al., J. Phys.: Condens. Matter 21, 084203 (2009). %
     %                                                                      %
     %                                                                      %
     % If you are calculating the stress with vdW-DF, please also cite:     %
     %                                                                      %
     %   R. Sabatini et al., J. Phys.: Condens. Matter 24, 424209 (2012).   %
     %                                                                      %
     %%%%%%%%%%%%%%%%%%%%%%%%%%%%%%%%%%%%%%%%%%%%%%%%%%%%%%%%%%%%%%%%%%%%%%%%

     Adding external electric field

     Computed dipole along edir(3) :
        Dipole              -13.0968 Ry au,        -33.2887 Debye
        Dipole field         -0.0247 Ry au,

        Potential amp.        2.2911 Ry
        Total length         46.3494 bohr

     Starting wfcs are  305 atomic wfcs
  @ DRIVER MODE: Message from server: STATUS
  @ DRIVER MODE: Message from server: POSDATA
  @ DRIVER MODE: Reading and sharing cell
  @ DRIVER MODE: Reading and sharing positions
  @ DRIVER MODE: Received positions

     Self-consistent Calculation

     iteration #  1     ecut=    29.40 Ry     beta= 0.05
     Davidson diagonalization with overlap
     c_bands:  5 eigenvalues not converged
     c_bands:  2 eigenvalues not converged
     c_bands:  1 eigenvalues not converged
     c_bands:  1 eigenvalues not converged
     c_bands:  5 eigenvalues not converged
     c_bands:  4 eigenvalues not converged
     c_bands:  1 eigenvalues not converged
     ethr =  1.00E-05,  avg # of iterations = 27.3

[...]

     total energy              =   -2288.80343165 Ry
     estimated scf accuracy    <    7754.29339595 Ry

     iteration #  2     ecut=    29.40 Ry     beta= 0.05
     Davidson diagonalization with overlap
     ethr =  1.00E-02,  avg # of iterations = 25.3

[...]

     iteration # 41     ecut=    29.40 Ry     beta= 0.05
     Davidson diagonalization with overlap
     c_bands:  2 eigenvalues not converged
     c_bands:  1 eigenvalues not converged
     c_bands:  1 eigenvalues not converged
     ethr =  6.22E-07,  avg # of iterations = 13.5

[...]

     total energy              =   -2973.89791298 Ry
     estimated scf accuracy    <       0.00000015 Ry

     iteration # 62     ecut=    29.40 Ry     beta= 0.05
     Davidson diagonalization with overlap
     ethr =  3.64E-11,  avg # of iterations =  7.4

     negative rho (up, down):  1.611E-02 0.000E+00

     Adding external electric field

     Computed dipole along edir(3) :
        Dipole                0.8549 Ry au,          2.1729 Debye
        Dipole field          0.0016 Ry au,

        Potential amp.       -0.1496 Ry
        Total length         46.3494 bohr

     End of self-consistent calculation

          k = 0.0000 0.0000 0.0000 ( 18029 PWs)   bands (ev):

   -55.6399 -55.6366 -55.6025 -55.5662 -55.4867 -55.4644 -55.4445 -55.4408
   -55.4304 -55.3881 -55.3458 -55.2865 -55.2096 -55.0641 -54.5998 -54.5658
   -32.1209 -32.0935 -31.9748 -31.9691 -31.9679 -31.9271 -31.9027 -31.8824
   -31.8759 -31.8608 -31.8413 -31.8295 -31.7892 -31.7594 -31.7452 -31.7429
   -31.7383 -31.7247 -31.7039 -31.6998 -31.6943 -31.6673 -31.6626 -31.6496
   -31.6388 -31.6373 -31.6154 -31.6068 -31.5915 -31.5876 -31.5820 -31.5706
   -31.5596 -31.5429 -31.4996 -31.4903 -31.4872 -31.4733 -31.4095 -31.3236
   -31.2897 -31.2816 -31.0050 -30.9205 -30.8980 -30.8228 -30.7366 -30.6245
   -18.7246 -16.3043 -16.2510 -16.1091 -15.8861 -15.7991 -15.7678 -15.6068
   -15.4804 -15.4387 -15.3137 -15.1687 -15.1385 -15.1308 -15.1248 -15.1160
   -15.0985 -15.0707 -15.0575 -15.0527 -15.0391 -14.9749 -14.9562 -14.9272
   -14.8476 -14.7951 -14.7674 -14.6973 -14.6543 -14.5475 -14.5281 -14.2695
   -13.0973 -12.9811  -9.6357  -6.9226  -5.8695  -4.3172  -4.0997  -3.8443
    -3.6240  -3.5352  -3.5121  -3.4037  -3.3136  -3.0830  -3.0604  -2.9908
    -2.8389  -2.7458  -2.6609  -2.6338  -2.5927  -2.5391  -2.5250  -2.4823
    -2.4164  -2.3851  -2.3434  -2.3311  -2.2819  -2.2743  -2.2279  -2.1502
    -2.1437  -2.0379  -1.9700  -1.9655  -1.9507  -1.9422  -1.8925  -1.8771
    -1.8696  -1.7992  -1.7439  -1.7095  -1.6437  -1.6174  -1.5464  -1.3024
    -1.2230  -1.2099  -1.1481  -1.0674  -1.0369  -1.0228  -1.0119  -0.9852
    -0.9593  -0.8710  -0.8436  -0.7037  -0.6976  -0.6629  -0.6364  -0.6035
    -0.4926  -0.4292  -0.4056  -0.3601  -0.3391  -0.2993  -0.2366  -0.2174
    -0.1386  -0.0942  -0.0148  -0.0127   0.0130   0.0838   0.1436   0.1775
     0.1941   0.2939   0.3088   0.3376   0.3443   0.3670   0.3931   0.4862
     0.5041   0.5463   0.5688   0.7101   0.7209   0.7729   0.9164   0.9486
     1.0490   1.1470   1.3631   1.3873   1.4277   1.4547   1.6238   1.9926
     2.0375   3.4430   3.6022   3.6153   3.7117   3.7246   3.8017   3.9374
     4.0318   4.1040   4.1379

[...]

          k = 0.0380-0.0419 0.0000 ( 17876 PWs)   bands (ev):

[...]

          k =-0.0760-0.0000 0.0000 ( 17886 PWs)   bands (ev):

[...]

          k =-0.0760-0.0839 0.0000 ( 17948 PWs)   bands (ev):

   -55.6390 -55.6195 -55.6194 -55.5650 -55.4785 -55.4500 -55.4480 -55.4454
   -55.4452 -55.3798 -55.3542 -55.2875 -55.2076 -55.0659 -54.5828 -54.5827
   -32.0187 -31.9362 -31.9362 -31.9291 -31.9127 -31.9124 -31.9033 -31.8414
   -31.8160 -31.8069 -31.7972 -31.7814 -31.7760 -31.7596 -31.7579 -31.7395
   -31.7395 -31.7298 -31.7283 -31.7170 -31.7165 -31.7023 -31.6906 -31.6848
   -31.6488 -31.6451 -31.6440 -31.6382 -31.6232 -31.6205 -31.6131 -31.6007
   -31.5842 -31.5783 -31.5656 -31.5642 -31.4920 -31.4647 -31.4129 -31.4048
   -31.3283 -31.2850 -30.9107 -30.9107 -30.8181 -30.8177 -30.7799 -30.7796
   -18.7185 -16.2565 -15.9378 -15.6329 -15.6319 -15.6118 -15.4533 -15.4193
   -15.3875 -15.3577 -15.3075 -15.3016 -15.2765 -15.2415 -15.2275 -15.1749
   -15.1507 -15.1337 -15.1152 -15.0962 -15.0766 -15.0481 -15.0374 -15.0359
   -14.9559 -14.9472 -14.9326 -14.9249 -14.8465 -14.6354 -14.4977 -14.4275
   -13.0831 -13.0830  -9.6227  -6.9164  -5.8331  -4.4991  -3.9534  -3.7790
    -3.0653  -2.8671  -2.8375  -2.7103  -2.6773  -2.6538  -2.5892  -2.5484
    -2.5471  -2.4704  -2.4575  -2.4125  -2.4082  -2.3637  -2.3609  -2.3334
    -2.3245  -2.3110  -2.3015  -2.2946  -2.2457  -2.2199  -2.2166  -2.2040
    -2.1806  -2.1667  -2.1428  -2.1262  -2.0667  -1.9911  -1.8787  -1.8564
    -1.7969  -1.7623  -1.7479  -1.7286  -1.7066  -1.6792  -1.6606  -1.5638
    -1.4803  -1.4188  -1.3173  -1.2311  -1.2104  -1.1574  -1.1495  -1.1068
    -1.0841  -1.0639  -1.0274  -0.9593  -0.8491  -0.8381  -0.7693  -0.6835
    -0.6433  -0.5760  -0.5738  -0.5676  -0.5519  -0.5280  -0.5089  -0.4621
    -0.4544  -0.3630  -0.3388  -0.3317  -0.3135  -0.2846  -0.1488  -0.1109
    -0.0597   0.1389   0.1461   0.1743   0.2814   0.3718   0.4367   0.4473
     0.5047   0.5528   0.5869   0.6267   0.6825   0.7062   0.7737   0.8816
     0.8878   0.9068   0.9485   1.0099   1.2378   1.7928   1.7996   1.8578
     1.8581   3.6570   3.8524   3.9666   3.9721   3.9874   4.0288   4.0373
     4.0516   4.1121   4.1215

     the Fermi energy is     3.4836 ev

!    total energy              =   -2973.89797858 Ry
     estimated scf accuracy    <       0.00000005 Ry
     smearing contrib. (-TS)   =      -0.01933832 Ry
     internal energy E=F+TS    =   -2973.87864026 Ry

     The total energy is F=E-TS. E is the sum of the following terms:
     one-electron contribution =  -23221.74865027 Ry
     hartree contribution      =   11705.31036180 Ry
     xc contribution           =    -493.96295213 Ry
     ewald contribution        =    9036.52122113 Ry
     electric field correction =       0.00137921 Ry

     convergence has been achieved in  62 iterations

     Forces acting on atoms (cartesian axes, Ry/au):

     atom    1 type  1   force =     0.00006759   -0.00019917    0.09419225
     atom    2 type  1   force =    -0.00015864    0.00004020   -0.17482183
     atom    3 type  2   force =     0.00002995   -0.00050427   -0.02069804
     atom    4 type  2   force =     0.00004424   -0.00070838    0.05226394
     atom    5 type  2   force =    -0.00298275   -0.00196774    0.00012055
     atom    6 type  2   force =     0.00461872   -0.00150312   -0.00033600
     atom    7 type  1   force =    -0.00019579    0.00281890    0.01407090
     atom    8 type  1   force =    -0.00011770   -0.00121944   -0.00060703
     atom    9 type  2   force =     0.00005111   -0.00010843   -0.00009277
     atom   10 type  2   force =    -0.00139798    0.00346792   -0.00733646
     atom   11 type  2   force =    -0.00017951    0.00025276    0.00020396
     atom   12 type  2   force =     0.00036835    0.00039392    0.00061105
     atom   13 type  1   force =    -0.00043024    0.00058532   -0.00027598
     atom   14 type  1   force =     0.00000459   -0.00007172    0.00068661
     atom   15 type  2   force =     0.00039112    0.00082722    0.00060339
     atom   16 type  2   force =    -0.00009529   -0.00077432    0.00095093
     atom   17 type  2   force =     0.00051020   -0.00023101   -0.00009180
     atom   18 type  2   force =     0.00026945   -0.00004941   -0.00016385
     atom   19 type  1   force =     0.00004226    0.00002495   -0.00064099
     atom   20 type  1   force =    -0.00028286   -0.00058404   -0.00033753
     atom   21 type  2   force =     0.00006983    0.00000000    0.10301594
     atom   22 type  2   force =     0.00024369    0.00032231   -0.00048262
     atom   23 type  2   force =    -0.07236658   -0.00018157   -0.02726616
     atom   24 type  2   force =     0.07230968    0.00026254   -0.02731354
     atom   25 type  1   force =     0.00007277   -0.00030934    0.09363967
     atom   26 type  1   force =    -0.00006391   -0.00116814   -0.17493040
     atom   27 type  2   force =     0.00017323   -0.00002160   -0.01956725
     atom   28 type  2   force =     0.00003130   -0.00104361    0.04854470
     atom   29 type  2   force =    -0.00592824    0.00105664    0.00311686
     atom   30 type  2   force =     0.00741151    0.00157177    0.00262026
     atom   31 type  1   force =     0.00004342    0.00142494    0.00266206
     atom   32 type  1   force =     0.00006685    0.00068190   -0.00039266
     atom   33 type  2   force =    -0.00016924   -0.00011449   -0.00050936
     atom   34 type  2   force =    -0.00061372   -0.00196628   -0.01095555
     atom   35 type  2   force =     0.00024483   -0.00040993   -0.00014482
     atom   36 type  2   force =    -0.00004474   -0.00026794   -0.00021053
     atom   37 type  1   force =    -0.00027247   -0.00038437   -0.00049743
     atom   38 type  1   force =     0.00026117    0.00020448    0.00031758
     atom   39 type  2   force =    -0.00036826   -0.00117659   -0.00031600
     atom   40 type  2   force =    -0.00013024    0.00036221    0.00083647
     atom   41 type  2   force =    -0.00084178    0.00007563    0.00035401
     atom   42 type  2   force =     0.00033798   -0.00054637    0.00000555
     atom   43 type  1   force =    -0.00031098    0.00063704    0.00001669
     atom   44 type  1   force =     0.00011920   -0.00083864    0.00000278
     atom   45 type  2   force =     0.00006607    0.00005505    0.10286131
     atom   46 type  2   force =    -0.07232223   -0.00006291   -0.02721888
     atom   47 type  2   force =     0.07222950    0.00038698   -0.02724984
     atom   48 type  3   force =     0.00161450    0.01248528    0.00329163
     atom   49 type  3   force =    -0.00028069    0.00089854    0.00071640
     atom   50 type  4   force =     0.00059368    0.00020370    0.00038819
     atom   51 type  5   force =    -0.00037270   -0.00123161    0.00040733
     atom   52 type  5   force =    -0.00261389   -0.01118775   -0.00241165
     atom   53 type  5   force =     0.00000875   -0.00029271   -0.00078101
     atom   54 type  5   force =     0.00032804    0.00069566    0.00036842
     atom   55 type  2   force =     0.00037641    0.00042226   -0.00026006
     atom   56 type  5   force =    -0.00045953   -0.00103321   -0.00095943

     Total force =     0.361483     Total SCF correction =     0.000781
  @ DRIVER MODE: Message from server: STATUS
  @ DRIVER MODE: Message from server: GETFORCE
  @ DRIVER MODE: Returning v,forces,stress,ensemble

     Writing output data file ./calc.save/
  @ DRIVER MODE: Message from server: EXIT
  @ DRIVE MODE: Exiting

     General routines

     Parallel routines

   This run was terminated on:  22:34:35  28Sep2021

   JOB DONE.