     Program PWSCF v.6.7GPU starts on 24Aug2021 at 23:58: 3

     R & G space division:  proc/nbgrp/npool/nimage =       6
     Reading input from /storage/home/hcoda1/3/ntian30/research/carbon/CH3_vib_end_on/ads_slab/CH3N2H_a/out_0015/pw.inp
Warning: card &CELL ignored
Warning: card   CELL_DYNAMICS='IPI', ignored
Warning: card / ignored

     Current dimensions of program PWSCF are:
     Max number of different atomic species (ntypx) = 10
     Max number of k-points (npk) =  40000
     Max angular momentum in pseudopotentials (lmaxx) =  3
     Presently no symmetry can be used with electric field

     Message from routine cell_base_init:
     DEPRECATED: use true lattice parameter, not A to a.u. conversion factor

     IMPORTANT: XC functional enforced from input :
     Exchange-correlation= BEEF-VDW
                           (   1   4  43  14   2   0   0)
     Any further DFT definition will be discarded
     Please, verify this is what you really want

  @ DRIVER MODE: Connecting to
 qe_1139763_2643869.sched-torque.pace.gatech.edurt5lsfqd_scratch
  using UNIX socket
  @ DRIVER MODE: Message from server: STATUS
  @ DRIVER MODE: Message from server: INIT
  @ DRIVER MODE: Receiving replica           0          -1
  @ DRIVER MODE: Receiving encoded integer          25
  @ DRIVER MODE:  SCF:  T  FORCE:  T  STRESS:  F  VC:  F  ENSEMBLE:  F
  @ DRIVER MODE:  SCF:  T  FORCE:  T  STRESS:  F  VC:  F  ENSEMBLE:  F

     Using Slab Decomposition

     bravais-lattice index     =            0
     lattice parameter (alat)  =       1.8897  a.u.
     unit-cell volume          =    6658.9804 (a.u.)^3
     number of atoms/cell      =           54
     number of atomic types    =            5
     number of electrons       =       396.00
     number of Kohn-Sham states=          208
     kinetic-energy cutoff     =      29.3995  Ry
     charge density cutoff     =     293.9946  Ry
     scf convergence threshold =      7.3E-08
     mixing beta               =       0.0500
     number of iterations used =            8  plain     mixing
     Exchange-correlation= BEEF-VDW
                           (   1   4  43  14   2   0   0)

     celldm(1)=   1.889726  celldm(2)=   0.000000  celldm(3)=   0.000000
     celldm(4)=   0.000000  celldm(5)=   0.000000  celldm(6)=   0.000000

     crystal axes: (cart. coord. in units of alat)
               a(1) = (   6.579727   0.000000   0.000000 )
               a(2) = (  -0.000775   5.961596   0.000000 )
               a(3) = (   0.000000   0.000000  25.155947 )

     reciprocal axes: (cart. coord. in units 2 pi/alat)
               b(1) = (  0.151982  0.000020  0.000000 )
               b(2) = (  0.000000  0.167740  0.000000 )
               b(3) = (  0.000000  0.000000  0.039752 )

     PseudoPot. # 1 for Ti read from file:
     /storage/coda1/p-amedford6/0/shared/rich_project_chbe-medford/medford-share/data/pseudos_module/espresso/nninc/pbe/van/Ti.UPF
     MD5 check sum: 8e4df49b7f0d34bbd5052bf3f5ea0213
     Pseudo is Ultrasoft, Zval = 12.0
     Generated by new atomic code, or converted to UPF format
     Using radial grid of  851 points,  6 beta functions with:
                l(1) =   0
                l(2) =   0
                l(3) =   1
                l(4) =   1
                l(5) =   2
                l(6) =   2
     Q(r) pseudized with  8 coefficients,  rinner =    1.000   1.000   1.000
                                                       1.000   1.000

     PseudoPot. # 2 for O  read from file:
     /storage/coda1/p-amedford6/0/shared/rich_project_chbe-medford/medford-share/data/pseudos_module/espresso/nninc/pbe/van/O.UPF
     MD5 check sum: 78c19812648e8988a0fe644b0f25305e
     Pseudo is Ultrasoft, Zval =  6.0
     Generated by new atomic code, or converted to UPF format
     Using radial grid of  737 points,  4 beta functions with:
                l(1) =   0
                l(2) =   0
                l(3) =   1
                l(4) =   1
     Q(r) pseudized with  8 coefficients,  rinner =    0.800   0.800   0.800

     PseudoPot. # 3 for N  read from file:
     /storage/coda1/p-amedford6/0/shared/rich_project_chbe-medford/medford-share/data/pseudos_module/espresso/nninc/pbe/van/N.UPF
     MD5 check sum: 90d10febe142ad51ac9d5be1deb811c4
     Pseudo is Ultrasoft, Zval =  5.0
     Generated by new atomic code, or converted to UPF format
     Using radial grid of  729 points,  4 beta functions with:
                l(1) =   0
                l(2) =   0
                l(3) =   1
                l(4) =   1
     Q(r) pseudized with  8 coefficients,  rinner =    0.800   0.800   0.800

     PseudoPot. # 4 for C  read from file:
     /storage/coda1/p-amedford6/0/shared/rich_project_chbe-medford/medford-share/data/pseudos_module/espresso/nninc/pbe/van/C.UPF
     MD5 check sum: 1a69bf6b8db32088f5b2163dbdb77a27
     Pseudo is Ultrasoft, Zval =  4.0
     Generated by new atomic code, or converted to UPF format
     Using radial grid of  721 points,  4 beta functions with:
                l(1) =   0
                l(2) =   0
                l(3) =   1
                l(4) =   1
     Q(r) pseudized with  8 coefficients,  rinner =    0.800   0.800   0.800

     PseudoPot. # 5 for H  read from file:
     /storage/coda1/p-amedford6/0/shared/rich_project_chbe-medford/medford-share/data/pseudos_module/espresso/nninc/pbe/van/H.UPF
     MD5 check sum: b5ee9d7bfd3a09ee7748110bda690ff7
     Pseudo is Ultrasoft, Zval =  1.0
     Generated by new atomic code, or converted to UPF format
     Using radial grid of  615 points,  1 beta functions with:
                l(1) =   0
     Q(r) pseudized with  8 coefficients,  rinner =    0.800

     atomic species   valence    mass     pseudopotential
        Ti1           12.00    47.86700     Ti( 1.00)
        O1             6.00    15.99900     O ( 1.00)
        N1             5.00    14.00700     N ( 1.00)
        C1             4.00    12.01100     C ( 1.00)
        H1             1.00     1.00800     H ( 1.00)

     No symmetry found

   Cartesian axes

     site n.     atom                  positions (alat units)
         1           Ti1 tau(   1) = (   0.0004258   2.9801865   6.0000000  )
         2           Ti1 tau(   2) = (   3.2906075   1.4906267   6.0002472  )
         3           O1  tau(   3) = (   0.0006271   0.0005054   7.9858123  )
         4           O1  tau(   4) = (   3.2906025   0.0005020   7.3038282  )
         5           O1  tau(   5) = (   4.5942328   1.4918067   9.2879030  )
         6           O1  tau(   6) = (   1.9868534   1.4903216   9.2879459  )
         7           Ti1 tau(   7) = (   3.2907910   2.8959150   9.1758416  )
         8           Ti1 tau(   8) = (   0.0015273   1.4827037   9.2680791  )
         9           O1  tau(   9) = (   3.2896288   0.0042867  11.3205077  )
        10           O1  tau(  10) = (   0.0116148   5.9584955  10.6183126  )
        11           O1  tau(  11) = (   1.2848067   1.4985890  12.6232755  )
        12           O1  tau(  12) = (   5.2688617   1.4893877  12.6055203  )
        13           Ti1 tau(  13) = (   0.0799559   3.0171279  12.6206390  )
        14           Ti1 tau(  14) = (   3.4009582   1.4891986  12.4726338  )
        15           O1  tau(  15) = (   6.5707323   0.0080309  14.6263129  )
        16           O1  tau(  16) = (   3.2902489   0.0120312  13.8979102  )
        17           O1  tau(  17) = (   4.5126121   1.5346005  16.0500440  )
        18           O1  tau(  18) = (   2.0453867   1.5362785  16.0447169  )
        19           Ti1 tau(  19) = (   3.2767562   3.0203775  15.6892921  )
        20           Ti1 tau(  20) = (   6.5596632   1.5778499  15.8310978  )
        21           O1  tau(  21) = (   3.2904802   0.0005063   4.7018136  )
        22           O1  tau(  22) = (   6.5709656   0.0671247  17.2345223  )
        23           O1  tau(  23) = (   1.3043587   1.4918075   6.0039043  )
        24           O1  tau(  24) = (   5.2767064   1.4903225   6.0039473  )
        25           Ti1 tau(  25) = (   0.0000382   5.9609847   6.0000000  )
        26           Ti1 tau(  26) = (   3.2902200   4.4714249   6.0002472  )
        27           O1  tau(  27) = (   0.0002396   2.9813036   7.9858123  )
        28           O1  tau(  28) = (   3.2902150   2.9813002   7.3038282  )
        29           O1  tau(  29) = (   4.5938453   4.4726049   9.2879030  )
        30           O1  tau(  30) = (   1.9864658   4.4711199   9.2879459  )
        31           Ti1 tau(  31) = (   3.2891106   5.8743827   9.1763621  )
        32           Ti1 tau(  32) = (   0.0006254   4.4649316   9.2693709  )
        33           O1  tau(  33) = (   3.2919429   2.9835650  11.3172650  )
        34           O1  tau(  34) = (   0.0092240   2.9805883  10.6323155  )
        35           O1  tau(  35) = (   1.2842535   4.4799506  12.6241420  )
        36           O1  tau(  36) = (   5.2755836   4.4732255  12.6042992  )
        37           Ti1 tau(  37) = (   0.0783641   0.0295629  12.6394962  )
        38           Ti1 tau(  38) = (   3.4022659   4.4693352  12.4708195  )
        39           O1  tau(  39) = (   6.5693815   2.9799975  14.6326336  )
        40           O1  tau(  40) = (   3.2899495   3.0014797  13.8849495  )
        41           O1  tau(  41) = (   4.5062741   4.5069571  16.0893315  )
        42           O1  tau(  42) = (   2.0480812   4.5060041  16.0753496  )
        43           Ti1 tau(  43) = (   3.2742444   0.0367023  15.7020416  )
        44           Ti1 tau(  44) = (   6.5658628   4.6518251  16.1481936  )
        45           O1  tau(  45) = (   3.2900926   2.9813045   4.7018136  )
        46           O1  tau(  46) = (   1.3039711   4.4726057   6.0039043  )
        47           O1  tau(  47) = (   5.2763189   4.4711207   6.0039473  )
        48           N1  tau(  48) = (   6.5201982   2.6597193  18.5868863  )
        49           N1  tau(  49) = (   6.5663212   2.9659568  17.3251533  )
        50           C1  tau(  50) = (   0.1092964   3.6197355  19.6533281  )
        51           H1  tau(  51) = (   6.1365678   4.5355971  19.4091500  )
        52           H1  tau(  52) = (   6.3142024   3.1981282  20.5813133  )
        53           H1  tau(  53) = (   1.1661384   3.8973747  19.7839464  )
        54           H1  tau(  54) = (   6.5756389   1.6632157  18.8047554  )

     number of k points=    10  Fermi-Dirac smearing, width (Ry)=  0.0073
                       cart. coord. in units 2pi/alat
        k(    1) = (   0.0000000   0.0000000   0.0000000), wk =   0.1250000
        k(    2) = (   0.0000000   0.0419351   0.0000000), wk =   0.2500000
        k(    3) = (   0.0000000  -0.0838702   0.0000000), wk =   0.1250000
        k(    4) = (   0.0379955   0.0000049   0.0000000), wk =   0.2500000
        k(    5) = (   0.0379955   0.0419400   0.0000000), wk =   0.2500000
        k(    6) = (   0.0379955  -0.0838652   0.0000000), wk =   0.2500000
        k(    7) = (   0.0379955  -0.0419301   0.0000000), wk =   0.2500000
        k(    8) = (  -0.0759910  -0.0000099   0.0000000), wk =   0.1250000
        k(    9) = (  -0.0759910   0.0419252   0.0000000), wk =   0.2500000
        k(   10) = (  -0.0759910  -0.0838800   0.0000000), wk =   0.1250000

     Initial potential from superposition of free atoms

     starting charge  379.99915, renormalised to  396.00000

     negative rho (up, down):  1.474E-02 0.000E+00

     %%%%%%%%%%%%%%%%%%%%%%%%%%%%%%%%%%%%%%%%%%%%%%%%%%%%%%%%%%%%%%%%%%%%%%%%
     %                                                                      %
     % You are using vdW-DF, which was implemented by the Thonhauser group. %
     % Please cite the following two papers that made this development      %
     % possible and the two reviews that describe the various versions:     %
     %                                                                      %
     %   T. Thonhauser et al., PRL 115, 136402 (2015).                      %
     %   T. Thonhauser et al., PRB 76, 125112 (2007).                       %
     %   K. Berland et al., Rep. Prog. Phys. 78, 066501 (2015).             %
     %   D.C. Langreth et al., J. Phys.: Condens. Matter 21, 084203 (2009). %
     %                                                                      %
     %                                                                      %
     % If you are calculating the stress with vdW-DF, please also cite:     %
     %                                                                      %
     %   R. Sabatini et al., J. Phys.: Condens. Matter 24, 424209 (2012).   %
     %                                                                      %
     %%%%%%%%%%%%%%%%%%%%%%%%%%%%%%%%%%%%%%%%%%%%%%%%%%%%%%%%%%%%%%%%%%%%%%%%

     Adding external electric field

     Computed dipole along edir(3) :
        Dipole               -9.2704 Ry au,        -23.5631 Debye
        Dipole field         -0.0175 Ry au,

        Potential amp.        1.6217 Ry
        Total length         46.3494 bohr

     Starting wfcs are  300 atomic wfcs
  @ DRIVER MODE: Message from server: STATUS
  @ DRIVER MODE: Message from server: POSDATA
  @ DRIVER MODE: Reading and sharing cell
  @ DRIVER MODE: Reading and sharing positions
  @ DRIVER MODE: Received positions

     Self-consistent Calculation

     iteration #  1     ecut=    29.40 Ry     beta= 0.05
     Davidson diagonalization with overlap
     c_bands:  1 eigenvalues not converged
     c_bands:  1 eigenvalues not converged
     c_bands:  1 eigenvalues not converged
     ethr =  1.00E-05,  avg # of iterations = 17.9

[...]

     total energy              =   -2586.05028149 Ry
     estimated scf accuracy    <    3939.25389685 Ry

[...]

     iteration #  3     ecut=    29.40 Ry     beta= 0.05
     Davidson diagonalization with overlap
     ethr =  1.00E-02,  avg # of iterations = 15.4

[...]

     iteration # 56     ecut=    29.40 Ry     beta= 0.05
     Davidson diagonalization with overlap
     c_bands:  4 eigenvalues not converged
     ethr =  2.03E-07,  avg # of iterations = 10.7

[...]

     total energy              =   -2940.39751782 Ry
     estimated scf accuracy    <       0.00000011 Ry

     iteration # 75     ecut=    29.40 Ry     beta= 0.05
     Davidson diagonalization with overlap
     ethr =  2.72E-11,  avg # of iterations =  7.2

     negative rho (up, down):  1.568E-02 0.000E+00

     Adding external electric field

     Computed dipole along edir(3) :
        Dipole                1.1303 Ry au,          2.8730 Debye
        Dipole field          0.0021 Ry au,

        Potential amp.       -0.1977 Ry
        Total length         46.3494 bohr

     End of self-consistent calculation

          k = 0.0000 0.0000 0.0000 ( 18029 PWs)   bands (ev):

   -55.6458 -55.6118 -55.5533 -55.5156 -55.4098 -55.3870 -55.3760 -55.3522
   -55.3448 -55.3369 -55.3184 -55.2673 -54.7273 -54.5876 -54.5581 -54.5536
   -32.1203 -32.0968 -31.9401 -31.9270 -31.8965 -31.8664 -31.8478 -31.8417
   -31.7991 -31.7814 -31.7809 -31.7426 -31.7331 -31.7152 -31.7046 -31.6935
   -31.6838 -31.6754 -31.6411 -31.6307 -31.6078 -31.5881 -31.5806 -31.5655
   -31.5535 -31.5469 -31.5402 -31.5387 -31.5331 -31.5160 -31.5063 -31.5052
   -31.5010 -31.4644 -31.4490 -31.3814 -31.2246 -30.9934 -30.9502 -30.9358
   -30.9087 -30.8954 -30.8860 -30.8102 -30.7667 -30.7381 -30.7239 -30.6129
   -18.0189 -16.2796 -16.0521 -15.7745 -15.6730 -15.6501 -15.5291 -15.3971
   -15.2969 -15.2013 -15.1615 -15.1070 -15.1022 -15.0729 -15.0430 -15.0069
   -14.9789 -14.9399 -14.9203 -14.9022 -14.8759 -14.8664 -14.7576 -14.7432
   -14.7191 -14.6279 -14.6176 -14.5432 -14.5184 -14.0863 -13.0899 -12.9741
   -12.0438  -8.9178  -5.7536  -4.4675  -4.1437  -3.6626  -3.5370  -3.5066
    -3.4051  -3.2240  -3.1405  -3.0801  -2.9262  -2.7669  -2.7318  -2.7219
    -2.7018  -2.6439  -2.4462  -2.4207  -2.3889  -2.3494  -2.3395  -2.3366
    -2.3230  -2.2611  -2.1938  -2.1303  -2.0298  -2.0217  -1.9700  -1.9572
    -1.9405  -1.9051  -1.8621  -1.8223  -1.8011  -1.7590  -1.7407  -1.7335
    -1.6911  -1.6077  -1.5072  -1.3494  -1.3220  -1.3025  -1.2539  -1.1997
    -1.0352  -1.0189  -0.9820  -0.9761  -0.9437  -0.8686  -0.8001  -0.7164
    -0.6790  -0.6030  -0.5876  -0.5579  -0.4842  -0.3986  -0.3760  -0.3610
    -0.3536  -0.3380  -0.2795  -0.1634  -0.0698  -0.0384   0.0818   0.0864
     0.1212   0.1651   0.1821   0.2641   0.2995   0.3138   0.3646   0.3651
     0.3769   0.4209   0.4439   0.5070   0.5630   0.6467   0.7200   0.7855
     0.8223   0.9383   1.0091   1.0743   1.1078   1.2365   1.3639   1.3725
     1.4341   1.6299   1.6321   2.0025   2.0468   3.5255   3.5466   3.6393
     3.6829   3.7809   3.8199   3.9641   4.0202   4.0569   4.1708   4.2016

[...]

          k = 0.0380-0.0419 0.0000 ( 17876 PWs)   bands (ev):

[...]

          k =-0.0760-0.0000 0.0000 ( 17886 PWs)   bands (ev):

[...]

          k =-0.0760-0.0839 0.0000 ( 17948 PWs)   bands (ev):

   -55.6289 -55.6286 -55.5402 -55.5285 -55.3929 -55.3926 -55.3780 -55.3537
   -55.3367 -55.3339 -55.3322 -55.2719 -54.7257 -54.5706 -54.5704 -54.5596
   -31.9358 -31.9357 -31.9253 -31.9253 -31.9046 -31.8953 -31.7978 -31.7880
   -31.7643 -31.7515 -31.7498 -31.7494 -31.7048 -31.7019 -31.6887 -31.6853
   -31.6774 -31.6735 -31.6728 -31.6468 -31.6031 -31.6005 -31.5885 -31.5856
   -31.5812 -31.5795 -31.5777 -31.5675 -31.5650 -31.5584 -31.5516 -31.5486
   -31.5405 -31.5310 -31.5049 -31.4697 -31.1340 -30.9697 -30.9368 -30.9237
   -30.8988 -30.8986 -30.8064 -30.8062 -30.7857 -30.7679 -30.7671 -30.7670
   -18.0132 -15.7025 -15.6911 -15.5126 -15.5074 -15.4465 -15.4402 -15.2878
   -15.2869 -15.2681 -15.2599 -15.1371 -15.1333 -15.1009 -15.0973 -15.0549
   -15.0458 -15.0289 -15.0205 -15.0189 -15.0123 -14.9846 -14.9334 -14.9010
   -14.8954 -14.7175 -14.7170 -14.5965 -14.5634 -14.2212 -13.0762 -13.0761
   -12.0449  -8.9275  -5.7456  -4.4066  -4.1465  -2.9922  -2.9802  -2.9391
    -2.7071  -2.7020  -2.6774  -2.6672  -2.4618  -2.4491  -2.4281  -2.4225
    -2.3950  -2.3893  -2.3744  -2.3672  -2.2837  -2.2730  -2.2623  -2.2382
    -2.2320  -2.2279  -2.2138  -2.2065  -2.1966  -2.1630  -2.1266  -2.0979
    -2.0632  -2.0400  -1.9209  -1.8102  -1.7336  -1.7269  -1.6964  -1.6907
    -1.6848  -1.6784  -1.6449  -1.5407  -1.4790  -1.4256  -1.2904  -1.2673
    -1.2478  -1.2033  -1.1153  -1.0344  -0.9716  -0.9535  -0.9068  -0.8639
    -0.8389  -0.7541  -0.7299  -0.7227  -0.6540  -0.6225  -0.5781  -0.5728
    -0.5561  -0.4914  -0.4434  -0.3943  -0.3712  -0.3405  -0.2950  -0.2744
    -0.2115  -0.1567  -0.1124  -0.1068  -0.0586  -0.0504   0.0148   0.1650
     0.2145   0.4676   0.4818   0.5131   0.6377   0.7082   0.7135   0.7417
     0.7741   0.8256   0.8376   0.9706   0.9825   0.9859   1.1501   1.1744
     1.2619   1.8025   1.8027   1.8659   1.8662   3.4280   3.9186   3.9359
     3.9610   3.9761   4.0470   4.0479   4.0564   4.0639   4.2416   4.2622

     the Fermi energy is     3.5027 ev

!    total energy              =   -2940.39752694 Ry
     estimated scf accuracy    <       0.00000007 Ry
     smearing contrib. (-TS)   =      -0.02301338 Ry
     internal energy E=F+TS    =   -2940.37451356 Ry

     The total energy is F=E-TS. E is the sum of the following terms:
     one-electron contribution =  -24109.37825371 Ry
     hartree contribution      =   12145.89741136 Ry
     xc contribution           =    -486.04597321 Ry
     ewald contribution        =    9509.14989102 Ry
     electric field correction =       0.00241099 Ry

     convergence has been achieved in  75 iterations

     Forces acting on atoms (cartesian axes, Ry/au):

     atom    1 type  1   force =     0.00015690   -0.00012389    0.09932019
     atom    2 type  1   force =    -0.00012635   -0.00046678   -0.17360261
     atom    3 type  2   force =    -0.00005148   -0.00000104   -0.02878986
     atom    4 type  2   force =     0.00007269   -0.00125227    0.04999298
     atom    5 type  2   force =    -0.01305063    0.00057252    0.00122778
     atom    6 type  2   force =     0.01459708    0.00138038   -0.00009701
     atom    7 type  1   force =    -0.00144692   -0.00059598   -0.00834685
     atom    8 type  1   force =     0.00087738   -0.00412116    0.04512684
     atom    9 type  2   force =    -0.00003361   -0.00065981   -0.00025334
     atom   10 type  2   force =    -0.00129376    0.00227392   -0.02838882
     atom   11 type  2   force =     0.00018926    0.00061197   -0.00002837
     atom   12 type  2   force =     0.00026829    0.00040870    0.00011947
     atom   13 type  1   force =     0.00038060    0.00020788   -0.00054758
     atom   14 type  1   force =     0.00002750    0.00047341    0.00034921
     atom   15 type  2   force =     0.00033677   -0.00006609   -0.00008806
     atom   16 type  2   force =    -0.00040803   -0.00023207   -0.00022284
     atom   17 type  2   force =    -0.00101916    0.00013594   -0.00056438
     atom   18 type  2   force =     0.00090520    0.00019083    0.00019659
     atom   19 type  1   force =     0.00022121   -0.00004133    0.00008021
     atom   20 type  1   force =    -0.00047882   -0.00088479    0.00033526
     atom   21 type  2   force =     0.00009094   -0.00007246    0.10271750
     atom   22 type  2   force =     0.00012598    0.00001212   -0.00015325
     atom   23 type  2   force =    -0.07213297   -0.00015491   -0.02832252
     atom   24 type  2   force =     0.07213042    0.00030254   -0.02832168
     atom   25 type  1   force =     0.00012464   -0.00020081    0.09862857
     atom   26 type  1   force =    -0.00010800   -0.00046333   -0.17381213
     atom   27 type  2   force =     0.00001068   -0.00002596   -0.02807571
     atom   28 type  2   force =     0.00011349   -0.00099735    0.04944637
     atom   29 type  2   force =    -0.01337078    0.00005044    0.00128944
     atom   30 type  2   force =     0.01482554    0.00041564   -0.00005493
     atom   31 type  1   force =    -0.00139473    0.00251085   -0.00863607
     atom   32 type  1   force =     0.00106189    0.00237769    0.04546074
     atom   33 type  2   force =    -0.00013209    0.00104616    0.00056556
     atom   34 type  2   force =    -0.00072015    0.00120260   -0.03113345
     atom   35 type  2   force =     0.00068234   -0.00050828   -0.00017333
     atom   36 type  2   force =    -0.00161952   -0.00010902    0.00007351
     atom   37 type  1   force =    -0.00017445   -0.00153742    0.00023930
     atom   38 type  1   force =     0.00078076   -0.00005024    0.00054517
     atom   39 type  2   force =     0.00032478    0.00017077   -0.00060260
     atom   40 type  2   force =    -0.00040205    0.00033159   -0.00007393
     atom   41 type  2   force =     0.00040216   -0.00058006   -0.00003606
     atom   42 type  2   force =    -0.00039408   -0.00070416    0.00046640
     atom   43 type  1   force =     0.00036596   -0.00034606   -0.00049568
     atom   44 type  1   force =    -0.00036504   -0.00053998    0.00003967
     atom   45 type  2   force =     0.00010832   -0.00006932    0.10273953
     atom   46 type  2   force =    -0.07215446   -0.00009940   -0.02831843
     atom   47 type  2   force =     0.07213764    0.00033975   -0.02829687
     atom   48 type  3   force =    -0.00043504   -0.00683614   -0.00258968
     atom   49 type  3   force =     0.00003197    0.00014447   -0.00026604
     atom   50 type  4   force =     0.00069345    0.01994838   -0.00189042
     atom   51 type  5   force =     0.00386407   -0.00849119    0.00220699
     atom   52 type  5   force =    -0.00105487   -0.00341787    0.00279351
     atom   53 type  5   force =    -0.00276986   -0.00153456   -0.00097715
     atom   54 type  5   force =    -0.00077105    0.00007521   -0.00080114

     Total force =     0.372943     Total SCF correction =     0.000889
  @ DRIVER MODE: Message from server: STATUS
  @ DRIVER MODE: Message from server: GETFORCE
  @ DRIVER MODE: Returning v,forces,stress,ensemble

     Writing output data file ./calc.save/
  @ DRIVER MODE: Message from server: EXIT
  @ DRIVE MODE: Exiting

     General routines

     Parallel routines

   This run was terminated on:   0:28:19  25Aug2021

   JOB DONE.