     Program PWSCF v.6.7GPU starts on 26Sep2021 at 23:29: 2

     R & G space division:  proc/nbgrp/npool/nimage =       8
     Reading input from /storage/home/hcoda1/3/ntian30/research/carbon/CxH_vib/H2O_calc/ads_slab/CH2NHNHHO_b/out_0030/pw.inp
Warning: card &CELL ignored
Warning: card   CELL_DYNAMICS='IPI', ignored
Warning: card / ignored

     Current dimensions of program PWSCF are:
     Max number of different atomic species (ntypx) = 10
     Max number of k-points (npk) =  40000
     Max angular momentum in pseudopotentials (lmaxx) =  3
     Presently no symmetry can be used with electric field

     Message from routine cell_base_init:
     DEPRECATED: use true lattice parameter, not A to a.u. conversion factor

     IMPORTANT: XC functional enforced from input :
     Exchange-correlation= BEEF-VDW
                           (   1   4  43  14   2   0   0)
     Any further DFT definition will be discarded
     Please, verify this is what you really want

  @ DRIVER MODE: Connecting to
 qe_1139763_2971671.sched-torque.pace.gatech.edu4ei_3un1_scratch
  using UNIX socket
  @ DRIVER MODE: Message from server: STATUS
  @ DRIVER MODE: Message from server: INIT
  @ DRIVER MODE: Receiving replica           0          -1
  @ DRIVER MODE: Receiving encoded integer          25
  @ DRIVER MODE:  SCF:  T  FORCE:  T  STRESS:  F  VC:  F  ENSEMBLE:  F
  @ DRIVER MODE:  SCF:  T  FORCE:  T  STRESS:  F  VC:  F  ENSEMBLE:  F

     Using Slab Decomposition

     bravais-lattice index     =            0
     lattice parameter (alat)  =       1.8897  a.u.
     unit-cell volume          =    6658.9804 (a.u.)^3
     number of atoms/cell      =           56
     number of atomic types    =            5
     number of electrons       =       403.00
     number of Kohn-Sham states=          211
     kinetic-energy cutoff     =      29.3995  Ry
     charge density cutoff     =     293.9946  Ry
     scf convergence threshold =      7.3E-08
     mixing beta               =       0.0500
     number of iterations used =            8  plain     mixing
     Exchange-correlation= BEEF-VDW
                           (   1   4  43  14   2   0   0)

     celldm(1)=   1.889726  celldm(2)=   0.000000  celldm(3)=   0.000000
     celldm(4)=   0.000000  celldm(5)=   0.000000  celldm(6)=   0.000000

     crystal axes: (cart. coord. in units of alat)
               a(1) = (   6.579727   0.000000   0.000000 )
               a(2) = (  -0.000775   5.961596   0.000000 )
               a(3) = (   0.000000   0.000000  25.155947 )

     reciprocal axes: (cart. coord. in units 2 pi/alat)
               b(1) = (  0.151982  0.000020  0.000000 )
               b(2) = (  0.000000  0.167740  0.000000 )
               b(3) = (  0.000000  0.000000  0.039752 )

     PseudoPot. # 1 for Ti read from file:
     /storage/coda1/p-amedford6/0/shared/rich_project_chbe-medford/medford-share/data/pseudos_module/espresso/nninc/pbe/van/Ti.UPF
     MD5 check sum: 8e4df49b7f0d34bbd5052bf3f5ea0213
     Pseudo is Ultrasoft, Zval = 12.0
     Generated by new atomic code, or converted to UPF format
     Using radial grid of  851 points,  6 beta functions with:
                l(1) =   0
                l(2) =   0
                l(3) =   1
                l(4) =   1
                l(5) =   2
                l(6) =   2
     Q(r) pseudized with  8 coefficients,  rinner =    1.000   1.000   1.000
                                                       1.000   1.000

     PseudoPot. # 2 for O  read from file:
     /storage/coda1/p-amedford6/0/shared/rich_project_chbe-medford/medford-share/data/pseudos_module/espresso/nninc/pbe/van/O.UPF
     MD5 check sum: 78c19812648e8988a0fe644b0f25305e
     Pseudo is Ultrasoft, Zval =  6.0
     Generated by new atomic code, or converted to UPF format
     Using radial grid of  737 points,  4 beta functions with:
                l(1) =   0
                l(2) =   0
                l(3) =   1
                l(4) =   1
     Q(r) pseudized with  8 coefficients,  rinner =    0.800   0.800   0.800

     PseudoPot. # 3 for N  read from file:
     /storage/coda1/p-amedford6/0/shared/rich_project_chbe-medford/medford-share/data/pseudos_module/espresso/nninc/pbe/van/N.UPF
     MD5 check sum: 90d10febe142ad51ac9d5be1deb811c4
     Pseudo is Ultrasoft, Zval =  5.0
     Generated by new atomic code, or converted to UPF format
     Using radial grid of  729 points,  4 beta functions with:
                l(1) =   0
                l(2) =   0
                l(3) =   1
                l(4) =   1
     Q(r) pseudized with  8 coefficients,  rinner =    0.800   0.800   0.800

     PseudoPot. # 4 for C  read from file:
     /storage/coda1/p-amedford6/0/shared/rich_project_chbe-medford/medford-share/data/pseudos_module/espresso/nninc/pbe/van/C.UPF
     MD5 check sum: 1a69bf6b8db32088f5b2163dbdb77a27
     Pseudo is Ultrasoft, Zval =  4.0
     Generated by new atomic code, or converted to UPF format
     Using radial grid of  721 points,  4 beta functions with:
                l(1) =   0
                l(2) =   0
                l(3) =   1
                l(4) =   1
     Q(r) pseudized with  8 coefficients,  rinner =    0.800   0.800   0.800

     PseudoPot. # 5 for H  read from file:
     /storage/coda1/p-amedford6/0/shared/rich_project_chbe-medford/medford-share/data/pseudos_module/espresso/nninc/pbe/van/H.UPF
     MD5 check sum: b5ee9d7bfd3a09ee7748110bda690ff7
     Pseudo is Ultrasoft, Zval =  1.0
     Generated by new atomic code, or converted to UPF format
     Using radial grid of  615 points,  1 beta functions with:
                l(1) =   0
     Q(r) pseudized with  8 coefficients,  rinner =    0.800

     atomic species   valence    mass     pseudopotential
        Ti1           12.00    47.86700     Ti( 1.00)
        O1             6.00    15.99900     O ( 1.00)
        N1             5.00    14.00700     N ( 1.00)
        C1             4.00    12.01100     C ( 1.00)
        H1             1.00     1.00800     H ( 1.00)

     No symmetry found

   Cartesian axes

     site n.     atom                  positions (alat units)
         1           Ti1 tau(   1) = (   0.0004258   2.9801865   6.0000000  )
         2           Ti1 tau(   2) = (   3.2906075   1.4906267   6.0002472  )
         3           O1  tau(   3) = (   0.0006271   0.0005054   7.9858123  )
         4           O1  tau(   4) = (   3.2906025   0.0005020   7.3038282  )
         5           O1  tau(   5) = (   4.5942328   1.4918067   9.2879030  )
         6           O1  tau(   6) = (   1.9868534   1.4903216   9.2879459  )
         7           Ti1 tau(   7) = (   3.2907910   2.8959150   9.1758416  )
         8           Ti1 tau(   8) = (   0.0015273   1.4827037   9.2680791  )
         9           O1  tau(   9) = (   3.2987294   5.9443783  11.3578989  )
        10           O1  tau(  10) = (   0.0116148   5.9584955  10.6183126  )
        11           O1  tau(  11) = (   1.2795512   1.4821507  12.6386044  )
        12           O1  tau(  12) = (   5.2980455   1.5005163  12.6536529  )
        13           Ti1 tau(  13) = (   6.5652885   2.9238251  12.5528928  )
        14           Ti1 tau(  14) = (   3.2988635   1.2998061  12.7048432  )
        15           O1  tau(  15) = (   0.0127057   0.0339484  14.6761273  )
        16           O1  tau(  16) = (   3.2875936   0.0940603  14.0290633  )
        17           O1  tau(  17) = (   4.5650748   1.6033894  16.0357995  )
        18           O1  tau(  18) = (   2.0190796   1.5896112  16.2175902  )
        19           Ti1 tau(  19) = (   3.3013862   3.0422678  15.6649453  )
        20           Ti1 tau(  20) = (   6.4815444   1.5191555  15.8288377  )
        21           O1  tau(  21) = (   3.2904802   0.0005063   4.7018136  )
        22           O1  tau(  22) = (   6.5172723   5.9480513  17.2191950  )
        23           O1  tau(  23) = (   1.3043587   1.4918075   6.0039043  )
        24           O1  tau(  24) = (   5.2767064   1.4903225   6.0039473  )
        25           Ti1 tau(  25) = (   0.0000382   5.9609847   6.0000000  )
        26           Ti1 tau(  26) = (   3.2902200   4.4714249   6.0002472  )
        27           O1  tau(  27) = (   0.0002396   2.9813036   7.9858123  )
        28           O1  tau(  28) = (   3.2902150   2.9813002   7.3038282  )
        29           O1  tau(  29) = (   4.5938453   4.4726049   9.2879030  )
        30           O1  tau(  30) = (   1.9864658   4.4711199   9.2879459  )
        31           Ti1 tau(  31) = (   3.2891106   5.8743827   9.1763621  )
        32           Ti1 tau(  32) = (   0.0006254   4.4649316   9.2693709  )
        33           O1  tau(  33) = (   3.2945946   2.9940555  11.3077331  )
        34           O1  tau(  34) = (   0.0092240   2.9805883  10.6323155  )
        35           O1  tau(  35) = (   1.2876619   4.4781899  12.6403949  )
        36           O1  tau(  36) = (   5.3010724   4.4646845  12.6541769  )
        37           Ti1 tau(  37) = (   0.0424196   5.9023569  12.5123361  )
        38           Ti1 tau(  38) = (   3.3119368   4.3729351  12.4217702  )
        39           O1  tau(  39) = (   0.0401333   2.9740317  14.7512036  )
        40           O1  tau(  40) = (   3.2576645   3.0028392  13.8982547  )
        41           O1  tau(  41) = (   4.5666544   4.4234537  16.0705803  )
        42           O1  tau(  42) = (   2.0215446   4.4756893  16.1430302  )
        43           Ti1 tau(  43) = (   3.2259990   0.0392177  16.2341362  )
        44           Ti1 tau(  44) = (   6.5723990   4.6710500  15.9980081  )
        45           O1  tau(  45) = (   3.2900926   2.9813045   4.7018136  )
        46           O1  tau(  46) = (   1.3039711   4.4726057   6.0039043  )
        47           O1  tau(  47) = (   5.2763189   4.4711207   6.0039473  )
        48           N1  tau(  48) = (   0.9334729   2.5913682  18.4753943  )
        49           N1  tau(  49) = (   6.5156687   2.9055835  17.6419879  )
        50           C1  tau(  50) = (   1.0224037   2.6952286  19.7617917  )
        51           H1  tau(  51) = (   1.9166829   2.3177709  20.2270220  )
        52           H1  tau(  52) = (   0.2162702   3.1370440  20.3360263  )
        53           H1  tau(  53) = (   1.6995924   2.1399843  17.9426691  )
        54           H1  tau(  54) = (   5.6785098   3.1284051  18.1783837  )
        55           O1  tau(  55) = (   3.5318048   0.0910060  18.0897867  )
        56           H1  tau(  56) = (   4.4897960   0.0680733  18.2655997  )

     number of k points=    10  Fermi-Dirac smearing, width (Ry)=  0.0073
                       cart. coord. in units 2pi/alat
        k(    1) = (   0.0000000   0.0000000   0.0000000), wk =   0.1250000
        k(    2) = (   0.0000000   0.0419351   0.0000000), wk =   0.2500000
        k(    3) = (   0.0000000  -0.0838702   0.0000000), wk =   0.1250000
        k(    4) = (   0.0379955   0.0000049   0.0000000), wk =   0.2500000
        k(    5) = (   0.0379955   0.0419400   0.0000000), wk =   0.2500000
        k(    6) = (   0.0379955  -0.0838652   0.0000000), wk =   0.2500000
        k(    7) = (   0.0379955  -0.0419301   0.0000000), wk =   0.2500000
        k(    8) = (  -0.0759910  -0.0000099   0.0000000), wk =   0.1250000
        k(    9) = (  -0.0759910   0.0419252   0.0000000), wk =   0.2500000
        k(   10) = (  -0.0759910  -0.0838800   0.0000000), wk =   0.1250000

     Initial potential from superposition of free atoms

     starting charge  386.99914, renormalised to  403.00000

     negative rho (up, down):  1.426E-02 0.000E+00

     %%%%%%%%%%%%%%%%%%%%%%%%%%%%%%%%%%%%%%%%%%%%%%%%%%%%%%%%%%%%%%%%%%%%%%%%
     %                                                                      %
     % You are using vdW-DF, which was implemented by the Thonhauser group. %
     % Please cite the following two papers that made this development      %
     % possible and the two reviews that describe the various versions:     %
     %                                                                      %
     %   T. Thonhauser et al., PRL 115, 136402 (2015).                      %
     %   T. Thonhauser et al., PRB 76, 125112 (2007).                       %
     %   K. Berland et al., Rep. Prog. Phys. 78, 066501 (2015).             %
     %   D.C. Langreth et al., J. Phys.: Condens. Matter 21, 084203 (2009). %
     %                                                                      %
     %                                                                      %
     % If you are calculating the stress with vdW-DF, please also cite:     %
     %                                                                      %
     %   R. Sabatini et al., J. Phys.: Condens. Matter 24, 424209 (2012).   %
     %                                                                      %
     %%%%%%%%%%%%%%%%%%%%%%%%%%%%%%%%%%%%%%%%%%%%%%%%%%%%%%%%%%%%%%%%%%%%%%%%

     Adding external electric field

     Computed dipole along edir(3) :
        Dipole              -12.9691 Ry au,        -32.9641 Debye
        Dipole field         -0.0245 Ry au,

        Potential amp.        2.2687 Ry
        Total length         46.3494 bohr

     Starting wfcs are  305 atomic wfcs
  @ DRIVER MODE: Message from server: STATUS
  @ DRIVER MODE: Message from server: POSDATA
  @ DRIVER MODE: Reading and sharing cell
  @ DRIVER MODE: Reading and sharing positions
  @ DRIVER MODE: Received positions

     Self-consistent Calculation

     iteration #  1     ecut=    29.40 Ry     beta= 0.05
     Davidson diagonalization with overlap
     c_bands:  4 eigenvalues not converged
     c_bands:  4 eigenvalues not converged
     c_bands:  3 eigenvalues not converged
     c_bands:  1 eigenvalues not converged
     c_bands:  3 eigenvalues not converged
     c_bands:  2 eigenvalues not converged
     ethr =  1.00E-05,  avg # of iterations = 25.6

[...]

     total energy              =   -2352.71782381 Ry
     estimated scf accuracy    <    7059.37990368 Ry

     iteration #  2     ecut=    29.40 Ry     beta= 0.05
     Davidson diagonalization with overlap
     ethr =  1.00E-02,  avg # of iterations = 22.7

[...]

     iteration # 66     ecut=    29.40 Ry     beta= 0.05
     Davidson diagonalization with overlap
     c_bands:  1 eigenvalues not converged
     ethr =  6.28E-10,  avg # of iterations =  9.9

[...]

     total energy              =   -2973.99838962 Ry
     estimated scf accuracy    <       0.00000009 Ry

     iteration # 72     ecut=    29.40 Ry     beta= 0.05
     Davidson diagonalization with overlap
     ethr =  2.22E-11,  avg # of iterations =  7.7

     negative rho (up, down):  1.504E-02 0.000E+00

     Adding external electric field

     Computed dipole along edir(3) :
        Dipole                1.3499 Ry au,          3.4311 Debye
        Dipole field          0.0025 Ry au,

        Potential amp.       -0.2361 Ry
        Total length         46.3494 bohr

     End of self-consistent calculation

          k = 0.0000 0.0000 0.0000 ( 18029 PWs)   bands (ev):

   -55.4222 -55.3266 -55.2925 -55.1475 -55.1439 -55.1325 -55.1119 -55.1099
   -55.0829 -55.0546 -55.0328 -54.9561 -54.9536 -54.9095 -54.2898 -54.2557
   -31.8096 -31.7443 -31.6788 -31.6474 -31.6361 -31.6257 -31.6183 -31.5966
   -31.5716 -31.5705 -31.5661 -31.4817 -31.4789 -31.4316 -31.4178 -31.4037
   -31.3975 -31.3840 -31.3607 -31.3462 -31.3379 -31.3371 -31.3283 -31.3140
   -31.3021 -31.2901 -31.2777 -31.2747 -31.2733 -31.2619 -31.2586 -31.2483
   -31.2324 -31.2283 -31.2255 -31.1887 -31.1778 -31.1497 -31.1376 -31.1274
   -31.1153 -31.1111 -30.6953 -30.6102 -30.5877 -30.5129 -30.4266 -30.3148
   -19.6136 -16.1783 -15.9481 -15.7960 -15.6138 -15.4902 -15.4322 -15.2191
   -15.1513 -15.0804 -15.0000 -14.9348 -14.8574 -14.8432 -14.8178 -14.8025
   -14.7782 -14.7403 -14.7387 -14.7342 -14.6916 -14.6852 -14.6546 -14.6049
   -14.5995 -14.5774 -14.4554 -14.3817 -14.3356 -14.2017 -14.0811 -13.9474
   -12.7886 -12.6724 -10.1562  -7.0187  -6.6811  -4.2758  -3.9987  -3.6403
    -3.3288  -3.2521  -3.2215  -3.1804  -3.0564  -2.8753  -2.7576  -2.6845
    -2.5812  -2.4572  -2.4399  -2.3388  -2.3143  -2.2467  -2.2110  -2.1713
    -2.1508  -2.1274  -2.1044  -2.1008  -1.9888  -1.9844  -1.8593  -1.8418
    -1.7929  -1.7334  -1.6854  -1.6387  -1.6270  -1.6084  -1.5927  -1.5841
    -1.5534  -1.5396  -1.5162  -1.4639  -1.4033  -1.3557  -1.3187  -1.2055
    -1.0163  -0.9186  -0.8664  -0.8249  -0.7921  -0.7430  -0.7164  -0.7085
    -0.6785  -0.6403  -0.5075  -0.4998  -0.4535  -0.3778  -0.3381  -0.3173
    -0.1909  -0.1782  -0.1057  -0.0490  -0.0463  -0.0350   0.0593   0.1168
     0.1454   0.1745   0.2253   0.2819   0.3554   0.3842   0.4175   0.4769
     0.5381   0.5662   0.6258   0.6449   0.6566   0.7387   0.7596   0.7840
     0.8064   0.8776   0.9248   0.9607   1.0008   1.0895   1.1197   1.1689
     1.2059   1.3611   1.4157   1.6849   1.7362   1.8007   1.9302   2.3026
     2.3474   3.7754   3.9111   3.9304   3.9347   4.0323   4.1351   4.2482
     4.2966   4.3317   4.3775

[...]

          k = 0.0380-0.0419 0.0000 ( 17876 PWs)   bands (ev):

[...]

          k =-0.0760-0.0000 0.0000 ( 17886 PWs)   bands (ev):

[...]

          k =-0.0760-0.0839 0.0000 ( 17948 PWs)   bands (ev):

   -55.4214 -55.3098 -55.3091 -55.1330 -55.1327 -55.1295 -55.1279 -55.1227
   -55.0764 -55.0517 -55.0394 -54.9564 -54.9495 -54.9160 -54.2732 -54.2722
   -31.6779 -31.6707 -31.6273 -31.6251 -31.6247 -31.6041 -31.6034 -31.5442
   -31.5046 -31.4583 -31.4507 -31.4501 -31.4436 -31.4426 -31.4296 -31.4287
   -31.4189 -31.3971 -31.3763 -31.3674 -31.3564 -31.3416 -31.3406 -31.3290
   -31.3277 -31.3179 -31.3078 -31.3001 -31.2973 -31.2960 -31.2933 -31.2840
   -31.2719 -31.2614 -31.2565 -31.2483 -31.2191 -31.2084 -31.1816 -31.1584
   -31.1423 -31.1159 -30.6008 -30.6000 -30.5089 -30.5076 -30.4701 -30.4694
   -19.6117 -16.1408 -15.4841 -15.4153 -15.2667 -15.2574 -15.1863 -15.1452
   -15.1389 -15.0876 -15.0812 -15.0130 -14.9882 -14.9798 -14.9398 -14.8887
   -14.8386 -14.8086 -14.8031 -14.7550 -14.7451 -14.7335 -14.6971 -14.6773
   -14.6285 -14.6250 -14.6096 -14.5305 -14.4747 -14.3164 -14.3013 -13.9602
   -12.7747 -12.7740 -10.1595  -7.0146  -6.6781  -4.2658  -3.9873  -3.5934
    -2.6907  -2.6858  -2.6243  -2.4697  -2.4255  -2.3253  -2.3143  -2.2555
    -2.2417  -2.1937  -2.1731  -2.1617  -2.1252  -2.1052  -2.1020  -2.0751
    -2.0555  -2.0452  -2.0193  -1.9833  -1.9810  -1.9510  -1.9426  -1.9256
    -1.9054  -1.8840  -1.8644  -1.8590  -1.8074  -1.7740  -1.6166  -1.5971
    -1.4590  -1.4564  -1.4422  -1.4208  -1.3873  -1.3757  -1.3365  -1.3025
    -1.2324  -1.1894  -1.0947  -1.0595  -0.9526  -0.9244  -0.8540  -0.8061
    -0.7669  -0.7440  -0.7334  -0.7035  -0.6303  -0.5551  -0.5094  -0.4687
    -0.3689  -0.2930  -0.2686  -0.2643  -0.2570  -0.2240  -0.1537  -0.1523
    -0.1112  -0.0950  -0.0128  -0.0023   0.0117   0.0309   0.1650   0.1960
     0.2939   0.3580   0.4078   0.4619   0.4944   0.5448   0.6590   0.7902
     0.8429   0.8682   0.8819   0.9440   0.9921   1.0072   1.0540   1.1263
     1.1973   1.2464   1.2660   1.2895   1.3405   2.0992   2.1079   2.1675
     2.1679   4.0380   4.1391   4.2540   4.2884   4.3040   4.3233   4.3407
     4.3654   4.4095   4.4557

     the Fermi energy is     3.8008 ev

!    total energy              =   -2973.99841536 Ry
     estimated scf accuracy    <       0.00000005 Ry
     smearing contrib. (-TS)   =      -0.02052447 Ry
     internal energy E=F+TS    =   -2973.97789089 Ry

     The total energy is F=E-TS. E is the sum of the following terms:
     one-electron contribution =  -23635.05290893 Ry
     hartree contribution      =   11914.43436937 Ry
     xc contribution           =    -494.11436999 Ry
     ewald contribution        =    9240.75157980 Ry
     electric field correction =       0.00343886 Ry

     convergence has been achieved in  72 iterations

     Forces acting on atoms (cartesian axes, Ry/au):

     atom    1 type  1   force =    -0.00005897   -0.00028320    0.09520986
     atom    2 type  1   force =    -0.00011185    0.00043281   -0.17494661
     atom    3 type  2   force =     0.00000936   -0.00027934   -0.02254001
     atom    4 type  2   force =     0.00005278   -0.00195736    0.05326388
     atom    5 type  2   force =    -0.00764665   -0.00251085    0.00195407
     atom    6 type  2   force =     0.00923871   -0.00207034    0.00147520
     atom    7 type  1   force =    -0.00022543   -0.00467867    0.00732485
     atom    8 type  1   force =     0.00014118    0.00535440    0.01282097
     atom    9 type  2   force =    -0.00010713   -0.00002687    0.00020856
     atom   10 type  2   force =    -0.00275486    0.00061207   -0.01379969
     atom   11 type  2   force =    -0.00015095    0.00022444   -0.00002181
     atom   12 type  2   force =     0.00014225   -0.00003354    0.00023358
     atom   13 type  1   force =     0.00025107    0.00018758    0.00029571
     atom   14 type  1   force =     0.00001930   -0.00001462    0.00018660
     atom   15 type  2   force =     0.00037087   -0.00004334    0.00006934
     atom   16 type  2   force =    -0.00037164   -0.00007750    0.00004655
     atom   17 type  2   force =     0.00027691   -0.00026288   -0.00003193
     atom   18 type  2   force =     0.00002981    0.00007296    0.00032108
     atom   19 type  1   force =     0.00030648   -0.00000914   -0.00005441
     atom   20 type  1   force =     0.00009431   -0.00013803   -0.00005555
     atom   21 type  2   force =     0.00005683    0.00003578    0.10303743
     atom   22 type  2   force =     0.00006648    0.00012566   -0.00012842
     atom   23 type  2   force =    -0.07221409   -0.00019722   -0.02750524
     atom   24 type  2   force =     0.07211913    0.00021348   -0.02757391
     atom   25 type  1   force =     0.00010911   -0.00024820    0.09494889
     atom   26 type  1   force =    -0.00022970   -0.00136620   -0.17516497
     atom   27 type  2   force =     0.00015784   -0.00013927   -0.02138592
     atom   28 type  2   force =     0.00004855   -0.00025274    0.04860628
     atom   29 type  2   force =    -0.00690816    0.00262217    0.00144447
     atom   30 type  2   force =     0.00849167    0.00314415    0.00087002
     atom   31 type  1   force =    -0.00009967    0.00787660   -0.00301228
     atom   32 type  1   force =     0.00038616   -0.00772359    0.01220935
     atom   33 type  2   force =     0.00008469   -0.00003418   -0.00014595
     atom   34 type  2   force =    -0.00195962    0.00048852   -0.01636326
     atom   35 type  2   force =    -0.00012543    0.00002521   -0.00001326
     atom   36 type  2   force =    -0.00005376    0.00031666   -0.00002012
     atom   37 type  1   force =    -0.00013958    0.00017349    0.00003567
     atom   38 type  1   force =    -0.00008915    0.00004842    0.00014164
     atom   39 type  2   force =    -0.00005104   -0.00029256   -0.00001591
     atom   40 type  2   force =     0.00012085   -0.00000093    0.00018606
     atom   41 type  2   force =     0.00007130   -0.00011256   -0.00003717
     atom   42 type  2   force =     0.00024755   -0.00013900   -0.00005640
     atom   43 type  1   force =    -0.00020112   -0.00003243   -0.00026552
     atom   44 type  1   force =     0.00024825   -0.00003612   -0.00006379
     atom   45 type  2   force =     0.00008578   -0.00013999    0.10283337
     atom   46 type  2   force =    -0.07220801   -0.00009714   -0.02756254
     atom   47 type  2   force =     0.07213571    0.00036194   -0.02758884
     atom   48 type  3   force =    -0.00119822    0.00085181    0.00086197
     atom   49 type  3   force =     0.00036545    0.00001360   -0.00016612
     atom   50 type  4   force =    -0.00381434    0.00238346    0.00471727
     atom   51 type  5   force =     0.00059839    0.00004831    0.00000616
     atom   52 type  5   force =     0.00377909   -0.00273333   -0.00505403
     atom   53 type  5   force =     0.00070635   -0.00002111   -0.00009721
     atom   54 type  5   force =     0.00009125    0.00009641   -0.00000441
     atom   55 type  2   force =    -0.00059828   -0.00011333    0.00020151
     atom   56 type  5   force =     0.00041421    0.00035563    0.00016493

     Total force =     0.363344     Total SCF correction =     0.000476
  @ DRIVER MODE: Message from server: STATUS
  @ DRIVER MODE: Message from server: GETFORCE
  @ DRIVER MODE: Returning v,forces,stress,ensemble

     Writing output data file ./calc.save/
  @ DRIVER MODE: Message from server: EXIT
  @ DRIVE MODE: Exiting

     General routines

     Parallel routines

   This run was terminated on:  23:55: 5  26Sep2021

   JOB DONE.