     Program PWSCF v.6.7GPU starts on 16Sep2021 at 12:44:48

     R & G space division:  proc/nbgrp/npool/nimage =      10
     Reading input from /storage/home/hcoda1/3/ntian30/research/carbon/CxH_vib/H2O_calc/ads_slab/CH3NNH3H2O_a/out_0060/pw.inp
Warning: card &CELL ignored
Warning: card   CELL_DYNAMICS='IPI', ignored
Warning: card / ignored

     Current dimensions of program PWSCF are:
     Max number of different atomic species (ntypx) = 10
     Max number of k-points (npk) =  40000
     Max angular momentum in pseudopotentials (lmaxx) =  3
     Presently no symmetry can be used with electric field

     Message from routine cell_base_init:
     DEPRECATED: use true lattice parameter, not A to a.u. conversion factor

     IMPORTANT: XC functional enforced from input :
     Exchange-correlation= BEEF-VDW
                           (   1   4  43  14   2   0   0)
     Any further DFT definition will be discarded
     Please, verify this is what you really want

  @ DRIVER MODE: Connecting to
 qe_1139763_2852621.sched-torque.pace.gatech.eduio9y6n2p_scratch
  using UNIX socket
  @ DRIVER MODE: Message from server: STATUS
  @ DRIVER MODE: Message from server: INIT
  @ DRIVER MODE: Receiving replica           0          -1
  @ DRIVER MODE: Receiving encoded integer          25
  @ DRIVER MODE:  SCF:  T  FORCE:  T  STRESS:  F  VC:  F  ENSEMBLE:  F
  @ DRIVER MODE:  SCF:  T  FORCE:  T  STRESS:  F  VC:  F  ENSEMBLE:  F

     Using Slab Decomposition

     bravais-lattice index     =            0
     lattice parameter (alat)  =       1.8897  a.u.
     unit-cell volume          =    6658.9804 (a.u.)^3
     number of atoms/cell      =           59
     number of atomic types    =            5
     number of electrons       =       406.00
     number of Kohn-Sham states=          213
     kinetic-energy cutoff     =      29.3995  Ry
     charge density cutoff     =     293.9946  Ry
     scf convergence threshold =      7.3E-08
     mixing beta               =       0.0500
     number of iterations used =            8  plain     mixing
     Exchange-correlation= BEEF-VDW
                           (   1   4  43  14   2   0   0)

     celldm(1)=   1.889726  celldm(2)=   0.000000  celldm(3)=   0.000000
     celldm(4)=   0.000000  celldm(5)=   0.000000  celldm(6)=   0.000000

     crystal axes: (cart. coord. in units of alat)
               a(1) = (   6.579727   0.000000   0.000000 )
               a(2) = (  -0.000775   5.961596   0.000000 )
               a(3) = (   0.000000   0.000000  25.155947 )

     reciprocal axes: (cart. coord. in units 2 pi/alat)
               b(1) = (  0.151982  0.000020  0.000000 )
               b(2) = (  0.000000  0.167740  0.000000 )
               b(3) = (  0.000000  0.000000  0.039752 )

     PseudoPot. # 1 for Ti read from file:
     /storage/coda1/p-amedford6/0/shared/rich_project_chbe-medford/medford-share/data/pseudos_module/espresso/nninc/pbe/van/Ti.UPF
     MD5 check sum: 8e4df49b7f0d34bbd5052bf3f5ea0213
     Pseudo is Ultrasoft, Zval = 12.0
     Generated by new atomic code, or converted to UPF format
     Using radial grid of  851 points,  6 beta functions with:
                l(1) =   0
                l(2) =   0
                l(3) =   1
                l(4) =   1
                l(5) =   2
                l(6) =   2
     Q(r) pseudized with  8 coefficients,  rinner =    1.000   1.000   1.000
                                                       1.000   1.000

     PseudoPot. # 2 for O  read from file:
     /storage/coda1/p-amedford6/0/shared/rich_project_chbe-medford/medford-share/data/pseudos_module/espresso/nninc/pbe/van/O.UPF
     MD5 check sum: 78c19812648e8988a0fe644b0f25305e
     Pseudo is Ultrasoft, Zval =  6.0
     Generated by new atomic code, or converted to UPF format
     Using radial grid of  737 points,  4 beta functions with:
                l(1) =   0
                l(2) =   0
                l(3) =   1
                l(4) =   1
     Q(r) pseudized with  8 coefficients,  rinner =    0.800   0.800   0.800

     PseudoPot. # 3 for N  read from file:
     /storage/coda1/p-amedford6/0/shared/rich_project_chbe-medford/medford-share/data/pseudos_module/espresso/nninc/pbe/van/N.UPF
     MD5 check sum: 90d10febe142ad51ac9d5be1deb811c4
     Pseudo is Ultrasoft, Zval =  5.0
     Generated by new atomic code, or converted to UPF format
     Using radial grid of  729 points,  4 beta functions with:
                l(1) =   0
                l(2) =   0
                l(3) =   1
                l(4) =   1
     Q(r) pseudized with  8 coefficients,  rinner =    0.800   0.800   0.800

     PseudoPot. # 4 for C  read from file:
     /storage/coda1/p-amedford6/0/shared/rich_project_chbe-medford/medford-share/data/pseudos_module/espresso/nninc/pbe/van/C.UPF
     MD5 check sum: 1a69bf6b8db32088f5b2163dbdb77a27
     Pseudo is Ultrasoft, Zval =  4.0
     Generated by new atomic code, or converted to UPF format
     Using radial grid of  721 points,  4 beta functions with:
                l(1) =   0
                l(2) =   0
                l(3) =   1
                l(4) =   1
     Q(r) pseudized with  8 coefficients,  rinner =    0.800   0.800   0.800

     PseudoPot. # 5 for H  read from file:
     /storage/coda1/p-amedford6/0/shared/rich_project_chbe-medford/medford-share/data/pseudos_module/espresso/nninc/pbe/van/H.UPF
     MD5 check sum: b5ee9d7bfd3a09ee7748110bda690ff7
     Pseudo is Ultrasoft, Zval =  1.0
     Generated by new atomic code, or converted to UPF format
     Using radial grid of  615 points,  1 beta functions with:
                l(1) =   0
     Q(r) pseudized with  8 coefficients,  rinner =    0.800

     atomic species   valence    mass     pseudopotential
        Ti1           12.00    47.86700     Ti( 1.00)
        O1             6.00    15.99900     O ( 1.00)
        N1             5.00    14.00700     N ( 1.00)
        C1             4.00    12.01100     C ( 1.00)
        H1             1.00     1.00800     H ( 1.00)

     No symmetry found

   Cartesian axes

     site n.     atom                  positions (alat units)
         1           Ti1 tau(   1) = (   0.0004258   2.9801865   6.0000000  )
         2           Ti1 tau(   2) = (   3.2906075   1.4906267   6.0002472  )
         3           O1  tau(   3) = (   0.0006271   0.0005054   7.9858123  )
         4           O1  tau(   4) = (   3.2906025   0.0005020   7.3038282  )
         5           O1  tau(   5) = (   4.5942328   1.4918067   9.2879030  )
         6           O1  tau(   6) = (   1.9868534   1.4903216   9.2879459  )
         7           Ti1 tau(   7) = (   3.2907910   2.8959150   9.1758416  )
         8           Ti1 tau(   8) = (   0.0015273   1.4827037   9.2680791  )
         9           O1  tau(   9) = (   3.2954490   0.0159868  11.2922163  )
        10           O1  tau(  10) = (   0.0116148   5.9584955  10.6183126  )
        11           O1  tau(  11) = (   1.3242731   1.5050266  12.6143764  )
        12           O1  tau(  12) = (   5.3073597   1.5103589  12.6267567  )
        13           Ti1 tau(  13) = (   6.4831477   3.0011104  12.7364612  )
        14           Ti1 tau(  14) = (   3.1751638   1.4975352  12.4748964  )
        15           O1  tau(  15) = (   0.0212859   5.9607631  14.5987152  )
        16           O1  tau(  16) = (   3.3058086   0.0238703  13.8910224  )
        17           O1  tau(  17) = (   4.5539421   1.5574750  15.9960573  )
        18           O1  tau(  18) = (   2.0731809   1.5597727  15.9888445  )
        19           Ti1 tau(  19) = (   3.3176354   3.0289328  15.6523405  )
        20           Ti1 tau(  20) = (   0.0198791   1.6227889  16.0606591  )
        21           O1  tau(  21) = (   3.2904802   0.0005063   4.7018136  )
        22           O1  tau(  22) = (   0.0290054   0.0533443  17.2129705  )
        23           O1  tau(  23) = (   1.3043587   1.4918075   6.0039043  )
        24           O1  tau(  24) = (   5.2767064   1.4903225   6.0039473  )
        25           Ti1 tau(  25) = (   0.0000382   5.9609847   6.0000000  )
        26           Ti1 tau(  26) = (   3.2902200   4.4714249   6.0002472  )
        27           O1  tau(  27) = (   0.0002396   2.9813036   7.9858123  )
        28           O1  tau(  28) = (   3.2902150   2.9813002   7.3038282  )
        29           O1  tau(  29) = (   4.5938453   4.4726049   9.2879030  )
        30           O1  tau(  30) = (   1.9864658   4.4711199   9.2879459  )
        31           Ti1 tau(  31) = (   3.2891106   5.8743827   9.1763621  )
        32           Ti1 tau(  32) = (   0.0006254   4.4649316   9.2693709  )
        33           O1  tau(  33) = (   3.2918316   2.9938763  11.2915017  )
        34           O1  tau(  34) = (   0.0092240   2.9805883  10.6323155  )
        35           O1  tau(  35) = (   1.3226278   4.4784642  12.6110361  )
        36           O1  tau(  36) = (   5.3078083   4.4770455  12.6250823  )
        37           Ti1 tau(  37) = (   6.5141033   0.0190828  12.7620745  )
        38           Ti1 tau(  38) = (   3.1722404   4.4939287  12.4712879  )
        39           O1  tau(  39) = (   0.0035410   2.9850241  14.6487316  )
        40           O1  tau(  40) = (   3.3118331   3.0109266  13.8519036  )
        41           O1  tau(  41) = (   4.5522870   4.5059159  16.0259181  )
        42           O1  tau(  42) = (   2.0778134   4.5048723  16.0185459  )
        43           Ti1 tau(  43) = (   3.3116469   0.0596163  15.7453941  )
        44           Ti1 tau(  44) = (   0.0183239   4.5967015  16.1059876  )
        45           O1  tau(  45) = (   3.2900926   2.9813045   4.7018136  )
        46           O1  tau(  46) = (   1.3039711   4.4726057   6.0039043  )
        47           O1  tau(  47) = (   5.2763189   4.4711207   6.0039473  )
        48           N1  tau(  48) = (   0.0600715   3.0265251  17.3188267  )
        49           N1  tau(  49) = (   6.2826239   2.5295367  22.6224490  )
        50           C1  tau(  50) = (   0.2859397   3.0149959  18.7399364  )
        51           H1  tau(  51) = (   0.1411154   4.0060466  19.1894648  )
        52           H1  tau(  52) = (   6.1913215   2.3105648  19.2421896  )
        53           H1  tau(  53) = (   1.3125146   2.6868920  18.9691123  )
        54           H1  tau(  54) = (   6.1000088   3.2491606  23.3142794  )
        55           H1  tau(  55) = (   0.1456284   1.7586669  23.1118534  )
        56           H1  tau(  56) = (   0.3974265   2.9048463  21.9856970  )
        57           O1  tau(  57) = (   3.2908421   0.1144680  18.1730233  )
        58           H1  tau(  58) = (   4.0679411   5.5688996  18.4486002  )
        59           H1  tau(  59) = (   2.5060966   5.5711546  18.4327789  )

     number of k points=    10  Fermi-Dirac smearing, width (Ry)=  0.0073
                       cart. coord. in units 2pi/alat
        k(    1) = (   0.0000000   0.0000000   0.0000000), wk =   0.1250000
        k(    2) = (   0.0000000   0.0419351   0.0000000), wk =   0.2500000
        k(    3) = (   0.0000000  -0.0838702   0.0000000), wk =   0.1250000
        k(    4) = (   0.0379955   0.0000049   0.0000000), wk =   0.2500000
        k(    5) = (   0.0379955   0.0419400   0.0000000), wk =   0.2500000
        k(    6) = (   0.0379955  -0.0838652   0.0000000), wk =   0.2500000
        k(    7) = (   0.0379955  -0.0419301   0.0000000), wk =   0.2500000
        k(    8) = (  -0.0759910  -0.0000099   0.0000000), wk =   0.1250000
        k(    9) = (  -0.0759910   0.0419252   0.0000000), wk =   0.2500000
        k(   10) = (  -0.0759910  -0.0838800   0.0000000), wk =   0.1250000

     Initial potential from superposition of free atoms

     starting charge  389.99912, renormalised to  406.00000

     negative rho (up, down):  6.920E-03 0.000E+00

     %%%%%%%%%%%%%%%%%%%%%%%%%%%%%%%%%%%%%%%%%%%%%%%%%%%%%%%%%%%%%%%%%%%%%%%%
     %                                                                      %
     % You are using vdW-DF, which was implemented by the Thonhauser group. %
     % Please cite the following two papers that made this development      %
     % possible and the two reviews that describe the various versions:     %
     %                                                                      %
     %   T. Thonhauser et al., PRL 115, 136402 (2015).                      %
     %   T. Thonhauser et al., PRB 76, 125112 (2007).                       %
     %   K. Berland et al., Rep. Prog. Phys. 78, 066501 (2015).             %
     %   D.C. Langreth et al., J. Phys.: Condens. Matter 21, 084203 (2009). %
     %                                                                      %
     %                                                                      %
     % If you are calculating the stress with vdW-DF, please also cite:     %
     %                                                                      %
     %   R. Sabatini et al., J. Phys.: Condens. Matter 24, 424209 (2012).   %
     %                                                                      %
     %%%%%%%%%%%%%%%%%%%%%%%%%%%%%%%%%%%%%%%%%%%%%%%%%%%%%%%%%%%%%%%%%%%%%%%%

     Adding external electric field

     Computed dipole along edir(3) :
        Dipole              -16.2382 Ry au,        -41.2735 Debye
        Dipole field         -0.0306 Ry au,

        Potential amp.        2.8406 Ry
        Total length         46.3494 bohr

     Starting wfcs are  308 atomic wfcs
  @ DRIVER MODE: Message from server: STATUS
  @ DRIVER MODE: Message from server: POSDATA
  @ DRIVER MODE: Reading and sharing cell
  @ DRIVER MODE: Reading and sharing positions
  @ DRIVER MODE: Received positions

     Self-consistent Calculation

     iteration #  1     ecut=    29.40 Ry     beta= 0.05
     Davidson diagonalization with overlap
     c_bands:  2 eigenvalues not converged
     c_bands:  3 eigenvalues not converged
     c_bands:  5 eigenvalues not converged
     c_bands:  3 eigenvalues not converged
     c_bands:  4 eigenvalues not converged
     c_bands:  3 eigenvalues not converged
     c_bands:  1 eigenvalues not converged
     c_bands:  5 eigenvalues not converged
     c_bands:  3 eigenvalues not converged
     ethr =  1.00E-05,  avg # of iterations = 20.6

[...]

     total energy              =   -2253.47714590 Ry
     estimated scf accuracy    <    8263.07950433 Ry

     iteration #  2     ecut=    29.40 Ry     beta= 0.05
     Davidson diagonalization with overlap
     ethr =  1.00E-02,  avg # of iterations = 25.8

[...]

     iteration # 68     ecut=    29.40 Ry     beta= 0.05
     Davidson diagonalization with overlap
     c_bands:  1 eigenvalues not converged
     ethr =  1.17E-07,  avg # of iterations = 11.1

[...]

     total energy              =   -2977.74435241 Ry
     estimated scf accuracy    <       0.00000014 Ry

     iteration # 91     ecut=    29.40 Ry     beta= 0.05
     Davidson diagonalization with overlap
     ethr =  3.21E-11,  avg # of iterations =  6.0

     negative rho (up, down):  8.783E-03 0.000E+00

     Adding external electric field

     Computed dipole along edir(3) :
        Dipole                0.7576 Ry au,          1.9256 Debye
        Dipole field          0.0014 Ry au,

        Potential amp.       -0.1325 Ry
        Total length         46.3494 bohr

     End of self-consistent calculation

          k = 0.0000 0.0000 0.0000 ( 18029 PWs)   bands (ev):

   -56.2673 -56.2337 -55.3850 -55.3511 -55.3429 -55.3079 -55.1610 -55.1258
   -55.0403 -54.9173 -54.8996 -54.8987 -54.8834 -54.8131 -54.3961 -54.3466
   -32.6941 -32.5417 -32.5136 -32.4436 -32.3527 -32.3202 -31.8528 -31.8251
   -31.6964 -31.6509 -31.6020 -31.5842 -31.5540 -31.5449 -31.5158 -31.5108
   -31.4923 -31.4859 -31.4652 -31.4493 -31.4371 -31.3870 -31.3773 -31.3387
   -31.3261 -31.3083 -31.3021 -31.2873 -31.2634 -31.2631 -31.2568 -31.2326
   -31.1386 -31.1273 -31.0887 -31.0775 -31.0510 -31.0441 -31.0360 -31.0173
   -30.9867 -30.9333 -30.9108 -30.6397 -30.6177 -30.5866 -30.5658 -30.4567
   -18.4577 -16.4233 -15.9577 -15.7147 -15.6241 -15.5414 -15.5022 -15.4584
   -15.3075 -15.2389 -15.2162 -15.2159 -15.1457 -14.9982 -14.9500 -14.8520
   -14.7590 -14.6239 -14.6077 -14.5732 -14.5565 -14.5229 -14.5153 -14.4647
   -14.3003 -14.2651 -14.2165 -14.1547 -14.0680 -14.0288 -13.8420 -13.4156
   -13.3059 -12.6461  -7.4501  -6.2736  -4.0949  -4.0745  -3.9906  -3.4572
    -3.1871  -3.1602  -3.0312  -3.0266  -2.9810  -2.8396  -2.8200  -2.7589
    -2.7364  -2.6787  -2.6229  -2.5841  -2.5335  -2.4506  -2.4385  -2.4186
    -2.4034  -2.3883  -2.2686  -2.2257  -2.1747  -2.0714  -1.9629  -1.9199
    -1.8927  -1.8488  -1.8111  -1.7635  -1.7517  -1.7371  -1.7300  -1.6169
    -1.5041  -1.4724  -1.4574  -1.4104  -1.3937  -1.3837  -1.3624  -1.2762
    -1.1652  -1.0736  -1.0058  -0.9938  -0.9261  -0.9185  -0.8584  -0.7424
    -0.6828  -0.6767  -0.6620  -0.5583  -0.5317  -0.4611  -0.3986  -0.3398
    -0.2854  -0.2227  -0.1722  -0.1491  -0.1369  -0.0379   0.0338   0.0565
     0.1085   0.1180   0.1285   0.1476   0.2448   0.2795   0.3534   0.3973
     0.4340   0.4771   0.5618   0.6115   0.6793   0.7289   0.7519   0.8131
     0.8672   0.9227   1.0175   1.0717   1.0784   1.0876   1.1044   1.1641
     1.1779   1.2536   1.3372   1.3528   1.4251   1.4930   1.6545   1.6936
     1.9448   2.0140   2.6424   3.0098   3.1710   3.4663   3.6558   3.7930
     3.9889   3.9997   4.0065   4.2313   4.2555

[...]

          k = 0.0380-0.0419 0.0000 ( 17876 PWs)   bands (ev):

[...]

          k =-0.0760-0.0000 0.0000 ( 17886 PWs)   bands (ev):

[...]

          k =-0.0760-0.0839 0.0000 ( 17948 PWs)   bands (ev):

   -56.2507 -56.2502 -55.3700 -55.3657 -55.3303 -55.3206 -55.1444 -55.1422
   -55.0380 -54.9008 -54.9004 -54.9002 -54.8960 -54.8167 -54.3889 -54.3537
   -32.5276 -32.5272 -32.5110 -32.5108 -32.3968 -32.3964 -31.6765 -31.6706
   -31.6609 -31.6534 -31.5772 -31.5621 -31.5600 -31.5557 -31.5495 -31.5479
   -31.5423 -31.5336 -31.5024 -31.4860 -31.3900 -31.3881 -31.3541 -31.3483
   -31.3301 -31.2944 -31.2548 -31.2472 -31.2457 -31.2456 -31.2212 -31.1997
   -31.1562 -31.1251 -31.1249 -31.1221 -31.0998 -31.0860 -31.0859 -31.0718
   -31.0549 -31.0194 -30.7714 -30.7089 -30.6155 -30.5909 -30.5738 -30.5274
   -18.4569 -15.7739 -15.7720 -15.7368 -15.7360 -15.4692 -15.4659 -15.3730
   -15.3677 -15.2335 -15.1168 -15.0145 -15.0017 -14.9663 -14.9396 -14.8279
   -14.8067 -14.7975 -14.7873 -14.6765 -14.6564 -14.6106 -14.5993 -14.5835
   -14.5734 -14.2786 -14.2654 -14.1624 -14.1385 -14.0280 -13.9950 -13.4095
   -13.4095 -12.6647  -7.4437  -6.2663  -4.1048  -4.0763  -2.8670  -2.8634
    -2.8090  -2.8081  -2.7972  -2.7430  -2.6440  -2.6030  -2.6019  -2.5984
    -2.5079  -2.4527  -2.4448  -2.3728  -2.3403  -2.3213  -2.2627  -2.2511
    -2.1871  -2.1606  -2.1524  -2.1355  -2.1120  -2.1108  -2.0154  -1.9528
    -1.9012  -1.8974  -1.8301  -1.8112  -1.7479  -1.7265  -1.7148  -1.6824
    -1.6420  -1.6197  -1.5862  -1.5533  -1.5128  -1.4534  -1.2860  -1.2773
    -1.2680  -1.2468  -1.1213  -1.1151  -1.0829  -1.0526  -1.0471  -0.9741
    -0.9228  -0.8884  -0.8305  -0.7476  -0.7251  -0.6230  -0.5722  -0.5261
    -0.4686  -0.3637  -0.3462  -0.3339  -0.3262  -0.2956  -0.2301  -0.2002
    -0.1854  -0.0647  -0.0449   0.0080   0.0290   0.0865   0.1120   0.1745
     0.2033   0.2753   0.2871   0.3258   0.3997   0.4809   0.5160   0.5637
     0.5683   0.8444   0.9183   1.0489   1.0740   1.1157   1.1745   1.2457
     1.3052   1.3380   1.3646   1.4885   1.4928   1.5023   1.5028   1.5736
     1.5787   1.9225   2.5197   3.5857   3.5859   3.6524   3.6531   3.9738
     3.9801   4.0870   4.0973   4.2575   4.2724

     the Fermi energy is     2.8381 ev

!    total energy              =   -2977.74436326 Ry
     estimated scf accuracy    <       0.00000004 Ry
     smearing contrib. (-TS)   =      -0.00446926 Ry
     internal energy E=F+TS    =   -2977.73989399 Ry

     The total energy is F=E-TS. E is the sum of the following terms:
     one-electron contribution =  -22872.85709641 Ry
     hartree contribution      =   11534.08753572 Ry
     xc contribution           =    -496.33039692 Ry
     ewald contribution        =    8857.35898053 Ry
     electric field correction =       0.00108310 Ry

     convergence has been achieved in  91 iterations

     Forces acting on atoms (cartesian axes, Ry/au):

     atom    1 type  1   force =    -0.00003378   -0.00045992    0.12447315
     atom    2 type  1   force =    -0.00008817   -0.00048505   -0.15983699
     atom    3 type  2   force =     0.00019105   -0.00024270   -0.06788038
     atom    4 type  2   force =    -0.00000703   -0.00011711    0.02625366
     atom    5 type  2   force =    -0.01448524    0.00181896   -0.00989349
     atom    6 type  2   force =     0.01626395    0.00224293   -0.01024051
     atom    7 type  1   force =     0.00071284   -0.00388230    0.02884948
     atom    8 type  1   force =    -0.00035031   -0.00440125    0.10953190
     atom    9 type  2   force =     0.00023704   -0.00028324   -0.00046113
     atom   10 type  2   force =    -0.00231398    0.00256466   -0.07332522
     atom   11 type  2   force =     0.00000739   -0.00033691    0.00000293
     atom   12 type  2   force =    -0.00017534   -0.00082306    0.00002570
     atom   13 type  1   force =     0.00106263   -0.00041067    0.00012173
     atom   14 type  1   force =    -0.00065031    0.00070982   -0.00018283
     atom   15 type  2   force =    -0.00028934   -0.00040305   -0.00082018
     atom   16 type  2   force =    -0.00000697   -0.00009818    0.00097915
     atom   17 type  2   force =     0.00002260   -0.00101488   -0.00014498
     atom   18 type  2   force =     0.00063541   -0.00063466    0.00019534
     atom   19 type  1   force =    -0.00113527   -0.00018667   -0.00092521
     atom   20 type  1   force =     0.00080328   -0.00014377   -0.00030674
     atom   21 type  2   force =     0.00004594   -0.00003621    0.09944302
     atom   22 type  2   force =     0.00002796   -0.00026982   -0.00052673
     atom   23 type  2   force =    -0.07966613   -0.00005856   -0.03249038
     atom   24 type  2   force =     0.07950966    0.00038016   -0.03253946
     atom   25 type  1   force =    -0.00000131   -0.00057565    0.12412749
     atom   26 type  1   force =    -0.00008481   -0.00062693   -0.15998248
     atom   27 type  2   force =     0.00030040   -0.00036152   -0.06693177
     atom   28 type  2   force =    -0.00002068    0.00015010    0.02517102
     atom   29 type  2   force =    -0.01510800    0.00192870   -0.00983308
     atom   30 type  2   force =     0.01678344    0.00242772   -0.01014764
     atom   31 type  1   force =     0.00073957   -0.00075672    0.02401762
     atom   32 type  1   force =    -0.00027730    0.00205158    0.11014430
     atom   33 type  2   force =     0.00007168    0.00028784    0.00062662
     atom   34 type  2   force =    -0.00193678    0.00199981   -0.07163365
     atom   35 type  2   force =     0.00000659    0.00034606   -0.00000706
     atom   36 type  2   force =    -0.00055345    0.00061137   -0.00004751
     atom   37 type  1   force =     0.00120405    0.00043587    0.00032017
     atom   38 type  1   force =    -0.00054777   -0.00094370   -0.00029627
     atom   39 type  2   force =    -0.00027569   -0.00011807    0.00083068
     atom   40 type  2   force =     0.00018101   -0.00012759    0.00028855
     atom   41 type  2   force =     0.00086189    0.00033202    0.00032557
     atom   42 type  2   force =    -0.00032499   -0.00004255    0.00071615
     atom   43 type  1   force =    -0.00160135    0.00017919   -0.00039408
     atom   44 type  1   force =     0.00091534   -0.00011497   -0.00023635
     atom   45 type  2   force =     0.00001988   -0.00004800    0.09939784
     atom   46 type  2   force =    -0.07968181    0.00000463   -0.03250340
     atom   47 type  2   force =     0.07953298    0.00043919   -0.03252680
     atom   48 type  3   force =    -0.00086759   -0.00078283   -0.00057890
     atom   49 type  3   force =    -0.00033420   -0.00048743    0.00130401
     atom   50 type  4   force =    -0.00022590   -0.00007899    0.00019885
     atom   51 type  5   force =    -0.00020601    0.00035061    0.00025379
     atom   52 type  5   force =    -0.00005791   -0.00052919    0.00070605
     atom   53 type  5   force =     0.00047555   -0.00014292    0.00018251
     atom   54 type  5   force =     0.00006361   -0.00023282   -0.00059981
     atom   55 type  5   force =     0.00003065    0.00031675   -0.00029915
     atom   56 type  5   force =     0.00029930    0.00036539   -0.00180027
     atom   57 type  2   force =     0.00139755    0.00600613   -0.00531521
     atom   58 type  5   force =     0.00301981   -0.00253769    0.00222373
     atom   59 type  5   force =    -0.00411564   -0.00315393    0.00199666

     Total force =     0.423622     Total SCF correction =     0.000330
  @ DRIVER MODE: Message from server: STATUS
  @ DRIVER MODE: Message from server: GETFORCE
  @ DRIVER MODE: Returning v,forces,stress,ensemble

     Writing output data file ./calc.save/
  @ DRIVER MODE: Message from server: EXIT
  @ DRIVE MODE: Exiting

     General routines

     Parallel routines

   This run was terminated on:  13: 8:34  16Sep2021

   JOB DONE.