     Program PWSCF v.6.7GPU starts on 22Jul2021 at 16: 6:32

     R & G space division:  proc/nbgrp/npool/nimage =      16
     Reading input from /storage/home/hcoda1/3/ntian30/research/carbon/1Jul_vib/slab/rutile_O_br_vacant/out_0003/pw.inp
Warning: card &CELL ignored
Warning: card   CELL_DYNAMICS='IPI', ignored
Warning: card / ignored

     Current dimensions of program PWSCF are:
     Max number of different atomic species (ntypx) = 10
     Max number of k-points (npk) =  40000
     Max angular momentum in pseudopotentials (lmaxx) =  3
     Presently no symmetry can be used with electric field

     Message from routine cell_base_init:
     DEPRECATED: use true lattice parameter, not A to a.u. conversion factor

     IMPORTANT: XC functional enforced from input :
     Exchange-correlation= BEEF-VDW
                           (   1   4  43  14   2   0   0)
     Any further DFT definition will be discarded
     Please, verify this is what you really want

  @ DRIVER MODE: Connecting to
 qe_1139763_2402406.sched-torque.pace.gatech.eduprpcqe3z_scratch
  using UNIX socket
  @ DRIVER MODE: Message from server: STATUS
  @ DRIVER MODE: Message from server: INIT
  @ DRIVER MODE: Receiving replica           0          -1
  @ DRIVER MODE: Receiving encoded integer          25
  @ DRIVER MODE:  SCF:  T  FORCE:  T  STRESS:  F  VC:  F  ENSEMBLE:  F
  @ DRIVER MODE:  SCF:  T  FORCE:  T  STRESS:  F  VC:  F  ENSEMBLE:  F

     Using Slab Decomposition

     bravais-lattice index     =            0
     lattice parameter (alat)  =       1.8897  a.u.
     unit-cell volume          =    6658.9804 (a.u.)^3
     number of atoms/cell      =           47
     number of atomic types    =            2
     number of electrons       =       378.00
     number of Kohn-Sham states=          199
     kinetic-energy cutoff     =      29.3995  Ry
     charge density cutoff     =     293.9946  Ry
     scf convergence threshold =      7.3E-08
     mixing beta               =       0.0500
     number of iterations used =            8  plain     mixing
     Exchange-correlation= BEEF-VDW
                           (   1   4  43  14   2   0   0)

     celldm(1)=   1.889726  celldm(2)=   0.000000  celldm(3)=   0.000000
     celldm(4)=   0.000000  celldm(5)=   0.000000  celldm(6)=   0.000000

     crystal axes: (cart. coord. in units of alat)
               a(1) = (   6.579727   0.000000   0.000000 )
               a(2) = (  -0.000775   5.961596   0.000000 )
               a(3) = (   0.000000   0.000000  25.155947 )

     reciprocal axes: (cart. coord. in units 2 pi/alat)
               b(1) = (  0.151982  0.000020  0.000000 )
               b(2) = (  0.000000  0.167740  0.000000 )
               b(3) = (  0.000000  0.000000  0.039752 )

     PseudoPot. # 1 for Ti read from file:
     /storage/coda1/p-amedford6/0/shared/rich_project_chbe-medford/medford-share/data/pseudos_module/espresso/nninc/pbe/van/Ti.UPF
     MD5 check sum: 8e4df49b7f0d34bbd5052bf3f5ea0213
     Pseudo is Ultrasoft, Zval = 12.0
     Generated by new atomic code, or converted to UPF format
     Using radial grid of  851 points,  6 beta functions with:
                l(1) =   0
                l(2) =   0
                l(3) =   1
                l(4) =   1
                l(5) =   2
                l(6) =   2
     Q(r) pseudized with  8 coefficients,  rinner =    1.000   1.000   1.000
                                                       1.000   1.000

     PseudoPot. # 2 for O  read from file:
     /storage/coda1/p-amedford6/0/shared/rich_project_chbe-medford/medford-share/data/pseudos_module/espresso/nninc/pbe/van/O.UPF
     MD5 check sum: 78c19812648e8988a0fe644b0f25305e
     Pseudo is Ultrasoft, Zval =  6.0
     Generated by new atomic code, or converted to UPF format
     Using radial grid of  737 points,  4 beta functions with:
                l(1) =   0
                l(2) =   0
                l(3) =   1
                l(4) =   1
     Q(r) pseudized with  8 coefficients,  rinner =    0.800   0.800   0.800

     atomic species   valence    mass     pseudopotential
        Ti1           12.00    47.86700     Ti( 1.00)
        O1             6.00    15.99900     O ( 1.00)

     Starting magnetic structure
     atomic species   magnetization
        Ti1          0.000
        O1           0.000

     No symmetry found

   Cartesian axes

     site n.     atom                  positions (alat units)
         1           Ti1 tau(   1) = (   0.0004258   2.9801865   6.0000000  )
         2           Ti1 tau(   2) = (   3.2906075   1.4906267   6.0002472  )
         3           O1  tau(   3) = (   0.0006271   0.0005054   7.9858123  )
         4           O1  tau(   4) = (   3.2906025   0.0005020   7.3038282  )
         5           O1  tau(   5) = (   4.5942328   1.4918067   9.2879030  )
         6           O1  tau(   6) = (   1.9868534   1.4903216   9.2879459  )
         7           Ti1 tau(   7) = (   3.2895655   2.9803496   9.1561551  )
         8           Ti1 tau(   8) = (   6.5792279   1.4901203   9.2542590  )
         9           O1  tau(   9) = (   3.2908496   0.0003861  11.3974292  )
        10           O1  tau(  10) = (   0.0009741   0.0005107  10.6121890  )
        11           O1  tau(  11) = (   1.2851668   1.4970119  12.6717501  )
        12           O1  tau(  12) = (   5.2960956   1.4969944  12.6716611  )
        13           Ti1 tau(  13) = (   0.0014209   2.9817635  12.4865077  )
        14           Ti1 tau(  14) = (   3.2920103   1.4923710  12.5431595  )
        15           O1  tau(  15) = (   0.0005111   0.0003601  14.6908606  )
        16           O1  tau(  16) = (   3.2907661   0.0003422  14.0280135  )
        17           O1  tau(  17) = (   4.5563287   1.5043111  16.1972802  )
        18           O1  tau(  18) = (   2.0238984   1.5042417  16.1969189  )
        19           Ti1 tau(  19) = (   3.2900530   2.9812534  15.7923096  )
        20           Ti1 tau(  20) = (   0.0002900   1.3462356  15.9516996  )
        21           O1  tau(  21) = (   3.2904802   0.0005063   4.7018136  )
        22           O1  tau(  22) = (   0.0005067   0.0002908  17.2230471  )
        23           O1  tau(  23) = (   1.3043587   1.4918075   6.0039043  )
        24           O1  tau(  24) = (   5.2767064   1.4903225   6.0039473  )
        25           Ti1 tau(  25) = (   0.0000382   5.9609847   6.0000000  )
        26           Ti1 tau(  26) = (   3.2902200   4.4714249   6.0002472  )
        27           O1  tau(  27) = (   0.0002396   2.9813036   7.9858123  )
        28           O1  tau(  28) = (   3.2902150   2.9813002   7.3038282  )
        29           O1  tau(  29) = (   4.5938453   4.4726049   9.2879030  )
        30           O1  tau(  30) = (   1.9864658   4.4711199   9.2879459  )
        31           Ti1 tau(  31) = (   3.2890184   5.9611387   9.1545655  )
        32           Ti1 tau(  32) = (   6.5788211   4.4731772   9.2541010  )
        33           O1  tau(  33) = (   3.2904314   2.9811918  11.3932170  )
        34           O1  tau(  34) = (   0.0006808   2.9813391  10.6259032  )
        35           O1  tau(  35) = (   1.2847872   4.4655815  12.6717948  )
        36           O1  tau(  36) = (   5.2956760   4.4653813  12.6716352  )
        37           Ti1 tau(  37) = (   0.0020938   0.0010105  12.4782417  )
        38           Ti1 tau(  38) = (   3.2917349   4.4701355  12.5431901  )
        39           O1  tau(  39) = (   0.0000992   2.9811129  15.0245885  )
        40           O1  tau(  40) = (   3.2903432   2.9811263  13.9978513  )
        41           O1  tau(  41) = (   4.5559250   4.4580163  16.1971803  )
        42           O1  tau(  42) = (   2.0234811   4.4479909  16.1969720  )
        43           Ti1 tau(  43) = (   3.2904469   0.0004528  15.8318627  )
        44           Ti1 tau(  44) = (   0.0000435   4.6159127  15.9515978  )
        45           O1  tau(  45) = (   3.2900926   2.9813045   4.7018136  )
        46           O1  tau(  46) = (   1.3039711   4.4726057   6.0039043  )
        47           O1  tau(  47) = (   5.2763189   4.4711207   6.0039473  )

     number of k points=    10  Fermi-Dirac smearing, width (Ry)=  0.0073
                       cart. coord. in units 2pi/alat
        k(    1) = (   0.0000000   0.0000000   0.0000000), wk =   0.0625000
        k(    2) = (   0.0000000   0.0419351   0.0000000), wk =   0.1250000
        k(    3) = (   0.0000000  -0.0838702   0.0000000), wk =   0.0625000
        k(    4) = (   0.0379955   0.0000049   0.0000000), wk =   0.1250000
        k(    5) = (   0.0379955   0.0419400   0.0000000), wk =   0.1250000
        k(    6) = (   0.0379955  -0.0838652   0.0000000), wk =   0.1250000
        k(    7) = (   0.0379955  -0.0419301   0.0000000), wk =   0.1250000
        k(    8) = (  -0.0759910  -0.0000099   0.0000000), wk =   0.0625000
        k(    9) = (  -0.0759910   0.0419252   0.0000000), wk =   0.1250000
        k(   10) = (  -0.0759910  -0.0838800   0.0000000), wk =   0.0625000

     Initial potential from superposition of free atoms

     starting charge  361.99925, renormalised to  378.00000

     negative rho (up, down):  1.185E-02 1.185E-02

     %%%%%%%%%%%%%%%%%%%%%%%%%%%%%%%%%%%%%%%%%%%%%%%%%%%%%%%%%%%%%%%%%%%%%%%%
     %                                                                      %
     % You are using vdW-DF, which was implemented by the Thonhauser group. %
     % Please cite the following two papers that made this development      %
     % possible and the two reviews that describe the various versions:     %
     %                                                                      %
     %   T. Thonhauser et al., PRL 115, 136402 (2015).                      %
     %   T. Thonhauser et al., PRB 76, 125112 (2007).                       %
     %   K. Berland et al., Rep. Prog. Phys. 78, 066501 (2015).             %
     %   D.C. Langreth et al., J. Phys.: Condens. Matter 21, 084203 (2009). %
     %                                                                      %
     %                                                                      %
     % If you are calculating the stress with vdW-DF, please also cite:     %
     %                                                                      %
     %   R. Sabatini et al., J. Phys.: Condens. Matter 24, 424209 (2012).   %
     %                                                                      %
     %%%%%%%%%%%%%%%%%%%%%%%%%%%%%%%%%%%%%%%%%%%%%%%%%%%%%%%%%%%%%%%%%%%%%%%%

     Adding external electric field

     Computed dipole along edir(3) :
        Dipole                1.1416 Ry au,          2.9015 Debye
        Dipole field          0.0022 Ry au,

        Potential amp.       -0.1997 Ry
        Total length         46.3494 bohr

[...]

     Starting wfcs are  284 atomic wfcs
  @ DRIVER MODE: Message from server: STATUS
  @ DRIVER MODE: Message from server: POSDATA
  @ DRIVER MODE: Reading and sharing cell
  @ DRIVER MODE: Reading and sharing positions
  @ DRIVER MODE: Received positions

     Self-consistent Calculation

     iteration #  1     ecut=    29.40 Ry     beta= 0.05
     Davidson diagonalization with overlap
     c_bands:  2 eigenvalues not converged
     c_bands:  3 eigenvalues not converged
     c_bands:  2 eigenvalues not converged
     c_bands:  3 eigenvalues not converged
     c_bands:  1 eigenvalues not converged
     c_bands:  2 eigenvalues not converged
     c_bands:  1 eigenvalues not converged
     c_bands:  1 eigenvalues not converged
     c_bands:  3 eigenvalues not converged
     c_bands:  2 eigenvalues not converged
     c_bands:  2 eigenvalues not converged
     c_bands:  3 eigenvalues not converged
     c_bands:  2 eigenvalues not converged
     c_bands:  3 eigenvalues not converged
     c_bands:  1 eigenvalues not converged
     c_bands:  2 eigenvalues not converged
     c_bands:  1 eigenvalues not converged
     c_bands:  1 eigenvalues not converged
     c_bands:  3 eigenvalues not converged
     c_bands:  2 eigenvalues not converged
     ethr =  1.00E-05,  avg # of iterations = 20.0

[...]

     total energy              =   -2885.09664318 Ry
     estimated scf accuracy    <      12.51224622 Ry

     total magnetization       =    -0.00 Bohr mag/cell
     absolute magnetization    =     0.00 Bohr mag/cell

     iteration #  2     ecut=    29.40 Ry     beta= 0.05
     Davidson diagonalization with overlap
     ethr =  3.31E-03,  avg # of iterations =  1.0

[...]

     iteration # 61     ecut=    29.40 Ry     beta= 0.05
     Davidson diagonalization with overlap
     ethr =  4.60E-11,  avg # of iterations =  6.3

[...]

     total energy              =   -2883.85324470 Ry
     estimated scf accuracy    <       0.00000008 Ry

[...]

     iteration # 63     ecut=    29.40 Ry     beta= 0.05
     Davidson diagonalization with overlap
     c_bands:  1 eigenvalues not converged
     c_bands:  1 eigenvalues not converged
     ethr =  2.11E-11,  avg # of iterations = 14.0

     negative rho (up, down):  1.071E-02 1.071E-02

[...]

     Adding external electric field

     Computed dipole along edir(3) :
        Dipole                0.5567 Ry au,          1.4151 Debye
        Dipole field          0.0011 Ry au,

        Potential amp.       -0.0974 Ry
        Total length         46.3494 bohr

     Magnetic moment per site  (integrated on atomic sphere of radius R)
     atom   1 (R=0.740)  charge=  8.0666  magn=  0.0000
     atom   2 (R=0.740)  charge=  8.0461  magn=  0.0000
     atom   3 (R=0.740)  charge=  5.0351  magn= -0.0000
     atom   4 (R=0.740)  charge=  5.0740  magn= -0.0000
     atom   5 (R=0.740)  charge=  5.0337  magn=  0.0000
     atom   6 (R=0.740)  charge=  5.0338  magn= -0.0000
     atom   7 (R=0.740)  charge=  8.0460  magn= -0.0000
     atom   8 (R=0.740)  charge=  8.0494  magn=  0.0000
     atom   9 (R=0.740)  charge=  5.0395  magn=  0.0000
     atom  10 (R=0.740)  charge=  5.0477  magn=  0.0000
     atom  11 (R=0.740)  charge=  5.0325  magn= -0.0000
     atom  12 (R=0.740)  charge=  5.0326  magn= -0.0000
     atom  13 (R=0.740)  charge=  8.0562  magn= -0.0000
     atom  14 (R=0.740)  charge=  8.0499  magn= -0.0000
     atom  15 (R=0.740)  charge=  5.0484  magn=  0.0000
     atom  16 (R=0.740)  charge=  5.0334  magn=  0.0000
     atom  17 (R=0.740)  charge=  5.0152  magn= -0.0000
     atom  18 (R=0.740)  charge=  5.0151  magn= -0.0000
     atom  19 (R=0.740)  charge=  8.0777  magn=  0.0000
     atom  20 (R=0.740)  charge=  8.0901  magn=  0.0000
     atom  21 (R=0.740)  charge=  4.9132  magn= -0.0000
     atom  22 (R=0.740)  charge=  4.9955  magn=  0.0000
     atom  23 (R=0.740)  charge=  5.0274  magn=  0.0000
     atom  24 (R=0.740)  charge=  5.0275  magn=  0.0000
     atom  25 (R=0.740)  charge=  8.0667  magn=  0.0000
     atom  26 (R=0.740)  charge=  8.0461  magn=  0.0000
     atom  27 (R=0.740)  charge=  5.0346  magn=  0.0000
     atom  28 (R=0.740)  charge=  5.0735  magn= -0.0000
     atom  29 (R=0.740)  charge=  5.0337  magn= -0.0000
     atom  30 (R=0.740)  charge=  5.0338  magn=  0.0000
     atom  31 (R=0.740)  charge=  8.0465  magn=  0.0000
     atom  32 (R=0.740)  charge=  8.0494  magn=  0.0000
     atom  33 (R=0.740)  charge=  5.0395  magn=  0.0000
     atom  34 (R=0.740)  charge=  5.0426  magn=  0.0000
     atom  35 (R=0.740)  charge=  5.0324  magn= -0.0000
     atom  36 (R=0.740)  charge=  5.0325  magn= -0.0000
     atom  37 (R=0.740)  charge=  8.0520  magn= -0.0000
     atom  38 (R=0.740)  charge=  8.0499  magn= -0.0000
     atom  39 (R=0.740)  charge=  5.0311  magn= -0.0000
     atom  40 (R=0.740)  charge=  5.0468  magn= -0.0000
     atom  41 (R=0.740)  charge=  5.0152  magn=  0.0000
     atom  42 (R=0.740)  charge=  5.0150  magn= -0.0000
     atom  43 (R=0.740)  charge=  8.0771  magn= -0.0000
     atom  44 (R=0.740)  charge=  8.0902  magn= -0.0000
     atom  45 (R=0.740)  charge=  4.9131  magn= -0.0000
     atom  46 (R=0.740)  charge=  5.0274  magn=  0.0000
     atom  47 (R=0.740)  charge=  5.0275  magn=  0.0000

     End of self-consistent calculation

 ------ SPIN UP ------------

          k = 0.0000 0.0000 0.0000 ( 18029 PWs)   bands (ev):

   -56.2752 -56.2393 -56.2241 -56.1899 -56.1595 -56.1418 -56.1130 -56.1072
   -56.0895 -56.0789 -56.0742 -56.0526 -56.0256 -56.0186 -55.3382 -55.3041
   -32.8373 -32.7914 -32.7265 -32.6269 -32.5857 -32.5802 -32.5779 -32.5672
   -32.5143 -32.5047 -32.4804 -32.4693 -32.4679 -32.4454 -32.4443 -32.4251
   -32.4124 -32.4112 -32.3996 -32.3886 -32.3762 -32.3756 -32.3725 -32.3713
   -32.3469 -32.3444 -32.3224 -32.2791 -32.2725 -32.2638 -32.2626 -32.2566
   -32.2504 -32.2411 -32.2405 -32.2356 -32.2273 -32.2101 -32.1996 -32.1855
   -32.1680 -32.1076 -31.7510 -31.6463 -31.6250 -31.5668 -31.4805 -31.3697
   -17.1061 -16.8836 -16.7412 -16.6042 -16.5027 -16.3996 -16.2753 -16.2256
   -16.1718 -16.0239 -15.9651 -15.9403 -15.9004 -15.8769 -15.8681 -15.8528
   -15.8309 -15.8148 -15.7942 -15.7858 -15.7700 -15.7694 -15.7212 -15.6688
   -15.5746 -15.5077 -15.4372 -15.3800 -15.0546 -13.8390 -13.7192  -4.4264
    -4.2913  -4.2170  -4.2020  -4.1490  -4.0403  -3.8198  -3.7965  -3.7305
    -3.5749  -3.5263  -3.4688  -3.4092  -3.3398  -3.2824  -3.2722  -3.1707
    -3.1451  -3.1409  -3.1355  -3.0532  -3.0506  -3.0289  -3.0011  -2.9636
    -2.8718  -2.7521  -2.7077  -2.6739  -2.6527  -2.6448  -2.6221  -2.5931
    -2.5607  -2.5267  -2.5254  -2.4902  -2.4460  -2.3242  -2.1769  -2.1330
    -2.0632  -1.9715  -1.9001  -1.8347  -1.7942  -1.7564  -1.7319  -1.6825
    -1.6507  -1.6191  -1.5414  -1.4520  -1.4108  -1.3076  -1.2914  -1.2214
    -1.1875  -1.1149  -1.0712  -1.0701  -1.0270  -0.9401  -0.9117  -0.7878
    -0.7605  -0.7526  -0.7402  -0.7303  -0.6202  -0.5173  -0.4861  -0.4791
    -0.4767  -0.3923  -0.3421  -0.3351  -0.3188  -0.3131  -0.2635  -0.1876
    -0.1475  -0.0965   0.0478   0.2727   0.2730   0.3370   0.5711   0.6418
     0.6880   0.8449   1.2737   1.3272   2.8231   2.8888   2.9200   2.9532
     2.9825   3.0294   3.3197   3.3334   3.3570   3.3847   3.4029

[...]

          k =-0.0760-0.0000 0.0000 ( 17886 PWs)   bands (ev):

[...]

 ------ SPIN DOWN ----------

[...]

          k = 0.0380-0.0419 0.0000 ( 17876 PWs)   bands (ev):

[...]

          k =-0.0760-0.0839 0.0000 ( 17948 PWs)   bands (ev):

   -56.2574 -56.2569 -56.2072 -56.2067 -56.1558 -56.1265 -56.1225 -56.0965
   -56.0950 -56.0830 -56.0777 -56.0358 -56.0354 -56.0320 -55.3211 -55.3211
   -32.7150 -32.6428 -32.6401 -32.5444 -32.5414 -32.5410 -32.5227 -32.4996
   -32.4996 -32.4725 -32.4699 -32.4690 -32.4601 -32.4208 -32.4172 -32.4167
   -32.4111 -32.4104 -32.3964 -32.3910 -32.3897 -32.3859 -32.3704 -32.3590
   -32.3554 -32.3530 -32.3512 -32.3501 -32.3248 -32.3244 -32.3191 -32.3152
   -32.2923 -32.2911 -32.2657 -32.2655 -32.2648 -32.2591 -32.2347 -32.2213
   -32.2211 -32.2122 -31.6375 -31.6375 -31.5636 -31.5635 -31.5237 -31.5236
   -16.8147 -16.4573 -16.4217 -16.3350 -16.3275 -16.2273 -16.2090 -16.1191
   -16.0780 -16.0545 -16.0525 -15.9990 -15.9813 -15.9594 -15.9567 -15.8948
   -15.8795 -15.8512 -15.8477 -15.7934 -15.7908 -15.7896 -15.7884 -15.7524
   -15.7494 -15.7107 -15.7074 -15.6024 -15.4399 -13.8202 -13.8200  -3.8306
    -3.7260  -3.6758  -3.5581  -3.4840  -3.4478  -3.4019  -3.3927  -3.3185
    -3.2749  -3.2685  -3.1882  -3.1764  -3.1760  -3.1639  -3.1044  -3.0864
    -3.0629  -3.0342  -3.0143  -2.9845  -2.9716  -2.9698  -2.9493  -2.9406
    -2.9207  -2.9193  -2.8886  -2.8607  -2.8427  -2.8266  -2.6660  -2.6617
    -2.5754  -2.5162  -2.5148  -2.4353  -2.4272  -2.3825  -2.3493  -2.2918
    -2.2544  -2.0966  -2.0760  -2.0739  -2.0073  -1.9813  -1.9129  -1.8562
    -1.8391  -1.7911  -1.7325  -1.6171  -1.6002  -1.5746  -1.4664  -1.4644
    -1.3911  -1.3178  -1.2720  -1.2685  -1.2652  -1.2361  -1.2328  -1.2289
    -1.1193  -1.0670  -1.0202  -1.0129  -0.9997  -0.7952  -0.7359  -0.7231
    -0.6100  -0.5569  -0.3733  -0.3658  -0.3255  -0.2112  -0.2098  -0.2070
    -0.1563  -0.0324  -0.0206   0.0469   0.0896   0.1028   0.1418   0.1433
     1.0365   1.0376   1.1450   1.1456   2.9948   3.0755   3.0809   3.1321
     3.2711   3.3226   3.3278   3.3733   3.3753   3.3786   3.4788

     the Fermi energy is     2.8886 ev

!    total energy              =   -2883.85327032 Ry
     estimated scf accuracy    <       0.00000003 Ry
     smearing contrib. (-TS)   =      -0.03660511 Ry
     internal energy E=F+TS    =   -2883.81666521 Ry

     The total energy is F=E-TS. E is the sum of the following terms:
     one-electron contribution =  -24914.61662249 Ry
     hartree contribution      =   12532.15863985 Ry
     xc contribution           =    -468.94599162 Ry
     ewald contribution        =    9967.58672412 Ry
     electric field correction =       0.00058493 Ry

     total magnetization       =     0.00 Bohr mag/cell
     absolute magnetization    =     0.00 Bohr mag/cell

     convergence has been achieved in  63 iterations

     Forces acting on atoms (cartesian axes, Ry/au):

     atom    1 type  1   force =     0.00010327   -0.00000096    0.08980235
     atom    2 type  1   force =    -0.00004103    0.00031144   -0.18455030
     atom    3 type  2   force =     0.00003088   -0.00000532   -0.02423387
     atom    4 type  2   force =    -0.00000866   -0.00002081    0.05193920
     atom    5 type  2   force =    -0.01337448   -0.00027990    0.00585220
     atom    6 type  2   force =     0.01334831    0.00020326    0.00581918
     atom    7 type  1   force =    -0.00002819    0.00002590    0.00044311
     atom    8 type  1   force =     0.00001842    0.00038222    0.00042892
     atom    9 type  2   force =     0.00000835    0.00002520    0.00085833
     atom   10 type  2   force =    -0.00000234    0.00000722   -0.00042611
     atom   11 type  2   force =     0.00017855   -0.00027267    0.00047975
     atom   12 type  2   force =    -0.00019903   -0.00029515    0.00047684
     atom   13 type  1   force =    -0.00000368   -0.00000554   -0.00064710
     atom   14 type  1   force =     0.00003189   -0.00046597    0.00056731
     atom   15 type  2   force =     0.00020817   -0.00007114   -0.00077110
     atom   16 type  2   force =    -0.00007347   -0.00005434    0.00067004
     atom   17 type  2   force =    -0.00003581   -0.00075706    0.00004403
     atom   18 type  2   force =     0.00009298   -0.00076890   -0.00002888
     atom   19 type  1   force =     0.00010070   -0.00043565   -0.00090547
     atom   20 type  1   force =     0.00005094    0.00052764   -0.00018378
     atom   21 type  2   force =     0.00005913    0.00007610    0.10531124
     atom   22 type  2   force =     0.00036251   -0.00025727    0.00048127
     atom   23 type  2   force =    -0.06756895   -0.00026810   -0.02599504
     atom   24 type  2   force =     0.06747624    0.00016766   -0.02602915
     atom   25 type  1   force =     0.00010227    0.00000776    0.08889348
     atom   26 type  1   force =    -0.00006949   -0.00040058   -0.18455671
     atom   27 type  2   force =     0.00003117   -0.00002045   -0.02315895
     atom   28 type  2   force =    -0.00000545   -0.00002064    0.05197705
     atom   29 type  2   force =    -0.01338248   -0.00026470    0.00584938
     atom   30 type  2   force =     0.01335128    0.00023328    0.00581718
     atom   31 type  1   force =    -0.00003355    0.00001791    0.00076727
     atom   32 type  1   force =     0.00000651   -0.00037202    0.00044982
     atom   33 type  2   force =     0.00002197    0.00001551   -0.00032838
     atom   34 type  2   force =    -0.00001566    0.00000375    0.00005279
     atom   35 type  2   force =     0.00016674    0.00029932    0.00048120
     atom   36 type  2   force =    -0.00019334    0.00028695    0.00048216
     atom   37 type  1   force =    -0.00000565   -0.00001786    0.00080538
     atom   38 type  1   force =     0.00002676    0.00046883    0.00056021
     atom   39 type  2   force =    -0.00041124   -0.00030700   -0.00056473
     atom   40 type  2   force =     0.00009355   -0.00002097   -0.00112036
     atom   41 type  2   force =     0.00010794    0.00009082   -0.00000359
     atom   42 type  2   force =    -0.00041501    0.00315581    0.00027239
     atom   43 type  1   force =    -0.00004575   -0.00030812    0.00058511
     atom   44 type  1   force =    -0.00002977   -0.00078086    0.00008675
     atom   45 type  2   force =     0.00005929    0.00007558    0.10527237
     atom   46 type  2   force =    -0.06756907   -0.00017329   -0.02599025
     atom   47 type  2   force =     0.06747427    0.00026311   -0.02603253

     Total force =     0.366879     Total SCF correction =     0.000612
  @ DRIVER MODE: Message from server: STATUS
  @ DRIVER MODE: Message from server: GETFORCE
  @ DRIVER MODE: Returning v,forces,stress,ensemble

     Writing output data file ./calc.save/
  @ DRIVER MODE: Message from server: EXIT
  @ DRIVE MODE: Exiting

     General routines

     Parallel routines

   This run was terminated on:  16:37: 5  22Jul2021

   JOB DONE.