     Program PWSCF v.6.7GPU starts on 23Sep2021 at 23: 5:40

     R & G space division:  proc/nbgrp/npool/nimage =       8
     Reading input from /storage/home/hcoda1/3/ntian30/research/carbon/CxH_vib/H2O_calc/ads_slab/CH2ON2HO_b/out_0028/pw.inp
Warning: card &CELL ignored
Warning: card   CELL_DYNAMICS='IPI', ignored
Warning: card / ignored

     Current dimensions of program PWSCF are:
     Max number of different atomic species (ntypx) = 10
     Max number of k-points (npk) =  40000
     Max angular momentum in pseudopotentials (lmaxx) =  3
     Presently no symmetry can be used with electric field

     Message from routine cell_base_init:
     DEPRECATED: use true lattice parameter, not A to a.u. conversion factor

     IMPORTANT: XC functional enforced from input :
     Exchange-correlation= BEEF-VDW
                           (   1   4  43  14   2   0   0)
     Any further DFT definition will be discarded
     Please, verify this is what you really want

  @ DRIVER MODE: Connecting to
 qe_1139763_2947315.sched-torque.pace.gatech.edunal89qbo_scratch
  using UNIX socket
  @ DRIVER MODE: Message from server: STATUS
  @ DRIVER MODE: Message from server: INIT
  @ DRIVER MODE: Receiving replica           0          -1
  @ DRIVER MODE: Receiving encoded integer          25
  @ DRIVER MODE:  SCF:  T  FORCE:  T  STRESS:  F  VC:  F  ENSEMBLE:  F
  @ DRIVER MODE:  SCF:  T  FORCE:  T  STRESS:  F  VC:  F  ENSEMBLE:  F

     Using Slab Decomposition

     bravais-lattice index     =            0
     lattice parameter (alat)  =       1.8897  a.u.
     unit-cell volume          =    6658.9804 (a.u.)^3
     number of atoms/cell      =           55
     number of atomic types    =            5
     number of electrons       =       407.00
     number of Kohn-Sham states=          213
     kinetic-energy cutoff     =      29.3995  Ry
     charge density cutoff     =     293.9946  Ry
     scf convergence threshold =      7.3E-08
     mixing beta               =       0.0500
     number of iterations used =            8  plain     mixing
     Exchange-correlation= BEEF-VDW
                           (   1   4  43  14   2   0   0)

     celldm(1)=   1.889726  celldm(2)=   0.000000  celldm(3)=   0.000000
     celldm(4)=   0.000000  celldm(5)=   0.000000  celldm(6)=   0.000000

     crystal axes: (cart. coord. in units of alat)
               a(1) = (   6.579727   0.000000   0.000000 )
               a(2) = (  -0.000775   5.961596   0.000000 )
               a(3) = (   0.000000   0.000000  25.155947 )

     reciprocal axes: (cart. coord. in units 2 pi/alat)
               b(1) = (  0.151982  0.000020  0.000000 )
               b(2) = (  0.000000  0.167740  0.000000 )
               b(3) = (  0.000000  0.000000  0.039752 )

     PseudoPot. # 1 for C  read from file:
     /storage/coda1/p-amedford6/0/shared/rich_project_chbe-medford/medford-share/data/pseudos_module/espresso/nninc/pbe/van/C.UPF
     MD5 check sum: 1a69bf6b8db32088f5b2163dbdb77a27
     Pseudo is Ultrasoft, Zval =  4.0
     Generated by new atomic code, or converted to UPF format
     Using radial grid of  721 points,  4 beta functions with:
                l(1) =   0
                l(2) =   0
                l(3) =   1
                l(4) =   1
     Q(r) pseudized with  8 coefficients,  rinner =    0.800   0.800   0.800

     PseudoPot. # 2 for H  read from file:
     /storage/coda1/p-amedford6/0/shared/rich_project_chbe-medford/medford-share/data/pseudos_module/espresso/nninc/pbe/van/H.UPF
     MD5 check sum: b5ee9d7bfd3a09ee7748110bda690ff7
     Pseudo is Ultrasoft, Zval =  1.0
     Generated by new atomic code, or converted to UPF format
     Using radial grid of  615 points,  1 beta functions with:
                l(1) =   0
     Q(r) pseudized with  8 coefficients,  rinner =    0.800

     PseudoPot. # 3 for O  read from file:
     /storage/coda1/p-amedford6/0/shared/rich_project_chbe-medford/medford-share/data/pseudos_module/espresso/nninc/pbe/van/O.UPF
     MD5 check sum: 78c19812648e8988a0fe644b0f25305e
     Pseudo is Ultrasoft, Zval =  6.0
     Generated by new atomic code, or converted to UPF format
     Using radial grid of  737 points,  4 beta functions with:
                l(1) =   0
                l(2) =   0
                l(3) =   1
                l(4) =   1
     Q(r) pseudized with  8 coefficients,  rinner =    0.800   0.800   0.800

     PseudoPot. # 4 for Ti read from file:
     /storage/coda1/p-amedford6/0/shared/rich_project_chbe-medford/medford-share/data/pseudos_module/espresso/nninc/pbe/van/Ti.UPF
     MD5 check sum: 8e4df49b7f0d34bbd5052bf3f5ea0213
     Pseudo is Ultrasoft, Zval = 12.0
     Generated by new atomic code, or converted to UPF format
     Using radial grid of  851 points,  6 beta functions with:
                l(1) =   0
                l(2) =   0
                l(3) =   1
                l(4) =   1
                l(5) =   2
                l(6) =   2
     Q(r) pseudized with  8 coefficients,  rinner =    1.000   1.000   1.000
                                                       1.000   1.000

     PseudoPot. # 5 for N  read from file:
     /storage/coda1/p-amedford6/0/shared/rich_project_chbe-medford/medford-share/data/pseudos_module/espresso/nninc/pbe/van/N.UPF
     MD5 check sum: 90d10febe142ad51ac9d5be1deb811c4
     Pseudo is Ultrasoft, Zval =  5.0
     Generated by new atomic code, or converted to UPF format
     Using radial grid of  729 points,  4 beta functions with:
                l(1) =   0
                l(2) =   0
                l(3) =   1
                l(4) =   1
     Q(r) pseudized with  8 coefficients,  rinner =    0.800   0.800   0.800

     atomic species   valence    mass     pseudopotential
        C1             4.00    12.01100     C ( 1.00)
        H1             1.00     1.00800     H ( 1.00)
        O1             6.00    15.99900     O ( 1.00)
        Ti1           12.00    47.86700     Ti( 1.00)
        N1             5.00    14.00700     N ( 1.00)

     No symmetry found

   Cartesian axes

     site n.     atom                  positions (alat units)
         1           C1  tau(   1) = (   6.3959394   2.9948767  18.7016815  )
         2           H1  tau(   2) = (   6.3118651   3.9496324  19.2181435  )
         3           H1  tau(   3) = (   6.2946090   2.0524817  19.2375006  )
         4           O1  tau(   4) = (   3.2904802   0.0005063   4.7018136  )
         5           O1  tau(   5) = (   3.2900926   2.9813045   4.7018136  )
         6           O1  tau(   6) = (   1.3043587   1.4918075   6.0039043  )
         7           O1  tau(   7) = (   1.3039711   4.4726057   6.0039043  )
         8           O1  tau(   8) = (   5.2767064   1.4903225   6.0039473  )
         9           O1  tau(   9) = (   5.2763189   4.4711207   6.0039473  )
        10           O1  tau(  10) = (   3.2906025   0.0005020   7.3038282  )
        11           O1  tau(  11) = (   3.2902150   2.9813002   7.3038282  )
        12           O1  tau(  12) = (   0.0006271   0.0005054   7.9858123  )
        13           O1  tau(  13) = (   0.0002396   2.9813036   7.9858123  )
        14           O1  tau(  14) = (   4.5942328   1.4918067   9.2879030  )
        15           O1  tau(  15) = (   4.5938453   4.4726049   9.2879030  )
        16           O1  tau(  16) = (   1.9868534   1.4903216   9.2879459  )
        17           O1  tau(  17) = (   1.9864658   4.4711199   9.2879459  )
        18           O1  tau(  18) = (   0.0129981   2.9922367  10.5657274  )
        19           O1  tau(  19) = (   0.0144279   0.0091559  10.5889743  )
        20           O1  tau(  20) = (   3.3117767   2.9674386  11.3102582  )
        21           O1  tau(  21) = (   3.3129298   0.0243810  11.3450129  )
        22           O1  tau(  22) = (   5.3345884   1.4970258  12.6342112  )
        23           O1  tau(  23) = (   5.3394917   4.4808886  12.6396439  )
        24           O1  tau(  24) = (   1.3039726   1.5040805  12.6380785  )
        25           O1  tau(  25) = (   1.3005587   4.4728597  12.6427203  )
        26           O1  tau(  26) = (   3.3397831   2.9746101  13.9049785  )
        27           O1  tau(  27) = (   3.3223070   5.9049495  13.9699414  )
        28           O1  tau(  28) = (   0.0408547   5.9558716  14.6791314  )
        29           O1  tau(  29) = (   0.0240783   2.9814708  14.7219997  )
        30           O1  tau(  30) = (   4.6055448   4.4181431  16.1204950  )
        31           O1  tau(  31) = (   4.6084482   1.5084077  16.0967128  )
        32           O1  tau(  32) = (   2.0524258   4.3896087  16.0537013  )
        33           O1  tau(  33) = (   2.0565100   1.5382275  16.0573534  )
        34           O1  tau(  34) = (   0.0881354   5.9599038  17.1931241  )
        35           O1  tau(  35) = (   0.0264254   2.9794292  17.4619454  )
        36           Ti1 tau(  36) = (   0.0004258   2.9801865   6.0000000  )
        37           Ti1 tau(  37) = (   0.0000382   5.9609847   6.0000000  )
        38           Ti1 tau(  38) = (   3.2906075   1.4906267   6.0002472  )
        39           Ti1 tau(  39) = (   3.2902200   4.4714249   6.0002472  )
        40           Ti1 tau(  40) = (   3.3176177   0.0844252   9.1703869  )
        41           Ti1 tau(  41) = (   3.3271239   3.0668301   9.1994626  )
        42           Ti1 tau(  42) = (   0.0459265   4.5214211   9.2633915  )
        43           Ti1 tau(  43) = (   0.0410032   1.6055327   9.3499854  )
        44           Ti1 tau(  44) = (   3.3214603   4.6642404  12.6916750  )
        45           Ti1 tau(  45) = (   3.3199143   1.5801738  12.4350604  )
        46           Ti1 tau(  46) = (   0.0219714   0.0386744  12.4748393  )
        47           Ti1 tau(  47) = (   0.0368166   3.0234317  12.7766128  )
        48           Ti1 tau(  48) = (   3.3281430   2.9430002  15.6816790  )
        49           Ti1 tau(  49) = (   3.4175200   5.9218210  16.2589141  )
        50           Ti1 tau(  50) = (   0.0864224   1.3736379  15.9343534  )
        51           Ti1 tau(  51) = (   0.1056494   4.5744356  15.9464672  )
        52           N1  tau(  52) = (   3.6299987   3.2257240  20.3374172  )
        53           N1  tau(  53) = (   2.7220030   2.6454082  20.0695964  )
        54           O1  tau(  54) = (   3.1925635   5.9265077  18.0938652  )
        55           H1  tau(  55) = (   2.2801939   0.0950383  18.3989923  )

     number of k points=    10  Fermi-Dirac smearing, width (Ry)=  0.0073
                       cart. coord. in units 2pi/alat
        k(    1) = (   0.0000000   0.0000000   0.0000000), wk =   0.1250000
        k(    2) = (   0.0000000   0.0419351   0.0000000), wk =   0.2500000
        k(    3) = (   0.0000000  -0.0838702   0.0000000), wk =   0.1250000
        k(    4) = (   0.0379955   0.0000049   0.0000000), wk =   0.2500000
        k(    5) = (   0.0379955   0.0419400   0.0000000), wk =   0.2500000
        k(    6) = (   0.0379955  -0.0838652   0.0000000), wk =   0.2500000
        k(    7) = (   0.0379955  -0.0419301   0.0000000), wk =   0.2500000
        k(    8) = (  -0.0759910  -0.0000099   0.0000000), wk =   0.1250000
        k(    9) = (  -0.0759910   0.0419252   0.0000000), wk =   0.2500000
        k(   10) = (  -0.0759910  -0.0838800   0.0000000), wk =   0.1250000

     Initial potential from superposition of free atoms

     starting charge  390.99916, renormalised to  407.00000

     negative rho (up, down):  1.488E-02 0.000E+00

     %%%%%%%%%%%%%%%%%%%%%%%%%%%%%%%%%%%%%%%%%%%%%%%%%%%%%%%%%%%%%%%%%%%%%%%%
     %                                                                      %
     % You are using vdW-DF, which was implemented by the Thonhauser group. %
     % Please cite the following two papers that made this development      %
     % possible and the two reviews that describe the various versions:     %
     %                                                                      %
     %   T. Thonhauser et al., PRL 115, 136402 (2015).                      %
     %   T. Thonhauser et al., PRB 76, 125112 (2007).                       %
     %   K. Berland et al., Rep. Prog. Phys. 78, 066501 (2015).             %
     %   D.C. Langreth et al., J. Phys.: Condens. Matter 21, 084203 (2009). %
     %                                                                      %
     %                                                                      %
     % If you are calculating the stress with vdW-DF, please also cite:     %
     %                                                                      %
     %   R. Sabatini et al., J. Phys.: Condens. Matter 24, 424209 (2012).   %
     %                                                                      %
     %%%%%%%%%%%%%%%%%%%%%%%%%%%%%%%%%%%%%%%%%%%%%%%%%%%%%%%%%%%%%%%%%%%%%%%%

     Adding external electric field

     Computed dipole along edir(3) :
        Dipole              -15.3787 Ry au,        -39.0886 Debye
        Dipole field         -0.0290 Ry au,

        Potential amp.        2.6903 Ry
        Total length         46.3494 bohr

     Starting wfcs are  307 atomic wfcs
  @ DRIVER MODE: Message from server: STATUS
  @ DRIVER MODE: Message from server: POSDATA
  @ DRIVER MODE: Reading and sharing cell
  @ DRIVER MODE: Reading and sharing positions
  @ DRIVER MODE: Received positions

     Self-consistent Calculation

     iteration #  1     ecut=    29.40 Ry     beta= 0.05
     Davidson diagonalization with overlap
     c_bands:  1 eigenvalues not converged
     c_bands:  1 eigenvalues not converged
     c_bands:  1 eigenvalues not converged
     c_bands:  1 eigenvalues not converged
     c_bands:  3 eigenvalues not converged
     ethr =  1.00E-05,  avg # of iterations = 34.7

[...]

     total energy              =   -2231.75770472 Ry
     estimated scf accuracy    <    8831.90265644 Ry

     iteration #  2     ecut=    29.40 Ry     beta= 0.05
     Davidson diagonalization with overlap
     ethr =  1.00E-02,  avg # of iterations = 32.1

[...]

     iteration # 56     ecut=    29.40 Ry     beta= 0.05
     Davidson diagonalization with overlap
     c_bands:  1 eigenvalues not converged
     c_bands:  1 eigenvalues not converged
     ethr =  1.05E-06,  avg # of iterations = 12.8

[...]

     total energy              =   -3003.97495234 Ry
     estimated scf accuracy    <       0.00000011 Ry

     iteration # 80     ecut=    29.40 Ry     beta= 0.05
     Davidson diagonalization with overlap
     ethr =  2.63E-11,  avg # of iterations =  6.7

     negative rho (up, down):  1.522E-02 0.000E+00

     Adding external electric field

     Computed dipole along edir(3) :
        Dipole                0.8993 Ry au,          2.2859 Debye
        Dipole field          0.0017 Ry au,

        Potential amp.       -0.1573 Ry
        Total length         46.3494 bohr

     End of self-consistent calculation

          k = 0.0000 0.0000 0.0000 ( 18029 PWs)   bands (ev):

   -55.6626 -55.6201 -55.5449 -55.4596 -55.4252 -55.4142 -55.4019 -55.3635
   -55.3080 -55.2752 -55.2700 -55.2369 -55.1936 -55.1012 -54.5111 -54.4770
   -32.1143 -32.0129 -31.9571 -31.9292 -31.9166 -31.8740 -31.8683 -31.8240
   -31.8208 -31.7632 -31.7573 -31.7452 -31.7373 -31.7304 -31.7258 -31.7028
   -31.6821 -31.6766 -31.6361 -31.6255 -31.6130 -31.6014 -31.5992 -31.5979
   -31.5611 -31.5556 -31.5170 -31.5120 -31.5095 -31.4998 -31.4982 -31.4901
   -31.4655 -31.4639 -31.4366 -31.4337 -31.4314 -31.3864 -31.3861 -31.3484
   -31.3097 -31.3064 -30.9137 -30.8373 -30.8140 -30.7307 -30.6447 -30.5333
   -21.0437 -20.0513 -16.3325 -16.1585 -15.9915 -15.8034 -15.7043 -15.6422
   -15.4354 -15.3765 -15.2996 -15.1444 -15.1172 -15.0801 -15.0515 -15.0297
   -15.0211 -14.9975 -14.9876 -14.9467 -14.9229 -14.9192 -14.8741 -14.8105
   -14.7647 -14.7557 -14.7119 -14.6532 -14.6070 -14.5947 -14.5369 -14.3472
   -13.0120 -12.8981  -9.2721  -6.4323  -5.5870  -5.5536  -4.2454  -4.2271
    -3.9026  -3.5544  -3.5160  -3.4714  -3.3883  -3.3657  -3.2375  -3.0699
    -3.0446  -2.8907  -2.7608  -2.6882  -2.6545  -2.6194  -2.5041  -2.4564
    -2.4298  -2.3921  -2.3602  -2.3361  -2.2966  -2.2792  -2.2452  -2.2003
    -2.1713  -2.0807  -2.0772  -2.0305  -1.9497  -1.9142  -1.9083  -1.9046
    -1.8830  -1.8373  -1.7974  -1.7518  -1.7245  -1.6738  -1.5675  -1.5481
    -1.5427  -1.4741  -1.2299  -1.0941  -1.0662  -0.9932  -0.9562  -0.9389
    -0.9006  -0.8957  -0.8810  -0.8452  -0.8168  -0.6981  -0.6357  -0.5744
    -0.5685  -0.5481  -0.5037  -0.4031  -0.3415  -0.3071  -0.2634  -0.2495
    -0.1797  -0.1623  -0.0821  -0.0486   0.0198   0.1244   0.1682   0.1978
     0.2173   0.2316   0.2811   0.3359   0.3899   0.4210   0.4330   0.4620
     0.5322   0.5557   0.5692   0.5957   0.6830   0.7488   0.7661   0.8272
     0.9107   0.9383   1.0335   1.1630   1.2369   1.4848   1.5108   1.5931
     1.7250   2.0730   2.1186   3.5520   3.6305   3.6603   3.7444   3.8069
     3.8341   3.9177   4.0017   4.0890   4.1232

[...]

          k = 0.0380-0.0419 0.0000 ( 17876 PWs)   bands (ev):

[...]

          k =-0.0760-0.0000 0.0000 ( 17886 PWs)   bands (ev):

[...]

          k =-0.0760-0.0839 0.0000 ( 17948 PWs)   bands (ev):

   -55.6542 -55.6284 -55.5440 -55.4476 -55.4369 -55.4073 -55.3995 -55.3703
   -55.3087 -55.2731 -55.2634 -55.2477 -55.1905 -55.1042 -54.4946 -54.4933
   -31.9516 -31.9403 -31.9242 -31.9184 -31.9113 -31.8144 -31.7976 -31.7805
   -31.7645 -31.7621 -31.7603 -31.7498 -31.7423 -31.6993 -31.6988 -31.6772
   -31.6613 -31.6539 -31.6419 -31.6330 -31.6272 -31.6244 -31.6124 -31.5972
   -31.5903 -31.5882 -31.5749 -31.5617 -31.5565 -31.5462 -31.5058 -31.5014
   -31.4950 -31.4778 -31.4728 -31.4681 -31.4545 -31.4509 -31.4207 -31.3890
   -31.3518 -31.3098 -30.8275 -30.8262 -30.7281 -30.7262 -30.6880 -30.6866
   -21.0434 -20.0457 -16.3027 -15.6750 -15.6132 -15.4689 -15.4476 -15.3895
   -15.3590 -15.2832 -15.2397 -15.2302 -15.2012 -15.1828 -15.1574 -15.1393
   -15.1006 -15.0791 -15.0285 -15.0227 -14.9722 -14.9674 -14.9585 -14.9350
   -14.8866 -14.8325 -14.8259 -14.8235 -14.7606 -14.7524 -14.6543 -14.4814
   -13.0018 -12.9993  -9.2805  -6.4289  -5.5759  -5.5096  -4.2537  -4.2279
    -3.8600  -3.6215  -3.0354  -2.9035  -2.8292  -2.6889  -2.6008  -2.5407
    -2.5291  -2.5080  -2.4718  -2.3995  -2.3884  -2.3339  -2.3296  -2.3223
    -2.3113  -2.2922  -2.2484  -2.2258  -2.2107  -2.2012  -2.1751  -2.1524
    -2.1383  -2.1259  -2.1182  -2.1061  -2.0927  -2.0492  -1.9836  -1.9171
    -1.8813  -1.8661  -1.7245  -1.7112  -1.6443  -1.6295  -1.6195  -1.5932
    -1.5854  -1.5068  -1.4558  -1.3126  -1.2893  -1.2556  -1.1972  -1.1535
    -1.0702  -1.0637  -1.0367  -0.9787  -0.9591  -0.9290  -0.9135  -0.8164
    -0.7394  -0.6945  -0.6570  -0.5435  -0.5265  -0.5115  -0.4505  -0.4240
    -0.4162  -0.4020  -0.3572  -0.2853  -0.2387  -0.2172  -0.1801  -0.1681
    -0.1055  -0.0577   0.0128   0.0827   0.1652   0.1847   0.2909   0.3660
     0.4130   0.5262   0.5832   0.6120   0.6425   0.7156   0.7642   0.7779
     0.8762   0.9354   0.9555   1.0237   1.0522   1.0930   1.1275   1.8818
     1.8948   1.9278   1.9401   3.5024   4.0394   4.0494   4.0633   4.0855
     4.1097   4.1333   4.2082   4.2491   4.2643

     the Fermi energy is     3.4932 ev

!    total energy              =   -3003.97496437 Ry
     estimated scf accuracy    <       0.00000004 Ry
     smearing contrib. (-TS)   =      -0.01899407 Ry
     internal energy E=F+TS    =   -3003.95597030 Ry

     The total energy is F=E-TS. E is the sum of the following terms:
     one-electron contribution =  -23046.65599577 Ry
     hartree contribution      =   11620.40795262 Ry
     xc contribution           =    -499.45310268 Ry
     ewald contribution        =    8921.74364923 Ry
     electric field correction =       0.00152630 Ry

     convergence has been achieved in  80 iterations

     Forces acting on atoms (cartesian axes, Ry/au):

     atom    1 type  1   force =    -0.00031842   -0.00000672    0.00066544
     atom    2 type  2   force =    -0.00045446   -0.00007759   -0.00023115
     atom    3 type  2   force =    -0.00054237    0.00006233   -0.00026913
     atom    4 type  3   force =    -0.00006435    0.00012196    0.10176193
     atom    5 type  3   force =    -0.00006469    0.00014614    0.10143539
     atom    6 type  3   force =    -0.07457967    0.00082599   -0.03018704
     atom    7 type  3   force =    -0.07404778   -0.00148495   -0.03017792
     atom    8 type  3   force =     0.07425777    0.00138592   -0.03023960
     atom    9 type  3   force =     0.07390027   -0.00108827   -0.03028450
     atom   10 type  3   force =     0.00081935    0.00107552    0.04836080
     atom   11 type  3   force =     0.00087621    0.00075613    0.05011810
     atom   12 type  3   force =     0.00040485   -0.00628652   -0.03720916
     atom   13 type  3   force =     0.00063804    0.00421971   -0.03094851
     atom   14 type  3   force =    -0.01076732   -0.00220010    0.00091069
     atom   15 type  3   force =    -0.01064607    0.00459885    0.00172034
     atom   16 type  3   force =     0.01297923   -0.00502365    0.00200948
     atom   17 type  3   force =     0.01234137    0.00211708    0.00232796
     atom   18 type  3   force =    -0.00037352    0.00005846    0.00008957
     atom   19 type  3   force =    -0.00020830    0.00027931    0.00002534
     atom   20 type  3   force =     0.00003224   -0.00075934    0.00008191
     atom   21 type  3   force =    -0.00022219   -0.00039997    0.00000549
     atom   22 type  3   force =     0.00025034   -0.00047316   -0.00004296
     atom   23 type  3   force =     0.00005690    0.00035676    0.00060801
     atom   24 type  3   force =    -0.00047418   -0.00034348   -0.00035435
     atom   25 type  3   force =    -0.00015055    0.00044239    0.00015878
     atom   26 type  3   force =    -0.00040214   -0.00024881   -0.00031200
     atom   27 type  3   force =    -0.00011441    0.00013159    0.00007381
     atom   28 type  3   force =     0.00047467    0.00008517    0.00006543
     atom   29 type  3   force =    -0.00011678   -0.00023163    0.00012972
     atom   30 type  3   force =    -0.00048432   -0.00009955   -0.00049780
     atom   31 type  3   force =    -0.00046876    0.00005687   -0.00025609
     atom   32 type  3   force =    -0.00023056    0.00031164   -0.00005072
     atom   33 type  3   force =    -0.00042556   -0.00014783    0.00003516
     atom   34 type  3   force =    -0.00066900   -0.00024098   -0.00047285
     atom   35 type  3   force =    -0.00025679   -0.00011050    0.00040153
     atom   36 type  4   force =    -0.00032265   -0.00159449    0.10371671
     atom   37 type  4   force =    -0.00011457    0.00149173    0.11782774
     atom   38 type  4   force =    -0.00038389    0.00606664   -0.16915371
     atom   39 type  4   force =    -0.00010332   -0.00504310   -0.16939121
     atom   40 type  4   force =     0.00030719    0.00008364   -0.00056549
     atom   41 type  4   force =     0.00004284   -0.00020370   -0.00021290
     atom   42 type  4   force =    -0.00017442    0.00083498   -0.00001582
     atom   43 type  4   force =    -0.00019239   -0.00053969   -0.00000008
     atom   44 type  4   force =    -0.00007258   -0.00025390    0.00031958
     atom   45 type  4   force =     0.00000465   -0.00017182   -0.00106967
     atom   46 type  4   force =    -0.00033481    0.00031818    0.00058845
     atom   47 type  4   force =    -0.00078617    0.00067155   -0.00001692
     atom   48 type  4   force =     0.00050870   -0.00023531    0.00005653
     atom   49 type  4   force =     0.00073723    0.00009538   -0.00021260
     atom   50 type  4   force =     0.00040868    0.00006926   -0.00026424
     atom   51 type  4   force =     0.00017540   -0.00015393   -0.00044742
     atom   52 type  5   force =    -0.02509376   -0.01626121   -0.00769721
     atom   53 type  5   force =     0.02456076    0.01614974    0.00727699
     atom   54 type  3   force =    -0.00109532    0.00090026   -0.00012031
     atom   55 type  2   force =     0.00097939   -0.00003300   -0.00006950

     Total force =     0.371615     Total SCF correction =     0.000414
  @ DRIVER MODE: Message from server: STATUS
  @ DRIVER MODE: Message from server: GETFORCE
  @ DRIVER MODE: Returning v,forces,stress,ensemble

     Writing output data file ./calc.save/
  @ DRIVER MODE: Message from server: EXIT
  @ DRIVE MODE: Exiting

     General routines

     Parallel routines

   This run was terminated on:  23:34: 8  23Sep2021

   JOB DONE.