     Program PWSCF v.6.7GPU starts on 18Oct2021 at 21:19:28

     R & G space division:  proc/nbgrp/npool/nimage =       8
     Reading input from /storage/home/hcoda1/3/ntian30/research/carbon/CxH_vib/Thiel_calc/ads_slab/NNH2HH_perslab/out_0020/pw.inp
Warning: card &CELL ignored
Warning: card   CELL_DYNAMICS='IPI', ignored
Warning: card / ignored

     Current dimensions of program PWSCF are:
     Max number of different atomic species (ntypx) = 10
     Max number of k-points (npk) =  40000
     Max angular momentum in pseudopotentials (lmaxx) =  3
     Presently no symmetry can be used with electric field

     Message from routine cell_base_init:
     DEPRECATED: use true lattice parameter, not A to a.u. conversion factor

     IMPORTANT: XC functional enforced from input :
     Exchange-correlation= BEEF-VDW
                           (   1   4  43  14   2   0   0)
     Any further DFT definition will be discarded
     Please, verify this is what you really want

  @ DRIVER MODE: Connecting to
 qe_1139763_3255133.sched-torque.pace.gatech.edu58vsxsfm_scratch
  using UNIX socket
  @ DRIVER MODE: Message from server: STATUS
  @ DRIVER MODE: Message from server: INIT
  @ DRIVER MODE: Receiving replica           0          -1
  @ DRIVER MODE: Receiving encoded integer          25
  @ DRIVER MODE:  SCF:  T  FORCE:  T  STRESS:  F  VC:  F  ENSEMBLE:  F
  @ DRIVER MODE:  SCF:  T  FORCE:  T  STRESS:  F  VC:  F  ENSEMBLE:  F

     Using Slab Decomposition

     bravais-lattice index     =            0
     lattice parameter (alat)  =       1.8897  a.u.
     unit-cell volume          =    9988.4706 (a.u.)^3
     number of atoms/cell      =           59
     number of atomic types    =            4
     number of electrons       =       440.00
     number of Kohn-Sham states=          230
     kinetic-energy cutoff     =      29.3995  Ry
     charge density cutoff     =     293.9946  Ry
     scf convergence threshold =      7.3E-08
     mixing beta               =       0.0500
     number of iterations used =            8  plain     mixing
     Exchange-correlation= BEEF-VDW
                           (   1   4  43  14   2   0   0)

     celldm(1)=   1.889726  celldm(2)=   0.000000  celldm(3)=   0.000000
     celldm(4)=   0.000000  celldm(5)=   0.000000  celldm(6)=   0.000000

     crystal axes: (cart. coord. in units of alat)
               a(1) = (   6.579727   0.000000   0.000000 )
               a(2) = (  -0.001163   8.942395   0.000000 )
               a(3) = (   0.000000   0.000000  25.155947 )

     reciprocal axes: (cart. coord. in units 2 pi/alat)
               b(1) = (  0.151982  0.000020  0.000000 )
               b(2) = (  0.000000  0.111827  0.000000 )
               b(3) = (  0.000000  0.000000  0.039752 )

     PseudoPot. # 1 for O  read from file:
     /storage/coda1/p-amedford6/0/shared/rich_project_chbe-medford/medford-share/data/pseudos_module/espresso/nninc/pbe/van/O.UPF
     MD5 check sum: 78c19812648e8988a0fe644b0f25305e
     Pseudo is Ultrasoft, Zval =  6.0
     Generated by new atomic code, or converted to UPF format
     Using radial grid of  737 points,  4 beta functions with:
                l(1) =   0
                l(2) =   0
                l(3) =   1
                l(4) =   1
     Q(r) pseudized with  8 coefficients,  rinner =    0.800   0.800   0.800

     PseudoPot. # 2 for Ti read from file:
     /storage/coda1/p-amedford6/0/shared/rich_project_chbe-medford/medford-share/data/pseudos_module/espresso/nninc/pbe/van/Ti.UPF
     MD5 check sum: 8e4df49b7f0d34bbd5052bf3f5ea0213
     Pseudo is Ultrasoft, Zval = 12.0
     Generated by new atomic code, or converted to UPF format
     Using radial grid of  851 points,  6 beta functions with:
                l(1) =   0
                l(2) =   0
                l(3) =   1
                l(4) =   1
                l(5) =   2
                l(6) =   2
     Q(r) pseudized with  8 coefficients,  rinner =    1.000   1.000   1.000
                                                       1.000   1.000

     PseudoPot. # 3 for H  read from file:
     /storage/coda1/p-amedford6/0/shared/rich_project_chbe-medford/medford-share/data/pseudos_module/espresso/nninc/pbe/van/H.UPF
     MD5 check sum: b5ee9d7bfd3a09ee7748110bda690ff7
     Pseudo is Ultrasoft, Zval =  1.0
     Generated by new atomic code, or converted to UPF format
     Using radial grid of  615 points,  1 beta functions with:
                l(1) =   0
     Q(r) pseudized with  8 coefficients,  rinner =    0.800

     PseudoPot. # 4 for N  read from file:
     /storage/coda1/p-amedford6/0/shared/rich_project_chbe-medford/medford-share/data/pseudos_module/espresso/nninc/pbe/van/N.UPF
     MD5 check sum: 90d10febe142ad51ac9d5be1deb811c4
     Pseudo is Ultrasoft, Zval =  5.0
     Generated by new atomic code, or converted to UPF format
     Using radial grid of  729 points,  4 beta functions with:
                l(1) =   0
                l(2) =   0
                l(3) =   1
                l(4) =   1
     Q(r) pseudized with  8 coefficients,  rinner =    0.800   0.800   0.800

     atomic species   valence    mass     pseudopotential
        O1             6.00    15.99900     O ( 1.00)
        Ti1           12.00    47.86700     Ti( 1.00)
        H1             1.00     1.00800     H ( 1.00)
        N1             5.00    14.00700     N ( 1.00)

     No symmetry found

   Cartesian axes

     site n.     atom                  positions (alat units)
         1           O1  tau(   1) = (   0.0007354   0.0005023  10.5931620  )
         2           O1  tau(   2) = (   3.3122003   8.9411730  13.9078397  )
         3           O1  tau(   3) = (   0.0119464   0.1585559  17.3480684  )
         4           O1  tau(   4) = (   0.0006271   0.0005054   7.9858123  )
         5           O1  tau(   5) = (   3.2844644   8.9346379  11.1901754  )
         6           O1  tau(   6) = (   6.5618141   0.0157575  14.6617184  )
         7           O1  tau(   7) = (   1.9868534   1.4903216   9.2879459  )
         8           O1  tau(   8) = (   5.2413352   1.5994427  12.5710249  )
         9           O1  tau(   9) = (   2.0249271   1.5994163  16.0383581  )
        10           Ti1 tau(  10) = (   0.0007404   1.4906270   9.2895810  )
        11           Ti1 tau(  11) = (   3.2875257   1.3541315  12.5031546  )
        12           Ti1 tau(  12) = (   0.1037617   1.4803996  15.8781706  )
        13           O1  tau(  13) = (   4.5942328   1.4918067   9.2879030  )
        14           O1  tau(  14) = (   1.3445879   1.6225681  12.6047105  )
        15           O1  tau(  15) = (   4.5270247   1.5277052  16.0690704  )
        16           Ti1 tau(  16) = (   3.2902859   2.9801868   9.2893338  )
        17           Ti1 tau(  17) = (   6.5717848   2.8351652  12.4611715  )
        18           Ti1 tau(  18) = (   3.3615503   2.9380122  15.7113248  )
        19           O1  tau(  19) = (   0.0003479   2.9813005  10.5931620  )
        20           O1  tau(  20) = (   3.3257229   2.9884659  13.9122956  )
        21           O1  tau(  21) = (   0.0002396   2.9813036   7.9858123  )
        22           O1  tau(  22) = (   3.2846765   2.9682620  11.1924388  )
        23           O1  tau(  23) = (   6.5193973   3.0012958  14.6893217  )
        24           O1  tau(  24) = (   1.9864658   4.4711199   9.2879459  )
        25           O1  tau(  25) = (   5.2358842   4.5821056  12.5715879  )
        26           O1  tau(  26) = (   1.9668816   4.5963109  15.9958849  )
        27           Ti1 tau(  27) = (   0.0003529   4.4714252   9.2895810  )
        28           Ti1 tau(  28) = (   3.2817300   4.3379106  12.5030846  )
        29           Ti1 tau(  29) = (   6.5286400   4.3105241  16.0387364  )
        30           O1  tau(  30) = (   4.5938453   4.4726049   9.2879030  )
        31           O1  tau(  31) = (   1.3350840   4.5883300  12.6034823  )
        32           O1  tau(  32) = (   4.4768606   4.5746599  16.1328061  )
        33           Ti1 tau(  33) = (   3.2898983   5.9609850   9.2893338  )
        34           Ti1 tau(  34) = (   6.5687693   5.8095266  12.4696282  )
        35           Ti1 tau(  35) = (   3.1936624   5.9077503  15.7132784  )
        36           O1  tau(  36) = (  -0.0000397   5.9620987  10.5931620  )
        37           O1  tau(  37) = (   3.2950800   5.9615338  13.9080848  )
        38           O1  tau(  38) = (   6.5705097   6.0321180  17.3127682  )
        39           O1  tau(  39) = (  -0.0001480   5.9621018   7.9858123  )
        40           O1  tau(  40) = (   3.2829949   5.9473389  11.1919414  )
        41           O1  tau(  41) = (   6.5313079   6.0695169  14.6234680  )
        42           O1  tau(  42) = (   1.9860782   7.4519181   9.2879459  )
        43           O1  tau(  43) = (   5.2305909   7.5696458  12.5615615  )
        44           O1  tau(  44) = (   1.9930026   7.5537276  16.0441964  )
        45           Ti1 tau(  45) = (  -0.0000347   7.4522234   9.2895810  )
        46           Ti1 tau(  46) = (   3.2809715   7.3153274  12.5063831  )
        47           Ti1 tau(  47) = (  -0.0000777   7.3827053  15.8005402  )
        48           O1  tau(  48) = (   4.5934577   7.4534031   9.2879030  )
        49           O1  tau(  49) = (   1.3440923   7.5800077  12.5804573  )
        50           O1  tau(  50) = (   4.5564015   7.5743432  16.1458831  )
        51           Ti1 tau(  51) = (   3.2895107   8.9417832   9.2893338  )
        52           Ti1 tau(  52) = (   6.5681474   8.7932977  12.4619754  )
        53           Ti1 tau(  53) = (   3.3227810   8.9003220  15.7121742  )
        54           H1  tau(  54) = (   5.8375475   6.1301351  17.9339333  )
        55           H1  tau(  55) = (   5.7673184   0.1799947  17.8523786  )
        56           H1  tau(  56) = (   0.0490247   3.6154164  19.2291769  )
        57           N1  tau(  57) = (   6.4207751   2.7916545  18.6713363  )
        58           N1  tau(  58) = (   6.5444414   3.0434393  17.3342366  )
        59           H1  tau(  59) = (   0.3957958   1.9971216  18.9670883  )

     number of k points=    10  Fermi-Dirac smearing, width (Ry)=  0.0073
                       cart. coord. in units 2pi/alat
        k(    1) = (   0.0000000   0.0000000   0.0000000), wk =   0.1250000
        k(    2) = (   0.0000000   0.0279567   0.0000000), wk =   0.2500000
        k(    3) = (   0.0000000  -0.0559134   0.0000000), wk =   0.1250000
        k(    4) = (   0.0379955   0.0000049   0.0000000), wk =   0.2500000
        k(    5) = (   0.0379955   0.0279617   0.0000000), wk =   0.2500000
        k(    6) = (   0.0379955  -0.0559085   0.0000000), wk =   0.2500000
        k(    7) = (   0.0379955  -0.0279518   0.0000000), wk =   0.2500000
        k(    8) = (  -0.0759910  -0.0000099   0.0000000), wk =   0.1250000
        k(    9) = (  -0.0759910   0.0279468   0.0000000), wk =   0.2500000
        k(   10) = (  -0.0759910  -0.0559233   0.0000000), wk =   0.1250000

     Initial potential from superposition of free atoms

     starting charge  421.99910, renormalised to  440.00000

     negative rho (up, down):  3.726E-02 0.000E+00

     %%%%%%%%%%%%%%%%%%%%%%%%%%%%%%%%%%%%%%%%%%%%%%%%%%%%%%%%%%%%%%%%%%%%%%%%
     %                                                                      %
     % You are using vdW-DF, which was implemented by the Thonhauser group. %
     % Please cite the following two papers that made this development      %
     % possible and the two reviews that describe the various versions:     %
     %                                                                      %
     %   T. Thonhauser et al., PRL 115, 136402 (2015).                      %
     %   T. Thonhauser et al., PRB 76, 125112 (2007).                       %
     %   K. Berland et al., Rep. Prog. Phys. 78, 066501 (2015).             %
     %   D.C. Langreth et al., J. Phys.: Condens. Matter 21, 084203 (2009). %
     %                                                                      %
     %                                                                      %
     % If you are calculating the stress with vdW-DF, please also cite:     %
     %                                                                      %
     %   R. Sabatini et al., J. Phys.: Condens. Matter 24, 424209 (2012).   %
     %                                                                      %
     %%%%%%%%%%%%%%%%%%%%%%%%%%%%%%%%%%%%%%%%%%%%%%%%%%%%%%%%%%%%%%%%%%%%%%%%

     Adding external electric field

     Computed dipole along edir(3) :
        Dipole               -5.7841 Ry au,        -14.7017 Debye
        Dipole field         -0.0073 Ry au,

        Potential amp.        0.6746 Ry
        Total length         46.3494 bohr

     Starting wfcs are  332 atomic wfcs
  @ DRIVER MODE: Message from server: STATUS
  @ DRIVER MODE: Message from server: POSDATA
  @ DRIVER MODE: Reading and sharing cell
  @ DRIVER MODE: Reading and sharing positions
  @ DRIVER MODE: Received positions

     Self-consistent Calculation

     iteration #  1     ecut=    29.40 Ry     beta= 0.05
     Davidson diagonalization with overlap
     c_bands:  1 eigenvalues not converged
     c_bands:  2 eigenvalues not converged
     c_bands:  4 eigenvalues not converged
     c_bands:  1 eigenvalues not converged
     c_bands:  1 eigenvalues not converged
     c_bands:  5 eigenvalues not converged
     c_bands:  1 eigenvalues not converged
     c_bands:  4 eigenvalues not converged
     c_bands:  4 eigenvalues not converged
     c_bands:  4 eigenvalues not converged
     ethr =  1.00E-05,  avg # of iterations = 20.0

[...]

     total energy              =   -3276.45054131 Ry
     estimated scf accuracy    <     229.05102472 Ry

     iteration #  2     ecut=    29.40 Ry     beta= 0.05
     Davidson diagonalization with overlap
     ethr =  1.00E-02,  avg # of iterations = 15.6

[...]

     iteration # 57     ecut=    29.40 Ry     beta= 0.05
     Davidson diagonalization with overlap
     c_bands:  1 eigenvalues not converged
     ethr =  2.15E-10,  avg # of iterations =  9.6

[...]

     total energy              =   -3293.24438069 Ry
     estimated scf accuracy    <       0.00000009 Ry

     iteration # 71     ecut=    29.40 Ry     beta= 0.05
     Davidson diagonalization with overlap
     ethr =  2.12E-11,  avg # of iterations = 10.4

     negative rho (up, down):  3.571E-02 0.000E+00

     Adding external electric field

     Computed dipole along edir(3) :
        Dipole                1.5680 Ry au,          3.9855 Debye
        Dipole field          0.0020 Ry au,

        Potential amp.       -0.1829 Ry
        Total length         46.3494 bohr

     End of self-consistent calculation

          k = 0.0000 0.0000 0.0000 ( 26871 PWs)   bands (ev):

   -57.7010 -57.6937 -57.6762 -57.6743 -57.6505 -57.6088 -57.5627 -57.5236
   -57.4997 -57.4960 -57.4957 -57.4914 -57.4631 -57.4530 -56.7806 -56.7220
   -56.6978 -56.6945 -34.0980 -34.0836 -34.0816 -34.0797 -34.0558 -34.0376
   -34.0320 -34.0180 -34.0129 -33.9942 -33.9617 -33.9583 -33.9480 -33.9426
   -33.8973 -33.8946 -33.8883 -33.8811 -33.8681 -33.8455 -33.8389 -33.8271
   -33.8235 -33.8187 -33.7976 -33.7964 -33.7941 -33.7772 -33.7623 -33.7393
   -33.7354 -33.7312 -33.7199 -33.7121 -33.7036 -33.6890 -33.6845 -33.6830
   -33.6798 -33.6745 -33.6683 -33.6397 -33.2375 -33.0368 -33.0365 -33.0325
   -33.0209 -33.0179 -32.9903 -32.9741 -32.9482 -32.8854 -32.8816 -32.7477
   -19.1801 -19.0185 -18.8649 -18.5594 -18.1564 -17.9887 -17.9662 -17.9483
   -17.9083 -17.8087 -17.8075 -17.6287 -17.5704 -17.5374 -17.5081 -17.5021
   -17.4313 -17.3932 -17.3778 -17.3595 -17.3535 -17.3470 -17.3299 -17.2859
   -17.2497 -17.1948 -17.1799 -17.1443 -17.1326 -17.1310 -17.1298 -17.0610
   -16.8258 -15.1883 -15.1306 -15.1290 -12.1393  -7.9520  -6.7933  -6.5419
    -6.3435  -5.8880  -5.6714  -5.6186  -5.5375  -5.1813  -5.1673  -5.0994
    -5.0874  -5.0607  -4.9941  -4.9800  -4.9762  -4.9613  -4.8799  -4.8437
    -4.8315  -4.7845  -4.7656  -4.7082  -4.6427  -4.6328  -4.5730  -4.5364
    -4.5010  -4.4956  -4.4901  -4.4817  -4.4657  -4.4317  -4.3576  -4.3070
    -4.1729  -4.1665  -4.1147  -4.0486  -4.0205  -4.0124  -3.9520  -3.8769
    -3.8346  -3.8266  -3.7852  -3.7557  -3.7200  -3.6986  -3.6737  -3.5831
    -3.4908  -3.4552  -3.4503  -3.4096  -3.3958  -3.3432  -3.2290  -3.1759
    -3.1077  -3.0455  -2.9837  -2.9603  -2.9196  -2.8659  -2.8435  -2.7923
    -2.7723  -2.7193  -2.6743  -2.6235  -2.5318  -2.4732  -2.4676  -2.4561
    -2.3997  -2.3837  -2.3697  -2.3469  -2.3221  -2.2678  -2.2343  -2.2029
    -2.1697  -2.1398  -2.0939  -2.0586  -2.0476  -1.9395  -1.9056  -1.8775
    -1.7523  -1.7261  -1.6818  -1.6510  -1.5579  -1.5423  -1.5413  -1.4267
    -1.4110  -1.0989  -0.9976  -0.7429  -0.4716  -0.4263  -0.4255  -0.1617
    -0.1590  -0.0296   0.5379   1.2703   1.5255   1.6716   1.7299   1.7472
     1.7942   1.8792   1.8956   1.9259   1.9441   1.9811

[...]

          k = 0.0380-0.0280 0.0000 ( 26873 PWs)   bands (ev):

[...]

          k =-0.0760-0.0000 0.0000 ( 26902 PWs)   bands (ev):

[...]

          k =-0.0760-0.0559 0.0000 ( 26868 PWs)   bands (ev):

   -57.6933 -57.6930 -57.6915 -57.6667 -57.6518 -57.6081 -57.5627 -57.5170
   -57.5123 -57.4958 -57.4895 -57.4893 -57.4693 -57.4493 -56.7805 -56.7149
   -56.7118 -56.6876 -34.1761 -34.1684 -34.0830 -34.0569 -34.0478 -34.0327
   -34.0274 -34.0254 -33.9937 -33.9839 -33.9500 -33.9268 -33.9001 -33.8923
   -33.8901 -33.8765 -33.8700 -33.8423 -33.8412 -33.8371 -33.8330 -33.8316
   -33.8198 -33.8097 -33.7850 -33.7836 -33.7756 -33.7735 -33.7707 -33.7616
   -33.7523 -33.7453 -33.7310 -33.7294 -33.7174 -33.7148 -33.7117 -33.7065
   -33.6897 -33.6721 -33.6656 -33.6638 -33.2439 -33.1262 -33.0367 -33.0339
   -33.0107 -32.9913 -32.9753 -32.9287 -32.9248 -32.8619 -32.8465 -32.8428
   -19.0997 -19.0941 -18.8513 -18.2530 -18.2361 -17.9228 -17.8809 -17.8322
   -17.8280 -17.8039 -17.7335 -17.7168 -17.6834 -17.6196 -17.5359 -17.5070
   -17.4799 -17.4477 -17.4336 -17.4267 -17.4168 -17.3943 -17.3527 -17.3490
   -17.2986 -17.2522 -17.2172 -17.1670 -17.1364 -17.0864 -17.0608 -17.0337
   -16.8596 -15.1865 -15.1843 -15.0676 -12.1377  -7.9549  -6.7859  -6.5659
    -6.3008  -5.5010  -5.4917  -5.4838  -5.4352  -5.1466  -5.0359  -4.9886
    -4.9842  -4.9580  -4.9004  -4.8857  -4.8728  -4.8571  -4.8457  -4.8096
    -4.8049  -4.7611  -4.7493  -4.7353  -4.6853  -4.6273  -4.6218  -4.5974
    -4.5884  -4.5144  -4.5071  -4.4562  -4.3627  -4.3184  -4.2991  -4.2939
    -4.2560  -4.2229  -4.2150  -4.1443  -3.8959  -3.8866  -3.8638  -3.8458
    -3.8080  -3.7604  -3.7305  -3.7104  -3.6522  -3.5485  -3.4245  -3.3900
    -3.3768  -3.3603  -3.3349  -3.2959  -3.2837  -3.2747  -3.2295  -3.1979
    -3.1955  -3.1523  -3.1102  -3.0208  -2.9864  -2.9293  -2.8840  -2.8418
    -2.8299  -2.8176  -2.8110  -2.7943  -2.7653  -2.7506  -2.7366  -2.6982
    -2.6815  -2.6182  -2.5645  -2.5025  -2.4807  -2.4254  -2.3547  -2.2733
    -2.2499  -2.1878  -2.0952  -2.0385  -1.9977  -1.9645  -1.9456  -1.9251
    -1.8464  -1.8206  -1.7931  -1.7792  -1.5162  -1.5130  -1.3681  -1.3348
    -1.2841  -1.2754  -1.2136  -1.0488  -0.6379  -0.3523  -0.3453  -0.3170
    -0.1614  -0.1611   0.4883   1.4416   1.5064   1.5190   1.6103   1.6172
     1.6317   1.7285   1.7697   1.7732   1.9083   1.9779

     the Fermi energy is     1.3802 ev

!    total energy              =   -3293.24439618 Ry
     estimated scf accuracy    <       0.00000006 Ry
     smearing contrib. (-TS)   =      -0.03194799 Ry
     internal energy E=F+TS    =   -3293.21244819 Ry

     The total energy is F=E-TS. E is the sum of the following terms:
     one-electron contribution =  -34435.16184427 Ry
     hartree contribution      =   17282.78346183 Ry
     xc contribution           =    -542.30083676 Ry
     ewald contribution        =   14401.46367777 Ry
     electric field correction =       0.00309325 Ry

     convergence has been achieved in  71 iterations

     Forces acting on atoms (cartesian axes, Ry/au):

     atom    1 type  1   force =     0.00085097    0.00631622    0.05754584
     atom    2 type  1   force =    -0.00003441   -0.00070877   -0.00475825
     atom    3 type  1   force =    -0.00001807   -0.00167749   -0.00112413
     atom    4 type  1   force =     0.00007056    0.00075113    0.10714276
     atom    5 type  1   force =    -0.00015378   -0.00059189    0.00932208
     atom    6 type  1   force =     0.00136870   -0.00279737    0.00347894
     atom    7 type  1   force =     0.06704783   -0.00000222   -0.02953890
     atom    8 type  1   force =     0.00334998   -0.02852721    0.00245367
     atom    9 type  1   force =     0.01228142   -0.01756798    0.00149785
     atom   10 type  2   force =     0.00006958   -0.00242192   -0.18535891
     atom   11 type  2   force =     0.00015407    0.02113068   -0.00709464
     atom   12 type  2   force =    -0.00547020    0.01507734   -0.00313898
     atom   13 type  1   force =    -0.06726248   -0.00039294   -0.02893723
     atom   14 type  1   force =    -0.00361060   -0.02911423    0.00250765
     atom   15 type  1   force =    -0.00690086   -0.01133262    0.00268120
     atom   16 type  2   force =    -0.00021339   -0.00128783    0.06486724
     atom   17 type  2   force =     0.00029232    0.03525171    0.00390648
     atom   18 type  2   force =    -0.00266645    0.02267374    0.00139825
     atom   19 type  1   force =     0.00075018    0.00409425    0.06081931
     atom   20 type  1   force =     0.00002953   -0.00008080   -0.00395576
     atom   21 type  1   force =     0.00005850   -0.00003117    0.10731729
     atom   22 type  1   force =     0.00002805   -0.00085121    0.00937605
     atom   23 type  1   force =    -0.00012822   -0.00354660    0.00460528
     atom   24 type  1   force =     0.06734896   -0.00050721   -0.02945327
     atom   25 type  1   force =     0.00348107   -0.02946941    0.00311914
     atom   26 type  1   force =     0.00652992   -0.02215415    0.00396539
     atom   27 type  2   force =    -0.00002202    0.00171575   -0.18406921
     atom   28 type  2   force =    -0.00039749    0.02138868   -0.00709212
     atom   29 type  2   force =    -0.00136649    0.02348326   -0.00355234
     atom   30 type  1   force =    -0.06754356   -0.00096777   -0.02876431
     atom   31 type  1   force =    -0.00416160   -0.02931476    0.00228629
     atom   32 type  1   force =    -0.00657561   -0.01861063   -0.00037465
     atom   33 type  2   force =    -0.00033436   -0.00092683    0.06453288
     atom   34 type  2   force =     0.00044013    0.03628551    0.00379043
     atom   35 type  2   force =     0.00233595    0.02407046    0.00256849
     atom   36 type  1   force =     0.00068650    0.00483338    0.05917321
     atom   37 type  1   force =    -0.00014998    0.00146891   -0.00767022
     atom   38 type  1   force =    -0.00034214   -0.00308456    0.00083700
     atom   39 type  1   force =     0.00010759   -0.00015848    0.10690742
     atom   40 type  1   force =     0.00007772   -0.00089714    0.00973746
     atom   41 type  1   force =     0.00083507   -0.00214161    0.00144005
     atom   42 type  1   force =     0.06759325   -0.00030515   -0.02940908
     atom   43 type  1   force =     0.00370481   -0.02887958    0.00186534
     atom   44 type  1   force =     0.00872441   -0.01705656    0.00066854
     atom   45 type  2   force =     0.00023261   -0.00245769   -0.18297150
     atom   46 type  2   force =     0.00023708    0.01986391   -0.00666109
     atom   47 type  2   force =    -0.00011411    0.02232105    0.00162812
     atom   48 type  1   force =    -0.06774080   -0.00080336   -0.02867048
     atom   49 type  1   force =    -0.00361108   -0.02859745    0.00243052
     atom   50 type  1   force =    -0.00819892   -0.01839460   -0.00135086
     atom   51 type  2   force =    -0.00036908   -0.00108250    0.06450408
     atom   52 type  2   force =    -0.00016273    0.03593167    0.00435031
     atom   53 type  2   force =    -0.00170406    0.01465354   -0.00210985
     atom   54 type  3   force =    -0.00070704   -0.00020777    0.00048906
     atom   55 type  3   force =    -0.00090425   -0.00085045    0.00168583
     atom   56 type  3   force =     0.00245815    0.00019189    0.00126633
     atom   57 type  4   force =    -0.00613895    0.00641253   -0.00242880
     atom   58 type  4   force =     0.00128685   -0.00376251   -0.00014763
     atom   59 type  3   force =     0.00457097   -0.00635320    0.00246641

     Total force =     0.455872     Total SCF correction =     0.000532
  @ DRIVER MODE: Message from server: STATUS
  @ DRIVER MODE: Message from server: GETFORCE
  @ DRIVER MODE: Returning v,forces,stress,ensemble

     Writing output data file ./calc.save/
  @ DRIVER MODE: Message from server: EXIT
  @ DRIVE MODE: Exiting

     General routines

     Parallel routines

   This run was terminated on:  21:53:30  18Oct2021

   JOB DONE.