     Program PWSCF v.6.7GPU starts on  9Sep2021 at  6:54:32

     R & G space division:  proc/nbgrp/npool/nimage =      10
     Reading input from /storage/home/hcoda1/3/ntian30/research/carbon/CxH_vib/CH3_calc/ads_slab/CH3NNHHH_a/out_0027/pw.inp
Warning: card &CELL ignored
Warning: card   CELL_DYNAMICS='IPI', ignored
Warning: card / ignored

     Current dimensions of program PWSCF are:
     Max number of different atomic species (ntypx) = 10
     Max number of k-points (npk) =  40000
     Max angular momentum in pseudopotentials (lmaxx) =  3
     Presently no symmetry can be used with electric field

     Message from routine cell_base_init:
     DEPRECATED: use true lattice parameter, not A to a.u. conversion factor

     IMPORTANT: XC functional enforced from input :
     Exchange-correlation= BEEF-VDW
                           (   1   4  43  14   2   0   0)
     Any further DFT definition will be discarded
     Please, verify this is what you really want

  @ DRIVER MODE: Connecting to
 qe_1139763_2767399.sched-torque.pace.gatech.edurvj_m2wr_scratch
  using UNIX socket
  @ DRIVER MODE: Message from server: STATUS
  @ DRIVER MODE: Message from server: INIT
  @ DRIVER MODE: Receiving replica           0          -1
  @ DRIVER MODE: Receiving encoded integer          25
  @ DRIVER MODE:  SCF:  T  FORCE:  T  STRESS:  F  VC:  F  ENSEMBLE:  F
  @ DRIVER MODE:  SCF:  T  FORCE:  T  STRESS:  F  VC:  F  ENSEMBLE:  F

     Using Slab Decomposition

     bravais-lattice index     =            0
     lattice parameter (alat)  =       1.8897  a.u.
     unit-cell volume          =    6658.9804 (a.u.)^3
     number of atoms/cell      =           56
     number of atomic types    =            5
     number of electrons       =       398.00
     number of Kohn-Sham states=          209
     kinetic-energy cutoff     =      29.3995  Ry
     charge density cutoff     =     293.9946  Ry
     scf convergence threshold =      7.3E-08
     mixing beta               =       0.0500
     number of iterations used =            8  plain     mixing
     Exchange-correlation= BEEF-VDW
                           (   1   4  43  14   2   0   0)

     celldm(1)=   1.889726  celldm(2)=   0.000000  celldm(3)=   0.000000
     celldm(4)=   0.000000  celldm(5)=   0.000000  celldm(6)=   0.000000

     crystal axes: (cart. coord. in units of alat)
               a(1) = (   6.579727   0.000000   0.000000 )
               a(2) = (  -0.000775   5.961596   0.000000 )
               a(3) = (   0.000000   0.000000  25.155947 )

     reciprocal axes: (cart. coord. in units 2 pi/alat)
               b(1) = (  0.151982  0.000020  0.000000 )
               b(2) = (  0.000000  0.167740  0.000000 )
               b(3) = (  0.000000  0.000000  0.039752 )

     PseudoPot. # 1 for Ti read from file:
     /storage/coda1/p-amedford6/0/shared/rich_project_chbe-medford/medford-share/data/pseudos_module/espresso/nninc/pbe/van/Ti.UPF
     MD5 check sum: 8e4df49b7f0d34bbd5052bf3f5ea0213
     Pseudo is Ultrasoft, Zval = 12.0
     Generated by new atomic code, or converted to UPF format
     Using radial grid of  851 points,  6 beta functions with:
                l(1) =   0
                l(2) =   0
                l(3) =   1
                l(4) =   1
                l(5) =   2
                l(6) =   2
     Q(r) pseudized with  8 coefficients,  rinner =    1.000   1.000   1.000
                                                       1.000   1.000

     PseudoPot. # 2 for O  read from file:
     /storage/coda1/p-amedford6/0/shared/rich_project_chbe-medford/medford-share/data/pseudos_module/espresso/nninc/pbe/van/O.UPF
     MD5 check sum: 78c19812648e8988a0fe644b0f25305e
     Pseudo is Ultrasoft, Zval =  6.0
     Generated by new atomic code, or converted to UPF format
     Using radial grid of  737 points,  4 beta functions with:
                l(1) =   0
                l(2) =   0
                l(3) =   1
                l(4) =   1
     Q(r) pseudized with  8 coefficients,  rinner =    0.800   0.800   0.800

     PseudoPot. # 3 for N  read from file:
     /storage/coda1/p-amedford6/0/shared/rich_project_chbe-medford/medford-share/data/pseudos_module/espresso/nninc/pbe/van/N.UPF
     MD5 check sum: 90d10febe142ad51ac9d5be1deb811c4
     Pseudo is Ultrasoft, Zval =  5.0
     Generated by new atomic code, or converted to UPF format
     Using radial grid of  729 points,  4 beta functions with:
                l(1) =   0
                l(2) =   0
                l(3) =   1
                l(4) =   1
     Q(r) pseudized with  8 coefficients,  rinner =    0.800   0.800   0.800

     PseudoPot. # 4 for C  read from file:
     /storage/coda1/p-amedford6/0/shared/rich_project_chbe-medford/medford-share/data/pseudos_module/espresso/nninc/pbe/van/C.UPF
     MD5 check sum: 1a69bf6b8db32088f5b2163dbdb77a27
     Pseudo is Ultrasoft, Zval =  4.0
     Generated by new atomic code, or converted to UPF format
     Using radial grid of  721 points,  4 beta functions with:
                l(1) =   0
                l(2) =   0
                l(3) =   1
                l(4) =   1
     Q(r) pseudized with  8 coefficients,  rinner =    0.800   0.800   0.800

     PseudoPot. # 5 for H  read from file:
     /storage/coda1/p-amedford6/0/shared/rich_project_chbe-medford/medford-share/data/pseudos_module/espresso/nninc/pbe/van/H.UPF
     MD5 check sum: b5ee9d7bfd3a09ee7748110bda690ff7
     Pseudo is Ultrasoft, Zval =  1.0
     Generated by new atomic code, or converted to UPF format
     Using radial grid of  615 points,  1 beta functions with:
                l(1) =   0
     Q(r) pseudized with  8 coefficients,  rinner =    0.800

     atomic species   valence    mass     pseudopotential
        Ti1           12.00    47.86700     Ti( 1.00)
        O1             6.00    15.99900     O ( 1.00)
        N1             5.00    14.00700     N ( 1.00)
        C1             4.00    12.01100     C ( 1.00)
        H1             1.00     1.00800     H ( 1.00)

     No symmetry found

   Cartesian axes

     site n.     atom                  positions (alat units)
         1           Ti1 tau(   1) = (   0.0004258   2.9801865   6.0000000  )
         2           Ti1 tau(   2) = (   3.2906075   1.4906267   6.0002472  )
         3           O1  tau(   3) = (   0.0006271   0.0005054   7.9858123  )
         4           O1  tau(   4) = (   3.2906025   0.0005020   7.3038282  )
         5           O1  tau(   5) = (   4.5942328   1.4918067   9.2879030  )
         6           O1  tau(   6) = (   1.9868534   1.4903216   9.2879459  )
         7           Ti1 tau(   7) = (   3.2907910   2.8959150   9.1758416  )
         8           Ti1 tau(   8) = (   0.0015273   1.4827037   9.2680791  )
         9           O1  tau(   9) = (   3.3120675   0.0079458  11.3762204  )
        10           O1  tau(  10) = (   0.0116148   5.9584955  10.6183126  )
        11           O1  tau(  11) = (   1.3148726   1.5133626  12.6447579  )
        12           O1  tau(  12) = (   5.3140862   1.5122126  12.6508301  )
        13           Ti1 tau(  13) = (   0.0289753   2.9995974  12.5105963  )
        14           Ti1 tau(  14) = (   3.3300932   1.5144954  12.5190352  )
        15           O1  tau(  15) = (   0.0303621   0.0967028  14.6836000  )
        16           O1  tau(  16) = (   3.3188409   0.0235386  14.0025835  )
        17           O1  tau(  17) = (   4.5661268   1.5053193  16.2317874  )
        18           O1  tau(  18) = (   2.0488868   1.5039614  16.2002260  )
        19           Ti1 tau(  19) = (   3.3211226   2.9745325  15.7560014  )
        20           Ti1 tau(  20) = (   0.0641794   1.4487855  16.0607878  )
        21           O1  tau(  21) = (   3.2904802   0.0005063   4.7018136  )
        22           O1  tau(  22) = (   0.0207051   5.8381987  17.2232637  )
        23           O1  tau(  23) = (   1.3043587   1.4918075   6.0039043  )
        24           O1  tau(  24) = (   5.2767064   1.4903225   6.0039473  )
        25           Ti1 tau(  25) = (   0.0000382   5.9609847   6.0000000  )
        26           Ti1 tau(  26) = (   3.2902200   4.4714249   6.0002472  )
        27           O1  tau(  27) = (   0.0002396   2.9813036   7.9858123  )
        28           O1  tau(  28) = (   3.2902150   2.9813002   7.3038282  )
        29           O1  tau(  29) = (   4.5938453   4.4726049   9.2879030  )
        30           O1  tau(  30) = (   1.9864658   4.4711199   9.2879459  )
        31           Ti1 tau(  31) = (   3.2891106   5.8743827   9.1763621  )
        32           Ti1 tau(  32) = (   0.0006254   4.4649316   9.2693709  )
        33           O1  tau(  33) = (   3.3137607   3.0039157  11.3695003  )
        34           O1  tau(  34) = (   0.0092240   2.9805883  10.6323155  )
        35           O1  tau(  35) = (   1.3103219   4.4840529  12.6837359  )
        36           O1  tau(  36) = (   5.3166572   4.4842854  12.6901167  )
        37           Ti1 tau(  37) = (   0.0376818   0.0300362  12.4998423  )
        38           Ti1 tau(  38) = (   3.3279277   4.4933691  12.5326681  )
        39           O1  tau(  39) = (   0.0236785   2.9473731  14.9547601  )
        40           O1  tau(  40) = (   3.3158584   2.9778716  13.9675922  )
        41           O1  tau(  41) = (   4.5769684   4.4551829  16.1482216  )
        42           O1  tau(  42) = (   2.0574928   4.4544973  16.1629196  )
        43           Ti1 tau(  43) = (   3.3270828   0.0048838  15.7999907  )
        44           Ti1 tau(  44) = (   0.0216784   4.6657176  15.8371636  )
        45           O1  tau(  45) = (   3.2900926   2.9813045   4.7018136  )
        46           O1  tau(  46) = (   1.3039711   4.4726057   6.0039043  )
        47           O1  tau(  47) = (   5.2763189   4.4711207   6.0039473  )
        48           N1  tau(  48) = (   1.0300599   3.1028741  18.8625222  )
        49           N1  tau(  49) = (   6.4529598   2.6395754  18.1308714  )
        50           C1  tau(  50) = (   0.6566364   3.8075245  20.0867497  )
        51           H1  tau(  51) = (   6.5334193   4.6337433  19.9095685  )
        52           H1  tau(  52) = (   0.2127083   3.0954723  20.7945791  )
        53           H1  tau(  53) = (   1.5644534   4.2160081  20.5287796  )
        54           H1  tau(  54) = (   5.6912064   3.3271340  18.1715891  )
        55           H1  tau(  55) = (   6.1153184   1.7991689  18.5966666  )
        56           H1  tau(  56) = (   1.4989484   3.7555826  18.2384742  )

     number of k points=    10  Fermi-Dirac smearing, width (Ry)=  0.0073
                       cart. coord. in units 2pi/alat
        k(    1) = (   0.0000000   0.0000000   0.0000000), wk =   0.1250000
        k(    2) = (   0.0000000   0.0419351   0.0000000), wk =   0.2500000
        k(    3) = (   0.0000000  -0.0838702   0.0000000), wk =   0.1250000
        k(    4) = (   0.0379955   0.0000049   0.0000000), wk =   0.2500000
        k(    5) = (   0.0379955   0.0419400   0.0000000), wk =   0.2500000
        k(    6) = (   0.0379955  -0.0838652   0.0000000), wk =   0.2500000
        k(    7) = (   0.0379955  -0.0419301   0.0000000), wk =   0.2500000
        k(    8) = (  -0.0759910  -0.0000099   0.0000000), wk =   0.1250000
        k(    9) = (  -0.0759910   0.0419252   0.0000000), wk =   0.2500000
        k(   10) = (  -0.0759910  -0.0838800   0.0000000), wk =   0.1250000

     Initial potential from superposition of free atoms

     starting charge  381.99914, renormalised to  398.00000

     negative rho (up, down):  1.340E-02 0.000E+00

     %%%%%%%%%%%%%%%%%%%%%%%%%%%%%%%%%%%%%%%%%%%%%%%%%%%%%%%%%%%%%%%%%%%%%%%%
     %                                                                      %
     % You are using vdW-DF, which was implemented by the Thonhauser group. %
     % Please cite the following two papers that made this development      %
     % possible and the two reviews that describe the various versions:     %
     %                                                                      %
     %   T. Thonhauser et al., PRL 115, 136402 (2015).                      %
     %   T. Thonhauser et al., PRB 76, 125112 (2007).                       %
     %   K. Berland et al., Rep. Prog. Phys. 78, 066501 (2015).             %
     %   D.C. Langreth et al., J. Phys.: Condens. Matter 21, 084203 (2009). %
     %                                                                      %
     %                                                                      %
     % If you are calculating the stress with vdW-DF, please also cite:     %
     %                                                                      %
     %   R. Sabatini et al., J. Phys.: Condens. Matter 24, 424209 (2012).   %
     %                                                                      %
     %%%%%%%%%%%%%%%%%%%%%%%%%%%%%%%%%%%%%%%%%%%%%%%%%%%%%%%%%%%%%%%%%%%%%%%%

     Adding external electric field

     Computed dipole along edir(3) :
        Dipole              -11.7464 Ry au,        -29.8564 Debye
        Dipole field         -0.0222 Ry au,

        Potential amp.        2.0549 Ry
        Total length         46.3494 bohr

     Starting wfcs are  302 atomic wfcs
  @ DRIVER MODE: Message from server: STATUS
  @ DRIVER MODE: Message from server: POSDATA
  @ DRIVER MODE: Reading and sharing cell
  @ DRIVER MODE: Reading and sharing positions
  @ DRIVER MODE: Received positions

     Self-consistent Calculation

     iteration #  1     ecut=    29.40 Ry     beta= 0.05
     Davidson diagonalization with overlap
     c_bands:  1 eigenvalues not converged
     c_bands:  1 eigenvalues not converged
     c_bands:  1 eigenvalues not converged
     c_bands:  3 eigenvalues not converged
     c_bands:  3 eigenvalues not converged
     c_bands:  3 eigenvalues not converged
     c_bands:  4 eigenvalues not converged
     c_bands:  2 eigenvalues not converged
     ethr =  1.00E-05,  avg # of iterations = 21.6

[...]

     total energy              =   -2428.10335445 Ry
     estimated scf accuracy    <    5789.74083560 Ry

     iteration #  2     ecut=    29.40 Ry     beta= 0.05
     Davidson diagonalization with overlap
     ethr =  1.00E-02,  avg # of iterations = 22.2

[...]

     iteration # 69     ecut=    29.40 Ry     beta= 0.05
     Davidson diagonalization with overlap
     ethr =  6.18E-11,  avg # of iterations = 10.2

[...]

     total energy              =   -2942.85971086 Ry
     estimated scf accuracy    <       0.00000008 Ry

     iteration # 70     ecut=    29.40 Ry     beta= 0.05
     Davidson diagonalization with overlap
     c_bands:  2 eigenvalues not converged
     c_bands:  1 eigenvalues not converged
     c_bands:  1 eigenvalues not converged
     ethr =  1.99E-11,  avg # of iterations = 16.8

     negative rho (up, down):  1.463E-02 0.000E+00

     Adding external electric field

     Computed dipole along edir(3) :
        Dipole                1.2195 Ry au,          3.0997 Debye
        Dipole field          0.0023 Ry au,

        Potential amp.       -0.2133 Ry
        Total length         46.3494 bohr

     End of self-consistent calculation

          k = 0.0000 0.0000 0.0000 ( 18029 PWs)   bands (ev):

   -55.3496 -55.3126 -55.3017 -55.2706 -55.2676 -55.2335 -55.2263 -55.1910
   -55.1698 -55.1462 -55.1353 -55.1334 -55.0998 -55.0275 -54.3316 -54.2975
   -31.9180 -31.8023 -31.7942 -31.7149 -31.6653 -31.6592 -31.6526 -31.6391
   -31.5910 -31.5904 -31.5591 -31.5538 -31.5467 -31.5307 -31.5194 -31.5120
   -31.5048 -31.4895 -31.4870 -31.4671 -31.4542 -31.4464 -31.4196 -31.4156
   -31.4044 -31.4019 -31.4007 -31.3725 -31.3589 -31.3568 -31.3519 -31.3323
   -31.3292 -31.3211 -31.3198 -31.3177 -31.2835 -31.2696 -31.2618 -31.2447
   -31.2338 -31.2093 -30.7410 -30.6467 -30.6246 -30.5573 -30.4705 -30.3597
   -17.7994 -16.1860 -15.9183 -15.7783 -15.6685 -15.5495 -15.4310 -15.4115
   -15.2794 -15.1966 -15.0766 -15.0536 -15.0271 -15.0080 -14.9957 -14.9808
   -14.8953 -14.8891 -14.8718 -14.8443 -14.8381 -14.7954 -14.7879 -14.7484
   -14.7268 -14.7254 -14.5970 -14.5093 -14.4374 -14.2013 -13.1776 -12.8341
   -12.7167  -9.7178  -6.3732  -5.3890  -4.8825  -3.5380  -3.4958  -3.3697
    -3.2798  -3.2646  -3.2426  -3.1065  -2.9530  -2.7830  -2.7678  -2.7451
    -2.6395  -2.5619  -2.5558  -2.5310  -2.3796  -2.3579  -2.3069  -2.2414
    -2.2138  -2.1655  -2.1548  -2.1337  -2.1143  -2.0942  -2.0861  -1.9723
    -1.9213  -1.8286  -1.7728  -1.7454  -1.7098  -1.6819  -1.6668  -1.6395
    -1.6313  -1.5890  -1.5619  -1.5401  -1.4889  -1.3769  -1.2678  -1.2378
    -1.1402  -0.9883  -0.9548  -0.9422  -0.9307  -0.8542  -0.8371  -0.7889
    -0.7363  -0.7281  -0.6973  -0.5865  -0.5280  -0.4630  -0.3964  -0.3848
    -0.3379  -0.2762  -0.1637  -0.1396  -0.1170  -0.0919   0.0018   0.0412
     0.0862   0.1610   0.1803   0.1939   0.3007   0.3084   0.3885   0.4007
     0.4462   0.5327   0.5670   0.5893   0.5931   0.6066   0.6367   0.7037
     0.7280   0.7543   0.8294   0.9532   1.0237   1.1853   1.2484   1.2620
     1.5916   1.5960   1.6912   1.8749   2.2674   2.3156   3.7477   3.8173
     3.8922   3.8988   3.9108   3.9845   4.2218   4.2380   4.2505   4.2566
     4.2914

[...]

          k = 0.0380-0.0419 0.0000 ( 17876 PWs)   bands (ev):

[...]

          k =-0.0760-0.0000 0.0000 ( 17886 PWs)   bands (ev):

[...]

          k =-0.0760-0.0839 0.0000 ( 17948 PWs)   bands (ev):

   -55.3354 -55.3265 -55.2847 -55.2844 -55.2691 -55.2301 -55.2128 -55.2044
   -55.1542 -55.1504 -55.1495 -55.1169 -55.1165 -55.0287 -54.3145 -54.3144
   -31.7253 -31.7224 -31.7187 -31.6351 -31.6094 -31.6092 -31.6066 -31.5762
   -31.5760 -31.5579 -31.5506 -31.5481 -31.5421 -31.5121 -31.5054 -31.4871
   -31.4869 -31.4829 -31.4796 -31.4743 -31.4713 -31.4705 -31.4334 -31.4284
   -31.4262 -31.4215 -31.4174 -31.4061 -31.4044 -31.4041 -31.3973 -31.3877
   -31.3835 -31.3673 -31.3639 -31.3478 -31.3474 -31.3380 -31.2978 -31.2975
   -31.2872 -31.2386 -30.6373 -30.6372 -30.5535 -30.5534 -30.5140 -30.5139
   -17.7947 -15.7094 -15.5974 -15.5511 -15.3780 -15.3557 -15.3332 -15.3184
   -15.1904 -15.1719 -15.1440 -15.1176 -15.0925 -15.0650 -15.0538 -15.0488
   -14.9664 -14.9545 -14.9470 -14.9309 -14.8629 -14.8600 -14.8557 -14.8499
   -14.7991 -14.7965 -14.7161 -14.7028 -14.7013 -14.5035 -13.1786 -12.8181
   -12.8181  -9.7142  -6.3608  -5.3887  -4.8884  -3.4685  -2.8658  -2.8305
    -2.8068  -2.7724  -2.5934  -2.5553  -2.5185  -2.5060  -2.4069  -2.3647
    -2.3470  -2.3397  -2.2693  -2.2659  -2.2350  -2.2050  -2.1841  -2.1670
    -2.1532  -2.1313  -2.1064  -2.0771  -2.0711  -2.0558  -2.0019  -1.9992
    -1.9832  -1.9615  -1.9440  -1.9226  -1.9064  -1.8498  -1.7276  -1.7173
    -1.6632  -1.5568  -1.5523  -1.4721  -1.4669  -1.4229  -1.3950  -1.3829
    -1.3556  -1.1757  -1.1221  -1.0958  -1.0883  -1.0764  -0.9679  -0.9339
    -0.8757  -0.8601  -0.8339  -0.7360  -0.6855  -0.6812  -0.5996  -0.5681
    -0.5289  -0.4873  -0.3862  -0.3565  -0.3366  -0.3076  -0.3042  -0.2507
    -0.2453  -0.1686  -0.1207  -0.0847  -0.0703  -0.0392   0.1602   0.1698
     0.1881   0.3351   0.3577   0.4980   0.5419   0.5839   0.6446   0.6963
     0.7623   0.8030   0.9299   0.9576   0.9584   1.0286   1.0491   1.0540
     1.1067   1.1086   2.0476   2.0483   2.1355   2.1358   3.8908   3.9953
     4.0101   4.0555   4.1654   4.2392   4.2624   4.2893   4.3320   4.3349
     4.4046

     the Fermi energy is     3.8106 ev

!    total energy              =   -2942.85972958 Ry
     estimated scf accuracy    <       0.00000007 Ry
     smearing contrib. (-TS)   =      -0.03701411 Ry
     internal energy E=F+TS    =   -2942.82271547 Ry

     The total energy is F=E-TS. E is the sum of the following terms:
     one-electron contribution =  -23389.42340425 Ry
     hartree contribution      =   11787.24893583 Ry
     xc contribution           =    -487.75206850 Ry
     ewald contribution        =    9147.10101492 Ry
     electric field correction =       0.00280653 Ry

     convergence has been achieved in  70 iterations

     Forces acting on atoms (cartesian axes, Ry/au):

     atom    1 type  1   force =     0.00000222   -0.00025616    0.09308230
     atom    2 type  1   force =    -0.00014691   -0.00043216   -0.17828565
     atom    3 type  2   force =     0.00007432   -0.00008856   -0.02026271
     atom    4 type  2   force =     0.00001569   -0.00186608    0.05882022
     atom    5 type  2   force =    -0.01020977   -0.00054656    0.00773949
     atom    6 type  2   force =     0.01226138    0.00007260    0.00819894
     atom    7 type  1   force =     0.00038796    0.00328529   -0.01425622
     atom    8 type  1   force =    -0.00045557    0.00046099   -0.00456562
     atom    9 type  2   force =    -0.00002690   -0.00061019   -0.00037600
     atom   10 type  2   force =    -0.00059711    0.00091274   -0.00141235
     atom   11 type  2   force =    -0.00037027   -0.00012378    0.00022966
     atom   12 type  2   force =     0.00006280   -0.00006905    0.00003801
     atom   13 type  1   force =     0.00005028   -0.00031630    0.00017734
     atom   14 type  1   force =    -0.00036114    0.00013011    0.00042021
     atom   15 type  2   force =    -0.00015971    0.00080854    0.00023135
     atom   16 type  2   force =    -0.00008771   -0.00018155    0.00029762
     atom   17 type  2   force =    -0.00043767    0.00005001    0.00042993
     atom   18 type  2   force =     0.00013099   -0.00021052   -0.00007774
     atom   19 type  1   force =     0.00033963    0.00028446    0.00093645
     atom   20 type  1   force =    -0.00062732   -0.00068653    0.00033514
     atom   21 type  2   force =     0.00000249   -0.00010315    0.10396309
     atom   22 type  2   force =    -0.00019339    0.00002695   -0.00059117
     atom   23 type  2   force =    -0.07036229   -0.00022324   -0.02688302
     atom   24 type  2   force =     0.07025933    0.00020538   -0.02696471
     atom   25 type  1   force =     0.00001870   -0.00027255    0.09274590
     atom   26 type  1   force =    -0.00011835   -0.00044854   -0.17831630
     atom   27 type  2   force =     0.00013908   -0.00033084   -0.01928753
     atom   28 type  2   force =     0.00008184   -0.00154974    0.05821608
     atom   29 type  2   force =    -0.01022166   -0.00032873    0.00695419
     atom   30 type  2   force =     0.01217216   -0.00008564    0.00748888
     atom   31 type  1   force =     0.00039994    0.00495993   -0.01539142
     atom   32 type  1   force =    -0.00037687   -0.00033689   -0.00466429
     atom   33 type  2   force =    -0.00021928   -0.00048396    0.00015061
     atom   34 type  2   force =    -0.00014177    0.00363968   -0.00060133
     atom   35 type  2   force =     0.00002971   -0.00055947    0.00031752
     atom   36 type  2   force =    -0.00018568   -0.00052831   -0.00003323
     atom   37 type  1   force =    -0.00026154   -0.00049973    0.00049293
     atom   38 type  1   force =    -0.00019259   -0.00089844    0.00045433
     atom   39 type  2   force =    -0.00048004   -0.00052015    0.00051574
     atom   40 type  2   force =     0.00001575   -0.00049120   -0.00043884
     atom   41 type  2   force =    -0.00078561   -0.00011682   -0.00011068
     atom   42 type  2   force =     0.00030187   -0.00024757   -0.00031335
     atom   43 type  1   force =     0.00004995   -0.00032004   -0.00003734
     atom   44 type  1   force =    -0.00007178   -0.00066191    0.00071552
     atom   45 type  2   force =     0.00000934   -0.00014314    0.10393772
     atom   46 type  2   force =    -0.07041476   -0.00018543   -0.02689802
     atom   47 type  2   force =     0.07027876    0.00025507   -0.02696878
     atom   48 type  3   force =     0.00104643    0.00212998   -0.00095989
     atom   49 type  3   force =     0.00021926    0.00110604   -0.00024622
     atom   50 type  4   force =    -0.00439106   -0.00600731    0.00397113
     atom   51 type  5   force =    -0.00092203   -0.00048901    0.00060979
     atom   52 type  5   force =     0.00290058    0.00620281   -0.00375700
     atom   53 type  5   force =     0.00091244   -0.00004166    0.00119063
     atom   54 type  5   force =     0.00001719   -0.00056746   -0.00040633
     atom   55 type  5   force =     0.00051904   -0.00176255   -0.00028668
     atom   56 type  5   force =     0.00011963   -0.00093969   -0.00026830

     Total force =     0.366358     Total SCF correction =     0.000857
  @ DRIVER MODE: Message from server: STATUS
  @ DRIVER MODE: Message from server: GETFORCE
  @ DRIVER MODE: Returning v,forces,stress,ensemble

     Writing output data file ./calc.save/
  @ DRIVER MODE: Message from server: EXIT
  @ DRIVE MODE: Exiting

     General routines

     Parallel routines

   This run was terminated on:   7:15:17   9Sep2021

   JOB DONE.