     Program PWSCF v.6.7GPU starts on 23Sep2021 at  5:14:33

     R & G space division:  proc/nbgrp/npool/nimage =       8
     Reading input from /storage/home/hcoda1/3/ntian30/research/carbon/CxH_vib/H2O_calc/ads_slab/CH3HO_a/out_0021/pw.inp
Warning: card &CELL ignored
Warning: card   CELL_DYNAMICS='IPI', ignored
Warning: card / ignored

     Current dimensions of program PWSCF are:
     Max number of different atomic species (ntypx) = 10
     Max number of k-points (npk) =  40000
     Max angular momentum in pseudopotentials (lmaxx) =  3
     Presently no symmetry can be used with electric field

     Message from routine cell_base_init:
     DEPRECATED: use true lattice parameter, not A to a.u. conversion factor

     IMPORTANT: XC functional enforced from input :
     Exchange-correlation= BEEF-VDW
                           (   1   4  43  14   2   0   0)
     Any further DFT definition will be discarded
     Please, verify this is what you really want

  @ DRIVER MODE: Connecting to
 qe_1139763_2941010.sched-torque.pace.gatech.edulak8k20e_scratch
  using UNIX socket
  @ DRIVER MODE: Message from server: STATUS
  @ DRIVER MODE: Message from server: INIT
  @ DRIVER MODE: Receiving replica           0          -1
  @ DRIVER MODE: Receiving encoded integer          25
  @ DRIVER MODE:  SCF:  T  FORCE:  T  STRESS:  F  VC:  F  ENSEMBLE:  F
  @ DRIVER MODE:  SCF:  T  FORCE:  T  STRESS:  F  VC:  F  ENSEMBLE:  F

     Using Slab Decomposition

     bravais-lattice index     =            0
     lattice parameter (alat)  =       1.8897  a.u.
     unit-cell volume          =    6658.9804 (a.u.)^3
     number of atoms/cell      =           53
     number of atomic types    =            4
     number of electrons       =       392.00
     number of Kohn-Sham states=          206
     kinetic-energy cutoff     =      29.3995  Ry
     charge density cutoff     =     293.9946  Ry
     scf convergence threshold =      7.3E-08
     mixing beta               =       0.0500
     number of iterations used =            8  plain     mixing
     Exchange-correlation= BEEF-VDW
                           (   1   4  43  14   2   0   0)

     celldm(1)=   1.889726  celldm(2)=   0.000000  celldm(3)=   0.000000
     celldm(4)=   0.000000  celldm(5)=   0.000000  celldm(6)=   0.000000

     crystal axes: (cart. coord. in units of alat)
               a(1) = (   6.579727   0.000000   0.000000 )
               a(2) = (  -0.000775   5.961596   0.000000 )
               a(3) = (   0.000000   0.000000  25.155947 )

     reciprocal axes: (cart. coord. in units 2 pi/alat)
               b(1) = (  0.151982  0.000020  0.000000 )
               b(2) = (  0.000000  0.167740  0.000000 )
               b(3) = (  0.000000  0.000000  0.039752 )

     PseudoPot. # 1 for Ti read from file:
     /storage/coda1/p-amedford6/0/shared/rich_project_chbe-medford/medford-share/data/pseudos_module/espresso/nninc/pbe/van/Ti.UPF
     MD5 check sum: 8e4df49b7f0d34bbd5052bf3f5ea0213
     Pseudo is Ultrasoft, Zval = 12.0
     Generated by new atomic code, or converted to UPF format
     Using radial grid of  851 points,  6 beta functions with:
                l(1) =   0
                l(2) =   0
                l(3) =   1
                l(4) =   1
                l(5) =   2
                l(6) =   2
     Q(r) pseudized with  8 coefficients,  rinner =    1.000   1.000   1.000
                                                       1.000   1.000

     PseudoPot. # 2 for O  read from file:
     /storage/coda1/p-amedford6/0/shared/rich_project_chbe-medford/medford-share/data/pseudos_module/espresso/nninc/pbe/van/O.UPF
     MD5 check sum: 78c19812648e8988a0fe644b0f25305e
     Pseudo is Ultrasoft, Zval =  6.0
     Generated by new atomic code, or converted to UPF format
     Using radial grid of  737 points,  4 beta functions with:
                l(1) =   0
                l(2) =   0
                l(3) =   1
                l(4) =   1
     Q(r) pseudized with  8 coefficients,  rinner =    0.800   0.800   0.800

     PseudoPot. # 3 for C  read from file:
     /storage/coda1/p-amedford6/0/shared/rich_project_chbe-medford/medford-share/data/pseudos_module/espresso/nninc/pbe/van/C.UPF
     MD5 check sum: 1a69bf6b8db32088f5b2163dbdb77a27
     Pseudo is Ultrasoft, Zval =  4.0
     Generated by new atomic code, or converted to UPF format
     Using radial grid of  721 points,  4 beta functions with:
                l(1) =   0
                l(2) =   0
                l(3) =   1
                l(4) =   1
     Q(r) pseudized with  8 coefficients,  rinner =    0.800   0.800   0.800

     PseudoPot. # 4 for H  read from file:
     /storage/coda1/p-amedford6/0/shared/rich_project_chbe-medford/medford-share/data/pseudos_module/espresso/nninc/pbe/van/H.UPF
     MD5 check sum: b5ee9d7bfd3a09ee7748110bda690ff7
     Pseudo is Ultrasoft, Zval =  1.0
     Generated by new atomic code, or converted to UPF format
     Using radial grid of  615 points,  1 beta functions with:
                l(1) =   0
     Q(r) pseudized with  8 coefficients,  rinner =    0.800

     atomic species   valence    mass     pseudopotential
        Ti1           12.00    47.86700     Ti( 1.00)
        O1             6.00    15.99900     O ( 1.00)
        C1             4.00    12.01100     C ( 1.00)
        H1             1.00     1.00800     H ( 1.00)

     No symmetry found

   Cartesian axes

     site n.     atom                  positions (alat units)
         1           Ti1 tau(   1) = (   0.0004258   2.9801865   6.0000000  )
         2           Ti1 tau(   2) = (   3.2906075   1.4906267   6.0002472  )
         3           O1  tau(   3) = (   0.0006271   0.0005054   7.9858123  )
         4           O1  tau(   4) = (   3.2906025   0.0005020   7.3038282  )
         5           O1  tau(   5) = (   4.5942328   1.4918067   9.2879030  )
         6           O1  tau(   6) = (   1.9868534   1.4903216   9.2879459  )
         7           Ti1 tau(   7) = (   3.2776386   2.8603028   9.2190116  )
         8           Ti1 tau(   8) = (   6.5598479   1.4304724   9.3580194  )
         9           O1  tau(   9) = (   3.2889234   5.9509398  11.3217173  )
        10           O1  tau(  10) = (   6.5764018   5.9495644  10.5876710  )
        11           O1  tau(  11) = (   1.2812264   1.4943635  12.6442538  )
        12           O1  tau(  12) = (   5.3065913   1.4950901  12.6410841  )
        13           Ti1 tau(  13) = (   0.0201148   2.8652118  12.8170930  )
        14           Ti1 tau(  14) = (   3.2957237   1.3106547  12.6889287  )
        15           O1  tau(  15) = (   6.5548780   5.9443598  14.6367865  )
        16           O1  tau(  16) = (   3.2877845   0.0417723  13.9217912  )
        17           O1  tau(  17) = (   4.5532326   1.5761655  16.0783859  )
        18           O1  tau(  18) = (   2.0366504   1.5601698  16.0762102  )
        19           Ti1 tau(  19) = (   3.2678531   3.0297845  15.6708759  )
        20           Ti1 tau(  20) = (   6.4629285   1.5188837  16.1410570  )
        21           O1  tau(  21) = (   3.2904802   0.0005063   4.7018136  )
        22           O1  tau(  22) = (   6.5629482   0.0231895  17.1619738  )
        23           O1  tau(  23) = (   1.3043587   1.4918075   6.0039043  )
        24           O1  tau(  24) = (   5.2767064   1.4903225   6.0039473  )
        25           Ti1 tau(  25) = (   0.0000382   5.9609847   6.0000000  )
        26           Ti1 tau(  26) = (   3.2902200   4.4714249   6.0002472  )
        27           O1  tau(  27) = (   0.0002396   2.9813036   7.9858123  )
        28           O1  tau(  28) = (   3.2902150   2.9813002   7.3038282  )
        29           O1  tau(  29) = (   4.5938453   4.4726049   9.2879030  )
        30           O1  tau(  30) = (   1.9864658   4.4711199   9.2879459  )
        31           Ti1 tau(  31) = (   3.2699525   5.8470351   9.1790592  )
        32           Ti1 tau(  32) = (   6.5580068   4.3764721   9.3475679  )
        33           O1  tau(  33) = (   3.2877686   3.0124297  11.2895287  )
        34           O1  tau(  34) = (   0.0005883   2.9642609  10.5504472  )
        35           O1  tau(  35) = (   1.2748618   4.4645017  12.6259732  )
        36           O1  tau(  36) = (   5.2954498   4.4639995  12.6225180  )
        37           Ti1 tau(  37) = (   6.5558271   5.8472513  12.6028672  )
        38           Ti1 tau(  38) = (   3.2807834   4.4064534  12.4217905  )
        39           O1  tau(  39) = (   6.5786029   2.9813041  14.7145626  )
        40           O1  tau(  40) = (   3.2869290   2.9992676  13.8921391  )
        41           O1  tau(  41) = (   4.5413935   4.4541386  16.0960746  )
        42           O1  tau(  42) = (   2.0104822   4.4576224  16.0708021  )
        43           Ti1 tau(  43) = (   3.1667734   0.0431258  16.3165854  )
        44           Ti1 tau(  44) = (   6.5007865   4.6242813  15.9014112  )
        45           O1  tau(  45) = (   3.2900926   2.9813045   4.7018136  )
        46           O1  tau(  46) = (   1.3039711   4.4726057   6.0039043  )
        47           O1  tau(  47) = (   5.2763189   4.4711207   6.0039473  )
        48           C1  tau(  48) = (   0.0287742   2.9159372  17.8309569  )
        49           H1  tau(  49) = (   0.0209232   3.9694834  18.1111783  )
        50           H1  tau(  50) = (   0.9459818   2.5003430  18.2552837  )
        51           H1  tau(  51) = (   5.7514102   2.4567126  18.3442606  )
        52           O1  tau(  52) = (   3.2249103   0.0683284  18.1361362  )
        53           H1  tau(  53) = (   3.4857875   5.2839856  18.6954204  )

     number of k points=    10  Fermi-Dirac smearing, width (Ry)=  0.0073
                       cart. coord. in units 2pi/alat
        k(    1) = (   0.0000000   0.0000000   0.0000000), wk =   0.1250000
        k(    2) = (   0.0000000   0.0419351   0.0000000), wk =   0.2500000
        k(    3) = (   0.0000000  -0.0838702   0.0000000), wk =   0.1250000
        k(    4) = (   0.0379955   0.0000049   0.0000000), wk =   0.2500000
        k(    5) = (   0.0379955   0.0419400   0.0000000), wk =   0.2500000
        k(    6) = (   0.0379955  -0.0838652   0.0000000), wk =   0.2500000
        k(    7) = (   0.0379955  -0.0419301   0.0000000), wk =   0.2500000
        k(    8) = (  -0.0759910  -0.0000099   0.0000000), wk =   0.1250000
        k(    9) = (  -0.0759910   0.0419252   0.0000000), wk =   0.2500000
        k(   10) = (  -0.0759910  -0.0838800   0.0000000), wk =   0.1250000

     Initial potential from superposition of free atoms

     starting charge  375.99917, renormalised to  392.00000

     negative rho (up, down):  1.891E-02 0.000E+00

     %%%%%%%%%%%%%%%%%%%%%%%%%%%%%%%%%%%%%%%%%%%%%%%%%%%%%%%%%%%%%%%%%%%%%%%%
     %                                                                      %
     % You are using vdW-DF, which was implemented by the Thonhauser group. %
     % Please cite the following two papers that made this development      %
     % possible and the two reviews that describe the various versions:     %
     %                                                                      %
     %   T. Thonhauser et al., PRL 115, 136402 (2015).                      %
     %   T. Thonhauser et al., PRB 76, 125112 (2007).                       %
     %   K. Berland et al., Rep. Prog. Phys. 78, 066501 (2015).             %
     %   D.C. Langreth et al., J. Phys.: Condens. Matter 21, 084203 (2009). %
     %                                                                      %
     %                                                                      %
     % If you are calculating the stress with vdW-DF, please also cite:     %
     %                                                                      %
     %   R. Sabatini et al., J. Phys.: Condens. Matter 24, 424209 (2012).   %
     %                                                                      %
     %%%%%%%%%%%%%%%%%%%%%%%%%%%%%%%%%%%%%%%%%%%%%%%%%%%%%%%%%%%%%%%%%%%%%%%%

     Adding external electric field

     Computed dipole along edir(3) :
        Dipole               -5.0034 Ry au,        -12.7174 Debye
        Dipole field         -0.0094 Ry au,

        Potential amp.        0.8753 Ry
        Total length         46.3494 bohr

     Starting wfcs are  296 atomic wfcs
  @ DRIVER MODE: Message from server: STATUS
  @ DRIVER MODE: Message from server: POSDATA
  @ DRIVER MODE: Reading and sharing cell
  @ DRIVER MODE: Reading and sharing positions
  @ DRIVER MODE: Received positions

     Self-consistent Calculation

     iteration #  1     ecut=    29.40 Ry     beta= 0.05
     Davidson diagonalization with overlap
     c_bands:  4 eigenvalues not converged
     c_bands:  4 eigenvalues not converged
     c_bands:  5 eigenvalues not converged
     c_bands:  3 eigenvalues not converged
     c_bands:  1 eigenvalues not converged
     c_bands:  2 eigenvalues not converged
     c_bands:  1 eigenvalues not converged
     c_bands:  2 eigenvalues not converged
     c_bands:  3 eigenvalues not converged
     ethr =  1.00E-05,  avg # of iterations = 19.7

[...]

     total energy              =   -2842.14325196 Ry
     estimated scf accuracy    <    1000.56583155 Ry

     iteration #  2     ecut=    29.40 Ry     beta= 0.05
     Davidson diagonalization with overlap
     ethr =  1.00E-02,  avg # of iterations = 16.0

[...]

     iteration # 33     ecut=    29.40 Ry     beta= 0.05
     Davidson diagonalization with overlap
     c_bands:  3 eigenvalues not converged
     c_bands:  3 eigenvalues not converged
     ethr =  9.54E-07,  avg # of iterations =  6.4

[...]

     total energy              =   -2932.63113176 Ry
     estimated scf accuracy    <       0.00000010 Ry

     iteration # 65     ecut=    29.40 Ry     beta= 0.05
     Davidson diagonalization with overlap
     ethr =  1.96E-11,  avg # of iterations =  4.9

     negative rho (up, down):  1.832E-02 0.000E+00

     Adding external electric field

     Computed dipole along edir(3) :
        Dipole                0.4021 Ry au,          1.0221 Debye
        Dipole field          0.0008 Ry au,

        Potential amp.       -0.0703 Ry
        Total length         46.3494 bohr

     End of self-consistent calculation

          k = 0.0000 0.0000 0.0000 ( 18029 PWs)   bands (ev):

   -56.6133 -56.5632 -56.0779 -56.0396 -56.0047 -55.9340 -55.9080 -55.8945
   -55.8540 -55.8478 -55.8053 -55.7824 -55.7270 -55.6353 -55.2248 -55.1909
   -33.0251 -32.8784 -32.8241 -32.7920 -32.6963 -32.6512 -32.5034 -32.4882
   -32.4502 -32.3434 -32.3245 -32.3186 -32.3125 -32.3051 -32.2861 -32.2688
   -32.2453 -32.2246 -32.2185 -32.1431 -32.1398 -32.1381 -32.1250 -32.1137
   -32.1081 -32.1034 -32.0923 -32.0897 -32.0847 -32.0536 -32.0400 -32.0395
   -32.0095 -31.9995 -31.9953 -31.9832 -31.9674 -31.9514 -31.8918 -31.8588
   -31.8451 -31.8382 -31.6194 -31.5650 -31.5406 -31.4362 -31.3513 -31.2405
   -16.9225 -16.7695 -16.6312 -16.4085 -16.2683 -16.1577 -15.9401 -15.9291
   -15.8073 -15.8034 -15.7614 -15.6360 -15.6215 -15.5853 -15.5736 -15.5495
   -15.5360 -15.5257 -15.5214 -15.4970 -15.4613 -15.4386 -15.3954 -15.3239
   -15.2587 -15.2416 -15.2028 -15.1395 -15.1072 -14.8723 -13.7265 -13.6179
    -9.3665  -4.6679  -4.2957  -4.0799  -3.9657  -3.9238  -3.7862  -3.6402
    -3.4649  -3.3719  -3.2404  -3.2346  -3.1639  -3.1221  -3.1105  -3.1077
    -3.0213  -2.9743  -2.9431  -2.9182  -2.9045  -2.8514  -2.8175  -2.7751
    -2.7547  -2.7526  -2.7082  -2.6816  -2.5346  -2.5039  -2.4867  -2.4783
    -2.4422  -2.4236  -2.3883  -2.3721  -2.2908  -2.2095  -2.1916  -2.1295
    -2.0649  -2.0150  -1.8273  -1.8153  -1.7160  -1.6390  -1.6157  -1.5690
    -1.5297  -1.4885  -1.4214  -1.3945  -1.3074  -1.2532  -1.1999  -1.1877
    -1.1559  -1.1211  -1.0799  -0.9752  -0.9265  -0.9206  -0.8104  -0.7575
    -0.6922  -0.6876  -0.6318  -0.5993  -0.4960  -0.4780  -0.4451  -0.4095
    -0.3769  -0.3539  -0.2961  -0.2761  -0.2463  -0.1854  -0.1460  -0.1262
    -0.0970  -0.0823  -0.0180   0.0386   0.0580   0.1641   0.1828   0.2187
     0.2898   0.3797   0.4331   0.5205   0.6937   0.7925   0.8266   0.9395
     1.0072   1.0533   1.3441   1.3900   2.6883   2.8504   3.1297   3.2822
     3.3047   3.3602   3.4072   3.4629   3.6222   3.6835

[...]

          k = 0.0380-0.0419 0.0000 ( 17876 PWs)   bands (ev):

[...]

          k =-0.0760-0.0000 0.0000 ( 17886 PWs)   bands (ev):

[...]

          k =-0.0760-0.0839 0.0000 ( 17948 PWs)   bands (ev):

   -56.6068 -56.5695 -56.0768 -56.0373 -56.0000 -55.9385 -55.9100 -55.8953
   -55.8520 -55.8393 -55.8136 -55.7805 -55.7289 -55.6370 -55.2081 -55.2075
   -32.8742 -32.8576 -32.8280 -32.8256 -32.7586 -32.7268 -32.3826 -32.3574
   -32.3439 -32.3227 -32.2924 -32.2901 -32.2673 -32.2631 -32.2500 -32.2430
   -32.2196 -32.2171 -32.2074 -32.1883 -32.1836 -32.1656 -32.1606 -32.1368
   -32.1336 -32.1332 -32.1197 -32.1038 -32.0998 -32.0703 -32.0617 -32.0498
   -32.0474 -32.0406 -32.0070 -32.0042 -31.9906 -31.9872 -31.9686 -31.8929
   -31.8818 -31.8485 -31.5538 -31.5535 -31.4351 -31.4333 -31.3934 -31.3925
   -16.9079 -16.1663 -16.0826 -16.0764 -16.0656 -16.0358 -15.9906 -15.9213
   -15.9184 -15.8256 -15.7934 -15.7580 -15.7239 -15.7080 -15.6545 -15.6496
   -15.6326 -15.5684 -15.5259 -15.4994 -15.4812 -15.4769 -15.4487 -15.4293
   -15.4176 -15.3985 -15.3327 -15.2997 -15.2224 -15.0124 -13.7223 -13.7209
    -9.3811  -4.6753  -3.3946  -3.3248  -3.2536  -3.2344  -3.1565  -3.1123
    -3.0978  -3.0726  -3.0520  -3.0175  -2.9873  -2.9746  -2.9274  -2.9154
    -2.9089  -2.9065  -2.8973  -2.8844  -2.8588  -2.8056  -2.7956  -2.7893
    -2.7684  -2.7622  -2.7463  -2.7264  -2.6804  -2.6641  -2.6219  -2.4564
    -2.4299  -2.4224  -2.3744  -2.3519  -2.3020  -2.2725  -2.1947  -2.1815
    -2.1743  -2.1420  -2.0263  -1.9112  -1.7797  -1.7702  -1.7347  -1.6642
    -1.6288  -1.5643  -1.5364  -1.5131  -1.4873  -1.4450  -1.4247  -1.3380
    -1.3280  -1.2873  -1.2727  -1.2572  -1.1747  -1.1133  -1.0847  -1.0621
    -1.0231  -0.9877  -0.9283  -0.8818  -0.8692  -0.8397  -0.8213  -0.7039
    -0.6700  -0.6398  -0.4917  -0.4579  -0.4502  -0.4022  -0.2505  -0.2075
    -0.1573  -0.1125  -0.0830   0.0466   0.0911   0.1380   0.1455   0.1999
     0.3189   0.3420   0.3864   0.4530   0.4763   0.4869   0.5270   1.0300
     1.1855   1.1883   1.1966   1.2019   3.2297   3.2540   3.2666   3.2977
     3.4702   3.5399   3.5761   3.6042   3.6505   3.7105

     the Fermi energy is     2.0973 ev

!    total energy              =   -2932.63115875 Ry
     estimated scf accuracy    <       0.00000003 Ry
     smearing contrib. (-TS)   =      -0.00015674 Ry
     internal energy E=F+TS    =   -2932.63100201 Ry

     The total energy is F=E-TS. E is the sum of the following terms:
     one-electron contribution =  -24308.06517980 Ry
     hartree contribution      =   12238.20307866 Ry
     xc contribution           =    -482.64892145 Ry
     ewald contribution        =    9619.87971542 Ry
     electric field correction =       0.00030516 Ry

     convergence has been achieved in  65 iterations

     Forces acting on atoms (cartesian axes, Ry/au):

     atom    1 type  1   force =     0.00035922   -0.00031624    0.13238305
     atom    2 type  1   force =     0.00005081    0.00688158   -0.15775032
     atom    3 type  2   force =     0.00014832    0.00441435   -0.05306237
     atom    4 type  2   force =    -0.00038335   -0.00087227    0.04048391
     atom    5 type  2   force =    -0.00907453   -0.00264932    0.00214754
     atom    6 type  2   force =     0.00918056   -0.00496352    0.00181747
     atom    7 type  1   force =     0.00068896    0.00107139    0.00045828
     atom    8 type  1   force =    -0.00078845   -0.00013716   -0.00012221
     atom    9 type  2   force =     0.00000650   -0.00017100    0.00051615
     atom   10 type  2   force =     0.00005042   -0.00006832   -0.00011947
     atom   11 type  2   force =    -0.00058066    0.00020616   -0.00038919
     atom   12 type  2   force =    -0.00052145   -0.00055519   -0.00059696
     atom   13 type  1   force =     0.00096423   -0.00086670   -0.00001052
     atom   14 type  1   force =    -0.00105790   -0.00094723    0.00007320
     atom   15 type  2   force =     0.00003845    0.00016894   -0.00078319
     atom   16 type  2   force =     0.00009437    0.00004279   -0.00042109
     atom   17 type  2   force =    -0.00001607   -0.00013914    0.00004345
     atom   18 type  2   force =    -0.00006976   -0.00010672    0.00018818
     atom   19 type  1   force =     0.00010220   -0.00015953   -0.00090810
     atom   20 type  1   force =    -0.00013984   -0.00021238   -0.00006919
     atom   21 type  2   force =     0.00016136    0.00008891    0.09922914
     atom   22 type  2   force =     0.00020249    0.00002863   -0.00003668
     atom   23 type  2   force =    -0.08041030    0.00141655   -0.03414321
     atom   24 type  2   force =     0.08049794    0.00191576   -0.03418492
     atom   25 type  1   force =     0.00021544   -0.00004526    0.14218892
     atom   26 type  1   force =     0.00010081   -0.00848104   -0.15822141
     atom   27 type  2   force =    -0.00010847   -0.00043420   -0.05128715
     atom   28 type  2   force =    -0.00024939   -0.00030835    0.04227422
     atom   29 type  2   force =    -0.00856987    0.00487227    0.00031283
     atom   30 type  2   force =     0.00772120    0.00352176    0.00001426
     atom   31 type  1   force =     0.00053808   -0.00129363    0.00088338
     atom   32 type  1   force =    -0.00091303    0.00037586   -0.00077178
     atom   33 type  2   force =     0.00001967   -0.00027924   -0.00017222
     atom   34 type  2   force =     0.00000419   -0.00100213    0.00034341
     atom   35 type  2   force =    -0.00038749    0.00006038   -0.00020351
     atom   36 type  2   force =     0.00021354   -0.00020638   -0.00022484
     atom   37 type  1   force =     0.00101290    0.00078765    0.00043580
     atom   38 type  1   force =    -0.00047764    0.00002010    0.00018320
     atom   39 type  2   force =    -0.00026557   -0.00026082   -0.00018815
     atom   40 type  2   force =     0.00024764   -0.00028340   -0.00001766
     atom   41 type  2   force =     0.00013160   -0.00011871   -0.00008926
     atom   42 type  2   force =    -0.00000437    0.00029170    0.00000832
     atom   43 type  1   force =    -0.00001861    0.00041245   -0.00083387
     atom   44 type  1   force =     0.00022127    0.00015854   -0.00009985
     atom   45 type  2   force =     0.00015664    0.00004182    0.09876555
     atom   46 type  2   force =    -0.08044565   -0.00101294   -0.03414819
     atom   47 type  2   force =     0.08053783   -0.00053145   -0.03418289
     atom   48 type  3   force =    -0.00297350   -0.00292196    0.00156791
     atom   49 type  4   force =    -0.00099011   -0.00033801    0.00119445
     atom   50 type  4   force =     0.00043890   -0.00014253    0.00021943
     atom   51 type  4   force =     0.00292288    0.00321592   -0.00187055
     atom   52 type  2   force =     0.00064120   -0.00162987   -0.00048403
     atom   53 type  4   force =     0.00077639    0.00146113   -0.00033927

     Total force =     0.383798     Total SCF correction =     0.000402
  @ DRIVER MODE: Message from server: STATUS
  @ DRIVER MODE: Message from server: GETFORCE
  @ DRIVER MODE: Returning v,forces,stress,ensemble

     Writing output data file ./calc.save/
  @ DRIVER MODE: Message from server: EXIT
  @ DRIVE MODE: Exiting

     General routines

     Parallel routines

   This run was terminated on:   5:34: 6  23Sep2021

   JOB DONE.