     Program PWSCF v.6.7GPU starts on 15Sep2021 at 15:34:19

     R & G space division:  proc/nbgrp/npool/nimage =      10
     Reading input from /storage/home/hcoda1/3/ntian30/research/carbon/CxH_vib/H2O_calc/ads_slab/CH2NNHHH2O_a/out_0000/pw.inp
Warning: card &CELL ignored
Warning: card   CELL_DYNAMICS='IPI', ignored
Warning: card / ignored

     Current dimensions of program PWSCF are:
     Max number of different atomic species (ntypx) = 10
     Max number of k-points (npk) =  40000
     Max angular momentum in pseudopotentials (lmaxx) =  3
     Presently no symmetry can be used with electric field

     Message from routine cell_base_init:
     DEPRECATED: use true lattice parameter, not A to a.u. conversion factor

     IMPORTANT: XC functional enforced from input :
     Exchange-correlation= BEEF-VDW
                           (   1   4  43  14   2   0   0)
     Any further DFT definition will be discarded
     Please, verify this is what you really want

  @ DRIVER MODE: Connecting to
 qe_1139763_2852611.sched-torque.pace.gatech.eduqkdlqj_w_scratch
  using UNIX socket
  @ DRIVER MODE: Message from server: STATUS
  @ DRIVER MODE: Message from server: INIT
  @ DRIVER MODE: Receiving replica           0          -1
  @ DRIVER MODE: Receiving encoded integer          25
  @ DRIVER MODE:  SCF:  T  FORCE:  T  STRESS:  F  VC:  F  ENSEMBLE:  F
  @ DRIVER MODE:  SCF:  T  FORCE:  T  STRESS:  F  VC:  F  ENSEMBLE:  F

     Using Slab Decomposition

     bravais-lattice index     =            0
     lattice parameter (alat)  =       1.8897  a.u.
     unit-cell volume          =    6658.9804 (a.u.)^3
     number of atoms/cell      =           57
     number of atomic types    =            5
     number of electrons       =       404.00
     number of Kohn-Sham states=          212
     kinetic-energy cutoff     =      29.3995  Ry
     charge density cutoff     =     293.9946  Ry
     scf convergence threshold =      7.3E-08
     mixing beta               =       0.0500
     number of iterations used =            8  plain     mixing
     Exchange-correlation= BEEF-VDW
                           (   1   4  43  14   2   0   0)

     celldm(1)=   1.889726  celldm(2)=   0.000000  celldm(3)=   0.000000
     celldm(4)=   0.000000  celldm(5)=   0.000000  celldm(6)=   0.000000

     crystal axes: (cart. coord. in units of alat)
               a(1) = (   6.579727   0.000000   0.000000 )
               a(2) = (  -0.000775   5.961596   0.000000 )
               a(3) = (   0.000000   0.000000  25.155947 )

     reciprocal axes: (cart. coord. in units 2 pi/alat)
               b(1) = (  0.151982  0.000020  0.000000 )
               b(2) = (  0.000000  0.167740  0.000000 )
               b(3) = (  0.000000  0.000000  0.039752 )

     PseudoPot. # 1 for Ti read from file:
     /storage/coda1/p-amedford6/0/shared/rich_project_chbe-medford/medford-share/data/pseudos_module/espresso/nninc/pbe/van/Ti.UPF
     MD5 check sum: 8e4df49b7f0d34bbd5052bf3f5ea0213
     Pseudo is Ultrasoft, Zval = 12.0
     Generated by new atomic code, or converted to UPF format
     Using radial grid of  851 points,  6 beta functions with:
                l(1) =   0
                l(2) =   0
                l(3) =   1
                l(4) =   1
                l(5) =   2
                l(6) =   2
     Q(r) pseudized with  8 coefficients,  rinner =    1.000   1.000   1.000
                                                       1.000   1.000

     PseudoPot. # 2 for O  read from file:
     /storage/coda1/p-amedford6/0/shared/rich_project_chbe-medford/medford-share/data/pseudos_module/espresso/nninc/pbe/van/O.UPF
     MD5 check sum: 78c19812648e8988a0fe644b0f25305e
     Pseudo is Ultrasoft, Zval =  6.0
     Generated by new atomic code, or converted to UPF format
     Using radial grid of  737 points,  4 beta functions with:
                l(1) =   0
                l(2) =   0
                l(3) =   1
                l(4) =   1
     Q(r) pseudized with  8 coefficients,  rinner =    0.800   0.800   0.800

     PseudoPot. # 3 for N  read from file:
     /storage/coda1/p-amedford6/0/shared/rich_project_chbe-medford/medford-share/data/pseudos_module/espresso/nninc/pbe/van/N.UPF
     MD5 check sum: 90d10febe142ad51ac9d5be1deb811c4
     Pseudo is Ultrasoft, Zval =  5.0
     Generated by new atomic code, or converted to UPF format
     Using radial grid of  729 points,  4 beta functions with:
                l(1) =   0
                l(2) =   0
                l(3) =   1
                l(4) =   1
     Q(r) pseudized with  8 coefficients,  rinner =    0.800   0.800   0.800

     PseudoPot. # 4 for C  read from file:
     /storage/coda1/p-amedford6/0/shared/rich_project_chbe-medford/medford-share/data/pseudos_module/espresso/nninc/pbe/van/C.UPF
     MD5 check sum: 1a69bf6b8db32088f5b2163dbdb77a27
     Pseudo is Ultrasoft, Zval =  4.0
     Generated by new atomic code, or converted to UPF format
     Using radial grid of  721 points,  4 beta functions with:
                l(1) =   0
                l(2) =   0
                l(3) =   1
                l(4) =   1
     Q(r) pseudized with  8 coefficients,  rinner =    0.800   0.800   0.800

     PseudoPot. # 5 for H  read from file:
     /storage/coda1/p-amedford6/0/shared/rich_project_chbe-medford/medford-share/data/pseudos_module/espresso/nninc/pbe/van/H.UPF
     MD5 check sum: b5ee9d7bfd3a09ee7748110bda690ff7
     Pseudo is Ultrasoft, Zval =  1.0
     Generated by new atomic code, or converted to UPF format
     Using radial grid of  615 points,  1 beta functions with:
                l(1) =   0
     Q(r) pseudized with  8 coefficients,  rinner =    0.800

     atomic species   valence    mass     pseudopotential
        Ti1           12.00    47.86700     Ti( 1.00)
        O1             6.00    15.99900     O ( 1.00)
        N1             5.00    14.00700     N ( 1.00)
        C1             4.00    12.01100     C ( 1.00)
        H1             1.00     1.00800     H ( 1.00)

     No symmetry found

   Cartesian axes

     site n.     atom                  positions (alat units)
         1           Ti1 tau(   1) = (   0.0004258   2.9801865   6.0000000  )
         2           Ti1 tau(   2) = (   3.2906075   1.4906267   6.0002472  )
         3           O1  tau(   3) = (   0.0006271   0.0005054   7.9858123  )
         4           O1  tau(   4) = (   3.2906025   0.0005020   7.3038282  )
         5           O1  tau(   5) = (   4.5942328   1.4918067   9.2879030  )
         6           O1  tau(   6) = (   1.9868534   1.4903216   9.2879459  )
         7           Ti1 tau(   7) = (   3.2907910   2.8959150   9.1758416  )
         8           Ti1 tau(   8) = (   0.0015273   1.4827037   9.2680791  )
         9           O1  tau(   9) = (   3.3121314   5.9338840  11.3691909  )
        10           O1  tau(  10) = (   0.0116148   5.9584955  10.6183126  )
        11           O1  tau(  11) = (   1.3134021   1.4784130  12.6451072  )
        12           O1  tau(  12) = (   5.3172625   1.4801399  12.6491864  )
        13           Ti1 tau(  13) = (   0.0380378   2.9573341  12.5222382  )
        14           Ti1 tau(  14) = (   3.3404755   1.4532591  12.5245293  )
        15           O1  tau(  15) = (   0.0239237   0.0366503  14.6894071  )
        16           O1  tau(  16) = (   3.3255740   5.9570089  14.0129324  )
        17           O1  tau(  17) = (   4.5846449   1.4795273  16.1858442  )
        18           O1  tau(  18) = (   2.0539891   1.4908220  16.1938258  )
        19           Ti1 tau(  19) = (   3.3028508   2.9322526  15.7076921  )
        20           Ti1 tau(  20) = (   0.0088316   1.3655950  16.0522487  )
        21           O1  tau(  21) = (   3.2904802   0.0005063   4.7018136  )
        22           O1  tau(  22) = (   0.0586005   5.8320325  17.2288864  )
        23           O1  tau(  23) = (   1.3043587   1.4918075   6.0039043  )
        24           O1  tau(  24) = (   5.2767064   1.4903225   6.0039473  )
        25           Ti1 tau(  25) = (   0.0000382   5.9609847   6.0000000  )
        26           Ti1 tau(  26) = (   3.2902200   4.4714249   6.0002472  )
        27           O1  tau(  27) = (   0.0002396   2.9813036   7.9858123  )
        28           O1  tau(  28) = (   3.2902150   2.9813002   7.3038282  )
        29           O1  tau(  29) = (   4.5938453   4.4726049   9.2879030  )
        30           O1  tau(  30) = (   1.9864658   4.4711199   9.2879459  )
        31           Ti1 tau(  31) = (   3.2891106   5.8743827   9.1763621  )
        32           Ti1 tau(  32) = (   0.0006254   4.4649316   9.2693709  )
        33           O1  tau(  33) = (   3.3142679   2.9660735  11.3641874  )
        34           O1  tau(  34) = (   0.0092240   2.9805883  10.6323155  )
        35           O1  tau(  35) = (   1.3108675   4.4558178  12.6782323  )
        36           O1  tau(  36) = (   5.3175068   4.4537340  12.6790822  )
        37           Ti1 tau(  37) = (   0.0418451   5.9490355  12.4996082  )
        38           Ti1 tau(  38) = (   3.3402151   4.4429940  12.5219265  )
        39           O1  tau(  39) = (   0.0332256   2.9148708  14.9327709  )
        40           O1  tau(  40) = (   3.3156017   2.9437717  13.9283311  )
        41           O1  tau(  41) = (   4.5915719   4.3868214  16.1197993  )
        42           O1  tau(  42) = (   2.0539401   4.4017640  16.0846163  )
        43           Ti1 tau(  43) = (   3.3369130   5.9116756  15.8392261  )
        44           Ti1 tau(  44) = (   0.0533093   4.5818758  15.8415549  )
        45           O1  tau(  45) = (   3.2900926   2.9813045   4.7018136  )
        46           O1  tau(  46) = (   1.3039711   4.4726057   6.0039043  )
        47           O1  tau(  47) = (   5.2763189   4.4711207   6.0039473  )
        48           N1  tau(  48) = (   6.5287229   2.7802708  18.1865785  )
        49           C1  tau(  49) = (   0.9724842   2.7744648  18.9576868  )
        50           H1  tau(  50) = (   0.9153086   3.0669255  20.0057840  )
        51           H1  tau(  51) = (   1.9225290   2.4867234  18.5393133  )
        52           N1  tau(  52) = (   5.2958906   3.1014149  18.7352402  )
        53           H1  tau(  53) = (   5.3913054   3.6367428  19.5974321  )
        54           H1  tau(  54) = (   4.7863746   3.6605970  18.0522289  )
        55           O1  tau(  55) = (   3.2511457   5.8152340  18.3397965  )
        56           H1  tau(  56) = (   3.7467739   0.6636339  18.5518981  )
        57           H1  tau(  57) = (   2.3053106   0.0674530  18.4201010  )

     number of k points=    10  Fermi-Dirac smearing, width (Ry)=  0.0073
                       cart. coord. in units 2pi/alat
        k(    1) = (   0.0000000   0.0000000   0.0000000), wk =   0.1250000
        k(    2) = (   0.0000000   0.0419351   0.0000000), wk =   0.2500000
        k(    3) = (   0.0000000  -0.0838702   0.0000000), wk =   0.1250000
        k(    4) = (   0.0379955   0.0000049   0.0000000), wk =   0.2500000
        k(    5) = (   0.0379955   0.0419400   0.0000000), wk =   0.2500000
        k(    6) = (   0.0379955  -0.0838652   0.0000000), wk =   0.2500000
        k(    7) = (   0.0379955  -0.0419301   0.0000000), wk =   0.2500000
        k(    8) = (  -0.0759910  -0.0000099   0.0000000), wk =   0.1250000
        k(    9) = (  -0.0759910   0.0419252   0.0000000), wk =   0.2500000
        k(   10) = (  -0.0759910  -0.0838800   0.0000000), wk =   0.1250000

     Initial potential from superposition of free atoms

     starting charge  387.99913, renormalised to  404.00000

     negative rho (up, down):  1.527E-02 0.000E+00

     %%%%%%%%%%%%%%%%%%%%%%%%%%%%%%%%%%%%%%%%%%%%%%%%%%%%%%%%%%%%%%%%%%%%%%%%
     %                                                                      %
     % You are using vdW-DF, which was implemented by the Thonhauser group. %
     % Please cite the following two papers that made this development      %
     % possible and the two reviews that describe the various versions:     %
     %                                                                      %
     %   T. Thonhauser et al., PRL 115, 136402 (2015).                      %
     %   T. Thonhauser et al., PRB 76, 125112 (2007).                       %
     %   K. Berland et al., Rep. Prog. Phys. 78, 066501 (2015).             %
     %   D.C. Langreth et al., J. Phys.: Condens. Matter 21, 084203 (2009). %
     %                                                                      %
     %                                                                      %
     % If you are calculating the stress with vdW-DF, please also cite:     %
     %                                                                      %
     %   R. Sabatini et al., J. Phys.: Condens. Matter 24, 424209 (2012).   %
     %                                                                      %
     %%%%%%%%%%%%%%%%%%%%%%%%%%%%%%%%%%%%%%%%%%%%%%%%%%%%%%%%%%%%%%%%%%%%%%%%

     Adding external electric field

     Computed dipole along edir(3) :
        Dipole              -14.3244 Ry au,        -36.4090 Debye
        Dipole field         -0.0270 Ry au,

        Potential amp.        2.5058 Ry
        Total length         46.3494 bohr

     Starting wfcs are  306 atomic wfcs
  @ DRIVER MODE: Message from server: STATUS
  @ DRIVER MODE: Message from server: POSDATA
  @ DRIVER MODE: Reading and sharing cell
  @ DRIVER MODE: Reading and sharing positions
  @ DRIVER MODE: Received positions

     Self-consistent Calculation

     iteration #  1     ecut=    29.40 Ry     beta= 0.05
     Davidson diagonalization with overlap
     ethr =  1.00E-02,  avg # of iterations =  6.4

[...]

     total energy              =   -2275.50950548 Ry
     estimated scf accuracy    <    8007.76994742 Ry

[...]

     iteration #  3     ecut=    29.40 Ry     beta= 0.05
     Davidson diagonalization with overlap
     c_bands:  1 eigenvalues not converged
     ethr =  1.00E-02,  avg # of iterations = 16.9

[...]

     iteration # 76     ecut=    29.40 Ry     beta= 0.05
     Davidson diagonalization with overlap
     c_bands:  2 eigenvalues not converged
     ethr =  4.55E-11,  avg # of iterations = 14.0

[...]

     total energy              =   -2975.20597937 Ry
     estimated scf accuracy    <       0.00000009 Ry

     iteration # 78     ecut=    29.40 Ry     beta= 0.05
     Davidson diagonalization with overlap
     ethr =  2.31E-11,  avg # of iterations =  7.2

     negative rho (up, down):  1.520E-02 0.000E+00

     Adding external electric field

     Computed dipole along edir(3) :
        Dipole                1.4013 Ry au,          3.5618 Debye
        Dipole field          0.0026 Ry au,

        Potential amp.       -0.2451 Ry
        Total length         46.3494 bohr

     End of self-consistent calculation

          k = 0.0000 0.0000 0.0000 ( 18029 PWs)   bands (ev):

   -55.1885 -55.1526 -55.1490 -55.1149 -55.1010 -55.0694 -55.0353 -55.0314
   -55.0072 -54.9779 -54.9722 -54.9692 -54.9444 -54.8742 -54.1720 -54.1379
   -31.7539 -31.6406 -31.5992 -31.5580 -31.5072 -31.4966 -31.4899 -31.4826
   -31.4379 -31.4036 -31.4001 -31.3935 -31.3915 -31.3651 -31.3424 -31.3335
   -31.3327 -31.3263 -31.3066 -31.3008 -31.2815 -31.2770 -31.2620 -31.2484
   -31.2371 -31.2350 -31.2144 -31.2077 -31.2060 -31.1997 -31.1934 -31.1757
   -31.1713 -31.1604 -31.1554 -31.1429 -31.1213 -31.1177 -31.1061 -31.0896
   -31.0884 -31.0039 -30.5809 -30.4876 -30.4655 -30.3975 -30.3108 -30.1997
   -18.9162 -18.5444 -16.0145 -15.7491 -15.6133 -15.5033 -15.3874 -15.2578
   -15.2101 -15.0788 -15.0192 -14.9059 -14.8780 -14.8358 -14.8166 -14.8115
   -14.7533 -14.7258 -14.7190 -14.6939 -14.6834 -14.6621 -14.6226 -14.6164
   -14.5804 -14.5697 -14.5656 -14.4209 -14.3430 -14.2788 -13.9677 -13.6689
   -12.6744 -12.5571  -8.8004  -6.7045  -6.4628  -6.0616  -4.1445  -3.3575
    -3.2018  -3.1879  -3.1259  -3.0855  -3.0703  -3.0086  -2.9393  -2.7362
    -2.6014  -2.5743  -2.4552  -2.3892  -2.3846  -2.3318  -2.1887  -2.1842
    -2.1287  -2.0893  -2.0391  -2.0191  -1.9957  -1.9720  -1.9382  -1.9188
    -1.8919  -1.7572  -1.7373  -1.6635  -1.6010  -1.5906  -1.5322  -1.5084
    -1.4896  -1.4841  -1.4756  -1.4633  -1.4245  -1.4108  -1.3673  -1.3101
    -1.2074  -1.1194  -1.0268  -0.9481  -0.8850  -0.8230  -0.7615  -0.7526
    -0.6753  -0.6630  -0.5719  -0.5486  -0.5180  -0.4051  -0.3430  -0.3386
    -0.2752  -0.1733  -0.1448  -0.1289  -0.0574   0.0210   0.0398   0.0475
     0.0557   0.1793   0.2324   0.2646   0.2980   0.3688   0.3904   0.4400
     0.4866   0.4933   0.5724   0.6322   0.6864   0.7358   0.7530   0.7777
     0.7955   0.8050   0.8220   0.9032   0.9260   0.9588   1.0121   1.1678
     1.3270   1.4266   1.4427   1.7606   1.7740   1.8509   2.0354   2.4261
     2.4740   3.9075   3.9843   4.0433   4.0496   4.0588   4.1448   4.3892
     4.4047   4.4175   4.4297   4.4734

[...]

          k = 0.0380-0.0419 0.0000 ( 17876 PWs)   bands (ev):

[...]

          k =-0.0760-0.0000 0.0000 ( 17886 PWs)   bands (ev):

[...]

          k =-0.0760-0.0839 0.0000 ( 17948 PWs)   bands (ev):

   -55.1714 -55.1695 -55.1319 -55.1318 -55.0987 -55.0584 -55.0423 -55.0333
   -54.9927 -54.9861 -54.9713 -54.9616 -54.9609 -54.8761 -54.1549 -54.1549
   -31.5632 -31.5531 -31.5241 -31.4557 -31.4556 -31.4493 -31.4403 -31.4233
   -31.4232 -31.4022 -31.3914 -31.3888 -31.3762 -31.3503 -31.3258 -31.3206
   -31.3202 -31.3200 -31.3177 -31.3084 -31.3026 -31.2842 -31.2710 -31.2680
   -31.2545 -31.2515 -31.2513 -31.2507 -31.2409 -31.2367 -31.2263 -31.2250
   -31.2169 -31.2059 -31.2000 -31.1903 -31.1888 -31.1526 -31.1416 -31.1413
   -31.0978 -31.0902 -30.4782 -30.4782 -30.3936 -30.3934 -30.3542 -30.3542
   -18.9139 -18.5437 -15.5315 -15.4851 -15.3295 -15.1950 -15.1918 -15.1516
   -15.0961 -15.0245 -15.0036 -14.9604 -14.9496 -14.9310 -14.8943 -14.8868
   -14.8607 -14.7899 -14.7805 -14.7721 -14.7383 -14.6989 -14.6883 -14.6868
   -14.6701 -14.6403 -14.6371 -14.5396 -14.5374 -14.4455 -14.3073 -13.6841
   -12.6587 -12.6586  -8.7646  -6.7042  -6.4125  -6.0897  -4.1873  -3.2094
    -2.9325  -2.7491  -2.6437  -2.5417  -2.4146  -2.4088  -2.3234  -2.3151
    -2.2341  -2.1999  -2.1876  -2.1719  -2.0808  -2.0674  -2.0571  -2.0352
    -2.0187  -2.0008  -1.9690  -1.9630  -1.9393  -1.9124  -1.9021  -1.9007
    -1.8817  -1.8484  -1.8172  -1.7982  -1.7776  -1.7470  -1.7357  -1.6683
    -1.6279  -1.5400  -1.5050  -1.3899  -1.3880  -1.3664  -1.3111  -1.2911
    -1.2700  -1.2210  -1.2118  -1.1660  -1.0235  -0.9369  -0.9260  -0.8881
    -0.8390  -0.7904  -0.7434  -0.7281  -0.6619  -0.6410  -0.5480  -0.5327
    -0.4304  -0.3894  -0.3775  -0.3616  -0.2791  -0.2148  -0.1680  -0.1480
    -0.1435  -0.0930  -0.0786  -0.0653   0.0062   0.0536   0.0775   0.0920
     0.1334   0.3018   0.3621   0.3756   0.4950   0.5442   0.6481   0.7082
     0.7841   0.8040   0.8402   0.9306   0.9370   1.0137   1.1086   1.1225
     1.1587   1.2032   1.2520   1.2750   1.2799   2.2083   2.2096   2.2940
     2.2941   4.0513   4.1276   4.1855   4.2335   4.2420   4.3630   4.4248
     4.4675   4.4896   4.4917   4.5664

     the Fermi energy is     3.9656 ev

!    total energy              =   -2975.20599005 Ry
     estimated scf accuracy    <       0.00000007 Ry
     smearing contrib. (-TS)   =      -0.03731298 Ry
     internal energy E=F+TS    =   -2975.16867706 Ry

     The total energy is F=E-TS. E is the sum of the following terms:
     one-electron contribution =  -23538.18696866 Ry
     hartree contribution      =   11867.11200812 Ry
     xc contribution           =    -494.97180630 Ry
     ewald contribution        =    9190.87438395 Ry
     electric field correction =       0.00370582 Ry

     convergence has been achieved in  78 iterations

     Forces acting on atoms (cartesian axes, Ry/au):

     atom    1 type  1   force =     0.00006373   -0.00020130    0.09357163
     atom    2 type  1   force =    -0.00020650   -0.00020867   -0.17801285
     atom    3 type  2   force =     0.00010959   -0.00021160   -0.02068082
     atom    4 type  2   force =     0.00004860   -0.00197954    0.05805434
     atom    5 type  2   force =    -0.01001193   -0.00166589    0.00692982
     atom    6 type  2   force =     0.01215806   -0.00103478    0.00744154
     atom    7 type  1   force =     0.00022391    0.00247807   -0.01210446
     atom    8 type  1   force =    -0.00049512    0.00200070   -0.00194649
     atom    9 type  2   force =     0.00006840    0.00006301   -0.00005282
     atom   10 type  2   force =    -0.00044367   -0.00135864   -0.00314999
     atom   11 type  2   force =     0.00015368   -0.00008118   -0.00008130
     atom   12 type  2   force =    -0.00066003   -0.00012032    0.00007841
     atom   13 type  1   force =     0.00051886    0.00098125    0.00023935
     atom   14 type  1   force =    -0.00140595    0.00027058    0.00015665
     atom   15 type  2   force =    -0.00018495    0.00095332    0.00021515
     atom   16 type  2   force =    -0.00001190   -0.00043240    0.00013839
     atom   17 type  2   force =     0.00070956    0.00003649   -0.00023803
     atom   18 type  2   force =     0.00054093    0.00014740   -0.00034994
     atom   19 type  1   force =    -0.00117955    0.00092180    0.00052062
     atom   20 type  1   force =     0.00060304   -0.00005815   -0.00084250
     atom   21 type  2   force =     0.00001573   -0.00002434    0.10385519
     atom   22 type  2   force =     0.00007401    0.00088804   -0.00011517
     atom   23 type  2   force =    -0.07052889   -0.00011249   -0.02694726
     atom   24 type  2   force =     0.07046589    0.00031511   -0.02700965
     atom   25 type  1   force =     0.00002034   -0.00018911    0.09303230
     atom   26 type  1   force =    -0.00009979   -0.00048387   -0.17793619
     atom   27 type  2   force =     0.00017045   -0.00035597   -0.01956357
     atom   28 type  2   force =     0.00010997   -0.00160099    0.05712903
     atom   29 type  2   force =    -0.01005406   -0.00085824    0.00630738
     atom   30 type  2   force =     0.01211655   -0.00061383    0.00686696
     atom   31 type  1   force =     0.00032061    0.00503273   -0.01527956
     atom   32 type  1   force =    -0.00038993   -0.00266390   -0.00237221
     atom   33 type  2   force =    -0.00003126   -0.00026141   -0.00005081
     atom   34 type  2   force =     0.00046173    0.00032050   -0.00054458
     atom   35 type  2   force =    -0.00012379   -0.00037444   -0.00007747
     atom   36 type  2   force =    -0.00043628   -0.00036719    0.00024135
     atom   37 type  1   force =     0.00027026   -0.00104021    0.00050749
     atom   38 type  1   force =    -0.00122495    0.00025514    0.00127518
     atom   39 type  2   force =    -0.00012432   -0.00047992    0.00024353
     atom   40 type  2   force =     0.00003180   -0.00041905    0.00044117
     atom   41 type  2   force =    -0.00016666   -0.00002157    0.00010573
     atom   42 type  2   force =     0.00128217   -0.00025506    0.00005959
     atom   43 type  1   force =    -0.00123086   -0.00068749   -0.00003919
     atom   44 type  1   force =     0.00095559    0.00061621    0.00000044
     atom   45 type  2   force =     0.00004196   -0.00002005    0.10380023
     atom   46 type  2   force =    -0.07056117   -0.00008049   -0.02695711
     atom   47 type  2   force =     0.07046816    0.00038567   -0.02698857
     atom   48 type  3   force =    -0.00061054    0.00007878    0.00089846
     atom   49 type  4   force =     0.00059012    0.00054488   -0.00024823
     atom   50 type  5   force =    -0.00044653    0.00005755   -0.00056388
     atom   51 type  5   force =    -0.00040892   -0.00008379   -0.00002386
     atom   52 type  3   force =    -0.00025463    0.00059764   -0.00002001
     atom   53 type  5   force =     0.00019772    0.00051488   -0.00030493
     atom   54 type  5   force =    -0.00058019    0.00074574    0.00018036
     atom   55 type  2   force =    -0.00055174    0.00074870   -0.00011833
     atom   56 type  5   force =    -0.00037127   -0.00036964    0.00081923
     atom   57 type  5   force =     0.00000392   -0.00023869   -0.00048973

     Total force =     0.365694     Total SCF correction =     0.000864
  @ DRIVER MODE: Message from server: STATUS
  @ DRIVER MODE: Message from server: GETFORCE
  @ DRIVER MODE: Returning v,forces,stress,ensemble

     Writing output data file ./calc.save/
  @ DRIVER MODE: Message from server: EXIT
  @ DRIVE MODE: Exiting

     General routines

     Parallel routines

   This run was terminated on:  15:54:42  15Sep2021

   JOB DONE.