     Program PWSCF v.6.7GPU starts on  5Aug2021 at 18:56:10

     R & G space division:  proc/nbgrp/npool/nimage =      16
     Reading input from /storage/home/hcoda1/3/ntian30/research/carbon/02Aug_vib_paired/ads_slab/CH3_a/out_0011/pw.inp
Warning: card &CELL ignored
Warning: card   CELL_DYNAMICS='IPI', ignored
Warning: card / ignored

     Current dimensions of program PWSCF are:
     Max number of different atomic species (ntypx) = 10
     Max number of k-points (npk) =  40000
     Max angular momentum in pseudopotentials (lmaxx) =  3
     Presently no symmetry can be used with electric field

     Message from routine cell_base_init:
     DEPRECATED: use true lattice parameter, not A to a.u. conversion factor

     IMPORTANT: XC functional enforced from input :
     Exchange-correlation= BEEF-VDW
                           (   1   4  43  14   2   0   0)
     Any further DFT definition will be discarded
     Please, verify this is what you really want

  @ DRIVER MODE: Connecting to
 qe_1139763_2507748.sched-torque.pace.gatech.eduoz8yz8fp_scratch
  using UNIX socket
  @ DRIVER MODE: Message from server: STATUS
  @ DRIVER MODE: Message from server: INIT
  @ DRIVER MODE: Receiving replica           0          -1
  @ DRIVER MODE: Receiving encoded integer          25
  @ DRIVER MODE:  SCF:  T  FORCE:  T  STRESS:  F  VC:  F  ENSEMBLE:  F
  @ DRIVER MODE:  SCF:  T  FORCE:  T  STRESS:  F  VC:  F  ENSEMBLE:  F

     Using Slab Decomposition

     bravais-lattice index     =            0
     lattice parameter (alat)  =       1.8897  a.u.
     unit-cell volume          =    6658.9804 (a.u.)^3
     number of atoms/cell      =           51
     number of atomic types    =            4
     number of electrons       =       385.00
     number of Kohn-Sham states=          202
     kinetic-energy cutoff     =      29.3995  Ry
     charge density cutoff     =     293.9946  Ry
     scf convergence threshold =      7.3E-08
     mixing beta               =       0.0500
     number of iterations used =            8  plain     mixing
     Exchange-correlation= BEEF-VDW
                           (   1   4  43  14   2   0   0)

     celldm(1)=   1.889726  celldm(2)=   0.000000  celldm(3)=   0.000000
     celldm(4)=   0.000000  celldm(5)=   0.000000  celldm(6)=   0.000000

     crystal axes: (cart. coord. in units of alat)
               a(1) = (   6.579727   0.000000   0.000000 )
               a(2) = (  -0.000775   5.961596   0.000000 )
               a(3) = (   0.000000   0.000000  25.155947 )

     reciprocal axes: (cart. coord. in units 2 pi/alat)
               b(1) = (  0.151982  0.000020  0.000000 )
               b(2) = (  0.000000  0.167740  0.000000 )
               b(3) = (  0.000000  0.000000  0.039752 )

     PseudoPot. # 1 for Ti read from file:
     /storage/coda1/p-amedford6/0/shared/rich_project_chbe-medford/medford-share/data/pseudos_module/espresso/nninc/pbe/van/Ti.UPF
     MD5 check sum: 8e4df49b7f0d34bbd5052bf3f5ea0213
     Pseudo is Ultrasoft, Zval = 12.0
     Generated by new atomic code, or converted to UPF format
     Using radial grid of  851 points,  6 beta functions with:
                l(1) =   0
                l(2) =   0
                l(3) =   1
                l(4) =   1
                l(5) =   2
                l(6) =   2
     Q(r) pseudized with  8 coefficients,  rinner =    1.000   1.000   1.000
                                                       1.000   1.000

     PseudoPot. # 2 for O  read from file:
     /storage/coda1/p-amedford6/0/shared/rich_project_chbe-medford/medford-share/data/pseudos_module/espresso/nninc/pbe/van/O.UPF
     MD5 check sum: 78c19812648e8988a0fe644b0f25305e
     Pseudo is Ultrasoft, Zval =  6.0
     Generated by new atomic code, or converted to UPF format
     Using radial grid of  737 points,  4 beta functions with:
                l(1) =   0
                l(2) =   0
                l(3) =   1
                l(4) =   1
     Q(r) pseudized with  8 coefficients,  rinner =    0.800   0.800   0.800

     PseudoPot. # 3 for C  read from file:
     /storage/coda1/p-amedford6/0/shared/rich_project_chbe-medford/medford-share/data/pseudos_module/espresso/nninc/pbe/van/C.UPF
     MD5 check sum: 1a69bf6b8db32088f5b2163dbdb77a27
     Pseudo is Ultrasoft, Zval =  4.0
     Generated by new atomic code, or converted to UPF format
     Using radial grid of  721 points,  4 beta functions with:
                l(1) =   0
                l(2) =   0
                l(3) =   1
                l(4) =   1
     Q(r) pseudized with  8 coefficients,  rinner =    0.800   0.800   0.800

     PseudoPot. # 4 for H  read from file:
     /storage/coda1/p-amedford6/0/shared/rich_project_chbe-medford/medford-share/data/pseudos_module/espresso/nninc/pbe/van/H.UPF
     MD5 check sum: b5ee9d7bfd3a09ee7748110bda690ff7
     Pseudo is Ultrasoft, Zval =  1.0
     Generated by new atomic code, or converted to UPF format
     Using radial grid of  615 points,  1 beta functions with:
                l(1) =   0
     Q(r) pseudized with  8 coefficients,  rinner =    0.800

     atomic species   valence    mass     pseudopotential
        Ti1           12.00    47.86700     Ti( 1.00)
        O1             6.00    15.99900     O ( 1.00)
        C1             4.00    12.01100     C ( 1.00)
        H1             1.00     1.00800     H ( 1.00)

     No symmetry found

   Cartesian axes

     site n.     atom                  positions (alat units)
         1           Ti1 tau(   1) = (   0.0004258   2.9801865   6.0000000  )
         2           Ti1 tau(   2) = (   3.2906075   1.4906267   6.0002472  )
         3           O1  tau(   3) = (   0.0006271   0.0005054   7.9858123  )
         4           O1  tau(   4) = (   3.2906025   0.0005020   7.3038282  )
         5           O1  tau(   5) = (   4.5942328   1.4918067   9.2879030  )
         6           O1  tau(   6) = (   1.9868534   1.4903216   9.2879459  )
         7           Ti1 tau(   7) = (   3.3226903   2.9514341   9.1576891  )
         8           Ti1 tau(   8) = (   0.0343464   1.5915341   9.3698150  )
         9           O1  tau(   9) = (   3.2914246   5.9565917  11.3520874  )
        10           O1  tau(  10) = (   0.0056322   0.0001635  10.6062760  )
        11           O1  tau(  11) = (   1.2817320   1.4815673  12.6483243  )
        12           O1  tau(  12) = (   5.2831613   1.4908443  12.6423163  )
        13           Ti1 tau(  13) = (   0.0382653   2.9371430  12.8126397  )
        14           Ti1 tau(  14) = (   3.3532929   1.4821923  12.4951370  )
        15           O1  tau(  15) = (   6.5662424   5.9331786  14.6600200  )
        16           O1  tau(  16) = (   3.2816364   5.9551084  13.9465949  )
        17           O1  tau(  17) = (   4.5315606   1.5040344  16.0986503  )
        18           O1  tau(  18) = (   2.0287349   1.4998145  16.0995964  )
        19           Ti1 tau(  19) = (   3.2668404   2.9769305  15.7222481  )
        20           Ti1 tau(  20) = (   6.5415330   1.4777109  16.1743724  )
        21           O1  tau(  21) = (   3.2904802   0.0005063   4.7018136  )
        22           O1  tau(  22) = (   6.5659521   0.0029676  17.1944956  )
        23           O1  tau(  23) = (   1.3043587   1.4918075   6.0039043  )
        24           O1  tau(  24) = (   5.2767064   1.4903225   6.0039473  )
        25           Ti1 tau(  25) = (   0.0000382   5.9609847   6.0000000  )
        26           Ti1 tau(  26) = (   3.2902200   4.4714249   6.0002472  )
        27           O1  tau(  27) = (   0.0002396   2.9813036   7.9858123  )
        28           O1  tau(  28) = (   3.2902150   2.9813002   7.3038282  )
        29           O1  tau(  29) = (   4.5938453   4.4726049   9.2879030  )
        30           O1  tau(  30) = (   1.9864658   4.4711199   9.2879459  )
        31           Ti1 tau(  31) = (   3.3086233   5.9367107   9.1526142  )
        32           Ti1 tau(  32) = (   0.0357814   4.5182409   9.2638332  )
        33           O1  tau(  33) = (   3.2921447   2.9709340  11.3500156  )
        34           O1  tau(  34) = (   0.0064783   2.9842416  10.5732297  )
        35           O1  tau(  35) = (   1.2836142   4.4569143  12.6423601  )
        36           O1  tau(  36) = (   5.2821634   4.4598214  12.6376843  )
        37           Ti1 tau(  37) = (   0.0453433   5.9192801  12.5257453  )
        38           Ti1 tau(  38) = (   3.3504828   4.4607682  12.4868234  )
        39           O1  tau(  39) = (   0.0004961   2.9772524  14.7247240  )
        40           O1  tau(  40) = (   3.2810368   2.9729593  13.9290527  )
        41           O1  tau(  41) = (   4.5304642   4.4591278  16.0913236  )
        42           O1  tau(  42) = (   2.0231910   4.4609068  16.0933517  )
        43           Ti1 tau(  43) = (   3.2586866   5.9546939  15.7393459  )
        44           Ti1 tau(  44) = (   6.5465221   4.6060206  15.8931146  )
        45           O1  tau(  45) = (   3.2900926   2.9813045   4.7018136  )
        46           O1  tau(  46) = (   1.3039711   4.4726057   6.0039043  )
        47           O1  tau(  47) = (   5.2763189   4.4711207   6.0039473  )
        48           C1  tau(  48) = (   6.5676456   2.8990966  17.8516705  )
        49           H1  tau(  49) = (   6.5659762   3.9554521  18.1105428  )
        50           H1  tau(  50) = (   0.8773746   2.4756544  18.3284787  )
        51           H1  tau(  51) = (   5.6845275   2.4719798  18.3396978  )

     number of k points=    10  Fermi-Dirac smearing, width (Ry)=  0.0073
                       cart. coord. in units 2pi/alat
        k(    1) = (   0.0000000   0.0000000   0.0000000), wk =   0.1250000
        k(    2) = (   0.0000000   0.0419351   0.0000000), wk =   0.2500000
        k(    3) = (   0.0000000  -0.0838702   0.0000000), wk =   0.1250000
        k(    4) = (   0.0379955   0.0000049   0.0000000), wk =   0.2500000
        k(    5) = (   0.0379955   0.0419400   0.0000000), wk =   0.2500000
        k(    6) = (   0.0379955  -0.0838652   0.0000000), wk =   0.2500000
        k(    7) = (   0.0379955  -0.0419301   0.0000000), wk =   0.2500000
        k(    8) = (  -0.0759910  -0.0000099   0.0000000), wk =   0.1250000
        k(    9) = (  -0.0759910   0.0419252   0.0000000), wk =   0.2500000
        k(   10) = (  -0.0759910  -0.0838800   0.0000000), wk =   0.1250000

     Initial potential from superposition of free atoms

     starting charge  368.99918, renormalised to  385.00000

     negative rho (up, down):  2.033E-02 0.000E+00

     %%%%%%%%%%%%%%%%%%%%%%%%%%%%%%%%%%%%%%%%%%%%%%%%%%%%%%%%%%%%%%%%%%%%%%%%
     %                                                                      %
     % You are using vdW-DF, which was implemented by the Thonhauser group. %
     % Please cite the following two papers that made this development      %
     % possible and the two reviews that describe the various versions:     %
     %                                                                      %
     %   T. Thonhauser et al., PRL 115, 136402 (2015).                      %
     %   T. Thonhauser et al., PRB 76, 125112 (2007).                       %
     %   K. Berland et al., Rep. Prog. Phys. 78, 066501 (2015).             %
     %   D.C. Langreth et al., J. Phys.: Condens. Matter 21, 084203 (2009). %
     %                                                                      %
     %                                                                      %
     % If you are calculating the stress with vdW-DF, please also cite:     %
     %                                                                      %
     %   R. Sabatini et al., J. Phys.: Condens. Matter 24, 424209 (2012).   %
     %                                                                      %
     %%%%%%%%%%%%%%%%%%%%%%%%%%%%%%%%%%%%%%%%%%%%%%%%%%%%%%%%%%%%%%%%%%%%%%%%

     Adding external electric field

     Computed dipole along edir(3) :
        Dipole               -1.9966 Ry au,         -5.0749 Debye
        Dipole field         -0.0038 Ry au,

        Potential amp.        0.3493 Ry
        Total length         46.3494 bohr

     Starting wfcs are  291 atomic wfcs
  @ DRIVER MODE: Message from server: STATUS
  @ DRIVER MODE: Message from server: POSDATA
  @ DRIVER MODE: Reading and sharing cell
  @ DRIVER MODE: Reading and sharing positions
  @ DRIVER MODE: Received positions

     Self-consistent Calculation

     iteration #  1     ecut=    29.40 Ry     beta= 0.05
     Davidson diagonalization with overlap
     c_bands:  2 eigenvalues not converged
     c_bands:  1 eigenvalues not converged
     c_bands:  3 eigenvalues not converged
     c_bands:  1 eigenvalues not converged
     ethr =  1.00E-05,  avg # of iterations = 18.5

[...]

     total energy              =   -2900.52546964 Ry
     estimated scf accuracy    <      12.60283568 Ry

     iteration #  2     ecut=    29.40 Ry     beta= 0.05
     Davidson diagonalization with overlap
     ethr =  3.27E-03,  avg # of iterations =  1.0

[...]

     iteration # 44     ecut=    29.40 Ry     beta= 0.05
     Davidson diagonalization with overlap
     c_bands:  1 eigenvalues not converged
     ethr =  2.69E-11,  avg # of iterations = 14.6

[...]

     total energy              =   -2899.02563704 Ry
     estimated scf accuracy    <       0.00000010 Ry

     iteration # 45     ecut=    29.40 Ry     beta= 0.05
     Davidson diagonalization with overlap
     ethr =  2.60E-11,  avg # of iterations =  8.6

     negative rho (up, down):  1.951E-02 0.000E+00

     Adding external electric field

     Computed dipole along edir(3) :
        Dipole                0.4665 Ry au,          1.1856 Debye
        Dipole field          0.0009 Ry au,

        Potential amp.       -0.0816 Ry
        Total length         46.3494 bohr

     End of self-consistent calculation

          k = 0.0000 0.0000 0.0000 ( 18029 PWs)   bands (ev):

   -56.2370 -56.2164 -56.2005 -56.1802 -56.1271 -56.1257 -56.0893 -56.0740
   -56.0042 -55.9979 -55.9655 -55.9626 -55.8924 -55.8682 -55.2537 -55.2196
   -32.7810 -32.7045 -32.6043 -32.5752 -32.5424 -32.5279 -32.5045 -32.4742
   -32.4645 -32.4600 -32.4455 -32.4426 -32.4387 -32.3989 -32.3978 -32.3637
   -32.3606 -32.3581 -32.3429 -32.3267 -32.3067 -32.3026 -32.2919 -32.2764
   -32.2745 -32.2547 -32.2502 -32.2417 -32.2327 -32.2257 -32.2179 -32.1898
   -32.1658 -32.1578 -32.1393 -32.1296 -32.1103 -32.0987 -32.0895 -32.0804
   -32.0762 -31.9706 -31.6639 -31.5659 -31.5435 -31.4804 -31.3943 -31.2833
   -16.9854 -16.6864 -16.5424 -16.3936 -16.3658 -16.2470 -16.0651 -15.9296
   -15.9152 -15.8404 -15.8126 -15.8072 -15.7770 -15.7587 -15.7506 -15.7437
   -15.6903 -15.6863 -15.6509 -15.6404 -15.6107 -15.5367 -15.5133 -15.4535
   -15.4121 -15.3554 -15.2607 -15.2321 -15.1988 -13.7546 -13.6363  -9.4932
    -4.3420  -4.1731  -4.1477  -4.1285  -4.0444  -3.8057  -3.7878  -3.5451
    -3.4187  -3.3978  -3.3734  -3.3695  -3.3243  -3.1836  -3.0913  -3.0655
    -3.0636  -3.0514  -3.0234  -3.0159  -2.9853  -2.9808  -2.9528  -2.9262
    -2.8987  -2.7321  -2.6542  -2.6480  -2.5872  -2.5382  -2.5245  -2.5052
    -2.4684  -2.4601  -2.4443  -2.4280  -2.3755  -2.2922  -2.2427  -2.1467
    -2.0676  -2.0368  -1.9455  -1.8554  -1.7806  -1.6893  -1.6624  -1.6365
    -1.5600  -1.5542  -1.4870  -1.4410  -1.4252  -1.3315  -1.2672  -1.2351
    -1.1356  -1.0957  -1.0057  -0.9903  -0.9754  -0.9591  -0.9469  -0.7717
    -0.7220  -0.6995  -0.6911  -0.5716  -0.5582  -0.5331  -0.5016  -0.4437
    -0.4040  -0.3499  -0.3205  -0.2730  -0.2550  -0.2491  -0.2326  -0.2090
    -0.1282  -0.0497  -0.0316   0.0624   0.1141   0.2355   0.3019   0.4072
     0.4941   0.6728   0.7706   0.8189   0.8479   0.9386   1.3604   1.4228
     2.9518   2.9936   3.0184   3.0530   3.0651   3.2221   3.3278   3.4047
     3.4067   3.4465

[...]

          k = 0.0380-0.0419 0.0000 ( 17876 PWs)   bands (ev):

[...]

          k =-0.0760-0.0000 0.0000 ( 17886 PWs)   bands (ev):

[...]

          k =-0.0760-0.0839 0.0000 ( 17948 PWs)   bands (ev):

   -56.2254 -56.2120 -56.1990 -56.1973 -56.1207 -56.1156 -56.0994 -56.0801
   -55.9999 -55.9827 -55.9821 -55.9599 -55.8951 -55.8707 -55.2371 -55.2361
   -32.5845 -32.5818 -32.5279 -32.5172 -32.5135 -32.5102 -32.4959 -32.4890
   -32.4533 -32.4372 -32.4259 -32.4220 -32.3921 -32.3728 -32.3662 -32.3573
   -32.3548 -32.3520 -32.3436 -32.3406 -32.3264 -32.3204 -32.3151 -32.3108
   -32.3000 -32.2996 -32.2978 -32.2772 -32.2445 -32.2414 -32.2361 -32.2282
   -32.2016 -32.1853 -32.1843 -32.1758 -32.1645 -32.1334 -32.1264 -32.1197
   -32.0900 -32.0186 -31.5568 -31.5555 -31.4773 -31.4764 -31.4378 -31.4369
   -16.4206 -16.3956 -16.1664 -16.1571 -16.1493 -16.0847 -15.9996 -15.9777
   -15.9608 -15.9565 -15.9022 -15.8834 -15.8747 -15.8384 -15.7805 -15.7723
   -15.7648 -15.7412 -15.6900 -15.6837 -15.6287 -15.6035 -15.5881 -15.5843
   -15.5660 -15.5616 -15.4638 -15.4215 -15.3870 -13.7385 -13.7364  -9.5090
    -3.7131  -3.6816  -3.4175  -3.3716  -3.3663  -3.2887  -3.2078  -3.1738
    -3.1487  -3.1397  -3.0856  -3.0764  -3.0744  -3.0692  -3.0507  -3.0289
    -3.0084  -2.9932  -2.9889  -2.9751  -2.9306  -2.8667  -2.8587  -2.8576
    -2.8459  -2.8005  -2.7904  -2.7834  -2.7645  -2.7635  -2.7092  -2.5113
    -2.4920  -2.4363  -2.3782  -2.3589  -2.3316  -2.3220  -2.2961  -2.2717
    -2.2079  -2.1373  -2.0207  -1.9801  -1.9568  -1.9419  -1.8883  -1.8386
    -1.7236  -1.6826  -1.6561  -1.6376  -1.5718  -1.4984  -1.4736  -1.4584
    -1.3749  -1.3479  -1.3058  -1.2415  -1.2044  -1.1912  -1.1404  -1.1271
    -1.0412  -0.9809  -0.9456  -0.9027  -0.8910  -0.8577  -0.8092  -0.7584
    -0.7454  -0.6847  -0.6226  -0.5281  -0.3162  -0.2310  -0.2212  -0.1793
    -0.1209  -0.0962   0.0108   0.0457   0.0605   0.1546   0.2207   0.2867
     0.3040   0.3292   0.3968   0.8945   1.1307   1.1316   1.2232   1.2336
     3.1560   3.1660   3.1957   3.2629   3.4093   3.4153   3.4345   3.4402
     3.5332   3.5849

     the Fermi energy is     2.9190 ev

!    total energy              =   -2899.02579757 Ry
     estimated scf accuracy    <       0.00000002 Ry
     smearing contrib. (-TS)   =      -0.02330218 Ry
     internal energy E=F+TS    =   -2899.00249539 Ry

     The total energy is F=E-TS. E is the sum of the following terms:
     one-electron contribution =  -24815.16660547 Ry
     hartree contribution      =   12486.51985484 Ry
     xc contribution           =    -474.70348812 Ry
     ewald contribution        =    9904.34733274 Ry
     electric field correction =       0.00041062 Ry

     convergence has been achieved in  45 iterations

     Forces acting on atoms (cartesian axes, Ry/au):

     atom    1 type  1   force =    -0.00012804   -0.00193943    0.10692081
     atom    2 type  1   force =    -0.00037779    0.00069444   -0.18023341
     atom    3 type  2   force =     0.00035382   -0.00664163   -0.03349070
     atom    4 type  2   force =     0.00056997   -0.00063289    0.04570015
     atom    5 type  2   force =    -0.01962783   -0.00121271    0.00435090
     atom    6 type  2   force =     0.02146036   -0.00006847    0.00423465
     atom    7 type  1   force =    -0.00029231    0.00035193   -0.00014561
     atom    8 type  1   force =    -0.00049537    0.00048591    0.00014142
     atom    9 type  2   force =    -0.00004545   -0.00039044   -0.00054681
     atom   10 type  2   force =     0.00010218    0.00045744   -0.00038025
     atom   11 type  2   force =     0.00013352   -0.00002407   -0.00004236
     atom   12 type  2   force =     0.00027069   -0.00014921   -0.00004368
     atom   13 type  1   force =    -0.00056415    0.00009485    0.00065497
     atom   14 type  1   force =    -0.00057577    0.00015822    0.00002511
     atom   15 type  2   force =    -0.00003626    0.00004421   -0.00023706
     atom   16 type  2   force =    -0.00002760   -0.00004391    0.00049928
     atom   17 type  2   force =    -0.00093356   -0.00089564   -0.00020167
     atom   18 type  2   force =     0.00080455   -0.00079504   -0.00040603
     atom   19 type  1   force =    -0.00023076    0.00036224   -0.00032194
     atom   20 type  1   force =     0.00049244    0.00074944    0.00042933
     atom   21 type  2   force =     0.00000427    0.00003078    0.10432975
     atom   22 type  2   force =    -0.00008981   -0.00025726   -0.00058366
     atom   23 type  2   force =    -0.06877943    0.00084066   -0.02966162
     atom   24 type  2   force =     0.06853688    0.00130048   -0.02973557
     atom   25 type  1   force =    -0.00010754    0.00130817    0.11808375
     atom   26 type  1   force =    -0.00021194   -0.00066813   -0.18054695
     atom   27 type  2   force =     0.00055844    0.00239830   -0.02740055
     atom   28 type  2   force =     0.00073184   -0.00049172    0.04721450
     atom   29 type  2   force =    -0.01935950    0.00075567    0.00375348
     atom   30 type  2   force =     0.01930514    0.00249387    0.00343658
     atom   31 type  1   force =    -0.00008374   -0.00073865    0.00034667
     atom   32 type  1   force =    -0.00042433    0.00003476    0.00034020
     atom   33 type  2   force =    -0.00013100    0.00036164   -0.00073201
     atom   34 type  2   force =    -0.00007731    0.00004147   -0.00015285
     atom   35 type  2   force =     0.00041924    0.00022618   -0.00043262
     atom   36 type  2   force =    -0.00078999    0.00002201   -0.00041713
     atom   37 type  1   force =    -0.00056024    0.00050679    0.00063242
     atom   38 type  1   force =     0.00014860   -0.00042723    0.00035257
     atom   39 type  2   force =    -0.00030559   -0.00013413   -0.00016342
     atom   40 type  2   force =    -0.00003930    0.00078342    0.00060205
     atom   41 type  2   force =    -0.00013735    0.00120720   -0.00015150
     atom   42 type  2   force =     0.00034683    0.00126403   -0.00041286
     atom   43 type  1   force =    -0.00018114    0.00071370   -0.00021274
     atom   44 type  1   force =     0.00041894    0.00029258   -0.00054914
     atom   45 type  2   force =    -0.00000305    0.00005640    0.10433973
     atom   46 type  2   force =    -0.06831542   -0.00103832   -0.02972012
     atom   47 type  2   force =     0.06816907   -0.00065371   -0.02976212
     atom   48 type  3   force =    -0.00068412   -0.00470973   -0.00101331
     atom   49 type  4   force =     0.00005260    0.00161670    0.00184776
     atom   50 type  4   force =    -0.00034456    0.00100892   -0.00012639
     atom   51 type  4   force =     0.00108089    0.00124987   -0.00041197

     Total force =     0.377455     Total SCF correction =     0.000483
  @ DRIVER MODE: Message from server: STATUS
  @ DRIVER MODE: Message from server: GETFORCE
  @ DRIVER MODE: Returning v,forces,stress,ensemble

     Writing output data file ./calc.save/
  @ DRIVER MODE: Message from server: EXIT
  @ DRIVE MODE: Exiting

     General routines

     Parallel routines

   This run was terminated on:  19: 7:40   5Aug2021

   JOB DONE.