     Program PWSCF v.6.7GPU starts on  9Sep2021 at  1:20: 9

     R & G space division:  proc/nbgrp/npool/nimage =      10
     Reading input from /storage/home/hcoda1/3/ntian30/research/carbon/CxH_vib/CH_calc/ads_slab/CHNHH_a/out_0012/pw.inp
Warning: card &CELL ignored
Warning: card   CELL_DYNAMICS='IPI', ignored
Warning: card / ignored

     Current dimensions of program PWSCF are:
     Max number of different atomic species (ntypx) = 10
     Max number of k-points (npk) =  40000
     Max angular momentum in pseudopotentials (lmaxx) =  3
     Presently no symmetry can be used with electric field

     Message from routine cell_base_init:
     DEPRECATED: use true lattice parameter, not A to a.u. conversion factor

     IMPORTANT: XC functional enforced from input :
     Exchange-correlation= BEEF-VDW
                           (   1   4  43  14   2   0   0)
     Any further DFT definition will be discarded
     Please, verify this is what you really want

  @ DRIVER MODE: Connecting to
 qe_1139763_2767378.sched-torque.pace.gatech.edu3jjbbdjp_scratch
  using UNIX socket
  @ DRIVER MODE: Message from server: STATUS
  @ DRIVER MODE: Message from server: INIT
  @ DRIVER MODE: Receiving replica           0          -1
  @ DRIVER MODE: Receiving encoded integer          25
  @ DRIVER MODE:  SCF:  T  FORCE:  T  STRESS:  F  VC:  F  ENSEMBLE:  F
  @ DRIVER MODE:  SCF:  T  FORCE:  T  STRESS:  F  VC:  F  ENSEMBLE:  F

     Using Slab Decomposition

     bravais-lattice index     =            0
     lattice parameter (alat)  =       1.8897  a.u.
     unit-cell volume          =    6658.9804 (a.u.)^3
     number of atoms/cell      =           52
     number of atomic types    =            5
     number of electrons       =       390.00
     number of Kohn-Sham states=          205
     kinetic-energy cutoff     =      29.3995  Ry
     charge density cutoff     =     293.9946  Ry
     scf convergence threshold =      7.3E-08
     mixing beta               =       0.0500
     number of iterations used =            8  plain     mixing
     Exchange-correlation= BEEF-VDW
                           (   1   4  43  14   2   0   0)

     celldm(1)=   1.889726  celldm(2)=   0.000000  celldm(3)=   0.000000
     celldm(4)=   0.000000  celldm(5)=   0.000000  celldm(6)=   0.000000

     crystal axes: (cart. coord. in units of alat)
               a(1) = (   6.579727   0.000000   0.000000 )
               a(2) = (  -0.000775   5.961596   0.000000 )
               a(3) = (   0.000000   0.000000  25.155947 )

     reciprocal axes: (cart. coord. in units 2 pi/alat)
               b(1) = (  0.151982  0.000020  0.000000 )
               b(2) = (  0.000000  0.167740  0.000000 )
               b(3) = (  0.000000  0.000000  0.039752 )

     PseudoPot. # 1 for Ti read from file:
     /storage/coda1/p-amedford6/0/shared/rich_project_chbe-medford/medford-share/data/pseudos_module/espresso/nninc/pbe/van/Ti.UPF
     MD5 check sum: 8e4df49b7f0d34bbd5052bf3f5ea0213
     Pseudo is Ultrasoft, Zval = 12.0
     Generated by new atomic code, or converted to UPF format
     Using radial grid of  851 points,  6 beta functions with:
                l(1) =   0
                l(2) =   0
                l(3) =   1
                l(4) =   1
                l(5) =   2
                l(6) =   2
     Q(r) pseudized with  8 coefficients,  rinner =    1.000   1.000   1.000
                                                       1.000   1.000

     PseudoPot. # 2 for O  read from file:
     /storage/coda1/p-amedford6/0/shared/rich_project_chbe-medford/medford-share/data/pseudos_module/espresso/nninc/pbe/van/O.UPF
     MD5 check sum: 78c19812648e8988a0fe644b0f25305e
     Pseudo is Ultrasoft, Zval =  6.0
     Generated by new atomic code, or converted to UPF format
     Using radial grid of  737 points,  4 beta functions with:
                l(1) =   0
                l(2) =   0
                l(3) =   1
                l(4) =   1
     Q(r) pseudized with  8 coefficients,  rinner =    0.800   0.800   0.800

     PseudoPot. # 3 for N  read from file:
     /storage/coda1/p-amedford6/0/shared/rich_project_chbe-medford/medford-share/data/pseudos_module/espresso/nninc/pbe/van/N.UPF
     MD5 check sum: 90d10febe142ad51ac9d5be1deb811c4
     Pseudo is Ultrasoft, Zval =  5.0
     Generated by new atomic code, or converted to UPF format
     Using radial grid of  729 points,  4 beta functions with:
                l(1) =   0
                l(2) =   0
                l(3) =   1
                l(4) =   1
     Q(r) pseudized with  8 coefficients,  rinner =    0.800   0.800   0.800

     PseudoPot. # 4 for C  read from file:
     /storage/coda1/p-amedford6/0/shared/rich_project_chbe-medford/medford-share/data/pseudos_module/espresso/nninc/pbe/van/C.UPF
     MD5 check sum: 1a69bf6b8db32088f5b2163dbdb77a27
     Pseudo is Ultrasoft, Zval =  4.0
     Generated by new atomic code, or converted to UPF format
     Using radial grid of  721 points,  4 beta functions with:
                l(1) =   0
                l(2) =   0
                l(3) =   1
                l(4) =   1
     Q(r) pseudized with  8 coefficients,  rinner =    0.800   0.800   0.800

     PseudoPot. # 5 for H  read from file:
     /storage/coda1/p-amedford6/0/shared/rich_project_chbe-medford/medford-share/data/pseudos_module/espresso/nninc/pbe/van/H.UPF
     MD5 check sum: b5ee9d7bfd3a09ee7748110bda690ff7
     Pseudo is Ultrasoft, Zval =  1.0
     Generated by new atomic code, or converted to UPF format
     Using radial grid of  615 points,  1 beta functions with:
                l(1) =   0
     Q(r) pseudized with  8 coefficients,  rinner =    0.800

     atomic species   valence    mass     pseudopotential
        Ti1           12.00    47.86700     Ti( 1.00)
        O1             6.00    15.99900     O ( 1.00)
        N1             5.00    14.00700     N ( 1.00)
        C1             4.00    12.01100     C ( 1.00)
        H1             1.00     1.00800     H ( 1.00)

     No symmetry found

   Cartesian axes

     site n.     atom                  positions (alat units)
         1           Ti1 tau(   1) = (   0.0004258   2.9801865   6.0000000  )
         2           Ti1 tau(   2) = (   3.2906075   1.4906267   6.0002472  )
         3           O1  tau(   3) = (   0.0006271   0.0005054   7.9858123  )
         4           O1  tau(   4) = (   3.2906025   0.0005020   7.3038282  )
         5           O1  tau(   5) = (   4.5942328   1.4918067   9.2879030  )
         6           O1  tau(   6) = (   1.9868534   1.4903216   9.2879459  )
         7           Ti1 tau(   7) = (   3.2907910   2.8959150   9.1758416  )
         8           Ti1 tau(   8) = (   0.0015273   1.4827037   9.2680791  )
         9           O1  tau(   9) = (   3.2768318   5.9518058  11.3501096  )
        10           O1  tau(  10) = (   0.0116148   5.9584955  10.6183126  )
        11           O1  tau(  11) = (   1.2820894   1.4890407  12.6429483  )
        12           O1  tau(  12) = (   5.2701592   1.4861355  12.6244956  )
        13           Ti1 tau(  13) = (   0.0263608   2.9732685  12.5725065  )
        14           Ti1 tau(  14) = (   3.3311081   1.4825583  12.4934812  )
        15           O1  tau(  15) = (   6.5448050   0.0382128  14.6485099  )
        16           O1  tau(  16) = (   3.2835306   5.9556129  13.9684075  )
        17           O1  tau(  17) = (   4.5065730   1.5084740  16.1486978  )
        18           O1  tau(  18) = (   2.0110176   1.4968469  16.1316129  )
        19           Ti1 tau(  19) = (   3.2365874   2.9692752  15.7101938  )
        20           Ti1 tau(  20) = (   6.5183500   1.5288441  15.9766389  )
        21           O1  tau(  21) = (   3.2904802   0.0005063   4.7018136  )
        22           O1  tau(  22) = (   6.5552815   5.8936090  17.2115513  )
        23           O1  tau(  23) = (   1.3043587   1.4918075   6.0039043  )
        24           O1  tau(  24) = (   5.2767064   1.4903225   6.0039473  )
        25           Ti1 tau(  25) = (   0.0000382   5.9609847   6.0000000  )
        26           Ti1 tau(  26) = (   3.2902200   4.4714249   6.0002472  )
        27           O1  tau(  27) = (   0.0002396   2.9813036   7.9858123  )
        28           O1  tau(  28) = (   3.2902150   2.9813002   7.3038282  )
        29           O1  tau(  29) = (   4.5938453   4.4726049   9.2879030  )
        30           O1  tau(  30) = (   1.9864658   4.4711199   9.2879459  )
        31           Ti1 tau(  31) = (   3.2891106   5.8743827   9.1763621  )
        32           Ti1 tau(  32) = (   0.0006254   4.4649316   9.2693709  )
        33           O1  tau(  33) = (   3.2825058   2.9767457  11.3441782  )
        34           O1  tau(  34) = (   0.0092240   2.9805883  10.6323155  )
        35           O1  tau(  35) = (   1.2778777   4.4660374  12.6604661  )
        36           O1  tau(  36) = (   5.2710664   4.4675109  12.6369154  )
        37           Ti1 tau(  37) = (   0.0243246   5.9574881  12.5203091  )
        38           Ti1 tau(  38) = (   3.3318591   4.4611298  12.5006215  )
        39           O1  tau(  39) = (   6.5359656   2.9584677  14.7835642  )
        40           O1  tau(  40) = (   3.2771955   2.9708399  13.9242642  )
        41           O1  tau(  41) = (   4.4981441   4.4410618  16.1740548  )
        42           O1  tau(  42) = (   2.0042129   4.4512231  16.1075086  )
        43           Ti1 tau(  43) = (   3.2538698   5.9555144  15.7617387  )
        44           Ti1 tau(  44) = (   6.5531130   4.6830099  15.9084494  )
        45           O1  tau(  45) = (   3.2900926   2.9813045   4.7018136  )
        46           O1  tau(  46) = (   1.3039711   4.4726057   6.0039043  )
        47           O1  tau(  47) = (   5.2763189   4.4711207   6.0039473  )
        48           N1  tau(  48) = (   5.6690603   3.2568973  18.6585782  )
        49           C1  tau(  49) = (   0.0091554   2.6844975  17.9168455  )
        50           H1  tau(  50) = (   0.8805123   2.3964943  18.5001670  )
        51           H1  tau(  51) = (   4.8619660   3.6873350  18.2178346  )
        52           H1  tau(  52) = (   5.8095507   3.4768026  19.6356901  )

     number of k points=    10  Fermi-Dirac smearing, width (Ry)=  0.0073
                       cart. coord. in units 2pi/alat
        k(    1) = (   0.0000000   0.0000000   0.0000000), wk =   0.1250000
        k(    2) = (   0.0000000   0.0419351   0.0000000), wk =   0.2500000
        k(    3) = (   0.0000000  -0.0838702   0.0000000), wk =   0.1250000
        k(    4) = (   0.0379955   0.0000049   0.0000000), wk =   0.2500000
        k(    5) = (   0.0379955   0.0419400   0.0000000), wk =   0.2500000
        k(    6) = (   0.0379955  -0.0838652   0.0000000), wk =   0.2500000
        k(    7) = (   0.0379955  -0.0419301   0.0000000), wk =   0.2500000
        k(    8) = (  -0.0759910  -0.0000099   0.0000000), wk =   0.1250000
        k(    9) = (  -0.0759910   0.0419252   0.0000000), wk =   0.2500000
        k(   10) = (  -0.0759910  -0.0838800   0.0000000), wk =   0.1250000

     Initial potential from superposition of free atoms

     starting charge  373.99917, renormalised to  390.00000

     negative rho (up, down):  1.782E-02 0.000E+00

     %%%%%%%%%%%%%%%%%%%%%%%%%%%%%%%%%%%%%%%%%%%%%%%%%%%%%%%%%%%%%%%%%%%%%%%%
     %                                                                      %
     % You are using vdW-DF, which was implemented by the Thonhauser group. %
     % Please cite the following two papers that made this development      %
     % possible and the two reviews that describe the various versions:     %
     %                                                                      %
     %   T. Thonhauser et al., PRL 115, 136402 (2015).                      %
     %   T. Thonhauser et al., PRB 76, 125112 (2007).                       %
     %   K. Berland et al., Rep. Prog. Phys. 78, 066501 (2015).             %
     %   D.C. Langreth et al., J. Phys.: Condens. Matter 21, 084203 (2009). %
     %                                                                      %
     %                                                                      %
     % If you are calculating the stress with vdW-DF, please also cite:     %
     %                                                                      %
     %   R. Sabatini et al., J. Phys.: Condens. Matter 24, 424209 (2012).   %
     %                                                                      %
     %%%%%%%%%%%%%%%%%%%%%%%%%%%%%%%%%%%%%%%%%%%%%%%%%%%%%%%%%%%%%%%%%%%%%%%%

     Adding external electric field

     Computed dipole along edir(3) :
        Dipole               -5.8587 Ry au,        -14.8913 Debye
        Dipole field         -0.0111 Ry au,

        Potential amp.        1.0249 Ry
        Total length         46.3494 bohr

     Starting wfcs are  295 atomic wfcs
  @ DRIVER MODE: Message from server: STATUS
  @ DRIVER MODE: Message from server: POSDATA
  @ DRIVER MODE: Reading and sharing cell
  @ DRIVER MODE: Reading and sharing positions
  @ DRIVER MODE: Received positions

     Self-consistent Calculation

     iteration #  1     ecut=    29.40 Ry     beta= 0.05
     Davidson diagonalization with overlap
     c_bands:  5 eigenvalues not converged
     c_bands:  1 eigenvalues not converged
     c_bands:  2 eigenvalues not converged
     c_bands:  2 eigenvalues not converged
     c_bands:  3 eigenvalues not converged
     c_bands:  4 eigenvalues not converged
     c_bands:  3 eigenvalues not converged
     c_bands:  3 eigenvalues not converged
     c_bands:  4 eigenvalues not converged
     c_bands:  5 eigenvalues not converged
     ethr =  1.00E-05,  avg # of iterations = 20.0

[...]

     total energy              =   -2777.26261854 Ry
     estimated scf accuracy    <    1561.18437729 Ry

[...]

     iteration #  3     ecut=    29.40 Ry     beta= 0.05
     Davidson diagonalization with overlap
     ethr =  1.00E-02,  avg # of iterations = 15.5

[...]

     iteration # 66     ecut=    29.40 Ry     beta= 0.05
     Davidson diagonalization with overlap
     ethr =  1.45E-10,  avg # of iterations =  1.8

[...]

     total energy              =   -2919.04273743 Ry
     estimated scf accuracy    <       0.00000009 Ry

     iteration # 69     ecut=    29.40 Ry     beta= 0.05
     Davidson diagonalization with overlap
     c_bands:  1 eigenvalues not converged
     ethr =  2.28E-11,  avg # of iterations = 11.2

     negative rho (up, down):  1.801E-02 0.000E+00

     Adding external electric field

     Computed dipole along edir(3) :
        Dipole                1.3940 Ry au,          3.5431 Debye
        Dipole field          0.0026 Ry au,

        Potential amp.       -0.2439 Ry
        Total length         46.3494 bohr

     End of self-consistent calculation

          k = 0.0000 0.0000 0.0000 ( 18029 PWs)   bands (ev):

   -55.4980 -55.4730 -55.4617 -55.4389 -55.4127 -55.3677 -55.3255 -55.3176
   -55.2981 -55.2911 -55.2617 -55.2596 -55.0553 -54.9455 -54.4765 -54.4424
   -32.0651 -31.9606 -31.8592 -31.8376 -31.8272 -31.7935 -31.7860 -31.7634
   -31.7539 -31.7168 -31.7131 -31.7086 -31.6745 -31.6495 -31.6397 -31.6384
   -31.6259 -31.6012 -31.5929 -31.5822 -31.5773 -31.5561 -31.5304 -31.5279
   -31.5265 -31.5064 -31.5028 -31.4983 -31.4969 -31.4879 -31.4741 -31.4584
   -31.4480 -31.4472 -31.4238 -31.4130 -31.3973 -31.3566 -31.2903 -31.1924
   -31.1791 -31.0933 -30.8847 -30.7937 -30.7714 -30.7014 -30.6148 -30.5036
   -17.0947 -16.2993 -16.0152 -15.8548 -15.7081 -15.6762 -15.5661 -15.3908
   -15.3164 -15.2391 -15.2187 -15.1387 -15.1272 -15.1131 -15.0882 -15.0279
   -15.0201 -14.9750 -14.9708 -14.9412 -14.9159 -14.8854 -14.8675 -14.8600
   -14.8107 -14.7658 -14.7018 -14.6348 -14.5796 -14.1208 -12.9791 -12.8622
    -9.4957  -7.2640  -4.6866  -3.6558  -3.4861  -3.4075  -3.3957  -3.3800
    -3.1858  -3.1106  -2.8365  -2.7413  -2.7068  -2.6999  -2.6731  -2.6191
    -2.5633  -2.4422  -2.3791  -2.3422  -2.3211  -2.3187  -2.3062  -2.2891
    -2.2767  -2.2450  -2.1778  -2.1229  -2.0442  -1.9606  -1.8850  -1.8711
    -1.8085  -1.7807  -1.7660  -1.7597  -1.7531  -1.7319  -1.7225  -1.6313
    -1.5505  -1.5043  -1.4036  -1.3806  -1.2888  -1.1555  -1.1203  -1.0175
    -1.0104  -0.9535  -0.9349  -0.8850  -0.8413  -0.8277  -0.8141  -0.6671
    -0.6016  -0.5405  -0.4817  -0.4556  -0.4367  -0.3533  -0.2830  -0.2743
    -0.2566  -0.2358  -0.0609  -0.0292  -0.0102   0.0130   0.0290   0.1184
     0.1506   0.2232   0.3024   0.3190   0.3241   0.4022   0.4254   0.4691
     0.4708   0.4974   0.5035   0.6743   0.6856   0.7115   0.7369   0.8196
     0.9052   1.1066   1.1354   1.1712   1.4613   1.5269   1.5459   1.7335
     2.1193   2.1663   3.5921   3.6964   3.7294   3.7453   3.7731   3.8409
     3.9088   4.0875   4.0947   4.1257   4.1293

[...]

          k = 0.0380-0.0419 0.0000 ( 17876 PWs)   bands (ev):

[...]

          k =-0.0760-0.0000 0.0000 ( 17886 PWs)   bands (ev):

[...]

          k =-0.0760-0.0839 0.0000 ( 17948 PWs)   bands (ev):

   -55.4822 -55.4772 -55.4562 -55.4555 -55.4095 -55.3588 -55.3343 -55.3207
   -55.2796 -55.2776 -55.2774 -55.2756 -55.0526 -54.9482 -54.4595 -54.4593
   -31.8706 -31.8665 -31.8022 -31.7760 -31.7754 -31.7648 -31.7491 -31.7484
   -31.7091 -31.7036 -31.7023 -31.6947 -31.6660 -31.6285 -31.6195 -31.6160
   -31.6153 -31.6126 -31.6090 -31.6070 -31.5967 -31.5760 -31.5753 -31.5629
   -31.5599 -31.5493 -31.5362 -31.5208 -31.5127 -31.5101 -31.4943 -31.4932
   -31.4928 -31.4917 -31.4762 -31.4565 -31.4535 -31.3613 -31.2860 -31.2105
   -31.1827 -31.1771 -30.7841 -30.7841 -30.6974 -30.6972 -30.6581 -30.6581
   -17.0901 -15.7570 -15.6950 -15.5623 -15.4781 -15.4566 -15.4434 -15.4217
   -15.2863 -15.2684 -15.2511 -15.1998 -15.1945 -15.1917 -15.1567 -15.0991
   -15.0623 -15.0598 -15.0508 -15.0267 -14.9895 -14.9842 -14.9500 -14.9413
   -14.9280 -14.8386 -14.8330 -14.8306 -14.6670 -14.3458 -12.9639 -12.9638
    -9.5004  -7.2653  -4.6693  -3.0395  -2.9659  -2.8069  -2.7031  -2.6728
    -2.6411  -2.5032  -2.4648  -2.4604  -2.4495  -2.4209  -2.3980  -2.3744
    -2.3452  -2.3319  -2.3258  -2.3093  -2.2974  -2.2843  -2.2431  -2.2002
    -2.1973  -2.1864  -2.1577  -2.1356  -2.1249  -2.0954  -2.0763  -2.0612
    -2.0468  -2.0036  -1.8249  -1.7924  -1.6967  -1.6710  -1.6621  -1.6468
    -1.5741  -1.5468  -1.5151  -1.4799  -1.4282  -1.3041  -1.2359  -1.2135
    -1.1879  -1.1780  -1.1268  -1.0017  -0.9666  -0.9443  -0.8972  -0.8611
    -0.8217  -0.8053  -0.6869  -0.6840  -0.6361  -0.5940  -0.4793  -0.4605
    -0.4510  -0.4423  -0.4272  -0.2959  -0.2861  -0.2797  -0.2616  -0.2171
    -0.2007  -0.0969   0.0015   0.0184   0.1222   0.1707   0.2968   0.3593
     0.4532   0.5013   0.5257   0.6156   0.6540   0.7340   0.7568   0.8132
     0.8247   0.9113   0.9736   0.9937   1.0016   1.0685   1.9059   1.9068
     1.9862   1.9864   3.7531   3.8461   3.8859   3.9082   3.9541   4.1112
     4.1285   4.1758   4.1793   4.1913   4.2746

     the Fermi energy is     3.6498 ev

!    total energy              =   -2919.04276207 Ry
     estimated scf accuracy    <       0.00000004 Ry
     smearing contrib. (-TS)   =      -0.03618940 Ry
     internal energy E=F+TS    =   -2919.00657267 Ry

     The total energy is F=E-TS. E is the sum of the following terms:
     one-electron contribution =  -24477.45209909 Ry
     hartree contribution      =   12326.97989106 Ry
     xc contribution           =    -480.00803940 Ry
     ewald contribution        =    9711.47000776 Ry
     electric field correction =       0.00366700 Ry

     convergence has been achieved in  69 iterations

     Forces acting on atoms (cartesian axes, Ry/au):

     atom    1 type  1   force =     0.00009607   -0.00020716    0.09492313
     atom    2 type  1   force =    -0.00023379   -0.00035438   -0.17677425
     atom    3 type  2   force =    -0.00004458   -0.00006147   -0.02293220
     atom    4 type  2   force =    -0.00004381   -0.00167561    0.05580101
     atom    5 type  2   force =    -0.01136162   -0.00123290    0.00625937
     atom    6 type  2   force =     0.01253364   -0.00035648    0.00442379
     atom    7 type  1   force =    -0.00113423    0.00152424   -0.01376702
     atom    8 type  1   force =     0.00062954    0.00692501    0.01262766
     atom    9 type  2   force =     0.00020925   -0.00004054    0.00013556
     atom   10 type  2   force =    -0.00163609    0.00011303   -0.00988065
     atom   11 type  2   force =    -0.00021746    0.00002816    0.00022201
     atom   12 type  2   force =     0.00028034    0.00011722   -0.00000143
     atom   13 type  1   force =     0.00003588   -0.00000571   -0.00006331
     atom   14 type  1   force =    -0.00000157   -0.00016115    0.00009707
     atom   15 type  2   force =     0.00002390    0.00018456    0.00054561
     atom   16 type  2   force =     0.00025523    0.00028583    0.00013687
     atom   17 type  2   force =     0.00031885   -0.00011092    0.00052673
     atom   18 type  2   force =    -0.00009687    0.00021333    0.00048879
     atom   19 type  1   force =     0.00039386   -0.00004409   -0.00065076
     atom   20 type  1   force =     0.00020482    0.00019597    0.00084708
     atom   21 type  2   force =     0.00004550   -0.00004260    0.10360779
     atom   22 type  2   force =     0.00002258    0.00020493    0.00063294
     atom   23 type  2   force =    -0.07100343   -0.00016350   -0.02732733
     atom   24 type  2   force =     0.07085751    0.00031826   -0.02734558
     atom   25 type  1   force =    -0.00012011   -0.00020770    0.09463201
     atom   26 type  1   force =    -0.00019290   -0.00046424   -0.17692504
     atom   27 type  2   force =     0.00006816   -0.00035483   -0.02195423
     atom   28 type  2   force =     0.00003748   -0.00139160    0.05534601
     atom   29 type  2   force =    -0.01158970   -0.00009156    0.00586957
     atom   30 type  2   force =     0.01265565    0.00012491    0.00408456
     atom   31 type  1   force =    -0.00125093    0.00417329   -0.01464573
     atom   32 type  1   force =     0.00055741   -0.00776058    0.01248847
     atom   33 type  2   force =    -0.00000919    0.00008660    0.00004756
     atom   34 type  2   force =    -0.00126828    0.00083332   -0.00826823
     atom   35 type  2   force =     0.00011145    0.00020026    0.00005872
     atom   36 type  2   force =     0.00016029    0.00004411    0.00025568
     atom   37 type  1   force =     0.00001101    0.00000419   -0.00035231
     atom   38 type  1   force =    -0.00005100   -0.00016074   -0.00026595
     atom   39 type  2   force =    -0.00015576   -0.00030223    0.00071267
     atom   40 type  2   force =     0.00023484   -0.00002561   -0.00000313
     atom   41 type  2   force =     0.00066451   -0.00021881    0.00052046
     atom   42 type  2   force =    -0.00051352    0.00002218   -0.00012995
     atom   43 type  1   force =    -0.00024598    0.00005728   -0.00019827
     atom   44 type  1   force =     0.00052661    0.00012454   -0.00059970
     atom   45 type  2   force =     0.00003351   -0.00004972    0.10357810
     atom   46 type  2   force =    -0.07100745   -0.00007026   -0.02731785
     atom   47 type  2   force =     0.07086383    0.00032527   -0.02734821
     atom   48 type  3   force =    -0.00355590    0.00407428    0.00652821
     atom   49 type  4   force =     0.00007788   -0.00323259   -0.01443582
     atom   50 type  5   force =     0.00430798   -0.00127264    0.00471839
     atom   51 type  5   force =     0.00071738   -0.00058637   -0.00091815
     atom   52 type  5   force =    -0.00120079    0.00046520    0.00198927

     Total force =     0.366533     Total SCF correction =     0.000441
  @ DRIVER MODE: Message from server: STATUS
  @ DRIVER MODE: Message from server: GETFORCE
  @ DRIVER MODE: Returning v,forces,stress,ensemble

     Writing output data file ./calc.save/
  @ DRIVER MODE: Message from server: EXIT
  @ DRIVE MODE: Exiting

     General routines

     Parallel routines

   This run was terminated on:   1:38:42   9Sep2021

   JOB DONE.