     Program PWSCF v.6.7GPU starts on 23Sep2021 at  7:10:29

     R & G space division:  proc/nbgrp/npool/nimage =       8
     Reading input from /storage/home/hcoda1/3/ntian30/research/carbon/CxH_vib/H2O_calc/ads_slab/CH3N2HO_c/out_0022/pw.inp
Warning: card &CELL ignored
Warning: card   CELL_DYNAMICS='IPI', ignored
Warning: card / ignored

     Current dimensions of program PWSCF are:
     Max number of different atomic species (ntypx) = 10
     Max number of k-points (npk) =  40000
     Max angular momentum in pseudopotentials (lmaxx) =  3
     Presently no symmetry can be used with electric field

     Message from routine cell_base_init:
     DEPRECATED: use true lattice parameter, not A to a.u. conversion factor

     IMPORTANT: XC functional enforced from input :
     Exchange-correlation= BEEF-VDW
                           (   1   4  43  14   2   0   0)
     Any further DFT definition will be discarded
     Please, verify this is what you really want

  @ DRIVER MODE: Connecting to
 qe_1139763_2941007.sched-torque.pace.gatech.edu_zdbmz0__scratch
  using UNIX socket
  @ DRIVER MODE: Message from server: STATUS
  @ DRIVER MODE: Message from server: INIT
  @ DRIVER MODE: Receiving replica           0          -1
  @ DRIVER MODE: Receiving encoded integer          25
  @ DRIVER MODE:  SCF:  T  FORCE:  T  STRESS:  F  VC:  F  ENSEMBLE:  F
  @ DRIVER MODE:  SCF:  T  FORCE:  T  STRESS:  F  VC:  F  ENSEMBLE:  F

     Using Slab Decomposition

     bravais-lattice index     =            0
     lattice parameter (alat)  =       1.8897  a.u.
     unit-cell volume          =    6658.9804 (a.u.)^3
     number of atoms/cell      =           55
     number of atomic types    =            5
     number of electrons       =       402.00
     number of Kohn-Sham states=          211
     kinetic-energy cutoff     =      29.3995  Ry
     charge density cutoff     =     293.9946  Ry
     scf convergence threshold =      7.3E-08
     mixing beta               =       0.0500
     number of iterations used =            8  plain     mixing
     Exchange-correlation= BEEF-VDW
                           (   1   4  43  14   2   0   0)

     celldm(1)=   1.889726  celldm(2)=   0.000000  celldm(3)=   0.000000
     celldm(4)=   0.000000  celldm(5)=   0.000000  celldm(6)=   0.000000

     crystal axes: (cart. coord. in units of alat)
               a(1) = (   6.579727   0.000000   0.000000 )
               a(2) = (  -0.000775   5.961596   0.000000 )
               a(3) = (   0.000000   0.000000  25.155947 )

     reciprocal axes: (cart. coord. in units 2 pi/alat)
               b(1) = (  0.151982  0.000020  0.000000 )
               b(2) = (  0.000000  0.167740  0.000000 )
               b(3) = (  0.000000  0.000000  0.039752 )

     PseudoPot. # 1 for Ti read from file:
     /storage/coda1/p-amedford6/0/shared/rich_project_chbe-medford/medford-share/data/pseudos_module/espresso/nninc/pbe/van/Ti.UPF
     MD5 check sum: 8e4df49b7f0d34bbd5052bf3f5ea0213
     Pseudo is Ultrasoft, Zval = 12.0
     Generated by new atomic code, or converted to UPF format
     Using radial grid of  851 points,  6 beta functions with:
                l(1) =   0
                l(2) =   0
                l(3) =   1
                l(4) =   1
                l(5) =   2
                l(6) =   2
     Q(r) pseudized with  8 coefficients,  rinner =    1.000   1.000   1.000
                                                       1.000   1.000

     PseudoPot. # 2 for O  read from file:
     /storage/coda1/p-amedford6/0/shared/rich_project_chbe-medford/medford-share/data/pseudos_module/espresso/nninc/pbe/van/O.UPF
     MD5 check sum: 78c19812648e8988a0fe644b0f25305e
     Pseudo is Ultrasoft, Zval =  6.0
     Generated by new atomic code, or converted to UPF format
     Using radial grid of  737 points,  4 beta functions with:
                l(1) =   0
                l(2) =   0
                l(3) =   1
                l(4) =   1
     Q(r) pseudized with  8 coefficients,  rinner =    0.800   0.800   0.800

     PseudoPot. # 3 for N  read from file:
     /storage/coda1/p-amedford6/0/shared/rich_project_chbe-medford/medford-share/data/pseudos_module/espresso/nninc/pbe/van/N.UPF
     MD5 check sum: 90d10febe142ad51ac9d5be1deb811c4
     Pseudo is Ultrasoft, Zval =  5.0
     Generated by new atomic code, or converted to UPF format
     Using radial grid of  729 points,  4 beta functions with:
                l(1) =   0
                l(2) =   0
                l(3) =   1
                l(4) =   1
     Q(r) pseudized with  8 coefficients,  rinner =    0.800   0.800   0.800

     PseudoPot. # 4 for C  read from file:
     /storage/coda1/p-amedford6/0/shared/rich_project_chbe-medford/medford-share/data/pseudos_module/espresso/nninc/pbe/van/C.UPF
     MD5 check sum: 1a69bf6b8db32088f5b2163dbdb77a27
     Pseudo is Ultrasoft, Zval =  4.0
     Generated by new atomic code, or converted to UPF format
     Using radial grid of  721 points,  4 beta functions with:
                l(1) =   0
                l(2) =   0
                l(3) =   1
                l(4) =   1
     Q(r) pseudized with  8 coefficients,  rinner =    0.800   0.800   0.800

     PseudoPot. # 5 for H  read from file:
     /storage/coda1/p-amedford6/0/shared/rich_project_chbe-medford/medford-share/data/pseudos_module/espresso/nninc/pbe/van/H.UPF
     MD5 check sum: b5ee9d7bfd3a09ee7748110bda690ff7
     Pseudo is Ultrasoft, Zval =  1.0
     Generated by new atomic code, or converted to UPF format
     Using radial grid of  615 points,  1 beta functions with:
                l(1) =   0
     Q(r) pseudized with  8 coefficients,  rinner =    0.800

     atomic species   valence    mass     pseudopotential
        Ti1           12.00    47.86700     Ti( 1.00)
        O1             6.00    15.99900     O ( 1.00)
        N1             5.00    14.00700     N ( 1.00)
        C1             4.00    12.01100     C ( 1.00)
        H1             1.00     1.00800     H ( 1.00)

     No symmetry found

   Cartesian axes

     site n.     atom                  positions (alat units)
         1           Ti1 tau(   1) = (   0.0004258   2.9801865   6.0000000  )
         2           Ti1 tau(   2) = (   3.2906075   1.4906267   6.0002472  )
         3           O1  tau(   3) = (   0.0006271   0.0005054   7.9858123  )
         4           O1  tau(   4) = (   3.2906025   0.0005020   7.3038282  )
         5           O1  tau(   5) = (   4.5942328   1.4918067   9.2879030  )
         6           O1  tau(   6) = (   1.9868534   1.4903216   9.2879459  )
         7           Ti1 tau(   7) = (   3.2907910   2.8959150   9.1758416  )
         8           Ti1 tau(   8) = (   0.0015273   1.4827037   9.2680791  )
         9           O1  tau(   9) = (   3.2989311   0.0219330  11.3020621  )
        10           O1  tau(  10) = (   0.0116148   5.9584955  10.6183126  )
        11           O1  tau(  11) = (   1.3029919   1.4976758  12.6257209  )
        12           O1  tau(  12) = (   5.3026591   1.4951023  12.6306759  )
        13           Ti1 tau(  13) = (   0.0286689   2.8598525  12.6759356  )
        14           Ti1 tau(  14) = (   3.3054201   1.5706400  12.4108957  )
        15           O1  tau(  15) = (   0.0066217   5.9386728  14.6456674  )
        16           O1  tau(  16) = (   3.2936494   5.9217248  13.9190535  )
        17           O1  tau(  17) = (   4.5783085   1.5227378  16.0725395  )
        18           O1  tau(  18) = (   2.0661487   1.5008106  16.0935948  )
        19           Ti1 tau(  19) = (   3.3004316   2.9577776  15.6622982  )
        20           Ti1 tau(  20) = (   6.5114840   1.4532315  15.8500040  )
        21           O1  tau(  21) = (   3.2904802   0.0005063   4.7018136  )
        22           O1  tau(  22) = (   0.0101108   5.9483577  17.1703567  )
        23           O1  tau(  23) = (   1.3043587   1.4918075   6.0039043  )
        24           O1  tau(  24) = (   5.2767064   1.4903225   6.0039473  )
        25           Ti1 tau(  25) = (   0.0000382   5.9609847   6.0000000  )
        26           Ti1 tau(  26) = (   3.2902200   4.4714249   6.0002472  )
        27           O1  tau(  27) = (   0.0002396   2.9813036   7.9858123  )
        28           O1  tau(  28) = (   3.2902150   2.9813002   7.3038282  )
        29           O1  tau(  29) = (   4.5938453   4.4726049   9.2879030  )
        30           O1  tau(  30) = (   1.9864658   4.4711199   9.2879459  )
        31           Ti1 tau(  31) = (   3.2891106   5.8743827   9.1763621  )
        32           Ti1 tau(  32) = (   0.0006254   4.4649316   9.2693709  )
        33           O1  tau(  33) = (   3.2985377   2.9527140  11.2683515  )
        34           O1  tau(  34) = (   0.0092240   2.9805883  10.6323155  )
        35           O1  tau(  35) = (   1.2869011   4.4751273  12.6337776  )
        36           O1  tau(  36) = (   5.3033013   4.4751711  12.6363117  )
        37           Ti1 tau(  37) = (   6.5677423   5.8343599  12.5653580  )
        38           Ti1 tau(  38) = (   3.2861748   4.6640272  12.6826305  )
        39           O1  tau(  39) = (   0.0268303   2.9326313  14.6927244  )
        40           O1  tau(  40) = (   3.2973518   2.9805258  13.8830516  )
        41           O1  tau(  41) = (   4.5656241   4.3944478  16.1024780  )
        42           O1  tau(  42) = (   2.0389263   4.3990843  16.1000718  )
        43           Ti1 tau(  43) = (   3.2183859   5.9292641  16.3327267  )
        44           Ti1 tau(  44) = (   6.5399727   4.6159235  16.0325440  )
        45           O1  tau(  45) = (   3.2900926   2.9813045   4.7018136  )
        46           O1  tau(  46) = (   1.3039711   4.4726057   6.0039043  )
        47           O1  tau(  47) = (   5.2763189   4.4711207   6.0039473  )
        48           N1  tau(  48) = (   0.1383159   2.7169024  18.7005470  )
        49           N1  tau(  49) = (   0.0454196   2.8879789  17.5111406  )
        50           C1  tau(  50) = (   0.1807782   3.8735959  19.6428767  )
        51           H1  tau(  51) = (   6.4938760   4.8236915  19.1652781  )
        52           H1  tau(  52) = (   6.0945921   3.6282151  20.4682347  )
        53           H1  tau(  53) = (   1.2016282   3.9139503  20.0277151  )
        54           O1  tau(  54) = (   3.2907091   5.9158944  18.1602194  )
        55           H1  tau(  55) = (   3.1351319   0.7410148  18.7017648  )

     number of k points=    10  Fermi-Dirac smearing, width (Ry)=  0.0073
                       cart. coord. in units 2pi/alat
        k(    1) = (   0.0000000   0.0000000   0.0000000), wk =   0.1250000
        k(    2) = (   0.0000000   0.0419351   0.0000000), wk =   0.2500000
        k(    3) = (   0.0000000  -0.0838702   0.0000000), wk =   0.1250000
        k(    4) = (   0.0379955   0.0000049   0.0000000), wk =   0.2500000
        k(    5) = (   0.0379955   0.0419400   0.0000000), wk =   0.2500000
        k(    6) = (   0.0379955  -0.0838652   0.0000000), wk =   0.2500000
        k(    7) = (   0.0379955  -0.0419301   0.0000000), wk =   0.2500000
        k(    8) = (  -0.0759910  -0.0000099   0.0000000), wk =   0.1250000
        k(    9) = (  -0.0759910   0.0419252   0.0000000), wk =   0.2500000
        k(   10) = (  -0.0759910  -0.0838800   0.0000000), wk =   0.1250000

     Initial potential from superposition of free atoms

     starting charge  385.99915, renormalised to  402.00000

     negative rho (up, down):  1.430E-02 0.000E+00

     %%%%%%%%%%%%%%%%%%%%%%%%%%%%%%%%%%%%%%%%%%%%%%%%%%%%%%%%%%%%%%%%%%%%%%%%
     %                                                                      %
     % You are using vdW-DF, which was implemented by the Thonhauser group. %
     % Please cite the following two papers that made this development      %
     % possible and the two reviews that describe the various versions:     %
     %                                                                      %
     %   T. Thonhauser et al., PRL 115, 136402 (2015).                      %
     %   T. Thonhauser et al., PRB 76, 125112 (2007).                       %
     %   K. Berland et al., Rep. Prog. Phys. 78, 066501 (2015).             %
     %   D.C. Langreth et al., J. Phys.: Condens. Matter 21, 084203 (2009). %
     %                                                                      %
     %                                                                      %
     % If you are calculating the stress with vdW-DF, please also cite:     %
     %                                                                      %
     %   R. Sabatini et al., J. Phys.: Condens. Matter 24, 424209 (2012).   %
     %                                                                      %
     %%%%%%%%%%%%%%%%%%%%%%%%%%%%%%%%%%%%%%%%%%%%%%%%%%%%%%%%%%%%%%%%%%%%%%%%

     Adding external electric field

     Computed dipole along edir(3) :
        Dipole              -12.0462 Ry au,        -30.6184 Debye
        Dipole field         -0.0227 Ry au,

        Potential amp.        2.1073 Ry
        Total length         46.3494 bohr

     Starting wfcs are  304 atomic wfcs
  @ DRIVER MODE: Message from server: STATUS
  @ DRIVER MODE: Message from server: POSDATA
  @ DRIVER MODE: Reading and sharing cell
  @ DRIVER MODE: Reading and sharing positions
  @ DRIVER MODE: Received positions

     Self-consistent Calculation

     iteration #  1     ecut=    29.40 Ry     beta= 0.05
     Davidson diagonalization with overlap
     c_bands:  5 eigenvalues not converged
     c_bands:  3 eigenvalues not converged
     c_bands:  5 eigenvalues not converged
     c_bands:  3 eigenvalues not converged
     c_bands:  3 eigenvalues not converged
     c_bands:  2 eigenvalues not converged
     c_bands:  5 eigenvalues not converged
     c_bands:  5 eigenvalues not converged
     ethr =  1.00E-05,  avg # of iterations = 21.5

[...]

     total energy              =   -2397.72131178 Ry
     estimated scf accuracy    <    6480.66284932 Ry

     iteration #  2     ecut=    29.40 Ry     beta= 0.05
     Davidson diagonalization with overlap
     ethr =  1.00E-02,  avg # of iterations = 23.0

[...]

     iteration # 39     ecut=    29.40 Ry     beta= 0.05
     Davidson diagonalization with overlap
     c_bands:  1 eigenvalues not converged
     ethr =  5.11E-07,  avg # of iterations =  7.4

[...]

     total energy              =   -2972.75290189 Ry
     estimated scf accuracy    <       0.00000012 Ry

     iteration # 60     ecut=    29.40 Ry     beta= 0.05
     Davidson diagonalization with overlap
     ethr =  3.03E-11,  avg # of iterations =  5.8

     negative rho (up, down):  1.493E-02 0.000E+00

     Adding external electric field

     Computed dipole along edir(3) :
        Dipole                0.6518 Ry au,          1.6568 Debye
        Dipole field          0.0012 Ry au,

        Potential amp.       -0.1140 Ry
        Total length         46.3494 bohr

     End of self-consistent calculation

          k = 0.0000 0.0000 0.0000 ( 18029 PWs)   bands (ev):

   -56.2034 -56.1696 -55.7892 -55.7556 -55.5832 -55.5488 -55.4989 -55.3498
   -55.3149 -55.3141 -55.1700 -55.1556 -55.0294 -55.0055 -54.9750 -54.9410
   -32.6538 -32.4958 -32.4689 -32.3619 -32.2779 -32.2693 -32.2688 -32.0329
   -32.0080 -31.9884 -31.9364 -31.9311 -31.9264 -31.8962 -31.8473 -31.8201
   -31.7925 -31.7712 -31.7695 -31.7268 -31.7113 -31.6991 -31.6856 -31.6568
   -31.6389 -31.6259 -31.5554 -31.5337 -31.5252 -31.5221 -31.4999 -31.4664
   -31.4362 -31.4028 -31.3716 -31.3646 -31.3586 -31.3081 -31.2861 -31.2845
   -31.2586 -31.2414 -31.2412 -31.2374 -31.2166 -31.1903 -31.1057 -30.9938
   -18.8065 -16.4968 -16.4419 -16.1620 -15.9549 -15.7803 -15.6959 -15.6841
   -15.6348 -15.5138 -15.5015 -15.3899 -15.3024 -15.2269 -15.1993 -15.1962
   -15.1026 -15.0585 -15.0154 -14.9909 -14.9792 -14.9710 -14.9400 -14.8326
   -14.8248 -14.7965 -14.6983 -14.6863 -14.5831 -14.2871 -14.2711 -13.4728
   -13.3606 -11.4272  -6.8824  -4.3487  -4.1571  -4.0064  -3.9764  -3.9184
    -3.7100  -3.4975  -3.4120  -3.2484  -3.1958  -3.1164  -2.9190  -2.9093
    -2.8550  -2.7841  -2.7088  -2.6499  -2.6034  -2.5864  -2.4913  -2.4534
    -2.4328  -2.4299  -2.3952  -2.3806  -2.2557  -2.2522  -2.2219  -2.1724
    -2.1134  -2.0982  -2.0319  -2.0227  -2.0061  -1.9582  -1.9222  -1.8761
    -1.7984  -1.7874  -1.6485  -1.6301  -1.6222  -1.5410  -1.5170  -1.5084
    -1.4573  -1.2972  -1.2264  -1.1790  -1.1753  -1.0375  -1.0232  -0.9862
    -0.9054  -0.8699  -0.7812  -0.7701  -0.7600  -0.7508  -0.6681  -0.6323
    -0.6163  -0.5904  -0.4079  -0.3790  -0.3164  -0.2653  -0.1657  -0.1218
    -0.1148  -0.1064  -0.0669  -0.0109   0.0108   0.0256   0.1244   0.1496
     0.2038   0.2717   0.3068   0.3792   0.3992   0.4013   0.4130   0.4680
     0.5602   0.6524   0.6950   0.7109   0.7791   0.7934   0.9301   0.9437
     1.0493   1.0910   1.1000   1.1610   1.2804   1.5639   1.5976   1.6368
     2.7551   3.0227   3.1504   3.3073   3.4548   3.5514   3.8439   3.8886
     3.9277   4.0100   4.0216

[...]

          k = 0.0380-0.0419 0.0000 ( 17876 PWs)   bands (ev):

[...]

          k =-0.0760-0.0000 0.0000 ( 17886 PWs)   bands (ev):

[...]

          k =-0.0760-0.0839 0.0000 ( 17948 PWs)   bands (ev):

   -56.1866 -56.1864 -55.7731 -55.7716 -55.5825 -55.5422 -55.5055 -55.3370
   -55.3266 -55.3154 -55.1680 -55.1537 -55.0313 -55.0073 -54.9580 -54.9578
   -32.4814 -32.4812 -32.4698 -32.4697 -32.3141 -32.3136 -32.0934 -32.0898
   -31.9672 -31.9644 -31.9618 -31.9609 -31.8702 -31.8481 -31.8217 -31.8212
   -31.7830 -31.7643 -31.7637 -31.7303 -31.7221 -31.6916 -31.6709 -31.6592
   -31.6052 -31.5989 -31.5759 -31.5593 -31.5434 -31.5431 -31.5267 -31.5069
   -31.4284 -31.4074 -31.3741 -31.3704 -31.3566 -31.3018 -31.2975 -31.2974
   -31.2909 -31.2504 -31.2469 -31.2416 -31.1865 -31.1861 -31.1483 -31.1479
   -18.8037 -16.4328 -15.9054 -15.8963 -15.7700 -15.7650 -15.5906 -15.5767
   -15.5762 -15.4928 -15.4532 -15.4303 -15.2876 -15.2741 -15.2138 -15.1885
   -15.1712 -15.1486 -15.1392 -15.1063 -15.0958 -15.0433 -14.9865 -14.9797
   -14.9208 -14.9133 -14.7557 -14.6936 -14.6478 -14.5001 -14.4061 -13.4639
   -13.4634 -11.4251  -6.8962  -4.2887  -4.1782  -3.9651  -3.9116  -3.0706
    -3.0220  -2.9194  -2.8824  -2.8011  -2.7887  -2.6781  -2.6614  -2.6152
    -2.5988  -2.5903  -2.5449  -2.4987  -2.4885  -2.4664  -2.4398  -2.4240
    -2.4126  -2.3737  -2.3250  -2.3086  -2.3031  -2.2780  -2.1758  -2.1450
    -2.1340  -2.1254  -2.0976  -2.0737  -2.0292  -1.9593  -1.9269  -1.8886
    -1.8767  -1.8064  -1.7435  -1.6958  -1.6732  -1.6115  -1.5524  -1.5296
    -1.4474  -1.4065  -1.2925  -1.2797  -1.2616  -1.1990  -1.1761  -1.1214
    -1.1016  -1.0402  -0.9911  -0.9678  -0.9630  -0.9489  -0.8813  -0.8204
    -0.7089  -0.6644  -0.6485  -0.6147  -0.6098  -0.5810  -0.5465  -0.5094
    -0.4094  -0.3957  -0.3833  -0.3316  -0.3221  -0.2479  -0.1724  -0.0566
     0.0644   0.1408   0.1508   0.1709   0.2101   0.2927   0.3705   0.4112
     0.4567   0.5167   0.5594   0.5993   0.6647   0.8063   0.8582   0.8802
     0.9645   1.0016   1.0723   1.1596   1.4376   1.4484   1.4528   1.4537
     2.8081   3.5720   3.5745   3.6039   3.6148   3.7302   3.8097   3.8273
     3.9522   4.0604   4.0677

     the Fermi energy is     2.9591 ev

!    total energy              =   -2972.75296787 Ry
     estimated scf accuracy    <       0.00000007 Ry
     smearing contrib. (-TS)   =      -0.01283315 Ry
     internal energy E=F+TS    =   -2972.74013472 Ry

     The total energy is F=E-TS. E is the sum of the following terms:
     one-electron contribution =  -23538.50446167 Ry
     hartree contribution      =   11862.85382162 Ry
     xc contribution           =    -493.06409573 Ry
     ewald contribution        =    9195.97379928 Ry
     electric field correction =       0.00080178 Ry

     convergence has been achieved in  60 iterations

     Forces acting on atoms (cartesian axes, Ry/au):

     atom    1 type  1   force =     0.00007476   -0.00037940    0.10684966
     atom    2 type  1   force =    -0.00012587    0.00015773   -0.16542348
     atom    3 type  2   force =     0.00006915   -0.00044785   -0.03890510
     atom    4 type  2   force =     0.00000324    0.00016119    0.03535957
     atom    5 type  2   force =    -0.00263397   -0.00317799   -0.00914033
     atom    6 type  2   force =     0.00445278   -0.00251326   -0.00942504
     atom    7 type  1   force =    -0.00001358    0.00134300    0.03451036
     atom    8 type  1   force =     0.00024059    0.01555495    0.06082020
     atom    9 type  2   force =    -0.00018022   -0.00045258    0.00003623
     atom   10 type  2   force =    -0.00255641    0.00088159   -0.04257263
     atom   11 type  2   force =    -0.00100501    0.00035202    0.00038866
     atom   12 type  2   force =     0.00050212    0.00025171    0.00028107
     atom   13 type  1   force =     0.00044963    0.00067928   -0.00040905
     atom   14 type  1   force =     0.00025689   -0.00013408    0.00042149
     atom   15 type  2   force =     0.00022622    0.00063693    0.00007162
     atom   16 type  2   force =    -0.00009165   -0.00039328   -0.00078697
     atom   17 type  2   force =    -0.00012290    0.00021565    0.00005928
     atom   18 type  2   force =     0.00016193   -0.00002254   -0.00015545
     atom   19 type  1   force =     0.00018624   -0.00093949    0.00013559
     atom   20 type  1   force =     0.00016887    0.00023406   -0.00036431
     atom   21 type  2   force =     0.00003407    0.00013522    0.10037671
     atom   22 type  2   force =     0.00015308    0.00073234   -0.00010646
     atom   23 type  2   force =    -0.07680041   -0.00000603   -0.03010664
     atom   24 type  2   force =     0.07667153    0.00046582   -0.03015397
     atom   25 type  1   force =    -0.00008391   -0.00045452    0.10723274
     atom   26 type  1   force =    -0.00021157   -0.00131377   -0.16547020
     atom   27 type  2   force =     0.00010184   -0.00031917   -0.03719583
     atom   28 type  2   force =     0.00004648   -0.00000423    0.03052444
     atom   29 type  2   force =    -0.00567054    0.00366081   -0.00701051
     atom   30 type  2   force =     0.00730587    0.00400863   -0.00728532
     atom   31 type  1   force =    -0.00012165   -0.00227704    0.02269555
     atom   32 type  1   force =     0.00032266   -0.01776535    0.06129314
     atom   33 type  2   force =    -0.00016948    0.00020503   -0.00018277
     atom   34 type  2   force =    -0.00143693    0.00001320   -0.05429290
     atom   35 type  2   force =    -0.00002620   -0.00017256   -0.00021183
     atom   36 type  2   force =    -0.00029152    0.00005476   -0.00005640
     atom   37 type  1   force =     0.00013405   -0.00006407    0.00058405
     atom   38 type  1   force =     0.00033463   -0.00000144    0.00013487
     atom   39 type  2   force =    -0.00012526    0.00028862   -0.00035949
     atom   40 type  2   force =     0.00001281    0.00030399    0.00047056
     atom   41 type  2   force =    -0.00022596    0.00021573   -0.00012963
     atom   42 type  2   force =     0.00021185   -0.00000496   -0.00003102
     atom   43 type  1   force =     0.00021655    0.00048422    0.00043181
     atom   44 type  1   force =     0.00031754    0.00014236   -0.00034504
     atom   45 type  2   force =     0.00003738    0.00013654    0.10021922
     atom   46 type  2   force =    -0.07677511    0.00003491   -0.03008927
     atom   47 type  2   force =     0.07663518    0.00047219   -0.03010789
     atom   48 type  3   force =     0.00016300    0.00183274   -0.00127290
     atom   49 type  3   force =     0.00034309   -0.00065530   -0.00054424
     atom   50 type  4   force =    -0.00196677    0.00868069   -0.00388222
     atom   51 type  5   force =     0.00204493   -0.01012038    0.00332543
     atom   52 type  5   force =    -0.00024150   -0.00037462   -0.00023357
     atom   53 type  5   force =     0.00024957   -0.00007640   -0.00044249
     atom   54 type  2   force =     0.00017451   -0.00015816    0.00161876
     atom   55 type  5   force =    -0.00142658   -0.00010741   -0.00114807

     Total force =     0.381046     Total SCF correction =     0.000783
  @ DRIVER MODE: Message from server: STATUS
  @ DRIVER MODE: Message from server: GETFORCE
  @ DRIVER MODE: Returning v,forces,stress,ensemble

     Writing output data file ./calc.save/
  @ DRIVER MODE: Message from server: EXIT
  @ DRIVE MODE: Exiting

     General routines

     Parallel routines

   This run was terminated on:   7:31:41  23Sep2021

   JOB DONE.