     Program PWSCF v.6.7GPU starts on  9Sep2021 at  6:11:44

     R & G space division:  proc/nbgrp/npool/nimage =      10
     Reading input from /storage/home/hcoda1/3/ntian30/research/carbon/CxH_vib/CH2_calc/ads_slab/CH2NH_a/out_0028/pw.inp
Warning: card &CELL ignored
Warning: card   CELL_DYNAMICS='IPI', ignored
Warning: card / ignored

     Current dimensions of program PWSCF are:
     Max number of different atomic species (ntypx) = 10
     Max number of k-points (npk) =  40000
     Max angular momentum in pseudopotentials (lmaxx) =  3
     Presently no symmetry can be used with electric field

     Message from routine cell_base_init:
     DEPRECATED: use true lattice parameter, not A to a.u. conversion factor

     IMPORTANT: XC functional enforced from input :
     Exchange-correlation= BEEF-VDW
                           (   1   4  43  14   2   0   0)
     Any further DFT definition will be discarded
     Please, verify this is what you really want

  @ DRIVER MODE: Connecting to
 qe_1139763_2767389.sched-torque.pace.gatech.eduq0lo5o5p_scratch
  using UNIX socket
  @ DRIVER MODE: Message from server: STATUS
  @ DRIVER MODE: Message from server: INIT
  @ DRIVER MODE: Receiving replica           0          -1
  @ DRIVER MODE: Receiving encoded integer          25
  @ DRIVER MODE:  SCF:  T  FORCE:  T  STRESS:  F  VC:  F  ENSEMBLE:  F
  @ DRIVER MODE:  SCF:  T  FORCE:  T  STRESS:  F  VC:  F  ENSEMBLE:  F

     Using Slab Decomposition

     bravais-lattice index     =            0
     lattice parameter (alat)  =       1.8897  a.u.
     unit-cell volume          =    6658.9804 (a.u.)^3
     number of atoms/cell      =           52
     number of atomic types    =            5
     number of electrons       =       390.00
     number of Kohn-Sham states=          205
     kinetic-energy cutoff     =      29.3995  Ry
     charge density cutoff     =     293.9946  Ry
     scf convergence threshold =      7.3E-08
     mixing beta               =       0.0500
     number of iterations used =            8  plain     mixing
     Exchange-correlation= BEEF-VDW
                           (   1   4  43  14   2   0   0)

     celldm(1)=   1.889726  celldm(2)=   0.000000  celldm(3)=   0.000000
     celldm(4)=   0.000000  celldm(5)=   0.000000  celldm(6)=   0.000000

     crystal axes: (cart. coord. in units of alat)
               a(1) = (   6.579727   0.000000   0.000000 )
               a(2) = (  -0.000775   5.961596   0.000000 )
               a(3) = (   0.000000   0.000000  25.155947 )

     reciprocal axes: (cart. coord. in units 2 pi/alat)
               b(1) = (  0.151982  0.000020  0.000000 )
               b(2) = (  0.000000  0.167740  0.000000 )
               b(3) = (  0.000000  0.000000  0.039752 )

     PseudoPot. # 1 for Ti read from file:
     /storage/coda1/p-amedford6/0/shared/rich_project_chbe-medford/medford-share/data/pseudos_module/espresso/nninc/pbe/van/Ti.UPF
     MD5 check sum: 8e4df49b7f0d34bbd5052bf3f5ea0213
     Pseudo is Ultrasoft, Zval = 12.0
     Generated by new atomic code, or converted to UPF format
     Using radial grid of  851 points,  6 beta functions with:
                l(1) =   0
                l(2) =   0
                l(3) =   1
                l(4) =   1
                l(5) =   2
                l(6) =   2
     Q(r) pseudized with  8 coefficients,  rinner =    1.000   1.000   1.000
                                                       1.000   1.000

     PseudoPot. # 2 for O  read from file:
     /storage/coda1/p-amedford6/0/shared/rich_project_chbe-medford/medford-share/data/pseudos_module/espresso/nninc/pbe/van/O.UPF
     MD5 check sum: 78c19812648e8988a0fe644b0f25305e
     Pseudo is Ultrasoft, Zval =  6.0
     Generated by new atomic code, or converted to UPF format
     Using radial grid of  737 points,  4 beta functions with:
                l(1) =   0
                l(2) =   0
                l(3) =   1
                l(4) =   1
     Q(r) pseudized with  8 coefficients,  rinner =    0.800   0.800   0.800

     PseudoPot. # 3 for N  read from file:
     /storage/coda1/p-amedford6/0/shared/rich_project_chbe-medford/medford-share/data/pseudos_module/espresso/nninc/pbe/van/N.UPF
     MD5 check sum: 90d10febe142ad51ac9d5be1deb811c4
     Pseudo is Ultrasoft, Zval =  5.0
     Generated by new atomic code, or converted to UPF format
     Using radial grid of  729 points,  4 beta functions with:
                l(1) =   0
                l(2) =   0
                l(3) =   1
                l(4) =   1
     Q(r) pseudized with  8 coefficients,  rinner =    0.800   0.800   0.800

     PseudoPot. # 4 for C  read from file:
     /storage/coda1/p-amedford6/0/shared/rich_project_chbe-medford/medford-share/data/pseudos_module/espresso/nninc/pbe/van/C.UPF
     MD5 check sum: 1a69bf6b8db32088f5b2163dbdb77a27
     Pseudo is Ultrasoft, Zval =  4.0
     Generated by new atomic code, or converted to UPF format
     Using radial grid of  721 points,  4 beta functions with:
                l(1) =   0
                l(2) =   0
                l(3) =   1
                l(4) =   1
     Q(r) pseudized with  8 coefficients,  rinner =    0.800   0.800   0.800

     PseudoPot. # 5 for H  read from file:
     /storage/coda1/p-amedford6/0/shared/rich_project_chbe-medford/medford-share/data/pseudos_module/espresso/nninc/pbe/van/H.UPF
     MD5 check sum: b5ee9d7bfd3a09ee7748110bda690ff7
     Pseudo is Ultrasoft, Zval =  1.0
     Generated by new atomic code, or converted to UPF format
     Using radial grid of  615 points,  1 beta functions with:
                l(1) =   0
     Q(r) pseudized with  8 coefficients,  rinner =    0.800

     atomic species   valence    mass     pseudopotential
        Ti1           12.00    47.86700     Ti( 1.00)
        O1             6.00    15.99900     O ( 1.00)
        N1             5.00    14.00700     N ( 1.00)
        C1             4.00    12.01100     C ( 1.00)
        H1             1.00     1.00800     H ( 1.00)

     No symmetry found

   Cartesian axes

     site n.     atom                  positions (alat units)
         1           Ti1 tau(   1) = (   0.0004258   2.9801865   6.0000000  )
         2           Ti1 tau(   2) = (   3.2906075   1.4906267   6.0002472  )
         3           O1  tau(   3) = (   0.0006271   0.0005054   7.9858123  )
         4           O1  tau(   4) = (   3.2906025   0.0005020   7.3038282  )
         5           O1  tau(   5) = (   4.5942328   1.4918067   9.2879030  )
         6           O1  tau(   6) = (   1.9868534   1.4903216   9.2879459  )
         7           Ti1 tau(   7) = (   3.2907910   2.8959150   9.1758416  )
         8           Ti1 tau(   8) = (   0.0015273   1.4827037   9.2680791  )
         9           O1  tau(   9) = (   3.2859541   5.9290403  11.3715426  )
        10           O1  tau(  10) = (   0.0116148   5.9584955  10.6183126  )
        11           O1  tau(  11) = (   1.2917987   1.4688796  12.6526629  )
        12           O1  tau(  12) = (   5.2888266   1.4686376  12.6403033  )
        13           Ti1 tau(  13) = (   0.0074927   2.9495069  12.5376589  )
        14           Ti1 tau(  14) = (   3.2957121   1.4606513  12.5174744  )
        15           O1  tau(  15) = (   6.5702453   0.0264740  14.6787910  )
        16           O1  tau(  16) = (   3.3001739   5.9406727  13.9930656  )
        17           O1  tau(  17) = (   4.5367710   1.4643441  16.2106543  )
        18           O1  tau(  18) = (   2.0349547   1.4576396  16.1973481  )
        19           Ti1 tau(  19) = (   3.2821410   2.9383233  15.7467721  )
        20           Ti1 tau(  20) = (   6.5624771   1.3975196  16.0657228  )
        21           O1  tau(  21) = (   3.2904802   0.0005063   4.7018136  )
        22           O1  tau(  22) = (   0.0049924   5.8117904  17.2112648  )
        23           O1  tau(  23) = (   1.3043587   1.4918075   6.0039043  )
        24           O1  tau(  24) = (   5.2767064   1.4903225   6.0039473  )
        25           Ti1 tau(  25) = (   0.0000382   5.9609847   6.0000000  )
        26           Ti1 tau(  26) = (   3.2902200   4.4714249   6.0002472  )
        27           O1  tau(  27) = (   0.0002396   2.9813036   7.9858123  )
        28           O1  tau(  28) = (   3.2902150   2.9813002   7.3038282  )
        29           O1  tau(  29) = (   4.5938453   4.4726049   9.2879030  )
        30           O1  tau(  30) = (   1.9864658   4.4711199   9.2879459  )
        31           Ti1 tau(  31) = (   3.2891106   5.8743827   9.1763621  )
        32           Ti1 tau(  32) = (   0.0006254   4.4649316   9.2693709  )
        33           O1  tau(  33) = (   3.2878059   2.9597088  11.3652031  )
        34           O1  tau(  34) = (   0.0092240   2.9805883  10.6323155  )
        35           O1  tau(  35) = (   1.2887225   4.4431869  12.6829221  )
        36           O1  tau(  36) = (   5.2901277   4.4428847  12.6690855  )
        37           Ti1 tau(  37) = (   0.0035388   5.9380168  12.5099366  )
        38           Ti1 tau(  38) = (   3.2962120   4.4389810  12.5267566  )
        39           O1  tau(  39) = (   6.5655450   2.9014274  14.9049457  )
        40           O1  tau(  40) = (   3.2937888   2.9365130  13.9572806  )
        41           O1  tau(  41) = (   4.5374039   4.4072578  16.1608974  )
        42           O1  tau(  42) = (   2.0345115   4.4188705  16.1151926  )
        43           Ti1 tau(  43) = (   3.2925710   5.9161036  15.7896908  )
        44           Ti1 tau(  44) = (   0.0121651   4.6006060  15.8502786  )
        45           O1  tau(  45) = (   3.2900926   2.9813045   4.7018136  )
        46           O1  tau(  46) = (   1.3039711   4.4726057   6.0039043  )
        47           O1  tau(  47) = (   5.2763189   4.4711207   6.0039473  )
        48           N1  tau(  48) = (   6.5581919   2.6818180  17.9522317  )
        49           C1  tau(  49) = (   0.8403426   2.5546117  18.8965076  )
        50           H1  tau(  50) = (   0.6793733   2.9585088  19.8916666  )
        51           H1  tau(  51) = (   1.7584391   2.0155774  18.6961775  )
        52           H1  tau(  52) = (   5.7198555   3.1967788  18.2393814  )

     number of k points=    10  Fermi-Dirac smearing, width (Ry)=  0.0073
                       cart. coord. in units 2pi/alat
        k(    1) = (   0.0000000   0.0000000   0.0000000), wk =   0.1250000
        k(    2) = (   0.0000000   0.0419351   0.0000000), wk =   0.2500000
        k(    3) = (   0.0000000  -0.0838702   0.0000000), wk =   0.1250000
        k(    4) = (   0.0379955   0.0000049   0.0000000), wk =   0.2500000
        k(    5) = (   0.0379955   0.0419400   0.0000000), wk =   0.2500000
        k(    6) = (   0.0379955  -0.0838652   0.0000000), wk =   0.2500000
        k(    7) = (   0.0379955  -0.0419301   0.0000000), wk =   0.2500000
        k(    8) = (  -0.0759910  -0.0000099   0.0000000), wk =   0.1250000
        k(    9) = (  -0.0759910   0.0419252   0.0000000), wk =   0.2500000
        k(   10) = (  -0.0759910  -0.0838800   0.0000000), wk =   0.1250000

     Initial potential from superposition of free atoms

     starting charge  373.99917, renormalised to  390.00000

     negative rho (up, down):  1.699E-02 0.000E+00

     %%%%%%%%%%%%%%%%%%%%%%%%%%%%%%%%%%%%%%%%%%%%%%%%%%%%%%%%%%%%%%%%%%%%%%%%
     %                                                                      %
     % You are using vdW-DF, which was implemented by the Thonhauser group. %
     % Please cite the following two papers that made this development      %
     % possible and the two reviews that describe the various versions:     %
     %                                                                      %
     %   T. Thonhauser et al., PRL 115, 136402 (2015).                      %
     %   T. Thonhauser et al., PRB 76, 125112 (2007).                       %
     %   K. Berland et al., Rep. Prog. Phys. 78, 066501 (2015).             %
     %   D.C. Langreth et al., J. Phys.: Condens. Matter 21, 084203 (2009). %
     %                                                                      %
     %                                                                      %
     % If you are calculating the stress with vdW-DF, please also cite:     %
     %                                                                      %
     %   R. Sabatini et al., J. Phys.: Condens. Matter 24, 424209 (2012).   %
     %                                                                      %
     %%%%%%%%%%%%%%%%%%%%%%%%%%%%%%%%%%%%%%%%%%%%%%%%%%%%%%%%%%%%%%%%%%%%%%%%

     Adding external electric field

     Computed dipole along edir(3) :
        Dipole               -6.0480 Ry au,        -15.3725 Debye
        Dipole field         -0.0114 Ry au,

        Potential amp.        1.0580 Ry
        Total length         46.3494 bohr

     Starting wfcs are  295 atomic wfcs
  @ DRIVER MODE: Message from server: STATUS
  @ DRIVER MODE: Message from server: POSDATA
  @ DRIVER MODE: Reading and sharing cell
  @ DRIVER MODE: Reading and sharing positions
  @ DRIVER MODE: Received positions

     Self-consistent Calculation

     iteration #  1     ecut=    29.40 Ry     beta= 0.05
     Davidson diagonalization with overlap
     c_bands:  1 eigenvalues not converged
     c_bands:  1 eigenvalues not converged
     ethr =  1.00E-05,  avg # of iterations = 16.8

[...]

     total energy              =   -2758.77130382 Ry
     estimated scf accuracy    <    1760.51882837 Ry

     iteration #  2     ecut=    29.40 Ry     beta= 0.05
     Davidson diagonalization with overlap
     ethr =  1.00E-02,  avg # of iterations = 18.5

[...]

     iteration # 55     ecut=    29.40 Ry     beta= 0.05
     Davidson diagonalization with overlap
     c_bands:  1 eigenvalues not converged
     ethr =  2.32E-11,  avg # of iterations = 16.9

[...]

     total energy              =   -2919.11579394 Ry
     estimated scf accuracy    <       0.00000010 Ry

     iteration # 56     ecut=    29.40 Ry     beta= 0.05
     Davidson diagonalization with overlap
     ethr =  2.32E-11,  avg # of iterations =  8.6

     negative rho (up, down):  1.721E-02 0.000E+00

     Adding external electric field

     Computed dipole along edir(3) :
        Dipole                1.2612 Ry au,          3.2056 Debye
        Dipole field          0.0024 Ry au,

        Potential amp.       -0.2206 Ry
        Total length         46.3494 bohr

     End of self-consistent calculation

          k = 0.0000 0.0000 0.0000 ( 18029 PWs)   bands (ev):

   -55.5455 -55.5088 -55.5070 -55.4729 -55.4376 -55.4208 -55.3832 -55.3605
   -55.3604 -55.3355 -55.3260 -55.3125 -55.3021 -55.1305 -54.5275 -54.4934
   -32.1121 -31.9978 -31.9083 -31.8666 -31.8603 -31.8497 -31.8404 -31.8356
   -31.7967 -31.7852 -31.7537 -31.7519 -31.7515 -31.7164 -31.6988 -31.6807
   -31.6754 -31.6675 -31.6614 -31.6575 -31.6193 -31.6161 -31.6009 -31.5906
   -31.5641 -31.5625 -31.5610 -31.5523 -31.5477 -31.5420 -31.5318 -31.5235
   -31.5138 -31.5129 -31.5094 -31.4816 -31.4748 -31.4689 -31.4640 -31.4453
   -31.3540 -31.2716 -30.9365 -30.8432 -30.8211 -30.7529 -30.6662 -30.5553
   -16.5383 -16.3409 -16.0749 -15.8982 -15.7947 -15.7342 -15.5980 -15.5221
   -15.4444 -15.3418 -15.2514 -15.1848 -15.1687 -15.1481 -15.1433 -15.0823
   -15.0787 -15.0549 -15.0372 -15.0357 -14.9814 -14.9738 -14.9421 -14.9300
   -14.9190 -14.8464 -14.7627 -14.6938 -14.6334 -14.2074 -13.0302 -12.9129
    -9.2909  -6.2625  -4.6846  -3.6999  -3.5467  -3.4522  -3.4410  -3.4191
    -3.2710  -3.1331  -2.9271  -2.8460  -2.8002  -2.7508  -2.7229  -2.7050
    -2.6205  -2.5199  -2.4449  -2.4004  -2.3752  -2.3613  -2.3511  -2.3241
    -2.3127  -2.2788  -2.2398  -2.1994  -2.0936  -2.0058  -1.9654  -1.9299
    -1.8733  -1.8627  -1.8355  -1.8290  -1.8223  -1.8006  -1.7624  -1.7526
    -1.7052  -1.5638  -1.5525  -1.4350  -1.3968  -1.2858  -1.1843  -1.1794
    -1.0928  -1.0897  -1.0212  -0.9674  -0.9367  -0.9282  -0.8778  -0.8300
    -0.7400  -0.6466  -0.5854  -0.5432  -0.5085  -0.4796  -0.4125  -0.3211
    -0.3158  -0.3052  -0.2034  -0.1240  -0.1016  -0.0489  -0.0165   0.0266
     0.0428   0.1531   0.1956   0.2374   0.2556   0.3342   0.3562   0.4117
     0.4170   0.4522   0.4611   0.5265   0.5744   0.5939   0.6432   0.6627
     0.8209   1.0738   1.0807   1.1277   1.4040   1.4339   1.4950   1.6799
     2.0704   2.1182   3.5543   3.6267   3.6918   3.7045   3.7461   3.7911
     3.9582   4.0389   4.0554   4.0596   4.0912

[...]

          k = 0.0380-0.0419 0.0000 ( 17876 PWs)   bands (ev):

[...]

          k =-0.0760-0.0000 0.0000 ( 17886 PWs)   bands (ev):

[...]

          k =-0.0760-0.0839 0.0000 ( 17948 PWs)   bands (ev):

   -55.5309 -55.5232 -55.4899 -55.4898 -55.4335 -55.4097 -55.3942 -55.3643
   -55.3443 -55.3416 -55.3194 -55.3186 -55.3108 -55.1322 -54.5104 -54.5104
   -31.9185 -31.9134 -31.8293 -31.8129 -31.8129 -31.8046 -31.7821 -31.7820
   -31.7588 -31.7520 -31.7448 -31.7429 -31.7377 -31.6995 -31.6779 -31.6746
   -31.6705 -31.6661 -31.6622 -31.6575 -31.6527 -31.6336 -31.6195 -31.6191
   -31.6094 -31.6093 -31.6068 -31.5895 -31.5771 -31.5741 -31.5635 -31.5576
   -31.5549 -31.5537 -31.5440 -31.5437 -31.5113 -31.4989 -31.4980 -31.4865
   -31.3588 -31.3531 -30.8338 -30.8338 -30.7491 -30.7490 -30.7096 -30.7096
   -16.5144 -15.7798 -15.7461 -15.7303 -15.5265 -15.5182 -15.5105 -15.4925
   -15.3321 -15.3186 -15.2916 -15.2757 -15.2438 -15.2403 -15.2106 -15.1775
   -15.1244 -15.1200 -15.1117 -15.1094 -15.0495 -15.0453 -15.0250 -14.9963
   -14.9943 -14.9883 -14.8934 -14.8915 -14.7197 -14.5276 -13.0144 -13.0144
    -9.2952  -6.2582  -4.6669  -3.0547  -2.9934  -2.9331  -2.7359  -2.7326
    -2.7017  -2.6193  -2.5501  -2.5379  -2.5115  -2.4832  -2.4805  -2.4325
    -2.3881  -2.3786  -2.3672  -2.3602  -2.3417  -2.3278  -2.2987  -2.2619
    -2.2531  -2.2223  -2.2077  -2.1836  -2.1819  -2.1456  -2.1217  -2.1073
    -2.0955  -2.0365  -1.9331  -1.8806  -1.7945  -1.7691  -1.7391  -1.7330
    -1.6504  -1.6242  -1.5966  -1.5565  -1.5438  -1.5096  -1.3070  -1.2770
    -1.2677  -1.2537  -1.2306  -1.0801  -1.0707  -1.0207  -0.9894  -0.9427
    -0.8845  -0.8486  -0.8347  -0.7521  -0.7210  -0.6769  -0.6376  -0.5146
    -0.5106  -0.5033  -0.5017  -0.4837  -0.3973  -0.3854  -0.3423  -0.3089
    -0.2680  -0.2537  -0.1887  -0.0067   0.0099   0.0760   0.1831   0.2768
     0.3716   0.4509   0.4706   0.5218   0.5647   0.5852   0.6642   0.7575
     0.7693   0.8369   0.8832   0.9246   0.9288   0.9339   1.8529   1.8535
     1.9381   1.9383   3.6772   3.8025   3.8227   3.8609   3.8789   4.0281
     4.0739   4.1116   4.1337   4.1359   4.2162

     the Fermi energy is     3.6096 ev

!    total energy              =   -2919.11586239 Ry
     estimated scf accuracy    <       0.00000006 Ry
     smearing contrib. (-TS)   =      -0.03731914 Ry
     internal energy E=F+TS    =   -2919.07854325 Ry

     The total energy is F=E-TS. E is the sum of the following terms:
     one-electron contribution =  -24307.22242871 Ry
     hartree contribution      =   12241.02197351 Ry
     xc contribution           =    -480.01154656 Ry
     ewald contribution        =    9627.13045683 Ry
     electric field correction =       0.00300168 Ry

     convergence has been achieved in  56 iterations

     Forces acting on atoms (cartesian axes, Ry/au):

     atom    1 type  1   force =     0.00004905   -0.00015333    0.09380121
     atom    2 type  1   force =    -0.00018482   -0.00018742   -0.17779995
     atom    3 type  2   force =     0.00002683   -0.00021507   -0.02112663
     atom    4 type  2   force =    -0.00001664   -0.00198911    0.05774258
     atom    5 type  2   force =    -0.01108192   -0.00165311    0.00749719
     atom    6 type  2   force =     0.01244478   -0.00098536    0.00637941
     atom    7 type  1   force =    -0.00048241    0.00247940   -0.01335357
     atom    8 type  1   force =     0.00030666    0.00291991    0.00274081
     atom    9 type  2   force =     0.00007659   -0.00007659    0.00013864
     atom   10 type  2   force =    -0.00176515   -0.00226887   -0.00366324
     atom   11 type  2   force =     0.00015519    0.00059722   -0.00027602
     atom   12 type  2   force =     0.00045851    0.00053324   -0.00009397
     atom   13 type  1   force =    -0.00072967   -0.00094297   -0.00032307
     atom   14 type  1   force =     0.00082940    0.00026544   -0.00050481
     atom   15 type  2   force =     0.00026825    0.00016490   -0.00001674
     atom   16 type  2   force =    -0.00008267    0.00033705   -0.00062684
     atom   17 type  2   force =    -0.00001987    0.00007170    0.00022810
     atom   18 type  2   force =     0.00054077    0.00000002    0.00019535
     atom   19 type  1   force =     0.00027559   -0.00103222    0.00037755
     atom   20 type  1   force =    -0.00021082    0.00058466    0.00043167
     atom   21 type  2   force =     0.00004423   -0.00002499    0.10383885
     atom   22 type  2   force =     0.00002056   -0.00068101    0.00010802
     atom   23 type  2   force =    -0.07058018   -0.00014472   -0.02707282
     atom   24 type  2   force =     0.07046084    0.00031974   -0.02711972
     atom   25 type  1   force =     0.00008667   -0.00018726    0.09359748
     atom   26 type  1   force =    -0.00009753   -0.00026799   -0.17783625
     atom   27 type  2   force =     0.00008353   -0.00045822   -0.02015198
     atom   28 type  2   force =     0.00002430   -0.00169492    0.05723555
     atom   29 type  2   force =    -0.01117469   -0.00114739    0.00695829
     atom   30 type  2   force =     0.01242632   -0.00080630    0.00582058
     atom   31 type  1   force =    -0.00039772    0.00468743   -0.01443405
     atom   32 type  1   force =     0.00037368   -0.00360040    0.00245754
     atom   33 type  2   force =    -0.00000418    0.00057461    0.00040295
     atom   34 type  2   force =    -0.00117697   -0.00059595   -0.00105135
     atom   35 type  2   force =     0.00038189    0.00025465    0.00021314
     atom   36 type  2   force =     0.00015293    0.00032797    0.00018383
     atom   37 type  1   force =    -0.00053559    0.00132408    0.00007859
     atom   38 type  1   force =     0.00086882    0.00007769   -0.00086727
     atom   39 type  2   force =     0.00012477    0.00046493    0.00033246
     atom   40 type  2   force =     0.00017728    0.00020445   -0.00053446
     atom   41 type  2   force =     0.00025889    0.00010444   -0.00067926
     atom   42 type  2   force =    -0.00009622    0.00005325   -0.00072703
     atom   43 type  1   force =     0.00000743    0.00112432    0.00011190
     atom   44 type  1   force =    -0.00011297    0.00033876   -0.00080630
     atom   45 type  2   force =     0.00004574   -0.00004236    0.10380567
     atom   46 type  2   force =    -0.07059695   -0.00007296   -0.02706773
     atom   47 type  2   force =     0.07047340    0.00034493   -0.02709949
     atom   48 type  3   force =    -0.00640288    0.00413159    0.00080108
     atom   49 type  4   force =    -0.00143879    0.00033062   -0.00002494
     atom   50 type  5   force =    -0.00003107    0.00151519    0.00023452
     atom   51 type  5   force =    -0.00027622   -0.00035615    0.00045181
     atom   52 type  5   force =     0.00605304   -0.00454752   -0.00290732

     Total force =     0.366087     Total SCF correction =     0.000632
  @ DRIVER MODE: Message from server: STATUS
  @ DRIVER MODE: Message from server: GETFORCE
  @ DRIVER MODE: Returning v,forces,stress,ensemble

     Writing output data file ./calc.save/
  @ DRIVER MODE: Message from server: EXIT
  @ DRIVE MODE: Exiting

     General routines

     Parallel routines

   This run was terminated on:   6:26:55   9Sep2021

   JOB DONE.