     Program PWSCF v.6.7GPU starts on  9Sep2021 at 11:26:19

     R & G space division:  proc/nbgrp/npool/nimage =      10
     Reading input from /storage/home/hcoda1/3/ntian30/research/carbon/CxH_vib/CH3_calc/ads_slab/CH3NHNH2_a/out_0042/pw.inp
Warning: card &CELL ignored
Warning: card   CELL_DYNAMICS='IPI', ignored
Warning: card / ignored

     Current dimensions of program PWSCF are:
     Max number of different atomic species (ntypx) = 10
     Max number of k-points (npk) =  40000
     Max angular momentum in pseudopotentials (lmaxx) =  3
     Presently no symmetry can be used with electric field

     Message from routine cell_base_init:
     DEPRECATED: use true lattice parameter, not A to a.u. conversion factor

     IMPORTANT: XC functional enforced from input :
     Exchange-correlation= BEEF-VDW
                           (   1   4  43  14   2   0   0)
     Any further DFT definition will be discarded
     Please, verify this is what you really want

  @ DRIVER MODE: Connecting to
 qe_1139763_2767398.sched-torque.pace.gatech.eduk1scxrg8_scratch
  using UNIX socket
  @ DRIVER MODE: Message from server: STATUS
  @ DRIVER MODE: Message from server: INIT
  @ DRIVER MODE: Receiving replica           0          -1
  @ DRIVER MODE: Receiving encoded integer          25
  @ DRIVER MODE:  SCF:  T  FORCE:  T  STRESS:  F  VC:  F  ENSEMBLE:  F
  @ DRIVER MODE:  SCF:  T  FORCE:  T  STRESS:  F  VC:  F  ENSEMBLE:  F

     Using Slab Decomposition

     bravais-lattice index     =            0
     lattice parameter (alat)  =       1.8897  a.u.
     unit-cell volume          =    6658.9804 (a.u.)^3
     number of atoms/cell      =           56
     number of atomic types    =            5
     number of electrons       =       398.00
     number of Kohn-Sham states=          209
     kinetic-energy cutoff     =      29.3995  Ry
     charge density cutoff     =     293.9946  Ry
     scf convergence threshold =      7.3E-08
     mixing beta               =       0.0500
     number of iterations used =            8  plain     mixing
     Exchange-correlation= BEEF-VDW
                           (   1   4  43  14   2   0   0)

     celldm(1)=   1.889726  celldm(2)=   0.000000  celldm(3)=   0.000000
     celldm(4)=   0.000000  celldm(5)=   0.000000  celldm(6)=   0.000000

     crystal axes: (cart. coord. in units of alat)
               a(1) = (   6.579727   0.000000   0.000000 )
               a(2) = (  -0.000775   5.961596   0.000000 )
               a(3) = (   0.000000   0.000000  25.155947 )

     reciprocal axes: (cart. coord. in units 2 pi/alat)
               b(1) = (  0.151982  0.000020  0.000000 )
               b(2) = (  0.000000  0.167740  0.000000 )
               b(3) = (  0.000000  0.000000  0.039752 )

     PseudoPot. # 1 for Ti read from file:
     /storage/coda1/p-amedford6/0/shared/rich_project_chbe-medford/medford-share/data/pseudos_module/espresso/nninc/pbe/van/Ti.UPF
     MD5 check sum: 8e4df49b7f0d34bbd5052bf3f5ea0213
     Pseudo is Ultrasoft, Zval = 12.0
     Generated by new atomic code, or converted to UPF format
     Using radial grid of  851 points,  6 beta functions with:
                l(1) =   0
                l(2) =   0
                l(3) =   1
                l(4) =   1
                l(5) =   2
                l(6) =   2
     Q(r) pseudized with  8 coefficients,  rinner =    1.000   1.000   1.000
                                                       1.000   1.000

     PseudoPot. # 2 for O  read from file:
     /storage/coda1/p-amedford6/0/shared/rich_project_chbe-medford/medford-share/data/pseudos_module/espresso/nninc/pbe/van/O.UPF
     MD5 check sum: 78c19812648e8988a0fe644b0f25305e
     Pseudo is Ultrasoft, Zval =  6.0
     Generated by new atomic code, or converted to UPF format
     Using radial grid of  737 points,  4 beta functions with:
                l(1) =   0
                l(2) =   0
                l(3) =   1
                l(4) =   1
     Q(r) pseudized with  8 coefficients,  rinner =    0.800   0.800   0.800

     PseudoPot. # 3 for N  read from file:
     /storage/coda1/p-amedford6/0/shared/rich_project_chbe-medford/medford-share/data/pseudos_module/espresso/nninc/pbe/van/N.UPF
     MD5 check sum: 90d10febe142ad51ac9d5be1deb811c4
     Pseudo is Ultrasoft, Zval =  5.0
     Generated by new atomic code, or converted to UPF format
     Using radial grid of  729 points,  4 beta functions with:
                l(1) =   0
                l(2) =   0
                l(3) =   1
                l(4) =   1
     Q(r) pseudized with  8 coefficients,  rinner =    0.800   0.800   0.800

     PseudoPot. # 4 for C  read from file:
     /storage/coda1/p-amedford6/0/shared/rich_project_chbe-medford/medford-share/data/pseudos_module/espresso/nninc/pbe/van/C.UPF
     MD5 check sum: 1a69bf6b8db32088f5b2163dbdb77a27
     Pseudo is Ultrasoft, Zval =  4.0
     Generated by new atomic code, or converted to UPF format
     Using radial grid of  721 points,  4 beta functions with:
                l(1) =   0
                l(2) =   0
                l(3) =   1
                l(4) =   1
     Q(r) pseudized with  8 coefficients,  rinner =    0.800   0.800   0.800

     PseudoPot. # 5 for H  read from file:
     /storage/coda1/p-amedford6/0/shared/rich_project_chbe-medford/medford-share/data/pseudos_module/espresso/nninc/pbe/van/H.UPF
     MD5 check sum: b5ee9d7bfd3a09ee7748110bda690ff7
     Pseudo is Ultrasoft, Zval =  1.0
     Generated by new atomic code, or converted to UPF format
     Using radial grid of  615 points,  1 beta functions with:
                l(1) =   0
     Q(r) pseudized with  8 coefficients,  rinner =    0.800

     atomic species   valence    mass     pseudopotential
        Ti1           12.00    47.86700     Ti( 1.00)
        O1             6.00    15.99900     O ( 1.00)
        N1             5.00    14.00700     N ( 1.00)
        C1             4.00    12.01100     C ( 1.00)
        H1             1.00     1.00800     H ( 1.00)

     No symmetry found

   Cartesian axes

     site n.     atom                  positions (alat units)
         1           Ti1 tau(   1) = (   0.0004258   2.9801865   6.0000000  )
         2           Ti1 tau(   2) = (   3.2906075   1.4906267   6.0002472  )
         3           O1  tau(   3) = (   0.0006271   0.0005054   7.9858123  )
         4           O1  tau(   4) = (   3.2906025   0.0005020   7.3038282  )
         5           O1  tau(   5) = (   4.5942328   1.4918067   9.2879030  )
         6           O1  tau(   6) = (   1.9868534   1.4903216   9.2879459  )
         7           Ti1 tau(   7) = (   3.2907910   2.8959150   9.1758416  )
         8           Ti1 tau(   8) = (   0.0015273   1.4827037   9.2680791  )
         9           O1  tau(   9) = (   3.2714441   0.0289406  11.3813764  )
        10           O1  tau(  10) = (   0.0116148   5.9584955  10.6183126  )
        11           O1  tau(  11) = (   1.2692032   1.5162281  12.7122965  )
        12           O1  tau(  12) = (   5.2779133   1.5159715  12.6811497  )
        13           Ti1 tau(  13) = (   6.5579218   3.0031650  12.5037829  )
        14           Ti1 tau(  14) = (   3.2791490   1.5128154  12.5375672  )
        15           O1  tau(  15) = (   6.5208524   5.8954130  14.6845636  )
        16           O1  tau(  16) = (   3.2849572   0.0099931  14.0031570  )
        17           O1  tau(  17) = (   4.4884262   1.5607690  16.1641467  )
        18           O1  tau(  18) = (   1.9729656   1.5430890  16.0903287  )
        19           Ti1 tau(  19) = (   3.2372663   3.0309179  15.7728032  )
        20           Ti1 tau(  20) = (   6.5553692   1.3539605  15.8053163  )
        21           O1  tau(  21) = (   3.2904802   0.0005063   4.7018136  )
        22           O1  tau(  22) = (   6.5123495   0.2165906  17.2215032  )
        23           O1  tau(  23) = (   1.3043587   1.4918075   6.0039043  )
        24           O1  tau(  24) = (   5.2767064   1.4903225   6.0039473  )
        25           Ti1 tau(  25) = (   0.0000382   5.9609847   6.0000000  )
        26           Ti1 tau(  26) = (   3.2902200   4.4714249   6.0002472  )
        27           O1  tau(  27) = (   0.0002396   2.9813036   7.9858123  )
        28           O1  tau(  28) = (   3.2902150   2.9813002   7.3038282  )
        29           O1  tau(  29) = (   4.5938453   4.4726049   9.2879030  )
        30           O1  tau(  30) = (   1.9864658   4.4711199   9.2879459  )
        31           Ti1 tau(  31) = (   3.2891106   5.8743827   9.1763621  )
        32           Ti1 tau(  32) = (   0.0006254   4.4649316   9.2693709  )
        33           O1  tau(  33) = (   3.2699379   2.9911670  11.3762017  )
        34           O1  tau(  34) = (   0.0092240   2.9805883  10.6323155  )
        35           O1  tau(  35) = (   1.2730946   4.4825978  12.6662957  )
        36           O1  tau(  36) = (   5.2742290   4.4829497  12.6320226  )
        37           Ti1 tau(  37) = (   6.5783117   0.0079037  12.5026730  )
        38           Ti1 tau(  38) = (   3.2784283   4.4905194  12.5286134  )
        39           O1  tau(  39) = (   6.5033290   3.0824797  14.9867588  )
        40           O1  tau(  40) = (   3.2824109   3.0350539  13.9807796  )
        41           O1  tau(  41) = (   4.4804250   4.5097483  16.2808085  )
        42           O1  tau(  42) = (   1.9642025   4.5165872  16.2225063  )
        43           Ti1 tau(  43) = (   3.2609991   0.0502580  15.7998297  )
        44           Ti1 tau(  44) = (   6.5501253   4.5826093  16.0954727  )
        45           O1  tau(  45) = (   3.2900926   2.9813045   4.7018136  )
        46           O1  tau(  46) = (   1.3039711   4.4726057   6.0039043  )
        47           O1  tau(  47) = (   5.2763189   4.4711207   6.0039473  )
        48           N1  tau(  48) = (   0.8845045   3.2634721  19.1145209  )
        49           N1  tau(  49) = (   6.3504243   3.3997271  18.1887592  )
        50           C1  tau(  50) = (   1.2927081   4.5631590  19.6429350  )
        51           H1  tau(  51) = (   0.4658632   5.1229972  20.1056819  )
        52           H1  tau(  52) = (   2.0600825   4.3818216  20.3958833  )
        53           H1  tau(  53) = (   1.7018904   5.1738364  18.8453250  )
        54           H1  tau(  54) = (   0.5628611   2.6866381  19.8988112  )
        55           H1  tau(  55) = (   5.6051421   3.9827062  18.5884547  )
        56           H1  tau(  56) = (   5.9567982   2.4624696  18.0937858  )

     number of k points=    10  Fermi-Dirac smearing, width (Ry)=  0.0073
                       cart. coord. in units 2pi/alat
        k(    1) = (   0.0000000   0.0000000   0.0000000), wk =   0.1250000
        k(    2) = (   0.0000000   0.0419351   0.0000000), wk =   0.2500000
        k(    3) = (   0.0000000  -0.0838702   0.0000000), wk =   0.1250000
        k(    4) = (   0.0379955   0.0000049   0.0000000), wk =   0.2500000
        k(    5) = (   0.0379955   0.0419400   0.0000000), wk =   0.2500000
        k(    6) = (   0.0379955  -0.0838652   0.0000000), wk =   0.2500000
        k(    7) = (   0.0379955  -0.0419301   0.0000000), wk =   0.2500000
        k(    8) = (  -0.0759910  -0.0000099   0.0000000), wk =   0.1250000
        k(    9) = (  -0.0759910   0.0419252   0.0000000), wk =   0.2500000
        k(   10) = (  -0.0759910  -0.0838800   0.0000000), wk =   0.1250000

     Initial potential from superposition of free atoms

     starting charge  381.99914, renormalised to  398.00000

     negative rho (up, down):  1.415E-02 0.000E+00

     %%%%%%%%%%%%%%%%%%%%%%%%%%%%%%%%%%%%%%%%%%%%%%%%%%%%%%%%%%%%%%%%%%%%%%%%
     %                                                                      %
     % You are using vdW-DF, which was implemented by the Thonhauser group. %
     % Please cite the following two papers that made this development      %
     % possible and the two reviews that describe the various versions:     %
     %                                                                      %
     %   T. Thonhauser et al., PRL 115, 136402 (2015).                      %
     %   T. Thonhauser et al., PRB 76, 125112 (2007).                       %
     %   K. Berland et al., Rep. Prog. Phys. 78, 066501 (2015).             %
     %   D.C. Langreth et al., J. Phys.: Condens. Matter 21, 084203 (2009). %
     %                                                                      %
     %                                                                      %
     % If you are calculating the stress with vdW-DF, please also cite:     %
     %                                                                      %
     %   R. Sabatini et al., J. Phys.: Condens. Matter 24, 424209 (2012).   %
     %                                                                      %
     %%%%%%%%%%%%%%%%%%%%%%%%%%%%%%%%%%%%%%%%%%%%%%%%%%%%%%%%%%%%%%%%%%%%%%%%

     Adding external electric field

     Computed dipole along edir(3) :
        Dipole              -11.7179 Ry au,        -29.7838 Debye
        Dipole field         -0.0221 Ry au,

        Potential amp.        2.0499 Ry
        Total length         46.3494 bohr

     Starting wfcs are  302 atomic wfcs
  @ DRIVER MODE: Message from server: STATUS
  @ DRIVER MODE: Message from server: POSDATA
  @ DRIVER MODE: Reading and sharing cell
  @ DRIVER MODE: Reading and sharing positions
  @ DRIVER MODE: Received positions

     Self-consistent Calculation

     iteration #  1     ecut=    29.40 Ry     beta= 0.05
     Davidson diagonalization with overlap
     c_bands:  3 eigenvalues not converged
     c_bands:  1 eigenvalues not converged
     c_bands:  1 eigenvalues not converged
     c_bands:  4 eigenvalues not converged
     c_bands:  1 eigenvalues not converged
     c_bands:  4 eigenvalues not converged
     c_bands:  5 eigenvalues not converged
     c_bands:  2 eigenvalues not converged
     ethr =  1.00E-05,  avg # of iterations = 21.9

[...]

     total energy              =   -2424.52230841 Ry
     estimated scf accuracy    <    5830.92359411 Ry

     iteration #  2     ecut=    29.40 Ry     beta= 0.05
     Davidson diagonalization with overlap
     ethr =  1.00E-02,  avg # of iterations = 22.6

[...]

     iteration # 70     ecut=    29.40 Ry     beta= 0.05
     Davidson diagonalization with overlap
     c_bands:  2 eigenvalues not converged
     ethr =  1.23E-10,  avg # of iterations = 15.0

[...]

     total energy              =   -2942.84382878 Ry
     estimated scf accuracy    <       0.00000013 Ry

     iteration # 73     ecut=    29.40 Ry     beta= 0.05
     Davidson diagonalization with overlap
     ethr =  3.23E-11,  avg # of iterations =  8.3

     negative rho (up, down):  1.511E-02 0.000E+00

     Adding external electric field

     Computed dipole along edir(3) :
        Dipole                1.4956 Ry au,          3.8015 Debye
        Dipole field          0.0028 Ry au,

        Potential amp.       -0.2616 Ry
        Total length         46.3494 bohr

     End of self-consistent calculation

          k = 0.0000 0.0000 0.0000 ( 18029 PWs)   bands (ev):

   -55.2021 -55.1649 -55.1541 -55.1253 -55.1200 -55.0833 -55.0804 -55.0455
   -55.0261 -55.0132 -54.9917 -54.9869 -54.9533 -54.8565 -54.1867 -54.1526
   -31.7684 -31.6521 -31.6471 -31.5685 -31.5154 -31.5144 -31.5116 -31.4930
   -31.4430 -31.4396 -31.4118 -31.4096 -31.3991 -31.3823 -31.3693 -31.3635
   -31.3566 -31.3468 -31.3395 -31.3225 -31.3066 -31.3042 -31.2722 -31.2684
   -31.2579 -31.2569 -31.2384 -31.2288 -31.2112 -31.2108 -31.2064 -31.1858
   -31.1856 -31.1824 -31.1754 -31.1729 -31.1395 -31.1299 -31.1153 -31.0984
   -31.0697 -31.0504 -30.5962 -30.5015 -30.4794 -30.4125 -30.3257 -30.2148
   -17.9480 -16.0356 -15.7732 -15.6278 -15.5157 -15.4043 -15.2849 -15.2540
   -15.1344 -15.0583 -14.9242 -14.8979 -14.8754 -14.8520 -14.8401 -14.8274
   -14.7518 -14.7452 -14.7293 -14.7010 -14.6990 -14.6540 -14.6441 -14.6047
   -14.5797 -14.5584 -14.4539 -14.3657 -14.2916 -14.0747 -13.4349 -12.6893
   -12.5718  -9.6855  -6.5842  -6.0877  -4.5833  -3.3740  -3.2513  -3.2259
    -3.1384  -3.1041  -3.0964  -2.9969  -2.9486  -2.7923  -2.6497  -2.6238
    -2.4933  -2.4183  -2.4018  -2.3775  -2.2478  -2.2125  -2.1612  -2.1223
    -2.0631  -2.0327  -2.0088  -1.9932  -1.9621  -1.9530  -1.9279  -1.8386
    -1.7793  -1.6862  -1.6689  -1.6017  -1.5934  -1.5610  -1.5400  -1.4946
    -1.4842  -1.4345  -1.4273  -1.4147  -1.3949  -1.2660  -1.2234  -1.1135
    -1.0522  -0.9645  -0.8439  -0.8039  -0.7898  -0.6990  -0.6901  -0.6581
    -0.5817  -0.5787  -0.5480  -0.4398  -0.3747  -0.3111  -0.2522  -0.2257
    -0.1928  -0.1153  -0.0243   0.0116   0.0284   0.0516   0.1517   0.1866
     0.2424   0.3092   0.3207   0.3340   0.4138   0.4548   0.5300   0.5666
     0.5844   0.6729   0.6994   0.7271   0.7277   0.7656   0.7798   0.8195
     0.8681   0.8949   0.9814   1.0428   1.1024   1.3473   1.3999   1.4057
     1.7318   1.7396   1.8361   2.0196   2.4125   2.4609   3.8944   3.9631
     4.0388   4.0439   4.0664   4.1302   4.3680   4.3910   4.4000   4.4022
     4.4288

[...]

          k = 0.0380-0.0419 0.0000 ( 17876 PWs)   bands (ev):

[...]

          k =-0.0760-0.0000 0.0000 ( 17886 PWs)   bands (ev):

[...]

          k =-0.0760-0.0839 0.0000 ( 17948 PWs)   bands (ev):

   -55.1884 -55.1785 -55.1372 -55.1368 -55.1239 -55.0790 -55.0659 -55.0599
   -55.0175 -55.0102 -55.0071 -54.9704 -54.9699 -54.8576 -54.1697 -54.1695
   -31.5766 -31.5756 -31.5688 -31.4840 -31.4622 -31.4620 -31.4591 -31.4283
   -31.4282 -31.4130 -31.4022 -31.4006 -31.3918 -31.3660 -31.3568 -31.3440
   -31.3428 -31.3390 -31.3358 -31.3301 -31.3283 -31.3224 -31.2833 -31.2800
   -31.2798 -31.2783 -31.2607 -31.2593 -31.2568 -31.2564 -31.2520 -31.2433
   -31.2404 -31.2234 -31.2201 -31.2042 -31.2034 -31.2006 -31.1512 -31.1508
   -31.1262 -31.0742 -30.4922 -30.4920 -30.4087 -30.4086 -30.3691 -30.3691
   -17.9447 -15.5606 -15.4306 -15.4014 -15.2451 -15.2090 -15.1755 -15.1622
   -15.0413 -15.0039 -14.9792 -14.9700 -14.9523 -14.9119 -14.9063 -14.8994
   -14.8289 -14.8097 -14.8054 -14.7831 -14.7249 -14.7160 -14.7121 -14.7045
   -14.6539 -14.6503 -14.5697 -14.5596 -14.5563 -14.3760 -13.4382 -12.6732
   -12.6732  -9.7016  -6.5686  -6.0881  -4.5621  -3.2227  -2.9504  -2.6930
    -2.6878  -2.6601  -2.4590  -2.3963  -2.3656  -2.3599  -2.2628  -2.2262
    -2.2017  -2.1981  -2.1325  -2.1181  -2.0872  -2.0573  -2.0411  -2.0272
    -2.0112  -1.9971  -1.9720  -1.9345  -1.9264  -1.9180  -1.8858  -1.8646
    -1.8416  -1.8192  -1.8058  -1.7873  -1.7614  -1.7388  -1.6022  -1.5706
    -1.5002  -1.4565  -1.4138  -1.4095  -1.3378  -1.3013  -1.2511  -1.2389
    -1.2218  -1.0819  -1.0237  -0.9729  -0.9530  -0.9420  -0.8129  -0.7989
    -0.7256  -0.7082  -0.6919  -0.6165  -0.5662  -0.5280  -0.5144  -0.4212
    -0.4056  -0.3393  -0.2372  -0.2144  -0.2005  -0.1598  -0.1568  -0.1097
    -0.1026  -0.0184   0.0258   0.0608   0.0716   0.1074   0.3004   0.3164
     0.3264   0.4794   0.4954   0.6369   0.6804   0.7470   0.8059   0.8448
     0.9063   0.9436   1.0525   1.0860   1.1013   1.1092   1.1710   1.1830
     1.2457   1.2564   2.1922   2.1928   2.2808   2.2811   4.0403   4.1477
     4.1553   4.1970   4.3169   4.3472   4.4094   4.4366   4.4783   4.4814
     4.5418

     the Fermi energy is     3.9577 ev

!    total energy              =   -2942.84386006 Ry
     estimated scf accuracy    <       0.00000007 Ry
     smearing contrib. (-TS)   =      -0.03707809 Ry
     internal energy E=F+TS    =   -2942.80678196 Ry

     The total energy is F=E-TS. E is the sum of the following terms:
     one-electron contribution =  -23366.21328592 Ry
     hartree contribution      =   11777.27905726 Ry
     xc contribution           =    -487.73434182 Ry
     ewald contribution        =    9133.85756726 Ry
     electric field correction =       0.00422125 Ry

     convergence has been achieved in  73 iterations

     Forces acting on atoms (cartesian axes, Ry/au):

     atom    1 type  1   force =     0.00017853   -0.00033429    0.09329815
     atom    2 type  1   force =    -0.00007019   -0.00042636   -0.17820336
     atom    3 type  2   force =     0.00002698   -0.00032081   -0.02003191
     atom    4 type  2   force =     0.00002118   -0.00182777    0.05925115
     atom    5 type  2   force =    -0.01046520   -0.00026305    0.00864178
     atom    6 type  2   force =     0.01147923    0.00040913    0.00645466
     atom    7 type  1   force =    -0.00099948    0.00213213   -0.01399621
     atom    8 type  1   force =     0.00081715   -0.00094257   -0.00573176
     atom    9 type  2   force =    -0.00010193    0.00012623   -0.00000462
     atom   10 type  2   force =    -0.00185343    0.00411451    0.00026808
     atom   11 type  2   force =    -0.00006936   -0.00065027    0.00027729
     atom   12 type  2   force =    -0.00000878   -0.00042015    0.00053572
     atom   13 type  1   force =     0.00004256    0.00009564    0.00032217
     atom   14 type  1   force =    -0.00038083    0.00000279    0.00007195
     atom   15 type  2   force =     0.00051947    0.00020718   -0.00031201
     atom   16 type  2   force =     0.00032214   -0.00035569   -0.00007622
     atom   17 type  2   force =    -0.00059498   -0.00001795   -0.00003107
     atom   18 type  2   force =     0.00055487   -0.00018869   -0.00000852
     atom   19 type  1   force =    -0.00003132   -0.00054773    0.00022989
     atom   20 type  1   force =     0.00071018    0.00007026    0.00097308
     atom   21 type  2   force =     0.00012173   -0.00012306    0.10402118
     atom   22 type  2   force =    -0.00040822    0.00018176   -0.00036366
     atom   23 type  2   force =    -0.07026552   -0.00022476   -0.02686726
     atom   24 type  2   force =     0.07025662    0.00021684   -0.02689455
     atom   25 type  1   force =     0.00008225   -0.00031497    0.09262754
     atom   26 type  1   force =    -0.00003488   -0.00059295   -0.17833458
     atom   27 type  2   force =     0.00012936   -0.00016662   -0.01908240
     atom   28 type  2   force =     0.00005099   -0.00163703    0.05861197
     atom   29 type  2   force =    -0.01106801   -0.00055860    0.00932262
     atom   30 type  2   force =     0.01198661   -0.00002099    0.00721149
     atom   31 type  1   force =    -0.00092824    0.00647065   -0.01506437
     atom   32 type  1   force =     0.00086113    0.00100980   -0.00586379
     atom   33 type  2   force =     0.00017497   -0.00057571   -0.00004012
     atom   34 type  2   force =    -0.00185981   -0.00052195   -0.00049849
     atom   35 type  2   force =    -0.00045663    0.00006823   -0.00044096
     atom   36 type  2   force =     0.00035538   -0.00011339    0.00017962
     atom   37 type  1   force =    -0.00051223   -0.00025852    0.00019383
     atom   38 type  1   force =    -0.00004599   -0.00014574   -0.00009558
     atom   39 type  2   force =     0.00029811   -0.00058602    0.00002152
     atom   40 type  2   force =    -0.00060307   -0.00050804    0.00024884
     atom   41 type  2   force =    -0.00021384   -0.00074549   -0.00069333
     atom   42 type  2   force =     0.00046845   -0.00010309   -0.00012754
     atom   43 type  1   force =     0.00022458   -0.00020267   -0.00016141
     atom   44 type  1   force =     0.00056594    0.00014896    0.00077066
     atom   45 type  2   force =     0.00013635   -0.00014130    0.10397646
     atom   46 type  2   force =    -0.07027248   -0.00015615   -0.02683967
     atom   47 type  2   force =     0.07024469    0.00026640   -0.02689790
     atom   48 type  3   force =    -0.00164561   -0.00474239    0.00851998
     atom   49 type  3   force =    -0.00017496   -0.00129470    0.00104714
     atom   50 type  4   force =     0.00048965   -0.00097622   -0.00023493
     atom   51 type  5   force =    -0.00070018    0.00149598    0.00063833
     atom   52 type  5   force =     0.00034993   -0.00027659   -0.00021658
     atom   53 type  5   force =     0.00081654    0.00051286   -0.00123967
     atom   54 type  5   force =     0.00246550    0.00402483   -0.00887220
     atom   55 type  5   force =     0.00003980   -0.00053663   -0.00023400
     atom   56 type  5   force =    -0.00102569    0.00026475   -0.00025643

     Total force =     0.366576     Total SCF correction =     0.000501
  @ DRIVER MODE: Message from server: STATUS
  @ DRIVER MODE: Message from server: GETFORCE
  @ DRIVER MODE: Returning v,forces,stress,ensemble

     Writing output data file ./calc.save/
  @ DRIVER MODE: Message from server: EXIT
  @ DRIVE MODE: Exiting

     General routines

     Parallel routines

   This run was terminated on:  11:45:34   9Sep2021

   JOB DONE.