     Program PWSCF v.6.7GPU starts on 16Sep2021 at  2:17: 0

     R & G space division:  proc/nbgrp/npool/nimage =      10
     Reading input from /storage/home/hcoda1/3/ntian30/research/carbon/CxH_vib/H2O_calc/ads_slab/CH3NHH2O_a/out_0034/pw.inp
Warning: card &CELL ignored
Warning: card   CELL_DYNAMICS='IPI', ignored
Warning: card / ignored

     Current dimensions of program PWSCF are:
     Max number of different atomic species (ntypx) = 10
     Max number of k-points (npk) =  40000
     Max angular momentum in pseudopotentials (lmaxx) =  3
     Presently no symmetry can be used with electric field

     Message from routine cell_base_init:
     DEPRECATED: use true lattice parameter, not A to a.u. conversion factor

     IMPORTANT: XC functional enforced from input :
     Exchange-correlation= BEEF-VDW
                           (   1   4  43  14   2   0   0)
     Any further DFT definition will be discarded
     Please, verify this is what you really want

  @ DRIVER MODE: Connecting to
 qe_1139763_2852633.sched-torque.pace.gatech.eduardlihe6_scratch
  using UNIX socket
  @ DRIVER MODE: Message from server: STATUS
  @ DRIVER MODE: Message from server: INIT
  @ DRIVER MODE: Receiving replica           0          -1
  @ DRIVER MODE: Receiving encoded integer          25
  @ DRIVER MODE:  SCF:  T  FORCE:  T  STRESS:  F  VC:  F  ENSEMBLE:  F
  @ DRIVER MODE:  SCF:  T  FORCE:  T  STRESS:  F  VC:  F  ENSEMBLE:  F

     Using Slab Decomposition

     bravais-lattice index     =            0
     lattice parameter (alat)  =       1.8897  a.u.
     unit-cell volume          =    6658.9804 (a.u.)^3
     number of atoms/cell      =           56
     number of atomic types    =            5
     number of electrons       =       399.00
     number of Kohn-Sham states=          209
     kinetic-energy cutoff     =      29.3995  Ry
     charge density cutoff     =     293.9946  Ry
     scf convergence threshold =      7.3E-08
     mixing beta               =       0.0500
     number of iterations used =            8  plain     mixing
     Exchange-correlation= BEEF-VDW
                           (   1   4  43  14   2   0   0)

     celldm(1)=   1.889726  celldm(2)=   0.000000  celldm(3)=   0.000000
     celldm(4)=   0.000000  celldm(5)=   0.000000  celldm(6)=   0.000000

     crystal axes: (cart. coord. in units of alat)
               a(1) = (   6.579727   0.000000   0.000000 )
               a(2) = (  -0.000775   5.961596   0.000000 )
               a(3) = (   0.000000   0.000000  25.155947 )

     reciprocal axes: (cart. coord. in units 2 pi/alat)
               b(1) = (  0.151982  0.000020  0.000000 )
               b(2) = (  0.000000  0.167740  0.000000 )
               b(3) = (  0.000000  0.000000  0.039752 )

     PseudoPot. # 1 for Ti read from file:
     /storage/coda1/p-amedford6/0/shared/rich_project_chbe-medford/medford-share/data/pseudos_module/espresso/nninc/pbe/van/Ti.UPF
     MD5 check sum: 8e4df49b7f0d34bbd5052bf3f5ea0213
     Pseudo is Ultrasoft, Zval = 12.0
     Generated by new atomic code, or converted to UPF format
     Using radial grid of  851 points,  6 beta functions with:
                l(1) =   0
                l(2) =   0
                l(3) =   1
                l(4) =   1
                l(5) =   2
                l(6) =   2
     Q(r) pseudized with  8 coefficients,  rinner =    1.000   1.000   1.000
                                                       1.000   1.000

     PseudoPot. # 2 for O  read from file:
     /storage/coda1/p-amedford6/0/shared/rich_project_chbe-medford/medford-share/data/pseudos_module/espresso/nninc/pbe/van/O.UPF
     MD5 check sum: 78c19812648e8988a0fe644b0f25305e
     Pseudo is Ultrasoft, Zval =  6.0
     Generated by new atomic code, or converted to UPF format
     Using radial grid of  737 points,  4 beta functions with:
                l(1) =   0
                l(2) =   0
                l(3) =   1
                l(4) =   1
     Q(r) pseudized with  8 coefficients,  rinner =    0.800   0.800   0.800

     PseudoPot. # 3 for H  read from file:
     /storage/coda1/p-amedford6/0/shared/rich_project_chbe-medford/medford-share/data/pseudos_module/espresso/nninc/pbe/van/H.UPF
     MD5 check sum: b5ee9d7bfd3a09ee7748110bda690ff7
     Pseudo is Ultrasoft, Zval =  1.0
     Generated by new atomic code, or converted to UPF format
     Using radial grid of  615 points,  1 beta functions with:
                l(1) =   0
     Q(r) pseudized with  8 coefficients,  rinner =    0.800

     PseudoPot. # 4 for N  read from file:
     /storage/coda1/p-amedford6/0/shared/rich_project_chbe-medford/medford-share/data/pseudos_module/espresso/nninc/pbe/van/N.UPF
     MD5 check sum: 90d10febe142ad51ac9d5be1deb811c4
     Pseudo is Ultrasoft, Zval =  5.0
     Generated by new atomic code, or converted to UPF format
     Using radial grid of  729 points,  4 beta functions with:
                l(1) =   0
                l(2) =   0
                l(3) =   1
                l(4) =   1
     Q(r) pseudized with  8 coefficients,  rinner =    0.800   0.800   0.800

     PseudoPot. # 5 for C  read from file:
     /storage/coda1/p-amedford6/0/shared/rich_project_chbe-medford/medford-share/data/pseudos_module/espresso/nninc/pbe/van/C.UPF
     MD5 check sum: 1a69bf6b8db32088f5b2163dbdb77a27
     Pseudo is Ultrasoft, Zval =  4.0
     Generated by new atomic code, or converted to UPF format
     Using radial grid of  721 points,  4 beta functions with:
                l(1) =   0
                l(2) =   0
                l(3) =   1
                l(4) =   1
     Q(r) pseudized with  8 coefficients,  rinner =    0.800   0.800   0.800

     atomic species   valence    mass     pseudopotential
        Ti1           12.00    47.86700     Ti( 1.00)
        O1             6.00    15.99900     O ( 1.00)
        H1             1.00     1.00800     H ( 1.00)
        N1             5.00    14.00700     N ( 1.00)
        C1             4.00    12.01100     C ( 1.00)

     No symmetry found

   Cartesian axes

     site n.     atom                  positions (alat units)
         1           Ti1 tau(   1) = (   0.0004258   2.9801865   6.0000000  )
         2           Ti1 tau(   2) = (   3.2906075   1.4906267   6.0002472  )
         3           O1  tau(   3) = (   0.0006271   0.0005054   7.9858123  )
         4           O1  tau(   4) = (   3.2906025   0.0005020   7.3038282  )
         5           O1  tau(   5) = (   4.5942328   1.4918067   9.2879030  )
         6           O1  tau(   6) = (   1.9868534   1.4903216   9.2879459  )
         7           Ti1 tau(   7) = (   3.2907910   2.8959150   9.1758416  )
         8           Ti1 tau(   8) = (   0.0015273   1.4827037   9.2680791  )
         9           O1  tau(   9) = (   3.2896571   0.0076959  11.3233140  )
        10           O1  tau(  10) = (   0.0116148   5.9584955  10.6183126  )
        11           O1  tau(  11) = (   1.3168077   1.5009220  12.6157425  )
        12           O1  tau(  12) = (   5.2956243   1.4929856  12.6075824  )
        13           Ti1 tau(  13) = (   6.5239244   2.9540340  12.6210794  )
        14           Ti1 tau(  14) = (   3.2085880   1.4976218  12.4699624  )
        15           O1  tau(  15) = (   6.5712616   0.0419518  14.6436513  )
        16           O1  tau(  16) = (   3.3111435   0.0202601  13.9161875  )
        17           O1  tau(  17) = (   4.5291760   1.5523016  16.0784362  )
        18           O1  tau(  18) = (   2.0445308   1.5488630  16.0432715  )
        19           Ti1 tau(  19) = (   3.3059752   3.0257308  15.6838679  )
        20           Ti1 tau(  20) = (   0.0592185   1.5662548  15.8694889  )
        21           O1  tau(  21) = (   3.2904802   0.0005063   4.7018136  )
        22           O1  tau(  22) = (   0.0264932   0.0561689  17.2024660  )
        23           O1  tau(  23) = (   1.3043587   1.4918075   6.0039043  )
        24           O1  tau(  24) = (   5.2767064   1.4903225   6.0039473  )
        25           Ti1 tau(  25) = (   0.0000382   5.9609847   6.0000000  )
        26           Ti1 tau(  26) = (   3.2902200   4.4714249   6.0002472  )
        27           O1  tau(  27) = (   0.0002396   2.9813036   7.9858123  )
        28           O1  tau(  28) = (   3.2902150   2.9813002   7.3038282  )
        29           O1  tau(  29) = (   4.5938453   4.4726049   9.2879030  )
        30           O1  tau(  30) = (   1.9864658   4.4711199   9.2879459  )
        31           Ti1 tau(  31) = (   3.2891106   5.8743827   9.1763621  )
        32           Ti1 tau(  32) = (   0.0006254   4.4649316   9.2693709  )
        33           O1  tau(  33) = (   3.2898653   2.9926188  11.3210358  )
        34           O1  tau(  34) = (   0.0092240   2.9805883  10.6323155  )
        35           O1  tau(  35) = (   1.3106253   4.4883450  12.6271249  )
        36           O1  tau(  36) = (   5.2968722   4.4793810  12.6200386  )
        37           Ti1 tau(  37) = (   6.5212985   5.9329073  12.5685303  )
        38           Ti1 tau(  38) = (   3.2059443   4.4781599  12.4721232  )
        39           O1  tau(  39) = (   6.5764971   2.9600267  14.6431433  )
        40           O1  tau(  40) = (   3.3056941   3.0038382  13.8936370  )
        41           O1  tau(  41) = (   4.5394310   4.5052612  16.0827012  )
        42           O1  tau(  42) = (   2.0570581   4.5113261  16.0718816  )
        43           Ti1 tau(  43) = (   3.3383738   0.0382055  15.7109988  )
        44           Ti1 tau(  44) = (   0.0469139   4.6840235  16.0886640  )
        45           O1  tau(  45) = (   3.2900926   2.9813045   4.7018136  )
        46           O1  tau(  46) = (   1.3039711   4.4726057   6.0039043  )
        47           O1  tau(  47) = (   5.2763189   4.4711207   6.0039473  )
        48           H1  tau(  48) = (   5.6101632   2.9904038  17.7880820  )
        49           N1  tau(  49) = (   6.5649722   3.0046358  17.4438072  )
        50           C1  tau(  50) = (   0.8874553   2.9889031  18.6120612  )
        51           H1  tau(  51) = (   1.3591778   3.9628686  18.7739097  )
        52           H1  tau(  52) = (   0.3310755   2.7322232  19.5165709  )
        53           H1  tau(  53) = (   1.6717793   2.2502645  18.4914768  )
        54           O1  tau(  54) = (   3.2567199   5.9268012  21.6217354  )
        55           H1  tau(  55) = (   4.0245811   5.9269051  22.2091127  )
        56           H1  tau(  56) = (   2.4887544   5.9269923  22.2092946  )

     number of k points=    10  Fermi-Dirac smearing, width (Ry)=  0.0073
                       cart. coord. in units 2pi/alat
        k(    1) = (   0.0000000   0.0000000   0.0000000), wk =   0.1250000
        k(    2) = (   0.0000000   0.0419351   0.0000000), wk =   0.2500000
        k(    3) = (   0.0000000  -0.0838702   0.0000000), wk =   0.1250000
        k(    4) = (   0.0379955   0.0000049   0.0000000), wk =   0.2500000
        k(    5) = (   0.0379955   0.0419400   0.0000000), wk =   0.2500000
        k(    6) = (   0.0379955  -0.0838652   0.0000000), wk =   0.2500000
        k(    7) = (   0.0379955  -0.0419301   0.0000000), wk =   0.2500000
        k(    8) = (  -0.0759910  -0.0000099   0.0000000), wk =   0.1250000
        k(    9) = (  -0.0759910   0.0419252   0.0000000), wk =   0.2500000
        k(   10) = (  -0.0759910  -0.0838800   0.0000000), wk =   0.1250000

     Initial potential from superposition of free atoms

     starting charge  382.99914, renormalised to  399.00000

     negative rho (up, down):  9.625E-03 0.000E+00

     %%%%%%%%%%%%%%%%%%%%%%%%%%%%%%%%%%%%%%%%%%%%%%%%%%%%%%%%%%%%%%%%%%%%%%%%
     %                                                                      %
     % You are using vdW-DF, which was implemented by the Thonhauser group. %
     % Please cite the following two papers that made this development      %
     % possible and the two reviews that describe the various versions:     %
     %                                                                      %
     %   T. Thonhauser et al., PRL 115, 136402 (2015).                      %
     %   T. Thonhauser et al., PRB 76, 125112 (2007).                       %
     %   K. Berland et al., Rep. Prog. Phys. 78, 066501 (2015).             %
     %   D.C. Langreth et al., J. Phys.: Condens. Matter 21, 084203 (2009). %
     %                                                                      %
     %                                                                      %
     % If you are calculating the stress with vdW-DF, please also cite:     %
     %                                                                      %
     %   R. Sabatini et al., J. Phys.: Condens. Matter 24, 424209 (2012).   %
     %                                                                      %
     %%%%%%%%%%%%%%%%%%%%%%%%%%%%%%%%%%%%%%%%%%%%%%%%%%%%%%%%%%%%%%%%%%%%%%%%

     Adding external electric field

     Computed dipole along edir(3) :
        Dipole              -12.5493 Ry au,        -31.8972 Debye
        Dipole field         -0.0237 Ry au,

        Potential amp.        2.1953 Ry
        Total length         46.3494 bohr

     Starting wfcs are  302 atomic wfcs
  @ DRIVER MODE: Message from server: STATUS
  @ DRIVER MODE: Message from server: POSDATA
  @ DRIVER MODE: Reading and sharing cell
  @ DRIVER MODE: Reading and sharing positions
  @ DRIVER MODE: Received positions

     Self-consistent Calculation

     iteration #  1     ecut=    29.40 Ry     beta= 0.05
     Davidson diagonalization with overlap
     c_bands:  2 eigenvalues not converged
     c_bands:  2 eigenvalues not converged
     c_bands:  4 eigenvalues not converged
     c_bands:  3 eigenvalues not converged
     c_bands:  3 eigenvalues not converged
     c_bands:  3 eigenvalues not converged
     c_bands:  5 eigenvalues not converged
     c_bands:  4 eigenvalues not converged
     c_bands:  5 eigenvalues not converged
     ethr =  1.00E-05,  avg # of iterations = 22.0

[...]

     total energy              =   -2445.24403265 Ry
     estimated scf accuracy    <    5721.85341784 Ry

     iteration #  2     ecut=    29.40 Ry     beta= 0.05
     Davidson diagonalization with overlap
     ethr =  1.00E-02,  avg # of iterations = 22.1

[...]

     iteration # 50     ecut=    29.40 Ry     beta= 0.05
     Davidson diagonalization with overlap
     c_bands:  1 eigenvalues not converged
     c_bands:  1 eigenvalues not converged
     ethr =  5.08E-08,  avg # of iterations = 13.9

[...]

     total energy              =   -2955.21561243 Ry
     estimated scf accuracy    <       0.00000009 Ry

     iteration # 75     ecut=    29.40 Ry     beta= 0.05
     Davidson diagonalization with overlap
     ethr =  2.16E-11,  avg # of iterations = 12.3

     negative rho (up, down):  1.110E-02 0.000E+00

     Adding external electric field

     Computed dipole along edir(3) :
        Dipole                1.3265 Ry au,          3.3716 Debye
        Dipole field          0.0025 Ry au,

        Potential amp.       -0.2320 Ry
        Total length         46.3494 bohr

     End of self-consistent calculation

          k = 0.0000 0.0000 0.0000 ( 18029 PWs)   bands (ev):

   -55.4956 -55.4867 -55.4615 -55.4506 -55.4061 -55.3372 -55.3338 -55.2999
   -55.2992 -55.2660 -55.2579 -55.2243 -55.0703 -54.7878 -54.4672 -54.4332
   -32.0449 -31.9769 -31.8507 -31.8356 -31.8149 -31.7993 -31.7888 -31.7490
   -31.7369 -31.7368 -31.7100 -31.7025 -31.6691 -31.6478 -31.6391 -31.6362
   -31.6288 -31.5989 -31.5773 -31.5528 -31.5451 -31.5406 -31.5250 -31.5034
   -31.4943 -31.4896 -31.4860 -31.4777 -31.4611 -31.4586 -31.4532 -31.4491
   -31.4354 -31.4301 -31.4113 -31.4068 -31.3707 -31.3344 -31.2397 -31.0619
   -31.0558 -30.9865 -30.8740 -30.7864 -30.7639 -30.6908 -30.6043 -30.4933
   -18.5819 -16.2537 -15.9719 -15.7922 -15.6493 -15.6170 -15.5290 -15.3311
   -15.2056 -15.1901 -15.0859 -15.0539 -15.0294 -15.0228 -14.9943 -14.9905
   -14.9351 -14.9280 -14.9190 -14.9061 -14.8471 -14.8232 -14.7827 -14.6920
   -14.6676 -14.6523 -14.6248 -14.5423 -14.5367 -14.0937 -13.6321 -12.9694
   -12.8531  -8.4910  -6.3853  -3.9153  -3.6241  -3.4502  -3.4126  -3.3975
    -3.3469  -3.0966  -3.0789  -2.8422  -2.7191  -2.6951  -2.6797  -2.6671
    -2.6491  -2.6307  -2.4162  -2.3935  -2.3260  -2.3099  -2.2880  -2.2798
    -2.2734  -2.2638  -2.2601  -2.2155  -2.1614  -2.0498  -2.0296  -1.9224
    -1.8787  -1.8553  -1.8046  -1.7603  -1.7542  -1.7445  -1.7249  -1.7135
    -1.6902  -1.6725  -1.5373  -1.4747  -1.3423  -1.2961  -1.2887  -1.0947
    -1.0571  -0.9647  -0.9381  -0.9214  -0.9132  -0.8811  -0.7992  -0.7083
    -0.6537  -0.6424  -0.5878  -0.5089  -0.4951  -0.4000  -0.3866  -0.3805
    -0.3295  -0.2640  -0.2541  -0.2452  -0.1999  -0.1338  -0.0561   0.0193
     0.0716   0.0927   0.1194   0.1986   0.2276   0.3224   0.3434   0.3886
     0.3954   0.4416   0.4837   0.4924   0.4980   0.5138   0.5331   0.6810
     0.7890   0.8446   0.8775   0.8884   1.0457   1.0817   1.1696   1.2564
     1.4822   1.5550   1.6493   1.7481   1.8054   2.1257   2.1710   3.6478
     3.7269   3.7807   3.7899   3.8854   3.8927   4.0975   4.1066   4.1177
     4.1896

[...]

          k = 0.0380-0.0419 0.0000 ( 17876 PWs)   bands (ev):

[...]

          k =-0.0760-0.0000 0.0000 ( 17886 PWs)   bands (ev):

[...]

          k =-0.0760-0.0839 0.0000 ( 17948 PWs)   bands (ev):

   -55.4790 -55.4780 -55.4688 -55.4683 -55.4014 -55.3417 -55.3186 -55.3144
   -55.2836 -55.2818 -55.2415 -55.2408 -55.0694 -54.7887 -54.4502 -54.4500
   -31.8492 -31.8474 -31.7926 -31.7919 -31.7826 -31.7746 -31.7736 -31.7582
   -31.6990 -31.6966 -31.6900 -31.6863 -31.6653 -31.6327 -31.6158 -31.6125
   -31.6044 -31.6003 -31.5984 -31.5975 -31.5948 -31.5819 -31.5795 -31.5473
   -31.5371 -31.5358 -31.5110 -31.4968 -31.4799 -31.4795 -31.4741 -31.4737
   -31.4568 -31.4566 -31.4562 -31.4525 -31.4027 -31.3371 -31.2349 -31.1248
   -31.0581 -31.0114 -30.7767 -30.7766 -30.6869 -30.6867 -30.6476 -30.6476
   -18.5818 -15.7048 -15.6726 -15.4342 -15.4283 -15.4184 -15.4038 -15.2621
   -15.2076 -15.1988 -15.1920 -15.1663 -15.1448 -15.0925 -15.0656 -15.0276
   -15.0219 -15.0164 -15.0136 -14.9515 -14.9456 -14.9244 -14.9171 -14.8031
   -14.8003 -14.7991 -14.7274 -14.6581 -14.5226 -14.2623 -13.6536 -12.9551
   -12.9548  -8.4948  -6.3868  -3.9265  -2.9984  -2.9609  -2.8137  -2.7243
    -2.6750  -2.6611  -2.6444  -2.5667  -2.4134  -2.4054  -2.3893  -2.3724
    -2.3580  -2.3206  -2.3140  -2.3015  -2.2894  -2.2818  -2.2635  -2.2276
    -2.1894  -2.1614  -2.1535  -2.1438  -2.1191  -2.1070  -2.0817  -2.0762
    -2.0416  -2.0337  -2.0170  -1.9932  -1.7388  -1.7134  -1.6946  -1.6240
    -1.6167  -1.5845  -1.5761  -1.5564  -1.5432  -1.4913  -1.3922  -1.2257
    -1.1920  -1.1881  -1.1656  -1.1007  -1.0791  -0.9293  -0.9021  -0.8830
    -0.8464  -0.7965  -0.7639  -0.7248  -0.6889  -0.6532  -0.5911  -0.5833
    -0.5033  -0.4545  -0.4535  -0.4285  -0.4190  -0.3573  -0.2787  -0.2596
    -0.2487  -0.2071  -0.1941  -0.1127  -0.0900   0.0079   0.0222   0.0861
     0.1204   0.1916   0.3860   0.4899   0.5490   0.5746   0.6278   0.7233
     0.7772   0.7910   0.8252   0.8304   0.8914   0.9328   1.0471   1.0541
     1.1217   1.2239   1.7518   1.9194   1.9202   1.9907   1.9909   3.9089
     3.9153   3.9664   3.9951   4.1476   4.1522   4.1748   4.1759   4.2958
     4.3153

     the Fermi energy is     3.6407 ev

!    total energy              =   -2955.21562486 Ry
     estimated scf accuracy    <       0.00000007 Ry
     smearing contrib. (-TS)   =      -0.02205278 Ry
     internal energy E=F+TS    =   -2955.19357208 Ry

     The total energy is F=E-TS. E is the sum of the following terms:
     one-electron contribution =  -23380.00455578 Ry
     hartree contribution      =   11781.90812037 Ry
     xc contribution           =    -489.68395993 Ry
     ewald contribution        =    9132.58350272 Ry
     electric field correction =       0.00332054 Ry

     convergence has been achieved in  75 iterations

     Forces acting on atoms (cartesian axes, Ry/au):

     atom    1 type  1   force =     0.00011912   -0.00019991    0.09686857
     atom    2 type  1   force =     0.00004084   -0.00046042   -0.17498123
     atom    3 type  2   force =     0.00013047    0.00001568   -0.02539909
     atom    4 type  2   force =    -0.00002910   -0.00126663    0.05223774
     atom    5 type  2   force =    -0.01215336    0.00000857    0.00288535
     atom    6 type  2   force =     0.01360044    0.00054987    0.00225782
     atom    7 type  1   force =     0.00059769    0.00031199   -0.01253930
     atom    8 type  1   force =     0.00044530    0.00706348    0.03084117
     atom    9 type  2   force =     0.00032383    0.00016197    0.00046174
     atom   10 type  2   force =    -0.00271391    0.00207718   -0.01688347
     atom   11 type  2   force =     0.00018577   -0.00035984    0.00014053
     atom   12 type  2   force =     0.00006036   -0.00035638    0.00024035
     atom   13 type  1   force =    -0.00018545    0.00035338   -0.00000823
     atom   14 type  1   force =    -0.00012558    0.00033258   -0.00036732
     atom   15 type  2   force =    -0.00003361   -0.00030798   -0.00006268
     atom   16 type  2   force =     0.00014412    0.00038232    0.00130294
     atom   17 type  2   force =    -0.00028791   -0.00035567    0.00030565
     atom   18 type  2   force =     0.00037139   -0.00030041    0.00011679
     atom   19 type  1   force =     0.00024102   -0.00037862    0.00029701
     atom   20 type  1   force =    -0.00045629    0.00025421    0.00037857
     atom   21 type  2   force =     0.00005947   -0.00002160    0.10307429
     atom   22 type  2   force =     0.00015746   -0.00083373    0.00026165
     atom   23 type  2   force =    -0.07167003   -0.00015129   -0.02784146
     atom   24 type  2   force =     0.07156673    0.00034710   -0.02789745
     atom   25 type  1   force =     0.00008583   -0.00016872    0.09665104
     atom   26 type  1   force =     0.00009415   -0.00025523   -0.17509642
     atom   27 type  2   force =     0.00011989   -0.00010746   -0.02446978
     atom   28 type  2   force =     0.00003923   -0.00101597    0.05206975
     atom   29 type  2   force =    -0.01234795    0.00066956    0.00265158
     atom   30 type  2   force =     0.01366568    0.00105745    0.00203340
     atom   31 type  1   force =     0.00049672    0.00306620   -0.01333720
     atom   32 type  1   force =     0.00030704   -0.00927315    0.03127258
     atom   33 type  2   force =    -0.00012714    0.00016376    0.00079703
     atom   34 type  2   force =    -0.00202479    0.00179113   -0.02550841
     atom   35 type  2   force =     0.00027480    0.00019065    0.00036845
     atom   36 type  2   force =     0.00021493    0.00010242    0.00035704
     atom   37 type  1   force =    -0.00025813   -0.00064065    0.00017407
     atom   38 type  1   force =    -0.00008505    0.00002476   -0.00022930
     atom   39 type  2   force =     0.00005566   -0.00079458    0.00028704
     atom   40 type  2   force =     0.00024717    0.00003149   -0.00008727
     atom   41 type  2   force =    -0.00041956    0.00009061   -0.00004006
     atom   42 type  2   force =     0.00039452   -0.00014257   -0.00029672
     atom   43 type  1   force =    -0.00032225    0.00050188   -0.00075395
     atom   44 type  1   force =    -0.00043282   -0.00059524    0.00124862
     atom   45 type  2   force =     0.00004109   -0.00004624    0.10312311
     atom   46 type  2   force =    -0.07166530   -0.00006412   -0.02783832
     atom   47 type  2   force =     0.07158477    0.00035396   -0.02790398
     atom   48 type  3   force =     0.00032441   -0.00041045    0.00012821
     atom   49 type  4   force =    -0.00006714   -0.00060467   -0.00035099
     atom   50 type  5   force =    -0.00505298    0.00629636    0.00179374
     atom   51 type  3   force =    -0.00127921    0.00038499    0.00064385
     atom   52 type  3   force =     0.00071535   -0.00091128   -0.00074963
     atom   53 type  3   force =     0.00553062   -0.00650154   -0.00109321
     atom   54 type  2   force =    -0.00066127   -0.00006099   -0.00032929
     atom   55 type  3   force =    -0.00056888   -0.00001911   -0.00044682
     atom   56 type  3   force =     0.00073182    0.00002089   -0.00075814

     Total force =     0.368508     Total SCF correction =     0.000942
  @ DRIVER MODE: Message from server: STATUS
  @ DRIVER MODE: Message from server: GETFORCE
  @ DRIVER MODE: Returning v,forces,stress,ensemble

     Writing output data file ./calc.save/
  @ DRIVER MODE: Message from server: EXIT
  @ DRIVE MODE: Exiting

     General routines

     Parallel routines

   This run was terminated on:   2:36:20  16Sep2021

   JOB DONE.