     Program PWSCF v.6.7GPU starts on 12Oct2021 at  9:12:34

     R & G space division:  proc/nbgrp/npool/nimage =       8
     Reading input from /storage/home/hcoda1/3/ntian30/research/carbon/ACS_vib/ads_slab/H2NNH2/out_0001/pw.inp
Warning: card &CELL ignored
Warning: card   CELL_DYNAMICS='IPI', ignored
Warning: card / ignored

     Current dimensions of program PWSCF are:
     Max number of different atomic species (ntypx) = 10
     Max number of k-points (npk) =  40000
     Max angular momentum in pseudopotentials (lmaxx) =  3
     Presently no symmetry can be used with electric field

     Message from routine cell_base_init:
     DEPRECATED: use true lattice parameter, not A to a.u. conversion factor

     IMPORTANT: XC functional enforced from input :
     Exchange-correlation= BEEF-VDW
                           (   1   4  43  14   2   0   0)
     Any further DFT definition will be discarded
     Please, verify this is what you really want

  @ DRIVER MODE: Connecting to
 qe_1139763_3181310.sched-torque.pace.gatech.eduk8d5jy5y_scratch
  using UNIX socket
  @ DRIVER MODE: Message from server: STATUS
  @ DRIVER MODE: Message from server: INIT
  @ DRIVER MODE: Receiving replica           0          -1
  @ DRIVER MODE: Receiving encoded integer          25
  @ DRIVER MODE:  SCF:  T  FORCE:  T  STRESS:  F  VC:  F  ENSEMBLE:  F
  @ DRIVER MODE:  SCF:  T  FORCE:  T  STRESS:  F  VC:  F  ENSEMBLE:  F

     Using Slab Decomposition

     bravais-lattice index     =            0
     lattice parameter (alat)  =       1.8897  a.u.
     unit-cell volume          =    6658.9804 (a.u.)^3
     number of atoms/cell      =           53
     number of atomic types    =            4
     number of electrons       =       392.00
     number of Kohn-Sham states=          206
     kinetic-energy cutoff     =      29.3995  Ry
     charge density cutoff     =     293.9946  Ry
     scf convergence threshold =      7.3E-08
     mixing beta               =       0.0500
     number of iterations used =            8  plain     mixing
     Exchange-correlation= BEEF-VDW
                           (   1   4  43  14   2   0   0)

     celldm(1)=   1.889726  celldm(2)=   0.000000  celldm(3)=   0.000000
     celldm(4)=   0.000000  celldm(5)=   0.000000  celldm(6)=   0.000000

     crystal axes: (cart. coord. in units of alat)
               a(1) = (   6.579727   0.000000   0.000000 )
               a(2) = (  -0.000775   5.961596   0.000000 )
               a(3) = (   0.000000   0.000000  25.155947 )

     reciprocal axes: (cart. coord. in units 2 pi/alat)
               b(1) = (  0.151982  0.000020  0.000000 )
               b(2) = (  0.000000  0.167740  0.000000 )
               b(3) = (  0.000000  0.000000  0.039752 )

     PseudoPot. # 1 for Ti read from file:
     /storage/coda1/p-amedford6/0/shared/rich_project_chbe-medford/medford-share/data/pseudos_module/espresso/nninc/pbe/van/Ti.UPF
     MD5 check sum: 8e4df49b7f0d34bbd5052bf3f5ea0213
     Pseudo is Ultrasoft, Zval = 12.0
     Generated by new atomic code, or converted to UPF format
     Using radial grid of  851 points,  6 beta functions with:
                l(1) =   0
                l(2) =   0
                l(3) =   1
                l(4) =   1
                l(5) =   2
                l(6) =   2
     Q(r) pseudized with  8 coefficients,  rinner =    1.000   1.000   1.000
                                                       1.000   1.000

     PseudoPot. # 2 for O  read from file:
     /storage/coda1/p-amedford6/0/shared/rich_project_chbe-medford/medford-share/data/pseudos_module/espresso/nninc/pbe/van/O.UPF
     MD5 check sum: 78c19812648e8988a0fe644b0f25305e
     Pseudo is Ultrasoft, Zval =  6.0
     Generated by new atomic code, or converted to UPF format
     Using radial grid of  737 points,  4 beta functions with:
                l(1) =   0
                l(2) =   0
                l(3) =   1
                l(4) =   1
     Q(r) pseudized with  8 coefficients,  rinner =    0.800   0.800   0.800

     PseudoPot. # 3 for H  read from file:
     /storage/coda1/p-amedford6/0/shared/rich_project_chbe-medford/medford-share/data/pseudos_module/espresso/nninc/pbe/van/H.UPF
     MD5 check sum: b5ee9d7bfd3a09ee7748110bda690ff7
     Pseudo is Ultrasoft, Zval =  1.0
     Generated by new atomic code, or converted to UPF format
     Using radial grid of  615 points,  1 beta functions with:
                l(1) =   0
     Q(r) pseudized with  8 coefficients,  rinner =    0.800

     PseudoPot. # 4 for N  read from file:
     /storage/coda1/p-amedford6/0/shared/rich_project_chbe-medford/medford-share/data/pseudos_module/espresso/nninc/pbe/van/N.UPF
     MD5 check sum: 90d10febe142ad51ac9d5be1deb811c4
     Pseudo is Ultrasoft, Zval =  5.0
     Generated by new atomic code, or converted to UPF format
     Using radial grid of  729 points,  4 beta functions with:
                l(1) =   0
                l(2) =   0
                l(3) =   1
                l(4) =   1
     Q(r) pseudized with  8 coefficients,  rinner =    0.800   0.800   0.800

     atomic species   valence    mass     pseudopotential
        Ti1           12.00    47.86700     Ti( 1.00)
        O1             6.00    15.99900     O ( 1.00)
        H1             1.00     1.00800     H ( 1.00)
        N1             5.00    14.00700     N ( 1.00)

     No symmetry found

   Cartesian axes

     site n.     atom                  positions (alat units)
         1           Ti1 tau(   1) = (   0.0004258   2.9801865   6.0000000  )
         2           Ti1 tau(   2) = (   3.2906075   1.4906267   6.0002472  )
         3           O1  tau(   3) = (   0.0006271   0.0005054   7.9858123  )
         4           O1  tau(   4) = (   3.2906025   0.0005020   7.3038282  )
         5           O1  tau(   5) = (   4.5942328   1.4918067   9.2879030  )
         6           O1  tau(   6) = (   1.9868534   1.4903216   9.2879459  )
         7           Ti1 tau(   7) = (   3.2907910   2.8959150   9.1758416  )
         8           Ti1 tau(   8) = (   0.0001184   1.4796821   9.2618995  )
         9           O1  tau(   9) = (   3.3033009   5.9571037  11.3689245  )
        10           O1  tau(  10) = (   0.0046093   5.9606512  10.6148452  )
        11           O1  tau(  11) = (   1.3031693   1.4924284  12.6635891  )
        12           O1  tau(  12) = (   5.3048943   1.4931164  12.6630676  )
        13           Ti1 tau(  13) = (   0.0220873   2.9701805  12.5026553  )
        14           Ti1 tau(  14) = (   3.3209497   1.4853901  12.5165241  )
        15           O1  tau(  15) = (   0.0111090   5.9548334  14.6950652  )
        16           O1  tau(  16) = (   3.3059555   5.9578033  13.9930857  )
        17           O1  tau(  17) = (   4.5400856   1.4977043  16.1996482  )
        18           O1  tau(  18) = (   2.0449602   1.5055634  16.1912035  )
        19           Ti1 tau(  19) = (   3.3033294   2.9754315  15.7369611  )
        20           Ti1 tau(  20) = (   0.0669189   1.3514287  15.9855452  )
        21           O1  tau(  21) = (   3.2904802   0.0005063   4.7018136  )
        22           O1  tau(  22) = (   0.0169155   5.9572437  17.2386537  )
        23           O1  tau(  23) = (   1.3043587   1.4918075   6.0039043  )
        24           O1  tau(  24) = (   5.2767064   1.4903225   6.0039473  )
        25           Ti1 tau(  25) = (   0.0000382   5.9609847   6.0000000  )
        26           Ti1 tau(  26) = (   3.2902200   4.4714249   6.0002472  )
        27           O1  tau(  27) = (   0.0002396   2.9813036   7.9858123  )
        28           O1  tau(  28) = (   3.2902150   2.9813002   7.3038282  )
        29           O1  tau(  29) = (   4.5938453   4.4726049   9.2879030  )
        30           O1  tau(  30) = (   1.9864658   4.4711199   9.2879459  )
        31           Ti1 tau(  31) = (   3.2891106   5.8743827   9.1763621  )
        32           Ti1 tau(  32) = (  -0.0005703   4.4645639   9.2621285  )
        33           O1  tau(  33) = (   3.3036452   2.9764387  11.3618117  )
        34           O1  tau(  34) = (   0.0064946   2.9800876  10.6274040  )
        35           O1  tau(  35) = (   1.3025983   4.4627906  12.6614389  )
        36           O1  tau(  36) = (   5.3044333   4.4622094  12.6652126  )
        37           Ti1 tau(  37) = (   0.0242538   5.9517307  12.5043500  )
        38           Ti1 tau(  38) = (   3.3173473   4.4639239  12.5158395  )
        39           O1  tau(  39) = (   0.0133908   2.9741471  14.9664594  )
        40           O1  tau(  40) = (   3.3068033   2.9766936  13.9537582  )
        41           O1  tau(  41) = (   4.5624531   4.4468677  16.1922021  )
        42           O1  tau(  42) = (   2.0658021   4.4533190  16.1937748  )
        43           Ti1 tau(  43) = (   3.3070936   5.9559909  15.7859554  )
        44           Ti1 tau(  44) = (   6.5464735   4.5686029  15.9538643  )
        45           O1  tau(  45) = (   3.2900926   2.9813045   4.7018136  )
        46           O1  tau(  46) = (   1.3039711   4.4726057   6.0039043  )
        47           O1  tau(  47) = (   5.2763189   4.4711207   6.0039473  )
        48           H1  tau(  48) = (   6.1891321   4.2482542  18.7414658  )
        49           H1  tau(  49) = (   1.1283133   3.8395711  18.1715982  )
        50           N1  tau(  50) = (   0.1317752   3.6792193  18.0720352  )
        51           N1  tau(  51) = (   6.4315599   2.2892659  18.0961467  )
        52           H1  tau(  52) = (   5.4285218   2.1347736  18.1483859  )
        53           H1  tau(  53) = (   0.3235236   1.7579878  18.8239140  )

     number of k points=    10  Fermi-Dirac smearing, width (Ry)=  0.0073
                       cart. coord. in units 2pi/alat
        k(    1) = (   0.0000000   0.0000000   0.0000000), wk =   0.1250000
        k(    2) = (   0.0000000   0.0419351   0.0000000), wk =   0.2500000
        k(    3) = (   0.0000000  -0.0838702   0.0000000), wk =   0.1250000
        k(    4) = (   0.0379955   0.0000049   0.0000000), wk =   0.2500000
        k(    5) = (   0.0379955   0.0419400   0.0000000), wk =   0.2500000
        k(    6) = (   0.0379955  -0.0838652   0.0000000), wk =   0.2500000
        k(    7) = (   0.0379955  -0.0419301   0.0000000), wk =   0.2500000
        k(    8) = (  -0.0759910  -0.0000099   0.0000000), wk =   0.1250000
        k(    9) = (  -0.0759910   0.0419252   0.0000000), wk =   0.2500000
        k(   10) = (  -0.0759910  -0.0838800   0.0000000), wk =   0.1250000

     Initial potential from superposition of free atoms

     starting charge  375.99919, renormalised to  392.00000

     negative rho (up, down):  1.864E-02 0.000E+00

     %%%%%%%%%%%%%%%%%%%%%%%%%%%%%%%%%%%%%%%%%%%%%%%%%%%%%%%%%%%%%%%%%%%%%%%%
     %                                                                      %
     % You are using vdW-DF, which was implemented by the Thonhauser group. %
     % Please cite the following two papers that made this development      %
     % possible and the two reviews that describe the various versions:     %
     %                                                                      %
     %   T. Thonhauser et al., PRL 115, 136402 (2015).                      %
     %   T. Thonhauser et al., PRB 76, 125112 (2007).                       %
     %   K. Berland et al., Rep. Prog. Phys. 78, 066501 (2015).             %
     %   D.C. Langreth et al., J. Phys.: Condens. Matter 21, 084203 (2009). %
     %                                                                      %
     %                                                                      %
     % If you are calculating the stress with vdW-DF, please also cite:     %
     %                                                                      %
     %   R. Sabatini et al., J. Phys.: Condens. Matter 24, 424209 (2012).   %
     %                                                                      %
     %%%%%%%%%%%%%%%%%%%%%%%%%%%%%%%%%%%%%%%%%%%%%%%%%%%%%%%%%%%%%%%%%%%%%%%%

     Adding external electric field

     Computed dipole along edir(3) :
        Dipole               -7.0277 Ry au,        -17.8625 Debye
        Dipole field         -0.0133 Ry au,

        Potential amp.        1.2294 Ry
        Total length         46.3494 bohr

     Starting wfcs are  296 atomic wfcs
  @ DRIVER MODE: Message from server: STATUS
  @ DRIVER MODE: Message from server: POSDATA
  @ DRIVER MODE: Reading and sharing cell
  @ DRIVER MODE: Reading and sharing positions
  @ DRIVER MODE: Received positions

     Self-consistent Calculation

     iteration #  1     ecut=    29.40 Ry     beta= 0.05
     Davidson diagonalization with overlap
     c_bands:  1 eigenvalues not converged
     c_bands:  1 eigenvalues not converged
     c_bands:  2 eigenvalues not converged
     c_bands:  1 eigenvalues not converged
     c_bands:  1 eigenvalues not converged
     c_bands:  1 eigenvalues not converged
     ethr =  1.00E-05,  avg # of iterations = 19.6

[...]

     total energy              =   -2685.32371581 Ry
     estimated scf accuracy    <    2688.07740274 Ry

[...]

     iteration #  3     ecut=    29.40 Ry     beta= 0.05
     Davidson diagonalization with overlap
     ethr =  1.00E-02,  avg # of iterations = 15.5

[...]

     iteration # 45     ecut=    29.40 Ry     beta= 0.05
     Davidson diagonalization with overlap
     ethr =  2.67E-08,  avg # of iterations =  2.0

[...]

     total energy              =   -2928.89048391 Ry
     estimated scf accuracy    <       0.00000017 Ry

     iteration # 61     ecut=    29.40 Ry     beta= 0.05
     Davidson diagonalization with overlap
     c_bands:  2 eigenvalues not converged
     ethr =  2.84E-11,  avg # of iterations = 14.1

     negative rho (up, down):  1.639E-02 0.000E+00

     Adding external electric field

     Computed dipole along edir(3) :
        Dipole                1.6237 Ry au,          4.1269 Debye
        Dipole field          0.0031 Ry au,

        Potential amp.       -0.2840 Ry
        Total length         46.3494 bohr

     End of self-consistent calculation

          k = 0.0000 0.0000 0.0000 ( 18029 PWs)   bands (ev):

   -55.3071 -55.2711 -55.2562 -55.2221 -55.1817 -55.1760 -55.1473 -55.1205
   -55.0998 -55.0892 -55.0859 -55.0801 -55.0554 -55.0255 -54.2851 -54.2510
   -31.8793 -31.7500 -31.6940 -31.6691 -31.6244 -31.6105 -31.6054 -31.5973
   -31.5475 -31.5465 -31.5178 -31.5158 -31.5020 -31.4799 -31.4641 -31.4509
   -31.4446 -31.4252 -31.4191 -31.4079 -31.3983 -31.3715 -31.3713 -31.3601
   -31.3518 -31.3235 -31.3126 -31.3123 -31.3050 -31.2981 -31.2933 -31.2900
   -31.2841 -31.2743 -31.2728 -31.2687 -31.2627 -31.2349 -31.2198 -31.2169
   -31.2011 -31.1298 -30.6944 -30.6006 -30.5786 -30.5108 -30.4240 -30.3130
   -18.6131 -16.1484 -15.8866 -15.7517 -15.5966 -15.5053 -15.4010 -15.3430
   -15.2373 -15.1555 -15.0686 -15.0555 -15.0310 -15.0044 -14.9653 -14.9323
   -14.8476 -14.8430 -14.8200 -14.8001 -14.7983 -14.7501 -14.7411 -14.7222
   -14.7021 -14.6815 -14.5471 -14.4619 -14.3940 -14.1305 -13.3039 -12.7882
   -12.6707  -7.5494  -6.9828  -5.5207  -3.4854  -3.3207  -3.2952  -3.2383
    -3.2000  -3.0596  -2.9458  -2.7262  -2.7084  -2.6215  -2.5869  -2.5389
    -2.5170  -2.4983  -2.3312  -2.3030  -2.2897  -2.2334  -2.1726  -2.1183
    -2.1034  -2.0992  -2.0882  -2.0699  -2.0646  -1.9435  -1.8701  -1.7964
    -1.7327  -1.6998  -1.6627  -1.6543  -1.6348  -1.5956  -1.5879  -1.5575
    -1.5431  -1.4972  -1.4682  -1.3393  -1.2873  -1.2154  -1.0296  -0.9416
    -0.8962  -0.8819  -0.8483  -0.8019  -0.7887  -0.6851  -0.6699  -0.6482
    -0.6036  -0.5408  -0.4846  -0.4334  -0.3640  -0.3046  -0.2961  -0.1915
    -0.0952  -0.0855  -0.0643   0.0330   0.0680   0.1158   0.1951   0.2113
     0.2234   0.3106   0.3522   0.3896   0.4272   0.4516   0.5752   0.6192
     0.6327   0.6472   0.6518   0.6769   0.7037   0.7684   0.7989   0.8682
     0.9938   1.1030   1.1681   1.2655   1.3082   1.6406   1.6443   1.7373
     1.9211   2.3118   2.3587   3.7935   3.8624   3.9364   3.9459   3.9556
     4.0276   4.1115   4.2669   4.2908   4.2988   4.3151

[...]

          k = 0.0380-0.0419 0.0000 ( 17876 PWs)   bands (ev):

[...]

          k =-0.0760-0.0000 0.0000 ( 17886 PWs)   bands (ev):

[...]

          k =-0.0760-0.0839 0.0000 ( 17948 PWs)   bands (ev):

   -55.2892 -55.2888 -55.2394 -55.2388 -55.1718 -55.1646 -55.1644 -55.1052
   -55.1036 -55.1007 -55.0737 -55.0732 -55.0711 -55.0325 -54.2681 -54.2679
   -31.6832 -31.6813 -31.6017 -31.5912 -31.5712 -31.5654 -31.5647 -31.5327
   -31.5311 -31.5109 -31.5081 -31.5062 -31.5001 -31.4448 -31.4419 -31.4387
   -31.4340 -31.4331 -31.4313 -31.4280 -31.3977 -31.3852 -31.3816 -31.3714
   -31.3582 -31.3579 -31.3571 -31.3568 -31.3422 -31.3390 -31.3343 -31.3254
   -31.3190 -31.3145 -31.3031 -31.2991 -31.2987 -31.2898 -31.2699 -31.2561
   -31.2544 -31.2350 -30.5913 -30.5912 -30.5069 -30.5068 -30.4674 -30.4674
   -18.5980 -15.5930 -15.5711 -15.5307 -15.3363 -15.3262 -15.3131 -15.3099
   -15.2075 -15.1930 -15.1207 -15.0952 -15.0487 -15.0288 -15.0135 -15.0120
   -14.9192 -14.8996 -14.8940 -14.8916 -14.8211 -14.8128 -14.8045 -14.7955
   -14.7654 -14.7585 -14.6565 -14.6538 -14.6237 -14.6019 -13.1357 -12.7723
   -12.7722  -7.5487  -7.0076  -5.5723  -3.0618  -2.8608  -2.7870  -2.7110
    -2.5538  -2.5332  -2.4930  -2.3826  -2.3435  -2.3295  -2.3226  -2.2911
    -2.2385  -2.2197  -2.2088  -2.1478  -2.1456  -2.1256  -2.1167  -2.0909
    -2.0797  -2.0358  -2.0270  -2.0080  -1.9709  -1.9542  -1.9300  -1.9050
    -1.8997  -1.8820  -1.8239  -1.7902  -1.6832  -1.6693  -1.6063  -1.5130
    -1.5057  -1.4238  -1.3963  -1.3617  -1.3397  -1.3374  -1.2174  -1.1358
    -1.0817  -1.0505  -1.0435  -0.9343  -0.8981  -0.8162  -0.8030  -0.7895
    -0.7319  -0.6485  -0.6252  -0.6074  -0.5254  -0.4620  -0.4532  -0.3599
    -0.3378  -0.2740  -0.2617  -0.2601  -0.2176  -0.1985  -0.1713  -0.1131
    -0.0772  -0.0400  -0.0181   0.0214   0.2182   0.2396   0.2625   0.3923
     0.5112   0.5325   0.5677   0.6049   0.6988   0.7649   0.8038   0.8500
     0.9015   0.9860   0.9953   1.0900   1.0963   1.1516   1.1581   2.0939
     2.0948   2.1796   2.1804   3.9635   4.0055   4.0659   4.0955   4.1786
     4.3070   4.3225   4.3765   4.3796   4.4471   4.4499

     the Fermi energy is     3.8566 ev

!    total energy              =   -2928.89052154 Ry
     estimated scf accuracy    <       0.00000003 Ry
     smearing contrib. (-TS)   =      -0.03700609 Ry
     internal energy E=F+TS    =   -2928.85351545 Ry

     The total energy is F=E-TS. E is the sum of the following terms:
     one-electron contribution =  -24386.89284564 Ry
     hartree contribution      =   12284.96659225 Ry
     xc contribution           =    -482.74032219 Ry
     ewald contribution        =    9655.80808519 Ry
     electric field correction =       0.00497494 Ry

     convergence has been achieved in  61 iterations

     Forces acting on atoms (cartesian axes, Ry/au):

     atom    1 type  1   force =     0.00008272   -0.00018677    0.09198156
     atom    2 type  1   force =    -0.00017792   -0.00022186   -0.17805362
     atom    3 type  2   force =     0.00000602   -0.00049993   -0.02213160
     atom    4 type  2   force =     0.00002931   -0.00184719    0.05825321
     atom    5 type  2   force =    -0.01042214   -0.00081665    0.00668212
     atom    6 type  2   force =     0.01172078   -0.00037004    0.00700624
     atom    7 type  1   force =    -0.00031625    0.00237365   -0.01476918
     atom    8 type  1   force =     0.00006540    0.00001186    0.00013438
     atom    9 type  2   force =    -0.00010794   -0.00011663   -0.00081440
     atom   10 type  2   force =     0.00012192   -0.00005204    0.00052365
     atom   11 type  2   force =     0.00010782   -0.00006575   -0.00027711
     atom   12 type  2   force =    -0.00031834   -0.00005728   -0.00019213
     atom   13 type  1   force =     0.00005735    0.00020295    0.00014053
     atom   14 type  1   force =    -0.00009210   -0.00010222   -0.00012954
     atom   15 type  2   force =     0.00023634    0.00014953    0.00074476
     atom   16 type  2   force =    -0.00009956    0.00007380   -0.00028542
     atom   17 type  2   force =    -0.00034661   -0.00009830    0.00027204
     atom   18 type  2   force =     0.00064273   -0.00012826    0.00037122
     atom   19 type  1   force =    -0.00003825   -0.00006894    0.00039694
     atom   20 type  1   force =    -0.00082917   -0.00046881    0.00067100
     atom   21 type  2   force =     0.00000441   -0.00003018    0.10388476
     atom   22 type  2   force =    -0.00005950    0.00027008   -0.00126018
     atom   23 type  2   force =    -0.07051297   -0.00019827   -0.02665427
     atom   24 type  2   force =     0.07035120    0.00022487   -0.02670412
     atom   25 type  1   force =     0.00003161   -0.00013382    0.09068863
     atom   26 type  1   force =    -0.00018233   -0.00036439   -0.17820896
     atom   27 type  2   force =     0.00000769   -0.00018122   -0.02113360
     atom   28 type  2   force =     0.00006147   -0.00153131    0.05746617
     atom   29 type  2   force =    -0.01050289   -0.00097066    0.00673381
     atom   30 type  2   force =     0.01166486   -0.00039478    0.00703933
     atom   31 type  1   force =    -0.00036020    0.00549524   -0.01570637
     atom   32 type  1   force =     0.00003923    0.00000218    0.00007120
     atom   33 type  2   force =    -0.00010675   -0.00008757   -0.00051737
     atom   34 type  2   force =    -0.00003134    0.00000558    0.00022333
     atom   35 type  2   force =     0.00014594   -0.00021003   -0.00015045
     atom   36 type  2   force =    -0.00035946   -0.00018786   -0.00014684
     atom   37 type  1   force =     0.00002888   -0.00007023    0.00076463
     atom   38 type  1   force =    -0.00015720   -0.00038084   -0.00010025
     atom   39 type  2   force =    -0.00000229    0.00003574   -0.00011801
     atom   40 type  2   force =    -0.00039218   -0.00004365   -0.00026211
     atom   41 type  2   force =    -0.00056878    0.00004010    0.00037672
     atom   42 type  2   force =     0.00034595    0.00003366    0.00064982
     atom   43 type  1   force =    -0.00014822   -0.00007387   -0.00016759
     atom   44 type  1   force =     0.00027767    0.00097948    0.00129040
     atom   45 type  2   force =     0.00000735   -0.00004367    0.10386800
     atom   46 type  2   force =    -0.07051289   -0.00003101   -0.02668887
     atom   47 type  2   force =     0.07037113    0.00042900   -0.02672635
     atom   48 type  3   force =     0.00652439   -0.00411185   -0.00472188
     atom   49 type  3   force =     0.00051822    0.00074608    0.00113518
     atom   50 type  4   force =    -0.00713835    0.00287550    0.00530384
     atom   51 type  4   force =    -0.00117829   -0.00007521   -0.00036667
     atom   52 type  3   force =     0.00152929    0.00046009   -0.00009712
     atom   53 type  3   force =    -0.00001779   -0.00018834   -0.00028946

     Total force =     0.365284     Total SCF correction =     0.000310
  @ DRIVER MODE: Message from server: STATUS
  @ DRIVER MODE: Message from server: GETFORCE
  @ DRIVER MODE: Returning v,forces,stress,ensemble

     Writing output data file ./calc.save/
  @ DRIVER MODE: Message from server: EXIT
  @ DRIVE MODE: Exiting

     General routines

     Parallel routines

   This run was terminated on:   9:37:12  12Oct2021

   JOB DONE.