     Program PWSCF v.6.7GPU starts on  3Aug2021 at 23:36:48

     R & G space division:  proc/nbgrp/npool/nimage =      16
     Reading input from /storage/home/hcoda1/3/ntian30/research/carbon/02Aug_vib_paired/ads_slab/CH3NH3NH3_a/out_0027/pw.inp
Warning: card &CELL ignored
Warning: card   CELL_DYNAMICS='IPI', ignored
Warning: card / ignored

     Current dimensions of program PWSCF are:
     Max number of different atomic species (ntypx) = 10
     Max number of k-points (npk) =  40000
     Max angular momentum in pseudopotentials (lmaxx) =  3
     Presently no symmetry can be used with electric field

     Message from routine cell_base_init:
     DEPRECATED: use true lattice parameter, not A to a.u. conversion factor

     IMPORTANT: XC functional enforced from input :
     Exchange-correlation= BEEF-VDW
                           (   1   4  43  14   2   0   0)
     Any further DFT definition will be discarded
     Please, verify this is what you really want

  @ DRIVER MODE: Connecting to
 qe_1139763_2492108.sched-torque.pace.gatech.edufswxgxw6_scratch
  using UNIX socket
  @ DRIVER MODE: Message from server: STATUS
  @ DRIVER MODE: Message from server: INIT
  @ DRIVER MODE: Receiving replica           0          -1
  @ DRIVER MODE: Receiving encoded integer          25
  @ DRIVER MODE:  SCF:  T  FORCE:  T  STRESS:  F  VC:  F  ENSEMBLE:  F
  @ DRIVER MODE:  SCF:  T  FORCE:  T  STRESS:  F  VC:  F  ENSEMBLE:  F

     Using Slab Decomposition

     bravais-lattice index     =            0
     lattice parameter (alat)  =       1.8897  a.u.
     unit-cell volume          =    6658.9804 (a.u.)^3
     number of atoms/cell      =           59
     number of atomic types    =            5
     number of electrons       =       401.00
     number of Kohn-Sham states=          210
     kinetic-energy cutoff     =      29.3995  Ry
     charge density cutoff     =     293.9946  Ry
     scf convergence threshold =      7.3E-08
     mixing beta               =       0.0500
     number of iterations used =            8  plain     mixing
     Exchange-correlation= BEEF-VDW
                           (   1   4  43  14   2   0   0)

     celldm(1)=   1.889726  celldm(2)=   0.000000  celldm(3)=   0.000000
     celldm(4)=   0.000000  celldm(5)=   0.000000  celldm(6)=   0.000000

     crystal axes: (cart. coord. in units of alat)
               a(1) = (   6.579727   0.000000   0.000000 )
               a(2) = (  -0.000775   5.961596   0.000000 )
               a(3) = (   0.000000   0.000000  25.155947 )

     reciprocal axes: (cart. coord. in units 2 pi/alat)
               b(1) = (  0.151982  0.000020  0.000000 )
               b(2) = (  0.000000  0.167740  0.000000 )
               b(3) = (  0.000000  0.000000  0.039752 )

     PseudoPot. # 1 for Ti read from file:
     /storage/coda1/p-amedford6/0/shared/rich_project_chbe-medford/medford-share/data/pseudos_module/espresso/nninc/pbe/van/Ti.UPF
     MD5 check sum: 8e4df49b7f0d34bbd5052bf3f5ea0213
     Pseudo is Ultrasoft, Zval = 12.0
     Generated by new atomic code, or converted to UPF format
     Using radial grid of  851 points,  6 beta functions with:
                l(1) =   0
                l(2) =   0
                l(3) =   1
                l(4) =   1
                l(5) =   2
                l(6) =   2
     Q(r) pseudized with  8 coefficients,  rinner =    1.000   1.000   1.000
                                                       1.000   1.000

     PseudoPot. # 2 for O  read from file:
     /storage/coda1/p-amedford6/0/shared/rich_project_chbe-medford/medford-share/data/pseudos_module/espresso/nninc/pbe/van/O.UPF
     MD5 check sum: 78c19812648e8988a0fe644b0f25305e
     Pseudo is Ultrasoft, Zval =  6.0
     Generated by new atomic code, or converted to UPF format
     Using radial grid of  737 points,  4 beta functions with:
                l(1) =   0
                l(2) =   0
                l(3) =   1
                l(4) =   1
     Q(r) pseudized with  8 coefficients,  rinner =    0.800   0.800   0.800

     PseudoPot. # 3 for C  read from file:
     /storage/coda1/p-amedford6/0/shared/rich_project_chbe-medford/medford-share/data/pseudos_module/espresso/nninc/pbe/van/C.UPF
     MD5 check sum: 1a69bf6b8db32088f5b2163dbdb77a27
     Pseudo is Ultrasoft, Zval =  4.0
     Generated by new atomic code, or converted to UPF format
     Using radial grid of  721 points,  4 beta functions with:
                l(1) =   0
                l(2) =   0
                l(3) =   1
                l(4) =   1
     Q(r) pseudized with  8 coefficients,  rinner =    0.800   0.800   0.800

     PseudoPot. # 4 for H  read from file:
     /storage/coda1/p-amedford6/0/shared/rich_project_chbe-medford/medford-share/data/pseudos_module/espresso/nninc/pbe/van/H.UPF
     MD5 check sum: b5ee9d7bfd3a09ee7748110bda690ff7
     Pseudo is Ultrasoft, Zval =  1.0
     Generated by new atomic code, or converted to UPF format
     Using radial grid of  615 points,  1 beta functions with:
                l(1) =   0
     Q(r) pseudized with  8 coefficients,  rinner =    0.800

     PseudoPot. # 5 for N  read from file:
     /storage/coda1/p-amedford6/0/shared/rich_project_chbe-medford/medford-share/data/pseudos_module/espresso/nninc/pbe/van/N.UPF
     MD5 check sum: 90d10febe142ad51ac9d5be1deb811c4
     Pseudo is Ultrasoft, Zval =  5.0
     Generated by new atomic code, or converted to UPF format
     Using radial grid of  729 points,  4 beta functions with:
                l(1) =   0
                l(2) =   0
                l(3) =   1
                l(4) =   1
     Q(r) pseudized with  8 coefficients,  rinner =    0.800   0.800   0.800

     atomic species   valence    mass     pseudopotential
        Ti1           12.00    47.86700     Ti( 1.00)
        O1             6.00    15.99900     O ( 1.00)
        C1             4.00    12.01100     C ( 1.00)
        H1             1.00     1.00800     H ( 1.00)
        N1             5.00    14.00700     N ( 1.00)

     No symmetry found

   Cartesian axes

     site n.     atom                  positions (alat units)
         1           Ti1 tau(   1) = (   0.0004258   2.9801865   6.0000000  )
         2           Ti1 tau(   2) = (   3.2906075   1.4906267   6.0002472  )
         3           O1  tau(   3) = (   0.0006271   0.0005054   7.9858123  )
         4           O1  tau(   4) = (   3.2906025   0.0005020   7.3038282  )
         5           O1  tau(   5) = (   4.5942328   1.4918067   9.2879030  )
         6           O1  tau(   6) = (   1.9868534   1.4903216   9.2879459  )
         7           Ti1 tau(   7) = (   3.2907910   2.8959150   9.1758416  )
         8           Ti1 tau(   8) = (   0.0015273   1.4827037   9.2680791  )
         9           O1  tau(   9) = (   3.3006472   5.9526327  11.3326431  )
        10           O1  tau(  10) = (   0.0116148   5.9584955  10.6183126  )
        11           O1  tau(  11) = (   1.2986171   1.4856602  12.6180737  )
        12           O1  tau(  12) = (   5.2832837   1.4869688  12.6136912  )
        13           Ti1 tau(  13) = (   0.0716907   2.9700601  12.6329626  )
        14           Ti1 tau(  14) = (   3.3921379   1.4824266  12.4783935  )
        15           O1  tau(  15) = (   0.0098915   0.0277142  14.6273811  )
        16           O1  tau(  16) = (   3.2980527   0.0034327  13.9214941  )
        17           O1  tau(  17) = (   4.5491770   1.5035522  16.0668258  )
        18           O1  tau(  18) = (   2.0540802   1.5011373  16.0688643  )
        19           Ti1 tau(  19) = (   3.2973159   2.9845483  15.7023000  )
        20           Ti1 tau(  20) = (   6.5754392   1.4353193  15.8239573  )
        21           O1  tau(  21) = (   3.2904802   0.0005063   4.7018136  )
        22           O1  tau(  22) = (   0.0048264   5.9571524  17.1588256  )
        23           O1  tau(  23) = (   1.3043587   1.4918075   6.0039043  )
        24           O1  tau(  24) = (   5.2767064   1.4903225   6.0039473  )
        25           Ti1 tau(  25) = (   0.0000382   5.9609847   6.0000000  )
        26           Ti1 tau(  26) = (   3.2902200   4.4714249   6.0002472  )
        27           O1  tau(  27) = (   0.0002396   2.9813036   7.9858123  )
        28           O1  tau(  28) = (   3.2902150   2.9813002   7.3038282  )
        29           O1  tau(  29) = (   4.5938453   4.4726049   9.2879030  )
        30           O1  tau(  30) = (   1.9864658   4.4711199   9.2879459  )
        31           Ti1 tau(  31) = (   3.2891106   5.8743827   9.1763621  )
        32           Ti1 tau(  32) = (   0.0006254   4.4649316   9.2693709  )
        33           O1  tau(  33) = (   3.3024910   2.9811918  11.3312481  )
        34           O1  tau(  34) = (   0.0092240   2.9805883  10.6323155  )
        35           O1  tau(  35) = (   1.2967186   4.4682081  12.6345707  )
        36           O1  tau(  36) = (   5.2888097   4.4704914  12.6297389  )
        37           Ti1 tau(  37) = (   0.0778612   5.9457776  12.5489457  )
        38           Ti1 tau(  38) = (   3.3928769   4.4622707  12.4864817  )
        39           O1  tau(  39) = (   0.0140712   2.9461142  14.6842920  )
        40           O1  tau(  40) = (   3.2991745   2.9776924  13.9065265  )
        41           O1  tau(  41) = (   4.5418516   4.4678888  16.0645815  )
        42           O1  tau(  42) = (   2.0574864   4.4691885  16.0636024  )
        43           Ti1 tau(  43) = (   3.2861726   0.0051191  15.7195692  )
        44           Ti1 tau(  44) = (   6.5761434   4.5285208  16.1368719  )
        45           O1  tau(  45) = (   3.2900926   2.9813045   4.7018136  )
        46           O1  tau(  46) = (   1.3039711   4.4726057   6.0039043  )
        47           O1  tau(  47) = (   5.2763189   4.4711207   6.0039473  )
        48           C1  tau(  48) = (   0.0175971   3.0427671  17.7901079  )
        49           H1  tau(  49) = (   5.6823727   3.3959267  18.2745233  )
        50           H1  tau(  50) = (   0.1100020   1.9921885  18.0671921  )
        51           H1  tau(  51) = (   0.8707680   3.5346006  18.2680029  )
        52           N1  tau(  52) = (   6.1495222   1.5591847  21.8098380  )
        53           H1  tau(  53) = (   6.1793786   2.4848735  21.3946126  )
        54           H1  tau(  54) = (   6.2462200   0.9013766  21.0428083  )
        55           H1  tau(  55) = (   5.2188654   1.4380024  22.1828036  )
        56           N1  tau(  56) = (   2.8510371   0.9663425  23.1735989  )
        57           H1  tau(  57) = (   2.8683653   5.9129692  23.1556095  )
        58           H1  tau(  58) = (   1.9074079   1.2374795  22.9038124  )
        59           H1  tau(  59) = (   2.9640119   1.2328864  24.1466208  )

     number of k points=    10  Fermi-Dirac smearing, width (Ry)=  0.0073
                       cart. coord. in units 2pi/alat
        k(    1) = (   0.0000000   0.0000000   0.0000000), wk =   0.1250000
        k(    2) = (   0.0000000   0.0419351   0.0000000), wk =   0.2500000
        k(    3) = (   0.0000000  -0.0838702   0.0000000), wk =   0.1250000
        k(    4) = (   0.0379955   0.0000049   0.0000000), wk =   0.2500000
        k(    5) = (   0.0379955   0.0419400   0.0000000), wk =   0.2500000
        k(    6) = (   0.0379955  -0.0838652   0.0000000), wk =   0.2500000
        k(    7) = (   0.0379955  -0.0419301   0.0000000), wk =   0.2500000
        k(    8) = (  -0.0759910  -0.0000099   0.0000000), wk =   0.1250000
        k(    9) = (  -0.0759910   0.0419252   0.0000000), wk =   0.2500000
        k(   10) = (  -0.0759910  -0.0838800   0.0000000), wk =   0.1250000

     Initial potential from superposition of free atoms

     starting charge  384.99911, renormalised to  401.00000

     negative rho (up, down):  4.921E-03 0.000E+00

     %%%%%%%%%%%%%%%%%%%%%%%%%%%%%%%%%%%%%%%%%%%%%%%%%%%%%%%%%%%%%%%%%%%%%%%%
     %                                                                      %
     % You are using vdW-DF, which was implemented by the Thonhauser group. %
     % Please cite the following two papers that made this development      %
     % possible and the two reviews that describe the various versions:     %
     %                                                                      %
     %   T. Thonhauser et al., PRL 115, 136402 (2015).                      %
     %   T. Thonhauser et al., PRB 76, 125112 (2007).                       %
     %   K. Berland et al., Rep. Prog. Phys. 78, 066501 (2015).             %
     %   D.C. Langreth et al., J. Phys.: Condens. Matter 21, 084203 (2009). %
     %                                                                      %
     %                                                                      %
     % If you are calculating the stress with vdW-DF, please also cite:     %
     %                                                                      %
     %   R. Sabatini et al., J. Phys.: Condens. Matter 24, 424209 (2012).   %
     %                                                                      %
     %%%%%%%%%%%%%%%%%%%%%%%%%%%%%%%%%%%%%%%%%%%%%%%%%%%%%%%%%%%%%%%%%%%%%%%%

     Adding external electric field

     Computed dipole along edir(3) :
        Dipole              -16.7053 Ry au,        -42.4606 Debye
        Dipole field         -0.0315 Ry au,

        Potential amp.        2.9223 Ry
        Total length         46.3494 bohr

     Starting wfcs are  305 atomic wfcs
  @ DRIVER MODE: Message from server: STATUS
  @ DRIVER MODE: Message from server: POSDATA
  @ DRIVER MODE: Reading and sharing cell
  @ DRIVER MODE: Reading and sharing positions
  @ DRIVER MODE: Received positions

     Self-consistent Calculation

     iteration #  1     ecut=    29.40 Ry     beta= 0.05
     Davidson diagonalization with overlap
     c_bands:  2 eigenvalues not converged
     c_bands:  3 eigenvalues not converged
     c_bands:  1 eigenvalues not converged
     c_bands:  4 eigenvalues not converged
     c_bands:  4 eigenvalues not converged
     c_bands:  2 eigenvalues not converged
     c_bands:  3 eigenvalues not converged
     c_bands:  3 eigenvalues not converged
     c_bands:  4 eigenvalues not converged
     ethr =  1.00E-05,  avg # of iterations = 19.8

[...]

     total energy              =   -2364.23610773 Ry
     estimated scf accuracy    <    6692.65119577 Ry

     iteration #  2     ecut=    29.40 Ry     beta= 0.05
     Davidson diagonalization with overlap
     ethr =  1.00E-02,  avg # of iterations = 22.0

[...]

     iteration # 61     ecut=    29.40 Ry     beta= 0.05
     Davidson diagonalization with overlap
     c_bands:  2 eigenvalues not converged
     c_bands:  1 eigenvalues not converged
     c_bands:  1 eigenvalues not converged
     c_bands:  1 eigenvalues not converged
     ethr =  2.43E-10,  avg # of iterations = 18.0

[...]

     total energy              =   -2946.58238532 Ry
     estimated scf accuracy    <       0.00000056 Ry

     iteration # 66     ecut=    29.40 Ry     beta= 0.05
     Davidson diagonalization with overlap
     ethr =  1.40E-10,  avg # of iterations = 11.5

     negative rho (up, down):  6.996E-03 0.000E+00

     Adding external electric field

     Computed dipole along edir(3) :
        Dipole                0.3141 Ry au,          0.7984 Debye
        Dipole field          0.0006 Ry au,

        Potential amp.       -0.0550 Ry
        Total length         46.3494 bohr

     End of self-consistent calculation

          k = 0.0000 0.0000 0.0000 ( 18029 PWs)   bands (ev):

   -55.9986 -55.9886 -55.9645 -55.9515 -55.8792 -55.8546 -55.8337 -55.8157
   -55.8058 -55.7721 -55.7717 -55.7384 -55.6131 -55.3910 -54.9794 -54.9454
   -32.5424 -32.4812 -32.3536 -32.3335 -32.3051 -32.3026 -32.2913 -32.2625
   -32.2407 -32.2173 -32.2103 -32.1957 -32.1683 -32.1508 -32.1416 -32.1275
   -32.1115 -32.1030 -32.0878 -32.0594 -32.0559 -32.0557 -32.0278 -32.0084
   -32.0079 -32.0030 -31.9939 -31.9898 -31.9765 -31.9743 -31.9661 -31.9463
   -31.9442 -31.9378 -31.9249 -31.9114 -31.8840 -31.8664 -31.8289 -31.6678
   -31.6415 -31.5289 -31.3866 -31.2978 -31.2754 -31.2031 -31.1167 -31.0058
   -16.7435 -16.4743 -16.2478 -16.1518 -16.1246 -16.0053 -15.8403 -15.7184
   -15.6699 -15.5696 -15.5601 -15.5356 -15.5028 -15.4787 -15.4780 -15.4438
   -15.4409 -15.4217 -15.4101 -15.3601 -15.3369 -15.3252 -15.2100 -15.1762
   -15.1340 -15.1127 -15.0551 -15.0424 -14.6200 -13.4826 -13.3663 -13.0591
   -12.9333  -9.1028  -4.1167  -3.9599  -3.9057  -3.8606  -3.8299  -3.6130
    -3.5469  -3.2493  -3.1852  -3.1706  -3.1531  -3.1359  -3.1206  -3.1064
    -3.0299  -2.9876  -2.9023  -2.8519  -2.8303  -2.8100  -2.8071  -2.7776
    -2.7679  -2.7558  -2.7151  -2.6895  -2.6633  -2.6132  -2.5583  -2.4963
    -2.4128  -2.3948  -2.3133  -2.2908  -2.2847  -2.2417  -2.2273  -2.2195
    -2.2005  -2.1754  -2.1623  -1.9789  -1.9402  -1.8375  -1.7814  -1.7793
    -1.6081  -1.5079  -1.4662  -1.4552  -1.4260  -1.3923  -1.3855  -1.2994
    -1.1824  -1.1514  -1.1183  -1.0464  -1.0028  -0.9710  -0.8734  -0.8459
    -0.7630  -0.7608  -0.7386  -0.6506  -0.5968  -0.4833  -0.4353  -0.4253
    -0.3873  -0.3582  -0.2890  -0.2747  -0.2179  -0.1454  -0.1246  -0.0619
    -0.0314  -0.0173  -0.0061   0.0107   0.0371   0.0675   0.1716   0.2020
     0.2814   0.3491   0.4445   0.5419   0.6478   0.6565   0.7580   0.9670
     1.0407   1.1393   1.1980   1.2348   1.6139   1.6598   1.7520   2.1889
     3.1385   3.2224   3.2700   3.2808   3.3719   3.3882   3.5887   3.6130
     3.6340   3.6861

[...]

          k = 0.0380-0.0419 0.0000 ( 17876 PWs)   bands (ev):

[...]

          k =-0.0760-0.0000 0.0000 ( 17886 PWs)   bands (ev):

[...]

          k =-0.0760-0.0839 0.0000 ( 17948 PWs)   bands (ev):

   -55.9821 -55.9809 -55.9745 -55.9654 -55.8713 -55.8444 -55.8415 -55.8259
   -55.7898 -55.7872 -55.7566 -55.7540 -55.6120 -55.3920 -54.9624 -54.9623
   -32.3500 -32.3414 -32.2968 -32.2960 -32.2772 -32.2762 -32.2602 -32.2511
   -32.2047 -32.1930 -32.1868 -32.1841 -32.1463 -32.1304 -32.1287 -32.1194
   -32.1090 -32.1016 -32.1014 -32.1003 -32.0948 -32.0919 -32.0712 -32.0611
   -32.0421 -32.0391 -32.0298 -32.0127 -31.9897 -31.9888 -31.9873 -31.9855
   -31.9709 -31.9694 -31.9665 -31.9625 -31.9339 -31.8575 -31.8321 -31.6815
   -31.6696 -31.5732 -31.2881 -31.2880 -31.1994 -31.1993 -31.1599 -31.1599
   -16.1763 -16.1568 -15.9494 -15.9126 -15.9096 -15.9003 -15.7886 -15.7034
   -15.6937 -15.6930 -15.6104 -15.5982 -15.5820 -15.5379 -15.5336 -15.5243
   -15.5146 -15.5027 -15.4595 -15.4546 -15.4358 -15.4282 -15.3461 -15.3160
   -15.3122 -15.2737 -15.1415 -15.0101 -14.8619 -13.4682 -13.4680 -13.0306
   -12.9613  -9.1194  -3.4683  -3.4427  -3.1926  -3.1563  -3.1470  -3.1179
    -3.0831  -3.0632  -3.0350  -2.9378  -2.9226  -2.8962  -2.8815  -2.8767
    -2.8404  -2.8281  -2.8183  -2.8064  -2.7882  -2.7538  -2.7449  -2.7126
    -2.7017  -2.6816  -2.6683  -2.6528  -2.6282  -2.6156  -2.6092  -2.5780
    -2.5639  -2.5470  -2.5263  -2.5034  -2.4204  -2.2311  -2.2013  -2.1368
    -2.1276  -2.0971  -2.0857  -2.0622  -2.0478  -2.0292  -1.9825  -1.8294
    -1.7274  -1.7013  -1.6735  -1.5983  -1.5774  -1.5295  -1.4157  -1.3810
    -1.3536  -1.3277  -1.2776  -1.2265  -1.2091  -1.1862  -1.1172  -1.1036
    -1.0260  -0.9825  -0.9601  -0.9557  -0.8908  -0.8478  -0.7659  -0.7606
    -0.7166  -0.6810  -0.6334  -0.5933  -0.5884  -0.5015  -0.4759  -0.3592
    -0.3045  -0.0449   0.0048   0.0561   0.0822   0.1412   0.1916   0.2063
     0.3152   0.3195   0.3562   0.3999   0.4406   0.5281   0.5474   0.5823
     0.7284   1.3023   1.4053   1.4059   1.4792   1.4795   1.9529   1.9728
     3.4234   3.4387   3.4691   3.5015   3.6429   3.6467   3.6681   3.6699
     3.7965   3.8108

     the Fermi energy is     3.1361 ev

!    total energy              =   -2946.58241364 Ry
     estimated scf accuracy    <       0.00000005 Ry
     smearing contrib. (-TS)   =      -0.02179015 Ry
     internal energy E=F+TS    =   -2946.56062349 Ry

     The total energy is F=E-TS. E is the sum of the following terms:
     one-electron contribution =  -22199.69185205 Ry
     hartree contribution      =   11188.83586279 Ry
     xc contribution           =    -489.85442090 Ry
     ewald contribution        =    8554.14960047 Ry
     electric field correction =       0.00018621 Ry

     convergence has been achieved in  66 iterations

     Forces acting on atoms (cartesian axes, Ry/au):

     atom    1 type  1   force =     0.00012862   -0.00025976    0.09670475
     atom    2 type  1   force =    -0.00014204   -0.00055636   -0.17509435
     atom    3 type  2   force =    -0.00000259   -0.00002645   -0.02502046
     atom    4 type  2   force =     0.00007583   -0.00143968    0.05269537
     atom    5 type  2   force =    -0.01210516   -0.00083796    0.00339958
     atom    6 type  2   force =     0.01401795   -0.00015422    0.00290894
     atom    7 type  1   force =    -0.00082255    0.00069423   -0.01132633
     atom    8 type  1   force =     0.00025713    0.01149205    0.02862919
     atom    9 type  2   force =    -0.00009915    0.00008777   -0.00001651
     atom   10 type  2   force =    -0.00085102    0.00077361   -0.01661736
     atom   11 type  2   force =    -0.00032327    0.00010268    0.00002846
     atom   12 type  2   force =     0.00000017    0.00021204    0.00004866
     atom   13 type  1   force =    -0.00011049   -0.00019932    0.00009701
     atom   14 type  1   force =    -0.00021923    0.00000629   -0.00003779
     atom   15 type  2   force =    -0.00003272    0.00004842   -0.00010262
     atom   16 type  2   force =    -0.00011997   -0.00004140    0.00001396
     atom   17 type  2   force =    -0.00002788   -0.00015517   -0.00002138
     atom   18 type  2   force =    -0.00019840   -0.00017279   -0.00002373
     atom   19 type  1   force =     0.00000499   -0.00020420    0.00014232
     atom   20 type  1   force =     0.00010074   -0.00036721   -0.00007898
     atom   21 type  2   force =     0.00006452    0.00000930    0.10291045
     atom   22 type  2   force =    -0.00010965   -0.00009163   -0.00041393
     atom   23 type  2   force =    -0.07139998   -0.00010409   -0.02771405
     atom   24 type  2   force =     0.07136049    0.00030283   -0.02774735
     atom   25 type  1   force =     0.00001226   -0.00030589    0.09647735
     atom   26 type  1   force =    -0.00018420   -0.00026267   -0.17527336
     atom   27 type  2   force =     0.00009365   -0.00020108   -0.02392255
     atom   28 type  2   force =     0.00011492   -0.00119999    0.05273692
     atom   29 type  2   force =    -0.01213760    0.00045291    0.00288324
     atom   30 type  2   force =     0.01397043    0.00079789    0.00242959
     atom   31 type  1   force =    -0.00076587    0.00311418   -0.01225259
     atom   32 type  1   force =     0.00027216   -0.01311839    0.02920401
     atom   33 type  2   force =    -0.00009493   -0.00003107    0.00004040
     atom   34 type  2   force =    -0.00028924    0.00077098   -0.02206617
     atom   35 type  2   force =    -0.00017599    0.00008001   -0.00004371
     atom   36 type  2   force =    -0.00009601    0.00019954   -0.00003289
     atom   37 type  1   force =    -0.00001034   -0.00031410   -0.00017544
     atom   38 type  1   force =     0.00002461    0.00000461    0.00001327
     atom   39 type  2   force =    -0.00008188    0.00013467    0.00028393
     atom   40 type  2   force =    -0.00013195   -0.00001229   -0.00007770
     atom   41 type  2   force =     0.00001249   -0.00021549    0.00000730
     atom   42 type  2   force =    -0.00020469   -0.00022139    0.00017586
     atom   43 type  1   force =     0.00031356   -0.00016307   -0.00017688
     atom   44 type  1   force =     0.00018092   -0.00027003    0.00016719
     atom   45 type  2   force =     0.00006439   -0.00007104    0.10290474
     atom   46 type  2   force =    -0.07141502   -0.00008979   -0.02772278
     atom   47 type  2   force =     0.07137336    0.00037016   -0.02773252
     atom   48 type  3   force =    -0.00018341    0.00038233    0.00004794
     atom   49 type  4   force =    -0.00008226    0.00042164    0.00021133
     atom   50 type  4   force =    -0.00008102    0.00012618    0.00005192
     atom   51 type  4   force =     0.00008903    0.00029773    0.00038210
     atom   52 type  5   force =     0.01293557    0.00150984   -0.00461250
     atom   53 type  4   force =     0.00017172    0.00039703   -0.00029795
     atom   54 type  4   force =    -0.00025678   -0.00032586   -0.00114495
     atom   55 type  4   force =    -0.01307352   -0.00149155    0.00515892
     atom   56 type  5   force =     0.00066297    0.00038449   -0.00064026
     atom   57 type  4   force =     0.00005231   -0.00032238    0.00032630
     atom   58 type  4   force =    -0.00048843   -0.00005281   -0.00057173
     atom   59 type  4   force =    -0.00003756    0.00010570   -0.00012219

     Total force =     0.368224     Total SCF correction =     0.000828
  @ DRIVER MODE: Message from server: STATUS
  @ DRIVER MODE: Message from server: GETFORCE
  @ DRIVER MODE: Returning v,forces,stress,ensemble

     Writing output data file ./calc.save/
  @ DRIVER MODE: Message from server: EXIT
  @ DRIVE MODE: Exiting

     General routines

     Parallel routines

   This run was terminated on:  23:52: 4   3Aug2021

   JOB DONE.