     Program PWSCF v.6.7GPU starts on 23Sep2021 at 16:59:47

     R & G space division:  proc/nbgrp/npool/nimage =       8
     Reading input from /storage/home/hcoda1/3/ntian30/research/carbon/CxH_vib/H2O_calc/ads_slab/CH3ON2HO_a/out_0013/pw.inp
Warning: card &CELL ignored
Warning: card   CELL_DYNAMICS='IPI', ignored
Warning: card / ignored

     Current dimensions of program PWSCF are:
     Max number of different atomic species (ntypx) = 10
     Max number of k-points (npk) =  40000
     Max angular momentum in pseudopotentials (lmaxx) =  3
     Presently no symmetry can be used with electric field

     Message from routine cell_base_init:
     DEPRECATED: use true lattice parameter, not A to a.u. conversion factor

     IMPORTANT: XC functional enforced from input :
     Exchange-correlation= BEEF-VDW
                           (   1   4  43  14   2   0   0)
     Any further DFT definition will be discarded
     Please, verify this is what you really want

  @ DRIVER MODE: Connecting to
 qe_1139763_2947306.sched-torque.pace.gatech.eduqi1gbrem_scratch
  using UNIX socket
  @ DRIVER MODE: Message from server: STATUS
  @ DRIVER MODE: Message from server: INIT
  @ DRIVER MODE: Receiving replica           0          -1
  @ DRIVER MODE: Receiving encoded integer          25
  @ DRIVER MODE:  SCF:  T  FORCE:  T  STRESS:  F  VC:  F  ENSEMBLE:  F
  @ DRIVER MODE:  SCF:  T  FORCE:  T  STRESS:  F  VC:  F  ENSEMBLE:  F

     Using Slab Decomposition

     bravais-lattice index     =            0
     lattice parameter (alat)  =       1.8897  a.u.
     unit-cell volume          =    6658.9804 (a.u.)^3
     number of atoms/cell      =           56
     number of atomic types    =            5
     number of electrons       =       408.00
     number of Kohn-Sham states=          214
     kinetic-energy cutoff     =      29.3995  Ry
     charge density cutoff     =     293.9946  Ry
     scf convergence threshold =      7.3E-08
     mixing beta               =       0.0500
     number of iterations used =            8  plain     mixing
     Exchange-correlation= BEEF-VDW
                           (   1   4  43  14   2   0   0)

     celldm(1)=   1.889726  celldm(2)=   0.000000  celldm(3)=   0.000000
     celldm(4)=   0.000000  celldm(5)=   0.000000  celldm(6)=   0.000000

     crystal axes: (cart. coord. in units of alat)
               a(1) = (   6.579727   0.000000   0.000000 )
               a(2) = (  -0.000775   5.961596   0.000000 )
               a(3) = (   0.000000   0.000000  25.155947 )

     reciprocal axes: (cart. coord. in units 2 pi/alat)
               b(1) = (  0.151982  0.000020  0.000000 )
               b(2) = (  0.000000  0.167740  0.000000 )
               b(3) = (  0.000000  0.000000  0.039752 )

     PseudoPot. # 1 for Ti read from file:
     /storage/coda1/p-amedford6/0/shared/rich_project_chbe-medford/medford-share/data/pseudos_module/espresso/nninc/pbe/van/Ti.UPF
     MD5 check sum: 8e4df49b7f0d34bbd5052bf3f5ea0213
     Pseudo is Ultrasoft, Zval = 12.0
     Generated by new atomic code, or converted to UPF format
     Using radial grid of  851 points,  6 beta functions with:
                l(1) =   0
                l(2) =   0
                l(3) =   1
                l(4) =   1
                l(5) =   2
                l(6) =   2
     Q(r) pseudized with  8 coefficients,  rinner =    1.000   1.000   1.000
                                                       1.000   1.000

     PseudoPot. # 2 for O  read from file:
     /storage/coda1/p-amedford6/0/shared/rich_project_chbe-medford/medford-share/data/pseudos_module/espresso/nninc/pbe/van/O.UPF
     MD5 check sum: 78c19812648e8988a0fe644b0f25305e
     Pseudo is Ultrasoft, Zval =  6.0
     Generated by new atomic code, or converted to UPF format
     Using radial grid of  737 points,  4 beta functions with:
                l(1) =   0
                l(2) =   0
                l(3) =   1
                l(4) =   1
     Q(r) pseudized with  8 coefficients,  rinner =    0.800   0.800   0.800

     PseudoPot. # 3 for C  read from file:
     /storage/coda1/p-amedford6/0/shared/rich_project_chbe-medford/medford-share/data/pseudos_module/espresso/nninc/pbe/van/C.UPF
     MD5 check sum: 1a69bf6b8db32088f5b2163dbdb77a27
     Pseudo is Ultrasoft, Zval =  4.0
     Generated by new atomic code, or converted to UPF format
     Using radial grid of  721 points,  4 beta functions with:
                l(1) =   0
                l(2) =   0
                l(3) =   1
                l(4) =   1
     Q(r) pseudized with  8 coefficients,  rinner =    0.800   0.800   0.800

     PseudoPot. # 4 for H  read from file:
     /storage/coda1/p-amedford6/0/shared/rich_project_chbe-medford/medford-share/data/pseudos_module/espresso/nninc/pbe/van/H.UPF
     MD5 check sum: b5ee9d7bfd3a09ee7748110bda690ff7
     Pseudo is Ultrasoft, Zval =  1.0
     Generated by new atomic code, or converted to UPF format
     Using radial grid of  615 points,  1 beta functions with:
                l(1) =   0
     Q(r) pseudized with  8 coefficients,  rinner =    0.800

     PseudoPot. # 5 for N  read from file:
     /storage/coda1/p-amedford6/0/shared/rich_project_chbe-medford/medford-share/data/pseudos_module/espresso/nninc/pbe/van/N.UPF
     MD5 check sum: 90d10febe142ad51ac9d5be1deb811c4
     Pseudo is Ultrasoft, Zval =  5.0
     Generated by new atomic code, or converted to UPF format
     Using radial grid of  729 points,  4 beta functions with:
                l(1) =   0
                l(2) =   0
                l(3) =   1
                l(4) =   1
     Q(r) pseudized with  8 coefficients,  rinner =    0.800   0.800   0.800

     atomic species   valence    mass     pseudopotential
        Ti1           12.00    47.86700     Ti( 1.00)
        O1             6.00    15.99900     O ( 1.00)
        C1             4.00    12.01100     C ( 1.00)
        H1             1.00     1.00800     H ( 1.00)
        N1             5.00    14.00700     N ( 1.00)

     No symmetry found

   Cartesian axes

     site n.     atom                  positions (alat units)
         1           Ti1 tau(   1) = (   0.0004258   2.9801865   6.0000000  )
         2           Ti1 tau(   2) = (   3.2906075   1.4906267   6.0002472  )
         3           O1  tau(   3) = (   0.0006271   0.0005054   7.9858123  )
         4           O1  tau(   4) = (   3.2906025   0.0005020   7.3038282  )
         5           O1  tau(   5) = (   4.5942328   1.4918067   9.2879030  )
         6           O1  tau(   6) = (   1.9868534   1.4903216   9.2879459  )
         7           Ti1 tau(   7) = (   3.3138730   3.1023225   9.2183157  )
         8           Ti1 tau(   8) = (   0.0392070   1.5780841   9.3433077  )
         9           O1  tau(   9) = (   3.2868017   0.0212601  11.3135411  )
        10           O1  tau(  10) = (   0.0022550   0.0140515  10.5858881  )
        11           O1  tau(  11) = (   1.2767464   1.5002397  12.6205121  )
        12           O1  tau(  12) = (   5.2993684   1.4943797  12.6172415  )
        13           Ti1 tau(  13) = (   0.0200588   3.0780815  12.7918821  )
        14           Ti1 tau(  14) = (   3.2574684   1.5637424  12.4212484  )
        15           O1  tau(  15) = (   6.5768379   0.0158506  14.6682411  )
        16           O1  tau(  16) = (   3.2886937   5.9311801  13.9109749  )
        17           O1  tau(  17) = (   4.5620935   1.5260772  16.0398494  )
        18           O1  tau(  18) = (   2.0292830   1.5431627  16.0187044  )
        19           Ti1 tau(  19) = (   3.3027642   2.9567202  15.6520962  )
        20           Ti1 tau(  20) = (   0.0552782   1.4362356  15.9688716  )
        21           O1  tau(  21) = (   3.2904802   0.0005063   4.7018136  )
        22           O1  tau(  22) = (   0.0488089   0.0211857  17.1900833  )
        23           O1  tau(  23) = (   1.3043587   1.4918075   6.0039043  )
        24           O1  tau(  24) = (   5.2767064   1.4903225   6.0039473  )
        25           Ti1 tau(  25) = (   0.0000382   5.9609847   6.0000000  )
        26           Ti1 tau(  26) = (   3.2902200   4.4714249   6.0002472  )
        27           O1  tau(  27) = (   0.0002396   2.9813036   7.9858123  )
        28           O1  tau(  28) = (   3.2902150   2.9813002   7.3038282  )
        29           O1  tau(  29) = (   4.5938453   4.4726049   9.2879030  )
        30           O1  tau(  30) = (   1.9864658   4.4711199   9.2879459  )
        31           Ti1 tau(  31) = (   3.3219941   0.1169887   9.1790125  )
        32           Ti1 tau(  32) = (   0.0373256   4.5280481   9.3594506  )
        33           O1  tau(  33) = (   3.2887547   2.9594671  11.2851190  )
        34           O1  tau(  34) = (   0.0046902   2.9985155  10.5475055  )
        35           O1  tau(  35) = (   1.2817606   4.4707209  12.6310527  )
        36           O1  tau(  36) = (   5.3098963   4.4869072  12.6241852  )
        37           Ti1 tau(  37) = (   6.5328698   0.0937101  12.6083326  )
        38           Ti1 tau(  38) = (   3.2790761   4.6595539  12.6693962  )
        39           O1  tau(  39) = (   0.0062896   2.9920245  14.6683812  )
        40           O1  tau(  40) = (   3.3079832   2.9813091  13.8732900  )
        41           O1  tau(  41) = (   4.5514670   4.4448635  16.0695425  )
        42           O1  tau(  42) = (   2.0242163   4.4286948  16.0089506  )
        43           Ti1 tau(  43) = (   3.3772342   5.9382356  16.2476532  )
        44           Ti1 tau(  44) = (   0.0845355   4.5653432  16.0322982  )
        45           O1  tau(  45) = (   3.2900926   2.9813045   4.7018136  )
        46           O1  tau(  46) = (   1.3039711   4.4726057   6.0039043  )
        47           O1  tau(  47) = (   5.2763189   4.4711207   6.0039473  )
        48           C1  tau(  48) = (   6.0101766   2.9784267  18.6088694  )
        49           O1  tau(  49) = (   6.5649008   2.9952511  17.2928482  )
        50           H1  tau(  50) = (   4.9085495   2.9407445  18.5675634  )
        51           H1  tau(  51) = (   6.3703738   2.0936667  19.1370987  )
        52           H1  tau(  52) = (   6.3118891   3.8824302  19.1399426  )
        53           N1  tau(  53) = (   6.0262039   3.1690275  22.5535725  )
        54           N1  tau(  54) = (   5.1417247   3.1052473  21.8962875  )
        55           O1  tau(  55) = (   3.2068502   5.9581871  18.0710493  )
        56           H1  tau(  56) = (   2.3500504   0.2277792  18.4614507  )

     number of k points=    10  Fermi-Dirac smearing, width (Ry)=  0.0073
                       cart. coord. in units 2pi/alat
        k(    1) = (   0.0000000   0.0000000   0.0000000), wk =   0.1250000
        k(    2) = (   0.0000000   0.0419351   0.0000000), wk =   0.2500000
        k(    3) = (   0.0000000  -0.0838702   0.0000000), wk =   0.1250000
        k(    4) = (   0.0379955   0.0000049   0.0000000), wk =   0.2500000
        k(    5) = (   0.0379955   0.0419400   0.0000000), wk =   0.2500000
        k(    6) = (   0.0379955  -0.0838652   0.0000000), wk =   0.2500000
        k(    7) = (   0.0379955  -0.0419301   0.0000000), wk =   0.2500000
        k(    8) = (  -0.0759910  -0.0000099   0.0000000), wk =   0.1250000
        k(    9) = (  -0.0759910   0.0419252   0.0000000), wk =   0.2500000
        k(   10) = (  -0.0759910  -0.0838800   0.0000000), wk =   0.1250000

     Initial potential from superposition of free atoms

     starting charge  391.99915, renormalised to  408.00000

     negative rho (up, down):  9.975E-03 0.000E+00

     %%%%%%%%%%%%%%%%%%%%%%%%%%%%%%%%%%%%%%%%%%%%%%%%%%%%%%%%%%%%%%%%%%%%%%%%
     %                                                                      %
     % You are using vdW-DF, which was implemented by the Thonhauser group. %
     % Please cite the following two papers that made this development      %
     % possible and the two reviews that describe the various versions:     %
     %                                                                      %
     %   T. Thonhauser et al., PRL 115, 136402 (2015).                      %
     %   T. Thonhauser et al., PRB 76, 125112 (2007).                       %
     %   K. Berland et al., Rep. Prog. Phys. 78, 066501 (2015).             %
     %   D.C. Langreth et al., J. Phys.: Condens. Matter 21, 084203 (2009). %
     %                                                                      %
     %                                                                      %
     % If you are calculating the stress with vdW-DF, please also cite:     %
     %                                                                      %
     %   R. Sabatini et al., J. Phys.: Condens. Matter 24, 424209 (2012).   %
     %                                                                      %
     %%%%%%%%%%%%%%%%%%%%%%%%%%%%%%%%%%%%%%%%%%%%%%%%%%%%%%%%%%%%%%%%%%%%%%%%

     Adding external electric field

     Computed dipole along edir(3) :
        Dipole              -16.8152 Ry au,        -42.7399 Debye
        Dipole field         -0.0317 Ry au,

        Potential amp.        2.9416 Ry
        Total length         46.3494 bohr

     Starting wfcs are  308 atomic wfcs
  @ DRIVER MODE: Message from server: STATUS
  @ DRIVER MODE: Message from server: POSDATA
  @ DRIVER MODE: Reading and sharing cell
  @ DRIVER MODE: Reading and sharing positions
  @ DRIVER MODE: Received positions

     Self-consistent Calculation

     iteration #  1     ecut=    29.40 Ry     beta= 0.05
     Davidson diagonalization with overlap
     c_bands:  4 eigenvalues not converged
     c_bands:  1 eigenvalues not converged
     c_bands:  5 eigenvalues not converged
     c_bands:  1 eigenvalues not converged
     c_bands:  2 eigenvalues not converged
     c_bands:  2 eigenvalues not converged
     c_bands:  1 eigenvalues not converged
     c_bands:  5 eigenvalues not converged
     ethr =  1.00E-05,  avg # of iterations = 27.4

[...]

     total energy              =   -2248.48990010 Ry
     estimated scf accuracy    <    8688.99203190 Ry

     iteration #  2     ecut=    29.40 Ry     beta= 0.05
     Davidson diagonalization with overlap
     ethr =  1.00E-02,  avg # of iterations = 30.9

[...]

     iteration # 76     ecut=    29.40 Ry     beta= 0.05
     Davidson diagonalization with overlap
     c_bands:  2 eigenvalues not converged
     c_bands:  1 eigenvalues not converged
     ethr =  2.07E-07,  avg # of iterations =  9.0

[...]

     total energy              =   -3005.28908673 Ry
     estimated scf accuracy    <       0.00000023 Ry

     iteration # 96     ecut=    29.40 Ry     beta= 0.05
     Davidson diagonalization with overlap
     ethr =  4.24E-11,  avg # of iterations =  5.6

     negative rho (up, down):  1.141E-02 0.000E+00

     Adding external electric field

     Computed dipole along edir(3) :
        Dipole                0.5468 Ry au,          1.3897 Debye
        Dipole field          0.0010 Ry au,

        Potential amp.       -0.0956 Ry
        Total length         46.3494 bohr

     End of self-consistent calculation

          k = 0.0000 0.0000 0.0000 ( 18029 PWs)   bands (ev):

   -56.1304 -56.0829 -55.5726 -55.5531 -55.5386 -55.5155 -55.4817 -55.4582
   -55.4235 -55.3968 -55.3637 -55.3219 -55.3207 -55.1846 -54.7433 -54.7094
   -32.5434 -32.3946 -32.3443 -32.3099 -32.2152 -32.1697 -32.0759 -32.0198
   -32.0113 -31.9043 -31.8612 -31.8433 -31.8377 -31.8162 -31.8139 -31.7757
   -31.7728 -31.7591 -31.7394 -31.7324 -31.7282 -31.6870 -31.6777 -31.6628
   -31.6596 -31.6417 -31.6387 -31.6292 -31.6217 -31.6120 -31.6050 -31.5872
   -31.5731 -31.5676 -31.5610 -31.5267 -31.5177 -31.5148 -31.4845 -31.4393
   -31.4013 -31.3898 -31.1377 -31.0834 -31.0591 -30.9546 -30.8697 -30.7588
   -20.8559 -17.3379 -16.3420 -16.2872 -16.1459 -15.9093 -15.7647 -15.6875
   -15.4580 -15.4475 -15.3326 -15.3257 -15.2910 -15.1600 -15.1425 -15.1348
   -15.0831 -15.0692 -15.0462 -15.0435 -15.0402 -15.0318 -14.9743 -14.9552
   -14.9157 -14.8567 -14.7806 -14.7598 -14.7111 -14.7002 -14.6586 -14.4329
   -13.2446 -13.1359  -9.0665  -6.0164  -4.1059  -3.9905  -3.9797  -3.9267
    -3.8138  -3.7636  -3.5887  -3.4902  -3.4587  -3.3751  -3.2921  -3.1869
    -2.9726  -2.8212  -2.7580  -2.7195  -2.7152  -2.6771  -2.6358  -2.5741
    -2.5195  -2.4773  -2.4434  -2.4095  -2.3491  -2.3354  -2.3208  -2.2904
    -2.2710  -2.2500  -2.2138  -2.2004  -2.0710  -2.0342  -2.0044  -1.9932
    -1.9400  -1.9213  -1.9025  -1.8922  -1.8478  -1.7514  -1.6535  -1.6386
    -1.5953  -1.4096  -1.3337  -1.2879  -1.2094  -1.1439  -1.0653  -1.0455
    -1.0354  -0.9812  -0.9434  -0.8416  -0.8079  -0.7688  -0.7011  -0.6958
    -0.6568  -0.5970  -0.5719  -0.5102  -0.4825  -0.4492  -0.3103  -0.2740
    -0.2563  -0.1949  -0.1942  -0.1023  -0.0429   0.0100   0.0290   0.0846
     0.1245   0.1468   0.1979   0.2285   0.2423   0.3259   0.3748   0.3818
     0.4168   0.4554   0.4742   0.5057   0.5943   0.6426   0.6686   0.6945
     0.8385   0.8531   0.9070   1.0135   1.0243   1.2048   1.2744   1.3099
     1.4964   1.5347   1.8260   1.8718   3.1698   3.3330   3.6123   3.7253
     3.7688   3.8088   3.8842   3.9113   4.0660   4.0892

[...]

          k = 0.0380-0.0419 0.0000 ( 17876 PWs)   bands (ev):

[...]

          k =-0.0760-0.0000 0.0000 ( 17886 PWs)   bands (ev):

[...]

          k =-0.0760-0.0839 0.0000 ( 17948 PWs)   bands (ev):

   -56.1234 -56.0898 -55.5706 -55.5482 -55.5375 -55.5095 -55.4861 -55.4639
   -55.4253 -55.3981 -55.3551 -55.3301 -55.3189 -55.1866 -54.7265 -54.7261
   -32.3901 -32.3745 -32.3483 -32.3459 -32.2754 -32.2468 -31.9644 -31.8844
   -31.8558 -31.8376 -31.8156 -31.8053 -31.7925 -31.7870 -31.7768 -31.7624
   -31.7569 -31.7475 -31.7472 -31.7390 -31.7302 -31.7214 -31.7080 -31.7064
   -31.7047 -31.6873 -31.6827 -31.6570 -31.6493 -31.6479 -31.6305 -31.6242
   -31.6007 -31.5944 -31.5790 -31.5671 -31.5644 -31.5369 -31.5218 -31.5039
   -31.4398 -31.3933 -31.0722 -31.0720 -30.9533 -30.9516 -30.9118 -30.9109
   -20.8558 -17.3003 -16.3157 -15.6937 -15.6042 -15.5949 -15.5875 -15.5545
   -15.5187 -15.4540 -15.4394 -15.3712 -15.2992 -15.2686 -15.2275 -15.2025
   -15.1868 -15.1498 -15.1455 -15.0836 -15.0400 -15.0310 -15.0165 -15.0027
   -14.9579 -14.9503 -14.9414 -14.9252 -14.9159 -14.8553 -14.7556 -14.5775
   -13.2402 -13.2390  -9.0666  -6.0179  -4.0449  -3.9960  -3.9736  -3.8500
    -3.7036  -3.4442  -2.9266  -2.8466  -2.7678  -2.7657  -2.7015  -2.6768
    -2.6289  -2.6059  -2.5694  -2.5544  -2.5322  -2.4667  -2.4420  -2.4276
    -2.4240  -2.4151  -2.3991  -2.3803  -2.3380  -2.3287  -2.3153  -2.3061
    -2.2872  -2.2827  -2.2703  -2.2486  -2.2087  -2.1467  -2.0875  -1.9489
    -1.9407  -1.9135  -1.8954  -1.8710  -1.8460  -1.7953  -1.7138  -1.6938
    -1.6751  -1.5995  -1.5405  -1.3353  -1.3132  -1.2967  -1.2270  -1.1585
    -1.0922  -1.0745  -1.0398  -1.0057  -0.9824  -0.9420  -0.8849  -0.8514
    -0.8083  -0.7954  -0.7575  -0.7195  -0.6734  -0.6094  -0.6013  -0.5684
    -0.5185  -0.4947  -0.4049  -0.3966  -0.3724  -0.3547  -0.3215  -0.2299
    -0.1773  -0.1315  -0.0424  -0.0032   0.0371   0.1700   0.2365   0.2721
     0.3449   0.3871   0.4930   0.5152   0.5941   0.6157   0.6452   0.6703
     0.7368   0.8066   0.8580   0.9072   0.9477   0.9624   1.0134   1.0643
     1.6678   1.6703   1.6779   1.6842   3.7127   3.7389   3.7467   3.7800
     3.9843   4.0143   4.0875   4.1042   4.1248   4.1790

     the Fermi energy is     2.5781 ev

!    total energy              =   -3005.28909110 Ry
     estimated scf accuracy    <       0.00000006 Ry
     smearing contrib. (-TS)   =      -0.00015446 Ry
     internal energy E=F+TS    =   -3005.28893665 Ry

     The total energy is F=E-TS. E is the sum of the following terms:
     one-electron contribution =  -22581.79103214 Ry
     hartree contribution      =   11387.19356746 Ry
     xc contribution           =    -500.23429816 Ry
     ewald contribution        =    8689.54226205 Ry
     electric field correction =       0.00056414 Ry

     convergence has been achieved in  96 iterations

     Forces acting on atoms (cartesian axes, Ry/au):

     atom    1 type  1   force =     0.00012528    0.00010808    0.13277607
     atom    2 type  1   force =    -0.00010629    0.00820859   -0.15827706
     atom    3 type  2   force =     0.00029881   -0.00362298   -0.05308025
     atom    4 type  2   force =     0.00059220    0.00104710    0.04010007
     atom    5 type  2   force =    -0.00785509   -0.00195042   -0.00034524
     atom    6 type  2   force =     0.00845809   -0.00490360   -0.00005087
     atom    7 type  1   force =    -0.00017648   -0.00031842   -0.00006037
     atom    8 type  1   force =    -0.00000570   -0.00027160    0.00021153
     atom    9 type  2   force =     0.00013227    0.00009713    0.00000589
     atom   10 type  2   force =    -0.00003291    0.00020671    0.00008279
     atom   11 type  2   force =    -0.00004663    0.00012946   -0.00000316
     atom   12 type  2   force =     0.00037050   -0.00010993   -0.00004876
     atom   13 type  1   force =    -0.00017629    0.00002899    0.00019044
     atom   14 type  1   force =     0.00011827    0.00056550    0.00012984
     atom   15 type  2   force =    -0.00009919    0.00012521   -0.00002179
     atom   16 type  2   force =     0.00002186    0.00005422   -0.00043813
     atom   17 type  2   force =     0.00015546   -0.00045960    0.00019328
     atom   18 type  2   force =    -0.00011180   -0.00053903    0.00013408
     atom   19 type  1   force =    -0.00034285    0.00030981    0.00000532
     atom   20 type  1   force =     0.00039558   -0.00004050   -0.00010704
     atom   21 type  2   force =    -0.00006533    0.00009568    0.09917245
     atom   22 type  2   force =    -0.00022969    0.00013724    0.00003106
     atom   23 type  2   force =    -0.08058604    0.00058010   -0.03418781
     atom   24 type  2   force =     0.08036023    0.00110125   -0.03422842
     atom   25 type  1   force =    -0.00021993   -0.00017387    0.14168978
     atom   26 type  1   force =    -0.00018821   -0.00686806   -0.15778555
     atom   27 type  2   force =     0.00043761    0.00017944   -0.05212317
     atom   28 type  2   force =     0.00043852    0.00035599    0.04188965
     atom   29 type  2   force =    -0.00939342    0.00598309    0.00164692
     atom   30 type  2   force =     0.00930726    0.00235539    0.00175583
     atom   31 type  1   force =    -0.00002642    0.00010262    0.00013212
     atom   32 type  1   force =     0.00001948   -0.00013138   -0.00010962
     atom   33 type  2   force =    -0.00006428   -0.00031629    0.00026602
     atom   34 type  2   force =    -0.00009786   -0.00005722    0.00002398
     atom   35 type  2   force =     0.00061688    0.00026396   -0.00006832
     atom   36 type  2   force =    -0.00018563    0.00015539    0.00005357
     atom   37 type  1   force =    -0.00038991    0.00047466   -0.00060341
     atom   38 type  1   force =     0.00024872   -0.00033618   -0.00008403
     atom   39 type  2   force =    -0.00002926   -0.00000426    0.00031000
     atom   40 type  2   force =     0.00012859   -0.00008752   -0.00034497
     atom   41 type  2   force =     0.00075645    0.00015194    0.00015989
     atom   42 type  2   force =    -0.00041769    0.00033687    0.00002290
     atom   43 type  1   force =    -0.00056287   -0.00033287    0.00007470
     atom   44 type  1   force =    -0.00000197   -0.00028463   -0.00045955
     atom   45 type  2   force =    -0.00007667    0.00018400    0.09873847
     atom   46 type  2   force =    -0.08055080   -0.00156565   -0.03414240
     atom   47 type  2   force =     0.08035362   -0.00103218   -0.03422725
     atom   48 type  3   force =    -0.01030190   -0.00039425   -0.00052816
     atom   49 type  2   force =    -0.00059347   -0.00034385    0.00121903
     atom   50 type  4   force =     0.01127547    0.00051307    0.00024018
     atom   51 type  4   force =    -0.00050982   -0.00013756    0.00001433
     atom   52 type  4   force =    -0.00011647    0.00036308   -0.00038448
     atom   53 type  5   force =     0.00099863    0.00011013    0.00074023
     atom   54 type  5   force =    -0.00133658   -0.00000219   -0.00084276
     atom   55 type  2   force =    -0.00112424    0.00082133    0.00024859
     atom   56 type  4   force =     0.00041194   -0.00086197    0.00029353

     Total force =     0.384028     Total SCF correction =     0.000912
  @ DRIVER MODE: Message from server: STATUS
  @ DRIVER MODE: Message from server: GETFORCE
  @ DRIVER MODE: Returning v,forces,stress,ensemble

     Writing output data file ./calc.save/
  @ DRIVER MODE: Message from server: EXIT
  @ DRIVE MODE: Exiting

     General routines

     Parallel routines

   This run was terminated on:  17:33:53  23Sep2021

   JOB DONE.