     Program PWSCF v.6.7GPU starts on 24Sep2021 at  3:34: 0

     R & G space division:  proc/nbgrp/npool/nimage =       8
     Reading input from /storage/home/hcoda1/3/ntian30/research/carbon/CxH_vib/H2O_calc/ads_slab/CH2NNHHHHO_a/out_0038/pw.inp
Warning: card &CELL ignored
Warning: card   CELL_DYNAMICS='IPI', ignored
Warning: card / ignored

     Current dimensions of program PWSCF are:
     Max number of different atomic species (ntypx) = 10
     Max number of k-points (npk) =  40000
     Max angular momentum in pseudopotentials (lmaxx) =  3
     Presently no symmetry can be used with electric field

     Message from routine cell_base_init:
     DEPRECATED: use true lattice parameter, not A to a.u. conversion factor

     IMPORTANT: XC functional enforced from input :
     Exchange-correlation= BEEF-VDW
                           (   1   4  43  14   2   0   0)
     Any further DFT definition will be discarded
     Please, verify this is what you really want

  @ DRIVER MODE: Connecting to
 qe_1139763_2947316.sched-torque.pace.gatech.edutgbc8ih2_scratch
  using UNIX socket
  @ DRIVER MODE: Message from server: STATUS
  @ DRIVER MODE: Message from server: INIT
  @ DRIVER MODE: Receiving replica           0          -1
  @ DRIVER MODE: Receiving encoded integer          25
  @ DRIVER MODE:  SCF:  T  FORCE:  T  STRESS:  F  VC:  F  ENSEMBLE:  F
  @ DRIVER MODE:  SCF:  T  FORCE:  T  STRESS:  F  VC:  F  ENSEMBLE:  F

     Using Slab Decomposition

     bravais-lattice index     =            0
     lattice parameter (alat)  =       1.8897  a.u.
     unit-cell volume          =    6658.9804 (a.u.)^3
     number of atoms/cell      =           57
     number of atomic types    =            5
     number of electrons       =       404.00
     number of Kohn-Sham states=          212
     kinetic-energy cutoff     =      29.3995  Ry
     charge density cutoff     =     293.9946  Ry
     scf convergence threshold =      7.3E-08
     mixing beta               =       0.0500
     number of iterations used =            8  plain     mixing
     Exchange-correlation= BEEF-VDW
                           (   1   4  43  14   2   0   0)

     celldm(1)=   1.889726  celldm(2)=   0.000000  celldm(3)=   0.000000
     celldm(4)=   0.000000  celldm(5)=   0.000000  celldm(6)=   0.000000

     crystal axes: (cart. coord. in units of alat)
               a(1) = (   6.579727   0.000000   0.000000 )
               a(2) = (  -0.000775   5.961596   0.000000 )
               a(3) = (   0.000000   0.000000  25.155947 )

     reciprocal axes: (cart. coord. in units 2 pi/alat)
               b(1) = (  0.151982  0.000020  0.000000 )
               b(2) = (  0.000000  0.167740  0.000000 )
               b(3) = (  0.000000  0.000000  0.039752 )

     PseudoPot. # 1 for Ti read from file:
     /storage/coda1/p-amedford6/0/shared/rich_project_chbe-medford/medford-share/data/pseudos_module/espresso/nninc/pbe/van/Ti.UPF
     MD5 check sum: 8e4df49b7f0d34bbd5052bf3f5ea0213
     Pseudo is Ultrasoft, Zval = 12.0
     Generated by new atomic code, or converted to UPF format
     Using radial grid of  851 points,  6 beta functions with:
                l(1) =   0
                l(2) =   0
                l(3) =   1
                l(4) =   1
                l(5) =   2
                l(6) =   2
     Q(r) pseudized with  8 coefficients,  rinner =    1.000   1.000   1.000
                                                       1.000   1.000

     PseudoPot. # 2 for O  read from file:
     /storage/coda1/p-amedford6/0/shared/rich_project_chbe-medford/medford-share/data/pseudos_module/espresso/nninc/pbe/van/O.UPF
     MD5 check sum: 78c19812648e8988a0fe644b0f25305e
     Pseudo is Ultrasoft, Zval =  6.0
     Generated by new atomic code, or converted to UPF format
     Using radial grid of  737 points,  4 beta functions with:
                l(1) =   0
                l(2) =   0
                l(3) =   1
                l(4) =   1
     Q(r) pseudized with  8 coefficients,  rinner =    0.800   0.800   0.800

     PseudoPot. # 3 for N  read from file:
     /storage/coda1/p-amedford6/0/shared/rich_project_chbe-medford/medford-share/data/pseudos_module/espresso/nninc/pbe/van/N.UPF
     MD5 check sum: 90d10febe142ad51ac9d5be1deb811c4
     Pseudo is Ultrasoft, Zval =  5.0
     Generated by new atomic code, or converted to UPF format
     Using radial grid of  729 points,  4 beta functions with:
                l(1) =   0
                l(2) =   0
                l(3) =   1
                l(4) =   1
     Q(r) pseudized with  8 coefficients,  rinner =    0.800   0.800   0.800

     PseudoPot. # 4 for C  read from file:
     /storage/coda1/p-amedford6/0/shared/rich_project_chbe-medford/medford-share/data/pseudos_module/espresso/nninc/pbe/van/C.UPF
     MD5 check sum: 1a69bf6b8db32088f5b2163dbdb77a27
     Pseudo is Ultrasoft, Zval =  4.0
     Generated by new atomic code, or converted to UPF format
     Using radial grid of  721 points,  4 beta functions with:
                l(1) =   0
                l(2) =   0
                l(3) =   1
                l(4) =   1
     Q(r) pseudized with  8 coefficients,  rinner =    0.800   0.800   0.800

     PseudoPot. # 5 for H  read from file:
     /storage/coda1/p-amedford6/0/shared/rich_project_chbe-medford/medford-share/data/pseudos_module/espresso/nninc/pbe/van/H.UPF
     MD5 check sum: b5ee9d7bfd3a09ee7748110bda690ff7
     Pseudo is Ultrasoft, Zval =  1.0
     Generated by new atomic code, or converted to UPF format
     Using radial grid of  615 points,  1 beta functions with:
                l(1) =   0
     Q(r) pseudized with  8 coefficients,  rinner =    0.800

     atomic species   valence    mass     pseudopotential
        Ti1           12.00    47.86700     Ti( 1.00)
        O1             6.00    15.99900     O ( 1.00)
        N1             5.00    14.00700     N ( 1.00)
        C1             4.00    12.01100     C ( 1.00)
        H1             1.00     1.00800     H ( 1.00)

     No symmetry found

   Cartesian axes

     site n.     atom                  positions (alat units)
         1           Ti1 tau(   1) = (   0.0004258   2.9801865   6.0000000  )
         2           Ti1 tau(   2) = (   3.2906075   1.4906267   6.0002472  )
         3           O1  tau(   3) = (   0.0006271   0.0005054   7.9858123  )
         4           O1  tau(   4) = (   3.2906025   0.0005020   7.3038282  )
         5           O1  tau(   5) = (   4.5942328   1.4918067   9.2879030  )
         6           O1  tau(   6) = (   1.9868534   1.4903216   9.2879459  )
         7           Ti1 tau(   7) = (   3.2907910   2.8959150   9.1758416  )
         8           Ti1 tau(   8) = (   0.0015273   1.4827037   9.2680791  )
         9           O1  tau(   9) = (   3.3027076   5.9092304  11.3732431  )
        10           O1  tau(  10) = (   0.0116148   5.9584955  10.6183126  )
        11           O1  tau(  11) = (   1.2953868   1.4751764  12.6403503  )
        12           O1  tau(  12) = (   5.3168701   1.4807623  12.6366210  )
        13           Ti1 tau(  13) = (   0.0172323   2.9996225  12.5311828  )
        14           Ti1 tau(  14) = (   3.3257086   1.2755711  12.7138078  )
        15           O1  tau(  15) = (   6.5733368   0.1082846  14.6600873  )
        16           O1  tau(  16) = (   3.3238075   0.0838359  14.0473399  )
        17           O1  tau(  17) = (   4.5575128   1.5393005  16.2317518  )
        18           O1  tau(  18) = (   2.0302387   1.4963625  16.2670071  )
        19           Ti1 tau(  19) = (   3.2366114   2.9448900  15.6849520  )
        20           Ti1 tau(  20) = (   6.5300729   1.3987400  16.1165465  )
        21           O1  tau(  21) = (   3.2904802   0.0005063   4.7018136  )
        22           O1  tau(  22) = (   0.0022030   5.7760056  17.1861099  )
        23           O1  tau(  23) = (   1.3043587   1.4918075   6.0039043  )
        24           O1  tau(  24) = (   5.2767064   1.4903225   6.0039473  )
        25           Ti1 tau(  25) = (   0.0000382   5.9609847   6.0000000  )
        26           Ti1 tau(  26) = (   3.2902200   4.4714249   6.0002472  )
        27           O1  tau(  27) = (   0.0002396   2.9813036   7.9858123  )
        28           O1  tau(  28) = (   3.2902150   2.9813002   7.3038282  )
        29           O1  tau(  29) = (   4.5938453   4.4726049   9.2879030  )
        30           O1  tau(  30) = (   1.9864658   4.4711199   9.2879459  )
        31           Ti1 tau(  31) = (   3.2891106   5.8743827   9.1763621  )
        32           Ti1 tau(  32) = (   0.0006254   4.4649316   9.2693709  )
        33           O1  tau(  33) = (   3.3012885   2.9833904  11.3212188  )
        34           O1  tau(  34) = (   0.0092240   2.9805883  10.6323155  )
        35           O1  tau(  35) = (   1.2895456   4.4501540  12.7025460  )
        36           O1  tau(  36) = (   5.3143371   4.4382646  12.6927937  )
        37           Ti1 tau(  37) = (   0.0343555   0.0433052  12.5107970  )
        38           Ti1 tau(  38) = (   3.3217552   4.3482123  12.4486840  )
        39           O1  tau(  39) = (   0.0141661   2.9064423  14.8877341  )
        40           O1  tau(  40) = (   3.2920978   2.9424077  13.9176102  )
        41           O1  tau(  41) = (   4.5506947   4.3398720  16.1100615  )
        42           O1  tau(  42) = (   2.0210198   4.4131678  16.0160425  )
        43           Ti1 tau(  43) = (   3.3132698   5.9358869  16.2610495  )
        44           Ti1 tau(  44) = (   0.0826266   4.5979890  15.7080129  )
        45           O1  tau(  45) = (   3.2900926   2.9813045   4.7018136  )
        46           O1  tau(  46) = (   1.3039711   4.4726057   6.0039043  )
        47           O1  tau(  47) = (   5.2763189   4.4711207   6.0039473  )
        48           N1  tau(  48) = (   6.5643472   2.7424576  18.0625816  )
        49           C1  tau(  49) = (   0.8744728   2.5686873  19.0232366  )
        50           H1  tau(  50) = (   0.8543601   3.1364980  19.9465443  )
        51           H1  tau(  51) = (   1.6733950   1.8773151  18.8242213  )
        52           N1  tau(  52) = (   5.5366205   3.6779994  18.4753393  )
        53           H1  tau(  53) = (   5.9486539   4.6347284  18.5635686  )
        54           H1  tau(  54) = (   4.8875701   3.8234783  17.6645784  )
        55           H1  tau(  55) = (   5.0440791   3.3775604  19.3232938  )
        56           O1  tau(  56) = (   3.4091604   5.6710612  18.1544331  )
        57           H1  tau(  57) = (   3.1368125   0.4262250  18.7404830  )

     number of k points=    10  Fermi-Dirac smearing, width (Ry)=  0.0073
                       cart. coord. in units 2pi/alat
        k(    1) = (   0.0000000   0.0000000   0.0000000), wk =   0.1250000
        k(    2) = (   0.0000000   0.0419351   0.0000000), wk =   0.2500000
        k(    3) = (   0.0000000  -0.0838702   0.0000000), wk =   0.1250000
        k(    4) = (   0.0379955   0.0000049   0.0000000), wk =   0.2500000
        k(    5) = (   0.0379955   0.0419400   0.0000000), wk =   0.2500000
        k(    6) = (   0.0379955  -0.0838652   0.0000000), wk =   0.2500000
        k(    7) = (   0.0379955  -0.0419301   0.0000000), wk =   0.2500000
        k(    8) = (  -0.0759910  -0.0000099   0.0000000), wk =   0.1250000
        k(    9) = (  -0.0759910   0.0419252   0.0000000), wk =   0.2500000
        k(   10) = (  -0.0759910  -0.0838800   0.0000000), wk =   0.1250000

     Initial potential from superposition of free atoms

     starting charge  387.99913, renormalised to  404.00000

     negative rho (up, down):  1.545E-02 0.000E+00

     %%%%%%%%%%%%%%%%%%%%%%%%%%%%%%%%%%%%%%%%%%%%%%%%%%%%%%%%%%%%%%%%%%%%%%%%
     %                                                                      %
     % You are using vdW-DF, which was implemented by the Thonhauser group. %
     % Please cite the following two papers that made this development      %
     % possible and the two reviews that describe the various versions:     %
     %                                                                      %
     %   T. Thonhauser et al., PRL 115, 136402 (2015).                      %
     %   T. Thonhauser et al., PRB 76, 125112 (2007).                       %
     %   K. Berland et al., Rep. Prog. Phys. 78, 066501 (2015).             %
     %   D.C. Langreth et al., J. Phys.: Condens. Matter 21, 084203 (2009). %
     %                                                                      %
     %                                                                      %
     % If you are calculating the stress with vdW-DF, please also cite:     %
     %                                                                      %
     %   R. Sabatini et al., J. Phys.: Condens. Matter 24, 424209 (2012).   %
     %                                                                      %
     %%%%%%%%%%%%%%%%%%%%%%%%%%%%%%%%%%%%%%%%%%%%%%%%%%%%%%%%%%%%%%%%%%%%%%%%

     Adding external electric field

     Computed dipole along edir(3) :
        Dipole              -13.5862 Ry au,        -34.5326 Debye
        Dipole field         -0.0256 Ry au,

        Potential amp.        2.3767 Ry
        Total length         46.3494 bohr

     Starting wfcs are  306 atomic wfcs
  @ DRIVER MODE: Message from server: STATUS
  @ DRIVER MODE: Message from server: POSDATA
  @ DRIVER MODE: Reading and sharing cell
  @ DRIVER MODE: Reading and sharing positions
  @ DRIVER MODE: Received positions

     Self-consistent Calculation

     iteration #  1     ecut=    29.40 Ry     beta= 0.05
     Davidson diagonalization with overlap
     c_bands:  4 eigenvalues not converged
     c_bands:  1 eigenvalues not converged
     c_bands:  1 eigenvalues not converged
     c_bands:  1 eigenvalues not converged
     c_bands:  2 eigenvalues not converged
     c_bands:  4 eigenvalues not converged
     c_bands:  5 eigenvalues not converged
     c_bands:  2 eigenvalues not converged
     ethr =  1.00E-05,  avg # of iterations = 29.7

[...]

     total energy              =   -2247.84122733 Ry
     estimated scf accuracy    <    8242.51902100 Ry

     iteration #  2     ecut=    29.40 Ry     beta= 0.05
     Davidson diagonalization with overlap
     ethr =  1.00E-02,  avg # of iterations = 25.6

[...]

     iteration # 58     ecut=    29.40 Ry     beta= 0.05
     Davidson diagonalization with overlap
     c_bands:  1 eigenvalues not converged
     ethr =  5.03E-08,  avg # of iterations =  9.9

[...]

     total energy              =   -2975.12438230 Ry
     estimated scf accuracy    <       0.00000024 Ry

     iteration # 73     ecut=    29.40 Ry     beta= 0.05
     Davidson diagonalization with overlap
     ethr =  6.03E-11,  avg # of iterations =  8.7

     negative rho (up, down):  1.380E-02 0.000E+00

     Adding external electric field

     Computed dipole along edir(3) :
        Dipole                1.3758 Ry au,          3.4970 Debye
        Dipole field          0.0026 Ry au,

        Potential amp.       -0.2407 Ry
        Total length         46.3494 bohr

     End of self-consistent calculation

          k = 0.0000 0.0000 0.0000 ( 18029 PWs)   bands (ev):

   -55.3861 -55.2462 -55.2121 -55.1208 -55.0856 -55.0791 -55.0756 -55.0416
   -55.0353 -54.9871 -54.9598 -54.9227 -54.8704 -54.7413 -54.2263 -54.1923
   -31.7317 -31.7150 -31.6129 -31.6056 -31.5844 -31.5775 -31.5371 -31.5281
   -31.5190 -31.4921 -31.4491 -31.4444 -31.3987 -31.3709 -31.3694 -31.3594
   -31.3535 -31.3124 -31.3035 -31.3014 -31.2841 -31.2740 -31.2696 -31.2644
   -31.2624 -31.2234 -31.2195 -31.2191 -31.2155 -31.2029 -31.1935 -31.1883
   -31.1812 -31.1484 -31.1414 -31.1101 -31.1022 -31.0866 -31.0803 -31.0763
   -31.0024 -30.9091 -30.6326 -30.5454 -30.5230 -30.4501 -30.3636 -30.2519
   -19.2045 -16.3123 -15.9246 -15.7682 -15.5869 -15.4489 -15.4084 -15.1851
   -15.1292 -15.0426 -15.0210 -14.9043 -14.7877 -14.7873 -14.7664 -14.7597
   -14.7443 -14.6990 -14.6938 -14.6918 -14.6721 -14.6505 -14.6298 -14.6198
   -14.5823 -14.5408 -14.3901 -14.3741 -14.3509 -14.3070 -14.1698 -14.0036
   -12.7253 -12.6088  -9.1934  -7.7166  -6.9123  -6.1369  -4.3066  -3.6093
    -3.2732  -3.1756  -3.1530  -3.1423  -3.0096  -2.8389  -2.6439  -2.5822
    -2.5197  -2.4049  -2.3762  -2.2804  -2.2581  -2.2176  -2.1617  -2.1383
    -2.1110  -2.0563  -2.0436  -2.0353  -1.9451  -1.9254  -1.8233  -1.8020
    -1.7703  -1.7104  -1.6837  -1.6170  -1.5852  -1.5629  -1.5608  -1.5529
    -1.5299  -1.5160  -1.4940  -1.4417  -1.4106  -1.3475  -1.2827  -1.2067
    -1.1329  -0.9096  -0.8630  -0.8436  -0.7900  -0.7511  -0.6886  -0.6635
    -0.6441  -0.6314  -0.5628  -0.4525  -0.4043  -0.3642  -0.3086  -0.2841
    -0.2529  -0.1460  -0.0691  -0.0515  -0.0058   0.0334   0.0592   0.1244
     0.1599   0.2011   0.2702   0.2842   0.3608   0.4006   0.4238   0.4709
     0.5106   0.5737   0.6191   0.6682   0.6755   0.7053   0.7226   0.7541
     0.8397   0.8572   0.8988   0.9326   0.9935   1.0477   1.0726   1.2464
     1.3710   1.4060   1.4756   1.7422   1.7999   1.8158   1.9905   2.3680
     2.4136   3.8401   3.9803   3.9914   3.9990   4.0679   4.1214   4.1439
     4.3262   4.3657   4.4840   4.5255

[...]

          k = 0.0380-0.0419 0.0000 ( 17876 PWs)   bands (ev):

[...]

          k =-0.0760-0.0000 0.0000 ( 17886 PWs)   bands (ev):

[...]

          k =-0.0760-0.0839 0.0000 ( 17948 PWs)   bands (ev):

   -55.3854 -55.2293 -55.2289 -55.1062 -55.0999 -55.0797 -55.0588 -55.0580
   -55.0286 -54.9940 -54.9585 -54.9170 -54.8760 -54.7424 -54.2096 -54.2088
   -31.6545 -31.5962 -31.5873 -31.5471 -31.5468 -31.5227 -31.5223 -31.5011
   -31.4403 -31.4150 -31.3940 -31.3818 -31.3780 -31.3751 -31.3674 -31.3492
   -31.3485 -31.3445 -31.3415 -31.3312 -31.3276 -31.3090 -31.3016 -31.2800
   -31.2679 -31.2605 -31.2541 -31.2447 -31.2357 -31.2338 -31.2304 -31.2235
   -31.2153 -31.2097 -31.1832 -31.1464 -31.1199 -31.1065 -31.0941 -31.0827
   -31.0041 -30.9812 -30.5360 -30.5354 -30.4460 -30.4448 -30.4072 -30.4066
   -19.2008 -16.2992 -15.4557 -15.4089 -15.2219 -15.2186 -15.1916 -15.1304
   -15.0916 -15.0402 -15.0239 -14.9883 -14.9496 -14.9332 -14.9085 -14.8369
   -14.7933 -14.7670 -14.7556 -14.7193 -14.7035 -14.7027 -14.6711 -14.6487
   -14.6384 -14.5724 -14.5600 -14.4982 -14.4367 -14.4118 -14.2828 -14.2444
   -12.7108 -12.7103  -9.1812  -7.7280  -6.8977  -6.1458  -4.3365  -3.5976
    -2.6461  -2.6423  -2.4439  -2.4106  -2.3457  -2.2742  -2.2410  -2.2210
    -2.1738  -2.1667  -2.1273  -2.1049  -2.0683  -2.0396  -2.0327  -2.0151
    -1.9985  -1.9759  -1.9540  -1.9368  -1.9311  -1.9015  -1.8803  -1.8699
    -1.8273  -1.8200  -1.7954  -1.7770  -1.7426  -1.6795  -1.6184  -1.4988
    -1.4600  -1.4321  -1.4115  -1.3969  -1.3688  -1.3327  -1.3171  -1.3033
    -1.2736  -1.2606  -1.1507  -1.0037  -0.9924  -0.8977  -0.8634  -0.8584
    -0.7528  -0.7204  -0.6868  -0.6611  -0.6092  -0.5680  -0.4673  -0.4559
    -0.4137  -0.3458  -0.2488  -0.2389  -0.2235  -0.1948  -0.1714  -0.1650
    -0.1068  -0.0687  -0.0319   0.0195   0.0394   0.0618   0.0944   0.1882
     0.2178   0.3314   0.4548   0.4925   0.5178   0.5483   0.6829   0.7366
     0.7813   0.8549   0.9180   0.9379   1.0413   1.0595   1.0911   1.1463
     1.2170   1.2666   1.2827   1.3109   1.3237   2.1608   2.1689   2.2338
     2.2342   3.7966   4.0030   4.2548   4.3280   4.3491   4.3785   4.4008
     4.4330   4.4589   4.5032   4.5250

     the Fermi energy is     3.8758 ev

!    total energy              =   -2975.12440220 Ry
     estimated scf accuracy    <       0.00000006 Ry
     smearing contrib. (-TS)   =      -0.03101059 Ry
     internal energy E=F+TS    =   -2975.09339161 Ry

     The total energy is F=E-TS. E is the sum of the following terms:
     one-electron contribution =  -23510.34032531 Ry
     hartree contribution      =   11853.48037767 Ry
     xc contribution           =    -494.86226429 Ry
     ewald contribution        =    9176.62524811 Ry
     electric field correction =       0.00357221 Ry

     convergence has been achieved in  73 iterations

     Forces acting on atoms (cartesian axes, Ry/au):

     atom    1 type  1   force =     0.00014242   -0.00021000    0.09451254
     atom    2 type  1   force =    -0.00007501    0.00040158   -0.17563438
     atom    3 type  2   force =     0.00003398   -0.00002889   -0.02144539
     atom    4 type  2   force =     0.00000395   -0.00223500    0.05507839
     atom    5 type  2   force =    -0.00783743   -0.00314175    0.00369136
     atom    6 type  2   force =     0.00956018   -0.00256877    0.00358298
     atom    7 type  1   force =     0.00003109   -0.00298194    0.00575997
     atom    8 type  1   force =    -0.00022965    0.00257283    0.00566158
     atom    9 type  2   force =    -0.00035261   -0.00028623   -0.00000381
     atom   10 type  2   force =    -0.00116185   -0.00256907   -0.00858367
     atom   11 type  2   force =    -0.00073316   -0.00070296   -0.00015452
     atom   12 type  2   force =     0.00033202   -0.00070726   -0.00007105
     atom   13 type  1   force =     0.00008586    0.00006231    0.00043310
     atom   14 type  1   force =    -0.00015509   -0.00034754    0.00017836
     atom   15 type  2   force =     0.00013631   -0.00038315    0.00008239
     atom   16 type  2   force =     0.00004617   -0.00069621   -0.00032253
     atom   17 type  2   force =     0.00014343    0.00029429   -0.00028334
     atom   18 type  2   force =    -0.00050178    0.00030305   -0.00041792
     atom   19 type  1   force =     0.00051730    0.00055671    0.00014153
     atom   20 type  1   force =     0.00018888   -0.00045640   -0.00018220
     atom   21 type  2   force =     0.00005536    0.00002532    0.10330461
     atom   22 type  2   force =    -0.00004902    0.00077987   -0.00058155
     atom   23 type  2   force =    -0.07175176   -0.00020116   -0.02725685
     atom   24 type  2   force =     0.07158717    0.00023895   -0.02731909
     atom   25 type  1   force =     0.00006436   -0.00034196    0.09390581
     atom   26 type  1   force =    -0.00016648   -0.00123598   -0.17591380
     atom   27 type  2   force =     0.00013691   -0.00024416   -0.02017127
     atom   28 type  2   force =     0.00003664   -0.00055934    0.05059934
     atom   29 type  2   force =    -0.00678995    0.00147694    0.00205386
     atom   30 type  2   force =     0.00848633    0.00183163    0.00196787
     atom   31 type  1   force =     0.00015164    0.00700311   -0.00368398
     atom   32 type  1   force =    -0.00027714   -0.00258589    0.00512815
     atom   33 type  2   force =    -0.00000522    0.00033116   -0.00013185
     atom   34 type  2   force =    -0.00012048    0.00279203   -0.00830577
     atom   35 type  2   force =     0.00024677    0.00067132   -0.00030084
     atom   36 type  2   force =    -0.00100032    0.00054647   -0.00045268
     atom   37 type  1   force =     0.00013452   -0.00043751    0.00012853
     atom   38 type  1   force =    -0.00015397   -0.00010377   -0.00007312
     atom   39 type  2   force =    -0.00007687   -0.00004090    0.00018355
     atom   40 type  2   force =    -0.00047841    0.00012924   -0.00008731
     atom   41 type  2   force =     0.00016807    0.00047007   -0.00067135
     atom   42 type  2   force =     0.00038621    0.00029342    0.00025006
     atom   43 type  1   force =     0.00045661    0.00034052    0.00016223
     atom   44 type  1   force =    -0.00011734   -0.00037310   -0.00022207
     atom   45 type  2   force =     0.00001707   -0.00011024    0.10306631
     atom   46 type  2   force =    -0.07181572   -0.00003920   -0.02731214
     atom   47 type  2   force =     0.07165464    0.00035427   -0.02735272
     atom   48 type  3   force =     0.00094680    0.00003411   -0.00047113
     atom   49 type  4   force =     0.00041517   -0.00001693   -0.00009780
     atom   50 type  5   force =     0.00028482   -0.00036024   -0.00072236
     atom   51 type  5   force =    -0.00123556    0.00026513   -0.00031867
     atom   52 type  3   force =     0.00580488   -0.00059609    0.00316996
     atom   53 type  5   force =    -0.00025390    0.00065484    0.00000472
     atom   54 type  5   force =    -0.00629305    0.00067106   -0.00325867
     atom   55 type  5   force =    -0.00037584    0.00027635   -0.00045621
     atom   56 type  2   force =     0.00043319    0.00143963    0.00026071
     atom   57 type  5   force =    -0.00068118   -0.00025459   -0.00104790

     Total force =     0.362810     Total SCF correction =     0.000617
  @ DRIVER MODE: Message from server: STATUS
  @ DRIVER MODE: Message from server: GETFORCE
  @ DRIVER MODE: Returning v,forces,stress,ensemble

     Writing output data file ./calc.save/
  @ DRIVER MODE: Message from server: EXIT
  @ DRIVE MODE: Exiting

     General routines

     Parallel routines

   This run was terminated on:   4: 0:42  24Sep2021

   JOB DONE.