     Program PWSCF v.6.7GPU starts on 16Sep2021 at  5:25:21

     R & G space division:  proc/nbgrp/npool/nimage =      10
     Reading input from /storage/home/hcoda1/3/ntian30/research/carbon/CxH_vib/H2O_calc/ads_slab/CH3NH2O_a/out_0045/pw.inp
Warning: card &CELL ignored
Warning: card   CELL_DYNAMICS='IPI', ignored
Warning: card / ignored

     Current dimensions of program PWSCF are:
     Max number of different atomic species (ntypx) = 10
     Max number of k-points (npk) =  40000
     Max angular momentum in pseudopotentials (lmaxx) =  3
     Presently no symmetry can be used with electric field

     Message from routine cell_base_init:
     DEPRECATED: use true lattice parameter, not A to a.u. conversion factor

     IMPORTANT: XC functional enforced from input :
     Exchange-correlation= BEEF-VDW
                           (   1   4  43  14   2   0   0)
     Any further DFT definition will be discarded
     Please, verify this is what you really want

  @ DRIVER MODE: Connecting to
 qe_1139763_2852618.sched-torque.pace.gatech.edu33k__kbk_scratch
  using UNIX socket
  @ DRIVER MODE: Message from server: STATUS
  @ DRIVER MODE: Message from server: INIT
  @ DRIVER MODE: Receiving replica           0          -1
  @ DRIVER MODE: Receiving encoded integer          25
  @ DRIVER MODE:  SCF:  T  FORCE:  T  STRESS:  F  VC:  F  ENSEMBLE:  F
  @ DRIVER MODE:  SCF:  T  FORCE:  T  STRESS:  F  VC:  F  ENSEMBLE:  F

     Using Slab Decomposition

     bravais-lattice index     =            0
     lattice parameter (alat)  =       1.8897  a.u.
     unit-cell volume          =    6658.9804 (a.u.)^3
     number of atoms/cell      =           55
     number of atomic types    =            5
     number of electrons       =       398.00
     number of Kohn-Sham states=          209
     kinetic-energy cutoff     =      29.3995  Ry
     charge density cutoff     =     293.9946  Ry
     scf convergence threshold =      7.3E-08
     mixing beta               =       0.0500
     number of iterations used =            8  plain     mixing
     Exchange-correlation= BEEF-VDW
                           (   1   4  43  14   2   0   0)

     celldm(1)=   1.889726  celldm(2)=   0.000000  celldm(3)=   0.000000
     celldm(4)=   0.000000  celldm(5)=   0.000000  celldm(6)=   0.000000

     crystal axes: (cart. coord. in units of alat)
               a(1) = (   6.579727   0.000000   0.000000 )
               a(2) = (  -0.000775   5.961596   0.000000 )
               a(3) = (   0.000000   0.000000  25.155947 )

     reciprocal axes: (cart. coord. in units 2 pi/alat)
               b(1) = (  0.151982  0.000020  0.000000 )
               b(2) = (  0.000000  0.167740  0.000000 )
               b(3) = (  0.000000  0.000000  0.039752 )

     PseudoPot. # 1 for Ti read from file:
     /storage/coda1/p-amedford6/0/shared/rich_project_chbe-medford/medford-share/data/pseudos_module/espresso/nninc/pbe/van/Ti.UPF
     MD5 check sum: 8e4df49b7f0d34bbd5052bf3f5ea0213
     Pseudo is Ultrasoft, Zval = 12.0
     Generated by new atomic code, or converted to UPF format
     Using radial grid of  851 points,  6 beta functions with:
                l(1) =   0
                l(2) =   0
                l(3) =   1
                l(4) =   1
                l(5) =   2
                l(6) =   2
     Q(r) pseudized with  8 coefficients,  rinner =    1.000   1.000   1.000
                                                       1.000   1.000

     PseudoPot. # 2 for O  read from file:
     /storage/coda1/p-amedford6/0/shared/rich_project_chbe-medford/medford-share/data/pseudos_module/espresso/nninc/pbe/van/O.UPF
     MD5 check sum: 78c19812648e8988a0fe644b0f25305e
     Pseudo is Ultrasoft, Zval =  6.0
     Generated by new atomic code, or converted to UPF format
     Using radial grid of  737 points,  4 beta functions with:
                l(1) =   0
                l(2) =   0
                l(3) =   1
                l(4) =   1
     Q(r) pseudized with  8 coefficients,  rinner =    0.800   0.800   0.800

     PseudoPot. # 3 for N  read from file:
     /storage/coda1/p-amedford6/0/shared/rich_project_chbe-medford/medford-share/data/pseudos_module/espresso/nninc/pbe/van/N.UPF
     MD5 check sum: 90d10febe142ad51ac9d5be1deb811c4
     Pseudo is Ultrasoft, Zval =  5.0
     Generated by new atomic code, or converted to UPF format
     Using radial grid of  729 points,  4 beta functions with:
                l(1) =   0
                l(2) =   0
                l(3) =   1
                l(4) =   1
     Q(r) pseudized with  8 coefficients,  rinner =    0.800   0.800   0.800

     PseudoPot. # 4 for C  read from file:
     /storage/coda1/p-amedford6/0/shared/rich_project_chbe-medford/medford-share/data/pseudos_module/espresso/nninc/pbe/van/C.UPF
     MD5 check sum: 1a69bf6b8db32088f5b2163dbdb77a27
     Pseudo is Ultrasoft, Zval =  4.0
     Generated by new atomic code, or converted to UPF format
     Using radial grid of  721 points,  4 beta functions with:
                l(1) =   0
                l(2) =   0
                l(3) =   1
                l(4) =   1
     Q(r) pseudized with  8 coefficients,  rinner =    0.800   0.800   0.800

     PseudoPot. # 5 for H  read from file:
     /storage/coda1/p-amedford6/0/shared/rich_project_chbe-medford/medford-share/data/pseudos_module/espresso/nninc/pbe/van/H.UPF
     MD5 check sum: b5ee9d7bfd3a09ee7748110bda690ff7
     Pseudo is Ultrasoft, Zval =  1.0
     Generated by new atomic code, or converted to UPF format
     Using radial grid of  615 points,  1 beta functions with:
                l(1) =   0
     Q(r) pseudized with  8 coefficients,  rinner =    0.800

     atomic species   valence    mass     pseudopotential
        Ti1           12.00    47.86700     Ti( 1.00)
        O1             6.00    15.99900     O ( 1.00)
        N1             5.00    14.00700     N ( 1.00)
        C1             4.00    12.01100     C ( 1.00)
        H1             1.00     1.00800     H ( 1.00)

     No symmetry found

   Cartesian axes

     site n.     atom                  positions (alat units)
         1           Ti1 tau(   1) = (   0.0004258   2.9801865   6.0000000  )
         2           Ti1 tau(   2) = (   3.2906075   1.4906267   6.0002472  )
         3           O1  tau(   3) = (   0.0006271   0.0005054   7.9858123  )
         4           O1  tau(   4) = (   3.2906025   0.0005020   7.3038282  )
         5           O1  tau(   5) = (   4.5942328   1.4918067   9.2879030  )
         6           O1  tau(   6) = (   1.9868534   1.4903216   9.2879459  )
         7           Ti1 tau(   7) = (   3.2907910   2.8959150   9.1758416  )
         8           Ti1 tau(   8) = (   0.0015273   1.4827037   9.2680791  )
         9           O1  tau(   9) = (   3.2951577   0.0167633  11.2896499  )
        10           O1  tau(  10) = (   0.0116148   5.9584955  10.6183126  )
        11           O1  tau(  11) = (   1.3222759   1.5071707  12.6129440  )
        12           O1  tau(  12) = (   5.3060066   1.5095485  12.6267335  )
        13           Ti1 tau(  13) = (   6.4824898   3.0013615  12.7357613  )
        14           Ti1 tau(  14) = (   3.1735365   1.4973312  12.4739500  )
        15           O1  tau(  15) = (   0.0245190   0.0017265  14.5963640  )
        16           O1  tau(  16) = (   3.2983568   0.0259644  13.8884976  )
        17           O1  tau(  17) = (   4.5535709   1.5599051  15.9919625  )
        18           O1  tau(  18) = (   2.0723989   1.5598234  15.9883263  )
        19           Ti1 tau(  19) = (   3.3263631   3.0313633  15.6478355  )
        20           Ti1 tau(  20) = (   0.0083359   1.6222165  16.0589653  )
        21           O1  tau(  21) = (   3.2904802   0.0005063   4.7018136  )
        22           O1  tau(  22) = (   0.0206953   0.0548308  17.2083480  )
        23           O1  tau(  23) = (   1.3043587   1.4918075   6.0039043  )
        24           O1  tau(  24) = (   5.2767064   1.4903225   6.0039473  )
        25           Ti1 tau(  25) = (   0.0000382   5.9609847   6.0000000  )
        26           Ti1 tau(  26) = (   3.2902200   4.4714249   6.0002472  )
        27           O1  tau(  27) = (   0.0002396   2.9813036   7.9858123  )
        28           O1  tau(  28) = (   3.2902150   2.9813002   7.3038282  )
        29           O1  tau(  29) = (   4.5938453   4.4726049   9.2879030  )
        30           O1  tau(  30) = (   1.9864658   4.4711199   9.2879459  )
        31           Ti1 tau(  31) = (   3.2891106   5.8743827   9.1763621  )
        32           Ti1 tau(  32) = (   0.0006254   4.4649316   9.2693709  )
        33           O1  tau(  33) = (   3.2909539   2.9954008  11.2901670  )
        34           O1  tau(  34) = (   0.0092240   2.9805883  10.6323155  )
        35           O1  tau(  35) = (   1.3211080   4.4795309  12.6092917  )
        36           O1  tau(  36) = (   5.3058445   4.4798052  12.6251394  )
        37           Ti1 tau(  37) = (   6.5140999   0.0198189  12.7603067  )
        38           Ti1 tau(  38) = (   3.1705570   4.4938763  12.4677136  )
        39           O1  tau(  39) = (   0.0016069   2.9863809  14.6467327  )
        40           O1  tau(  40) = (   3.3112668   3.0122049  13.8485686  )
        41           O1  tau(  41) = (   4.5534170   4.5051619  16.0179686  )
        42           O1  tau(  42) = (   2.0797414   4.5084034  16.0201905  )
        43           Ti1 tau(  43) = (   3.2815144   0.0627375  15.7417980  )
        44           Ti1 tau(  44) = (   0.0076503   4.5954094  16.1032789  )
        45           O1  tau(  45) = (   3.2900926   2.9813045   4.7018136  )
        46           O1  tau(  46) = (   1.3039711   4.4726057   6.0039043  )
        47           O1  tau(  47) = (   5.2763189   4.4711207   6.0039473  )
        48           N1  tau(  48) = (   0.0651939   3.0276870  17.3150544  )
        49           C1  tau(  49) = (   0.3375872   3.0185870  18.7284822  )
        50           H1  tau(  50) = (   0.4544735   4.0311245  19.1352477  )
        51           H1  tau(  51) = (   6.1015407   2.5302758  19.2785169  )
        52           H1  tau(  52) = (   1.2508204   2.4494767  18.9518403  )
        53           O1  tau(  53) = (   3.3357083   0.1159715  18.1615364  )
        54           H1  tau(  54) = (   4.1514219   5.6051498  18.3929375  )
        55           H1  tau(  55) = (   2.5926282   5.5237384  18.4710493  )

     number of k points=    10  Fermi-Dirac smearing, width (Ry)=  0.0073
                       cart. coord. in units 2pi/alat
        k(    1) = (   0.0000000   0.0000000   0.0000000), wk =   0.1250000
        k(    2) = (   0.0000000   0.0419351   0.0000000), wk =   0.2500000
        k(    3) = (   0.0000000  -0.0838702   0.0000000), wk =   0.1250000
        k(    4) = (   0.0379955   0.0000049   0.0000000), wk =   0.2500000
        k(    5) = (   0.0379955   0.0419400   0.0000000), wk =   0.2500000
        k(    6) = (   0.0379955  -0.0838652   0.0000000), wk =   0.2500000
        k(    7) = (   0.0379955  -0.0419301   0.0000000), wk =   0.2500000
        k(    8) = (  -0.0759910  -0.0000099   0.0000000), wk =   0.1250000
        k(    9) = (  -0.0759910   0.0419252   0.0000000), wk =   0.2500000
        k(   10) = (  -0.0759910  -0.0838800   0.0000000), wk =   0.1250000

     Initial potential from superposition of free atoms

     starting charge  381.99915, renormalised to  398.00000

     negative rho (up, down):  1.656E-02 0.000E+00

     %%%%%%%%%%%%%%%%%%%%%%%%%%%%%%%%%%%%%%%%%%%%%%%%%%%%%%%%%%%%%%%%%%%%%%%%
     %                                                                      %
     % You are using vdW-DF, which was implemented by the Thonhauser group. %
     % Please cite the following two papers that made this development      %
     % possible and the two reviews that describe the various versions:     %
     %                                                                      %
     %   T. Thonhauser et al., PRL 115, 136402 (2015).                      %
     %   T. Thonhauser et al., PRB 76, 125112 (2007).                       %
     %   K. Berland et al., Rep. Prog. Phys. 78, 066501 (2015).             %
     %   D.C. Langreth et al., J. Phys.: Condens. Matter 21, 084203 (2009). %
     %                                                                      %
     %                                                                      %
     % If you are calculating the stress with vdW-DF, please also cite:     %
     %                                                                      %
     %   R. Sabatini et al., J. Phys.: Condens. Matter 24, 424209 (2012).   %
     %                                                                      %
     %%%%%%%%%%%%%%%%%%%%%%%%%%%%%%%%%%%%%%%%%%%%%%%%%%%%%%%%%%%%%%%%%%%%%%%%

     Adding external electric field

     Computed dipole along edir(3) :
        Dipole               -9.1079 Ry au,        -23.1500 Debye
        Dipole field         -0.0172 Ry au,

        Potential amp.        1.5933 Ry
        Total length         46.3494 bohr

     Starting wfcs are  301 atomic wfcs
  @ DRIVER MODE: Message from server: STATUS
  @ DRIVER MODE: Message from server: POSDATA
  @ DRIVER MODE: Reading and sharing cell
  @ DRIVER MODE: Reading and sharing positions
  @ DRIVER MODE: Received positions

     Self-consistent Calculation

     iteration #  1     ecut=    29.40 Ry     beta= 0.05
     Davidson diagonalization with overlap
     c_bands:  1 eigenvalues not converged
     c_bands:  1 eigenvalues not converged
     c_bands:  1 eigenvalues not converged
     c_bands:  1 eigenvalues not converged
     c_bands:  1 eigenvalues not converged
     c_bands:  1 eigenvalues not converged
     c_bands:  1 eigenvalues not converged
     c_bands:  2 eigenvalues not converged
     ethr =  1.00E-05,  avg # of iterations = 19.6

[...]

     total energy              =   -2564.53500783 Ry
     estimated scf accuracy    <    4317.20121446 Ry

     iteration #  2     ecut=    29.40 Ry     beta= 0.05
     Davidson diagonalization with overlap
     ethr =  1.00E-02,  avg # of iterations = 23.6

[...]

     iteration # 48     ecut=    29.40 Ry     beta= 0.05
     Davidson diagonalization with overlap
     c_bands:  1 eigenvalues not converged
     ethr =  2.56E-07,  avg # of iterations = 11.3

[...]

     total energy              =   -2953.97102119 Ry
     estimated scf accuracy    <       0.00000007 Ry

     iteration # 70     ecut=    29.40 Ry     beta= 0.05
     Davidson diagonalization with overlap
     ethr =  1.87E-11,  avg # of iterations =  5.1

     negative rho (up, down):  1.668E-02 0.000E+00

     Adding external electric field

     Computed dipole along edir(3) :
        Dipole                0.5285 Ry au,          1.3433 Debye
        Dipole field          0.0010 Ry au,

        Potential amp.       -0.0925 Ry
        Total length         46.3494 bohr

     End of self-consistent calculation

          k = 0.0000 0.0000 0.0000 ( 18029 PWs)   bands (ev):

   -56.5945 -56.5609 -55.7123 -55.6783 -55.6682 -55.6334 -55.4916 -55.4554
   -55.3613 -55.2431 -55.2300 -55.2273 -55.2092 -55.1319 -54.7252 -54.6759
   -33.0212 -32.8689 -32.8408 -32.7709 -32.6799 -32.6474 -32.1801 -32.1507
   -32.0272 -31.9772 -31.9293 -31.9102 -31.8810 -31.8708 -31.8431 -31.8371
   -31.8180 -31.8131 -31.7908 -31.7750 -31.7675 -31.7111 -31.7067 -31.6692
   -31.6556 -31.6340 -31.6261 -31.6178 -31.5951 -31.5863 -31.5828 -31.5586
   -31.4653 -31.4531 -31.4195 -31.4056 -31.3794 -31.3700 -31.3561 -31.3371
   -31.3092 -31.2590 -31.2400 -30.9689 -30.9474 -30.9180 -30.8941 -30.7850
   -18.7605 -16.7499 -16.2862 -16.0451 -15.9506 -15.8684 -15.8287 -15.7853
   -15.6380 -15.5649 -15.5448 -15.5424 -15.4746 -15.3304 -15.2764 -15.1785
   -15.0924 -14.9511 -14.9396 -14.8996 -14.8863 -14.8497 -14.8456 -14.7954
   -14.6265 -14.5906 -14.5448 -14.4866 -14.3942 -14.1733 -13.7410 -13.6313
   -12.9721  -7.7743  -6.5332  -4.3171  -3.7847  -3.5197  -3.4874  -3.3592
    -3.3549  -3.3121  -3.1772  -3.1643  -3.0889  -3.0635  -3.0224  -2.9495
    -2.9048  -2.8699  -2.7790  -2.7651  -2.7457  -2.7366  -2.7165  -2.5993
    -2.5551  -2.5052  -2.4017  -2.2915  -2.2490  -2.2220  -2.1760  -2.1427
    -2.0916  -2.0806  -2.0681  -2.0563  -1.9522  -1.8306  -1.8053  -1.7820
    -1.7361  -1.7216  -1.7130  -1.6895  -1.6045  -1.4965  -1.4035  -1.3355
    -1.3287  -1.2530  -1.2448  -1.1868  -1.0751  -1.0129  -1.0103  -0.9885
    -0.8847  -0.8596  -0.7882  -0.7261  -0.6666  -0.6135  -0.5509  -0.4986
    -0.4757  -0.4662  -0.3683  -0.2988  -0.2740  -0.2184  -0.2097  -0.2051
    -0.1784  -0.0832  -0.0479   0.0287   0.0641   0.1120   0.1470   0.2265
     0.2862   0.3521   0.3988   0.4209   0.4859   0.5419   0.5973   0.6882
     0.7456   0.7515   0.7790   0.8376   0.8511   0.9252   1.0075   1.0274
     1.0939   1.1650   1.3287   1.3677   1.6138   1.6873   2.3116   2.6828
     2.8439   3.1391   3.3288   3.4670   3.6620   3.6723   3.6796   3.9013
     3.9294

[...]

          k = 0.0380-0.0419 0.0000 ( 17876 PWs)   bands (ev):

[...]

          k =-0.0760-0.0000 0.0000 ( 17886 PWs)   bands (ev):

[...]

          k =-0.0760-0.0839 0.0000 ( 17948 PWs)   bands (ev):

   -56.5779 -56.5774 -55.6972 -55.6929 -55.6554 -55.6464 -55.4776 -55.4693
   -55.3589 -55.2322 -55.2261 -55.2260 -55.2240 -55.1351 -54.7180 -54.6829
   -32.8548 -32.8544 -32.8382 -32.8380 -32.7241 -32.7237 -32.0038 -31.9980
   -31.9865 -31.9795 -31.9033 -31.8886 -31.8874 -31.8831 -31.8764 -31.8749
   -31.8675 -31.8595 -31.8329 -31.8160 -31.7226 -31.7162 -31.6846 -31.6768
   -31.6537 -31.6181 -31.5863 -31.5717 -31.5715 -31.5697 -31.5481 -31.5309
   -31.4793 -31.4509 -31.4507 -31.4464 -31.4313 -31.4118 -31.4117 -31.4004
   -31.3740 -31.3386 -31.1009 -31.0385 -30.9449 -30.9193 -30.9038 -30.8568
   -18.7596 -16.1006 -16.0986 -16.0632 -16.0625 -15.7960 -15.7926 -15.7029
   -15.6974 -15.5657 -15.4452 -15.3410 -15.3283 -15.2944 -15.2679 -15.1577
   -15.1367 -15.1253 -15.1150 -15.0077 -14.9884 -14.9404 -14.9259 -14.9105
   -14.9030 -14.6081 -14.5917 -14.4916 -14.4656 -14.3256 -13.7349 -13.7349
   -12.9906  -7.7678  -6.5261  -3.1980  -3.1905  -3.1564  -3.1359  -3.1351
    -3.0769  -2.9775  -2.9303  -2.9283  -2.9274  -2.8467  -2.7823  -2.7745
    -2.7005  -2.6674  -2.6503  -2.5937  -2.5784  -2.5147  -2.4882  -2.4801
    -2.4623  -2.4386  -2.4374  -2.3435  -2.2774  -2.2315  -2.2262  -2.1672
    -2.1375  -2.0778  -2.0552  -2.0440  -2.0116  -1.9700  -1.9582  -1.9198
    -1.8776  -1.8432  -1.7797  -1.6134  -1.6042  -1.5952  -1.5749  -1.4540
    -1.4454  -1.4107  -1.3794  -1.3739  -1.3031  -1.2533  -1.2156  -1.1641
    -1.0767  -1.0553  -0.9505  -0.8985  -0.8554  -0.7990  -0.6944  -0.6739
    -0.6660  -0.6553  -0.6247  -0.5549  -0.5197  -0.5169  -0.3941  -0.3695
    -0.3315  -0.3019  -0.2437  -0.2150  -0.1564  -0.1238  -0.0541  -0.0399
    -0.0004   0.0766   0.1519   0.1863   0.2369   0.2433   0.5176   0.5913
     0.7205   0.7836   0.8464   0.9143   0.9796   1.0080   1.0372   1.1629
     1.1671   1.1766   1.1770   1.2474   1.2526   1.5925   2.1896   3.2589
     3.2591   3.3254   3.3260   3.6470   3.6532   3.7602   3.7704   3.9307
     3.9450

     the Fermi energy is     2.5097 ev

!    total energy              =   -2953.97104855 Ry
     estimated scf accuracy    <       0.00000007 Ry
     smearing contrib. (-TS)   =      -0.00443033 Ry
     internal energy E=F+TS    =   -2953.96661822 Ry

     The total energy is F=E-TS. E is the sum of the following terms:
     one-electron contribution =  -24343.87874927 Ry
     hartree contribution      =   12263.83103665 Ry
     xc contribution           =    -488.76617154 Ry
     ewald contribution        =    9614.84673887 Ry
     electric field correction =       0.00052707 Ry

     convergence has been achieved in  70 iterations

     Forces acting on atoms (cartesian axes, Ry/au):

     atom    1 type  1   force =    -0.00002528   -0.00048491    0.12443164
     atom    2 type  1   force =    -0.00003266   -0.00048819   -0.15980681
     atom    3 type  2   force =     0.00020027   -0.00023783   -0.06782863
     atom    4 type  2   force =     0.00000157   -0.00009230    0.02613146
     atom    5 type  2   force =    -0.01437455    0.00191413   -0.00989900
     atom    6 type  2   force =     0.01615814    0.00232489   -0.01027579
     atom    7 type  1   force =     0.00072139   -0.00389447    0.02849194
     atom    8 type  1   force =    -0.00033741   -0.00435995    0.10936940
     atom    9 type  2   force =     0.00002224    0.00001515    0.00008778
     atom   10 type  2   force =    -0.00225788    0.00266734   -0.07362956
     atom   11 type  2   force =     0.00080739   -0.00003252   -0.00023896
     atom   12 type  2   force =    -0.00042716    0.00004695   -0.00019956
     atom   13 type  1   force =    -0.00000726    0.00013310   -0.00010969
     atom   14 type  1   force =    -0.00034693    0.00047933   -0.00040689
     atom   15 type  2   force =     0.00002190   -0.00065961   -0.00025534
     atom   16 type  2   force =    -0.00018439   -0.00000823    0.00040271
     atom   17 type  2   force =    -0.00067150   -0.00033587   -0.00028652
     atom   18 type  2   force =     0.00031416   -0.00017629    0.00008265
     atom   19 type  1   force =     0.00043715   -0.00004286   -0.00031628
     atom   20 type  1   force =    -0.00017282   -0.00069754   -0.00080028
     atom   21 type  2   force =     0.00006681   -0.00004011    0.09954417
     atom   22 type  2   force =     0.00003040   -0.00051573    0.00018453
     atom   23 type  2   force =    -0.07971019   -0.00006487   -0.03246665
     atom   24 type  2   force =     0.07958189    0.00037444   -0.03252362
     atom   25 type  1   force =    -0.00000769   -0.00057417    0.12407012
     atom   26 type  1   force =    -0.00010327   -0.00062689   -0.15993012
     atom   27 type  2   force =     0.00033188   -0.00036060   -0.06689927
     atom   28 type  2   force =    -0.00002484    0.00017686    0.02515497
     atom   29 type  2   force =    -0.01496500    0.00189739   -0.00987587
     atom   30 type  2   force =     0.01665115    0.00242422   -0.01020864
     atom   31 type  1   force =     0.00078343   -0.00077380    0.02376125
     atom   32 type  1   force =    -0.00023095    0.00200428    0.10999805
     atom   33 type  2   force =     0.00004381   -0.00027204    0.00035098
     atom   34 type  2   force =    -0.00212401    0.00206892   -0.07174654
     atom   35 type  2   force =     0.00023163   -0.00012388   -0.00008949
     atom   36 type  2   force =    -0.00015742   -0.00024907   -0.00016065
     atom   37 type  1   force =     0.00042333   -0.00002640    0.00038140
     atom   38 type  1   force =     0.00001693   -0.00056598   -0.00018671
     atom   39 type  2   force =     0.00006432    0.00018715    0.00060546
     atom   40 type  2   force =    -0.00008797   -0.00024050    0.00027096
     atom   41 type  2   force =     0.00069126   -0.00036699    0.00009537
     atom   42 type  2   force =    -0.00097242   -0.00042466    0.00063924
     atom   43 type  1   force =     0.00001706   -0.00030648    0.00006516
     atom   44 type  1   force =    -0.00032627    0.00006258   -0.00094127
     atom   45 type  2   force =     0.00005546   -0.00004775    0.09950612
     atom   46 type  2   force =    -0.07971885    0.00000142   -0.03248745
     atom   47 type  2   force =     0.07959774    0.00042881   -0.03251284
     atom   48 type  3   force =    -0.00049345   -0.00010792   -0.00040605
     atom   49 type  4   force =    -0.00030646    0.00011214    0.00018214
     atom   50 type  5   force =    -0.00050226    0.00003629    0.00018201
     atom   51 type  5   force =    -0.00013230   -0.00064536    0.00057347
     atom   52 type  5   force =     0.00056056    0.00008198    0.00020175
     atom   53 type  2   force =    -0.00879616   -0.00680467    0.00310874
     atom   54 type  5   force =     0.00165335    0.00069966    0.00044082
     atom   55 type  5   force =     0.00801212    0.00651141   -0.00382581

     Total force =     0.423709     Total SCF correction =     0.000695
  @ DRIVER MODE: Message from server: STATUS
  @ DRIVER MODE: Message from server: GETFORCE
  @ DRIVER MODE: Returning v,forces,stress,ensemble

     Writing output data file ./calc.save/
  @ DRIVER MODE: Message from server: EXIT
  @ DRIVE MODE: Exiting

     General routines

     Parallel routines

   This run was terminated on:   5:43:32  16Sep2021

   JOB DONE.