     Program PWSCF v.6.7GPU starts on 27Jul2021 at 23: 3:56

     R & G space division:  proc/nbgrp/npool/nimage =      16
     Reading input from /storage/home/hcoda1/3/ntian30/research/carbon/15Jul_vib/ads_slab/CH3NHHH_a/out_0021/pw.inp
Warning: card &CELL ignored
Warning: card   CELL_DYNAMICS='IPI', ignored
Warning: card / ignored

     Current dimensions of program PWSCF are:
     Max number of different atomic species (ntypx) = 10
     Max number of k-points (npk) =  40000
     Max angular momentum in pseudopotentials (lmaxx) =  3
     Presently no symmetry can be used with electric field

     Message from routine cell_base_init:
     DEPRECATED: use true lattice parameter, not A to a.u. conversion factor

     IMPORTANT: XC functional enforced from input :
     Exchange-correlation= BEEF-VDW
                           (   1   4  43  14   2   0   0)
     Any further DFT definition will be discarded
     Please, verify this is what you really want

  @ DRIVER MODE: Connecting to
 qe_1139763_2431568.sched-torque.pace.gatech.edunluwopya_scratch
  using UNIX socket
  @ DRIVER MODE: Message from server: STATUS
  @ DRIVER MODE: Message from server: INIT
  @ DRIVER MODE: Receiving replica           0          -1
  @ DRIVER MODE: Receiving encoded integer          25
  @ DRIVER MODE:  SCF:  T  FORCE:  T  STRESS:  F  VC:  F  ENSEMBLE:  F
  @ DRIVER MODE:  SCF:  T  FORCE:  T  STRESS:  F  VC:  F  ENSEMBLE:  F

     Using Slab Decomposition

     bravais-lattice index     =            0
     lattice parameter (alat)  =       1.8897  a.u.
     unit-cell volume          =    6658.9804 (a.u.)^3
     number of atoms/cell      =           55
     number of atomic types    =            5
     number of electrons       =       393.00
     number of Kohn-Sham states=          206
     kinetic-energy cutoff     =      29.3995  Ry
     charge density cutoff     =     293.9946  Ry
     scf convergence threshold =      7.3E-08
     mixing beta               =       0.0500
     number of iterations used =            8  plain     mixing
     Exchange-correlation= BEEF-VDW
                           (   1   4  43  14   2   0   0)

     celldm(1)=   1.889726  celldm(2)=   0.000000  celldm(3)=   0.000000
     celldm(4)=   0.000000  celldm(5)=   0.000000  celldm(6)=   0.000000

     crystal axes: (cart. coord. in units of alat)
               a(1) = (   6.579727   0.000000   0.000000 )
               a(2) = (  -0.000775   5.961596   0.000000 )
               a(3) = (   0.000000   0.000000  25.155947 )

     reciprocal axes: (cart. coord. in units 2 pi/alat)
               b(1) = (  0.151982  0.000020  0.000000 )
               b(2) = (  0.000000  0.167740  0.000000 )
               b(3) = (  0.000000  0.000000  0.039752 )

     PseudoPot. # 1 for Ti read from file:
     /storage/coda1/p-amedford6/0/shared/rich_project_chbe-medford/medford-share/data/pseudos_module/espresso/nninc/pbe/van/Ti.UPF
     MD5 check sum: 8e4df49b7f0d34bbd5052bf3f5ea0213
     Pseudo is Ultrasoft, Zval = 12.0
     Generated by new atomic code, or converted to UPF format
     Using radial grid of  851 points,  6 beta functions with:
                l(1) =   0
                l(2) =   0
                l(3) =   1
                l(4) =   1
                l(5) =   2
                l(6) =   2
     Q(r) pseudized with  8 coefficients,  rinner =    1.000   1.000   1.000
                                                       1.000   1.000

     PseudoPot. # 2 for O  read from file:
     /storage/coda1/p-amedford6/0/shared/rich_project_chbe-medford/medford-share/data/pseudos_module/espresso/nninc/pbe/van/O.UPF
     MD5 check sum: 78c19812648e8988a0fe644b0f25305e
     Pseudo is Ultrasoft, Zval =  6.0
     Generated by new atomic code, or converted to UPF format
     Using radial grid of  737 points,  4 beta functions with:
                l(1) =   0
                l(2) =   0
                l(3) =   1
                l(4) =   1
     Q(r) pseudized with  8 coefficients,  rinner =    0.800   0.800   0.800

     PseudoPot. # 3 for N  read from file:
     /storage/coda1/p-amedford6/0/shared/rich_project_chbe-medford/medford-share/data/pseudos_module/espresso/nninc/pbe/van/N.UPF
     MD5 check sum: 90d10febe142ad51ac9d5be1deb811c4
     Pseudo is Ultrasoft, Zval =  5.0
     Generated by new atomic code, or converted to UPF format
     Using radial grid of  729 points,  4 beta functions with:
                l(1) =   0
                l(2) =   0
                l(3) =   1
                l(4) =   1
     Q(r) pseudized with  8 coefficients,  rinner =    0.800   0.800   0.800

     PseudoPot. # 4 for C  read from file:
     /storage/coda1/p-amedford6/0/shared/rich_project_chbe-medford/medford-share/data/pseudos_module/espresso/nninc/pbe/van/C.UPF
     MD5 check sum: 1a69bf6b8db32088f5b2163dbdb77a27
     Pseudo is Ultrasoft, Zval =  4.0
     Generated by new atomic code, or converted to UPF format
     Using radial grid of  721 points,  4 beta functions with:
                l(1) =   0
                l(2) =   0
                l(3) =   1
                l(4) =   1
     Q(r) pseudized with  8 coefficients,  rinner =    0.800   0.800   0.800

     PseudoPot. # 5 for H  read from file:
     /storage/coda1/p-amedford6/0/shared/rich_project_chbe-medford/medford-share/data/pseudos_module/espresso/nninc/pbe/van/H.UPF
     MD5 check sum: b5ee9d7bfd3a09ee7748110bda690ff7
     Pseudo is Ultrasoft, Zval =  1.0
     Generated by new atomic code, or converted to UPF format
     Using radial grid of  615 points,  1 beta functions with:
                l(1) =   0
     Q(r) pseudized with  8 coefficients,  rinner =    0.800

     atomic species   valence    mass     pseudopotential
        Ti1           12.00    47.86700     Ti( 1.00)
        O1             6.00    15.99900     O ( 1.00)
        N1             5.00    14.00700     N ( 1.00)
        C1             4.00    12.01100     C ( 1.00)
        H1             1.00     1.00800     H ( 1.00)

     Starting magnetic structure
     atomic species   magnetization
        Ti1          0.000
        O1           0.000
        N1           0.040
        C1           0.025
        H1           0.000

     No symmetry found

   Cartesian axes

     site n.     atom                  positions (alat units)
         1           Ti1 tau(   1) = (   0.0004258   2.9801865   6.0000000  )
         2           Ti1 tau(   2) = (   3.2906075   1.4906267   6.0002472  )
         3           O1  tau(   3) = (   0.0006271   0.0005054   7.9858123  )
         4           O1  tau(   4) = (   3.2906025   0.0005020   7.3038282  )
         5           O1  tau(   5) = (   4.5942328   1.4918067   9.2879030  )
         6           O1  tau(   6) = (   1.9868534   1.4903216   9.2879459  )
         7           Ti1 tau(   7) = (   3.2907910   2.8959150   9.1758416  )
         8           Ti1 tau(   8) = (   0.0015273   1.4827037   9.2680791  )
         9           O1  tau(   9) = (   3.2636084   5.9406443  11.4082010  )
        10           O1  tau(  10) = (   0.0116148   5.9584955  10.6183126  )
        11           O1  tau(  11) = (   1.2642105   1.4849797  12.6947803  )
        12           O1  tau(  12) = (   5.2691575   1.4821021  12.6650678  )
        13           Ti1 tau(  13) = (   6.5574234   2.9640577  12.4921542  )
        14           Ti1 tau(  14) = (   3.2619390   1.4709553  12.5527290  )
        15           O1  tau(  15) = (   6.5247406   5.9594380  14.6832748  )
        16           O1  tau(  16) = (   3.2695906   5.9428997  14.0562986  )
        17           O1  tau(  17) = (   4.5175969   1.4707097  16.2986306  )
        18           O1  tau(  18) = (   1.9406912   1.4777946  16.2473769  )
        19           Ti1 tau(  19) = (   3.2491105   2.9422209  15.8109686  )
        20           Ti1 tau(  20) = (   6.5361480   1.3378720  15.9626387  )
        21           O1  tau(  21) = (   3.2904802   0.0005063   4.7018136  )
        22           O1  tau(  22) = (   6.5280740   5.8897732  17.4332532  )
        23           O1  tau(  23) = (   1.3043587   1.4918075   6.0039043  )
        24           O1  tau(  24) = (   5.2767064   1.4903225   6.0039473  )
        25           Ti1 tau(  25) = (   0.0000382   5.9609847   6.0000000  )
        26           Ti1 tau(  26) = (   3.2902200   4.4714249   6.0002472  )
        27           O1  tau(  27) = (   0.0002396   2.9813036   7.9858123  )
        28           O1  tau(  28) = (   3.2902150   2.9813002   7.3038282  )
        29           O1  tau(  29) = (   4.5938453   4.4726049   9.2879030  )
        30           O1  tau(  30) = (   1.9864658   4.4711199   9.2879459  )
        31           Ti1 tau(  31) = (   3.2891106   5.8743827   9.1763621  )
        32           Ti1 tau(  32) = (   0.0006254   4.4649316   9.2693709  )
        33           O1  tau(  33) = (   3.2649920   2.9642658  11.3997388  )
        34           O1  tau(  34) = (   0.0092240   2.9805883  10.6323155  )
        35           O1  tau(  35) = (   1.2634527   4.4478426  12.7061968  )
        36           O1  tau(  36) = (   5.2693862   4.4495813  12.6755241  )
        37           Ti1 tau(  37) = (   6.5522441   5.9483113  12.5008436  )
        38           Ti1 tau(  38) = (   3.2626494   4.4468850  12.5575576  )
        39           O1  tau(  39) = (   6.4970557   2.9363996  15.0046851  )
        40           O1  tau(  40) = (   3.2722650   2.9529576  14.0194401  )
        41           O1  tau(  41) = (   4.5170401   4.4205294  16.2730734  )
        42           O1  tau(  42) = (   1.9466746   4.4191161  16.2235312  )
        43           Ti1 tau(  43) = (   3.2419262   5.9323414  15.8513663  )
        44           Ti1 tau(  44) = (   6.5549466   4.5556212  15.8889459  )
        45           O1  tau(  45) = (   3.2900926   2.9813045   4.7018136  )
        46           O1  tau(  46) = (   1.3039711   4.4726057   6.0039043  )
        47           O1  tau(  47) = (   5.2763189   4.4711207   6.0039473  )
        48           N1  tau(  48) = (   4.8657738   4.5798987  19.4796958  )
        49           C1  tau(  49) = (   5.7271871   3.4329544  19.8049648  )
        50           H1  tau(  50) = (   6.3241292   3.1721029  18.9298488  )
        51           H1  tau(  51) = (   6.4229137   3.7095585  20.5942015  )
        52           H1  tau(  52) = (   5.1874390   2.5328885  20.1195193  )
        53           H1  tau(  53) = (   5.9066942   5.7389963  18.1772939  )
        54           H1  tau(  54) = (   4.2103208   4.3266459  18.7469397  )
        55           H1  tau(  55) = (   4.3187305   4.8545830  20.2870342  )

     number of k points=    10  Fermi-Dirac smearing, width (Ry)=  0.0073
                       cart. coord. in units 2pi/alat
        k(    1) = (   0.0000000   0.0000000   0.0000000), wk =   0.0625000
        k(    2) = (   0.0000000   0.0419351   0.0000000), wk =   0.1250000
        k(    3) = (   0.0000000  -0.0838702   0.0000000), wk =   0.0625000
        k(    4) = (   0.0379955   0.0000049   0.0000000), wk =   0.1250000
        k(    5) = (   0.0379955   0.0419400   0.0000000), wk =   0.1250000
        k(    6) = (   0.0379955  -0.0838652   0.0000000), wk =   0.1250000
[...]

     starting charge  376.99914, renormalised to  393.00000

     negative rho (up, down):  6.647E-03 6.649E-03

     %%%%%%%%%%%%%%%%%%%%%%%%%%%%%%%%%%%%%%%%%%%%%%%%%%%%%%%%%%%%%%%%%%%%%%%%
     %                                                                      %
     % You are using vdW-DF, which was implemented by the Thonhauser group. %
     % Please cite the following two papers that made this development      %
     % possible and the two reviews that describe the various versions:     %
     %                                                                      %
     %   T. Thonhauser et al., PRL 115, 136402 (2015).                      %
     %   T. Thonhauser et al., PRB 76, 125112 (2007).                       %
     %   K. Berland et al., Rep. Prog. Phys. 78, 066501 (2015).             %
     %   D.C. Langreth et al., J. Phys.: Condens. Matter 21, 084203 (2009). %
     %                                                                      %
     %                                                                      %
     % If you are calculating the stress with vdW-DF, please also cite:     %
     %                                                                      %
     %   R. Sabatini et al., J. Phys.: Condens. Matter 24, 424209 (2012).   %
     %                                                                      %
     %%%%%%%%%%%%%%%%%%%%%%%%%%%%%%%%%%%%%%%%%%%%%%%%%%%%%%%%%%%%%%%%%%%%%%%%

     Adding external electric field

     Computed dipole along edir(3) :
        Dipole               -9.4918 Ry au,        -24.1257 Debye
        Dipole field         -0.0179 Ry au,

        Potential amp.        1.6604 Ry
        Total length         46.3494 bohr

[...]

     Starting wfcs are  298 atomic wfcs
  @ DRIVER MODE: Message from server: STATUS
  @ DRIVER MODE: Message from server: POSDATA
  @ DRIVER MODE: Reading and sharing cell
  @ DRIVER MODE: Reading and sharing positions
  @ DRIVER MODE: Received positions

     Self-consistent Calculation

     iteration #  1     ecut=    29.40 Ry     beta= 0.05
     Davidson diagonalization with overlap
     c_bands:  2 eigenvalues not converged
     c_bands:  1 eigenvalues not converged
     c_bands:  2 eigenvalues not converged
     c_bands:  3 eigenvalues not converged
     c_bands:  3 eigenvalues not converged
     c_bands:  1 eigenvalues not converged
     c_bands:  2 eigenvalues not converged
     c_bands:  1 eigenvalues not converged
     c_bands:  2 eigenvalues not converged
     c_bands:  3 eigenvalues not converged
     c_bands:  3 eigenvalues not converged
     c_bands:  1 eigenvalues not converged
     ethr =  1.00E-05,  avg # of iterations = 18.9

[...]

     total energy              =   -2620.50691690 Ry
     estimated scf accuracy    <    3389.61529618 Ry

     total magnetization       =     0.00 Bohr mag/cell
     absolute magnetization    =     0.01 Bohr mag/cell

[...]

     iteration #  3     ecut=    29.40 Ry     beta= 0.05
     Davidson diagonalization with overlap
     ethr =  1.00E-02,  avg # of iterations = 14.8

[...]

     iteration #109     ecut=    29.40 Ry     beta= 0.05
     Davidson diagonalization with overlap
     c_bands:  1 eigenvalues not converged
     c_bands:  2 eigenvalues not converged
     c_bands:  1 eigenvalues not converged
     ethr =  3.28E-11,  avg # of iterations = 14.4

[...]

     total energy              =   -2922.77425626 Ry
     estimated scf accuracy    <       0.00000008 Ry

[...]

     iteration #110     ecut=    29.40 Ry     beta= 0.05
     Davidson diagonalization with overlap
     ethr =  2.04E-11,  avg # of iterations = 13.7

     negative rho (up, down):  7.251E-03 7.251E-03

[...]

     Adding external electric field

     Computed dipole along edir(3) :
        Dipole                1.4063 Ry au,          3.5744 Debye
        Dipole field          0.0027 Ry au,

        Potential amp.       -0.2460 Ry
        Total length         46.3494 bohr

     Magnetic moment per site  (integrated on atomic sphere of radius R)
     atom   1 (R=0.739)  charge=  8.0547  magn=  0.0018
     atom   2 (R=0.739)  charge=  8.0361  magn=  0.0001
     atom   3 (R=0.405)  charge=  2.0075  magn= -0.0001
     atom   4 (R=0.405)  charge=  2.0190  magn= -0.0000
     atom   5 (R=0.405)  charge=  2.0104  magn= -0.0000
     atom   6 (R=0.405)  charge=  2.0107  magn= -0.0000
     atom   7 (R=0.739)  charge=  8.0371  magn=  0.0001
     atom   8 (R=0.739)  charge=  8.0393  magn=  0.0015
     atom   9 (R=0.405)  charge=  2.0112  magn=  0.0001
     atom  10 (R=0.405)  charge=  2.0118  magn= -0.0000
     atom  11 (R=0.405)  charge=  2.0092  magn=  0.0001
     atom  12 (R=0.405)  charge=  2.0092  magn=  0.0001
     atom  13 (R=0.739)  charge=  8.0500  magn= -0.0004
     atom  14 (R=0.739)  charge=  8.0432  magn= -0.0011
     atom  15 (R=0.405)  charge=  2.0128  magn= -0.0000
     atom  16 (R=0.405)  charge=  2.0108  magn=  0.0000
     atom  17 (R=0.405)  charge=  2.0009  magn= -0.0000
     atom  18 (R=0.405)  charge=  2.0012  magn= -0.0000
     atom  19 (R=0.739)  charge=  8.0824  magn=  0.0007
     atom  20 (R=0.739)  charge=  8.1004  magn=  0.0009
     atom  21 (R=0.405)  charge=  1.9825  magn= -0.0000
     atom  22 (R=0.405)  charge=  2.0201  magn= -0.0000
     atom  23 (R=0.405)  charge=  2.0078  magn= -0.0001
     atom  24 (R=0.405)  charge=  2.0078  magn= -0.0001
     atom  25 (R=0.739)  charge=  8.0548  magn=  0.0018
     atom  26 (R=0.739)  charge=  8.0362  magn=  0.0001
     atom  27 (R=0.405)  charge=  2.0075  magn= -0.0001
     atom  28 (R=0.405)  charge=  2.0191  magn= -0.0000
     atom  29 (R=0.405)  charge=  2.0107  magn= -0.0000
     atom  30 (R=0.405)  charge=  2.0109  magn= -0.0000
     atom  31 (R=0.739)  charge=  8.0372  magn=  0.0001
     atom  32 (R=0.739)  charge=  8.0392  magn=  0.0015
     atom  33 (R=0.405)  charge=  2.0120  magn=  0.0001
     atom  34 (R=0.405)  charge=  2.0122  magn= -0.0000
     atom  35 (R=0.405)  charge=  2.0082  magn=  0.0001
     atom  36 (R=0.405)  charge=  2.0092  magn=  0.0001
     atom  37 (R=0.739)  charge=  8.0419  magn= -0.0004
     atom  38 (R=0.739)  charge=  8.0432  magn= -0.0011
     atom  39 (R=0.405)  charge=  2.0115  magn= -0.0000
     atom  40 (R=0.405)  charge=  2.0126  magn=  0.0000
     atom  41 (R=0.405)  charge=  2.0020  magn= -0.0000
     atom  42 (R=0.405)  charge=  2.0020  magn= -0.0000
     atom  43 (R=0.739)  charge=  8.0813  magn=  0.0009
     atom  44 (R=0.739)  charge=  8.1024  magn=  0.0008
     atom  45 (R=0.405)  charge=  1.9825  magn= -0.0001
     atom  46 (R=0.405)  charge=  2.0078  magn= -0.0001
     atom  47 (R=0.405)  charge=  2.0078  magn= -0.0001
     atom  48 (R=0.418)  charge=  1.3245  magn= -0.0001
     atom  49 (R=0.449)  charge=  0.8441  magn= -0.0000
     atom  50 (R=0.405)  charge=  0.4137  magn=  0.0000
     atom  51 (R=0.405)  charge=  0.4155  magn=  0.0000
     atom  52 (R=0.405)  charge=  0.4129  magn=  0.0000
     atom  53 (R=0.405)  charge=  0.3971  magn=  0.0000
     atom  54 (R=0.405)  charge=  0.4209  magn=  0.0000
     atom  55 (R=0.405)  charge=  0.4256  magn=  0.0000

     End of self-consistent calculation

 ------ SPIN UP ------------

          k = 0.0000 0.0000 0.0000 ( 18029 PWs)   bands (ev):

   -55.3067 -55.2708 -55.2581 -55.2240 -55.1713 -55.1480 -55.1475 -55.1369
   -55.1136 -55.0848 -55.0730 -55.0509 -55.0311 -54.9731 -54.3000 -54.2660
   -31.8741 -31.7513 -31.6886 -31.6595 -31.6358 -31.6143 -31.5918 -31.5504
   -31.5463 -31.5449 -31.5139 -31.5038 -31.5020 -31.4741 -31.4641 -31.4596
   -31.4451 -31.4369 -31.4111 -31.4003 -31.3969 -31.3801 -31.3726 -31.3536
   -31.3520 -31.3154 -31.3148 -31.3035 -31.3023 -31.2893 -31.2852 -31.2826
   -31.2755 -31.2742 -31.2596 -31.2569 -31.2248 -31.2122 -31.2001 -31.1954
   -31.1818 -31.1066 -30.7101 -30.6137 -30.5918 -30.5260 -30.4392 -30.3286
   -16.8235 -16.1468 -15.8905 -15.7696 -15.6606 -15.5894 -15.5199 -15.4408
   -15.3571 -15.2564 -15.1949 -15.0898 -15.0554 -15.0158 -15.0011 -14.9821
   -14.9550 -14.8751 -14.8640 -14.8534 -14.8277 -14.8094 -14.7813 -14.7724
   -14.7656 -14.7264 -14.6889 -14.5767 -14.4862 -14.4007 -12.8031 -12.6853
   -10.0212  -5.8550  -4.7397  -4.4270  -3.5216  -3.4743  -3.3427  -3.2378
    -3.2043  -3.1964  -3.0752  -2.8921  -2.7970  -2.7699  -2.6948  -2.6289
    -2.5332  -2.5292  -2.4889  -2.3886  -2.3509  -2.3243  -2.2411  -2.2142
    -2.1679  -2.1171  -2.1068  -2.1036  -2.0830  -2.0425  -2.0037  -1.8850
    -1.8002  -1.7783  -1.7046  -1.6883  -1.6823  -1.6542  -1.6112  -1.5922
    -1.5428  -1.5257  -1.4850  -1.4163  -1.3550  -1.2729  -1.2358  -1.1989
    -0.9927  -0.9640  -0.9135  -0.9108  -0.8826  -0.8141  -0.7845  -0.7548
    -0.6890  -0.6864  -0.6581  -0.5517  -0.5090  -0.3882  -0.3175  -0.2381
    -0.1162  -0.1030  -0.0792  -0.0296  -0.0059   0.0537   0.1136   0.1504
     0.1898   0.2025   0.2898   0.3192   0.3962   0.4108   0.4489   0.5122
     0.5287   0.5546   0.5720   0.5844   0.6185   0.6344   0.6685   0.7352
     0.7674   0.8686   0.9174   1.2012   1.2865   1.5956   1.6190   1.7223
     1.9035   2.3009   2.3500   3.7852   3.8477   3.8876   3.9303   3.9326
     4.0154   4.1467   4.2908   4.2984   4.3110   4.3175

[...]

          k =-0.0760-0.0000 0.0000 ( 17886 PWs)   bands (ev):

[...]

 ------ SPIN DOWN ----------

[...]

          k = 0.0380-0.0419 0.0000 ( 17876 PWs)   bands (ev):

[...]

          k =-0.0760-0.0839 0.0000 ( 17948 PWs)   bands (ev):

   -55.2927 -55.2898 -55.2383 -55.2373 -55.1556 -55.1545 -55.1423 -55.1326
   -55.1283 -55.0760 -55.0665 -55.0639 -55.0232 -54.9793 -54.2829 -54.2827
   -31.6833 -31.6782 -31.5876 -31.5814 -31.5653 -31.5646 -31.5569 -31.5281
   -31.5272 -31.5093 -31.5048 -31.5027 -31.4891 -31.4623 -31.4574 -31.4563
   -31.4315 -31.4300 -31.4241 -31.4019 -31.3790 -31.3769 -31.3676 -31.3634
   -31.3630 -31.3573 -31.3565 -31.3498 -31.3481 -31.3416 -31.3378 -31.3222
   -31.3193 -31.3066 -31.3035 -31.2926 -31.2641 -31.2458 -31.2439 -31.2423
   -31.2250 -31.1720 -30.6043 -30.6041 -30.5225 -30.5223 -30.4825 -30.4825
   -16.7621 -15.8196 -15.5910 -15.5392 -15.4984 -15.4039 -15.3302 -15.2991
   -15.2890 -15.2759 -15.1499 -15.1217 -15.1123 -15.0842 -15.0524 -15.0279
   -15.0241 -14.9891 -14.9318 -14.9257 -14.9177 -14.9095 -14.8461 -14.8379
   -14.8341 -14.8273 -14.7619 -14.7595 -14.6775 -14.6755 -12.7870 -12.7868
   -10.0310  -5.8555  -4.8670  -4.4086  -3.5351  -2.8230  -2.7956  -2.7437
    -2.7113  -2.6122  -2.5267  -2.4995  -2.4630  -2.4050  -2.3529  -2.3056
    -2.3034  -2.2678  -2.2482  -2.2294  -2.1857  -2.1641  -2.1417  -2.1234
    -2.1087  -2.0549  -2.0521  -2.0430  -2.0187  -1.9845  -1.9671  -1.9538
    -1.9376  -1.9192  -1.8937  -1.8745  -1.7315  -1.7105  -1.6701  -1.5528
    -1.5349  -1.5314  -1.4984  -1.4546  -1.4298  -1.4223  -1.3484  -1.3413
    -1.3086  -1.1516  -1.0793  -1.0775  -1.0542  -1.0303  -0.9351  -0.8837
    -0.8433  -0.7934  -0.7176  -0.6863  -0.6675  -0.5951  -0.5680  -0.4766
    -0.3872  -0.3604  -0.3522  -0.2749  -0.2734  -0.2399  -0.2268  -0.1577
    -0.0975  -0.0460  -0.0420  -0.0379   0.0908   0.1278   0.2079   0.3220
     0.4023   0.4108   0.4619   0.5223   0.6057   0.6514   0.6672   0.7890
     0.7909   0.9773   0.9806   1.0289   1.0440   1.1244   1.1296   2.0763
     2.0770   2.1693   2.1698   3.7625   3.9455   3.9995   4.0712   4.0966
     4.1956   4.2811   4.3146   4.3447   4.3665   4.3727

     the Fermi energy is     3.8551 ev

!    total energy              =   -2922.77425728 Ry
     estimated scf accuracy    <       0.00000006 Ry
     smearing contrib. (-TS)   =      -0.04551660 Ry
     internal energy E=F+TS    =   -2922.72874068 Ry

     The total energy is F=E-TS. E is the sum of the following terms:
     one-electron contribution =  -23201.68767218 Ry
     hartree contribution      =   11691.14164952 Ry
     xc contribution           =    -482.55083854 Ry
     ewald contribution        =    9070.36438852 Ry
     electric field correction =       0.00373200 Ry

     total magnetization       =     0.01 Bohr mag/cell
     absolute magnetization    =     0.03 Bohr mag/cell

     convergence has been achieved in 110 iterations

     Forces acting on atoms (cartesian axes, Ry/au):

     atom    1 type  1   force =     0.00016994   -0.00008870    0.09305997
     atom    2 type  1   force =     0.00001179   -0.00015859   -0.17884501
     atom    3 type  2   force =     0.00002336   -0.00029832   -0.02023854
     atom    4 type  2   force =    -0.00000131   -0.00224186    0.06097488
     atom    5 type  2   force =    -0.01149796   -0.00128142    0.01054090
     atom    6 type  2   force =     0.01241084   -0.00058704    0.00810549
     atom    7 type  1   force =    -0.00122413    0.00344140   -0.01490830
     atom    8 type  1   force =     0.00123041   -0.00358745   -0.00843323
     atom    9 type  2   force =     0.00001137   -0.00005133   -0.00025834
     atom   10 type  2   force =    -0.00281477   -0.00047977    0.00152906
     atom   11 type  2   force =     0.00013855   -0.00023326   -0.00027664
     atom   12 type  2   force =    -0.00001742    0.00008985   -0.00008877
     atom   13 type  1   force =    -0.00019666   -0.00031727   -0.00063560
     atom   14 type  1   force =    -0.00005154   -0.00005230    0.00023662
     atom   15 type  2   force =    -0.00011351   -0.00023126   -0.00012297
     atom   16 type  2   force =     0.00032721    0.00035329   -0.00009302
     atom   17 type  2   force =     0.00078284    0.00027890   -0.00025770
     atom   18 type  2   force =     0.00009278   -0.00027637   -0.00004625
     atom   19 type  1   force =     0.00025870    0.00042085   -0.00046078
     atom   20 type  1   force =     0.00010998    0.00005374    0.00049310
     atom   21 type  2   force =     0.00012785   -0.00003470    0.10425924
     atom   22 type  2   force =    -0.00050878    0.00016365    0.00017332
     atom   23 type  2   force =    -0.06992157   -0.00011198   -0.02678865
     atom   24 type  2   force =     0.06989497    0.00034873   -0.02678770
     atom   25 type  1   force =     0.00018295   -0.00019672    0.09236679
     atom   26 type  1   force =    -0.00006704   -0.00036327   -0.17901783
     atom   27 type  2   force =     0.00004198   -0.00025559   -0.01896971
     atom   28 type  2   force =     0.00006462   -0.00192496    0.06022709
     atom   29 type  2   force =    -0.01168884   -0.00162527    0.01033520
     atom   30 type  2   force =     0.01247420   -0.00120913    0.00786475
     atom   31 type  1   force =    -0.00101645    0.00609301   -0.01577131
     atom   32 type  1   force =     0.00118442    0.00334352   -0.00865045
     atom   33 type  2   force =     0.00002760    0.00020011   -0.00024761
     atom   34 type  2   force =    -0.00240783   -0.00053798    0.00058570
     atom   35 type  2   force =     0.00002058    0.00000312    0.00006480
     atom   36 type  2   force =     0.00001597   -0.00007070    0.00037851
     atom   37 type  1   force =     0.00035079   -0.00004652   -0.00007672
     atom   38 type  1   force =    -0.00036060   -0.00031794    0.00047998
     atom   39 type  2   force =     0.00036307   -0.00015122    0.00062854
     atom   40 type  2   force =     0.00025157   -0.00017455    0.00004906
     atom   41 type  2   force =     0.00004477    0.00036532   -0.00038371
     atom   42 type  2   force =     0.00051296    0.00022324   -0.00017178
     atom   43 type  1   force =     0.00024302   -0.00019224   -0.00039627
     atom   44 type  1   force =     0.00015242   -0.00124709    0.00062942
     atom   45 type  2   force =     0.00012099   -0.00004350    0.10420840
     atom   46 type  2   force =    -0.06993052   -0.00004955   -0.02677855
     atom   47 type  2   force =     0.06991912    0.00035171   -0.02679792
     atom   48 type  3   force =     0.00201838    0.00033798   -0.00038615
     atom   49 type  4   force =    -0.00129614   -0.00137346   -0.00272634
     atom   50 type  5   force =    -0.00011474   -0.00002133   -0.00021754
     atom   51 type  5   force =     0.00098483    0.00252091    0.00226259
     atom   52 type  5   force =    -0.00070787   -0.00055142   -0.00044229
     atom   53 type  5   force =     0.00015134    0.00074598   -0.00102559
     atom   54 type  5   force =    -0.00013874    0.00009215   -0.00043185
     atom   55 type  5   force =    -0.00063972    0.00095661    0.00127973

     Total force =     0.367676     Total SCF correction =     0.000414
  @ DRIVER MODE: Message from server: STATUS
  @ DRIVER MODE: Message from server: GETFORCE
  @ DRIVER MODE: Returning v,forces,stress,ensemble

     Writing output data file ./calc.save/
  @ DRIVER MODE: Message from server: EXIT
  @ DRIVE MODE: Exiting

     General routines

     Parallel routines

   This run was terminated on:  23:43:51  27Jul2021

   JOB DONE.