     Program PWSCF v.6.7GPU starts on 24Aug2021 at 21: 9:53

     R & G space division:  proc/nbgrp/npool/nimage =      72
     Reading input from /storage/home/hcoda1/3/ntian30/research/carbon/CH2_vib/ads_slab/CH2NNH3_a/out_0031/pw.inp
Warning: card &CELL ignored
Warning: card   CELL_DYNAMICS='IPI', ignored
Warning: card / ignored

     Current dimensions of program PWSCF are:
     Max number of different atomic species (ntypx) = 10
     Max number of k-points (npk) =  40000
     Max angular momentum in pseudopotentials (lmaxx) =  3
     Presently no symmetry can be used with electric field

     Message from routine cell_base_init:
     DEPRECATED: use true lattice parameter, not A to a.u. conversion factor

     IMPORTANT: XC functional enforced from input :
     Exchange-correlation= BEEF-VDW
                           (   1   4  43  14   2   0   0)
     Any further DFT definition will be discarded
     Please, verify this is what you really want

  @ DRIVER MODE: Connecting to
 qe_1139763_2641442.sched-torque.pace.gatech.edu7shwaarp_scratch
  using UNIX socket
  @ DRIVER MODE: Message from server: STATUS
  @ DRIVER MODE: Message from server: INIT
  @ DRIVER MODE: Receiving replica           0          -1
  @ DRIVER MODE: Receiving encoded integer          25
  @ DRIVER MODE:  SCF:  T  FORCE:  T  STRESS:  F  VC:  F  ENSEMBLE:  F
  @ DRIVER MODE:  SCF:  T  FORCE:  T  STRESS:  F  VC:  F  ENSEMBLE:  F

     Using Slab Decomposition

     bravais-lattice index     =            0
     lattice parameter (alat)  =       1.8897  a.u.
     unit-cell volume          =    6658.9804 (a.u.)^3
     number of atoms/cell      =           55
     number of atomic types    =            5
     number of electrons       =       397.00
     number of Kohn-Sham states=          208
     kinetic-energy cutoff     =      29.3995  Ry
     charge density cutoff     =     293.9946  Ry
     scf convergence threshold =      7.3E-08
     mixing beta               =       0.0500
     number of iterations used =            8  plain     mixing
     Exchange-correlation= BEEF-VDW
                           (   1   4  43  14   2   0   0)

     celldm(1)=   1.889726  celldm(2)=   0.000000  celldm(3)=   0.000000
     celldm(4)=   0.000000  celldm(5)=   0.000000  celldm(6)=   0.000000

     crystal axes: (cart. coord. in units of alat)
               a(1) = (   6.579727   0.000000   0.000000 )
               a(2) = (  -0.000775   5.961596   0.000000 )
               a(3) = (   0.000000   0.000000  25.155947 )

     reciprocal axes: (cart. coord. in units 2 pi/alat)
               b(1) = (  0.151982  0.000020  0.000000 )
               b(2) = (  0.000000  0.167740  0.000000 )
               b(3) = (  0.000000  0.000000  0.039752 )

     PseudoPot. # 1 for Ti read from file:
     /storage/coda1/p-amedford6/0/shared/rich_project_chbe-medford/medford-share/data/pseudos_module/espresso/nninc/pbe/van/Ti.UPF
     MD5 check sum: 8e4df49b7f0d34bbd5052bf3f5ea0213
     Pseudo is Ultrasoft, Zval = 12.0
     Generated by new atomic code, or converted to UPF format
     Using radial grid of  851 points,  6 beta functions with:
                l(1) =   0
                l(2) =   0
                l(3) =   1
                l(4) =   1
                l(5) =   2
                l(6) =   2
     Q(r) pseudized with  8 coefficients,  rinner =    1.000   1.000   1.000
                                                       1.000   1.000

     PseudoPot. # 2 for O  read from file:
     /storage/coda1/p-amedford6/0/shared/rich_project_chbe-medford/medford-share/data/pseudos_module/espresso/nninc/pbe/van/O.UPF
     MD5 check sum: 78c19812648e8988a0fe644b0f25305e
     Pseudo is Ultrasoft, Zval =  6.0
     Generated by new atomic code, or converted to UPF format
     Using radial grid of  737 points,  4 beta functions with:
                l(1) =   0
                l(2) =   0
                l(3) =   1
                l(4) =   1
     Q(r) pseudized with  8 coefficients,  rinner =    0.800   0.800   0.800

     PseudoPot. # 3 for N  read from file:
     /storage/coda1/p-amedford6/0/shared/rich_project_chbe-medford/medford-share/data/pseudos_module/espresso/nninc/pbe/van/N.UPF
     MD5 check sum: 90d10febe142ad51ac9d5be1deb811c4
     Pseudo is Ultrasoft, Zval =  5.0
     Generated by new atomic code, or converted to UPF format
     Using radial grid of  729 points,  4 beta functions with:
                l(1) =   0
                l(2) =   0
                l(3) =   1
                l(4) =   1
     Q(r) pseudized with  8 coefficients,  rinner =    0.800   0.800   0.800

     PseudoPot. # 4 for C  read from file:
     /storage/coda1/p-amedford6/0/shared/rich_project_chbe-medford/medford-share/data/pseudos_module/espresso/nninc/pbe/van/C.UPF
     MD5 check sum: 1a69bf6b8db32088f5b2163dbdb77a27
     Pseudo is Ultrasoft, Zval =  4.0
     Generated by new atomic code, or converted to UPF format
     Using radial grid of  721 points,  4 beta functions with:
                l(1) =   0
                l(2) =   0
                l(3) =   1
                l(4) =   1
     Q(r) pseudized with  8 coefficients,  rinner =    0.800   0.800   0.800

     PseudoPot. # 5 for H  read from file:
     /storage/coda1/p-amedford6/0/shared/rich_project_chbe-medford/medford-share/data/pseudos_module/espresso/nninc/pbe/van/H.UPF
     MD5 check sum: b5ee9d7bfd3a09ee7748110bda690ff7
     Pseudo is Ultrasoft, Zval =  1.0
     Generated by new atomic code, or converted to UPF format
     Using radial grid of  615 points,  1 beta functions with:
                l(1) =   0
     Q(r) pseudized with  8 coefficients,  rinner =    0.800

     atomic species   valence    mass     pseudopotential
        Ti1           12.00    47.86700     Ti( 1.00)
        O1             6.00    15.99900     O ( 1.00)
        N1             5.00    14.00700     N ( 1.00)
        C1             4.00    12.01100     C ( 1.00)
        H1             1.00     1.00800     H ( 1.00)

     No symmetry found

   Cartesian axes

     site n.     atom                  positions (alat units)
         1           Ti1 tau(   1) = (   0.0004258   2.9801865   6.0000000  )
         2           Ti1 tau(   2) = (   3.2906075   1.4906267   6.0002472  )
         3           O1  tau(   3) = (   0.0006271   0.0005054   7.9858123  )
         4           O1  tau(   4) = (   3.2906025   0.0005020   7.3038282  )
         5           O1  tau(   5) = (   4.5942328   1.4918067   9.2879030  )
         6           O1  tau(   6) = (   1.9868534   1.4903216   9.2879459  )
         7           Ti1 tau(   7) = (   3.2907910   2.8959150   9.1758416  )
         8           Ti1 tau(   8) = (   0.0015273   1.4827037   9.2680791  )
         9           O1  tau(   9) = (   3.2870044   0.0008392  11.3329265  )
        10           O1  tau(  10) = (   0.0116148   5.9584955  10.6183126  )
        11           O1  tau(  11) = (   1.3103063   1.4923116  12.6208530  )
        12           O1  tau(  12) = (   5.2933663   1.4849185  12.6124200  )
        13           Ti1 tau(  13) = (   6.5212574   2.9536302  12.6166858  )
        14           Ti1 tau(  14) = (   3.2058376   1.4897313  12.4816367  )
        15           O1  tau(  15) = (   6.5713238   0.0136578  14.6546308  )
        16           O1  tau(  16) = (   3.3039920   0.0133407  13.9274802  )
        17           O1  tau(  17) = (   4.5398155   1.5323753  16.0810081  )
        18           O1  tau(  18) = (   2.0543055   1.5218724  16.0470058  )
        19           Ti1 tau(  19) = (   3.2774803   3.0107093  15.7022328  )
        20           Ti1 tau(  20) = (   6.5342633   1.5374647  15.8423947  )
        21           O1  tau(  21) = (   3.2904802   0.0005063   4.7018136  )
        22           O1  tau(  22) = (   0.0034288   0.0322173  17.2228558  )
        23           O1  tau(  23) = (   1.3043587   1.4918075   6.0039043  )
        24           O1  tau(  24) = (   5.2767064   1.4903225   6.0039473  )
        25           Ti1 tau(  25) = (   0.0000382   5.9609847   6.0000000  )
        26           Ti1 tau(  26) = (   3.2902200   4.4714249   6.0002472  )
        27           O1  tau(  27) = (   0.0002396   2.9813036   7.9858123  )
        28           O1  tau(  28) = (   3.2902150   2.9813002   7.3038282  )
        29           O1  tau(  29) = (   4.5938453   4.4726049   9.2879030  )
        30           O1  tau(  30) = (   1.9864658   4.4711199   9.2879459  )
        31           Ti1 tau(  31) = (   3.2891106   5.8743827   9.1763621  )
        32           Ti1 tau(  32) = (   0.0006254   4.4649316   9.2693709  )
        33           O1  tau(  33) = (   3.2848367   2.9872869  11.3311783  )
        34           O1  tau(  34) = (   0.0092240   2.9805883  10.6323155  )
        35           O1  tau(  35) = (   1.3050274   4.4824158  12.6313026  )
        36           O1  tau(  36) = (   5.2955027   4.4751037  12.6224712  )
        37           Ti1 tau(  37) = (   6.5218534   5.9301143  12.5590122  )
        38           Ti1 tau(  38) = (   3.2037265   4.4702053  12.4865905  )
        39           O1  tau(  39) = (   6.5652647   2.9430126  14.6458727  )
        40           O1  tau(  40) = (   3.3006234   2.9978660  13.9063397  )
        41           O1  tau(  41) = (   4.5289998   4.4870283  16.1192093  )
        42           O1  tau(  42) = (   2.0463452   4.4937679  16.0531255  )
        43           Ti1 tau(  43) = (   3.2679282   0.0255942  15.7259849  )
        44           Ti1 tau(  44) = (   6.5624932   4.6695214  16.1100661  )
        45           O1  tau(  45) = (   3.2900926   2.9813045   4.7018136  )
        46           O1  tau(  46) = (   1.3039711   4.4726057   6.0039043  )
        47           O1  tau(  47) = (   5.2763189   4.4711207   6.0039473  )
        48           N1  tau(  48) = (   0.0665130   2.9625449  17.3937163  )
        49           C1  tau(  49) = (   0.2662726   2.8715582  18.6342609  )
        50           H1  tau(  50) = (   0.3859136   3.7587535  19.2661104  )
        51           H1  tau(  51) = (   0.3502417   1.8926937  19.1273272  )
        52           N1  tau(  52) = (   3.5829462   4.8819607  19.5834040  )
        53           H1  tau(  53) = (   4.1294342   5.6873527  19.8504637  )
        54           H1  tau(  54) = (   4.0752263   4.4438539  18.8113048  )
        55           H1  tau(  55) = (   3.6086599   4.2347498  20.3655469  )

     number of k points=    10  Fermi-Dirac smearing, width (Ry)=  0.0073
                       cart. coord. in units 2pi/alat
        k(    1) = (   0.0000000   0.0000000   0.0000000), wk =   0.1250000
        k(    2) = (   0.0000000   0.0419351   0.0000000), wk =   0.2500000
        k(    3) = (   0.0000000  -0.0838702   0.0000000), wk =   0.1250000
        k(    4) = (   0.0379955   0.0000049   0.0000000), wk =   0.2500000
        k(    5) = (   0.0379955   0.0419400   0.0000000), wk =   0.2500000
        k(    6) = (   0.0379955  -0.0838652   0.0000000), wk =   0.2500000
        k(    7) = (   0.0379955  -0.0419301   0.0000000), wk =   0.2500000
        k(    8) = (  -0.0759910  -0.0000099   0.0000000), wk =   0.1250000
        k(    9) = (  -0.0759910   0.0419252   0.0000000), wk =   0.2500000
        k(   10) = (  -0.0759910  -0.0838800   0.0000000), wk =   0.1250000

     Initial potential from superposition of free atoms

     starting charge  380.99914, renormalised to  397.00000

     negative rho (up, down):  1.455E-02 0.000E+00

     %%%%%%%%%%%%%%%%%%%%%%%%%%%%%%%%%%%%%%%%%%%%%%%%%%%%%%%%%%%%%%%%%%%%%%%%
     %                                                                      %
     % You are using vdW-DF, which was implemented by the Thonhauser group. %
     % Please cite the following two papers that made this development      %
     % possible and the two reviews that describe the various versions:     %
     %                                                                      %
     %   T. Thonhauser et al., PRL 115, 136402 (2015).                      %
     %   T. Thonhauser et al., PRB 76, 125112 (2007).                       %
     %   K. Berland et al., Rep. Prog. Phys. 78, 066501 (2015).             %
     %   D.C. Langreth et al., J. Phys.: Condens. Matter 21, 084203 (2009). %
     %                                                                      %
     %                                                                      %
     % If you are calculating the stress with vdW-DF, please also cite:     %
     %                                                                      %
     %   R. Sabatini et al., J. Phys.: Condens. Matter 24, 424209 (2012).   %
     %                                                                      %
     %%%%%%%%%%%%%%%%%%%%%%%%%%%%%%%%%%%%%%%%%%%%%%%%%%%%%%%%%%%%%%%%%%%%%%%%

     Adding external electric field

     Computed dipole along edir(3) :
        Dipole              -10.1102 Ry au,        -25.6976 Debye
        Dipole field         -0.0191 Ry au,

        Potential amp.        1.7686 Ry
        Total length         46.3494 bohr

     Starting wfcs are  301 atomic wfcs
  @ DRIVER MODE: Message from server: STATUS
  @ DRIVER MODE: Message from server: POSDATA
  @ DRIVER MODE: Reading and sharing cell
  @ DRIVER MODE: Reading and sharing positions
  @ DRIVER MODE: Received positions

     Self-consistent Calculation

     iteration #  1     ecut=    29.40 Ry     beta= 0.05
     Davidson diagonalization with overlap
     c_bands:  2 eigenvalues not converged
     c_bands:  1 eigenvalues not converged
     c_bands:  1 eigenvalues not converged
     c_bands:  1 eigenvalues not converged
     c_bands:  1 eigenvalues not converged
     c_bands:  1 eigenvalues not converged
     c_bands:  1 eigenvalues not converged
     c_bands:  2 eigenvalues not converged
     ethr =  1.00E-05,  avg # of iterations = 19.0

[...]

     total energy              =   -2537.41393204 Ry
     estimated scf accuracy    <    4509.16468174 Ry

     iteration #  2     ecut=    29.40 Ry     beta= 0.05
     Davidson diagonalization with overlap
     ethr =  1.00E-02,  avg # of iterations = 25.4

[...]

     iteration # 60     ecut=    29.40 Ry     beta= 0.05
     Davidson diagonalization with overlap
     c_bands:  1 eigenvalues not converged
     ethr =  3.03E-11,  avg # of iterations = 15.0

[...]

     total energy              =   -2941.70786409 Ry
     estimated scf accuracy    <       0.00000009 Ry

     iteration # 64     ecut=    29.40 Ry     beta= 0.05
     Davidson diagonalization with overlap
     ethr =  2.22E-11,  avg # of iterations =  3.6

     negative rho (up, down):  1.502E-02 0.000E+00

     Adding external electric field

     Computed dipole along edir(3) :
        Dipole                0.8868 Ry au,          2.2539 Debye
        Dipole field          0.0017 Ry au,

        Potential amp.       -0.1551 Ry
        Total length         46.3494 bohr

     End of self-consistent calculation

          k = 0.0000 0.0000 0.0000 ( 18029 PWs)   bands (ev):

   -55.7586 -55.7500 -55.7245 -55.7141 -55.6442 -55.6034 -55.5874 -55.5689
   -55.5671 -55.5332 -55.5312 -55.4975 -55.2775 -55.0258 -54.7358 -54.7018
   -32.3029 -32.2409 -32.1046 -32.0940 -32.0659 -32.0626 -32.0515 -32.0216
   -32.0011 -31.9771 -31.9704 -31.9500 -31.9297 -31.9107 -31.9021 -31.8891
   -31.8751 -31.8628 -31.8480 -31.8156 -31.8128 -31.8101 -31.7688 -31.7619
   -31.7615 -31.7594 -31.7549 -31.7457 -31.7331 -31.7183 -31.7103 -31.7064
   -31.7014 -31.6974 -31.6842 -31.6743 -31.6433 -31.5318 -31.4585 -31.3071
   -31.2797 -31.2332 -31.1429 -31.0546 -31.0322 -30.9596 -30.8731 -30.7621
   -16.4986 -16.2333 -16.0166 -15.9122 -15.8768 -15.7612 -15.5971 -15.4780
   -15.4254 -15.3273 -15.3136 -15.2942 -15.2607 -15.2442 -15.2233 -15.2046
   -15.2000 -15.1824 -15.1688 -15.1176 -15.0947 -15.0572 -14.9600 -14.9305
   -14.8930 -14.8764 -14.8183 -14.8133 -14.6794 -14.3296 -14.0568 -13.2384
   -13.1220  -7.2953  -4.1716  -4.1565  -4.0313  -3.8744  -3.7652  -3.7118
    -3.6637  -3.6033  -3.3974  -3.3070  -3.2820  -2.9857  -2.9398  -2.9249
    -2.9027  -2.8772  -2.6577  -2.6029  -2.5715  -2.5542  -2.5395  -2.5263
    -2.5187  -2.4990  -2.4650  -2.3674  -2.3137  -2.2990  -2.1758  -2.1472
    -2.0869  -2.0704  -2.0237  -2.0087  -1.9956  -1.9907  -1.9626  -1.9463
    -1.9209  -1.8426  -1.7270  -1.5746  -1.5562  -1.5225  -1.4027  -1.3654
    -1.3012  -1.2177  -1.1996  -1.1835  -1.1495  -1.1379  -1.0586  -0.9457
    -0.9055  -0.8967  -0.7935  -0.7535  -0.7333  -0.6292  -0.6054  -0.5374
    -0.5208  -0.5110  -0.4781  -0.3180  -0.2601  -0.2253  -0.1606  -0.1374
    -0.0781  -0.0603  -0.0300   0.0529   0.1008   0.1274   0.1292   0.1780
     0.2164   0.2333   0.2373   0.2521   0.2723   0.4393   0.5152   0.5292
     0.5987   0.6102   0.7727   0.8172   0.8990   1.0016   1.0502   1.2119
     1.2861   1.3760   1.4784   1.6814   1.8574   1.9031   3.3785   3.4619
     3.5104   3.5228   3.6210   3.6622   3.8314   3.8397   3.8501   3.9245

[...]

          k = 0.0380-0.0419 0.0000 ( 17876 PWs)   bands (ev):

[...]

          k =-0.0760-0.0000 0.0000 ( 17886 PWs)   bands (ev):

[...]

          k =-0.0760-0.0839 0.0000 ( 17948 PWs)   bands (ev):

   -55.7419 -55.7411 -55.7328 -55.7310 -55.6382 -55.5932 -55.5878 -55.5844
   -55.5508 -55.5490 -55.5151 -55.5138 -55.2764 -55.0268 -54.7188 -54.7187
   -32.1080 -32.1052 -32.0565 -32.0559 -32.0373 -32.0365 -32.0214 -32.0092
   -31.9567 -31.9526 -31.9480 -31.9439 -31.9093 -31.8825 -31.8811 -31.8778
   -31.8686 -31.8626 -31.8613 -31.8605 -31.8540 -31.8515 -31.8415 -31.8071
   -31.8010 -31.7940 -31.7815 -31.7688 -31.7496 -31.7492 -31.7463 -31.7452
   -31.7297 -31.7289 -31.7239 -31.7210 -31.6412 -31.5342 -31.4550 -31.3738
   -31.2814 -31.2552 -31.0449 -31.0448 -30.9558 -30.9556 -30.9164 -30.9164
   -15.9379 -15.9067 -15.7015 -15.6745 -15.6709 -15.6548 -15.5297 -15.4667
   -15.4536 -15.4513 -15.3873 -15.3668 -15.3303 -15.3030 -15.2887 -15.2785
   -15.2727 -15.2665 -15.2179 -15.2120 -15.1943 -15.1871 -15.0840 -15.0746
   -15.0707 -15.0154 -14.9350 -14.7930 -14.6960 -14.5032 -14.0565 -13.2239
   -13.2237  -7.2918  -4.1920  -4.1319  -4.0369  -3.4388  -3.2278  -3.1906
    -2.9312  -2.9131  -2.8995  -2.8444  -2.6716  -2.6541  -2.6327  -2.6146
    -2.5809  -2.5799  -2.5609  -2.5589  -2.5481  -2.5137  -2.5019  -2.4722
    -2.4346  -2.4243  -2.4126  -2.4113  -2.3812  -2.3715  -2.3327  -2.3033
    -2.2941  -2.2756  -2.2608  -2.0914  -1.9831  -1.9579  -1.8948  -1.8870
    -1.8580  -1.8220  -1.8146  -1.7937  -1.7430  -1.6570  -1.4899  -1.4577
    -1.4395  -1.3773  -1.3598  -1.3089  -1.2290  -1.1552  -1.1329  -1.1276
    -1.0779  -0.9683  -0.9457  -0.9375  -0.8678  -0.8215  -0.8148  -0.7792
    -0.7506  -0.7178  -0.7135  -0.6213  -0.5719  -0.5290  -0.5240  -0.4757
    -0.4083  -0.3971  -0.3685  -0.2593  -0.2366  -0.1792  -0.1445  -0.0345
     0.0289   0.2269   0.2807   0.3167   0.3742   0.4490   0.5314   0.5468
     0.5510   0.5615   0.6173   0.6710   0.7753   0.7841   0.8393   0.9463
     1.0172   1.6057   1.6499   1.6506   1.7229   1.7230   3.6611   3.6729
     3.7118   3.7324   3.8707   3.8859   3.9096   3.9105   3.9621   4.0479

     the Fermi energy is     3.3759 ev

!    total energy              =   -2941.70789270 Ry
     estimated scf accuracy    <       0.00000005 Ry
     smearing contrib. (-TS)   =      -0.02185617 Ry
     internal energy E=F+TS    =   -2941.68603653 Ry

     The total energy is F=E-TS. E is the sum of the following terms:
     one-electron contribution =  -23925.32290001 Ry
     hartree contribution      =   12052.29976295 Ry
     xc contribution           =    -486.76928596 Ry
     ewald contribution        =    9418.10490259 Ry
     electric field correction =       0.00148390 Ry

     convergence has been achieved in  64 iterations

     Forces acting on atoms (cartesian axes, Ry/au):

     atom    1 type  1   force =     0.00002732   -0.00025499    0.09664265
     atom    2 type  1   force =     0.00004474   -0.00058343   -0.17536253
     atom    3 type  2   force =     0.00011532   -0.00004244   -0.02487885
     atom    4 type  2   force =    -0.00000136   -0.00141740    0.05291609
     atom    5 type  2   force =    -0.01226978   -0.00026393    0.00348743
     atom    6 type  2   force =     0.01362599    0.00026595    0.00256297
     atom    7 type  1   force =     0.00031345    0.00058290   -0.01136635
     atom    8 type  1   force =     0.00052039    0.00784158    0.02844967
     atom    9 type  2   force =     0.00020523    0.00041155    0.00051953
     atom   10 type  2   force =    -0.00291894    0.00138290   -0.01555872
     atom   11 type  2   force =     0.00068004   -0.00000301   -0.00001488
     atom   12 type  2   force =    -0.00008624   -0.00013630   -0.00013771
     atom   13 type  1   force =    -0.00019068   -0.00032488    0.00099326
     atom   14 type  1   force =     0.00018393   -0.00007827   -0.00020562
     atom   15 type  2   force =     0.00017854    0.00049517    0.00020862
     atom   16 type  2   force =    -0.00033382   -0.00035860   -0.00029489
     atom   17 type  2   force =    -0.00067108    0.00001723   -0.00045464
     atom   18 type  2   force =     0.00039514    0.00043915   -0.00004432
     atom   19 type  1   force =    -0.00050262   -0.00078677   -0.00022622
     atom   20 type  1   force =     0.00046020    0.00095085   -0.00115125
     atom   21 type  2   force =     0.00005568   -0.00006323    0.10318561
     atom   22 type  2   force =    -0.00078275    0.00004830    0.00060134
     atom   23 type  2   force =    -0.07151822   -0.00014288   -0.02772197
     atom   24 type  2   force =     0.07144237    0.00031925   -0.02779735
     atom   25 type  1   force =     0.00016443   -0.00024281    0.09628272
     atom   26 type  1   force =     0.00009596   -0.00022764   -0.17560746
     atom   27 type  2   force =     0.00017201   -0.00019034   -0.02393083
     atom   28 type  2   force =    -0.00000081   -0.00117378    0.05282926
     atom   29 type  2   force =    -0.01240139    0.00039383    0.00318242
     atom   30 type  2   force =     0.01365581    0.00085849    0.00222703
     atom   31 type  1   force =     0.00028413    0.00324064   -0.01195638
     atom   32 type  1   force =     0.00065343   -0.01007019    0.02885098
     atom   33 type  2   force =     0.00024170   -0.00024468    0.00065291
     atom   34 type  2   force =    -0.00238024    0.00102407   -0.02370309
     atom   35 type  2   force =     0.00060436   -0.00070933   -0.00008893
     atom   36 type  2   force =    -0.00016403   -0.00079287    0.00017579
     atom   37 type  1   force =    -0.00017939   -0.00013415    0.00048877
     atom   38 type  1   force =     0.00030083    0.00036347   -0.00066657
     atom   39 type  2   force =    -0.00009401   -0.00076111    0.00118828
     atom   40 type  2   force =     0.00026504   -0.00062488   -0.00012708
     atom   41 type  2   force =    -0.00026560   -0.00062863   -0.00002044
     atom   42 type  2   force =    -0.00033786   -0.00024568   -0.00003474
     atom   43 type  1   force =    -0.00049855    0.00069496    0.00003160
     atom   44 type  1   force =    -0.00016929    0.00015017   -0.00036586
     atom   45 type  2   force =     0.00007318   -0.00006760    0.10321006
     atom   46 type  2   force =    -0.07155134   -0.00008940   -0.02774769
     atom   47 type  2   force =     0.07145815    0.00033495   -0.02781277
     atom   48 type  3   force =    -0.00020847   -0.00065215   -0.00127724
     atom   49 type  4   force =     0.00061643   -0.00097226    0.00082754
     atom   50 type  5   force =    -0.00041225    0.00073509    0.00112648
     atom   51 type  5   force =    -0.00027130    0.00063195   -0.00049642
     atom   52 type  3   force =    -0.00676139   -0.00750767   -0.00251929
     atom   53 type  5   force =     0.00647908    0.00761088    0.00167585
     atom   54 type  5   force =     0.00160120    0.00035186    0.00126431
     atom   55 type  5   force =     0.00005731    0.00064612   -0.00201108

     Total force =     0.368346     Total SCF correction =     0.000526
  @ DRIVER MODE: Message from server: STATUS
  @ DRIVER MODE: Message from server: GETFORCE
  @ DRIVER MODE: Returning v,forces,stress,ensemble

     Writing output data file ./calc.save/
  @ DRIVER MODE: Message from server: EXIT
  @ DRIVE MODE: Exiting

     General routines

     Parallel routines

   This run was terminated on:  21:27:43  24Aug2021

   JOB DONE.