     Program PWSCF v.6.7GPU starts on 24Aug2021 at 10:13: 6

     R & G space division:  proc/nbgrp/npool/nimage =       6
     Reading input from /storage/home/hcoda1/3/ntian30/research/carbon/CH2_vib/ads_slab/CH2NNHHH_a/out_0040/pw.inp
Warning: card &CELL ignored
Warning: card   CELL_DYNAMICS='IPI', ignored
Warning: card / ignored

     Current dimensions of program PWSCF are:
     Max number of different atomic species (ntypx) = 10
     Max number of k-points (npk) =  40000
     Max angular momentum in pseudopotentials (lmaxx) =  3
     Presently no symmetry can be used with electric field

     Message from routine cell_base_init:
     DEPRECATED: use true lattice parameter, not A to a.u. conversion factor

     IMPORTANT: XC functional enforced from input :
     Exchange-correlation= BEEF-VDW
                           (   1   4  43  14   2   0   0)
     Any further DFT definition will be discarded
     Please, verify this is what you really want

  @ DRIVER MODE: Connecting to
 qe_1139763_2632806.sched-torque.pace.gatech.edube8tg1vq_scratch
  using UNIX socket
  @ DRIVER MODE: Message from server: STATUS
  @ DRIVER MODE: Message from server: INIT
  @ DRIVER MODE: Receiving replica           0          -1
  @ DRIVER MODE: Receiving encoded integer          25
  @ DRIVER MODE:  SCF:  T  FORCE:  T  STRESS:  F  VC:  F  ENSEMBLE:  F
  @ DRIVER MODE:  SCF:  T  FORCE:  T  STRESS:  F  VC:  F  ENSEMBLE:  F

     Using Slab Decomposition

     bravais-lattice index     =            0
     lattice parameter (alat)  =       1.8897  a.u.
     unit-cell volume          =    6658.9804 (a.u.)^3
     number of atoms/cell      =           55
     number of atomic types    =            5
     number of electrons       =       397.00
     number of Kohn-Sham states=          208
     kinetic-energy cutoff     =      29.3995  Ry
     charge density cutoff     =     293.9946  Ry
     scf convergence threshold =      7.3E-08
     mixing beta               =       0.0500
     number of iterations used =            8  plain     mixing
     Exchange-correlation= BEEF-VDW
                           (   1   4  43  14   2   0   0)

     celldm(1)=   1.889726  celldm(2)=   0.000000  celldm(3)=   0.000000
     celldm(4)=   0.000000  celldm(5)=   0.000000  celldm(6)=   0.000000

     crystal axes: (cart. coord. in units of alat)
               a(1) = (   6.579727   0.000000   0.000000 )
               a(2) = (  -0.000775   5.961596   0.000000 )
               a(3) = (   0.000000   0.000000  25.155947 )

     reciprocal axes: (cart. coord. in units 2 pi/alat)
               b(1) = (  0.151982  0.000020  0.000000 )
               b(2) = (  0.000000  0.167740  0.000000 )
               b(3) = (  0.000000  0.000000  0.039752 )

     PseudoPot. # 1 for Ti read from file:
     /storage/coda1/p-amedford6/0/shared/rich_project_chbe-medford/medford-share/data/pseudos_module/espresso/nninc/pbe/van/Ti.UPF
     MD5 check sum: 8e4df49b7f0d34bbd5052bf3f5ea0213
     Pseudo is Ultrasoft, Zval = 12.0
     Generated by new atomic code, or converted to UPF format
     Using radial grid of  851 points,  6 beta functions with:
                l(1) =   0
                l(2) =   0
                l(3) =   1
                l(4) =   1
                l(5) =   2
                l(6) =   2
     Q(r) pseudized with  8 coefficients,  rinner =    1.000   1.000   1.000
                                                       1.000   1.000

     PseudoPot. # 2 for O  read from file:
     /storage/coda1/p-amedford6/0/shared/rich_project_chbe-medford/medford-share/data/pseudos_module/espresso/nninc/pbe/van/O.UPF
     MD5 check sum: 78c19812648e8988a0fe644b0f25305e
     Pseudo is Ultrasoft, Zval =  6.0
     Generated by new atomic code, or converted to UPF format
     Using radial grid of  737 points,  4 beta functions with:
                l(1) =   0
                l(2) =   0
                l(3) =   1
                l(4) =   1
     Q(r) pseudized with  8 coefficients,  rinner =    0.800   0.800   0.800

     PseudoPot. # 3 for N  read from file:
     /storage/coda1/p-amedford6/0/shared/rich_project_chbe-medford/medford-share/data/pseudos_module/espresso/nninc/pbe/van/N.UPF
     MD5 check sum: 90d10febe142ad51ac9d5be1deb811c4
     Pseudo is Ultrasoft, Zval =  5.0
     Generated by new atomic code, or converted to UPF format
     Using radial grid of  729 points,  4 beta functions with:
                l(1) =   0
                l(2) =   0
                l(3) =   1
                l(4) =   1
     Q(r) pseudized with  8 coefficients,  rinner =    0.800   0.800   0.800

     PseudoPot. # 4 for C  read from file:
     /storage/coda1/p-amedford6/0/shared/rich_project_chbe-medford/medford-share/data/pseudos_module/espresso/nninc/pbe/van/C.UPF
     MD5 check sum: 1a69bf6b8db32088f5b2163dbdb77a27
     Pseudo is Ultrasoft, Zval =  4.0
     Generated by new atomic code, or converted to UPF format
     Using radial grid of  721 points,  4 beta functions with:
                l(1) =   0
                l(2) =   0
                l(3) =   1
                l(4) =   1
     Q(r) pseudized with  8 coefficients,  rinner =    0.800   0.800   0.800

     PseudoPot. # 5 for H  read from file:
     /storage/coda1/p-amedford6/0/shared/rich_project_chbe-medford/medford-share/data/pseudos_module/espresso/nninc/pbe/van/H.UPF
     MD5 check sum: b5ee9d7bfd3a09ee7748110bda690ff7
     Pseudo is Ultrasoft, Zval =  1.0
     Generated by new atomic code, or converted to UPF format
     Using radial grid of  615 points,  1 beta functions with:
                l(1) =   0
     Q(r) pseudized with  8 coefficients,  rinner =    0.800

     atomic species   valence    mass     pseudopotential
        Ti1           12.00    47.86700     Ti( 1.00)
        O1             6.00    15.99900     O ( 1.00)
        N1             5.00    14.00700     N ( 1.00)
        C1             4.00    12.01100     C ( 1.00)
        H1             1.00     1.00800     H ( 1.00)

     No symmetry found

   Cartesian axes

     site n.     atom                  positions (alat units)
         1           Ti1 tau(   1) = (   0.0004258   2.9801865   6.0000000  )
         2           Ti1 tau(   2) = (   3.2906075   1.4906267   6.0002472  )
         3           O1  tau(   3) = (   0.0006271   0.0005054   7.9858123  )
         4           O1  tau(   4) = (   3.2906025   0.0005020   7.3038282  )
         5           O1  tau(   5) = (   4.5942328   1.4918067   9.2879030  )
         6           O1  tau(   6) = (   1.9868534   1.4903216   9.2879459  )
         7           Ti1 tau(   7) = (   3.2907910   2.8959150   9.1758416  )
         8           Ti1 tau(   8) = (   0.0015273   1.4827037   9.2680791  )
         9           O1  tau(   9) = (   3.2797308   5.9473376  11.3602069  )
        10           O1  tau(  10) = (   0.0116148   5.9584955  10.6183126  )
        11           O1  tau(  11) = (   1.2902197   1.4970218  12.6485984  )
        12           O1  tau(  12) = (   5.2825647   1.4998509  12.6204812  )
        13           Ti1 tau(  13) = (   6.5707130   2.9731531  12.5352273  )
        14           Ti1 tau(  14) = (   3.2824754   1.4851695  12.4964603  )
        15           O1  tau(  15) = (   6.5335774   0.0914421  14.6722524  )
        16           O1  tau(  16) = (   3.3157438   0.0180770  13.9903400  )
        17           O1  tau(  17) = (   4.5084513   1.5196572  16.2619966  )
        18           O1  tau(  18) = (   2.0062152   1.4815140  16.1839734  )
        19           Ti1 tau(  19) = (   3.2259906   2.9465836  15.7211513  )
        20           Ti1 tau(  20) = (   6.5090593   1.4075841  16.1508600  )
        21           O1  tau(  21) = (   3.2904802   0.0005063   4.7018136  )
        22           O1  tau(  22) = (   6.5630310   5.8123487  17.2302531  )
        23           O1  tau(  23) = (   1.3043587   1.4918075   6.0039043  )
        24           O1  tau(  24) = (   5.2767064   1.4903225   6.0039473  )
        25           Ti1 tau(  25) = (   0.0000382   5.9609847   6.0000000  )
        26           Ti1 tau(  26) = (   3.2902200   4.4714249   6.0002472  )
        27           O1  tau(  27) = (   0.0002396   2.9813036   7.9858123  )
        28           O1  tau(  28) = (   3.2902150   2.9813002   7.3038282  )
        29           O1  tau(  29) = (   4.5938453   4.4726049   9.2879030  )
        30           O1  tau(  30) = (   1.9864658   4.4711199   9.2879459  )
        31           Ti1 tau(  31) = (   3.2891106   5.8743827   9.1763621  )
        32           Ti1 tau(  32) = (   0.0006254   4.4649316   9.2693709  )
        33           O1  tau(  33) = (   3.2783824   2.9878764  11.3535400  )
        34           O1  tau(  34) = (   0.0092240   2.9805883  10.6323155  )
        35           O1  tau(  35) = (   1.2857266   4.4729298  12.7006550  )
        36           O1  tau(  36) = (   5.2845514   4.4687958  12.6640455  )
        37           Ti1 tau(  37) = (   6.5734551   0.0101047  12.5124135  )
        38           Ti1 tau(  38) = (   3.2852174   4.4611384  12.5175569  )
        39           O1  tau(  39) = (   6.5279837   2.9480221  14.9030702  )
        40           O1  tau(  40) = (   3.2956390   2.9588503  13.9390168  )
        41           O1  tau(  41) = (   4.4992944   4.4159585  16.2207858  )
        42           O1  tau(  42) = (   2.0104883   4.4624356  16.0673450  )
        43           Ti1 tau(  43) = (   3.2790961   0.0058003  15.7788240  )
        44           Ti1 tau(  44) = (   0.0606790   4.6093333  15.7554573  )
        45           O1  tau(  45) = (   3.2900926   2.9813045   4.7018136  )
        46           O1  tau(  46) = (   1.3039711   4.4726057   6.0039043  )
        47           O1  tau(  47) = (   5.2763189   4.4711207   6.0039473  )
        48           N1  tau(  48) = (   0.0403274   2.7191540  18.0026804  )
        49           C1  tau(  49) = (   0.9398849   2.4944932  18.9664025  )
        50           H1  tau(  50) = (   0.9073005   3.0183022  19.9142263  )
        51           H1  tau(  51) = (   1.7098349   1.7704235  18.7615287  )
        52           N1  tau(  52) = (   5.5765855   3.6054979  18.4816711  )
        53           H1  tau(  53) = (   5.9881759   4.5320851  18.7147717  )
        54           H1  tau(  54) = (   4.9344470   3.8565857  17.6610935  )
        55           H1  tau(  55) = (   5.0674124   3.1947177  19.2767304  )

     number of k points=    10  Fermi-Dirac smearing, width (Ry)=  0.0073
                       cart. coord. in units 2pi/alat
        k(    1) = (   0.0000000   0.0000000   0.0000000), wk =   0.1250000
        k(    2) = (   0.0000000   0.0419351   0.0000000), wk =   0.2500000
        k(    3) = (   0.0000000  -0.0838702   0.0000000), wk =   0.1250000
        k(    4) = (   0.0379955   0.0000049   0.0000000), wk =   0.2500000
        k(    5) = (   0.0379955   0.0419400   0.0000000), wk =   0.2500000
        k(    6) = (   0.0379955  -0.0838652   0.0000000), wk =   0.2500000
        k(    7) = (   0.0379955  -0.0419301   0.0000000), wk =   0.2500000
        k(    8) = (  -0.0759910  -0.0000099   0.0000000), wk =   0.1250000
        k(    9) = (  -0.0759910   0.0419252   0.0000000), wk =   0.2500000
        k(   10) = (  -0.0759910  -0.0838800   0.0000000), wk =   0.1250000

     Initial potential from superposition of free atoms

     starting charge  380.99914, renormalised to  397.00000

     negative rho (up, down):  1.589E-02 0.000E+00

     %%%%%%%%%%%%%%%%%%%%%%%%%%%%%%%%%%%%%%%%%%%%%%%%%%%%%%%%%%%%%%%%%%%%%%%%
     %                                                                      %
     % You are using vdW-DF, which was implemented by the Thonhauser group. %
     % Please cite the following two papers that made this development      %
     % possible and the two reviews that describe the various versions:     %
     %                                                                      %
     %   T. Thonhauser et al., PRL 115, 136402 (2015).                      %
     %   T. Thonhauser et al., PRB 76, 125112 (2007).                       %
     %   K. Berland et al., Rep. Prog. Phys. 78, 066501 (2015).             %
     %   D.C. Langreth et al., J. Phys.: Condens. Matter 21, 084203 (2009). %
     %                                                                      %
     %                                                                      %
     % If you are calculating the stress with vdW-DF, please also cite:     %
     %                                                                      %
     %   R. Sabatini et al., J. Phys.: Condens. Matter 24, 424209 (2012).   %
     %                                                                      %
     %%%%%%%%%%%%%%%%%%%%%%%%%%%%%%%%%%%%%%%%%%%%%%%%%%%%%%%%%%%%%%%%%%%%%%%%

     Adding external electric field

     Computed dipole along edir(3) :
        Dipole              -10.3122 Ry au,        -26.2111 Debye
        Dipole field         -0.0195 Ry au,

        Potential amp.        1.8040 Ry
        Total length         46.3494 bohr

     Starting wfcs are  301 atomic wfcs
  @ DRIVER MODE: Message from server: STATUS
  @ DRIVER MODE: Message from server: POSDATA
  @ DRIVER MODE: Reading and sharing cell
  @ DRIVER MODE: Reading and sharing positions
  @ DRIVER MODE: Received positions

     Self-consistent Calculation

     iteration #  1     ecut=    29.40 Ry     beta= 0.05
     Davidson diagonalization with overlap
     c_bands:  3 eigenvalues not converged
     c_bands:  2 eigenvalues not converged
     c_bands:  3 eigenvalues not converged
     c_bands:  2 eigenvalues not converged
     c_bands:  3 eigenvalues not converged
     c_bands:  2 eigenvalues not converged
     c_bands:  3 eigenvalues not converged
     c_bands:  2 eigenvalues not converged
     c_bands:  2 eigenvalues not converged
     c_bands:  3 eigenvalues not converged
     ethr =  1.00E-05,  avg # of iterations = 20.0

[...]

     total energy              =   -2480.07042091 Ry
     estimated scf accuracy    <    5159.14718256 Ry

     iteration #  2     ecut=    29.40 Ry     beta= 0.05
     Davidson diagonalization with overlap
     ethr =  1.00E-02,  avg # of iterations = 22.6

[...]

     iteration # 72     ecut=    29.40 Ry     beta= 0.05
     Davidson diagonalization with overlap
     c_bands:  1 eigenvalues not converged
     ethr =  3.24E-11,  avg # of iterations = 11.7

[...]

     total energy              =   -2941.49087126 Ry
     estimated scf accuracy    <       0.00000009 Ry

     iteration # 73     ecut=    29.40 Ry     beta= 0.05
     Davidson diagonalization with overlap
     ethr =  2.18E-11,  avg # of iterations =  6.2

     negative rho (up, down):  1.345E-02 0.000E+00

     Adding external electric field

     Computed dipole along edir(3) :
        Dipole                1.3638 Ry au,          3.4665 Debye
        Dipole field          0.0026 Ry au,

        Potential amp.       -0.2386 Ry
        Total length         46.3494 bohr

     End of self-consistent calculation

          k = 0.0000 0.0000 0.0000 ( 18029 PWs)   bands (ev):

   -55.2842 -55.2453 -55.2452 -55.2111 -55.1598 -55.1578 -55.1212 -55.0944
   -55.0774 -55.0760 -55.0597 -55.0427 -54.9571 -54.7915 -54.2634 -54.2293
   -31.8564 -31.7359 -31.6462 -31.6112 -31.5843 -31.5819 -31.5792 -31.5350
   -31.5323 -31.4921 -31.4904 -31.4899 -31.4578 -31.4547 -31.4406 -31.4191
   -31.4039 -31.3990 -31.3946 -31.3935 -31.3574 -31.3522 -31.3386 -31.3251
   -31.3022 -31.2970 -31.2907 -31.2867 -31.2742 -31.2712 -31.2613 -31.2512
   -31.2445 -31.2396 -31.2095 -31.2050 -31.1983 -31.1858 -31.1487 -31.1059
   -31.0625 -30.9330 -30.6722 -30.5794 -30.5573 -30.4888 -30.4021 -30.2910
   -19.2172 -16.1263 -15.8646 -15.7366 -15.5445 -15.4782 -15.3828 -15.2452
   -15.1940 -15.1354 -15.0829 -15.0430 -15.0297 -14.9641 -14.9069 -14.8184
   -14.8168 -14.7995 -14.7898 -14.7782 -14.7745 -14.7123 -14.7097 -14.6823
   -14.6677 -14.6575 -14.5168 -14.4328 -14.3714 -14.2752 -14.0262 -12.7662
   -12.6489  -9.1428  -7.8051  -7.0344  -6.0007  -3.8228  -3.4637  -3.2908
    -3.2444  -3.2039  -3.1790  -3.0105  -2.9291  -2.6614  -2.5936  -2.5538
    -2.5064  -2.4951  -2.4696  -2.2974  -2.2669  -2.2276  -2.1909  -2.1667
    -2.1271  -2.0992  -2.0832  -2.0541  -2.0410  -2.0388  -1.8564  -1.7856
    -1.7631  -1.7021  -1.6853  -1.6690  -1.6116  -1.5824  -1.5695  -1.5671
    -1.5446  -1.5273  -1.5044  -1.4616  -1.3752  -1.2833  -1.2388  -1.2170
    -1.1041  -1.0402  -0.9157  -0.8745  -0.8593  -0.8318  -0.7601  -0.6939
    -0.6660  -0.6302  -0.4901  -0.4855  -0.4012  -0.3917  -0.3184  -0.3018
    -0.2615  -0.2158  -0.1049  -0.0709  -0.0493   0.0023   0.0654   0.0873
     0.1696   0.2236   0.2804   0.2944   0.3738   0.4139   0.4506   0.4733
     0.5601   0.6020   0.6615   0.6679   0.7049   0.7083   0.7335   0.8196
     0.8332   0.8529   0.8936   1.0630   1.2624   1.3154   1.3362   1.6690
     1.6883   1.7590   1.9444   2.3339   2.3815   3.8169   3.8824   3.9529
     3.9674   3.9774   4.0493   4.0945   4.2842   4.3134   4.3164   4.3378

[...]

          k = 0.0380-0.0419 0.0000 ( 17876 PWs)   bands (ev):

[...]

          k =-0.0760-0.0000 0.0000 ( 17886 PWs)   bands (ev):

[...]

          k =-0.0760-0.0839 0.0000 ( 17948 PWs)   bands (ev):

   -55.2721 -55.2571 -55.2282 -55.2280 -55.1561 -55.1460 -55.1331 -55.0810
   -55.0781 -55.0752 -55.0601 -55.0592 -54.9555 -54.7930 -54.2463 -54.2463
   -31.6659 -31.6530 -31.5792 -31.5511 -31.5510 -31.5476 -31.5204 -31.5203
   -31.4928 -31.4844 -31.4798 -31.4761 -31.4217 -31.4127 -31.4127 -31.4092
   -31.4072 -31.4029 -31.3964 -31.3813 -31.3692 -31.3584 -31.3542 -31.3476
   -31.3474 -31.3455 -31.3440 -31.3283 -31.3115 -31.3086 -31.2923 -31.2895
   -31.2849 -31.2830 -31.2828 -31.2521 -31.2404 -31.2388 -31.1660 -31.0928
   -31.0633 -31.0107 -30.5700 -30.5699 -30.4848 -30.4846 -30.4454 -30.4454
   -19.2134 -15.5917 -15.5153 -15.4594 -15.3713 -15.2908 -15.2710 -15.2613
   -15.2286 -15.1613 -15.1377 -15.0724 -15.0375 -14.9918 -14.9890 -14.9738
   -14.8892 -14.8700 -14.8549 -14.8506 -14.7896 -14.7882 -14.7612 -14.7388
   -14.7321 -14.7284 -14.6286 -14.6276 -14.4636 -14.4323 -14.1961 -12.7505
   -12.7505  -9.1298  -7.8150  -7.0186  -6.0111  -3.8461  -2.8525  -2.7659
    -2.6764  -2.5199  -2.4824  -2.4726  -2.4177  -2.3270  -2.3010  -2.2875
    -2.2673  -2.2599  -2.1870  -2.1819  -2.1378  -2.1162  -2.1054  -2.0995
    -2.0655  -2.0523  -2.0384  -2.0019  -1.9935  -1.9773  -1.9430  -1.9234
    -1.8990  -1.8710  -1.8569  -1.8278  -1.7044  -1.6755  -1.6313  -1.5696
    -1.5443  -1.4772  -1.4719  -1.3692  -1.3577  -1.3468  -1.3058  -1.2918
    -1.2721  -1.1092  -1.0644  -1.0292  -1.0173  -1.0116  -0.8555  -0.8390
    -0.7711  -0.7554  -0.7405  -0.6640  -0.6227  -0.6066  -0.5267  -0.4866
    -0.4570  -0.4360  -0.2936  -0.2813  -0.2559  -0.2410  -0.2345  -0.1420
    -0.1213  -0.0854  -0.0513  -0.0132   0.0032   0.0623   0.2150   0.2420
     0.2786   0.4229   0.4384   0.5229   0.5703   0.6982   0.7630   0.7653
     0.8465   0.9165   1.0184   1.0310   1.0496   1.1362   1.1824   1.1874
     1.1886   2.1171   2.1179   2.2015   2.2017   3.6940   3.9563   4.0785
     4.0850   4.1274   4.2502   4.3337   4.3573   4.3951   4.3973   4.4707

     the Fermi energy is     3.8719 ev

!    total energy              =   -2941.49088362 Ry
     estimated scf accuracy    <       0.00000005 Ry
     smearing contrib. (-TS)   =      -0.04234057 Ry
     internal energy E=F+TS    =   -2941.44854305 Ry

     The total energy is F=E-TS. E is the sum of the following terms:
     one-electron contribution =  -23921.98016512 Ry
     hartree contribution      =   12054.16956449 Ry
     xc contribution           =    -486.85887292 Ry
     ewald contribution        =    9413.21742035 Ry
     electric field correction =       0.00351015 Ry

     convergence has been achieved in  73 iterations

     Forces acting on atoms (cartesian axes, Ry/au):

     atom    1 type  1   force =     0.00016669   -0.00017070    0.09402813
     atom    2 type  1   force =    -0.00005234   -0.00043245   -0.17754970
     atom    3 type  2   force =     0.00006705   -0.00004314   -0.02099426
     atom    4 type  2   force =     0.00001732   -0.00180463    0.05732952
     atom    5 type  2   force =    -0.01085973   -0.00090905    0.00783190
     atom    6 type  2   force =     0.01207191   -0.00033937    0.00622782
     atom    7 type  1   force =    -0.00065625    0.00290440   -0.01529159
     atom    8 type  1   force =     0.00059410    0.00235924    0.00235661
     atom    9 type  2   force =    -0.00010376    0.00013467    0.00092806
     atom   10 type  2   force =    -0.00165481   -0.00049173   -0.00379497
     atom   11 type  2   force =    -0.00004472   -0.00023863    0.00020695
     atom   12 type  2   force =    -0.00019317   -0.00039920    0.00027283
     atom   13 type  1   force =     0.00042726    0.00108781    0.00059302
     atom   14 type  1   force =     0.00020780   -0.00062229    0.00034117
     atom   15 type  2   force =    -0.00017711    0.00032718    0.00051001
     atom   16 type  2   force =    -0.00015927   -0.00026993   -0.00115162
     atom   17 type  2   force =     0.00007197   -0.00033987    0.00009266
     atom   18 type  2   force =    -0.00077070   -0.00032298    0.00007270
     atom   19 type  1   force =    -0.00057602    0.00083797   -0.00035922
     atom   20 type  1   force =    -0.00044195    0.00139277   -0.00110075
     atom   21 type  2   force =     0.00010791   -0.00004023    0.10377286
     atom   22 type  2   force =     0.00003668    0.00015178    0.00054309
     atom   23 type  2   force =    -0.07063404   -0.00018203   -0.02705896
     atom   24 type  2   force =     0.07057870    0.00029373   -0.02709692
     atom   25 type  1   force =     0.00015026   -0.00024543    0.09335394
     atom   26 type  1   force =    -0.00000977   -0.00037403   -0.17776545
     atom   27 type  2   force =     0.00011070   -0.00040199   -0.02001652
     atom   28 type  2   force =     0.00003402   -0.00146558    0.05681296
     atom   29 type  2   force =    -0.01076185   -0.00066281    0.00674901
     atom   30 type  2   force =     0.01188004   -0.00016972    0.00510449
     atom   31 type  1   force =    -0.00063102    0.00410408   -0.01560045
     atom   32 type  1   force =     0.00067288   -0.00280905    0.00213615
     atom   33 type  2   force =     0.00015763   -0.00022045   -0.00058278
     atom   34 type  2   force =    -0.00109221    0.00272043   -0.00200710
     atom   35 type  2   force =     0.00009187    0.00020187    0.00009517
     atom   36 type  2   force =    -0.00033388    0.00034016   -0.00007046
     atom   37 type  1   force =     0.00046663   -0.00008589    0.00029317
     atom   38 type  1   force =     0.00008973    0.00089787    0.00012622
     atom   39 type  2   force =    -0.00004978   -0.00093515    0.00041835
     atom   40 type  2   force =    -0.00022750   -0.00041385    0.00066585
     atom   41 type  2   force =    -0.00004576    0.00014249    0.00031612
     atom   42 type  2   force =     0.00015935    0.00000525    0.00024906
     atom   43 type  1   force =    -0.00012253   -0.00119074    0.00080271
     atom   44 type  1   force =     0.00009156   -0.00089132   -0.00145995
     atom   45 type  2   force =     0.00009588   -0.00008108    0.10375416
     atom   46 type  2   force =    -0.07064903   -0.00009328   -0.02706792
     atom   47 type  2   force =     0.07060102    0.00029118   -0.02710475
     atom   48 type  3   force =    -0.00120878   -0.00018064   -0.00039643
     atom   49 type  4   force =     0.00011699   -0.00054141    0.00122158
     atom   50 type  5   force =     0.00081955    0.00006874   -0.00103775
     atom   51 type  5   force =    -0.00021637    0.00057215   -0.00018008
     atom   52 type  3   force =    -0.00081919    0.00270426   -0.00030285
     atom   53 type  5   force =     0.00106582   -0.00178794    0.00022676
     atom   54 type  5   force =     0.00109057   -0.00276198    0.00123168
     atom   55 type  5   force =     0.00044967    0.00038051   -0.00067416

     Total force =     0.365728     Total SCF correction =     0.000418
  @ DRIVER MODE: Message from server: STATUS
  @ DRIVER MODE: Message from server: GETFORCE
  @ DRIVER MODE: Returning v,forces,stress,ensemble

     Writing output data file ./calc.save/
  @ DRIVER MODE: Message from server: EXIT
  @ DRIVE MODE: Exiting

     General routines

     Parallel routines

   This run was terminated on:  10:42:31  24Aug2021

   JOB DONE.