     Program PWSCF v.6.7GPU starts on  9Sep2021 at 12:15:10

     R & G space division:  proc/nbgrp/npool/nimage =      10
     Reading input from /storage/home/hcoda1/3/ntian30/research/carbon/CxH_vib/CH3_calc/ads_slab/CH3NNHHH_a/out_0043/pw.inp
Warning: card &CELL ignored
Warning: card   CELL_DYNAMICS='IPI', ignored
Warning: card / ignored

     Current dimensions of program PWSCF are:
     Max number of different atomic species (ntypx) = 10
     Max number of k-points (npk) =  40000
     Max angular momentum in pseudopotentials (lmaxx) =  3
     Presently no symmetry can be used with electric field

     Message from routine cell_base_init:
     DEPRECATED: use true lattice parameter, not A to a.u. conversion factor

     IMPORTANT: XC functional enforced from input :
     Exchange-correlation= BEEF-VDW
                           (   1   4  43  14   2   0   0)
     Any further DFT definition will be discarded
     Please, verify this is what you really want

  @ DRIVER MODE: Connecting to
 qe_1139763_2767399.sched-torque.pace.gatech.edu45onie18_scratch
  using UNIX socket
  @ DRIVER MODE: Message from server: STATUS
  @ DRIVER MODE: Message from server: INIT
  @ DRIVER MODE: Receiving replica           0          -1
  @ DRIVER MODE: Receiving encoded integer          25
  @ DRIVER MODE:  SCF:  T  FORCE:  T  STRESS:  F  VC:  F  ENSEMBLE:  F
  @ DRIVER MODE:  SCF:  T  FORCE:  T  STRESS:  F  VC:  F  ENSEMBLE:  F

     Using Slab Decomposition

     bravais-lattice index     =            0
     lattice parameter (alat)  =       1.8897  a.u.
     unit-cell volume          =    6658.9804 (a.u.)^3
     number of atoms/cell      =           56
     number of atomic types    =            5
     number of electrons       =       398.00
     number of Kohn-Sham states=          209
     kinetic-energy cutoff     =      29.3995  Ry
     charge density cutoff     =     293.9946  Ry
     scf convergence threshold =      7.3E-08
     mixing beta               =       0.0500
     number of iterations used =            8  plain     mixing
     Exchange-correlation= BEEF-VDW
                           (   1   4  43  14   2   0   0)

     celldm(1)=   1.889726  celldm(2)=   0.000000  celldm(3)=   0.000000
     celldm(4)=   0.000000  celldm(5)=   0.000000  celldm(6)=   0.000000

     crystal axes: (cart. coord. in units of alat)
               a(1) = (   6.579727   0.000000   0.000000 )
               a(2) = (  -0.000775   5.961596   0.000000 )
               a(3) = (   0.000000   0.000000  25.155947 )

     reciprocal axes: (cart. coord. in units 2 pi/alat)
               b(1) = (  0.151982  0.000020  0.000000 )
               b(2) = (  0.000000  0.167740  0.000000 )
               b(3) = (  0.000000  0.000000  0.039752 )

     PseudoPot. # 1 for Ti read from file:
     /storage/coda1/p-amedford6/0/shared/rich_project_chbe-medford/medford-share/data/pseudos_module/espresso/nninc/pbe/van/Ti.UPF
     MD5 check sum: 8e4df49b7f0d34bbd5052bf3f5ea0213
     Pseudo is Ultrasoft, Zval = 12.0
     Generated by new atomic code, or converted to UPF format
     Using radial grid of  851 points,  6 beta functions with:
                l(1) =   0
                l(2) =   0
                l(3) =   1
                l(4) =   1
                l(5) =   2
                l(6) =   2
     Q(r) pseudized with  8 coefficients,  rinner =    1.000   1.000   1.000
                                                       1.000   1.000

     PseudoPot. # 2 for O  read from file:
     /storage/coda1/p-amedford6/0/shared/rich_project_chbe-medford/medford-share/data/pseudos_module/espresso/nninc/pbe/van/O.UPF
     MD5 check sum: 78c19812648e8988a0fe644b0f25305e
     Pseudo is Ultrasoft, Zval =  6.0
     Generated by new atomic code, or converted to UPF format
     Using radial grid of  737 points,  4 beta functions with:
                l(1) =   0
                l(2) =   0
                l(3) =   1
                l(4) =   1
     Q(r) pseudized with  8 coefficients,  rinner =    0.800   0.800   0.800

     PseudoPot. # 3 for N  read from file:
     /storage/coda1/p-amedford6/0/shared/rich_project_chbe-medford/medford-share/data/pseudos_module/espresso/nninc/pbe/van/N.UPF
     MD5 check sum: 90d10febe142ad51ac9d5be1deb811c4
     Pseudo is Ultrasoft, Zval =  5.0
     Generated by new atomic code, or converted to UPF format
     Using radial grid of  729 points,  4 beta functions with:
                l(1) =   0
                l(2) =   0
                l(3) =   1
                l(4) =   1
     Q(r) pseudized with  8 coefficients,  rinner =    0.800   0.800   0.800

     PseudoPot. # 4 for C  read from file:
     /storage/coda1/p-amedford6/0/shared/rich_project_chbe-medford/medford-share/data/pseudos_module/espresso/nninc/pbe/van/C.UPF
     MD5 check sum: 1a69bf6b8db32088f5b2163dbdb77a27
     Pseudo is Ultrasoft, Zval =  4.0
     Generated by new atomic code, or converted to UPF format
     Using radial grid of  721 points,  4 beta functions with:
                l(1) =   0
                l(2) =   0
                l(3) =   1
                l(4) =   1
     Q(r) pseudized with  8 coefficients,  rinner =    0.800   0.800   0.800

     PseudoPot. # 5 for H  read from file:
     /storage/coda1/p-amedford6/0/shared/rich_project_chbe-medford/medford-share/data/pseudos_module/espresso/nninc/pbe/van/H.UPF
     MD5 check sum: b5ee9d7bfd3a09ee7748110bda690ff7
     Pseudo is Ultrasoft, Zval =  1.0
     Generated by new atomic code, or converted to UPF format
     Using radial grid of  615 points,  1 beta functions with:
                l(1) =   0
     Q(r) pseudized with  8 coefficients,  rinner =    0.800

     atomic species   valence    mass     pseudopotential
        Ti1           12.00    47.86700     Ti( 1.00)
        O1             6.00    15.99900     O ( 1.00)
        N1             5.00    14.00700     N ( 1.00)
        C1             4.00    12.01100     C ( 1.00)
        H1             1.00     1.00800     H ( 1.00)

     No symmetry found

   Cartesian axes

     site n.     atom                  positions (alat units)
         1           Ti1 tau(   1) = (   0.0004258   2.9801865   6.0000000  )
         2           Ti1 tau(   2) = (   3.2906075   1.4906267   6.0002472  )
         3           O1  tau(   3) = (   0.0006271   0.0005054   7.9858123  )
         4           O1  tau(   4) = (   3.2906025   0.0005020   7.3038282  )
         5           O1  tau(   5) = (   4.5942328   1.4918067   9.2879030  )
         6           O1  tau(   6) = (   1.9868534   1.4903216   9.2879459  )
         7           Ti1 tau(   7) = (   3.2907910   2.8959150   9.1758416  )
         8           Ti1 tau(   8) = (   0.0015273   1.4827037   9.2680791  )
         9           O1  tau(   9) = (   3.3120675   0.0079458  11.3762204  )
        10           O1  tau(  10) = (   0.0116148   5.9584955  10.6183126  )
        11           O1  tau(  11) = (   1.3148726   1.5133626  12.6447579  )
        12           O1  tau(  12) = (   5.3140862   1.5122126  12.6508301  )
        13           Ti1 tau(  13) = (   0.0289753   2.9995974  12.5105963  )
        14           Ti1 tau(  14) = (   3.3300932   1.5144954  12.5190352  )
        15           O1  tau(  15) = (   0.0303621   0.0967028  14.6836000  )
        16           O1  tau(  16) = (   3.3188409   0.0235386  14.0025835  )
        17           O1  tau(  17) = (   4.5661268   1.5053193  16.2317874  )
        18           O1  tau(  18) = (   2.0488868   1.5039614  16.2002260  )
        19           Ti1 tau(  19) = (   3.3211226   2.9745325  15.7560014  )
        20           Ti1 tau(  20) = (   0.0641794   1.4487855  16.0607878  )
        21           O1  tau(  21) = (   3.2904802   0.0005063   4.7018136  )
        22           O1  tau(  22) = (   0.0207051   5.8381987  17.2232637  )
        23           O1  tau(  23) = (   1.3043587   1.4918075   6.0039043  )
        24           O1  tau(  24) = (   5.2767064   1.4903225   6.0039473  )
        25           Ti1 tau(  25) = (   0.0000382   5.9609847   6.0000000  )
        26           Ti1 tau(  26) = (   3.2902200   4.4714249   6.0002472  )
        27           O1  tau(  27) = (   0.0002396   2.9813036   7.9858123  )
        28           O1  tau(  28) = (   3.2902150   2.9813002   7.3038282  )
        29           O1  tau(  29) = (   4.5938453   4.4726049   9.2879030  )
        30           O1  tau(  30) = (   1.9864658   4.4711199   9.2879459  )
        31           Ti1 tau(  31) = (   3.2891106   5.8743827   9.1763621  )
        32           Ti1 tau(  32) = (   0.0006254   4.4649316   9.2693709  )
        33           O1  tau(  33) = (   3.3137607   3.0039157  11.3695003  )
        34           O1  tau(  34) = (   0.0092240   2.9805883  10.6323155  )
        35           O1  tau(  35) = (   1.3103219   4.4840529  12.6837359  )
        36           O1  tau(  36) = (   5.3166572   4.4842854  12.6901167  )
        37           Ti1 tau(  37) = (   0.0376818   0.0300362  12.4998423  )
        38           Ti1 tau(  38) = (   3.3279277   4.4933691  12.5326681  )
        39           O1  tau(  39) = (   0.0236785   2.9473731  14.9547601  )
        40           O1  tau(  40) = (   3.3158584   2.9778716  13.9675922  )
        41           O1  tau(  41) = (   4.5769684   4.4551829  16.1482216  )
        42           O1  tau(  42) = (   2.0574928   4.4544973  16.1629196  )
        43           Ti1 tau(  43) = (   3.3270828   0.0048838  15.7999907  )
        44           Ti1 tau(  44) = (   0.0216784   4.6657176  15.8371636  )
        45           O1  tau(  45) = (   3.2900926   2.9813045   4.7018136  )
        46           O1  tau(  46) = (   1.3039711   4.4726057   6.0039043  )
        47           O1  tau(  47) = (   5.2763189   4.4711207   6.0039473  )
        48           N1  tau(  48) = (   1.0300599   3.1028741  18.8625222  )
        49           N1  tau(  49) = (   6.4529598   2.6395754  18.1308714  )
        50           C1  tau(  50) = (   0.6566364   3.8075245  20.0867497  )
        51           H1  tau(  51) = (   6.5334193   4.6337433  19.9095685  )
        52           H1  tau(  52) = (   0.2127083   3.1054723  20.7945791  )
        53           H1  tau(  53) = (   1.5644534   4.2160081  20.5287796  )
        54           H1  tau(  54) = (   5.6912064   3.3271340  18.1715891  )
        55           H1  tau(  55) = (   6.1053184   1.7991689  18.5966666  )
        56           H1  tau(  56) = (   1.4989484   3.7555826  18.2384742  )

     number of k points=    10  Fermi-Dirac smearing, width (Ry)=  0.0073
                       cart. coord. in units 2pi/alat
        k(    1) = (   0.0000000   0.0000000   0.0000000), wk =   0.1250000
        k(    2) = (   0.0000000   0.0419351   0.0000000), wk =   0.2500000
        k(    3) = (   0.0000000  -0.0838702   0.0000000), wk =   0.1250000
        k(    4) = (   0.0379955   0.0000049   0.0000000), wk =   0.2500000
        k(    5) = (   0.0379955   0.0419400   0.0000000), wk =   0.2500000
        k(    6) = (   0.0379955  -0.0838652   0.0000000), wk =   0.2500000
        k(    7) = (   0.0379955  -0.0419301   0.0000000), wk =   0.2500000
        k(    8) = (  -0.0759910  -0.0000099   0.0000000), wk =   0.1250000
        k(    9) = (  -0.0759910   0.0419252   0.0000000), wk =   0.2500000
        k(   10) = (  -0.0759910  -0.0838800   0.0000000), wk =   0.1250000

     Initial potential from superposition of free atoms

     starting charge  381.99914, renormalised to  398.00000

     negative rho (up, down):  1.340E-02 0.000E+00

     %%%%%%%%%%%%%%%%%%%%%%%%%%%%%%%%%%%%%%%%%%%%%%%%%%%%%%%%%%%%%%%%%%%%%%%%
     %                                                                      %
     % You are using vdW-DF, which was implemented by the Thonhauser group. %
     % Please cite the following two papers that made this development      %
     % possible and the two reviews that describe the various versions:     %
     %                                                                      %
     %   T. Thonhauser et al., PRL 115, 136402 (2015).                      %
     %   T. Thonhauser et al., PRB 76, 125112 (2007).                       %
     %   K. Berland et al., Rep. Prog. Phys. 78, 066501 (2015).             %
     %   D.C. Langreth et al., J. Phys.: Condens. Matter 21, 084203 (2009). %
     %                                                                      %
     %                                                                      %
     % If you are calculating the stress with vdW-DF, please also cite:     %
     %                                                                      %
     %   R. Sabatini et al., J. Phys.: Condens. Matter 24, 424209 (2012).   %
     %                                                                      %
     %%%%%%%%%%%%%%%%%%%%%%%%%%%%%%%%%%%%%%%%%%%%%%%%%%%%%%%%%%%%%%%%%%%%%%%%

     Adding external electric field

     Computed dipole along edir(3) :
        Dipole              -11.7464 Ry au,        -29.8564 Debye
        Dipole field         -0.0222 Ry au,

        Potential amp.        2.0549 Ry
        Total length         46.3494 bohr

     Starting wfcs are  302 atomic wfcs
  @ DRIVER MODE: Message from server: STATUS
  @ DRIVER MODE: Message from server: POSDATA
  @ DRIVER MODE: Reading and sharing cell
  @ DRIVER MODE: Reading and sharing positions
  @ DRIVER MODE: Received positions

     Self-consistent Calculation

     iteration #  1     ecut=    29.40 Ry     beta= 0.05
     Davidson diagonalization with overlap
     c_bands:  1 eigenvalues not converged
     c_bands:  1 eigenvalues not converged
     c_bands:  1 eigenvalues not converged
     c_bands:  3 eigenvalues not converged
     c_bands:  3 eigenvalues not converged
     c_bands:  3 eigenvalues not converged
     c_bands:  4 eigenvalues not converged
     c_bands:  2 eigenvalues not converged
     ethr =  1.00E-05,  avg # of iterations = 21.6

[...]

     total energy              =   -2428.09609034 Ry
     estimated scf accuracy    <    5789.75294233 Ry

     iteration #  2     ecut=    29.40 Ry     beta= 0.05
     Davidson diagonalization with overlap
     ethr =  1.00E-02,  avg # of iterations = 22.1

[...]

     iteration # 75     ecut=    29.40 Ry     beta= 0.05
     Davidson diagonalization with overlap
     c_bands:  1 eigenvalues not converged
     ethr =  5.72E-11,  avg # of iterations = 13.4

[...]

     total energy              =   -2942.85972856 Ry
     estimated scf accuracy    <       0.00000009 Ry

     iteration # 77     ecut=    29.40 Ry     beta= 0.05
     Davidson diagonalization with overlap
     ethr =  2.20E-11,  avg # of iterations = 10.6

     negative rho (up, down):  1.464E-02 0.000E+00

     Adding external electric field

     Computed dipole along edir(3) :
        Dipole                1.2223 Ry au,          3.1068 Debye
        Dipole field          0.0023 Ry au,

        Potential amp.       -0.2138 Ry
        Total length         46.3494 bohr

     End of self-consistent calculation

          k = 0.0000 0.0000 0.0000 ( 18029 PWs)   bands (ev):

   -55.3482 -55.3113 -55.3003 -55.2692 -55.2661 -55.2322 -55.2251 -55.1898
   -55.1687 -55.1449 -55.1342 -55.1321 -55.0985 -55.0258 -54.3300 -54.2959
   -31.9167 -31.8008 -31.7927 -31.7137 -31.6640 -31.6580 -31.6513 -31.6378
   -31.5896 -31.5890 -31.5578 -31.5526 -31.5454 -31.5292 -31.5181 -31.5106
   -31.5035 -31.4883 -31.4856 -31.4658 -31.4528 -31.4451 -31.4182 -31.4140
   -31.4031 -31.4004 -31.3995 -31.3713 -31.3574 -31.3556 -31.3505 -31.3310
   -31.3280 -31.3198 -31.3185 -31.3165 -31.2824 -31.2683 -31.2605 -31.2434
   -31.2322 -31.2077 -30.7394 -30.6451 -30.6230 -30.5557 -30.4689 -30.3580
   -17.7927 -16.1845 -15.9168 -15.7768 -15.6670 -15.5479 -15.4295 -15.4100
   -15.2779 -15.1951 -15.0750 -15.0519 -15.0257 -15.0067 -14.9941 -14.9793
   -14.8935 -14.8876 -14.8703 -14.8428 -14.8366 -14.7939 -14.7865 -14.7467
   -14.7256 -14.7238 -14.5955 -14.5078 -14.4358 -14.1991 -13.1753 -12.8325
   -12.7150  -9.7343  -6.3477  -5.3926  -4.8878  -3.5366  -3.4947  -3.3683
    -3.2783  -3.2632  -3.2410  -3.1050  -2.9517  -2.7816  -2.7697  -2.7563
    -2.6383  -2.5605  -2.5543  -2.5295  -2.3779  -2.3566  -2.3054  -2.2400
    -2.2124  -2.1645  -2.1534  -2.1320  -2.1128  -2.0930  -2.0846  -1.9704
    -1.9198  -1.8272  -1.7712  -1.7440  -1.7083  -1.6805  -1.6652  -1.6379
    -1.6297  -1.5874  -1.5606  -1.5386  -1.4874  -1.3754  -1.2665  -1.2363
    -1.1388  -0.9865  -0.9548  -0.9408  -0.9295  -0.8527  -0.8356  -0.7876
    -0.7348  -0.7265  -0.6957  -0.5850  -0.5265  -0.4615  -0.3949  -0.3830
    -0.3364  -0.2747  -0.1622  -0.1381  -0.1155  -0.0902   0.0032   0.0427
     0.0877   0.1625   0.1817   0.1954   0.3022   0.3100   0.3899   0.4020
     0.4480   0.5342   0.5685   0.5908   0.5947   0.6082   0.6383   0.7053
     0.7295   0.7558   0.8309   0.9547   1.0251   1.1869   1.2499   1.2636
     1.5932   1.5976   1.6928   1.8766   2.2690   2.3172   3.7492   3.8186
     3.8936   3.9002   3.9121   3.9860   4.2231   4.2393   4.2518   4.2580
     4.2927

[...]

          k = 0.0380-0.0419 0.0000 ( 17876 PWs)   bands (ev):

[...]

          k =-0.0760-0.0000 0.0000 ( 17886 PWs)   bands (ev):

[...]

          k =-0.0760-0.0839 0.0000 ( 17948 PWs)   bands (ev):

   -55.3340 -55.3253 -55.2834 -55.2829 -55.2677 -55.2288 -55.2115 -55.2034
   -55.1531 -55.1493 -55.1483 -55.1156 -55.1153 -55.0271 -54.3129 -54.3129
   -31.7239 -31.7209 -31.7174 -31.6338 -31.6080 -31.6075 -31.6054 -31.5749
   -31.5746 -31.5567 -31.5493 -31.5468 -31.5409 -31.5107 -31.5040 -31.4860
   -31.4856 -31.4817 -31.4783 -31.4730 -31.4700 -31.4692 -31.4319 -31.4271
   -31.4249 -31.4201 -31.4161 -31.4048 -31.4030 -31.4026 -31.3962 -31.3866
   -31.3823 -31.3662 -31.3627 -31.3465 -31.3461 -31.3367 -31.2965 -31.2962
   -31.2855 -31.2369 -30.6357 -30.6356 -30.5519 -30.5518 -30.5124 -30.5123
   -17.7880 -15.7077 -15.5959 -15.5497 -15.3765 -15.3542 -15.3317 -15.3169
   -15.1888 -15.1704 -15.1425 -15.1161 -15.0911 -15.0636 -15.0522 -15.0474
   -14.9649 -14.9530 -14.9455 -14.9294 -14.8614 -14.8585 -14.8543 -14.8484
   -14.7975 -14.7950 -14.7143 -14.7011 -14.6996 -14.5012 -13.1763 -12.8165
   -12.8165  -9.7308  -6.3354  -5.3924  -4.8933  -3.4673  -2.8645  -2.8290
    -2.8055  -2.7867  -2.5921  -2.5539  -2.5170  -2.5046  -2.4054  -2.3633
    -2.3456  -2.3384  -2.2679  -2.2644  -2.2337  -2.2036  -2.1826  -2.1655
    -2.1517  -2.1298  -2.1050  -2.0757  -2.0697  -2.0546  -2.0004  -1.9978
    -1.9821  -1.9600  -1.9427  -1.9217  -1.9048  -1.8482  -1.7260  -1.7158
    -1.6618  -1.5553  -1.5508  -1.4706  -1.4654  -1.4215  -1.3936  -1.3813
    -1.3542  -1.1742  -1.1206  -1.0942  -1.0867  -1.0749  -0.9662  -0.9323
    -0.8742  -0.8586  -0.8324  -0.7347  -0.6840  -0.6797  -0.5984  -0.5666
    -0.5276  -0.4861  -0.3848  -0.3551  -0.3354  -0.3060  -0.3026  -0.2492
    -0.2438  -0.1671  -0.1192  -0.0832  -0.0688  -0.0377   0.1616   0.1713
     0.1896   0.3366   0.3595   0.4994   0.5434   0.5854   0.6461   0.6977
     0.7639   0.8046   0.9315   0.9592   0.9600   1.0301   1.0506   1.0556
     1.1083   1.1102   2.0493   2.0499   2.1371   2.1374   3.8921   3.9966
     4.0115   4.0569   4.1667   4.2408   4.2638   4.2906   4.3335   4.3363
     4.4061

     the Fermi energy is     3.8119 ev

!    total energy              =   -2942.85974188 Ry
     estimated scf accuracy    <       0.00000005 Ry
     smearing contrib. (-TS)   =      -0.03701329 Ry
     internal energy E=F+TS    =   -2942.82272859 Ry

     The total energy is F=E-TS. E is the sum of the following terms:
     one-electron contribution =  -23389.42795526 Ry
     hartree contribution      =   11787.25953289 Ry
     xc contribution           =    -487.75333995 Ry
     ewald contribution        =    9147.09621436 Ry
     electric field correction =       0.00281937 Ry

     convergence has been achieved in  77 iterations

     Forces acting on atoms (cartesian axes, Ry/au):

     atom    1 type  1   force =     0.00000153   -0.00025587    0.09308504
     atom    2 type  1   force =    -0.00014884   -0.00043092   -0.17828843
     atom    3 type  2   force =     0.00007358   -0.00008843   -0.02024009
     atom    4 type  2   force =     0.00001648   -0.00186772    0.05882389
     atom    5 type  2   force =    -0.01019342   -0.00054748    0.00773867
     atom    6 type  2   force =     0.01224561    0.00007016    0.00819893
     atom    7 type  1   force =     0.00038711    0.00328518   -0.01428106
     atom    8 type  1   force =    -0.00045598    0.00046367   -0.00456654
     atom    9 type  2   force =    -0.00002633   -0.00061634   -0.00035331
     atom   10 type  2   force =    -0.00059651    0.00091231   -0.00141479
     atom   11 type  2   force =    -0.00038134   -0.00011564    0.00024005
     atom   12 type  2   force =     0.00007018   -0.00006123    0.00004784
     atom   13 type  1   force =     0.00005029   -0.00031712    0.00019073
     atom   14 type  1   force =    -0.00036354    0.00013080    0.00041726
     atom   15 type  2   force =    -0.00015972    0.00080228    0.00023732
     atom   16 type  2   force =    -0.00008660   -0.00018663    0.00032674
     atom   17 type  2   force =    -0.00045557    0.00005470    0.00046649
     atom   18 type  2   force =     0.00015789   -0.00020085   -0.00008686
     atom   19 type  1   force =     0.00033609    0.00029841    0.00086442
     atom   20 type  1   force =    -0.00058588   -0.00071894    0.00043989
     atom   21 type  2   force =     0.00000191   -0.00010308    0.10396916
     atom   22 type  2   force =    -0.00020264   -0.00002752   -0.00071639
     atom   23 type  2   force =    -0.07034068   -0.00022021   -0.02687736
     atom   24 type  2   force =     0.07023703    0.00020612   -0.02695728
     atom   25 type  1   force =     0.00002019   -0.00027111    0.09274485
     atom   26 type  1   force =    -0.00011837   -0.00044898   -0.17832487
     atom   27 type  2   force =     0.00013811   -0.00033098   -0.01926935
     atom   28 type  2   force =     0.00008217   -0.00155260    0.05821842
     atom   29 type  2   force =    -0.01020753   -0.00032743    0.00695740
     atom   30 type  2   force =     0.01215677   -0.00008471    0.00749206
     atom   31 type  1   force =     0.00040080    0.00495274   -0.01541950
     atom   32 type  1   force =    -0.00037667   -0.00033837   -0.00466656
     atom   33 type  2   force =    -0.00021817   -0.00047804    0.00017833
     atom   34 type  2   force =    -0.00014196    0.00364024   -0.00059508
     atom   35 type  2   force =     0.00002670   -0.00056593    0.00032649
     atom   36 type  2   force =    -0.00018432   -0.00053378   -0.00002347
     atom   37 type  1   force =    -0.00025915   -0.00049901    0.00050246
     atom   38 type  1   force =    -0.00019236   -0.00090071    0.00045298
     atom   39 type  2   force =    -0.00047826   -0.00053610    0.00052427
     atom   40 type  2   force =     0.00001468   -0.00048716   -0.00041385
     atom   41 type  2   force =    -0.00083000   -0.00010339   -0.00013644
     atom   42 type  2   force =     0.00031185   -0.00026173   -0.00028625
     atom   43 type  1   force =     0.00003961   -0.00033509   -0.00009437
     atom   44 type  1   force =    -0.00010497   -0.00062809    0.00074986
     atom   45 type  2   force =     0.00000926   -0.00014492    0.10394274
     atom   46 type  2   force =    -0.07039027   -0.00018912   -0.02688875
     atom   47 type  2   force =     0.07025343    0.00025306   -0.02696059
     atom   48 type  3   force =    -0.00011349    0.00059838    0.00013659
     atom   49 type  3   force =    -0.00297958   -0.00242082    0.00138770
     atom   50 type  4   force =    -0.00182519   -0.00000606    0.00001702
     atom   51 type  5   force =    -0.00055083    0.00007031    0.00007553
     atom   52 type  5   force =     0.00029309   -0.00013520    0.00033030
     atom   53 type  5   force =     0.00103775    0.00025206    0.00093069
     atom   54 type  5   force =     0.00037748    0.00043809   -0.00090260
     atom   55 type  5   force =     0.00429611    0.00191986   -0.00191453
     atom   56 type  5   force =    -0.00006754   -0.00101105   -0.00033583

     Total force =     0.366213     Total SCF correction =     0.000516
  @ DRIVER MODE: Message from server: STATUS
  @ DRIVER MODE: Message from server: GETFORCE
  @ DRIVER MODE: Returning v,forces,stress,ensemble

     Writing output data file ./calc.save/
  @ DRIVER MODE: Message from server: EXIT
  @ DRIVE MODE: Exiting

     General routines

     Parallel routines

   This run was terminated on:  12:36:34   9Sep2021

   JOB DONE.