     Program PWSCF v.6.7GPU starts on 15Sep2021 at 19:50:53

     R & G space division:  proc/nbgrp/npool/nimage =      10
     Reading input from /storage/home/hcoda1/3/ntian30/research/carbon/CxH_vib/H2O_calc/ads_slab/CH2H2O_a/out_0014/pw.inp
Warning: card &CELL ignored
Warning: card   CELL_DYNAMICS='IPI', ignored
Warning: card / ignored

     Current dimensions of program PWSCF are:
     Max number of different atomic species (ntypx) = 10
     Max number of k-points (npk) =  40000
     Max angular momentum in pseudopotentials (lmaxx) =  3
     Presently no symmetry can be used with electric field

     Message from routine cell_base_init:
     DEPRECATED: use true lattice parameter, not A to a.u. conversion factor

     IMPORTANT: XC functional enforced from input :
     Exchange-correlation= BEEF-VDW
                           (   1   4  43  14   2   0   0)
     Any further DFT definition will be discarded
     Please, verify this is what you really want

  @ DRIVER MODE: Connecting to
 qe_1139763_2852604.sched-torque.pace.gatech.edubfrvllwm_scratch
  using UNIX socket
  @ DRIVER MODE: Message from server: STATUS
  @ DRIVER MODE: Message from server: INIT
  @ DRIVER MODE: Receiving replica           0          -1
  @ DRIVER MODE: Receiving encoded integer          25
  @ DRIVER MODE:  SCF:  T  FORCE:  T  STRESS:  F  VC:  F  ENSEMBLE:  F
  @ DRIVER MODE:  SCF:  T  FORCE:  T  STRESS:  F  VC:  F  ENSEMBLE:  F

     Using Slab Decomposition

     bravais-lattice index     =            0
     lattice parameter (alat)  =       1.8897  a.u.
     unit-cell volume          =    6658.9804 (a.u.)^3
     number of atoms/cell      =           53
     number of atomic types    =            4
     number of electrons       =       392.00
     number of Kohn-Sham states=          206
     kinetic-energy cutoff     =      29.3995  Ry
     charge density cutoff     =     293.9946  Ry
     scf convergence threshold =      7.3E-08
     mixing beta               =       0.0500
     number of iterations used =            8  plain     mixing
     Exchange-correlation= BEEF-VDW
                           (   1   4  43  14   2   0   0)

     celldm(1)=   1.889726  celldm(2)=   0.000000  celldm(3)=   0.000000
     celldm(4)=   0.000000  celldm(5)=   0.000000  celldm(6)=   0.000000

     crystal axes: (cart. coord. in units of alat)
               a(1) = (   6.579727   0.000000   0.000000 )
               a(2) = (  -0.000775   5.961596   0.000000 )
               a(3) = (   0.000000   0.000000  25.155947 )

     reciprocal axes: (cart. coord. in units 2 pi/alat)
               b(1) = (  0.151982  0.000020  0.000000 )
               b(2) = (  0.000000  0.167740  0.000000 )
               b(3) = (  0.000000  0.000000  0.039752 )

     PseudoPot. # 1 for Ti read from file:
     /storage/coda1/p-amedford6/0/shared/rich_project_chbe-medford/medford-share/data/pseudos_module/espresso/nninc/pbe/van/Ti.UPF
     MD5 check sum: 8e4df49b7f0d34bbd5052bf3f5ea0213
     Pseudo is Ultrasoft, Zval = 12.0
     Generated by new atomic code, or converted to UPF format
     Using radial grid of  851 points,  6 beta functions with:
                l(1) =   0
                l(2) =   0
                l(3) =   1
                l(4) =   1
                l(5) =   2
                l(6) =   2
     Q(r) pseudized with  8 coefficients,  rinner =    1.000   1.000   1.000
                                                       1.000   1.000

     PseudoPot. # 2 for O  read from file:
     /storage/coda1/p-amedford6/0/shared/rich_project_chbe-medford/medford-share/data/pseudos_module/espresso/nninc/pbe/van/O.UPF
     MD5 check sum: 78c19812648e8988a0fe644b0f25305e
     Pseudo is Ultrasoft, Zval =  6.0
     Generated by new atomic code, or converted to UPF format
     Using radial grid of  737 points,  4 beta functions with:
                l(1) =   0
                l(2) =   0
                l(3) =   1
                l(4) =   1
     Q(r) pseudized with  8 coefficients,  rinner =    0.800   0.800   0.800

     PseudoPot. # 3 for C  read from file:
     /storage/coda1/p-amedford6/0/shared/rich_project_chbe-medford/medford-share/data/pseudos_module/espresso/nninc/pbe/van/C.UPF
     MD5 check sum: 1a69bf6b8db32088f5b2163dbdb77a27
     Pseudo is Ultrasoft, Zval =  4.0
     Generated by new atomic code, or converted to UPF format
     Using radial grid of  721 points,  4 beta functions with:
                l(1) =   0
                l(2) =   0
                l(3) =   1
                l(4) =   1
     Q(r) pseudized with  8 coefficients,  rinner =    0.800   0.800   0.800

     PseudoPot. # 4 for H  read from file:
     /storage/coda1/p-amedford6/0/shared/rich_project_chbe-medford/medford-share/data/pseudos_module/espresso/nninc/pbe/van/H.UPF
     MD5 check sum: b5ee9d7bfd3a09ee7748110bda690ff7
     Pseudo is Ultrasoft, Zval =  1.0
     Generated by new atomic code, or converted to UPF format
     Using radial grid of  615 points,  1 beta functions with:
                l(1) =   0
     Q(r) pseudized with  8 coefficients,  rinner =    0.800

     atomic species   valence    mass     pseudopotential
        Ti1           12.00    47.86700     Ti( 1.00)
        O1             6.00    15.99900     O ( 1.00)
        C1             4.00    12.01100     C ( 1.00)
        H1             1.00     1.00800     H ( 1.00)

     No symmetry found

   Cartesian axes

     site n.     atom                  positions (alat units)
         1           Ti1 tau(   1) = (   0.0004258   2.9801865   6.0000000  )
         2           Ti1 tau(   2) = (   3.2906075   1.4906267   6.0002472  )
         3           O1  tau(   3) = (   0.0006271   0.0005054   7.9858123  )
         4           O1  tau(   4) = (   3.2906025   0.0005020   7.3038282  )
         5           O1  tau(   5) = (   4.5942328   1.4918067   9.2879030  )
         6           O1  tau(   6) = (   1.9868534   1.4903216   9.2879459  )
         7           Ti1 tau(   7) = (   3.2791254   2.8632543   9.1696858  )
         8           Ti1 tau(   8) = (   6.5716288   1.4291880   9.3745659  )
         9           O1  tau(   9) = (   3.2719631   5.9564768  11.3413791  )
        10           O1  tau(  10) = (   6.5766582   5.9454684  10.5603319  )
        11           O1  tau(  11) = (   1.2606928   1.4857163  12.6338655  )
        12           O1  tau(  12) = (   5.2561023   1.4877827  12.6114660  )
        13           Ti1 tau(  13) = (   0.0646731   2.9540699  12.8218634  )
        14           Ti1 tau(  14) = (   3.3836270   1.4660460  12.4955168  )
        15           O1  tau(  15) = (   6.5457659   5.9184216  14.5915085  )
        16           O1  tau(  16) = (   3.2744135   0.0171945  13.9516778  )
        17           O1  tau(  17) = (   4.5159629   1.5536209  16.0418326  )
        18           O1  tau(  18) = (   1.9981799   1.5541948  16.0447984  )
        19           Ti1 tau(  19) = (   3.2528476   3.0136947  15.6822407  )
        20           Ti1 tau(  20) = (   6.5571992   1.6159626  16.1493948  )
        21           O1  tau(  21) = (   3.2904802   0.0005063   4.7018136  )
        22           O1  tau(  22) = (   6.5499432   0.0285508  17.2403840  )
        23           O1  tau(  23) = (   1.3043587   1.4918075   6.0039043  )
        24           O1  tau(  24) = (   5.2767064   1.4903225   6.0039473  )
        25           Ti1 tau(  25) = (   0.0000382   5.9609847   6.0000000  )
        26           Ti1 tau(  26) = (   3.2902200   4.4714249   6.0002472  )
        27           O1  tau(  27) = (   0.0002396   2.9813036   7.9858123  )
        28           O1  tau(  28) = (   3.2902150   2.9813002   7.3038282  )
        29           O1  tau(  29) = (   4.5938453   4.4726049   9.2879030  )
        30           O1  tau(  30) = (   1.9864658   4.4711199   9.2879459  )
        31           Ti1 tau(  31) = (   3.2865685   5.8444178   9.1628351  )
        32           Ti1 tau(  32) = (   6.5743218   4.4049426   9.3738558  )
        33           O1  tau(  33) = (   3.2769956   2.9705820  11.3381082  )
        34           O1  tau(  34) = (   6.5775985   2.9640992  10.5572898  )
        35           O1  tau(  35) = (   1.2629977   4.4457513  12.6272354  )
        36           O1  tau(  36) = (   5.2537740   4.4534837  12.6036699  )
        37           Ti1 tau(  37) = (   0.0534783   5.9329931  12.7718795  )
        38           Ti1 tau(  38) = (   3.3808541   4.4548706  12.4760825  )
        39           O1  tau(  39) = (   6.5578179   2.9671967  14.6759119  )
        40           O1  tau(  40) = (   3.2646438   2.9894133  13.8927730  )
        41           O1  tau(  41) = (   4.5094683   4.4833613  16.0328582  )
        42           O1  tau(  42) = (   2.0033084   4.4836886  16.0339364  )
        43           Ti1 tau(  43) = (   3.2772676   0.0291193  15.7865657  )
        44           Ti1 tau(  44) = (   6.5620481   4.6241259  16.1080240  )
        45           O1  tau(  45) = (   3.2900926   2.9813045   4.7018136  )
        46           O1  tau(  46) = (   1.3039711   4.4726057   6.0039043  )
        47           O1  tau(  47) = (   5.2763189   4.4711207   6.0039473  )
        48           C1  tau(  48) = (   6.5362552   2.9989010  17.5868729  )
        49           H1  tau(  49) = (   0.8535040   3.1223538  18.1993289  )
        50           H1  tau(  50) = (   5.6340823   3.1149880  18.1772116  )
        51           O1  tau(  51) = (   3.2614802   0.0224742  18.1496266  )
        52           H1  tau(  52) = (   4.0528939   5.9570843  18.7024920  )
        53           H1  tau(  53) = (   2.4635753   0.0005096  18.6943540  )

     number of k points=    10  Fermi-Dirac smearing, width (Ry)=  0.0073
                       cart. coord. in units 2pi/alat
        k(    1) = (   0.0000000   0.0000000   0.0000000), wk =   0.1250000
        k(    2) = (   0.0000000   0.0419351   0.0000000), wk =   0.2500000
        k(    3) = (   0.0000000  -0.0838702   0.0000000), wk =   0.1250000
        k(    4) = (   0.0379955   0.0000049   0.0000000), wk =   0.2500000
        k(    5) = (   0.0379955   0.0419400   0.0000000), wk =   0.2500000
        k(    6) = (   0.0379955  -0.0838652   0.0000000), wk =   0.2500000
        k(    7) = (   0.0379955  -0.0419301   0.0000000), wk =   0.2500000
        k(    8) = (  -0.0759910  -0.0000099   0.0000000), wk =   0.1250000
        k(    9) = (  -0.0759910   0.0419252   0.0000000), wk =   0.2500000
        k(   10) = (  -0.0759910  -0.0838800   0.0000000), wk =   0.1250000

     Initial potential from superposition of free atoms

     starting charge  375.99917, renormalised to  392.00000

     negative rho (up, down):  1.851E-02 0.000E+00

     %%%%%%%%%%%%%%%%%%%%%%%%%%%%%%%%%%%%%%%%%%%%%%%%%%%%%%%%%%%%%%%%%%%%%%%%
     %                                                                      %
     % You are using vdW-DF, which was implemented by the Thonhauser group. %
     % Please cite the following two papers that made this development      %
     % possible and the two reviews that describe the various versions:     %
     %                                                                      %
     %   T. Thonhauser et al., PRL 115, 136402 (2015).                      %
     %   T. Thonhauser et al., PRB 76, 125112 (2007).                       %
     %   K. Berland et al., Rep. Prog. Phys. 78, 066501 (2015).             %
     %   D.C. Langreth et al., J. Phys.: Condens. Matter 21, 084203 (2009). %
     %                                                                      %
     %                                                                      %
     % If you are calculating the stress with vdW-DF, please also cite:     %
     %                                                                      %
     %   R. Sabatini et al., J. Phys.: Condens. Matter 24, 424209 (2012).   %
     %                                                                      %
     %%%%%%%%%%%%%%%%%%%%%%%%%%%%%%%%%%%%%%%%%%%%%%%%%%%%%%%%%%%%%%%%%%%%%%%%

     Adding external electric field

     Computed dipole along edir(3) :
        Dipole               -5.1805 Ry au,        -13.1674 Debye
        Dipole field         -0.0098 Ry au,

        Potential amp.        0.9062 Ry
        Total length         46.3494 bohr

     Starting wfcs are  296 atomic wfcs
  @ DRIVER MODE: Message from server: STATUS
  @ DRIVER MODE: Message from server: POSDATA
  @ DRIVER MODE: Reading and sharing cell
  @ DRIVER MODE: Reading and sharing positions
  @ DRIVER MODE: Received positions

     Self-consistent Calculation

     iteration #  1     ecut=    29.40 Ry     beta= 0.05
     Davidson diagonalization with overlap
     c_bands:  5 eigenvalues not converged
     c_bands:  3 eigenvalues not converged
     c_bands:  4 eigenvalues not converged
     c_bands:  1 eigenvalues not converged
     c_bands:  2 eigenvalues not converged
     c_bands:  1 eigenvalues not converged
     c_bands:  3 eigenvalues not converged
     c_bands:  1 eigenvalues not converged
     ethr =  1.00E-05,  avg # of iterations = 19.5

[...]

     total energy              =   -2834.30327427 Ry
     estimated scf accuracy    <    1087.15434240 Ry

     iteration #  2     ecut=    29.40 Ry     beta= 0.05
     Davidson diagonalization with overlap
     ethr =  1.00E-02,  avg # of iterations = 15.9

[...]

     iteration # 48     ecut=    29.40 Ry     beta= 0.05
     Davidson diagonalization with overlap
     c_bands:  1 eigenvalues not converged
     ethr =  8.75E-07,  avg # of iterations =  8.0

[...]

     total energy              =   -2932.56448296 Ry
     estimated scf accuracy    <       0.00000009 Ry

     iteration # 69     ecut=    29.40 Ry     beta= 0.05
     Davidson diagonalization with overlap
     ethr =  2.31E-11,  avg # of iterations =  5.1

     negative rho (up, down):  1.823E-02 0.000E+00

     Adding external electric field

     Computed dipole along edir(3) :
        Dipole                0.9010 Ry au,          2.2902 Debye
        Dipole field          0.0017 Ry au,

        Potential amp.       -0.1576 Ry
        Total length         46.3494 bohr

     End of self-consistent calculation

          k = 0.0000 0.0000 0.0000 ( 18029 PWs)   bands (ev):

   -56.1838 -56.1497 -55.8903 -55.8408 -55.8029 -55.6983 -55.5895 -55.5611
   -55.5270 -55.5081 -55.4908 -55.4550 -55.1247 -54.9930 -54.9684 -54.9344
   -32.6118 -32.4350 -32.4061 -32.3813 -32.3730 -32.2901 -32.2817 -32.2384
   -32.1765 -32.1097 -32.1034 -32.0680 -32.0569 -32.0534 -32.0474 -32.0222
   -31.9977 -31.9957 -31.9655 -31.8942 -31.8705 -31.8382 -31.8216 -31.8084
   -31.8066 -31.7774 -31.7479 -31.7314 -31.7237 -31.7200 -31.6780 -31.6711
   -31.6697 -31.6632 -31.6487 -31.5945 -31.5733 -31.4207 -31.3723 -31.3682
   -31.3227 -31.2948 -31.2710 -31.1866 -31.1681 -31.1017 -31.0375 -30.9897
   -19.2293 -16.5184 -16.3486 -16.1126 -15.9781 -15.8967 -15.7364 -15.5554
   -15.5467 -15.4581 -15.4347 -15.3586 -15.3497 -15.3156 -15.3033 -15.2954
   -15.2803 -15.2568 -15.2110 -15.1993 -15.1989 -15.1501 -15.0954 -15.0026
   -14.9904 -14.9427 -14.8245 -14.8173 -14.7828 -14.6380 -13.4622 -13.3485
    -8.0924  -7.2712  -3.9967  -3.9284  -3.8111  -3.7191  -3.6940  -3.5788
    -3.3393  -3.2692  -3.0118  -2.9804  -2.9376  -2.8918  -2.8773  -2.7969
    -2.7055  -2.6895  -2.6615  -2.6361  -2.6013  -2.5935  -2.5301  -2.5230
    -2.4982  -2.4922  -2.4287  -2.4139  -2.3715  -2.2352  -2.1855  -2.1606
    -2.1481  -2.1088  -2.0740  -2.0114  -1.9882  -1.9610  -1.9032  -1.7540
    -1.7294  -1.6490  -1.6206  -1.5486  -1.4595  -1.4456  -1.2993  -1.2812
    -1.2451  -1.2339  -1.2063  -1.1540  -1.1344  -1.0273  -0.8971  -0.8183
    -0.7855  -0.7632  -0.7501  -0.7035  -0.6671  -0.6135  -0.6058  -0.5622
    -0.4871  -0.4788  -0.4024  -0.2173  -0.2032  -0.1923  -0.1754  -0.1337
    -0.1038  -0.0824  -0.0380   0.0069   0.0311   0.0894   0.1001   0.1315
     0.1487   0.2261   0.2734   0.3306   0.3369   0.4496   0.5607   0.6194
     0.6406   0.6713   0.7725   0.7839   0.9900   1.0088   1.0593   1.2710
     1.3161   1.6448   1.7164   2.1730   3.0850   3.2603   3.4629   3.5615
     3.5816   3.6770   3.6894   3.8212   3.8784   3.9270

[...]

          k = 0.0380-0.0419 0.0000 ( 17876 PWs)   bands (ev):

[...]

          k =-0.0760-0.0000 0.0000 ( 17886 PWs)   bands (ev):

[...]

          k =-0.0760-0.0839 0.0000 ( 17948 PWs)   bands (ev):

   -56.1698 -56.1637 -55.8887 -55.8282 -55.8153 -55.6997 -55.5857 -55.5449
   -55.5428 -55.5118 -55.4767 -55.4692 -55.1225 -54.9950 -54.9513 -54.9513
   -32.4318 -32.4267 -32.4237 -32.4163 -32.3282 -32.3230 -32.1956 -32.1831
   -32.1689 -32.1577 -32.1056 -32.0912 -32.0519 -32.0319 -32.0280 -32.0162
   -31.9982 -31.9020 -31.9018 -31.8752 -31.8746 -31.8391 -31.8163 -31.8064
   -31.8040 -31.7962 -31.7899 -31.7863 -31.7575 -31.7556 -31.7542 -31.7386
   -31.6920 -31.6849 -31.6818 -31.6749 -31.4832 -31.4193 -31.3762 -31.2952
   -31.2839 -31.2839 -31.2789 -31.1826 -31.1823 -31.1443 -31.1441 -31.0505
   -19.2286 -16.0080 -15.8978 -15.7448 -15.7048 -15.6613 -15.6609 -15.6307
   -15.5972 -15.5617 -15.5554 -15.4653 -15.4340 -15.4202 -15.4081 -15.3431
   -15.3373 -15.3325 -15.3288 -15.2681 -15.2615 -15.1471 -15.1393 -15.0596
   -15.0492 -15.0196 -14.9974 -14.9541 -14.9477 -14.7888 -13.4509 -13.4508
    -8.0970  -7.2643  -3.9176  -3.3085  -3.0901  -2.9688  -2.9300  -2.8041
    -2.7932  -2.7870  -2.7793  -2.7679  -2.7277  -2.6726  -2.6527  -2.6408
    -2.6154  -2.6023  -2.5745  -2.5663  -2.5391  -2.5373  -2.5317  -2.5276
    -2.5095  -2.4918  -2.4352  -2.4267  -2.4106  -2.3811  -2.3020  -2.2870
    -2.1964  -2.1117  -2.0772  -2.0758  -2.0157  -1.9806  -1.8983  -1.8898
    -1.8734  -1.8681  -1.8046  -1.6114  -1.5558  -1.5507  -1.5136  -1.4787
    -1.3179  -1.2798  -1.2190  -1.1774  -1.1460  -1.1332  -1.0581  -1.0468
    -1.0210  -0.9670  -0.9624  -0.9554  -0.9395  -0.8586  -0.8422  -0.8154
    -0.7409  -0.6998  -0.6837  -0.6576  -0.6272  -0.5743  -0.4897  -0.4666
    -0.4544  -0.4398  -0.3109  -0.2733  -0.2454  -0.2056  -0.1573   0.1082
     0.1180   0.1958   0.3003   0.3926   0.4342   0.5364   0.5543   0.5609
     0.6871   0.7004   0.7059   0.7148   0.8154   0.8222   0.8569   1.4444
     1.4467   1.4992   1.5005   2.4427   3.6079   3.6149   3.6267   3.6320
     3.6546   3.6848   3.7043   3.7355   4.0260   4.0415

     the Fermi energy is     2.7926 ev

!    total energy              =   -2932.56450735 Ry
     estimated scf accuracy    <       0.00000007 Ry
     smearing contrib. (-TS)   =      -0.00167590 Ry
     internal energy E=F+TS    =   -2932.56283145 Ry

     The total energy is F=E-TS. E is the sum of the following terms:
     one-electron contribution =  -24523.17242106 Ry
     hartree contribution      =   12349.18743497 Ry
     xc contribution           =    -482.75005136 Ry
     ewald contribution        =    9724.17067397 Ry
     electric field correction =       0.00153204 Ry

     convergence has been achieved in  69 iterations

     Forces acting on atoms (cartesian axes, Ry/au):

     atom    1 type  1   force =     0.00030012   -0.00016038    0.14553376
     atom    2 type  1   force =     0.00005195    0.00071300   -0.16924113
     atom    3 type  2   force =     0.00003737    0.00235328   -0.06021085
     atom    4 type  2   force =    -0.00017163   -0.00141964    0.03906687
     atom    5 type  2   force =    -0.02196276   -0.00032397    0.00359641
     atom    6 type  2   force =     0.01965357   -0.00081367    0.00220512
     atom    7 type  1   force =     0.00012409   -0.00000993    0.00038143
     atom    8 type  1   force =     0.00007040    0.00008861    0.00105981
     atom    9 type  2   force =    -0.00007538   -0.00028627    0.00031737
     atom   10 type  2   force =     0.00010546    0.00014837   -0.00060975
     atom   11 type  2   force =     0.00007942    0.00001828    0.00100468
     atom   12 type  2   force =     0.00072033    0.00009591    0.00105720
     atom   13 type  1   force =    -0.00072433   -0.00016267   -0.00049744
     atom   14 type  1   force =     0.00037715   -0.00104865   -0.00001712
     atom   15 type  2   force =     0.00018250   -0.00015600    0.00098951
     atom   16 type  2   force =    -0.00004922   -0.00028282    0.00144945
     atom   17 type  2   force =     0.00020073   -0.00053942    0.00027902
     atom   18 type  2   force =    -0.00008385   -0.00073580    0.00020239
     atom   19 type  1   force =     0.00076122   -0.00064776   -0.00019404
     atom   20 type  1   force =    -0.00022246    0.00047954   -0.00024036
     atom   21 type  2   force =     0.00012915   -0.00007777    0.10217727
     atom   22 type  2   force =     0.00012242   -0.00002550    0.00002284
     atom   23 type  2   force =    -0.07475017    0.00031984   -0.03448594
     atom   24 type  2   force =     0.07482556    0.00076741   -0.03455627
     atom   25 type  1   force =     0.00009762   -0.00007116    0.14712769
     atom   26 type  1   force =     0.00001267   -0.00209495   -0.16942405
     atom   27 type  2   force =     0.00001597    0.00193315   -0.05937024
     atom   28 type  2   force =    -0.00028754   -0.00139855    0.03995115
     atom   29 type  2   force =    -0.02160666    0.00107676    0.00381815
     atom   30 type  2   force =     0.02035646   -0.00010818    0.00242901
     atom   31 type  1   force =     0.00013243    0.00016850    0.00127861
     atom   32 type  1   force =     0.00006641   -0.00022894    0.00115459
     atom   33 type  2   force =    -0.00010314   -0.00006478   -0.00058122
     atom   34 type  2   force =     0.00010828    0.00010111   -0.00067468
     atom   35 type  2   force =     0.00027388   -0.00037776    0.00076850
     atom   36 type  2   force =     0.00035136   -0.00045121    0.00083643
     atom   37 type  1   force =    -0.00059093   -0.00014840   -0.00059238
     atom   38 type  1   force =     0.00049066    0.00060305   -0.00036229
     atom   39 type  2   force =     0.00029233   -0.00002683   -0.00016339
     atom   40 type  2   force =    -0.00009606   -0.00013979    0.00177064
     atom   41 type  2   force =     0.00017070    0.00046523    0.00040501
     atom   42 type  2   force =    -0.00012122    0.00056850    0.00035342
     atom   43 type  1   force =     0.00036149    0.00056513   -0.00021210
     atom   44 type  1   force =    -0.00029207    0.00021504   -0.00017751
     atom   45 type  2   force =     0.00012032   -0.00010481    0.10210521
     atom   46 type  2   force =    -0.07473963   -0.00002052   -0.03445510
     atom   47 type  2   force =     0.07482960    0.00043772   -0.03455473
     atom   48 type  3   force =     0.00839728   -0.00119958   -0.00418638
     atom   49 type  4   force =     0.00074332   -0.00031721   -0.00097969
     atom   50 type  4   force =    -0.00889259    0.00093843    0.00464054
     atom   51 type  2   force =     0.00023589    0.00100299   -0.00095796
     atom   52 type  4   force =     0.00056207    0.00018345    0.00035345
     atom   53 type  4   force =    -0.00059054    0.00019961    0.00040909

     Total force =     0.400597     Total SCF correction =     0.000552
  @ DRIVER MODE: Message from server: STATUS
  @ DRIVER MODE: Message from server: GETFORCE
  @ DRIVER MODE: Returning v,forces,stress,ensemble

     Writing output data file ./calc.save/
  @ DRIVER MODE: Message from server: EXIT
  @ DRIVE MODE: Exiting

     General routines

     Parallel routines

   This run was terminated on:  20: 7:40  15Sep2021

   JOB DONE.